# vtk DataFile Version 3.0
Generated by Jean Bénézech
ASCII
DATASET UNSTRUCTURED_GRID
POINTS 3944 double
56.19 117.6 312
56.29 117.665 310
56.39 117.73 308
56.49 117.795 306
56.59 117.861 304
56.69 117.926 302
56.79 117.991 300
56.89 118.056 298
56.99 118.121 296
56.09 116.337 314
57.09 116.97 294
55.99 115.077 316
57.09 115.753 294
55.89 113.821 318
57.09 114.537 294
55.89 112.627 318
57.09 113.32 294
55.89 111.432 318
57.09 112.104 294
55.89 110.238 318
57.09 110.887 294
55.89 109.043 318
57.09 109.671 294
55.89 107.849 318
56.99 108.404 296
55.89 106.654 318
56.89 107.14 298
55.89 105.46 318
56.59 105.787 304
56.69 105.834 302
56.79 105.881 300
55.99 104.31 316
56.09 104.355 314
56.19 104.4 312
56.29 104.445 310
56.39 104.49 308
56.49 104.535 306
55.94 117.6 312
56.04 117.665 310
56.14 117.73 308
56.24 117.795 306
56.34 117.861 304
56.44 117.926 302
56.54 117.991 300
56.64 118.056 298
56.74 118.121 296
55.84 116.337 314
56.84 116.97 294
55.74 115.077 316
56.84 115.753 294
55.64 113.821 318
56.84 114.537 294
55.64 112.627 318
56.84 113.32 294
55.64 111.432 318
56.84 112.104 294
55.64 110.238 318
56.84 110.887 294
55.64 109.043 318
56.84 109.671 294
55.64 107.849 318
56.74 108.404 296
55.64 106.654 318
56.64 107.14 298
55.64 105.46 318
56.34 105.787 304
56.44 105.834 302
56.54 105.881 300
55.74 104.31 316
55.84 104.355 314
55.94 104.4 312
56.04 104.445 310
56.14 104.49 308
56.24 104.535 306
55.69 117.6 312
55.79 117.665 310
55.89 117.73 308
55.99 117.795 306
56.09 117.861 304
56.19 117.926 302
56.29 117.991 300
56.39 118.056 298
56.49 118.121 296
55.59 116.337 314
56.59 116.97 294
55.49 115.077 316
56.59 115.753 294
55.39 113.821 318
56.59 114.537 294
55.39 112.627 318
56.59 113.32 294
55.39 111.432 318
56.59 112.104 294
55.39 110.238 318
56.59 110.887 294
55.39 109.043 318
56.59 109.671 294
55.39 107.849 318
56.49 108.404 296
55.39 106.654 318
56.39 107.14 298
55.39 105.46 318
56.09 105.787 304
56.19 105.834 302
56.29 105.881 300
55.49 104.31 316
55.59 104.355 314
55.69 104.4 312
55.79 104.445 310
55.89 104.49 308
55.99 104.535 306
55.68 117.6 312
55.78 117.665 310
55.88 117.73 308
55.98 117.795 306
56.08 117.861 304
56.18 117.926 302
56.28 117.991 300
56.38 118.056 298
56.48 118.121 296
55.58 116.337 314
56.58 116.97 294
55.48 115.077 316
56.58 115.753 294
55.38 113.821 318
56.58 114.537 294
55.38 112.627 318
56.58 113.32 294
55.38 111.432 318
56.58 112.104 294
55.38 110.238 318
56.58 110.887 294
55.38 109.043 318
56.58 109.671 294
55.38 107.849 318
56.48 108.404 296
55.38 106.654 318
56.38 107.14 298
55.38 105.46 318
56.08 105.787 304
56.18 105.834 302
56.28 105.881 300
55.48 104.31 316
55.58 104.355 314
55.68 104.4 312
55.78 104.445 310
55.88 104.49 308
55.98 104.535 306
55.43 117.6 312
55.53 117.665 310
55.63 117.73 308
55.73 117.795 306
55.83 117.861 304
55.93 117.926 302
56.03 117.991 300
56.13 118.056 298
56.23 118.121 296
55.33 116.337 314
56.33 116.97 294
55.23 115.077 316
56.33 115.753 294
55.13 113.821 318
56.33 114.537 294
55.13 112.627 318
56.33 113.32 294
55.13 111.432 318
56.33 112.104 294
55.13 110.238 318
56.33 110.887 294
55.13 109.043 318
56.33 109.671 294
55.13 107.849 318
56.23 108.404 296
55.13 106.654 318
56.13 107.14 298
55.13 105.46 318
55.83 105.787 304
55.93 105.834 302
56.03 105.881 300
55.23 104.31 316
55.33 104.355 314
55.43 104.4 312
55.53 104.445 310
55.63 104.49 308
55.73 104.535 306
55.42 117.6 312
55.52 117.665 310
55.62 117.73 308
55.72 117.795 306
55.82 117.861 304
55.92 117.926 302
56.02 117.991 300
56.12 118.056 298
56.22 118.121 296
55.32 116.337 314
56.32 116.97 294
55.22 115.077 316
56.32 115.753 294
55.12 113.821 318
56.32 114.537 294
55.12 112.627 318
56.32 113.32 294
55.12 111.432 318
56.32 112.104 294
55.12 110.238 318
56.32 110.887 294
55.12 109.043 318
56.32 109.671 294
55.12 107.849 318
56.22 108.404 296
55.12 106.654 318
56.12 107.14 298
55.12 105.46 318
55.82 105.787 304
55.92 105.834 302
56.02 105.881 300
55.22 104.31 316
55.32 104.355 314
55.42 104.4 312
55.52 104.445 310
55.62 104.49 308
55.72 104.535 306
55.17 117.6 312
55.27 117.665 310
55.37 117.73 308
55.47 117.795 306
55.57 117.861 304
55.67 117.926 302
55.77 117.991 300
55.87 118.056 298
55.97 118.121 296
55.07 116.337 314
56.07 116.97 294
54.97 115.077 316
56.07 115.753 294
54.87 113.821 318
56.07 114.537 294
54.87 112.627 318
56.07 113.32 294
54.87 111.432 318
56.07 112.104 294
54.87 110.238 318
56.07 110.887 294
54.87 109.043 318
56.07 109.671 294
54.87 107.849 318
55.97 108.404 296
54.87 106.654 318
55.87 107.14 298
54.87 105.46 318
55.57 105.787 304
55.67 105.834 302
55.77 105.881 300
54.97 104.31 316
55.07 104.355 314
55.17 104.4 312
55.27 104.445 310
55.37 104.49 308
55.47 104.535 306
54.92 117.6 312
55.02 117.665 310
55.12 117.73 308
55.22 117.795 306
55.32 117.861 304
55.42 117.926 302
55.52 117.991 300
55.62 118.056 298
55.72 118.121 296
54.82 116.337 314
55.82 116.97 294
54.72 115.077 316
55.82 115.753 294
54.62 113.821 318
55.82 114.537 294
54.62 112.627 318
55.82 113.32 294
54.62 111.432 318
55.82 112.104 294
54.62 110.238 318
55.82 110.887 294
54.62 109.043 318
55.82 109.671 294
54.62 107.849 318
55.72 108.404 296
54.62 106.654 318
55.62 107.14 298
54.62 105.46 318
55.32 105.787 304
55.42 105.834 302
55.52 105.881 300
54.72 104.31 316
54.82 104.355 314
54.92 104.4 312
55.02 104.445 310
55.12 104.49 308
55.22 104.535 306
54.67 117.6 312
54.77 117.665 310
54.87 117.73 308
54.97 117.795 306
55.07 117.861 304
55.17 117.926 302
55.27 117.991 300
55.37 118.056 298
55.47 118.121 296
54.57 116.337 314
55.57 116.97 294
54.47 115.077 316
55.57 115.753 294
54.37 113.821 318
55.57 114.537 294
54.37 112.627 318
55.57 113.32 294
54.37 111.432 318
55.57 112.104 294
54.37 110.238 318
55.57 110.887 294
54.37 109.043 318
55.57 109.671 294
54.37 107.849 318
55.47 108.404 296
54.37 106.654 318
55.37 107.14 298
54.37 105.46 318
55.07 105.787 304
55.17 105.834 302
55.27 105.881 300
54.47 104.31 316
54.57 104.355 314
54.67 104.4 312
54.77 104.445 310
54.87 104.49 308
54.97 104.535 306
54.42 117.6 312
54.52 117.665 310
54.62 117.73 308
54.72 117.795 306
54.82 117.861 304
54.92 117.926 302
55.02 117.991 300
55.12 118.056 298
55.22 118.121 296
54.32 116.337 314
55.32 116.97 294
54.22 115.077 316
55.32 115.753 294
54.12 113.821 318
55.32 114.537 294
54.12 112.627 318
55.32 113.32 294
54.12 111.432 318
55.32 112.104 294
54.12 110.238 318
55.32 110.887 294
54.12 109.043 318
55.32 109.671 294
54.12 107.849 318
55.22 108.404 296
54.12 106.654 318
55.12 107.14 298
54.12 105.46 318
54.82 105.787 304
54.92 105.834 302
55.02 105.881 300
54.22 104.31 316
54.32 104.355 314
54.42 104.4 312
54.52 104.445 310
54.62 104.49 308
54.72 104.535 306
54.17 117.6 312
54.27 117.665 310
54.37 117.73 308
54.47 117.795 306
54.57 117.861 304
54.67 117.926 302
54.77 117.991 300
54.87 118.056 298
54.97 118.121 296
54.07 116.337 314
55.07 116.97 294
53.97 115.077 316
55.07 115.753 294
53.87 113.821 318
55.07 114.537 294
53.87 112.627 318
55.07 113.32 294
53.87 111.432 318
55.07 112.104 294
53.87 110.238 318
55.07 110.887 294
53.87 109.043 318
55.07 109.671 294
53.87 107.849 318
54.97 108.404 296
53.87 106.654 318
54.87 107.14 298
53.87 105.46 318
54.57 105.787 304
54.67 105.834 302
54.77 105.881 300
53.97 104.31 316
54.07 104.355 314
54.17 104.4 312
54.27 104.445 310
54.37 104.49 308
54.47 104.535 306
53.92 117.6 312
54.02 117.665 310
54.12 117.73 308
54.22 117.795 306
54.32 117.861 304
54.42 117.926 302
54.52 117.991 300
54.62 118.056 298
54.72 118.121 296
53.82 116.337 314
54.82 116.97 294
53.72 115.077 316
54.82 115.753 294
53.62 113.821 318
54.82 114.537 294
53.62 112.627 318
54.82 113.32 294
53.62 111.432 318
54.82 112.104 294
53.62 110.238 318
54.82 110.887 294
53.62 109.043 318
54.82 109.671 294
53.62 107.849 318
54.72 108.404 296
53.62 106.654 318
54.62 107.14 298
53.62 105.46 318
54.32 105.787 304
54.42 105.834 302
54.52 105.881 300
53.72 104.31 316
53.82 104.355 314
53.92 104.4 312
54.02 104.445 310
54.12 104.49 308
54.22 104.535 306
53.67 117.6 312
53.77 117.665 310
53.87 117.73 308
53.97 117.795 306
54.07 117.861 304
54.17 117.926 302
54.27 117.991 300
54.37 118.056 298
54.47 118.121 296
53.57 116.337 314
54.57 116.97 294
53.47 115.077 316
54.57 115.753 294
53.37 113.821 318
54.57 114.537 294
53.37 112.627 318
54.57 113.32 294
53.37 111.432 318
54.57 112.104 294
53.37 110.238 318
54.57 110.887 294
53.37 109.043 318
54.57 109.671 294
53.37 107.849 318
54.47 108.404 296
53.37 106.654 318
54.37 107.14 298
53.37 105.46 318
54.07 105.787 304
54.17 105.834 302
54.27 105.881 300
53.47 104.31 316
53.57 104.355 314
53.67 104.4 312
53.77 104.445 310
53.87 104.49 308
53.97 104.535 306
53.66 117.6 312
53.76 117.665 310
53.86 117.73 308
53.96 117.795 306
54.06 117.861 304
54.16 117.926 302
54.26 117.991 300
54.36 118.056 298
54.46 118.121 296
53.56 116.337 314
54.56 116.97 294
53.46 115.077 316
54.56 115.753 294
53.36 113.821 318
54.56 114.537 294
53.36 112.627 318
54.56 113.32 294
53.36 111.432 318
54.56 112.104 294
53.36 110.238 318
54.56 110.887 294
53.36 109.043 318
54.56 109.671 294
53.36 107.849 318
54.46 108.404 296
53.36 106.654 318
54.36 107.14 298
53.36 105.46 318
54.06 105.787 304
54.16 105.834 302
54.26 105.881 300
53.46 104.31 316
53.56 104.355 314
53.66 104.4 312
53.76 104.445 310
53.86 104.49 308
53.96 104.535 306
53.41 117.6 312
53.51 117.665 310
53.61 117.73 308
53.71 117.795 306
53.81 117.861 304
53.91 117.926 302
54.01 117.991 300
54.11 118.056 298
54.21 118.121 296
53.31 116.337 314
54.31 116.97 294
53.21 115.077 316
54.31 115.753 294
53.11 113.821 318
54.31 114.537 294
53.11 112.627 318
54.31 113.32 294
53.11 111.432 318
54.31 112.104 294
53.11 110.238 318
54.31 110.887 294
53.11 109.043 318
54.31 109.671 294
53.11 107.849 318
54.21 108.404 296
53.11 106.654 318
54.11 107.14 298
53.11 105.46 318
53.81 105.787 304
53.91 105.834 302
54.01 105.881 300
53.21 104.31 316
53.31 104.355 314
53.41 104.4 312
53.51 104.445 310
53.61 104.49 308
53.71 104.535 306
53.16 117.6 312
53.26 117.665 310
53.36 117.73 308
53.46 117.795 306
53.56 117.861 304
53.66 117.926 302
53.76 117.991 300
53.86 118.056 298
53.96 118.121 296
53.06 116.337 314
54.06 116.97 294
52.96 115.077 316
54.06 115.753 294
52.86 113.821 318
54.06 114.537 294
52.86 112.627 318
54.06 113.32 294
52.86 111.432 318
54.06 112.104 294
52.86 110.238 318
54.06 110.887 294
52.86 109.043 318
54.06 109.671 294
52.86 107.849 318
53.96 108.404 296
52.86 106.654 318
53.86 107.14 298
52.86 105.46 318
53.56 105.787 304
53.66 105.834 302
53.76 105.881 300
52.96 104.31 316
53.06 104.355 314
53.16 104.4 312
53.26 104.445 310
53.36 104.49 308
53.46 104.535 306
52.91 117.6 312
53.01 117.665 310
53.11 117.73 308
53.21 117.795 306
53.31 117.861 304
53.41 117.926 302
53.51 117.991 300
53.61 118.056 298
53.71 118.121 296
52.81 116.337 314
53.81 116.97 294
52.71 115.077 316
53.81 115.753 294
52.61 113.821 318
53.81 114.537 294
52.61 112.627 318
53.81 113.32 294
52.61 111.432 318
53.81 112.104 294
52.61 110.238 318
53.81 110.887 294
52.61 109.043 318
53.81 109.671 294
52.61 107.849 318
53.71 108.404 296
52.61 106.654 318
53.61 107.14 298
52.61 105.46 318
53.31 105.787 304
53.41 105.834 302
53.51 105.881 300
52.71 104.31 316
52.81 104.355 314
52.91 104.4 312
53.01 104.445 310
53.11 104.49 308
53.21 104.535 306
52.66 117.6 312
52.76 117.665 310
52.86 117.73 308
52.96 117.795 306
53.06 117.861 304
53.16 117.926 302
53.26 117.991 300
53.36 118.056 298
53.46 118.121 296
52.56 116.337 314
53.56 116.97 294
52.46 115.077 316
53.56 115.753 294
52.36 113.821 318
53.56 114.537 294
52.36 112.627 318
53.56 113.32 294
52.36 111.432 318
53.56 112.104 294
52.36 110.238 318
53.56 110.887 294
52.36 109.043 318
53.56 109.671 294
52.36 107.849 318
53.46 108.404 296
52.36 106.654 318
53.36 107.14 298
52.36 105.46 318
53.06 105.787 304
53.16 105.834 302
53.26 105.881 300
52.46 104.31 316
52.56 104.355 314
52.66 104.4 312
52.76 104.445 310
52.86 104.49 308
52.96 104.535 306
52.41 117.6 312
52.51 117.665 310
52.61 117.73 308
52.71 117.795 306
52.81 117.861 304
52.91 117.926 302
53.01 117.991 300
53.11 118.056 298
53.21 118.121 296
52.31 116.337 314
53.31 116.97 294
52.21 115.077 316
53.31 115.753 294
52.11 113.821 318
53.31 114.537 294
52.11 112.627 318
53.31 113.32 294
52.11 111.432 318
53.31 112.104 294
52.11 110.238 318
53.31 110.887 294
52.11 109.043 318
53.31 109.671 294
52.11 107.849 318
53.21 108.404 296
52.11 106.654 318
53.11 107.14 298
52.11 105.46 318
52.81 105.787 304
52.91 105.834 302
53.01 105.881 300
52.21 104.31 316
52.31 104.355 314
52.41 104.4 312
52.51 104.445 310
52.61 104.49 308
52.71 104.535 306
52.16 117.6 312
52.26 117.665 310
52.36 117.73 308
52.46 117.795 306
52.56 117.861 304
52.66 117.926 302
52.76 117.991 300
52.86 118.056 298
52.96 118.121 296
52.06 116.337 314
53.06 116.97 294
51.96 115.077 316
53.06 115.753 294
51.86 113.821 318
53.06 114.537 294
51.86 112.627 318
53.06 113.32 294
51.86 111.432 318
53.06 112.104 294
51.86 110.238 318
53.06 110.887 294
51.86 109.043 318
53.06 109.671 294
51.86 107.849 318
52.96 108.404 296
51.86 106.654 318
52.86 107.14 298
51.86 105.46 318
52.56 105.787 304
52.66 105.834 302
52.76 105.881 300
51.96 104.31 316
52.06 104.355 314
52.16 104.4 312
52.26 104.445 310
52.36 104.49 308
52.46 104.535 306
51.91 117.6 312
52.01 117.665 310
52.11 117.73 308
52.21 117.795 306
52.31 117.861 304
52.41 117.926 302
52.51 117.991 300
52.61 118.056 298
52.71 118.121 296
51.81 116.337 314
52.81 116.97 294
51.71 115.077 316
52.81 115.753 294
51.61 113.821 318
52.81 114.537 294
51.61 112.627 318
52.81 113.32 294
51.61 111.432 318
52.81 112.104 294
51.61 110.238 318
52.81 110.887 294
51.61 109.043 318
52.81 109.671 294
51.61 107.849 318
52.71 108.404 296
51.61 106.654 318
52.61 107.14 298
51.61 105.46 318
52.31 105.787 304
52.41 105.834 302
52.51 105.881 300
51.71 104.31 316
51.81 104.355 314
51.91 104.4 312
52.01 104.445 310
52.11 104.49 308
52.21 104.535 306
51.66 117.6 312
51.76 117.665 310
51.86 117.73 308
51.96 117.795 306
52.06 117.861 304
52.16 117.926 302
52.26 117.991 300
52.36 118.056 298
52.46 118.121 296
51.56 116.337 314
52.56 116.97 294
51.46 115.077 316
52.56 115.753 294
51.36 113.821 318
52.56 114.537 294
51.36 112.627 318
52.56 113.32 294
51.36 111.432 318
52.56 112.104 294
51.36 110.238 318
52.56 110.887 294
51.36 109.043 318
52.56 109.671 294
51.36 107.849 318
52.46 108.404 296
51.36 106.654 318
52.36 107.14 298
51.36 105.46 318
52.06 105.787 304
52.16 105.834 302
52.26 105.881 300
51.46 104.31 316
51.56 104.355 314
51.66 104.4 312
51.76 104.445 310
51.86 104.49 308
51.96 104.535 306
51.4 117.6 312
51.41 117.6 312
51.5 117.665 310
51.51 117.665 310
51.6 117.73 308
51.61 117.73 308
51.7 117.795 306
51.71 117.795 306
51.8 117.861 304
51.81 117.861 304
51.9 117.926 302
51.91 117.926 302
52 117.991 300
52.01 117.991 300
52.1 118.056 298
52.11 118.056 298
52.2 118.121 296
52.21 118.121 296
51.3 116.337 314
51.31 116.337 314
52.3 116.97 294
52.31 116.97 294
51.2 115.077 316
51.21 115.077 316
52.3 115.753 294
52.31 115.753 294
51.1 113.821 318
51.11 113.821 318
52.3 114.537 294
52.31 114.537 294
51.1 112.627 318
51.11 112.627 318
52.3 113.32 294
52.31 113.32 294
51.1 111.432 318
51.11 111.432 318
52.3 112.104 294
52.31 112.104 294
51.1 110.238 318
51.11 110.238 318
52.3 110.887 294
52.31 110.887 294
51.1 109.043 318
51.11 109.043 318
52.3 109.671 294
52.31 109.671 294
51.1 107.849 318
51.11 107.849 318
52.2 108.404 296
52.21 108.404 296
51.1 106.654 318
51.11 106.654 318
52.1 107.14 298
52.11 107.14 298
51.1 105.46 318
51.11 105.46 318
51.8 105.787 304
51.81 105.787 304
51.9 105.834 302
51.91 105.834 302
52 105.881 300
52.01 105.881 300
51.2 104.31 316
51.21 104.31 316
51.3 104.355 314
51.31 104.355 314
51.4 104.4 312
51.41 104.4 312
51.5 104.445 310
51.51 104.445 310
51.6 104.49 308
51.61 104.49 308
51.7 104.535 306
51.71 104.535 306
50.9 117.6 312
51.15 117.6 312
51 117.665 310
51.25 117.665 310
51.1 117.73 308
51.35 117.73 308
51.2 117.795 306
51.45 117.795 306
51.3 117.861 304
51.55 117.861 304
51.4 117.926 302
51.65 117.926 302
51.5 117.991 300
51.75 117.991 300
51.6 118.056 298
51.85 118.056 298
51.7 118.121 296
51.95 118.121 296
50.8 116.337 314
51.05 116.337 314
51.8 116.97 294
52.05 116.97 294
50.7 115.077 316
50.95 115.077 316
51.8 115.753 294
52.05 115.753 294
50.6 113.821 318
50.85 113.821 318
51.8 114.537 294
52.05 114.537 294
50.6 112.627 318
50.85 112.627 318
51.8 113.32 294
52.05 113.32 294
50.6 111.432 318
50.85 111.432 318
51.8 112.104 294
52.05 112.104 294
50.6 110.238 318
50.85 110.238 318
51.8 110.887 294
52.05 110.887 294
50.6 109.043 318
50.85 109.043 318
51.8 109.671 294
52.05 109.671 294
50.6 107.849 318
50.85 107.849 318
51.7 108.404 296
51.95 108.404 296
50.6 106.654 318
50.85 106.654 318
51.6 107.14 298
51.85 107.14 298
50.6 105.46 318
50.85 105.46 318
51.3 105.787 304
51.55 105.787 304
51.4 105.834 302
51.65 105.834 302
51.5 105.881 300
51.75 105.881 300
50.7 104.31 316
50.95 104.31 316
50.8 104.355 314
51.05 104.355 314
50.9 104.4 312
51.15 104.4 312
51 104.445 310
51.25 104.445 310
51.1 104.49 308
51.35 104.49 308
51.2 104.535 306
51.45 104.535 306
50.65 117.6 312
50.75 117.665 310
50.85 117.73 308
50.95 117.795 306
51.05 117.861 304
51.15 117.926 302
51.25 117.991 300
51.35 118.056 298
51.45 118.121 296
50.55 116.337 314
51.55 116.97 294
50.45 115.077 316
51.55 115.753 294
50.35 113.821 318
51.55 114.537 294
50.35 112.627 318
51.55 113.32 294
50.35 111.432 318
51.55 112.104 294
50.35 110.238 318
51.55 110.887 294
50.35 109.043 318
51.55 109.671 294
50.35 107.849 318
51.45 108.404 296
50.35 106.654 318
51.35 107.14 298
50.35 105.46 318
51.05 105.787 304
51.15 105.834 302
51.25 105.881 300
50.45 104.31 316
50.55 104.355 314
50.65 104.4 312
50.75 104.445 310
50.85 104.49 308
50.95 104.535 306
56.44 117.6 312
56.54 117.665 310
56.64 117.73 308
56.74 117.795 306
56.84 117.861 304
56.94 117.926 302
57.04 117.991 300
57.14 118.056 298
57.24 118.121 296
56.34 116.337 314
57.34 116.97 294
56.24 115.077 316
57.34 115.753 294
56.14 113.821 318
57.34 114.537 294
56.14 112.627 318
57.34 113.32 294
56.14 111.432 318
57.34 112.104 294
56.14 110.238 318
57.34 110.887 294
56.14 109.043 318
57.34 109.671 294
56.14 107.849 318
57.24 108.404 296
56.14 106.654 318
57.14 107.14 298
56.14 105.46 318
56.84 105.787 304
56.94 105.834 302
57.04 105.881 300
56.24 104.31 316
56.34 104.355 314
56.44 104.4 312
56.54 104.445 310
56.64 104.49 308
56.74 104.535 306
50.4 117.6 312
50.5 117.665 310
50.6 117.73 308
50.7 117.795 306
50.8 117.861 304
50.9 117.926 302
51 117.991 300
51.1 118.056 298
51.2 118.121 296
50.3 116.337 314
51.3 116.97 294
50.2 115.077 316
51.3 115.753 294
50.1 113.821 318
51.3 114.537 294
50.1 112.627 318
51.3 113.32 294
50.1 111.432 318
51.3 112.104 294
50.1 110.238 318
51.3 110.887 294
50.1 109.043 318
51.3 109.671 294
50.1 107.849 318
51.2 108.404 296
50.1 106.654 318
51.1 107.14 298
50.1 105.46 318
50.8 105.787 304
50.9 105.834 302
51 105.881 300
50.2 104.31 316
50.3 104.355 314
50.4 104.4 312
50.5 104.445 310
50.6 104.49 308
50.7 104.535 306
50.7 105.74 306
50.6 105.694 308
50.5 105.647 310
50.4 105.6 312
50.3 105.553 314
50.2 105.506 316
51 107.092 300
50.9 107.043 302
50.8 106.994 304
50.7 106.946 306
50.6 106.897 308
50.5 106.849 310
50.4 106.8 312
50.3 106.751 314
50.2 106.703 316
51.1 108.353 298
51 108.303 300
50.9 108.252 302
50.8 108.202 304
50.7 108.151 306
50.6 108.101 308
50.5 108.05 310
50.4 108 312
50.3 107.95 314
50.2 107.899 316
51.2 109.618 296
51.1 109.566 298
51 109.514 300
50.9 109.461 302
50.8 109.409 304
50.7 109.357 306
50.6 109.305 308
50.5 109.252 310
50.4 109.2 312
50.3 109.148 314
50.2 109.095 316
51.2 110.833 296
51.1 110.779 298
51 110.725 300
50.9 110.671 302
50.8 110.617 304
50.7 110.562 306
50.6 110.508 308
50.5 110.454 310
50.4 110.4 312
50.3 110.346 314
50.2 110.292 316
51.2 112.048 296
51.1 111.992 298
51 111.936 300
50.9 111.88 302
50.8 111.824 304
50.7 111.768 306
50.6 111.712 308
50.5 111.656 310
50.4 111.6 312
50.3 111.544 314
50.2 111.488 316
51.2 113.262 296
51.1 113.205 298
51 113.147 300
50.9 113.089 302
50.8 113.031 304
50.7 112.973 306
50.6 112.916 308
50.5 112.858 310
50.4 112.8 312
50.3 112.742 314
50.2 112.684 316
51.2 114.477 296
51.1 114.417 298
51 114.358 300
50.9 114.298 302
50.8 114.239 304
50.7 114.179 306
50.6 114.119 308
50.5 114.06 310
50.4 114 312
50.3 113.94 314
50.2 113.881 316
51.2 115.692 296
51.1 115.63 298
51 115.569 300
50.9 115.507 302
50.8 115.446 304
50.7 115.384 306
50.6 115.323 308
50.5 115.261 310
50.4 115.2 312
50.3 115.139 314
51.2 116.906 296
51.1 116.843 298
51 116.78 300
50.9 116.717 302
50.8 116.653 304
50.7 116.59 306
50.6 116.527 308
50.5 116.463 310
50.4 116.4 312
56.74 105.74 306
56.64 105.694 308
56.54 105.647 310
56.44 105.6 312
56.34 105.553 314
56.24 105.506 316
57.04 107.092 300
56.94 107.043 302
56.84 106.994 304
56.74 106.946 306
56.64 106.897 308
56.54 106.849 310
56.44 106.8 312
56.34 106.751 314
56.24 106.703 316
57.14 108.353 298
57.04 108.303 300
56.94 108.252 302
56.84 108.202 304
56.74 108.151 306
56.64 108.101 308
56.54 108.05 310
56.44 108 312
56.34 107.95 314
56.24 107.899 316
57.24 109.618 296
57.14 109.566 298
57.04 109.514 300
56.94 109.461 302
56.84 109.409 304
56.74 109.357 306
56.64 109.305 308
56.54 109.252 310
56.44 109.2 312
56.34 109.148 314
56.24 109.095 316
57.24 110.833 296
57.14 110.779 298
57.04 110.725 300
56.94 110.671 302
56.84 110.617 304
56.74 110.562 306
56.64 110.508 308
56.54 110.454 310
56.44 110.4 312
56.34 110.346 314
56.24 110.292 316
57.24 112.048 296
57.14 111.992 298
57.04 111.936 300
56.94 111.88 302
56.84 111.824 304
56.74 111.768 306
56.64 111.712 308
56.54 111.656 310
56.44 111.6 312
56.34 111.544 314
56.24 111.488 316
57.24 113.262 296
57.14 113.205 298
57.04 113.147 300
56.94 113.089 302
56.84 113.031 304
56.74 112.973 306
56.64 112.916 308
56.54 112.858 310
56.44 112.8 312
56.34 112.742 314
56.24 112.684 316
57.24 114.477 296
57.14 114.417 298
57.04 114.358 300
56.94 114.298 302
56.84 114.239 304
56.74 114.179 306
56.64 114.119 308
56.54 114.06 310
56.44 114 312
56.34 113.94 314
56.24 113.881 316
57.24 115.692 296
57.14 115.63 298
57.04 115.569 300
56.94 115.507 302
56.84 115.446 304
56.74 115.384 306
56.64 115.323 308
56.54 115.261 310
56.44 115.2 312
56.34 115.139 314
57.24 116.906 296
57.14 116.843 298
57.04 116.78 300
56.94 116.717 302
56.84 116.653 304
56.74 116.59 306
56.64 116.527 308
56.54 116.463 310
56.44 116.4 312
50.95 105.74 306
50.85 105.694 308
50.75 105.647 310
50.65 105.6 312
50.55 105.553 314
50.45 105.506 316
51.25 107.092 300
51.15 107.043 302
51.05 106.994 304
50.95 106.946 306
50.85 106.897 308
50.75 106.849 310
50.65 106.8 312
50.55 106.751 314
50.45 106.703 316
51.35 108.353 298
51.25 108.303 300
51.15 108.252 302
51.05 108.202 304
50.95 108.151 306
50.85 108.101 308
50.75 108.05 310
50.65 108 312
50.55 107.95 314
50.45 107.899 316
51.45 109.618 296
51.35 109.566 298
51.25 109.514 300
51.15 109.461 302
51.05 109.409 304
50.95 109.357 306
50.85 109.305 308
50.75 109.252 310
50.65 109.2 312
50.55 109.148 314
50.45 109.095 316
51.45 110.833 296
51.35 110.779 298
51.25 110.725 300
51.15 110.671 302
51.05 110.617 304
50.95 110.562 306
50.85 110.508 308
50.75 110.454 310
50.65 110.4 312
50.55 110.346 314
50.45 110.292 316
51.45 112.048 296
51.35 111.992 298
51.25 111.936 300
51.15 111.88 302
51.05 111.824 304
50.95 111.768 306
50.85 111.712 308
50.75 111.656 310
50.65 111.6 312
50.55 111.544 314
50.45 111.488 316
51.45 113.262 296
51.35 113.205 298
51.25 113.147 300
51.15 113.089 302
51.05 113.031 304
50.95 112.973 306
50.85 112.916 308
50.75 112.858 310
50.65 112.8 312
50.55 112.742 314
50.45 112.684 316
51.45 114.477 296
51.35 114.417 298
51.25 114.358 300
51.15 114.298 302
51.05 114.239 304
50.95 114.179 306
50.85 114.119 308
50.75 114.06 310
50.65 114 312
50.55 113.94 314
50.45 113.881 316
51.45 115.692 296
51.35 115.63 298
51.25 115.569 300
51.15 115.507 302
51.05 115.446 304
50.95 115.384 306
50.85 115.323 308
50.75 115.261 310
50.65 115.2 312
50.55 115.139 314
51.45 116.906 296
51.35 116.843 298
51.25 116.78 300
51.15 116.717 302
51.05 116.653 304
50.95 116.59 306
50.85 116.527 308
50.75 116.463 310
50.65 116.4 312
51.45 105.74 306
51.2 105.74 306
51.35 105.694 308
51.1 105.694 308
51.25 105.647 310
51 105.647 310
51.15 105.6 312
50.9 105.6 312
51.05 105.553 314
50.8 105.553 314
50.95 105.506 316
50.7 105.506 316
51.75 107.092 300
51.5 107.092 300
51.65 107.043 302
51.4 107.043 302
51.55 106.994 304
51.3 106.994 304
51.45 106.946 306
51.2 106.946 306
51.35 106.897 308
51.1 106.897 308
51.25 106.849 310
51 106.849 310
51.15 106.8 312
50.9 106.8 312
51.05 106.751 314
50.8 106.751 314
50.95 106.703 316
50.7 106.703 316
51.85 108.353 298
51.6 108.353 298
51.75 108.303 300
51.5 108.303 300
51.65 108.252 302
51.4 108.252 302
51.55 108.202 304
51.3 108.202 304
51.45 108.151 306
51.2 108.151 306
51.35 108.101 308
51.1 108.101 308
51.25 108.05 310
51 108.05 310
51.15 108 312
50.9 108 312
51.05 107.95 314
50.8 107.95 314
50.95 107.899 316
50.7 107.899 316
51.95 109.618 296
51.7 109.618 296
51.85 109.566 298
51.6 109.566 298
51.75 109.514 300
51.5 109.514 300
51.65 109.461 302
51.4 109.461 302
51.55 109.409 304
51.3 109.409 304
51.45 109.357 306
51.2 109.357 306
51.35 109.305 308
51.1 109.305 308
51.25 109.252 310
51 109.252 310
51.15 109.2 312
50.9 109.2 312
51.05 109.148 314
50.8 109.148 314
50.95 109.095 316
50.7 109.095 316
51.95 110.833 296
51.7 110.833 296
51.85 110.779 298
51.6 110.779 298
51.75 110.725 300
51.5 110.725 300
51.65 110.671 302
51.4 110.671 302
51.55 110.617 304
51.3 110.617 304
51.45 110.562 306
51.2 110.562 306
51.35 110.508 308
51.1 110.508 308
51.25 110.454 310
51 110.454 310
51.15 110.4 312
50.9 110.4 312
51.05 110.346 314
50.8 110.346 314
50.95 110.292 316
50.7 110.292 316
51.95 112.048 296
51.7 112.048 296
51.85 111.992 298
51.6 111.992 298
51.75 111.936 300
51.5 111.936 300
51.65 111.88 302
51.4 111.88 302
51.55 111.824 304
51.3 111.824 304
51.45 111.768 306
51.2 111.768 306
51.35 111.712 308
51.1 111.712 308
51.25 111.656 310
51 111.656 310
51.15 111.6 312
50.9 111.6 312
51.05 111.544 314
50.8 111.544 314
50.95 111.488 316
50.7 111.488 316
51.95 113.262 296
51.7 113.262 296
51.85 113.205 298
51.6 113.205 298
51.75 113.147 300
51.5 113.147 300
51.65 113.089 302
51.4 113.089 302
51.55 113.031 304
51.3 113.031 304
51.45 112.973 306
51.2 112.973 306
51.35 112.916 308
51.1 112.916 308
51.25 112.858 310
51 112.858 310
51.15 112.8 312
50.9 112.8 312
51.05 112.742 314
50.8 112.742 314
50.95 112.684 316
50.7 112.684 316
51.95 114.477 296
51.7 114.477 296
51.85 114.417 298
51.6 114.417 298
51.75 114.358 300
51.5 114.358 300
51.65 114.298 302
51.4 114.298 302
51.55 114.239 304
51.3 114.239 304
51.45 114.179 306
51.2 114.179 306
51.35 114.119 308
51.1 114.119 308
51.25 114.06 310
51 114.06 310
51.15 114 312
50.9 114 312
51.05 113.94 314
50.8 113.94 314
50.95 113.881 316
50.7 113.881 316
51.95 115.692 296
51.7 115.692 296
51.85 115.63 298
51.6 115.63 298
51.75 115.569 300
51.5 115.569 300
51.65 115.507 302
51.4 115.507 302
51.55 115.446 304
51.3 115.446 304
51.45 115.384 306
51.2 115.384 306
51.35 115.323 308
51.1 115.323 308
51.25 115.261 310
51 115.261 310
51.15 115.2 312
50.9 115.2 312
51.05 115.139 314
50.8 115.139 314
51.95 116.906 296
51.7 116.906 296
51.85 116.843 298
51.6 116.843 298
51.75 116.78 300
51.5 116.78 300
51.65 116.717 302
51.4 116.717 302
51.55 116.653 304
51.3 116.653 304
51.45 116.59 306
51.2 116.59 306
51.35 116.527 308
51.1 116.527 308
51.25 116.463 310
51 116.463 310
51.15 116.4 312
50.9 116.4 312
51.71 105.74 306
51.7 105.74 306
51.61 105.694 308
51.6 105.694 308
51.51 105.647 310
51.5 105.647 310
51.41 105.6 312
51.4 105.6 312
51.31 105.553 314
51.3 105.553 314
51.21 105.506 316
51.2 105.506 316
52.01 107.092 300
52 107.092 300
51.91 107.043 302
51.9 107.043 302
51.81 106.994 304
51.8 106.994 304
51.71 106.946 306
51.7 106.946 306
51.61 106.897 308
51.6 106.897 308
51.51 106.849 310
51.5 106.849 310
51.41 106.8 312
51.4 106.8 312
51.31 106.751 314
51.3 106.751 314
51.21 106.703 316
51.2 106.703 316
52.11 108.353 298
52.1 108.353 298
52.01 108.303 300
52 108.303 300
51.91 108.252 302
51.9 108.252 302
51.81 108.202 304
51.8 108.202 304
51.71 108.151 306
51.7 108.151 306
51.61 108.101 308
51.6 108.101 308
51.51 108.05 310
51.5 108.05 310
51.41 108 312
51.4 108 312
51.31 107.95 314
51.3 107.95 314
51.21 107.899 316
51.2 107.899 316
52.21 109.618 296
52.2 109.618 296
52.11 109.566 298
52.1 109.566 298
52.01 109.514 300
52 109.514 300
51.91 109.461 302
51.9 109.461 302
51.81 109.409 304
51.8 109.409 304
51.71 109.357 306
51.7 109.357 306
51.61 109.305 308
51.6 109.305 308
51.51 109.252 310
51.5 109.252 310
51.41 109.2 312
51.4 109.2 312
51.31 109.148 314
51.3 109.148 314
51.21 109.095 316
51.2 109.095 316
52.21 110.833 296
52.2 110.833 296
52.11 110.779 298
52.1 110.779 298
52.01 110.725 300
52 110.725 300
51.91 110.671 302
51.9 110.671 302
51.81 110.617 304
51.8 110.617 304
51.71 110.562 306
51.7 110.562 306
51.61 110.508 308
51.6 110.508 308
51.51 110.454 310
51.5 110.454 310
51.41 110.4 312
51.4 110.4 312
51.31 110.346 314
51.3 110.346 314
51.21 110.292 316
51.2 110.292 316
52.21 112.048 296
52.2 112.048 296
52.11 111.992 298
52.1 111.992 298
52.01 111.936 300
52 111.936 300
51.91 111.88 302
51.9 111.88 302
51.81 111.824 304
51.8 111.824 304
51.71 111.768 306
51.7 111.768 306
51.61 111.712 308
51.6 111.712 308
51.51 111.656 310
51.5 111.656 310
51.41 111.6 312
51.4 111.6 312
51.31 111.544 314
51.3 111.544 314
51.21 111.488 316
51.2 111.488 316
52.21 113.262 296
52.2 113.262 296
52.11 113.205 298
52.1 113.205 298
52.01 113.147 300
52 113.147 300
51.91 113.089 302
51.9 113.089 302
51.81 113.031 304
51.8 113.031 304
51.71 112.973 306
51.7 112.973 306
51.61 112.916 308
51.6 112.916 308
51.51 112.858 310
51.5 112.858 310
51.41 112.8 312
51.4 112.8 312
51.31 112.742 314
51.3 112.742 314
51.21 112.684 316
51.2 112.684 316
52.21 114.477 296
52.2 114.477 296
52.11 114.417 298
52.1 114.417 298
52.01 114.358 300
52 114.358 300
51.91 114.298 302
51.9 114.298 302
51.81 114.239 304
51.8 114.239 304
51.71 114.179 306
51.7 114.179 306
51.61 114.119 308
51.6 114.119 308
51.51 114.06 310
51.5 114.06 310
51.41 114 312
51.4 114 312
51.31 113.94 314
51.3 113.94 314
51.21 113.881 316
51.2 113.881 316
52.21 115.692 296
52.2 115.692 296
52.11 115.63 298
52.1 115.63 298
52.01 115.569 300
52 115.569 300
51.91 115.507 302
51.9 115.507 302
51.81 115.446 304
51.8 115.446 304
51.71 115.384 306
51.7 115.384 306
51.61 115.323 308
51.6 115.323 308
51.51 115.261 310
51.5 115.261 310
51.41 115.2 312
51.4 115.2 312
51.31 115.139 314
51.3 115.139 314
52.21 116.906 296
52.2 116.906 296
52.11 116.843 298
52.1 116.843 298
52.01 116.78 300
52 116.78 300
51.91 116.717 302
51.9 116.717 302
51.81 116.653 304
51.8 116.653 304
51.71 116.59 306
51.7 116.59 306
51.61 116.527 308
51.6 116.527 308
51.51 116.463 310
51.5 116.463 310
51.41 116.4 312
51.4 116.4 312
51.96 105.74 306
51.86 105.694 308
51.76 105.647 310
51.66 105.6 312
51.56 105.553 314
51.46 105.506 316
52.26 107.092 300
52.16 107.043 302
52.06 106.994 304
51.96 106.946 306
51.86 106.897 308
51.76 106.849 310
51.66 106.8 312
51.56 106.751 314
51.46 106.703 316
52.36 108.353 298
52.26 108.303 300
52.16 108.252 302
52.06 108.202 304
51.96 108.151 306
51.86 108.101 308
51.76 108.05 310
51.66 108 312
51.56 107.95 314
51.46 107.899 316
52.46 109.618 296
52.36 109.566 298
52.26 109.514 300
52.16 109.461 302
52.06 109.409 304
51.96 109.357 306
51.86 109.305 308
51.76 109.252 310
51.66 109.2 312
51.56 109.148 314
51.46 109.095 316
52.46 110.833 296
52.36 110.779 298
52.26 110.725 300
52.16 110.671 302
52.06 110.617 304
51.96 110.562 306
51.86 110.508 308
51.76 110.454 310
51.66 110.4 312
51.56 110.346 314
51.46 110.292 316
52.46 112.048 296
52.36 111.992 298
52.26 111.936 300
52.16 111.88 302
52.06 111.824 304
51.96 111.768 306
51.86 111.712 308
51.76 111.656 310
51.66 111.6 312
51.56 111.544 314
51.46 111.488 316
52.46 113.262 296
52.36 113.205 298
52.26 113.147 300
52.16 113.089 302
52.06 113.031 304
51.96 112.973 306
51.86 112.916 308
51.76 112.858 310
51.66 112.8 312
51.56 112.742 314
51.46 112.684 316
52.46 114.477 296
52.36 114.417 298
52.26 114.358 300
52.16 114.298 302
52.06 114.239 304
51.96 114.179 306
51.86 114.119 308
51.76 114.06 310
51.66 114 312
51.56 113.94 314
51.46 113.881 316
52.46 115.692 296
52.36 115.63 298
52.26 115.569 300
52.16 115.507 302
52.06 115.446 304
51.96 115.384 306
51.86 115.323 308
51.76 115.261 310
51.66 115.2 312
51.56 115.139 314
52.46 116.906 296
52.36 116.843 298
52.26 116.78 300
52.16 116.717 302
52.06 116.653 304
51.96 116.59 306
51.86 116.527 308
51.76 116.463 310
51.66 116.4 312
52.21 105.74 306
52.11 105.694 308
52.01 105.647 310
51.91 105.6 312
51.81 105.553 314
51.71 105.506 316
52.51 107.092 300
52.41 107.043 302
52.31 106.994 304
52.21 106.946 306
52.11 106.897 308
52.01 106.849 310
51.91 106.8 312
51.81 106.751 314
51.71 106.703 316
52.61 108.353 298
52.51 108.303 300
52.41 108.252 302
52.31 108.202 304
52.21 108.151 306
52.11 108.101 308
52.01 108.05 310
51.91 108 312
51.81 107.95 314
51.71 107.899 316
52.71 109.618 296
52.61 109.566 298
52.51 109.514 300
52.41 109.461 302
52.31 109.409 304
52.21 109.357 306
52.11 109.305 308
52.01 109.252 310
51.91 109.2 312
51.81 109.148 314
51.71 109.095 316
52.71 110.833 296
52.61 110.779 298
52.51 110.725 300
52.41 110.671 302
52.31 110.617 304
52.21 110.562 306
52.11 110.508 308
52.01 110.454 310
51.91 110.4 312
51.81 110.346 314
51.71 110.292 316
52.71 112.048 296
52.61 111.992 298
52.51 111.936 300
52.41 111.88 302
52.31 111.824 304
52.21 111.768 306
52.11 111.712 308
52.01 111.656 310
51.91 111.6 312
51.81 111.544 314
51.71 111.488 316
52.71 113.262 296
52.61 113.205 298
52.51 113.147 300
52.41 113.089 302
52.31 113.031 304
52.21 112.973 306
52.11 112.916 308
52.01 112.858 310
51.91 112.8 312
51.81 112.742 314
51.71 112.684 316
52.71 114.477 296
52.61 114.417 298
52.51 114.358 300
52.41 114.298 302
52.31 114.239 304
52.21 114.179 306
52.11 114.119 308
52.01 114.06 310
51.91 114 312
51.81 113.94 314
51.71 113.881 316
52.71 115.692 296
52.61 115.63 298
52.51 115.569 300
52.41 115.507 302
52.31 115.446 304
52.21 115.384 306
52.11 115.323 308
52.01 115.261 310
51.91 115.2 312
51.81 115.139 314
52.71 116.906 296
52.61 116.843 298
52.51 116.78 300
52.41 116.717 302
52.31 116.653 304
52.21 116.59 306
52.11 116.527 308
52.01 116.463 310
51.91 116.4 312
52.46 105.74 306
52.36 105.694 308
52.26 105.647 310
52.16 105.6 312
52.06 105.553 314
51.96 105.506 316
52.76 107.092 300
52.66 107.043 302
52.56 106.994 304
52.46 106.946 306
52.36 106.897 308
52.26 106.849 310
52.16 106.8 312
52.06 106.751 314
51.96 106.703 316
52.86 108.353 298
52.76 108.303 300
52.66 108.252 302
52.56 108.202 304
52.46 108.151 306
52.36 108.101 308
52.26 108.05 310
52.16 108 312
52.06 107.95 314
51.96 107.899 316
52.96 109.618 296
52.86 109.566 298
52.76 109.514 300
52.66 109.461 302
52.56 109.409 304
52.46 109.357 306
52.36 109.305 308
52.26 109.252 310
52.16 109.2 312
52.06 109.148 314
51.96 109.095 316
52.96 110.833 296
52.86 110.779 298
52.76 110.725 300
52.66 110.671 302
52.56 110.617 304
52.46 110.562 306
52.36 110.508 308
52.26 110.454 310
52.16 110.4 312
52.06 110.346 314
51.96 110.292 316
52.96 112.048 296
52.86 111.992 298
52.76 111.936 300
52.66 111.88 302
52.56 111.824 304
52.46 111.768 306
52.36 111.712 308
52.26 111.656 310
52.16 111.6 312
52.06 111.544 314
51.96 111.488 316
52.96 113.262 296
52.86 113.205 298
52.76 113.147 300
52.66 113.089 302
52.56 113.031 304
52.46 112.973 306
52.36 112.916 308
52.26 112.858 310
52.16 112.8 312
52.06 112.742 314
51.96 112.684 316
52.96 114.477 296
52.86 114.417 298
52.76 114.358 300
52.66 114.298 302
52.56 114.239 304
52.46 114.179 306
52.36 114.119 308
52.26 114.06 310
52.16 114 312
52.06 113.94 314
51.96 113.881 316
52.96 115.692 296
52.86 115.63 298
52.76 115.569 300
52.66 115.507 302
52.56 115.446 304
52.46 115.384 306
52.36 115.323 308
52.26 115.261 310
52.16 115.2 312
52.06 115.139 314
52.96 116.906 296
52.86 116.843 298
52.76 116.78 300
52.66 116.717 302
52.56 116.653 304
52.46 116.59 306
52.36 116.527 308
52.26 116.463 310
52.16 116.4 312
52.71 105.74 306
52.61 105.694 308
52.51 105.647 310
52.41 105.6 312
52.31 105.553 314
52.21 105.506 316
53.01 107.092 300
52.91 107.043 302
52.81 106.994 304
52.71 106.946 306
52.61 106.897 308
52.51 106.849 310
52.41 106.8 312
52.31 106.751 314
52.21 106.703 316
53.11 108.353 298
53.01 108.303 300
52.91 108.252 302
52.81 108.202 304
52.71 108.151 306
52.61 108.101 308
52.51 108.05 310
52.41 108 312
52.31 107.95 314
52.21 107.899 316
53.21 109.618 296
53.11 109.566 298
53.01 109.514 300
52.91 109.461 302
52.81 109.409 304
52.71 109.357 306
52.61 109.305 308
52.51 109.252 310
52.41 109.2 312
52.31 109.148 314
52.21 109.095 316
53.21 110.833 296
53.11 110.779 298
53.01 110.725 300
52.91 110.671 302
52.81 110.617 304
52.71 110.562 306
52.61 110.508 308
52.51 110.454 310
52.41 110.4 312
52.31 110.346 314
52.21 110.292 316
53.21 112.048 296
53.11 111.992 298
53.01 111.936 300
52.91 111.88 302
52.81 111.824 304
52.71 111.768 306
52.61 111.712 308
52.51 111.656 310
52.41 111.6 312
52.31 111.544 314
52.21 111.488 316
53.21 113.262 296
53.11 113.205 298
53.01 113.147 300
52.91 113.089 302
52.81 113.031 304
52.71 112.973 306
52.61 112.916 308
52.51 112.858 310
52.41 112.8 312
52.31 112.742 314
52.21 112.684 316
53.21 114.477 296
53.11 114.417 298
53.01 114.358 300
52.91 114.298 302
52.81 114.239 304
52.71 114.179 306
52.61 114.119 308
52.51 114.06 310
52.41 114 312
52.31 113.94 314
52.21 113.881 316
53.21 115.692 296
53.11 115.63 298
53.01 115.569 300
52.91 115.507 302
52.81 115.446 304
52.71 115.384 306
52.61 115.323 308
52.51 115.261 310
52.41 115.2 312
52.31 115.139 314
53.21 116.906 296
53.11 116.843 298
53.01 116.78 300
52.91 116.717 302
52.81 116.653 304
52.71 116.59 306
52.61 116.527 308
52.51 116.463 310
52.41 116.4 312
52.96 105.74 306
52.86 105.694 308
52.76 105.647 310
52.66 105.6 312
52.56 105.553 314
52.46 105.506 316
53.26 107.092 300
53.16 107.043 302
53.06 106.994 304
52.96 106.946 306
52.86 106.897 308
52.76 106.849 310
52.66 106.8 312
52.56 106.751 314
52.46 106.703 316
53.36 108.353 298
53.26 108.303 300
53.16 108.252 302
53.06 108.202 304
52.96 108.151 306
52.86 108.101 308
52.76 108.05 310
52.66 108 312
52.56 107.95 314
52.46 107.899 316
53.46 109.618 296
53.36 109.566 298
53.26 109.514 300
53.16 109.461 302
53.06 109.409 304
52.96 109.357 306
52.86 109.305 308
52.76 109.252 310
52.66 109.2 312
52.56 109.148 314
52.46 109.095 316
53.46 110.833 296
53.36 110.779 298
53.26 110.725 300
53.16 110.671 302
53.06 110.617 304
52.96 110.562 306
52.86 110.508 308
52.76 110.454 310
52.66 110.4 312
52.56 110.346 314
52.46 110.292 316
53.46 112.048 296
53.36 111.992 298
53.26 111.936 300
53.16 111.88 302
53.06 111.824 304
52.96 111.768 306
52.86 111.712 308
52.76 111.656 310
52.66 111.6 312
52.56 111.544 314
52.46 111.488 316
53.46 113.262 296
53.36 113.205 298
53.26 113.147 300
53.16 113.089 302
53.06 113.031 304
52.96 112.973 306
52.86 112.916 308
52.76 112.858 310
52.66 112.8 312
52.56 112.742 314
52.46 112.684 316
53.46 114.477 296
53.36 114.417 298
53.26 114.358 300
53.16 114.298 302
53.06 114.239 304
52.96 114.179 306
52.86 114.119 308
52.76 114.06 310
52.66 114 312
52.56 113.94 314
52.46 113.881 316
53.46 115.692 296
53.36 115.63 298
53.26 115.569 300
53.16 115.507 302
53.06 115.446 304
52.96 115.384 306
52.86 115.323 308
52.76 115.261 310
52.66 115.2 312
52.56 115.139 314
53.46 116.906 296
53.36 116.843 298
53.26 116.78 300
53.16 116.717 302
53.06 116.653 304
52.96 116.59 306
52.86 116.527 308
52.76 116.463 310
52.66 116.4 312
53.21 105.74 306
53.11 105.694 308
53.01 105.647 310
52.91 105.6 312
52.81 105.553 314
52.71 105.506 316
53.51 107.092 300
53.41 107.043 302
53.31 106.994 304
53.21 106.946 306
53.11 106.897 308
53.01 106.849 310
52.91 106.8 312
52.81 106.751 314
52.71 106.703 316
53.61 108.353 298
53.51 108.303 300
53.41 108.252 302
53.31 108.202 304
53.21 108.151 306
53.11 108.101 308
53.01 108.05 310
52.91 108 312
52.81 107.95 314
52.71 107.899 316
53.71 109.618 296
53.61 109.566 298
53.51 109.514 300
53.41 109.461 302
53.31 109.409 304
53.21 109.357 306
53.11 109.305 308
53.01 109.252 310
52.91 109.2 312
52.81 109.148 314
52.71 109.095 316
53.71 110.833 296
53.61 110.779 298
53.51 110.725 300
53.41 110.671 302
53.31 110.617 304
53.21 110.562 306
53.11 110.508 308
53.01 110.454 310
52.91 110.4 312
52.81 110.346 314
52.71 110.292 316
53.71 112.048 296
53.61 111.992 298
53.51 111.936 300
53.41 111.88 302
53.31 111.824 304
53.21 111.768 306
53.11 111.712 308
53.01 111.656 310
52.91 111.6 312
52.81 111.544 314
52.71 111.488 316
53.71 113.262 296
53.61 113.205 298
53.51 113.147 300
53.41 113.089 302
53.31 113.031 304
53.21 112.973 306
53.11 112.916 308
53.01 112.858 310
52.91 112.8 312
52.81 112.742 314
52.71 112.684 316
53.71 114.477 296
53.61 114.417 298
53.51 114.358 300
53.41 114.298 302
53.31 114.239 304
53.21 114.179 306
53.11 114.119 308
53.01 114.06 310
52.91 114 312
52.81 113.94 314
52.71 113.881 316
53.71 115.692 296
53.61 115.63 298
53.51 115.569 300
53.41 115.507 302
53.31 115.446 304
53.21 115.384 306
53.11 115.323 308
53.01 115.261 310
52.91 115.2 312
52.81 115.139 314
53.71 116.906 296
53.61 116.843 298
53.51 116.78 300
53.41 116.717 302
53.31 116.653 304
53.21 116.59 306
53.11 116.527 308
53.01 116.463 310
52.91 116.4 312
53.46 105.74 306
53.36 105.694 308
53.26 105.647 310
53.16 105.6 312
53.06 105.553 314
52.96 105.506 316
53.76 107.092 300
53.66 107.043 302
53.56 106.994 304
53.46 106.946 306
53.36 106.897 308
53.26 106.849 310
53.16 106.8 312
53.06 106.751 314
52.96 106.703 316
53.86 108.353 298
53.76 108.303 300
53.66 108.252 302
53.56 108.202 304
53.46 108.151 306
53.36 108.101 308
53.26 108.05 310
53.16 108 312
53.06 107.95 314
52.96 107.899 316
53.96 109.618 296
53.86 109.566 298
53.76 109.514 300
53.66 109.461 302
53.56 109.409 304
53.46 109.357 306
53.36 109.305 308
53.26 109.252 310
53.16 109.2 312
53.06 109.148 314
52.96 109.095 316
53.96 110.833 296
53.86 110.779 298
53.76 110.725 300
53.66 110.671 302
53.56 110.617 304
53.46 110.562 306
53.36 110.508 308
53.26 110.454 310
53.16 110.4 312
53.06 110.346 314
52.96 110.292 316
53.96 112.048 296
53.86 111.992 298
53.76 111.936 300
53.66 111.88 302
53.56 111.824 304
53.46 111.768 306
53.36 111.712 308
53.26 111.656 310
53.16 111.6 312
53.06 111.544 314
52.96 111.488 316
53.96 113.262 296
53.86 113.205 298
53.76 113.147 300
53.66 113.089 302
53.56 113.031 304
53.46 112.973 306
53.36 112.916 308
53.26 112.858 310
53.16 112.8 312
53.06 112.742 314
52.96 112.684 316
53.96 114.477 296
53.86 114.417 298
53.76 114.358 300
53.66 114.298 302
53.56 114.239 304
53.46 114.179 306
53.36 114.119 308
53.26 114.06 310
53.16 114 312
53.06 113.94 314
52.96 113.881 316
53.96 115.692 296
53.86 115.63 298
53.76 115.569 300
53.66 115.507 302
53.56 115.446 304
53.46 115.384 306
53.36 115.323 308
53.26 115.261 310
53.16 115.2 312
53.06 115.139 314
53.96 116.906 296
53.86 116.843 298
53.76 116.78 300
53.66 116.717 302
53.56 116.653 304
53.46 116.59 306
53.36 116.527 308
53.26 116.463 310
53.16 116.4 312
53.71 105.74 306
53.61 105.694 308
53.51 105.647 310
53.41 105.6 312
53.31 105.553 314
53.21 105.506 316
54.01 107.092 300
53.91 107.043 302
53.81 106.994 304
53.71 106.946 306
53.61 106.897 308
53.51 106.849 310
53.41 106.8 312
53.31 106.751 314
53.21 106.703 316
54.11 108.353 298
54.01 108.303 300
53.91 108.252 302
53.81 108.202 304
53.71 108.151 306
53.61 108.101 308
53.51 108.05 310
53.41 108 312
53.31 107.95 314
53.21 107.899 316
54.21 109.618 296
54.11 109.566 298
54.01 109.514 300
53.91 109.461 302
53.81 109.409 304
53.71 109.357 306
53.61 109.305 308
53.51 109.252 310
53.41 109.2 312
53.31 109.148 314
53.21 109.095 316
54.21 110.833 296
54.11 110.779 298
54.01 110.725 300
53.91 110.671 302
53.81 110.617 304
53.71 110.562 306
53.61 110.508 308
53.51 110.454 310
53.41 110.4 312
53.31 110.346 314
53.21 110.292 316
54.21 112.048 296
54.11 111.992 298
54.01 111.936 300
53.91 111.88 302
53.81 111.824 304
53.71 111.768 306
53.61 111.712 308
53.51 111.656 310
53.41 111.6 312
53.31 111.544 314
53.21 111.488 316
54.21 113.262 296
54.11 113.205 298
54.01 113.147 300
53.91 113.089 302
53.81 113.031 304
53.71 112.973 306
53.61 112.916 308
53.51 112.858 310
53.41 112.8 312
53.31 112.742 314
53.21 112.684 316
54.21 114.477 296
54.11 114.417 298
54.01 114.358 300
53.91 114.298 302
53.81 114.239 304
53.71 114.179 306
53.61 114.119 308
53.51 114.06 310
53.41 114 312
53.31 113.94 314
53.21 113.881 316
54.21 115.692 296
54.11 115.63 298
54.01 115.569 300
53.91 115.507 302
53.81 115.446 304
53.71 115.384 306
53.61 115.323 308
53.51 115.261 310
53.41 115.2 312
53.31 115.139 314
54.21 116.906 296
54.11 116.843 298
54.01 116.78 300
53.91 116.717 302
53.81 116.653 304
53.71 116.59 306
53.61 116.527 308
53.51 116.463 310
53.41 116.4 312
53.96 105.74 306
53.86 105.694 308
53.76 105.647 310
53.66 105.6 312
53.56 105.553 314
53.46 105.506 316
54.26 107.092 300
54.16 107.043 302
54.06 106.994 304
53.96 106.946 306
53.86 106.897 308
53.76 106.849 310
53.66 106.8 312
53.56 106.751 314
53.46 106.703 316
54.36 108.353 298
54.26 108.303 300
54.16 108.252 302
54.06 108.202 304
53.96 108.151 306
53.86 108.101 308
53.76 108.05 310
53.66 108 312
53.56 107.95 314
53.46 107.899 316
54.46 109.618 296
54.36 109.566 298
54.26 109.514 300
54.16 109.461 302
54.06 109.409 304
53.96 109.357 306
53.86 109.305 308
53.76 109.252 310
53.66 109.2 312
53.56 109.148 314
53.46 109.095 316
54.46 110.833 296
54.36 110.779 298
54.26 110.725 300
54.16 110.671 302
54.06 110.617 304
53.96 110.562 306
53.86 110.508 308
53.76 110.454 310
53.66 110.4 312
53.56 110.346 314
53.46 110.292 316
54.46 112.048 296
54.36 111.992 298
54.26 111.936 300
54.16 111.88 302
54.06 111.824 304
53.96 111.768 306
53.86 111.712 308
53.76 111.656 310
53.66 111.6 312
53.56 111.544 314
53.46 111.488 316
54.46 113.262 296
54.36 113.205 298
54.26 113.147 300
54.16 113.089 302
54.06 113.031 304
53.96 112.973 306
53.86 112.916 308
53.76 112.858 310
53.66 112.8 312
53.56 112.742 314
53.46 112.684 316
54.46 114.477 296
54.36 114.417 298
54.26 114.358 300
54.16 114.298 302
54.06 114.239 304
53.96 114.179 306
53.86 114.119 308
53.76 114.06 310
53.66 114 312
53.56 113.94 314
53.46 113.881 316
54.46 115.692 296
54.36 115.63 298
54.26 115.569 300
54.16 115.507 302
54.06 115.446 304
53.96 115.384 306
53.86 115.323 308
53.76 115.261 310
53.66 115.2 312
53.56 115.139 314
54.46 116.906 296
54.36 116.843 298
54.26 116.78 300
54.16 116.717 302
54.06 116.653 304
53.96 116.59 306
53.86 116.527 308
53.76 116.463 310
53.66 116.4 312
53.97 105.74 306
53.87 105.694 308
53.77 105.647 310
53.67 105.6 312
53.57 105.553 314
53.47 105.506 316
54.27 107.092 300
54.17 107.043 302
54.07 106.994 304
53.97 106.946 306
53.87 106.897 308
53.77 106.849 310
53.67 106.8 312
53.57 106.751 314
53.47 106.703 316
54.37 108.353 298
54.27 108.303 300
54.17 108.252 302
54.07 108.202 304
53.97 108.151 306
53.87 108.101 308
53.77 108.05 310
53.67 108 312
53.57 107.95 314
53.47 107.899 316
54.47 109.618 296
54.37 109.566 298
54.27 109.514 300
54.17 109.461 302
54.07 109.409 304
53.97 109.357 306
53.87 109.305 308
53.77 109.252 310
53.67 109.2 312
53.57 109.148 314
53.47 109.095 316
54.47 110.833 296
54.37 110.779 298
54.27 110.725 300
54.17 110.671 302
54.07 110.617 304
53.97 110.562 306
53.87 110.508 308
53.77 110.454 310
53.67 110.4 312
53.57 110.346 314
53.47 110.292 316
54.47 112.048 296
54.37 111.992 298
54.27 111.936 300
54.17 111.88 302
54.07 111.824 304
53.97 111.768 306
53.87 111.712 308
53.77 111.656 310
53.67 111.6 312
53.57 111.544 314
53.47 111.488 316
54.47 113.262 296
54.37 113.205 298
54.27 113.147 300
54.17 113.089 302
54.07 113.031 304
53.97 112.973 306
53.87 112.916 308
53.77 112.858 310
53.67 112.8 312
53.57 112.742 314
53.47 112.684 316
54.47 114.477 296
54.37 114.417 298
54.27 114.358 300
54.17 114.298 302
54.07 114.239 304
53.97 114.179 306
53.87 114.119 308
53.77 114.06 310
53.67 114 312
53.57 113.94 314
53.47 113.881 316
54.47 115.692 296
54.37 115.63 298
54.27 115.569 300
54.17 115.507 302
54.07 115.446 304
53.97 115.384 306
53.87 115.323 308
53.77 115.261 310
53.67 115.2 312
53.57 115.139 314
54.47 116.906 296
54.37 116.843 298
54.27 116.78 300
54.17 116.717 302
54.07 116.653 304
53.97 116.59 306
53.87 116.527 308
53.77 116.463 310
53.67 116.4 312
54.22 105.74 306
54.12 105.694 308
54.02 105.647 310
53.92 105.6 312
53.82 105.553 314
53.72 105.506 316
54.52 107.092 300
54.42 107.043 302
54.32 106.994 304
54.22 106.946 306
54.12 106.897 308
54.02 106.849 310
53.92 106.8 312
53.82 106.751 314
53.72 106.703 316
54.62 108.353 298
54.52 108.303 300
54.42 108.252 302
54.32 108.202 304
54.22 108.151 306
54.12 108.101 308
54.02 108.05 310
53.92 108 312
53.82 107.95 314
53.72 107.899 316
54.72 109.618 296
54.62 109.566 298
54.52 109.514 300
54.42 109.461 302
54.32 109.409 304
54.22 109.357 306
54.12 109.305 308
54.02 109.252 310
53.92 109.2 312
53.82 109.148 314
53.72 109.095 316
54.72 110.833 296
54.62 110.779 298
54.52 110.725 300
54.42 110.671 302
54.32 110.617 304
54.22 110.562 306
54.12 110.508 308
54.02 110.454 310
53.92 110.4 312
53.82 110.346 314
53.72 110.292 316
54.72 112.048 296
54.62 111.992 298
54.52 111.936 300
54.42 111.88 302
54.32 111.824 304
54.22 111.768 306
54.12 111.712 308
54.02 111.656 310
53.92 111.6 312
53.82 111.544 314
53.72 111.488 316
54.72 113.262 296
54.62 113.205 298
54.52 113.147 300
54.42 113.089 302
54.32 113.031 304
54.22 112.973 306
54.12 112.916 308
54.02 112.858 310
53.92 112.8 312
53.82 112.742 314
53.72 112.684 316
54.72 114.477 296
54.62 114.417 298
54.52 114.358 300
54.42 114.298 302
54.32 114.239 304
54.22 114.179 306
54.12 114.119 308
54.02 114.06 310
53.92 114 312
53.82 113.94 314
53.72 113.881 316
54.72 115.692 296
54.62 115.63 298
54.52 115.569 300
54.42 115.507 302
54.32 115.446 304
54.22 115.384 306
54.12 115.323 308
54.02 115.261 310
53.92 115.2 312
53.82 115.139 314
54.72 116.906 296
54.62 116.843 298
54.52 116.78 300
54.42 116.717 302
54.32 116.653 304
54.22 116.59 306
54.12 116.527 308
54.02 116.463 310
53.92 116.4 312
54.47 105.74 306
54.37 105.694 308
54.27 105.647 310
54.17 105.6 312
54.07 105.553 314
53.97 105.506 316
54.77 107.092 300
54.67 107.043 302
54.57 106.994 304
54.47 106.946 306
54.37 106.897 308
54.27 106.849 310
54.17 106.8 312
54.07 106.751 314
53.97 106.703 316
54.87 108.353 298
54.77 108.303 300
54.67 108.252 302
54.57 108.202 304
54.47 108.151 306
54.37 108.101 308
54.27 108.05 310
54.17 108 312
54.07 107.95 314
53.97 107.899 316
54.97 109.618 296
54.87 109.566 298
54.77 109.514 300
54.67 109.461 302
54.57 109.409 304
54.47 109.357 306
54.37 109.305 308
54.27 109.252 310
54.17 109.2 312
54.07 109.148 314
53.97 109.095 316
54.97 110.833 296
54.87 110.779 298
54.77 110.725 300
54.67 110.671 302
54.57 110.617 304
54.47 110.562 306
54.37 110.508 308
54.27 110.454 310
54.17 110.4 312
54.07 110.346 314
53.97 110.292 316
54.97 112.048 296
54.87 111.992 298
54.77 111.936 300
54.67 111.88 302
54.57 111.824 304
54.47 111.768 306
54.37 111.712 308
54.27 111.656 310
54.17 111.6 312
54.07 111.544 314
53.97 111.488 316
54.97 113.262 296
54.87 113.205 298
54.77 113.147 300
54.67 113.089 302
54.57 113.031 304
54.47 112.973 306
54.37 112.916 308
54.27 112.858 310
54.17 112.8 312
54.07 112.742 314
53.97 112.684 316
54.97 114.477 296
54.87 114.417 298
54.77 114.358 300
54.67 114.298 302
54.57 114.239 304
54.47 114.179 306
54.37 114.119 308
54.27 114.06 310
54.17 114 312
54.07 113.94 314
53.97 113.881 316
54.97 115.692 296
54.87 115.63 298
54.77 115.569 300
54.67 115.507 302
54.57 115.446 304
54.47 115.384 306
54.37 115.323 308
54.27 115.261 310
54.17 115.2 312
54.07 115.139 314
54.97 116.906 296
54.87 116.843 298
54.77 116.78 300
54.67 116.717 302
54.57 116.653 304
54.47 116.59 306
54.37 116.527 308
54.27 116.463 310
54.17 116.4 312
54.72 105.74 306
54.62 105.694 308
54.52 105.647 310
54.42 105.6 312
54.32 105.553 314
54.22 105.506 316
55.02 107.092 300
54.92 107.043 302
54.82 106.994 304
54.72 106.946 306
54.62 106.897 308
54.52 106.849 310
54.42 106.8 312
54.32 106.751 314
54.22 106.703 316
55.12 108.353 298
55.02 108.303 300
54.92 108.252 302
54.82 108.202 304
54.72 108.151 306
54.62 108.101 308
54.52 108.05 310
54.42 108 312
54.32 107.95 314
54.22 107.899 316
55.22 109.618 296
55.12 109.566 298
55.02 109.514 300
54.92 109.461 302
54.82 109.409 304
54.72 109.357 306
54.62 109.305 308
54.52 109.252 310
54.42 109.2 312
54.32 109.148 314
54.22 109.095 316
55.22 110.833 296
55.12 110.779 298
55.02 110.725 300
54.92 110.671 302
54.82 110.617 304
54.72 110.562 306
54.62 110.508 308
54.52 110.454 310
54.42 110.4 312
54.32 110.346 314
54.22 110.292 316
55.22 112.048 296
55.12 111.992 298
55.02 111.936 300
54.92 111.88 302
54.82 111.824 304
54.72 111.768 306
54.62 111.712 308
54.52 111.656 310
54.42 111.6 312
54.32 111.544 314
54.22 111.488 316
55.22 113.262 296
55.12 113.205 298
55.02 113.147 300
54.92 113.089 302
54.82 113.031 304
54.72 112.973 306
54.62 112.916 308
54.52 112.858 310
54.42 112.8 312
54.32 112.742 314
54.22 112.684 316
55.22 114.477 296
55.12 114.417 298
55.02 114.358 300
54.92 114.298 302
54.82 114.239 304
54.72 114.179 306
54.62 114.119 308
54.52 114.06 310
54.42 114 312
54.32 113.94 314
54.22 113.881 316
55.22 115.692 296
55.12 115.63 298
55.02 115.569 300
54.92 115.507 302
54.82 115.446 304
54.72 115.384 306
54.62 115.323 308
54.52 115.261 310
54.42 115.2 312
54.32 115.139 314
55.22 116.906 296
55.12 116.843 298
55.02 116.78 300
54.92 116.717 302
54.82 116.653 304
54.72 116.59 306
54.62 116.527 308
54.52 116.463 310
54.42 116.4 312
54.97 105.74 306
54.87 105.694 308
54.77 105.647 310
54.67 105.6 312
54.57 105.553 314
54.47 105.506 316
55.27 107.092 300
55.17 107.043 302
55.07 106.994 304
54.97 106.946 306
54.87 106.897 308
54.77 106.849 310
54.67 106.8 312
54.57 106.751 314
54.47 106.703 316
55.37 108.353 298
55.27 108.303 300
55.17 108.252 302
55.07 108.202 304
54.97 108.151 306
54.87 108.101 308
54.77 108.05 310
54.67 108 312
54.57 107.95 314
54.47 107.899 316
55.47 109.618 296
55.37 109.566 298
55.27 109.514 300
55.17 109.461 302
55.07 109.409 304
54.97 109.357 306
54.87 109.305 308
54.77 109.252 310
54.67 109.2 312
54.57 109.148 314
54.47 109.095 316
55.47 110.833 296
55.37 110.779 298
55.27 110.725 300
55.17 110.671 302
55.07 110.617 304
54.97 110.562 306
54.87 110.508 308
54.77 110.454 310
54.67 110.4 312
54.57 110.346 314
54.47 110.292 316
55.47 112.048 296
55.37 111.992 298
55.27 111.936 300
55.17 111.88 302
55.07 111.824 304
54.97 111.768 306
54.87 111.712 308
54.77 111.656 310
54.67 111.6 312
54.57 111.544 314
54.47 111.488 316
55.47 113.262 296
55.37 113.205 298
55.27 113.147 300
55.17 113.089 302
55.07 113.031 304
54.97 112.973 306
54.87 112.916 308
54.77 112.858 310
54.67 112.8 312
54.57 112.742 314
54.47 112.684 316
55.47 114.477 296
55.37 114.417 298
55.27 114.358 300
55.17 114.298 302
55.07 114.239 304
54.97 114.179 306
54.87 114.119 308
54.77 114.06 310
54.67 114 312
54.57 113.94 314
54.47 113.881 316
55.47 115.692 296
55.37 115.63 298
55.27 115.569 300
55.17 115.507 302
55.07 115.446 304
54.97 115.384 306
54.87 115.323 308
54.77 115.261 310
54.67 115.2 312
54.57 115.139 314
55.47 116.906 296
55.37 116.843 298
55.27 116.78 300
55.17 116.717 302
55.07 116.653 304
54.97 116.59 306
54.87 116.527 308
54.77 116.463 310
54.67 116.4 312
55.22 105.74 306
55.12 105.694 308
55.02 105.647 310
54.92 105.6 312
54.82 105.553 314
54.72 105.506 316
55.52 107.092 300
55.42 107.043 302
55.32 106.994 304
55.22 106.946 306
55.12 106.897 308
55.02 106.849 310
54.92 106.8 312
54.82 106.751 314
54.72 106.703 316
55.62 108.353 298
55.52 108.303 300
55.42 108.252 302
55.32 108.202 304
55.22 108.151 306
55.12 108.101 308
55.02 108.05 310
54.92 108 312
54.82 107.95 314
54.72 107.899 316
55.72 109.618 296
55.62 109.566 298
55.52 109.514 300
55.42 109.461 302
55.32 109.409 304
55.22 109.357 306
55.12 109.305 308
55.02 109.252 310
54.92 109.2 312
54.82 109.148 314
54.72 109.095 316
55.72 110.833 296
55.62 110.779 298
55.52 110.725 300
55.42 110.671 302
55.32 110.617 304
55.22 110.562 306
55.12 110.508 308
55.02 110.454 310
54.92 110.4 312
54.82 110.346 314
54.72 110.292 316
55.72 112.048 296
55.62 111.992 298
55.52 111.936 300
55.42 111.88 302
55.32 111.824 304
55.22 111.768 306
55.12 111.712 308
55.02 111.656 310
54.92 111.6 312
54.82 111.544 314
54.72 111.488 316
55.72 113.262 296
55.62 113.205 298
55.52 113.147 300
55.42 113.089 302
55.32 113.031 304
55.22 112.973 306
55.12 112.916 308
55.02 112.858 310
54.92 112.8 312
54.82 112.742 314
54.72 112.684 316
55.72 114.477 296
55.62 114.417 298
55.52 114.358 300
55.42 114.298 302
55.32 114.239 304
55.22 114.179 306
55.12 114.119 308
55.02 114.06 310
54.92 114 312
54.82 113.94 314
54.72 113.881 316
55.72 115.692 296
55.62 115.63 298
55.52 115.569 300
55.42 115.507 302
55.32 115.446 304
55.22 115.384 306
55.12 115.323 308
55.02 115.261 310
54.92 115.2 312
54.82 115.139 314
55.72 116.906 296
55.62 116.843 298
55.52 116.78 300
55.42 116.717 302
55.32 116.653 304
55.22 116.59 306
55.12 116.527 308
55.02 116.463 310
54.92 116.4 312
55.47 105.74 306
55.37 105.694 308
55.27 105.647 310
55.17 105.6 312
55.07 105.553 314
54.97 105.506 316
55.77 107.092 300
55.67 107.043 302
55.57 106.994 304
55.47 106.946 306
55.37 106.897 308
55.27 106.849 310
55.17 106.8 312
55.07 106.751 314
54.97 106.703 316
55.87 108.353 298
55.77 108.303 300
55.67 108.252 302
55.57 108.202 304
55.47 108.151 306
55.37 108.101 308
55.27 108.05 310
55.17 108 312
55.07 107.95 314
54.97 107.899 316
55.97 109.618 296
55.87 109.566 298
55.77 109.514 300
55.67 109.461 302
55.57 109.409 304
55.47 109.357 306
55.37 109.305 308
55.27 109.252 310
55.17 109.2 312
55.07 109.148 314
54.97 109.095 316
55.97 110.833 296
55.87 110.779 298
55.77 110.725 300
55.67 110.671 302
55.57 110.617 304
55.47 110.562 306
55.37 110.508 308
55.27 110.454 310
55.17 110.4 312
55.07 110.346 314
54.97 110.292 316
55.97 112.048 296
55.87 111.992 298
55.77 111.936 300
55.67 111.88 302
55.57 111.824 304
55.47 111.768 306
55.37 111.712 308
55.27 111.656 310
55.17 111.6 312
55.07 111.544 314
54.97 111.488 316
55.97 113.262 296
55.87 113.205 298
55.77 113.147 300
55.67 113.089 302
55.57 113.031 304
55.47 112.973 306
55.37 112.916 308
55.27 112.858 310
55.17 112.8 312
55.07 112.742 314
54.97 112.684 316
55.97 114.477 296
55.87 114.417 298
55.77 114.358 300
55.67 114.298 302
55.57 114.239 304
55.47 114.179 306
55.37 114.119 308
55.27 114.06 310
55.17 114 312
55.07 113.94 314
54.97 113.881 316
55.97 115.692 296
55.87 115.63 298
55.77 115.569 300
55.67 115.507 302
55.57 115.446 304
55.47 115.384 306
55.37 115.323 308
55.27 115.261 310
55.17 115.2 312
55.07 115.139 314
55.97 116.906 296
55.87 116.843 298
55.77 116.78 300
55.67 116.717 302
55.57 116.653 304
55.47 116.59 306
55.37 116.527 308
55.27 116.463 310
55.17 116.4 312
55.72 105.74 306
55.62 105.694 308
55.52 105.647 310
55.42 105.6 312
55.32 105.553 314
55.22 105.506 316
56.02 107.092 300
55.92 107.043 302
55.82 106.994 304
55.72 106.946 306
55.62 106.897 308
55.52 106.849 310
55.42 106.8 312
55.32 106.751 314
55.22 106.703 316
56.12 108.353 298
56.02 108.303 300
55.92 108.252 302
55.82 108.202 304
55.72 108.151 306
55.62 108.101 308
55.52 108.05 310
55.42 108 312
55.32 107.95 314
55.22 107.899 316
56.22 109.618 296
56.12 109.566 298
56.02 109.514 300
55.92 109.461 302
55.82 109.409 304
55.72 109.357 306
55.62 109.305 308
55.52 109.252 310
55.42 109.2 312
55.32 109.148 314
55.22 109.095 316
56.22 110.833 296
56.12 110.779 298
56.02 110.725 300
55.92 110.671 302
55.82 110.617 304
55.72 110.562 306
55.62 110.508 308
55.52 110.454 310
55.42 110.4 312
55.32 110.346 314
55.22 110.292 316
56.22 112.048 296
56.12 111.992 298
56.02 111.936 300
55.92 111.88 302
55.82 111.824 304
55.72 111.768 306
55.62 111.712 308
55.52 111.656 310
55.42 111.6 312
55.32 111.544 314
55.22 111.488 316
56.22 113.262 296
56.12 113.205 298
56.02 113.147 300
55.92 113.089 302
55.82 113.031 304
55.72 112.973 306
55.62 112.916 308
55.52 112.858 310
55.42 112.8 312
55.32 112.742 314
55.22 112.684 316
56.22 114.477 296
56.12 114.417 298
56.02 114.358 300
55.92 114.298 302
55.82 114.239 304
55.72 114.179 306
55.62 114.119 308
55.52 114.06 310
55.42 114 312
55.32 113.94 314
55.22 113.881 316
56.22 115.692 296
56.12 115.63 298
56.02 115.569 300
55.92 115.507 302
55.82 115.446 304
55.72 115.384 306
55.62 115.323 308
55.52 115.261 310
55.42 115.2 312
55.32 115.139 314
56.22 116.906 296
56.12 116.843 298
56.02 116.78 300
55.92 116.717 302
55.82 116.653 304
55.72 116.59 306
55.62 116.527 308
55.52 116.463 310
55.42 116.4 312
55.73 105.74 306
55.63 105.694 308
55.53 105.647 310
55.43 105.6 312
55.33 105.553 314
55.23 105.506 316
56.03 107.092 300
55.93 107.043 302
55.83 106.994 304
55.73 106.946 306
55.63 106.897 308
55.53 106.849 310
55.43 106.8 312
55.33 106.751 314
55.23 106.703 316
56.13 108.353 298
56.03 108.303 300
55.93 108.252 302
55.83 108.202 304
55.73 108.151 306
55.63 108.101 308
55.53 108.05 310
55.43 108 312
55.33 107.95 314
55.23 107.899 316
56.23 109.618 296
56.13 109.566 298
56.03 109.514 300
55.93 109.461 302
55.83 109.409 304
55.73 109.357 306
55.63 109.305 308
55.53 109.252 310
55.43 109.2 312
55.33 109.148 314
55.23 109.095 316
56.23 110.833 296
56.13 110.779 298
56.03 110.725 300
55.93 110.671 302
55.83 110.617 304
55.73 110.562 306
55.63 110.508 308
55.53 110.454 310
55.43 110.4 312
55.33 110.346 314
55.23 110.292 316
56.23 112.048 296
56.13 111.992 298
56.03 111.936 300
55.93 111.88 302
55.83 111.824 304
55.73 111.768 306
55.63 111.712 308
55.53 111.656 310
55.43 111.6 312
55.33 111.544 314
55.23 111.488 316
56.23 113.262 296
56.13 113.205 298
56.03 113.147 300
55.93 113.089 302
55.83 113.031 304
55.73 112.973 306
55.63 112.916 308
55.53 112.858 310
55.43 112.8 312
55.33 112.742 314
55.23 112.684 316
56.23 114.477 296
56.13 114.417 298
56.03 114.358 300
55.93 114.298 302
55.83 114.239 304
55.73 114.179 306
55.63 114.119 308
55.53 114.06 310
55.43 114 312
55.33 113.94 314
55.23 113.881 316
56.23 115.692 296
56.13 115.63 298
56.03 115.569 300
55.93 115.507 302
55.83 115.446 304
55.73 115.384 306
55.63 115.323 308
55.53 115.261 310
55.43 115.2 312
55.33 115.139 314
56.23 116.906 296
56.13 116.843 298
56.03 116.78 300
55.93 116.717 302
55.83 116.653 304
55.73 116.59 306
55.63 116.527 308
55.53 116.463 310
55.43 116.4 312
55.98 105.74 306
55.88 105.694 308
55.78 105.647 310
55.68 105.6 312
55.58 105.553 314
55.48 105.506 316
56.28 107.092 300
56.18 107.043 302
56.08 106.994 304
55.98 106.946 306
55.88 106.897 308
55.78 106.849 310
55.68 106.8 312
55.58 106.751 314
55.48 106.703 316
56.38 108.353 298
56.28 108.303 300
56.18 108.252 302
56.08 108.202 304
55.98 108.151 306
55.88 108.101 308
55.78 108.05 310
55.68 108 312
55.58 107.95 314
55.48 107.899 316
56.48 109.618 296
56.38 109.566 298
56.28 109.514 300
56.18 109.461 302
56.08 109.409 304
55.98 109.357 306
55.88 109.305 308
55.78 109.252 310
55.68 109.2 312
55.58 109.148 314
55.48 109.095 316
56.48 110.833 296
56.38 110.779 298
56.28 110.725 300
56.18 110.671 302
56.08 110.617 304
55.98 110.562 306
55.88 110.508 308
55.78 110.454 310
55.68 110.4 312
55.58 110.346 314
55.48 110.292 316
56.48 112.048 296
56.38 111.992 298
56.28 111.936 300
56.18 111.88 302
56.08 111.824 304
55.98 111.768 306
55.88 111.712 308
55.78 111.656 310
55.68 111.6 312
55.58 111.544 314
55.48 111.488 316
56.48 113.262 296
56.38 113.205 298
56.28 113.147 300
56.18 113.089 302
56.08 113.031 304
55.98 112.973 306
55.88 112.916 308
55.78 112.858 310
55.68 112.8 312
55.58 112.742 314
55.48 112.684 316
56.48 114.477 296
56.38 114.417 298
56.28 114.358 300
56.18 114.298 302
56.08 114.239 304
55.98 114.179 306
55.88 114.119 308
55.78 114.06 310
55.68 114 312
55.58 113.94 314
55.48 113.881 316
56.48 115.692 296
56.38 115.63 298
56.28 115.569 300
56.18 115.507 302
56.08 115.446 304
55.98 115.384 306
55.88 115.323 308
55.78 115.261 310
55.68 115.2 312
55.58 115.139 314
56.48 116.906 296
56.38 116.843 298
56.28 116.78 300
56.18 116.717 302
56.08 116.653 304
55.98 116.59 306
55.88 116.527 308
55.78 116.463 310
55.68 116.4 312
55.99 105.74 306
55.89 105.694 308
55.79 105.647 310
55.69 105.6 312
55.59 105.553 314
55.49 105.506 316
56.29 107.092 300
56.19 107.043 302
56.09 106.994 304
55.99 106.946 306
55.89 106.897 308
55.79 106.849 310
55.69 106.8 312
55.59 106.751 314
55.49 106.703 316
56.39 108.353 298
56.29 108.303 300
56.19 108.252 302
56.09 108.202 304
55.99 108.151 306
55.89 108.101 308
55.79 108.05 310
55.69 108 312
55.59 107.95 314
55.49 107.899 316
56.49 109.618 296
56.39 109.566 298
56.29 109.514 300
56.19 109.461 302
56.09 109.409 304
55.99 109.357 306
55.89 109.305 308
55.79 109.252 310
55.69 109.2 312
55.59 109.148 314
55.49 109.095 316
56.49 110.833 296
56.39 110.779 298
56.29 110.725 300
56.19 110.671 302
56.09 110.617 304
55.99 110.562 306
55.89 110.508 308
55.79 110.454 310
55.69 110.4 312
55.59 110.346 314
55.49 110.292 316
56.49 112.048 296
56.39 111.992 298
56.29 111.936 300
56.19 111.88 302
56.09 111.824 304
55.99 111.768 306
55.89 111.712 308
55.79 111.656 310
55.69 111.6 312
55.59 111.544 314
55.49 111.488 316
56.49 113.262 296
56.39 113.205 298
56.29 113.147 300
56.19 113.089 302
56.09 113.031 304
55.99 112.973 306
55.89 112.916 308
55.79 112.858 310
55.69 112.8 312
55.59 112.742 314
55.49 112.684 316
56.49 114.477 296
56.39 114.417 298
56.29 114.358 300
56.19 114.298 302
56.09 114.239 304
55.99 114.179 306
55.89 114.119 308
55.79 114.06 310
55.69 114 312
55.59 113.94 314
55.49 113.881 316
56.49 115.692 296
56.39 115.63 298
56.29 115.569 300
56.19 115.507 302
56.09 115.446 304
55.99 115.384 306
55.89 115.323 308
55.79 115.261 310
55.69 115.2 312
55.59 115.139 314
56.49 116.906 296
56.39 116.843 298
56.29 116.78 300
56.19 116.717 302
56.09 116.653 304
55.99 116.59 306
55.89 116.527 308
55.79 116.463 310
55.69 116.4 312
56.24 105.74 306
56.14 105.694 308
56.04 105.647 310
55.94 105.6 312
55.84 105.553 314
55.74 105.506 316
56.54 107.092 300
56.44 107.043 302
56.34 106.994 304
56.24 106.946 306
56.14 106.897 308
56.04 106.849 310
55.94 106.8 312
55.84 106.751 314
55.74 106.703 316
56.64 108.353 298
56.54 108.303 300
56.44 108.252 302
56.34 108.202 304
56.24 108.151 306
56.14 108.101 308
56.04 108.05 310
55.94 108 312
55.84 107.95 314
55.74 107.899 316
56.74 109.618 296
56.64 109.566 298
56.54 109.514 300
56.44 109.461 302
56.34 109.409 304
56.24 109.357 306
56.14 109.305 308
56.04 109.252 310
55.94 109.2 312
55.84 109.148 314
55.74 109.095 316
56.74 110.833 296
56.64 110.779 298
56.54 110.725 300
56.44 110.671 302
56.34 110.617 304
56.24 110.562 306
56.14 110.508 308
56.04 110.454 310
55.94 110.4 312
55.84 110.346 314
55.74 110.292 316
56.74 112.048 296
56.64 111.992 298
56.54 111.936 300
56.44 111.88 302
56.34 111.824 304
56.24 111.768 306
56.14 111.712 308
56.04 111.656 310
55.94 111.6 312
55.84 111.544 314
55.74 111.488 316
56.74 113.262 296
56.64 113.205 298
56.54 113.147 300
56.44 113.089 302
56.34 113.031 304
56.24 112.973 306
56.14 112.916 308
56.04 112.858 310
55.94 112.8 312
55.84 112.742 314
55.74 112.684 316
56.74 114.477 296
56.64 114.417 298
56.54 114.358 300
56.44 114.298 302
56.34 114.239 304
56.24 114.179 306
56.14 114.119 308
56.04 114.06 310
55.94 114 312
55.84 113.94 314
55.74 113.881 316
56.74 115.692 296
56.64 115.63 298
56.54 115.569 300
56.44 115.507 302
56.34 115.446 304
56.24 115.384 306
56.14 115.323 308
56.04 115.261 310
55.94 115.2 312
55.84 115.139 314
56.74 116.906 296
56.64 116.843 298
56.54 116.78 300
56.44 116.717 302
56.34 116.653 304
56.24 116.59 306
56.14 116.527 308
56.04 116.463 310
55.94 116.4 312
56.49 105.74 306
56.39 105.694 308
56.29 105.647 310
56.19 105.6 312
56.09 105.553 314
55.99 105.506 316
56.79 107.092 300
56.69 107.043 302
56.59 106.994 304
56.49 106.946 306
56.39 106.897 308
56.29 106.849 310
56.19 106.8 312
56.09 106.751 314
55.99 106.703 316
56.89 108.353 298
56.79 108.303 300
56.69 108.252 302
56.59 108.202 304
56.49 108.151 306
56.39 108.101 308
56.29 108.05 310
56.19 108 312
56.09 107.95 314
55.99 107.899 316
56.99 109.618 296
56.89 109.566 298
56.79 109.514 300
56.69 109.461 302
56.59 109.409 304
56.49 109.357 306
56.39 109.305 308
56.29 109.252 310
56.19 109.2 312
56.09 109.148 314
55.99 109.095 316
56.99 110.833 296
56.89 110.779 298
56.79 110.725 300
56.69 110.671 302
56.59 110.617 304
56.49 110.562 306
56.39 110.508 308
56.29 110.454 310
56.19 110.4 312
56.09 110.346 314
55.99 110.292 316
56.99 112.048 296
56.89 111.992 298
56.79 111.936 300
56.69 111.88 302
56.59 111.824 304
56.49 111.768 306
56.39 111.712 308
56.29 111.656 310
56.19 111.6 312
56.09 111.544 314
55.99 111.488 316
56.99 113.262 296
56.89 113.205 298
56.79 113.147 300
56.69 113.089 302
56.59 113.031 304
56.49 112.973 306
56.39 112.916 308
56.29 112.858 310
56.19 112.8 312
56.09 112.742 314
55.99 112.684 316
56.99 114.477 296
56.89 114.417 298
56.79 114.358 300
56.69 114.298 302
56.59 114.239 304
56.49 114.179 306
56.39 114.119 308
56.29 114.06 310
56.19 114 312
56.09 113.94 314
55.99 113.881 316
56.99 115.692 296
56.89 115.63 298
56.79 115.569 300
56.69 115.507 302
56.59 115.446 304
56.49 115.384 306
56.39 115.323 308
56.29 115.261 310
56.19 115.2 312
56.09 115.139 314
56.99 116.906 296
56.89 116.843 298
56.79 116.78 300
56.69 116.717 302
56.59 116.653 304
56.49 116.59 306
56.39 116.527 308
56.29 116.463 310
56.19 116.4 312
CELLS 2212 19908
8 1280 1082 1073 1271 1281 1083 1074 1272
8 1281 1083 1074 1272 1282 1084 1075 1273
8 1282 1084 1075 1273 1283 1085 1076 1274
8 1283 1085 1076 1274 1284 1086 1077 1275
8 1284 1086 1077 1275 1285 1087 1078 1276
8 1287 1089 1079 1277 1288 1090 1080 1278
8 1288 1090 1080 1278 1289 1091 1081 1279
8 1289 1091 1081 1279 1290 1092 1082 1280
8 1290 1092 1082 1280 1291 1093 1083 1281
8 1291 1093 1083 1281 1292 1094 1084 1282
8 1292 1094 1084 1282 1293 1095 1085 1283
8 1293 1095 1085 1283 1294 1096 1086 1284
8 1294 1096 1086 1284 1295 1097 1087 1285
8 1297 1099 1088 1286 1298 1100 1089 1287
8 1298 1100 1089 1287 1299 1101 1090 1288
8 1299 1101 1090 1288 1300 1102 1091 1289
8 1300 1102 1091 1289 1301 1103 1092 1290
8 1301 1103 1092 1290 1302 1104 1093 1291
8 1302 1104 1093 1291 1303 1105 1094 1292
8 1303 1105 1094 1292 1304 1106 1095 1293
8 1304 1106 1095 1293 1305 1107 1096 1294
8 1305 1107 1096 1294 1306 1108 1097 1295
8 1307 1109 1098 1296 1308 1110 1099 1297
8 1308 1110 1099 1297 1309 1111 1100 1298
8 1309 1111 1100 1298 1310 1112 1101 1299
8 1310 1112 1101 1299 1311 1113 1102 1300
8 1311 1113 1102 1300 1312 1114 1103 1301
8 1312 1114 1103 1301 1313 1115 1104 1302
8 1313 1115 1104 1302 1314 1116 1105 1303
8 1314 1116 1105 1303 1315 1117 1106 1304
8 1315 1117 1106 1304 1316 1118 1107 1305
8 1316 1118 1107 1305 1317 1119 1108 1306
8 1318 1120 1109 1307 1319 1121 1110 1308
8 1319 1121 1110 1308 1320 1122 1111 1309
8 1320 1122 1111 1309 1321 1123 1112 1310
8 1321 1123 1112 1310 1322 1124 1113 1311
8 1322 1124 1113 1311 1323 1125 1114 1312
8 1323 1125 1114 1312 1324 1126 1115 1313
8 1324 1126 1115 1313 1325 1127 1116 1314
8 1325 1127 1116 1314 1326 1128 1117 1315
8 1326 1128 1117 1315 1327 1129 1118 1316
8 1327 1129 1118 1316 1328 1130 1119 1317
8 1329 1131 1120 1318 1330 1132 1121 1319
8 1330 1132 1121 1319 1331 1133 1122 1320
8 1331 1133 1122 1320 1332 1134 1123 1321
8 1332 1134 1123 1321 1333 1135 1124 1322
8 1333 1135 1124 1322 1334 1136 1125 1323
8 1334 1136 1125 1323 1335 1137 1126 1324
8 1335 1137 1126 1324 1336 1138 1127 1325
8 1336 1138 1127 1325 1337 1139 1128 1326
8 1337 1139 1128 1326 1338 1140 1129 1327
8 1338 1140 1129 1327 1339 1141 1130 1328
8 1340 1142 1131 1329 1341 1143 1132 1330
8 1341 1143 1132 1330 1342 1144 1133 1331
8 1342 1144 1133 1331 1343 1145 1134 1332
8 1343 1145 1134 1332 1344 1146 1135 1333
8 1344 1146 1135 1333 1345 1147 1136 1334
8 1345 1147 1136 1334 1346 1148 1137 1335
8 1346 1148 1137 1335 1347 1149 1138 1336
8 1347 1149 1138 1336 1348 1150 1139 1337
8 1348 1150 1139 1337 1349 1151 1140 1338
8 1349 1151 1140 1338 1350 1152 1141 1339
8 1351 1153 1142 1340 1352 1154 1143 1341
8 1352 1154 1143 1341 1353 1155 1144 1342
8 1353 1155 1144 1342 1354 1156 1145 1343
8 1354 1156 1145 1343 1355 1157 1146 1344
8 1355 1157 1146 1344 1356 1158 1147 1345
8 1356 1158 1147 1345 1357 1159 1148 1346
8 1357 1159 1148 1346 1358 1160 1149 1347
8 1358 1160 1149 1347 1359 1161 1150 1348
8 1359 1161 1150 1348 1360 1162 1151 1349
8 1361 1163 1153 1351 1362 1164 1154 1352
8 1362 1164 1154 1352 1363 1165 1155 1353
8 1363 1165 1155 1353 1364 1166 1156 1354
8 1364 1166 1156 1354 1365 1167 1157 1355
8 1365 1167 1157 1355 1366 1168 1158 1356
8 1366 1168 1158 1356 1367 1169 1159 1357
8 1367 1169 1159 1357 1368 1170 1160 1358
8 1368 1170 1160 1358 1369 1171 1161 1359
8 1388 1389 1371 1370 1390 1391 1373 1372
8 1390 1391 1373 1372 1392 1393 1375 1374
8 1392 1393 1375 1374 1394 1395 1377 1376
8 1394 1395 1377 1376 1396 1397 1379 1378
8 1396 1397 1379 1378 1398 1399 1381 1380
8 1402 1403 1383 1382 1404 1405 1385 1384
8 1404 1405 1385 1384 1406 1407 1387 1386
8 1406 1407 1387 1386 1408 1409 1389 1388
8 1408 1409 1389 1388 1410 1411 1391 1390
8 1410 1411 1391 1390 1412 1413 1393 1392
8 1412 1413 1393 1392 1414 1415 1395 1394
8 1414 1415 1395 1394 1416 1417 1397 1396
8 1416 1417 1397 1396 1418 1419 1399 1398
8 1422 1423 1401 1400 1424 1425 1403 1402
8 1424 1425 1403 1402 1426 1427 1405 1404
8 1426 1427 1405 1404 1428 1429 1407 1406
8 1428 1429 1407 1406 1430 1431 1409 1408
8 1430 1431 1409 1408 1432 1433 1411 1410
8 1432 1433 1411 1410 1434 1435 1413 1412
8 1434 1435 1413 1412 1436 1437 1415 1414
8 1436 1437 1415 1414 1438 1439 1417 1416
8 1438 1439 1417 1416 1440 1441 1419 1418
8 1442 1443 1421 1420 1444 1445 1423 1422
8 1444 1445 1423 1422 1446 1447 1425 1424
8 1446 1447 1425 1424 1448 1449 1427 1426
8 1448 1449 1427 1426 1450 1451 1429 1428
8 1450 1451 1429 1428 1452 1453 1431 1430
8 1452 1453 1431 1430 1454 1455 1433 1432
8 1454 1455 1433 1432 1456 1457 1435 1434
8 1456 1457 1435 1434 1458 1459 1437 1436
8 1458 1459 1437 1436 1460 1461 1439 1438
8 1460 1461 1439 1438 1462 1463 1441 1440
8 1464 1465 1443 1442 1466 1467 1445 1444
8 1466 1467 1445 1444 1468 1469 1447 1446
8 1468 1469 1447 1446 1470 1471 1449 1448
8 1470 1471 1449 1448 1472 1473 1451 1450
8 1472 1473 1451 1450 1474 1475 1453 1452
8 1474 1475 1453 1452 1476 1477 1455 1454
8 1476 1477 1455 1454 1478 1479 1457 1456
8 1478 1479 1457 1456 1480 1481 1459 1458
8 1480 1481 1459 1458 1482 1483 1461 1460
8 1482 1483 1461 1460 1484 1485 1463 1462
8 1486 1487 1465 1464 1488 1489 1467 1466
8 1488 1489 1467 1466 1490 1491 1469 1468
8 1490 1491 1469 1468 1492 1493 1471 1470
8 1492 1493 1471 1470 1494 1495 1473 1472
8 1494 1495 1473 1472 1496 1497 1475 1474
8 1496 1497 1475 1474 1498 1499 1477 1476
8 1498 1499 1477 1476 1500 1501 1479 1478
8 1500 1501 1479 1478 1502 1503 1481 1480
8 1502 1503 1481 1480 1504 1505 1483 1482
8 1504 1505 1483 1482 1506 1507 1485 1484
8 1508 1509 1487 1486 1510 1511 1489 1488
8 1510 1511 1489 1488 1512 1513 1491 1490
8 1512 1513 1491 1490 1514 1515 1493 1492
8 1514 1515 1493 1492 1516 1517 1495 1494
8 1516 1517 1495 1494 1518 1519 1497 1496
8 1518 1519 1497 1496 1520 1521 1499 1498
8 1520 1521 1499 1498 1522 1523 1501 1500
8 1522 1523 1501 1500 1524 1525 1503 1502
8 1524 1525 1503 1502 1526 1527 1505 1504
8 1526 1527 1505 1504 1528 1529 1507 1506
8 1530 1531 1509 1508 1532 1533 1511 1510
8 1532 1533 1511 1510 1534 1535 1513 1512
8 1534 1535 1513 1512 1536 1537 1515 1514
8 1536 1537 1515 1514 1538 1539 1517 1516
8 1538 1539 1517 1516 1540 1541 1519 1518
8 1540 1541 1519 1518 1542 1543 1521 1520
8 1542 1543 1521 1520 1544 1545 1523 1522
8 1544 1545 1523 1522 1546 1547 1525 1524
8 1546 1547 1525 1524 1548 1549 1527 1526
8 1550 1551 1531 1530 1552 1553 1533 1532
8 1552 1553 1533 1532 1554 1555 1535 1534
8 1554 1555 1535 1534 1556 1557 1537 1536
8 1556 1557 1537 1536 1558 1559 1539 1538
8 1558 1559 1539 1538 1560 1561 1541 1540
8 1560 1561 1541 1540 1562 1563 1543 1542
8 1562 1563 1543 1542 1564 1565 1545 1544
8 1564 1565 1545 1544 1566 1567 1547 1546
8 1586 1587 1569 1568 1588 1589 1571 1570
8 1588 1589 1571 1570 1590 1591 1573 1572
8 1590 1591 1573 1572 1592 1593 1575 1574
8 1592 1593 1575 1574 1594 1595 1577 1576
8 1594 1595 1577 1576 1596 1597 1579 1578
8 1600 1601 1581 1580 1602 1603 1583 1582
8 1602 1603 1583 1582 1604 1605 1585 1584
8 1604 1605 1585 1584 1606 1607 1587 1586
8 1606 1607 1587 1586 1608 1609 1589 1588
8 1608 1609 1589 1588 1610 1611 1591 1590
8 1610 1611 1591 1590 1612 1613 1593 1592
8 1612 1613 1593 1592 1614 1615 1595 1594
8 1614 1615 1595 1594 1616 1617 1597 1596
8 1620 1621 1599 1598 1622 1623 1601 1600
8 1622 1623 1601 1600 1624 1625 1603 1602
8 1624 1625 1603 1602 1626 1627 1605 1604
8 1626 1627 1605 1604 1628 1629 1607 1606
8 1628 1629 1607 1606 1630 1631 1609 1608
8 1630 1631 1609 1608 1632 1633 1611 1610
8 1632 1633 1611 1610 1634 1635 1613 1612
8 1634 1635 1613 1612 1636 1637 1615 1614
8 1636 1637 1615 1614 1638 1639 1617 1616
8 1640 1641 1619 1618 1642 1643 1621 1620
8 1642 1643 1621 1620 1644 1645 1623 1622
8 1644 1645 1623 1622 1646 1647 1625 1624
8 1646 1647 1625 1624 1648 1649 1627 1626
8 1648 1649 1627 1626 1650 1651 1629 1628
8 1650 1651 1629 1628 1652 1653 1631 1630
8 1652 1653 1631 1630 1654 1655 1633 1632
8 1654 1655 1633 1632 1656 1657 1635 1634
8 1656 1657 1635 1634 1658 1659 1637 1636
8 1658 1659 1637 1636 1660 1661 1639 1638
8 1662 1663 1641 1640 1664 1665 1643 1642
8 1664 1665 1643 1642 1666 1667 1645 1644
8 1666 1667 1645 1644 1668 1669 1647 1646
8 1668 1669 1647 1646 1670 1671 1649 1648
8 1670 1671 1649 1648 1672 1673 1651 1650
8 1672 1673 1651 1650 1674 1675 1653 1652
8 1674 1675 1653 1652 1676 1677 1655 1654
8 1676 1677 1655 1654 1678 1679 1657 1656
8 1678 1679 1657 1656 1680 1681 1659 1658
8 1680 1681 1659 1658 1682 1683 1661 1660
8 1684 1685 1663 1662 1686 1687 1665 1664
8 1686 1687 1665 1664 1688 1689 1667 1666
8 1688 1689 1667 1666 1690 1691 1669 1668
8 1690 1691 1669 1668 1692 1693 1671 1670
8 1692 1693 1671 1670 1694 1695 1673 1672
8 1694 1695 1673 1672 1696 1697 1675 1674
8 1696 1697 1675 1674 1698 1699 1677 1676
8 1698 1699 1677 1676 1700 1701 1679 1678
8 1700 1701 1679 1678 1702 1703 1681 1680
8 1702 1703 1681 1680 1704 1705 1683 1682
8 1706 1707 1685 1684 1708 1709 1687 1686
8 1708 1709 1687 1686 1710 1711 1689 1688
8 1710 1711 1689 1688 1712 1713 1691 1690
8 1712 1713 1691 1690 1714 1715 1693 1692
8 1714 1715 1693 1692 1716 1717 1695 1694
8 1716 1717 1695 1694 1718 1719 1697 1696
8 1718 1719 1697 1696 1720 1721 1699 1698
8 1720 1721 1699 1698 1722 1723 1701 1700
8 1722 1723 1701 1700 1724 1725 1703 1702
8 1724 1725 1703 1702 1726 1727 1705 1704
8 1728 1729 1707 1706 1730 1731 1709 1708
8 1730 1731 1709 1708 1732 1733 1711 1710
8 1732 1733 1711 1710 1734 1735 1713 1712
8 1734 1735 1713 1712 1736 1737 1715 1714
8 1736 1737 1715 1714 1738 1739 1717 1716
8 1738 1739 1717 1716 1740 1741 1719 1718
8 1740 1741 1719 1718 1742 1743 1721 1720
8 1742 1743 1721 1720 1744 1745 1723 1722
8 1744 1745 1723 1722 1746 1747 1725 1724
8 1748 1749 1729 1728 1750 1751 1731 1730
8 1750 1751 1731 1730 1752 1753 1733 1732
8 1752 1753 1733 1732 1754 1755 1735 1734
8 1754 1755 1735 1734 1756 1757 1737 1736
8 1756 1757 1737 1736 1758 1759 1739 1738
8 1758 1759 1739 1738 1760 1761 1741 1740
8 1760 1761 1741 1740 1762 1763 1743 1742
8 1762 1763 1743 1742 1764 1765 1745 1744
8 1775 1586 1568 1766 1776 1588 1570 1767
8 1776 1588 1570 1767 1777 1590 1572 1768
8 1777 1590 1572 1768 1778 1592 1574 1769
8 1778 1592 1574 1769 1779 1594 1576 1770
8 1779 1594 1576 1770 1780 1596 1578 1771
8 1782 1600 1580 1772 1783 1602 1582 1773
8 1783 1602 1582 1773 1784 1604 1584 1774
8 1784 1604 1584 1774 1785 1606 1586 1775
8 1785 1606 1586 1775 1786 1608 1588 1776
8 1786 1608 1588 1776 1787 1610 1590 1777
8 1787 1610 1590 1777 1788 1612 1592 1778
8 1788 1612 1592 1778 1789 1614 1594 1779
8 1789 1614 1594 1779 1790 1616 1596 1780
8 1792 1620 1598 1781 1793 1622 1600 1782
8 1793 1622 1600 1782 1794 1624 1602 1783
8 1794 1624 1602 1783 1795 1626 1604 1784
8 1795 1626 1604 1784 1796 1628 1606 1785
8 1796 1628 1606 1785 1797 1630 1608 1786
8 1797 1630 1608 1786 1798 1632 1610 1787
8 1798 1632 1610 1787 1799 1634 1612 1788
8 1799 1634 1612 1788 1800 1636 1614 1789
8 1800 1636 1614 1789 1801 1638 1616 1790
8 1802 1640 1618 1791 1803 1642 1620 1792
8 1803 1642 1620 1792 1804 1644 1622 1793
8 1804 1644 1622 1793 1805 1646 1624 1794
8 1805 1646 1624 1794 1806 1648 1626 1795
8 1806 1648 1626 1795 1807 1650 1628 1796
8 1807 1650 1628 1796 1808 1652 1630 1797
8 1808 1652 1630 1797 1809 1654 1632 1798
8 1809 1654 1632 1798 1810 1656 1634 1799
8 1810 1656 1634 1799 1811 1658 1636 1800
8 1811 1658 1636 1800 1812 1660 1638 1801
8 1813 1662 1640 1802 1814 1664 1642 1803
8 1814 1664 1642 1803 1815 1666 1644 1804
8 1815 1666 1644 1804 1816 1668 1646 1805
8 1816 1668 1646 1805 1817 1670 1648 1806
8 1817 1670 1648 1806 1818 1672 1650 1807
8 1818 1672 1650 1807 1819 1674 1652 1808
8 1819 1674 1652 1808 1820 1676 1654 1809
8 1820 1676 1654 1809 1821 1678 1656 1810
8 1821 1678 1656 1810 1822 1680 1658 1811
8 1822 1680 1658 1811 1823 1682 1660 1812
8 1824 1684 1662 1813 1825 1686 1664 1814
8 1825 1686 1664 1814 1826 1688 1666 1815
8 1826 1688 1666 1815 1827 1690 1668 1816
8 1827 1690 1668 1816 1828 1692 1670 1817
8 1828 1692 1670 1817 1829 1694 1672 1818
8 1829 1694 1672 1818 1830 1696 1674 1819
8 1830 1696 1674 1819 1831 1698 1676 1820
8 1831 1698 1676 1820 1832 1700 1678 1821
8 1832 1700 1678 1821 1833 1702 1680 1822
8 1833 1702 1680 1822 1834 1704 1682 1823
8 1835 1706 1684 1824 1836 1708 1686 1825
8 1836 1708 1686 1825 1837 1710 1688 1826
8 1837 1710 1688 1826 1838 1712 1690 1827
8 1838 1712 1690 1827 1839 1714 1692 1828
8 1839 1714 1692 1828 1840 1716 1694 1829
8 1840 1716 1694 1829 1841 1718 1696 1830
8 1841 1718 1696 1830 1842 1720 1698 1831
8 1842 1720 1698 1831 1843 1722 1700 1832
8 1843 1722 1700 1832 1844 1724 1702 1833
8 1844 1724 1702 1833 1845 1726 1704 1834
8 1846 1728 1706 1835 1847 1730 1708 1836
8 1847 1730 1708 1836 1848 1732 1710 1837
8 1848 1732 1710 1837 1849 1734 1712 1838
8 1849 1734 1712 1838 1850 1736 1714 1839
8 1850 1736 1714 1839 1851 1738 1716 1840
8 1851 1738 1716 1840 1852 1740 1718 1841
8 1852 1740 1718 1841 1853 1742 1720 1842
8 1853 1742 1720 1842 1854 1744 1722 1843
8 1854 1744 1722 1843 1855 1746 1724 1844
8 1856 1748 1728 1846 1857 1750 1730 1847
8 1857 1750 1730 1847 1858 1752 1732 1848
8 1858 1752 1732 1848 1859 1754 1734 1849
8 1859 1754 1734 1849 1860 1756 1736 1850
8 1860 1756 1736 1850 1861 1758 1738 1851
8 1861 1758 1738 1851 1862 1760 1740 1852
8 1862 1760 1740 1852 1863 1762 1742 1853
8 1863 1762 1742 1853 1864 1764 1744 1854
8 1874 1775 1766 1865 1875 1776 1767 1866
8 1875 1776 1767 1866 1876 1777 1768 1867
8 1876 1777 1768 1867 1877 1778 1769 1868
8 1877 1778 1769 1868 1878 1779 1770 1869
8 1878 1779 1770 1869 1879 1780 1771 1870
8 1881 1782 1772 1871 1882 1783 1773 1872
8 1882 1783 1773 1872 1883 1784 1774 1873
8 1883 1784 1774 1873 1884 1785 1775 1874
8 1884 1785 1775 1874 1885 1786 1776 1875
8 1885 1786 1776 1875 1886 1787 1777 1876
8 1886 1787 1777 1876 1887 1788 1778 1877
8 1887 1788 1778 1877 1888 1789 1779 1878
8 1888 1789 1779 1878 1889 1790 1780 1879
8 1891 1792 1781 1880 1892 1793 1782 1881
8 1892 1793 1782 1881 1893 1794 1783 1882
8 1893 1794 1783 1882 1894 1795 1784 1883
8 1894 1795 1784 1883 1895 1796 1785 1884
8 1895 1796 1785 1884 1896 1797 1786 1885
8 1896 1797 1786 1885 1897 1798 1787 1886
8 1897 1798 1787 1886 1898 1799 1788 1887
8 1898 1799 1788 1887 1899 1800 1789 1888
8 1899 1800 1789 1888 1900 1801 1790 1889
8 1901 1802 1791 1890 1902 1803 1792 1891
8 1902 1803 1792 1891 1903 1804 1793 1892
8 1903 1804 1793 1892 1904 1805 1794 1893
8 1904 1805 1794 1893 1905 1806 1795 1894
8 1905 1806 1795 1894 1906 1807 1796 1895
8 1906 1807 1796 1895 1907 1808 1797 1896
8 1907 1808 1797 1896 1908 1809 1798 1897
8 1908 1809 1798 1897 1909 1810 1799 1898
8 1909 1810 1799 1898 1910 1811 1800 1899
8 1910 1811 1800 1899 1911 1812 1801 1900
8 1912 1813 1802 1901 1913 1814 1803 1902
8 1913 1814 1803 1902 1914 1815 1804 1903
8 1914 1815 1804 1903 1915 1816 1805 1904
8 1915 1816 1805 1904 1916 1817 1806 1905
8 1916 1817 1806 1905 1917 1818 1807 1906
8 1917 1818 1807 1906 1918 1819 1808 1907
8 1918 1819 1808 1907 1919 1820 1809 1908
8 1919 1820 1809 1908 1920 1821 1810 1909
8 1920 1821 1810 1909 1921 1822 1811 1910
8 1921 1822 1811 1910 1922 1823 1812 1911
8 1923 1824 1813 1912 1924 1825 1814 1913
8 1924 1825 1814 1913 1925 1826 1815 1914
8 1925 1826 1815 1914 1926 1827 1816 1915
8 1926 1827 1816 1915 1927 1828 1817 1916
8 1927 1828 1817 1916 1928 1829 1818 1917
8 1928 1829 1818 1917 1929 1830 1819 1918
8 1929 1830 1819 1918 1930 1831 1820 1919
8 1930 1831 1820 1919 1931 1832 1821 1920
8 1931 1832 1821 1920 1932 1833 1822 1921
8 1932 1833 1822 1921 1933 1834 1823 1922
8 1934 1835 1824 1923 1935 1836 1825 1924
8 1935 1836 1825 1924 1936 1837 1826 1925
8 1936 1837 1826 1925 1937 1838 1827 1926
8 1937 1838 1827 1926 1938 1839 1828 1927
8 1938 1839 1828 1927 1939 1840 1829 1928
8 1939 1840 1829 1928 1940 1841 1830 1929
8 1940 1841 1830 1929 1941 1842 1831 1930
8 1941 1842 1831 1930 1942 1843 1832 1931
8 1942 1843 1832 1931 1943 1844 1833 1932
8 1943 1844 1833 1932 1944 1845 1834 1933
8 1945 1846 1835 1934 1946 1847 1836 1935
8 1946 1847 1836 1935 1947 1848 1837 1936
8 1947 1848 1837 1936 1948 1849 1838 1937
8 1948 1849 1838 1937 1949 1850 1839 1938
8 1949 1850 1839 1938 1950 1851 1840 1939
8 1950 1851 1840 1939 1951 1852 1841 1940
8 1951 1852 1841 1940 1952 1853 1842 1941
8 1952 1853 1842 1941 1953 1854 1843 1942
8 1953 1854 1843 1942 1954 1855 1844 1943
8 1955 1856 1846 1945 1956 1857 1847 1946
8 1956 1857 1847 1946 1957 1858 1848 1947
8 1957 1858 1848 1947 1958 1859 1849 1948
8 1958 1859 1849 1948 1959 1860 1850 1949
8 1959 1860 1850 1949 1960 1861 1851 1950
8 1960 1861 1851 1950 1961 1862 1852 1951
8 1961 1862 1852 1951 1962 1863 1853 1952
8 1962 1863 1853 1952 1963 1864 1854 1953
8 1973 1874 1865 1964 1974 1875 1866 1965
8 1974 1875 1866 1965 1975 1876 1867 1966
8 1975 1876 1867 1966 1976 1877 1868 1967
8 1976 1877 1868 1967 1977 1878 1869 1968
8 1977 1878 1869 1968 1978 1879 1870 1969
8 1980 1881 1871 1970 1981 1882 1872 1971
8 1981 1882 1872 1971 1982 1883 1873 1972
8 1982 1883 1873 1972 1983 1884 1874 1973
8 1983 1884 1874 1973 1984 1885 1875 1974
8 1984 1885 1875 1974 1985 1886 1876 1975
8 1985 1886 1876 1975 1986 1887 1877 1976
8 1986 1887 1877 1976 1987 1888 1878 1977
8 1987 1888 1878 1977 1988 1889 1879 1978
8 1990 1891 1880 1979 1991 1892 1881 1980
8 1991 1892 1881 1980 1992 1893 1882 1981
8 1992 1893 1882 1981 1993 1894 1883 1982
8 1993 1894 1883 1982 1994 1895 1884 1983
8 1994 1895 1884 1983 1995 1896 1885 1984
8 1995 1896 1885 1984 1996 1897 1886 1985
8 1996 1897 1886 1985 1997 1898 1887 1986
8 1997 1898 1887 1986 1998 1899 1888 1987
8 1998 1899 1888 1987 1999 1900 1889 1988
8 2000 1901 1890 1989 2001 1902 1891 1990
8 2001 1902 1891 1990 2002 1903 1892 1991
8 2002 1903 1892 1991 2003 1904 1893 1992
8 2003 1904 1893 1992 2004 1905 1894 1993
8 2004 1905 1894 1993 2005 1906 1895 1994
8 2005 1906 1895 1994 2006 1907 1896 1995
8 2006 1907 1896 1995 2007 1908 1897 1996
8 2007 1908 1897 1996 2008 1909 1898 1997
8 2008 1909 1898 1997 2009 1910 1899 1998
8 2009 1910 1899 1998 2010 1911 1900 1999
8 2011 1912 1901 2000 2012 1913 1902 2001
8 2012 1913 1902 2001 2013 1914 1903 2002
8 2013 1914 1903 2002 2014 1915 1904 2003
8 2014 1915 1904 2003 2015 1916 1905 2004
8 2015 1916 1905 2004 2016 1917 1906 2005
8 2016 1917 1906 2005 2017 1918 1907 2006
8 2017 1918 1907 2006 2018 1919 1908 2007
8 2018 1919 1908 2007 2019 1920 1909 2008
8 2019 1920 1909 2008 2020 1921 1910 2009
8 2020 1921 1910 2009 2021 1922 1911 2010
8 2022 1923 1912 2011 2023 1924 1913 2012
8 2023 1924 1913 2012 2024 1925 1914 2013
8 2024 1925 1914 2013 2025 1926 1915 2014
8 2025 1926 1915 2014 2026 1927 1916 2015
8 2026 1927 1916 2015 2027 1928 1917 2016
8 2027 1928 1917 2016 2028 1929 1918 2017
8 2028 1929 1918 2017 2029 1930 1919 2018
8 2029 1930 1919 2018 2030 1931 1920 2019
8 2030 1931 1920 2019 2031 1932 1921 2020
8 2031 1932 1921 2020 2032 1933 1922 2021
8 2033 1934 1923 2022 2034 1935 1924 2023
8 2034 1935 1924 2023 2035 1936 1925 2024
8 2035 1936 1925 2024 2036 1937 1926 2025
8 2036 1937 1926 2025 2037 1938 1927 2026
8 2037 1938 1927 2026 2038 1939 1928 2027
8 2038 1939 1928 2027 2039 1940 1929 2028
8 2039 1940 1929 2028 2040 1941 1930 2029
8 2040 1941 1930 2029 2041 1942 1931 2030
8 2041 1942 1931 2030 2042 1943 1932 2031
8 2042 1943 1932 2031 2043 1944 1933 2032
8 2044 1945 1934 2033 2045 1946 1935 2034
8 2045 1946 1935 2034 2046 1947 1936 2035
8 2046 1947 1936 2035 2047 1948 1937 2036
8 2047 1948 1937 2036 2048 1949 1938 2037
8 2048 1949 1938 2037 2049 1950 1939 2038
8 2049 1950 1939 2038 2050 1951 1940 2039
8 2050 1951 1940 2039 2051 1952 1941 2040
8 2051 1952 1941 2040 2052 1953 1942 2041
8 2052 1953 1942 2041 2053 1954 1943 2042
8 2054 1955 1945 2044 2055 1956 1946 2045
8 2055 1956 1946 2045 2056 1957 1947 2046
8 2056 1957 1947 2046 2057 1958 1948 2047
8 2057 1958 1948 2047 2058 1959 1949 2048
8 2058 1959 1949 2048 2059 1960 1950 2049
8 2059 1960 1950 2049 2060 1961 1951 2050
8 2060 1961 1951 2050 2061 1962 1952 2051
8 2061 1962 1952 2051 2062 1963 1953 2052
8 2072 1973 1964 2063 2073 1974 1965 2064
8 2073 1974 1965 2064 2074 1975 1966 2065
8 2074 1975 1966 2065 2075 1976 1967 2066
8 2075 1976 1967 2066 2076 1977 1968 2067
8 2076 1977 1968 2067 2077 1978 1969 2068
8 2079 1980 1970 2069 2080 1981 1971 2070
8 2080 1981 1971 2070 2081 1982 1972 2071
8 2081 1982 1972 2071 2082 1983 1973 2072
8 2082 1983 1973 2072 2083 1984 1974 2073
8 2083 1984 1974 2073 2084 1985 1975 2074
8 2084 1985 1975 2074 2085 1986 1976 2075
8 2085 1986 1976 2075 2086 1987 1977 2076
8 2086 1987 1977 2076 2087 1988 1978 2077
8 2089 1990 1979 2078 2090 1991 1980 2079
8 2090 1991 1980 2079 2091 1992 1981 2080
8 2091 1992 1981 2080 2092 1993 1982 2081
8 2092 1993 1982 2081 2093 1994 1983 2082
8 2093 1994 1983 2082 2094 1995 1984 2083
8 2094 1995 1984 2083 2095 1996 1985 2084
8 2095 1996 1985 2084 2096 1997 1986 2085
8 2096 1997 1986 2085 2097 1998 1987 2086
8 2097 1998 1987 2086 2098 1999 1988 2087
8 2099 2000 1989 2088 2100 2001 1990 2089
8 2100 2001 1990 2089 2101 2002 1991 2090
8 2101 2002 1991 2090 2102 2003 1992 2091
8 2102 2003 1992 2091 2103 2004 1993 2092
8 2103 2004 1993 2092 2104 2005 1994 2093
8 2104 2005 1994 2093 2105 2006 1995 2094
8 2105 2006 1995 2094 2106 2007 1996 2095
8 2106 2007 1996 2095 2107 2008 1997 2096
8 2107 2008 1997 2096 2108 2009 1998 2097
8 2108 2009 1998 2097 2109 2010 1999 2098
8 2110 2011 2000 2099 2111 2012 2001 2100
8 2111 2012 2001 2100 2112 2013 2002 2101
8 2112 2013 2002 2101 2113 2014 2003 2102
8 2113 2014 2003 2102 2114 2015 2004 2103
8 2114 2015 2004 2103 2115 2016 2005 2104
8 2115 2016 2005 2104 2116 2017 2006 2105
8 2116 2017 2006 2105 2117 2018 2007 2106
8 2117 2018 2007 2106 2118 2019 2008 2107
8 2118 2019 2008 2107 2119 2020 2009 2108
8 2119 2020 2009 2108 2120 2021 2010 2109
8 2121 2022 2011 2110 2122 2023 2012 2111
8 2122 2023 2012 2111 2123 2024 2013 2112
8 2123 2024 2013 2112 2124 2025 2014 2113
8 2124 2025 2014 2113 2125 2026 2015 2114
8 2125 2026 2015 2114 2126 2027 2016 2115
8 2126 2027 2016 2115 2127 2028 2017 2116
8 2127 2028 2017 2116 2128 2029 2018 2117
8 2128 2029 2018 2117 2129 2030 2019 2118
8 2129 2030 2019 2118 2130 2031 2020 2119
8 2130 2031 2020 2119 2131 2032 2021 2120
8 2132 2033 2022 2121 2133 2034 2023 2122
8 2133 2034 2023 2122 2134 2035 2024 2123
8 2134 2035 2024 2123 2135 2036 2025 2124
8 2135 2036 2025 2124 2136 2037 2026 2125
8 2136 2037 2026 2125 2137 2038 2027 2126
8 2137 2038 2027 2126 2138 2039 2028 2127
8 2138 2039 2028 2127 2139 2040 2029 2128
8 2139 2040 2029 2128 2140 2041 2030 2129
8 2140 2041 2030 2129 2141 2042 2031 2130
8 2141 2042 2031 2130 2142 2043 2032 2131
8 2143 2044 2033 2132 2144 2045 2034 2133
8 2144 2045 2034 2133 2145 2046 2035 2134
8 2145 2046 2035 2134 2146 2047 2036 2135
8 2146 2047 2036 2135 2147 2048 2037 2136
8 2147 2048 2037 2136 2148 2049 2038 2137
8 2148 2049 2038 2137 2149 2050 2039 2138
8 2149 2050 2039 2138 2150 2051 2040 2139
8 2150 2051 2040 2139 2151 2052 2041 2140
8 2151 2052 2041 2140 2152 2053 2042 2141
8 2153 2054 2044 2143 2154 2055 2045 2144
8 2154 2055 2045 2144 2155 2056 2046 2145
8 2155 2056 2046 2145 2156 2057 2047 2146
8 2156 2057 2047 2146 2157 2058 2048 2147
8 2157 2058 2048 2147 2158 2059 2049 2148
8 2158 2059 2049 2148 2159 2060 2050 2149
8 2159 2060 2050 2149 2160 2061 2051 2150
8 2160 2061 2051 2150 2161 2062 2052 2151
8 2171 2072 2063 2162 2172 2073 2064 2163
8 2172 2073 2064 2163 2173 2074 2065 2164
8 2173 2074 2065 2164 2174 2075 2066 2165
8 2174 2075 2066 2165 2175 2076 2067 2166
8 2175 2076 2067 2166 2176 2077 2068 2167
8 2178 2079 2069 2168 2179 2080 2070 2169
8 2179 2080 2070 2169 2180 2081 2071 2170
8 2180 2081 2071 2170 2181 2082 2072 2171
8 2181 2082 2072 2171 2182 2083 2073 2172
8 2182 2083 2073 2172 2183 2084 2074 2173
8 2183 2084 2074 2173 2184 2085 2075 2174
8 2184 2085 2075 2174 2185 2086 2076 2175
8 2185 2086 2076 2175 2186 2087 2077 2176
8 2188 2089 2078 2177 2189 2090 2079 2178
8 2189 2090 2079 2178 2190 2091 2080 2179
8 2190 2091 2080 2179 2191 2092 2081 2180
8 2191 2092 2081 2180 2192 2093 2082 2181
8 2192 2093 2082 2181 2193 2094 2083 2182
8 2193 2094 2083 2182 2194 2095 2084 2183
8 2194 2095 2084 2183 2195 2096 2085 2184
8 2195 2096 2085 2184 2196 2097 2086 2185
8 2196 2097 2086 2185 2197 2098 2087 2186
8 2198 2099 2088 2187 2199 2100 2089 2188
8 2199 2100 2089 2188 2200 2101 2090 2189
8 2200 2101 2090 2189 2201 2102 2091 2190
8 2201 2102 2091 2190 2202 2103 2092 2191
8 2202 2103 2092 2191 2203 2104 2093 2192
8 2203 2104 2093 2192 2204 2105 2094 2193
8 2204 2105 2094 2193 2205 2106 2095 2194
8 2205 2106 2095 2194 2206 2107 2096 2195
8 2206 2107 2096 2195 2207 2108 2097 2196
8 2207 2108 2097 2196 2208 2109 2098 2197
8 2209 2110 2099 2198 2210 2111 2100 2199
8 2210 2111 2100 2199 2211 2112 2101 2200
8 2211 2112 2101 2200 2212 2113 2102 2201
8 2212 2113 2102 2201 2213 2114 2103 2202
8 2213 2114 2103 2202 2214 2115 2104 2203
8 2214 2115 2104 2203 2215 2116 2105 2204
8 2215 2116 2105 2204 2216 2117 2106 2205
8 2216 2117 2106 2205 2217 2118 2107 2206
8 2217 2118 2107 2206 2218 2119 2108 2207
8 2218 2119 2108 2207 2219 2120 2109 2208
8 2220 2121 2110 2209 2221 2122 2111 2210
8 2221 2122 2111 2210 2222 2123 2112 2211
8 2222 2123 2112 2211 2223 2124 2113 2212
8 2223 2124 2113 2212 2224 2125 2114 2213
8 2224 2125 2114 2213 2225 2126 2115 2214
8 2225 2126 2115 2214 2226 2127 2116 2215
8 2226 2127 2116 2215 2227 2128 2117 2216
8 2227 2128 2117 2216 2228 2129 2118 2217
8 2228 2129 2118 2217 2229 2130 2119 2218
8 2229 2130 2119 2218 2230 2131 2120 2219
8 2231 2132 2121 2220 2232 2133 2122 2221
8 2232 2133 2122 2221 2233 2134 2123 2222
8 2233 2134 2123 2222 2234 2135 2124 2223
8 2234 2135 2124 2223 2235 2136 2125 2224
8 2235 2136 2125 2224 2236 2137 2126 2225
8 2236 2137 2126 2225 2237 2138 2127 2226
8 2237 2138 2127 2226 2238 2139 2128 2227
8 2238 2139 2128 2227 2239 2140 2129 2228
8 2239 2140 2129 2228 2240 2141 2130 2229
8 2240 2141 2130 2229 2241 2142 2131 2230
8 2242 2143 2132 2231 2243 2144 2133 2232
8 2243 2144 2133 2232 2244 2145 2134 2233
8 2244 2145 2134 2233 2245 2146 2135 2234
8 2245 2146 2135 2234 2246 2147 2136 2235
8 2246 2147 2136 2235 2247 2148 2137 2236
8 2247 2148 2137 2236 2248 2149 2138 2237
8 2248 2149 2138 2237 2249 2150 2139 2238
8 2249 2150 2139 2238 2250 2151 2140 2239
8 2250 2151 2140 2239 2251 2152 2141 2240
8 2252 2153 2143 2242 2253 2154 2144 2243
8 2253 2154 2144 2243 2254 2155 2145 2244
8 2254 2155 2145 2244 2255 2156 2146 2245
8 2255 2156 2146 2245 2256 2157 2147 2246
8 2256 2157 2147 2246 2257 2158 2148 2247
8 2257 2158 2148 2247 2258 2159 2149 2248
8 2258 2159 2149 2248 2259 2160 2150 2249
8 2259 2160 2150 2249 2260 2161 2151 2250
8 2270 2171 2162 2261 2271 2172 2163 2262
8 2271 2172 2163 2262 2272 2173 2164 2263
8 2272 2173 2164 2263 2273 2174 2165 2264
8 2273 2174 2165 2264 2274 2175 2166 2265
8 2274 2175 2166 2265 2275 2176 2167 2266
8 2277 2178 2168 2267 2278 2179 2169 2268
8 2278 2179 2169 2268 2279 2180 2170 2269
8 2279 2180 2170 2269 2280 2181 2171 2270
8 2280 2181 2171 2270 2281 2182 2172 2271
8 2281 2182 2172 2271 2282 2183 2173 2272
8 2282 2183 2173 2272 2283 2184 2174 2273
8 2283 2184 2174 2273 2284 2185 2175 2274
8 2284 2185 2175 2274 2285 2186 2176 2275
8 2287 2188 2177 2276 2288 2189 2178 2277
8 2288 2189 2178 2277 2289 2190 2179 2278
8 2289 2190 2179 2278 2290 2191 2180 2279
8 2290 2191 2180 2279 2291 2192 2181 2280
8 2291 2192 2181 2280 2292 2193 2182 2281
8 2292 2193 2182 2281 2293 2194 2183 2282
8 2293 2194 2183 2282 2294 2195 2184 2283
8 2294 2195 2184 2283 2295 2196 2185 2284
8 2295 2196 2185 2284 2296 2197 2186 2285
8 2297 2198 2187 2286 2298 2199 2188 2287
8 2298 2199 2188 2287 2299 2200 2189 2288
8 2299 2200 2189 2288 2300 2201 2190 2289
8 2300 2201 2190 2289 2301 2202 2191 2290
8 2301 2202 2191 2290 2302 2203 2192 2291
8 2302 2203 2192 2291 2303 2204 2193 2292
8 2303 2204 2193 2292 2304 2205 2194 2293
8 2304 2205 2194 2293 2305 2206 2195 2294
8 2305 2206 2195 2294 2306 2207 2196 2295
8 2306 2207 2196 2295 2307 2208 2197 2296
8 2308 2209 2198 2297 2309 2210 2199 2298
8 2309 2210 2199 2298 2310 2211 2200 2299
8 2310 2211 2200 2299 2311 2212 2201 2300
8 2311 2212 2201 2300 2312 2213 2202 2301
8 2312 2213 2202 2301 2313 2214 2203 2302
8 2313 2214 2203 2302 2314 2215 2204 2303
8 2314 2215 2204 2303 2315 2216 2205 2304
8 2315 2216 2205 2304 2316 2217 2206 2305
8 2316 2217 2206 2305 2317 2218 2207 2306
8 2317 2218 2207 2306 2318 2219 2208 2307
8 2319 2220 2209 2308 2320 2221 2210 2309
8 2320 2221 2210 2309 2321 2222 2211 2310
8 2321 2222 2211 2310 2322 2223 2212 2311
8 2322 2223 2212 2311 2323 2224 2213 2312
8 2323 2224 2213 2312 2324 2225 2214 2313
8 2324 2225 2214 2313 2325 2226 2215 2314
8 2325 2226 2215 2314 2326 2227 2216 2315
8 2326 2227 2216 2315 2327 2228 2217 2316
8 2327 2228 2217 2316 2328 2229 2218 2317
8 2328 2229 2218 2317 2329 2230 2219 2318
8 2330 2231 2220 2319 2331 2232 2221 2320
8 2331 2232 2221 2320 2332 2233 2222 2321
8 2332 2233 2222 2321 2333 2234 2223 2322
8 2333 2234 2223 2322 2334 2235 2224 2323
8 2334 2235 2224 2323 2335 2236 2225 2324
8 2335 2236 2225 2324 2336 2237 2226 2325
8 2336 2237 2226 2325 2337 2238 2227 2326
8 2337 2238 2227 2326 2338 2239 2228 2327
8 2338 2239 2228 2327 2339 2240 2229 2328
8 2339 2240 2229 2328 2340 2241 2230 2329
8 2341 2242 2231 2330 2342 2243 2232 2331
8 2342 2243 2232 2331 2343 2244 2233 2332
8 2343 2244 2233 2332 2344 2245 2234 2333
8 2344 2245 2234 2333 2345 2246 2235 2334
8 2345 2246 2235 2334 2346 2247 2236 2335
8 2346 2247 2236 2335 2347 2248 2237 2336
8 2347 2248 2237 2336 2348 2249 2238 2337
8 2348 2249 2238 2337 2349 2250 2239 2338
8 2349 2250 2239 2338 2350 2251 2240 2339
8 2351 2252 2242 2341 2352 2253 2243 2342
8 2352 2253 2243 2342 2353 2254 2244 2343
8 2353 2254 2244 2343 2354 2255 2245 2344
8 2354 2255 2245 2344 2355 2256 2246 2345
8 2355 2256 2246 2345 2356 2257 2247 2346
8 2356 2257 2247 2346 2357 2258 2248 2347
8 2357 2258 2248 2347 2358 2259 2249 2348
8 2358 2259 2249 2348 2359 2260 2250 2349
8 2369 2270 2261 2360 2370 2271 2262 2361
8 2370 2271 2262 2361 2371 2272 2263 2362
8 2371 2272 2263 2362 2372 2273 2264 2363
8 2372 2273 2264 2363 2373 2274 2265 2364
8 2373 2274 2265 2364 2374 2275 2266 2365
8 2376 2277 2267 2366 2377 2278 2268 2367
8 2377 2278 2268 2367 2378 2279 2269 2368
8 2378 2279 2269 2368 2379 2280 2270 2369
8 2379 2280 2270 2369 2380 2281 2271 2370
8 2380 2281 2271 2370 2381 2282 2272 2371
8 2381 2282 2272 2371 2382 2283 2273 2372
8 2382 2283 2273 2372 2383 2284 2274 2373
8 2383 2284 2274 2373 2384 2285 2275 2374
8 2386 2287 2276 2375 2387 2288 2277 2376
8 2387 2288 2277 2376 2388 2289 2278 2377
8 2388 2289 2278 2377 2389 2290 2279 2378
8 2389 2290 2279 2378 2390 2291 2280 2379
8 2390 2291 2280 2379 2391 2292 2281 2380
8 2391 2292 2281 2380 2392 2293 2282 2381
8 2392 2293 2282 2381 2393 2294 2283 2382
8 2393 2294 2283 2382 2394 2295 2284 2383
8 2394 2295 2284 2383 2395 2296 2285 2384
8 2396 2297 2286 2385 2397 2298 2287 2386
8 2397 2298 2287 2386 2398 2299 2288 2387
8 2398 2299 2288 2387 2399 2300 2289 2388
8 2399 2300 2289 2388 2400 2301 2290 2389
8 2400 2301 2290 2389 2401 2302 2291 2390
8 2401 2302 2291 2390 2402 2303 2292 2391
8 2402 2303 2292 2391 2403 2304 2293 2392
8 2403 2304 2293 2392 2404 2305 2294 2393
8 2404 2305 2294 2393 2405 2306 2295 2394
8 2405 2306 2295 2394 2406 2307 2296 2395
8 2407 2308 2297 2396 2408 2309 2298 2397
8 2408 2309 2298 2397 2409 2310 2299 2398
8 2409 2310 2299 2398 2410 2311 2300 2399
8 2410 2311 2300 2399 2411 2312 2301 2400
8 2411 2312 2301 2400 2412 2313 2302 2401
8 2412 2313 2302 2401 2413 2314 2303 2402
8 2413 2314 2303 2402 2414 2315 2304 2403
8 2414 2315 2304 2403 2415 2316 2305 2404
8 2415 2316 2305 2404 2416 2317 2306 2405
8 2416 2317 2306 2405 2417 2318 2307 2406
8 2418 2319 2308 2407 2419 2320 2309 2408
8 2419 2320 2309 2408 2420 2321 2310 2409
8 2420 2321 2310 2409 2421 2322 2311 2410
8 2421 2322 2311 2410 2422 2323 2312 2411
8 2422 2323 2312 2411 2423 2324 2313 2412
8 2423 2324 2313 2412 2424 2325 2314 2413
8 2424 2325 2314 2413 2425 2326 2315 2414
8 2425 2326 2315 2414 2426 2327 2316 2415
8 2426 2327 2316 2415 2427 2328 2317 2416
8 2427 2328 2317 2416 2428 2329 2318 2417
8 2429 2330 2319 2418 2430 2331 2320 2419
8 2430 2331 2320 2419 2431 2332 2321 2420
8 2431 2332 2321 2420 2432 2333 2322 2421
8 2432 2333 2322 2421 2433 2334 2323 2422
8 2433 2334 2323 2422 2434 2335 2324 2423
8 2434 2335 2324 2423 2435 2336 2325 2424
8 2435 2336 2325 2424 2436 2337 2326 2425
8 2436 2337 2326 2425 2437 2338 2327 2426
8 2437 2338 2327 2426 2438 2339 2328 2427
8 2438 2339 2328 2427 2439 2340 2329 2428
8 2440 2341 2330 2429 2441 2342 2331 2430
8 2441 2342 2331 2430 2442 2343 2332 2431
8 2442 2343 2332 2431 2443 2344 2333 2432
8 2443 2344 2333 2432 2444 2345 2334 2433
8 2444 2345 2334 2433 2445 2346 2335 2434
8 2445 2346 2335 2434 2446 2347 2336 2435
8 2446 2347 2336 2435 2447 2348 2337 2436
8 2447 2348 2337 2436 2448 2349 2338 2437
8 2448 2349 2338 2437 2449 2350 2339 2438
8 2450 2351 2341 2440 2451 2352 2342 2441
8 2451 2352 2342 2441 2452 2353 2343 2442
8 2452 2353 2343 2442 2453 2354 2344 2443
8 2453 2354 2344 2443 2454 2355 2345 2444
8 2454 2355 2345 2444 2455 2356 2346 2445
8 2455 2356 2346 2445 2456 2357 2347 2446
8 2456 2357 2347 2446 2457 2358 2348 2447
8 2457 2358 2348 2447 2458 2359 2349 2448
8 2468 2369 2360 2459 2469 2370 2361 2460
8 2469 2370 2361 2460 2470 2371 2362 2461
8 2470 2371 2362 2461 2471 2372 2363 2462
8 2471 2372 2363 2462 2472 2373 2364 2463
8 2472 2373 2364 2463 2473 2374 2365 2464
8 2475 2376 2366 2465 2476 2377 2367 2466
8 2476 2377 2367 2466 2477 2378 2368 2467
8 2477 2378 2368 2467 2478 2379 2369 2468
8 2478 2379 2369 2468 2479 2380 2370 2469
8 2479 2380 2370 2469 2480 2381 2371 2470
8 2480 2381 2371 2470 2481 2382 2372 2471
8 2481 2382 2372 2471 2482 2383 2373 2472
8 2482 2383 2373 2472 2483 2384 2374 2473
8 2485 2386 2375 2474 2486 2387 2376 2475
8 2486 2387 2376 2475 2487 2388 2377 2476
8 2487 2388 2377 2476 2488 2389 2378 2477
8 2488 2389 2378 2477 2489 2390 2379 2478
8 2489 2390 2379 2478 2490 2391 2380 2479
8 2490 2391 2380 2479 2491 2392 2381 2480
8 2491 2392 2381 2480 2492 2393 2382 2481
8 2492 2393 2382 2481 2493 2394 2383 2482
8 2493 2394 2383 2482 2494 2395 2384 2483
8 2495 2396 2385 2484 2496 2397 2386 2485
8 2496 2397 2386 2485 2497 2398 2387 2486
8 2497 2398 2387 2486 2498 2399 2388 2487
8 2498 2399 2388 2487 2499 2400 2389 2488
8 2499 2400 2389 2488 2500 2401 2390 2489
8 2500 2401 2390 2489 2501 2402 2391 2490
8 2501 2402 2391 2490 2502 2403 2392 2491
8 2502 2403 2392 2491 2503 2404 2393 2492
8 2503 2404 2393 2492 2504 2405 2394 2493
8 2504 2405 2394 2493 2505 2406 2395 2494
8 2506 2407 2396 2495 2507 2408 2397 2496
8 2507 2408 2397 2496 2508 2409 2398 2497
8 2508 2409 2398 2497 2509 2410 2399 2498
8 2509 2410 2399 2498 2510 2411 2400 2499
8 2510 2411 2400 2499 2511 2412 2401 2500
8 2511 2412 2401 2500 2512 2413 2402 2501
8 2512 2413 2402 2501 2513 2414 2403 2502
8 2513 2414 2403 2502 2514 2415 2404 2503
8 2514 2415 2404 2503 2515 2416 2405 2504
8 2515 2416 2405 2504 2516 2417 2406 2505
8 2517 2418 2407 2506 2518 2419 2408 2507
8 2518 2419 2408 2507 2519 2420 2409 2508
8 2519 2420 2409 2508 2520 2421 2410 2509
8 2520 2421 2410 2509 2521 2422 2411 2510
8 2521 2422 2411 2510 2522 2423 2412 2511
8 2522 2423 2412 2511 2523 2424 2413 2512
8 2523 2424 2413 2512 2524 2425 2414 2513
8 2524 2425 2414 2513 2525 2426 2415 2514
8 2525 2426 2415 2514 2526 2427 2416 2515
8 2526 2427 2416 2515 2527 2428 2417 2516
8 2528 2429 2418 2517 2529 2430 2419 2518
8 2529 2430 2419 2518 2530 2431 2420 2519
8 2530 2431 2420 2519 2531 2432 2421 2520
8 2531 2432 2421 2520 2532 2433 2422 2521
8 2532 2433 2422 2521 2533 2434 2423 2522
8 2533 2434 2423 2522 2534 2435 2424 2523
8 2534 2435 2424 2523 2535 2436 2425 2524
8 2535 2436 2425 2524 2536 2437 2426 2525
8 2536 2437 2426 2525 2537 2438 2427 2526
8 2537 2438 2427 2526 2538 2439 2428 2527
8 2539 2440 2429 2528 2540 2441 2430 2529
8 2540 2441 2430 2529 2541 2442 2431 2530
8 2541 2442 2431 2530 2542 2443 2432 2531
8 2542 2443 2432 2531 2543 2444 2433 2532
8 2543 2444 2433 2532 2544 2445 2434 2533
8 2544 2445 2434 2533 2545 2446 2435 2534
8 2545 2446 2435 2534 2546 2447 2436 2535
8 2546 2447 2436 2535 2547 2448 2437 2536
8 2547 2448 2437 2536 2548 2449 2438 2537
8 2549 2450 2440 2539 2550 2451 2441 2540
8 2550 2451 2441 2540 2551 2452 2442 2541
8 2551 2452 2442 2541 2552 2453 2443 2542
8 2552 2453 2443 2542 2553 2454 2444 2543
8 2553 2454 2444 2543 2554 2455 2445 2544
8 2554 2455 2445 2544 2555 2456 2446 2545
8 2555 2456 2446 2545 2556 2457 2447 2546
8 2556 2457 2447 2546 2557 2458 2448 2547
8 2567 2468 2459 2558 2568 2469 2460 2559
8 2568 2469 2460 2559 2569 2470 2461 2560
8 2569 2470 2461 2560 2570 2471 2462 2561
8 2570 2471 2462 2561 2571 2472 2463 2562
8 2571 2472 2463 2562 2572 2473 2464 2563
8 2574 2475 2465 2564 2575 2476 2466 2565
8 2575 2476 2466 2565 2576 2477 2467 2566
8 2576 2477 2467 2566 2577 2478 2468 2567
8 2577 2478 2468 2567 2578 2479 2469 2568
8 2578 2479 2469 2568 2579 2480 2470 2569
8 2579 2480 2470 2569 2580 2481 2471 2570
8 2580 2481 2471 2570 2581 2482 2472 2571
8 2581 2482 2472 2571 2582 2483 2473 2572
8 2584 2485 2474 2573 2585 2486 2475 2574
8 2585 2486 2475 2574 2586 2487 2476 2575
8 2586 2487 2476 2575 2587 2488 2477 2576
8 2587 2488 2477 2576 2588 2489 2478 2577
8 2588 2489 2478 2577 2589 2490 2479 2578
8 2589 2490 2479 2578 2590 2491 2480 2579
8 2590 2491 2480 2579 2591 2492 2481 2580
8 2591 2492 2481 2580 2592 2493 2482 2581
8 2592 2493 2482 2581 2593 2494 2483 2582
8 2594 2495 2484 2583 2595 2496 2485 2584
8 2595 2496 2485 2584 2596 2497 2486 2585
8 2596 2497 2486 2585 2597 2498 2487 2586
8 2597 2498 2487 2586 2598 2499 2488 2587
8 2598 2499 2488 2587 2599 2500 2489 2588
8 2599 2500 2489 2588 2600 2501 2490 2589
8 2600 2501 2490 2589 2601 2502 2491 2590
8 2601 2502 2491 2590 2602 2503 2492 2591
8 2602 2503 2492 2591 2603 2504 2493 2592
8 2603 2504 2493 2592 2604 2505 2494 2593
8 2605 2506 2495 2594 2606 2507 2496 2595
8 2606 2507 2496 2595 2607 2508 2497 2596
8 2607 2508 2497 2596 2608 2509 2498 2597
8 2608 2509 2498 2597 2609 2510 2499 2598
8 2609 2510 2499 2598 2610 2511 2500 2599
8 2610 2511 2500 2599 2611 2512 2501 2600
8 2611 2512 2501 2600 2612 2513 2502 2601
8 2612 2513 2502 2601 2613 2514 2503 2602
8 2613 2514 2503 2602 2614 2515 2504 2603
8 2614 2515 2504 2603 2615 2516 2505 2604
8 2616 2517 2506 2605 2617 2518 2507 2606
8 2617 2518 2507 2606 2618 2519 2508 2607
8 2618 2519 2508 2607 2619 2520 2509 2608
8 2619 2520 2509 2608 2620 2521 2510 2609
8 2620 2521 2510 2609 2621 2522 2511 2610
8 2621 2522 2511 2610 2622 2523 2512 2611
8 2622 2523 2512 2611 2623 2524 2513 2612
8 2623 2524 2513 2612 2624 2525 2514 2613
8 2624 2525 2514 2613 2625 2526 2515 2614
8 2625 2526 2515 2614 2626 2527 2516 2615
8 2627 2528 2517 2616 2628 2529 2518 2617
8 2628 2529 2518 2617 2629 2530 2519 2618
8 2629 2530 2519 2618 2630 2531 2520 2619
8 2630 2531 2520 2619 2631 2532 2521 2620
8 2631 2532 2521 2620 2632 2533 2522 2621
8 2632 2533 2522 2621 2633 2534 2523 2622
8 2633 2534 2523 2622 2634 2535 2524 2623
8 2634 2535 2524 2623 2635 2536 2525 2624
8 2635 2536 2525 2624 2636 2537 2526 2625
8 2636 2537 2526 2625 2637 2538 2527 2626
8 2638 2539 2528 2627 2639 2540 2529 2628
8 2639 2540 2529 2628 2640 2541 2530 2629
8 2640 2541 2530 2629 2641 2542 2531 2630
8 2641 2542 2531 2630 2642 2543 2532 2631
8 2642 2543 2532 2631 2643 2544 2533 2632
8 2643 2544 2533 2632 2644 2545 2534 2633
8 2644 2545 2534 2633 2645 2546 2535 2634
8 2645 2546 2535 2634 2646 2547 2536 2635
8 2646 2547 2536 2635 2647 2548 2537 2636
8 2648 2549 2539 2638 2649 2550 2540 2639
8 2649 2550 2540 2639 2650 2551 2541 2640
8 2650 2551 2541 2640 2651 2552 2542 2641
8 2651 2552 2542 2641 2652 2553 2543 2642
8 2652 2553 2543 2642 2653 2554 2544 2643
8 2653 2554 2544 2643 2654 2555 2545 2644
8 2654 2555 2545 2644 2655 2556 2546 2645
8 2655 2556 2546 2645 2656 2557 2547 2646
8 2666 2567 2558 2657 2667 2568 2559 2658
8 2667 2568 2559 2658 2668 2569 2560 2659
8 2668 2569 2560 2659 2669 2570 2561 2660
8 2669 2570 2561 2660 2670 2571 2562 2661
8 2670 2571 2562 2661 2671 2572 2563 2662
8 2673 2574 2564 2663 2674 2575 2565 2664
8 2674 2575 2565 2664 2675 2576 2566 2665
8 2675 2576 2566 2665 2676 2577 2567 2666
8 2676 2577 2567 2666 2677 2578 2568 2667
8 2677 2578 2568 2667 2678 2579 2569 2668
8 2678 2579 2569 2668 2679 2580 2570 2669
8 2679 2580 2570 2669 2680 2581 2571 2670
8 2680 2581 2571 2670 2681 2582 2572 2671
8 2683 2584 2573 2672 2684 2585 2574 2673
8 2684 2585 2574 2673 2685 2586 2575 2674
8 2685 2586 2575 2674 2686 2587 2576 2675
8 2686 2587 2576 2675 2687 2588 2577 2676
8 2687 2588 2577 2676 2688 2589 2578 2677
8 2688 2589 2578 2677 2689 2590 2579 2678
8 2689 2590 2579 2678 2690 2591 2580 2679
8 2690 2591 2580 2679 2691 2592 2581 2680
8 2691 2592 2581 2680 2692 2593 2582 2681
8 2693 2594 2583 2682 2694 2595 2584 2683
8 2694 2595 2584 2683 2695 2596 2585 2684
8 2695 2596 2585 2684 2696 2597 2586 2685
8 2696 2597 2586 2685 2697 2598 2587 2686
8 2697 2598 2587 2686 2698 2599 2588 2687
8 2698 2599 2588 2687 2699 2600 2589 2688
8 2699 2600 2589 2688 2700 2601 2590 2689
8 2700 2601 2590 2689 2701 2602 2591 2690
8 2701 2602 2591 2690 2702 2603 2592 2691
8 2702 2603 2592 2691 2703 2604 2593 2692
8 2704 2605 2594 2693 2705 2606 2595 2694
8 2705 2606 2595 2694 2706 2607 2596 2695
8 2706 2607 2596 2695 2707 2608 2597 2696
8 2707 2608 2597 2696 2708 2609 2598 2697
8 2708 2609 2598 2697 2709 2610 2599 2698
8 2709 2610 2599 2698 2710 2611 2600 2699
8 2710 2611 2600 2699 2711 2612 2601 2700
8 2711 2612 2601 2700 2712 2613 2602 2701
8 2712 2613 2602 2701 2713 2614 2603 2702
8 2713 2614 2603 2702 2714 2615 2604 2703
8 2715 2616 2605 2704 2716 2617 2606 2705
8 2716 2617 2606 2705 2717 2618 2607 2706
8 2717 2618 2607 2706 2718 2619 2608 2707
8 2718 2619 2608 2707 2719 2620 2609 2708
8 2719 2620 2609 2708 2720 2621 2610 2709
8 2720 2621 2610 2709 2721 2622 2611 2710
8 2721 2622 2611 2710 2722 2623 2612 2711
8 2722 2623 2612 2711 2723 2624 2613 2712
8 2723 2624 2613 2712 2724 2625 2614 2713
8 2724 2625 2614 2713 2725 2626 2615 2714
8 2726 2627 2616 2715 2727 2628 2617 2716
8 2727 2628 2617 2716 2728 2629 2618 2717
8 2728 2629 2618 2717 2729 2630 2619 2718
8 2729 2630 2619 2718 2730 2631 2620 2719
8 2730 2631 2620 2719 2731 2632 2621 2720
8 2731 2632 2621 2720 2732 2633 2622 2721
8 2732 2633 2622 2721 2733 2634 2623 2722
8 2733 2634 2623 2722 2734 2635 2624 2723
8 2734 2635 2624 2723 2735 2636 2625 2724
8 2735 2636 2625 2724 2736 2637 2626 2725
8 2737 2638 2627 2726 2738 2639 2628 2727
8 2738 2639 2628 2727 2739 2640 2629 2728
8 2739 2640 2629 2728 2740 2641 2630 2729
8 2740 2641 2630 2729 2741 2642 2631 2730
8 2741 2642 2631 2730 2742 2643 2632 2731
8 2742 2643 2632 2731 2743 2644 2633 2732
8 2743 2644 2633 2732 2744 2645 2634 2733
8 2744 2645 2634 2733 2745 2646 2635 2734
8 2745 2646 2635 2734 2746 2647 2636 2735
8 2747 2648 2638 2737 2748 2649 2639 2738
8 2748 2649 2639 2738 2749 2650 2640 2739
8 2749 2650 2640 2739 2750 2651 2641 2740
8 2750 2651 2641 2740 2751 2652 2642 2741
8 2751 2652 2642 2741 2752 2653 2643 2742
8 2752 2653 2643 2742 2753 2654 2644 2743
8 2753 2654 2644 2743 2754 2655 2645 2744
8 2754 2655 2645 2744 2755 2656 2646 2745
8 2765 2666 2657 2756 2766 2667 2658 2757
8 2766 2667 2658 2757 2767 2668 2659 2758
8 2767 2668 2659 2758 2768 2669 2660 2759
8 2768 2669 2660 2759 2769 2670 2661 2760
8 2769 2670 2661 2760 2770 2671 2662 2761
8 2772 2673 2663 2762 2773 2674 2664 2763
8 2773 2674 2664 2763 2774 2675 2665 2764
8 2774 2675 2665 2764 2775 2676 2666 2765
8 2775 2676 2666 2765 2776 2677 2667 2766
8 2776 2677 2667 2766 2777 2678 2668 2767
8 2777 2678 2668 2767 2778 2679 2669 2768
8 2778 2679 2669 2768 2779 2680 2670 2769
8 2779 2680 2670 2769 2780 2681 2671 2770
8 2782 2683 2672 2771 2783 2684 2673 2772
8 2783 2684 2673 2772 2784 2685 2674 2773
8 2784 2685 2674 2773 2785 2686 2675 2774
8 2785 2686 2675 2774 2786 2687 2676 2775
8 2786 2687 2676 2775 2787 2688 2677 2776
8 2787 2688 2677 2776 2788 2689 2678 2777
8 2788 2689 2678 2777 2789 2690 2679 2778
8 2789 2690 2679 2778 2790 2691 2680 2779
8 2790 2691 2680 2779 2791 2692 2681 2780
8 2792 2693 2682 2781 2793 2694 2683 2782
8 2793 2694 2683 2782 2794 2695 2684 2783
8 2794 2695 2684 2783 2795 2696 2685 2784
8 2795 2696 2685 2784 2796 2697 2686 2785
8 2796 2697 2686 2785 2797 2698 2687 2786
8 2797 2698 2687 2786 2798 2699 2688 2787
8 2798 2699 2688 2787 2799 2700 2689 2788
8 2799 2700 2689 2788 2800 2701 2690 2789
8 2800 2701 2690 2789 2801 2702 2691 2790
8 2801 2702 2691 2790 2802 2703 2692 2791
8 2803 2704 2693 2792 2804 2705 2694 2793
8 2804 2705 2694 2793 2805 2706 2695 2794
8 2805 2706 2695 2794 2806 2707 2696 2795
8 2806 2707 2696 2795 2807 2708 2697 2796
8 2807 2708 2697 2796 2808 2709 2698 2797
8 2808 2709 2698 2797 2809 2710 2699 2798
8 2809 2710 2699 2798 2810 2711 2700 2799
8 2810 2711 2700 2799 2811 2712 2701 2800
8 2811 2712 2701 2800 2812 2713 2702 2801
8 2812 2713 2702 2801 2813 2714 2703 2802
8 2814 2715 2704 2803 2815 2716 2705 2804
8 2815 2716 2705 2804 2816 2717 2706 2805
8 2816 2717 2706 2805 2817 2718 2707 2806
8 2817 2718 2707 2806 2818 2719 2708 2807
8 2818 2719 2708 2807 2819 2720 2709 2808
8 2819 2720 2709 2808 2820 2721 2710 2809
8 2820 2721 2710 2809 2821 2722 2711 2810
8 2821 2722 2711 2810 2822 2723 2712 2811
8 2822 2723 2712 2811 2823 2724 2713 2812
8 2823 2724 2713 2812 2824 2725 2714 2813
8 2825 2726 2715 2814 2826 2727 2716 2815
8 2826 2727 2716 2815 2827 2728 2717 2816
8 2827 2728 2717 2816 2828 2729 2718 2817
8 2828 2729 2718 2817 2829 2730 2719 2818
8 2829 2730 2719 2818 2830 2731 2720 2819
8 2830 2731 2720 2819 2831 2732 2721 2820
8 2831 2732 2721 2820 2832 2733 2722 2821
8 2832 2733 2722 2821 2833 2734 2723 2822
8 2833 2734 2723 2822 2834 2735 2724 2823
8 2834 2735 2724 2823 2835 2736 2725 2824
8 2836 2737 2726 2825 2837 2738 2727 2826
8 2837 2738 2727 2826 2838 2739 2728 2827
8 2838 2739 2728 2827 2839 2740 2729 2828
8 2839 2740 2729 2828 2840 2741 2730 2829
8 2840 2741 2730 2829 2841 2742 2731 2830
8 2841 2742 2731 2830 2842 2743 2732 2831
8 2842 2743 2732 2831 2843 2744 2733 2832
8 2843 2744 2733 2832 2844 2745 2734 2833
8 2844 2745 2734 2833 2845 2746 2735 2834
8 2846 2747 2737 2836 2847 2748 2738 2837
8 2847 2748 2738 2837 2848 2749 2739 2838
8 2848 2749 2739 2838 2849 2750 2740 2839
8 2849 2750 2740 2839 2850 2751 2741 2840
8 2850 2751 2741 2840 2851 2752 2742 2841
8 2851 2752 2742 2841 2852 2753 2743 2842
8 2852 2753 2743 2842 2853 2754 2744 2843
8 2853 2754 2744 2843 2854 2755 2745 2844
8 2864 2765 2756 2855 2865 2766 2757 2856
8 2865 2766 2757 2856 2866 2767 2758 2857
8 2866 2767 2758 2857 2867 2768 2759 2858
8 2867 2768 2759 2858 2868 2769 2760 2859
8 2868 2769 2760 2859 2869 2770 2761 2860
8 2871 2772 2762 2861 2872 2773 2763 2862
8 2872 2773 2763 2862 2873 2774 2764 2863
8 2873 2774 2764 2863 2874 2775 2765 2864
8 2874 2775 2765 2864 2875 2776 2766 2865
8 2875 2776 2766 2865 2876 2777 2767 2866
8 2876 2777 2767 2866 2877 2778 2768 2867
8 2877 2778 2768 2867 2878 2779 2769 2868
8 2878 2779 2769 2868 2879 2780 2770 2869
8 2881 2782 2771 2870 2882 2783 2772 2871
8 2882 2783 2772 2871 2883 2784 2773 2872
8 2883 2784 2773 2872 2884 2785 2774 2873
8 2884 2785 2774 2873 2885 2786 2775 2874
8 2885 2786 2775 2874 2886 2787 2776 2875
8 2886 2787 2776 2875 2887 2788 2777 2876
8 2887 2788 2777 2876 2888 2789 2778 2877
8 2888 2789 2778 2877 2889 2790 2779 2878
8 2889 2790 2779 2878 2890 2791 2780 2879
8 2891 2792 2781 2880 2892 2793 2782 2881
8 2892 2793 2782 2881 2893 2794 2783 2882
8 2893 2794 2783 2882 2894 2795 2784 2883
8 2894 2795 2784 2883 2895 2796 2785 2884
8 2895 2796 2785 2884 2896 2797 2786 2885
8 2896 2797 2786 2885 2897 2798 2787 2886
8 2897 2798 2787 2886 2898 2799 2788 2887
8 2898 2799 2788 2887 2899 2800 2789 2888
8 2899 2800 2789 2888 2900 2801 2790 2889
8 2900 2801 2790 2889 2901 2802 2791 2890
8 2902 2803 2792 2891 2903 2804 2793 2892
8 2903 2804 2793 2892 2904 2805 2794 2893
8 2904 2805 2794 2893 2905 2806 2795 2894
8 2905 2806 2795 2894 2906 2807 2796 2895
8 2906 2807 2796 2895 2907 2808 2797 2896
8 2907 2808 2797 2896 2908 2809 2798 2897
8 2908 2809 2798 2897 2909 2810 2799 2898
8 2909 2810 2799 2898 2910 2811 2800 2899
8 2910 2811 2800 2899 2911 2812 2801 2900
8 2911 2812 2801 2900 2912 2813 2802 2901
8 2913 2814 2803 2902 2914 2815 2804 2903
8 2914 2815 2804 2903 2915 2816 2805 2904
8 2915 2816 2805 2904 2916 2817 2806 2905
8 2916 2817 2806 2905 2917 2818 2807 2906
8 2917 2818 2807 2906 2918 2819 2808 2907
8 2918 2819 2808 2907 2919 2820 2809 2908
8 2919 2820 2809 2908 2920 2821 2810 2909
8 2920 2821 2810 2909 2921 2822 2811 2910
8 2921 2822 2811 2910 2922 2823 2812 2911
8 2922 2823 2812 2911 2923 2824 2813 2912
8 2924 2825 2814 2913 2925 2826 2815 2914
8 2925 2826 2815 2914 2926 2827 2816 2915
8 2926 2827 2816 2915 2927 2828 2817 2916
8 2927 2828 2817 2916 2928 2829 2818 2917
8 2928 2829 2818 2917 2929 2830 2819 2918
8 2929 2830 2819 2918 2930 2831 2820 2919
8 2930 2831 2820 2919 2931 2832 2821 2920
8 2931 2832 2821 2920 2932 2833 2822 2921
8 2932 2833 2822 2921 2933 2834 2823 2922
8 2933 2834 2823 2922 2934 2835 2824 2923
8 2935 2836 2825 2924 2936 2837 2826 2925
8 2936 2837 2826 2925 2937 2838 2827 2926
8 2937 2838 2827 2926 2938 2839 2828 2927
8 2938 2839 2828 2927 2939 2840 2829 2928
8 2939 2840 2829 2928 2940 2841 2830 2929
8 2940 2841 2830 2929 2941 2842 2831 2930
8 2941 2842 2831 2930 2942 2843 2832 2931
8 2942 2843 2832 2931 2943 2844 2833 2932
8 2943 2844 2833 2932 2944 2845 2834 2933
8 2945 2846 2836 2935 2946 2847 2837 2936
8 2946 2847 2837 2936 2947 2848 2838 2937
8 2947 2848 2838 2937 2948 2849 2839 2938
8 2948 2849 2839 2938 2949 2850 2840 2939
8 2949 2850 2840 2939 2950 2851 2841 2940
8 2950 2851 2841 2940 2951 2852 2842 2941
8 2951 2852 2842 2941 2952 2853 2843 2942
8 2952 2853 2843 2942 2953 2854 2844 2943
8 2963 2864 2855 2954 2964 2865 2856 2955
8 2964 2865 2856 2955 2965 2866 2857 2956
8 2965 2866 2857 2956 2966 2867 2858 2957
8 2966 2867 2858 2957 2967 2868 2859 2958
8 2967 2868 2859 2958 2968 2869 2860 2959
8 2970 2871 2861 2960 2971 2872 2862 2961
8 2971 2872 2862 2961 2972 2873 2863 2962
8 2972 2873 2863 2962 2973 2874 2864 2963
8 2973 2874 2864 2963 2974 2875 2865 2964
8 2974 2875 2865 2964 2975 2876 2866 2965
8 2975 2876 2866 2965 2976 2877 2867 2966
8 2976 2877 2867 2966 2977 2878 2868 2967
8 2977 2878 2868 2967 2978 2879 2869 2968
8 2980 2881 2870 2969 2981 2882 2871 2970
8 2981 2882 2871 2970 2982 2883 2872 2971
8 2982 2883 2872 2971 2983 2884 2873 2972
8 2983 2884 2873 2972 2984 2885 2874 2973
8 2984 2885 2874 2973 2985 2886 2875 2974
8 2985 2886 2875 2974 2986 2887 2876 2975
8 2986 2887 2876 2975 2987 2888 2877 2976
8 2987 2888 2877 2976 2988 2889 2878 2977
8 2988 2889 2878 2977 2989 2890 2879 2978
8 2990 2891 2880 2979 2991 2892 2881 2980
8 2991 2892 2881 2980 2992 2893 2882 2981
8 2992 2893 2882 2981 2993 2894 2883 2982
8 2993 2894 2883 2982 2994 2895 2884 2983
8 2994 2895 2884 2983 2995 2896 2885 2984
8 2995 2896 2885 2984 2996 2897 2886 2985
8 2996 2897 2886 2985 2997 2898 2887 2986
8 2997 2898 2887 2986 2998 2899 2888 2987
8 2998 2899 2888 2987 2999 2900 2889 2988
8 2999 2900 2889 2988 3000 2901 2890 2989
8 3001 2902 2891 2990 3002 2903 2892 2991
8 3002 2903 2892 2991 3003 2904 2893 2992
8 3003 2904 2893 2992 3004 2905 2894 2993
8 3004 2905 2894 2993 3005 2906 2895 2994
8 3005 2906 2895 2994 3006 2907 2896 2995
8 3006 2907 2896 2995 3007 2908 2897 2996
8 3007 2908 2897 2996 3008 2909 2898 2997
8 3008 2909 2898 2997 3009 2910 2899 2998
8 3009 2910 2899 2998 3010 2911 2900 2999
8 3010 2911 2900 2999 3011 2912 2901 3000
8 3012 2913 2902 3001 3013 2914 2903 3002
8 3013 2914 2903 3002 3014 2915 2904 3003
8 3014 2915 2904 3003 3015 2916 2905 3004
8 3015 2916 2905 3004 3016 2917 2906 3005
8 3016 2917 2906 3005 3017 2918 2907 3006
8 3017 2918 2907 3006 3018 2919 2908 3007
8 3018 2919 2908 3007 3019 2920 2909 3008
8 3019 2920 2909 3008 3020 2921 2910 3009
8 3020 2921 2910 3009 3021 2922 2911 3010
8 3021 2922 2911 3010 3022 2923 2912 3011
8 3023 2924 2913 3012 3024 2925 2914 3013
8 3024 2925 2914 3013 3025 2926 2915 3014
8 3025 2926 2915 3014 3026 2927 2916 3015
8 3026 2927 2916 3015 3027 2928 2917 3016
8 3027 2928 2917 3016 3028 2929 2918 3017
8 3028 2929 2918 3017 3029 2930 2919 3018
8 3029 2930 2919 3018 3030 2931 2920 3019
8 3030 2931 2920 3019 3031 2932 2921 3020
8 3031 2932 2921 3020 3032 2933 2922 3021
8 3032 2933 2922 3021 3033 2934 2923 3022
8 3034 2935 2924 3023 3035 2936 2925 3024
8 3035 2936 2925 3024 3036 2937 2926 3025
8 3036 2937 2926 3025 3037 2938 2927 3026
8 3037 2938 2927 3026 3038 2939 2928 3027
8 3038 2939 2928 3027 3039 2940 2929 3028
8 3039 2940 2929 3028 3040 2941 2930 3029
8 3040 2941 2930 3029 3041 2942 2931 3030
8 3041 2942 2931 3030 3042 2943 2932 3031
8 3042 2943 2932 3031 3043 2944 2933 3032
8 3044 2945 2935 3034 3045 2946 2936 3035
8 3045 2946 2936 3035 3046 2947 2937 3036
8 3046 2947 2937 3036 3047 2948 2938 3037
8 3047 2948 2938 3037 3048 2949 2939 3038
8 3048 2949 2939 3038 3049 2950 2940 3039
8 3049 2950 2940 3039 3050 2951 2941 3040
8 3050 2951 2941 3040 3051 2952 2942 3041
8 3051 2952 2942 3041 3052 2953 2943 3042
8 3062 2963 2954 3053 3063 2964 2955 3054
8 3063 2964 2955 3054 3064 2965 2956 3055
8 3064 2965 2956 3055 3065 2966 2957 3056
8 3065 2966 2957 3056 3066 2967 2958 3057
8 3066 2967 2958 3057 3067 2968 2959 3058
8 3069 2970 2960 3059 3070 2971 2961 3060
8 3070 2971 2961 3060 3071 2972 2962 3061
8 3071 2972 2962 3061 3072 2973 2963 3062
8 3072 2973 2963 3062 3073 2974 2964 3063
8 3073 2974 2964 3063 3074 2975 2965 3064
8 3074 2975 2965 3064 3075 2976 2966 3065
8 3075 2976 2966 3065 3076 2977 2967 3066
8 3076 2977 2967 3066 3077 2978 2968 3067
8 3079 2980 2969 3068 3080 2981 2970 3069
8 3080 2981 2970 3069 3081 2982 2971 3070
8 3081 2982 2971 3070 3082 2983 2972 3071
8 3082 2983 2972 3071 3083 2984 2973 3072
8 3083 2984 2973 3072 3084 2985 2974 3073
8 3084 2985 2974 3073 3085 2986 2975 3074
8 3085 2986 2975 3074 3086 2987 2976 3075
8 3086 2987 2976 3075 3087 2988 2977 3076
8 3087 2988 2977 3076 3088 2989 2978 3077
8 3089 2990 2979 3078 3090 2991 2980 3079
8 3090 2991 2980 3079 3091 2992 2981 3080
8 3091 2992 2981 3080 3092 2993 2982 3081
8 3092 2993 2982 3081 3093 2994 2983 3082
8 3093 2994 2983 3082 3094 2995 2984 3083
8 3094 2995 2984 3083 3095 2996 2985 3084
8 3095 2996 2985 3084 3096 2997 2986 3085
8 3096 2997 2986 3085 3097 2998 2987 3086
8 3097 2998 2987 3086 3098 2999 2988 3087
8 3098 2999 2988 3087 3099 3000 2989 3088
8 3100 3001 2990 3089 3101 3002 2991 3090
8 3101 3002 2991 3090 3102 3003 2992 3091
8 3102 3003 2992 3091 3103 3004 2993 3092
8 3103 3004 2993 3092 3104 3005 2994 3093
8 3104 3005 2994 3093 3105 3006 2995 3094
8 3105 3006 2995 3094 3106 3007 2996 3095
8 3106 3007 2996 3095 3107 3008 2997 3096
8 3107 3008 2997 3096 3108 3009 2998 3097
8 3108 3009 2998 3097 3109 3010 2999 3098
8 3109 3010 2999 3098 3110 3011 3000 3099
8 3111 3012 3001 3100 3112 3013 3002 3101
8 3112 3013 3002 3101 3113 3014 3003 3102
8 3113 3014 3003 3102 3114 3015 3004 3103
8 3114 3015 3004 3103 3115 3016 3005 3104
8 3115 3016 3005 3104 3116 3017 3006 3105
8 3116 3017 3006 3105 3117 3018 3007 3106
8 3117 3018 3007 3106 3118 3019 3008 3107
8 3118 3019 3008 3107 3119 3020 3009 3108
8 3119 3020 3009 3108 3120 3021 3010 3109
8 3120 3021 3010 3109 3121 3022 3011 3110
8 3122 3023 3012 3111 3123 3024 3013 3112
8 3123 3024 3013 3112 3124 3025 3014 3113
8 3124 3025 3014 3113 3125 3026 3015 3114
8 3125 3026 3015 3114 3126 3027 3016 3115
8 3126 3027 3016 3115 3127 3028 3017 3116
8 3127 3028 3017 3116 3128 3029 3018 3117
8 3128 3029 3018 3117 3129 3030 3019 3118
8 3129 3030 3019 3118 3130 3031 3020 3119
8 3130 3031 3020 3119 3131 3032 3021 3120
8 3131 3032 3021 3120 3132 3033 3022 3121
8 3133 3034 3023 3122 3134 3035 3024 3123
8 3134 3035 3024 3123 3135 3036 3025 3124
8 3135 3036 3025 3124 3136 3037 3026 3125
8 3136 3037 3026 3125 3137 3038 3027 3126
8 3137 3038 3027 3126 3138 3039 3028 3127
8 3138 3039 3028 3127 3139 3040 3029 3128
8 3139 3040 3029 3128 3140 3041 3030 3129
8 3140 3041 3030 3129 3141 3042 3031 3130
8 3141 3042 3031 3130 3142 3043 3032 3131
8 3143 3044 3034 3133 3144 3045 3035 3134
8 3144 3045 3035 3134 3145 3046 3036 3135
8 3145 3046 3036 3135 3146 3047 3037 3136
8 3146 3047 3037 3136 3147 3048 3038 3137
8 3147 3048 3038 3137 3148 3049 3039 3138
8 3148 3049 3039 3138 3149 3050 3040 3139
8 3149 3050 3040 3139 3150 3051 3041 3140
8 3150 3051 3041 3140 3151 3052 3042 3141
8 3161 3062 3053 3152 3162 3063 3054 3153
8 3162 3063 3054 3153 3163 3064 3055 3154
8 3163 3064 3055 3154 3164 3065 3056 3155
8 3164 3065 3056 3155 3165 3066 3057 3156
8 3165 3066 3057 3156 3166 3067 3058 3157
8 3168 3069 3059 3158 3169 3070 3060 3159
8 3169 3070 3060 3159 3170 3071 3061 3160
8 3170 3071 3061 3160 3171 3072 3062 3161
8 3171 3072 3062 3161 3172 3073 3063 3162
8 3172 3073 3063 3162 3173 3074 3064 3163
8 3173 3074 3064 3163 3174 3075 3065 3164
8 3174 3075 3065 3164 3175 3076 3066 3165
8 3175 3076 3066 3165 3176 3077 3067 3166
8 3178 3079 3068 3167 3179 3080 3069 3168
8 3179 3080 3069 3168 3180 3081 3070 3169
8 3180 3081 3070 3169 3181 3082 3071 3170
8 3181 3082 3071 3170 3182 3083 3072 3171
8 3182 3083 3072 3171 3183 3084 3073 3172
8 3183 3084 3073 3172 3184 3085 3074 3173
8 3184 3085 3074 3173 3185 3086 3075 3174
8 3185 3086 3075 3174 3186 3087 3076 3175
8 3186 3087 3076 3175 3187 3088 3077 3176
8 3188 3089 3078 3177 3189 3090 3079 3178
8 3189 3090 3079 3178 3190 3091 3080 3179
8 3190 3091 3080 3179 3191 3092 3081 3180
8 3191 3092 3081 3180 3192 3093 3082 3181
8 3192 3093 3082 3181 3193 3094 3083 3182
8 3193 3094 3083 3182 3194 3095 3084 3183
8 3194 3095 3084 3183 3195 3096 3085 3184
8 3195 3096 3085 3184 3196 3097 3086 3185
8 3196 3097 3086 3185 3197 3098 3087 3186
8 3197 3098 3087 3186 3198 3099 3088 3187
8 3199 3100 3089 3188 3200 3101 3090 3189
8 3200 3101 3090 3189 3201 3102 3091 3190
8 3201 3102 3091 3190 3202 3103 3092 3191
8 3202 3103 3092 3191 3203 3104 3093 3192
8 3203 3104 3093 3192 3204 3105 3094 3193
8 3204 3105 3094 3193 3205 3106 3095 3194
8 3205 3106 3095 3194 3206 3107 3096 3195
8 3206 3107 3096 3195 3207 3108 3097 3196
8 3207 3108 3097 3196 3208 3109 3098 3197
8 3208 3109 3098 3197 3209 3110 3099 3198
8 3210 3111 3100 3199 3211 3112 3101 3200
8 3211 3112 3101 3200 3212 3113 3102 3201
8 3212 3113 3102 3201 3213 3114 3103 3202
8 3213 3114 3103 3202 3214 3115 3104 3203
8 3214 3115 3104 3203 3215 3116 3105 3204
8 3215 3116 3105 3204 3216 3117 3106 3205
8 3216 3117 3106 3205 3217 3118 3107 3206
8 3217 3118 3107 3206 3218 3119 3108 3207
8 3218 3119 3108 3207 3219 3120 3109 3208
8 3219 3120 3109 3208 3220 3121 3110 3209
8 3221 3122 3111 3210 3222 3123 3112 3211
8 3222 3123 3112 3211 3223 3124 3113 3212
8 3223 3124 3113 3212 3224 3125 3114 3213
8 3224 3125 3114 3213 3225 3126 3115 3214
8 3225 3126 3115 3214 3226 3127 3116 3215
8 3226 3127 3116 3215 3227 3128 3117 3216
8 3227 3128 3117 3216 3228 3129 3118 3217
8 3228 3129 3118 3217 3229 3130 3119 3218
8 3229 3130 3119 3218 3230 3131 3120 3219
8 3230 3131 3120 3219 3231 3132 3121 3220
8 3232 3133 3122 3221 3233 3134 3123 3222
8 3233 3134 3123 3222 3234 3135 3124 3223
8 3234 3135 3124 3223 3235 3136 3125 3224
8 3235 3136 3125 3224 3236 3137 3126 3225
8 3236 3137 3126 3225 3237 3138 3127 3226
8 3237 3138 3127 3226 3238 3139 3128 3227
8 3238 3139 3128 3227 3239 3140 3129 3228
8 3239 3140 3129 3228 3240 3141 3130 3229
8 3240 3141 3130 3229 3241 3142 3131 3230
8 3242 3143 3133 3232 3243 3144 3134 3233
8 3243 3144 3134 3233 3244 3145 3135 3234
8 3244 3145 3135 3234 3245 3146 3136 3235
8 3245 3146 3136 3235 3246 3147 3137 3236
8 3246 3147 3137 3236 3247 3148 3138 3237
8 3247 3148 3138 3237 3248 3149 3139 3238
8 3248 3149 3139 3238 3249 3150 3140 3239
8 3249 3150 3140 3239 3250 3151 3141 3240
8 3260 3161 3152 3251 3261 3162 3153 3252
8 3261 3162 3153 3252 3262 3163 3154 3253
8 3262 3163 3154 3253 3263 3164 3155 3254
8 3263 3164 3155 3254 3264 3165 3156 3255
8 3264 3165 3156 3255 3265 3166 3157 3256
8 3267 3168 3158 3257 3268 3169 3159 3258
8 3268 3169 3159 3258 3269 3170 3160 3259
8 3269 3170 3160 3259 3270 3171 3161 3260
8 3270 3171 3161 3260 3271 3172 3162 3261
8 3271 3172 3162 3261 3272 3173 3163 3262
8 3272 3173 3163 3262 3273 3174 3164 3263
8 3273 3174 3164 3263 3274 3175 3165 3264
8 3274 3175 3165 3264 3275 3176 3166 3265
8 3277 3178 3167 3266 3278 3179 3168 3267
8 3278 3179 3168 3267 3279 3180 3169 3268
8 3279 3180 3169 3268 3280 3181 3170 3269
8 3280 3181 3170 3269 3281 3182 3171 3270
8 3281 3182 3171 3270 3282 3183 3172 3271
8 3282 3183 3172 3271 3283 3184 3173 3272
8 3283 3184 3173 3272 3284 3185 3174 3273
8 3284 3185 3174 3273 3285 3186 3175 3274
8 3285 3186 3175 3274 3286 3187 3176 3275
8 3287 3188 3177 3276 3288 3189 3178 3277
8 3288 3189 3178 3277 3289 3190 3179 3278
8 3289 3190 3179 3278 3290 3191 3180 3279
8 3290 3191 3180 3279 3291 3192 3181 3280
8 3291 3192 3181 3280 3292 3193 3182 3281
8 3292 3193 3182 3281 3293 3194 3183 3282
8 3293 3194 3183 3282 3294 3195 3184 3283
8 3294 3195 3184 3283 3295 3196 3185 3284
8 3295 3196 3185 3284 3296 3197 3186 3285
8 3296 3197 3186 3285 3297 3198 3187 3286
8 3298 3199 3188 3287 3299 3200 3189 3288
8 3299 3200 3189 3288 3300 3201 3190 3289
8 3300 3201 3190 3289 3301 3202 3191 3290
8 3301 3202 3191 3290 3302 3203 3192 3291
8 3302 3203 3192 3291 3303 3204 3193 3292
8 3303 3204 3193 3292 3304 3205 3194 3293
8 3304 3205 3194 3293 3305 3206 3195 3294
8 3305 3206 3195 3294 3306 3207 3196 3295
8 3306 3207 3196 3295 3307 3208 3197 3296
8 3307 3208 3197 3296 3308 3209 3198 3297
8 3309 3210 3199 3298 3310 3211 3200 3299
8 3310 3211 3200 3299 3311 3212 3201 3300
8 3311 3212 3201 3300 3312 3213 3202 3301
8 3312 3213 3202 3301 3313 3214 3203 3302
8 3313 3214 3203 3302 3314 3215 3204 3303
8 3314 3215 3204 3303 3315 3216 3205 3304
8 3315 3216 3205 3304 3316 3217 3206 3305
8 3316 3217 3206 3305 3317 3218 3207 3306
8 3317 3218 3207 3306 3318 3219 3208 3307
8 3318 3219 3208 3307 3319 3220 3209 3308
8 3320 3221 3210 3309 3321 3222 3211 3310
8 3321 3222 3211 3310 3322 3223 3212 3311
8 3322 3223 3212 3311 3323 3224 3213 3312
8 3323 3224 3213 3312 3324 3225 3214 3313
8 3324 3225 3214 3313 3325 3226 3215 3314
8 3325 3226 3215 3314 3326 3227 3216 3315
8 3326 3227 3216 3315 3327 3228 3217 3316
8 3327 3228 3217 3316 3328 3229 3218 3317
8 3328 3229 3218 3317 3329 3230 3219 3318
8 3329 3230 3219 3318 3330 3231 3220 3319
8 3331 3232 3221 3320 3332 3233 3222 3321
8 3332 3233 3222 3321 3333 3234 3223 3322
8 3333 3234 3223 3322 3334 3235 3224 3323
8 3334 3235 3224 3323 3335 3236 3225 3324
8 3335 3236 3225 3324 3336 3237 3226 3325
8 3336 3237 3226 3325 3337 3238 3227 3326
8 3337 3238 3227 3326 3338 3239 3228 3327
8 3338 3239 3228 3327 3339 3240 3229 3328
8 3339 3240 3229 3328 3340 3241 3230 3329
8 3341 3242 3232 3331 3342 3243 3233 3332
8 3342 3243 3233 3332 3343 3244 3234 3333
8 3343 3244 3234 3333 3344 3245 3235 3334
8 3344 3245 3235 3334 3345 3246 3236 3335
8 3345 3246 3236 3335 3346 3247 3237 3336
8 3346 3247 3237 3336 3347 3248 3238 3337
8 3347 3248 3238 3337 3348 3249 3239 3338
8 3348 3249 3239 3338 3349 3250 3240 3339
8 3359 3260 3251 3350 3360 3261 3252 3351
8 3360 3261 3252 3351 3361 3262 3253 3352
8 3361 3262 3253 3352 3362 3263 3254 3353
8 3362 3263 3254 3353 3363 3264 3255 3354
8 3363 3264 3255 3354 3364 3265 3256 3355
8 3366 3267 3257 3356 3367 3268 3258 3357
8 3367 3268 3258 3357 3368 3269 3259 3358
8 3368 3269 3259 3358 3369 3270 3260 3359
8 3369 3270 3260 3359 3370 3271 3261 3360
8 3370 3271 3261 3360 3371 3272 3262 3361
8 3371 3272 3262 3361 3372 3273 3263 3362
8 3372 3273 3263 3362 3373 3274 3264 3363
8 3373 3274 3264 3363 3374 3275 3265 3364
8 3376 3277 3266 3365 3377 3278 3267 3366
8 3377 3278 3267 3366 3378 3279 3268 3367
8 3378 3279 3268 3367 3379 3280 3269 3368
8 3379 3280 3269 3368 3380 3281 3270 3369
8 3380 3281 3270 3369 3381 3282 3271 3370
8 3381 3282 3271 3370 3382 3283 3272 3371
8 3382 3283 3272 3371 3383 3284 3273 3372
8 3383 3284 3273 3372 3384 3285 3274 3373
8 3384 3285 3274 3373 3385 3286 3275 3374
8 3386 3287 3276 3375 3387 3288 3277 3376
8 3387 3288 3277 3376 3388 3289 3278 3377
8 3388 3289 3278 3377 3389 3290 3279 3378
8 3389 3290 3279 3378 3390 3291 3280 3379
8 3390 3291 3280 3379 3391 3292 3281 3380
8 3391 3292 3281 3380 3392 3293 3282 3381
8 3392 3293 3282 3381 3393 3294 3283 3382
8 3393 3294 3283 3382 3394 3295 3284 3383
8 3394 3295 3284 3383 3395 3296 3285 3384
8 3395 3296 3285 3384 3396 3297 3286 3385
8 3397 3298 3287 3386 3398 3299 3288 3387
8 3398 3299 3288 3387 3399 3300 3289 3388
8 3399 3300 3289 3388 3400 3301 3290 3389
8 3400 3301 3290 3389 3401 3302 3291 3390
8 3401 3302 3291 3390 3402 3303 3292 3391
8 3402 3303 3292 3391 3403 3304 3293 3392
8 3403 3304 3293 3392 3404 3305 3294 3393
8 3404 3305 3294 3393 3405 3306 3295 3394
8 3405 3306 3295 3394 3406 3307 3296 3395
8 3406 3307 3296 3395 3407 3308 3297 3396
8 3408 3309 3298 3397 3409 3310 3299 3398
8 3409 3310 3299 3398 3410 3311 3300 3399
8 3410 3311 3300 3399 3411 3312 3301 3400
8 3411 3312 3301 3400 3412 3313 3302 3401
8 3412 3313 3302 3401 3413 3314 3303 3402
8 3413 3314 3303 3402 3414 3315 3304 3403
8 3414 3315 3304 3403 3415 3316 3305 3404
8 3415 3316 3305 3404 3416 3317 3306 3405
8 3416 3317 3306 3405 3417 3318 3307 3406
8 3417 3318 3307 3406 3418 3319 3308 3407
8 3419 3320 3309 3408 3420 3321 3310 3409
8 3420 3321 3310 3409 3421 3322 3311 3410
8 3421 3322 3311 3410 3422 3323 3312 3411
8 3422 3323 3312 3411 3423 3324 3313 3412
8 3423 3324 3313 3412 3424 3325 3314 3413
8 3424 3325 3314 3413 3425 3326 3315 3414
8 3425 3326 3315 3414 3426 3327 3316 3415
8 3426 3327 3316 3415 3427 3328 3317 3416
8 3427 3328 3317 3416 3428 3329 3318 3417
8 3428 3329 3318 3417 3429 3330 3319 3418
8 3430 3331 3320 3419 3431 3332 3321 3420
8 3431 3332 3321 3420 3432 3333 3322 3421
8 3432 3333 3322 3421 3433 3334 3323 3422
8 3433 3334 3323 3422 3434 3335 3324 3423
8 3434 3335 3324 3423 3435 3336 3325 3424
8 3435 3336 3325 3424 3436 3337 3326 3425
8 3436 3337 3326 3425 3437 3338 3327 3426
8 3437 3338 3327 3426 3438 3339 3328 3427
8 3438 3339 3328 3427 3439 3340 3329 3428
8 3440 3341 3331 3430 3441 3342 3332 3431
8 3441 3342 3332 3431 3442 3343 3333 3432
8 3442 3343 3333 3432 3443 3344 3334 3433
8 3443 3344 3334 3433 3444 3345 3335 3434
8 3444 3345 3335 3434 3445 3346 3336 3435
8 3445 3346 3336 3435 3446 3347 3337 3436
8 3446 3347 3337 3436 3447 3348 3338 3437
8 3447 3348 3338 3437 3448 3349 3339 3438
8 3458 3359 3350 3449 3459 3360 3351 3450
8 3459 3360 3351 3450 3460 3361 3352 3451
8 3460 3361 3352 3451 3461 3362 3353 3452
8 3461 3362 3353 3452 3462 3363 3354 3453
8 3462 3363 3354 3453 3463 3364 3355 3454
8 3465 3366 3356 3455 3466 3367 3357 3456
8 3466 3367 3357 3456 3467 3368 3358 3457
8 3467 3368 3358 3457 3468 3369 3359 3458
8 3468 3369 3359 3458 3469 3370 3360 3459
8 3469 3370 3360 3459 3470 3371 3361 3460
8 3470 3371 3361 3460 3471 3372 3362 3461
8 3471 3372 3362 3461 3472 3373 3363 3462
8 3472 3373 3363 3462 3473 3374 3364 3463
8 3475 3376 3365 3464 3476 3377 3366 3465
8 3476 3377 3366 3465 3477 3378 3367 3466
8 3477 3378 3367 3466 3478 3379 3368 3467
8 3478 3379 3368 3467 3479 3380 3369 3468
8 3479 3380 3369 3468 3480 3381 3370 3469
8 3480 3381 3370 3469 3481 3382 3371 3470
8 3481 3382 3371 3470 3482 3383 3372 3471
8 3482 3383 3372 3471 3483 3384 3373 3472
8 3483 3384 3373 3472 3484 3385 3374 3473
8 3485 3386 3375 3474 3486 3387 3376 3475
8 3486 3387 3376 3475 3487 3388 3377 3476
8 3487 3388 3377 3476 3488 3389 3378 3477
8 3488 3389 3378 3477 3489 3390 3379 3478
8 3489 3390 3379 3478 3490 3391 3380 3479
8 3490 3391 3380 3479 3491 3392 3381 3480
8 3491 3392 3381 3480 3492 3393 3382 3481
8 3492 3393 3382 3481 3493 3394 3383 3482
8 3493 3394 3383 3482 3494 3395 3384 3483
8 3494 3395 3384 3483 3495 3396 3385 3484
8 3496 3397 3386 3485 3497 3398 3387 3486
8 3497 3398 3387 3486 3498 3399 3388 3487
8 3498 3399 3388 3487 3499 3400 3389 3488
8 3499 3400 3389 3488 3500 3401 3390 3489
8 3500 3401 3390 3489 3501 3402 3391 3490
8 3501 3402 3391 3490 3502 3403 3392 3491
8 3502 3403 3392 3491 3503 3404 3393 3492
8 3503 3404 3393 3492 3504 3405 3394 3493
8 3504 3405 3394 3493 3505 3406 3395 3494
8 3505 3406 3395 3494 3506 3407 3396 3495
8 3507 3408 3397 3496 3508 3409 3398 3497
8 3508 3409 3398 3497 3509 3410 3399 3498
8 3509 3410 3399 3498 3510 3411 3400 3499
8 3510 3411 3400 3499 3511 3412 3401 3500
8 3511 3412 3401 3500 3512 3413 3402 3501
8 3512 3413 3402 3501 3513 3414 3403 3502
8 3513 3414 3403 3502 3514 3415 3404 3503
8 3514 3415 3404 3503 3515 3416 3405 3504
8 3515 3416 3405 3504 3516 3417 3406 3505
8 3516 3417 3406 3505 3517 3418 3407 3506
8 3518 3419 3408 3507 3519 3420 3409 3508
8 3519 3420 3409 3508 3520 3421 3410 3509
8 3520 3421 3410 3509 3521 3422 3411 3510
8 3521 3422 3411 3510 3522 3423 3412 3511
8 3522 3423 3412 3511 3523 3424 3413 3512
8 3523 3424 3413 3512 3524 3425 3414 3513
8 3524 3425 3414 3513 3525 3426 3415 3514
8 3525 3426 3415 3514 3526 3427 3416 3515
8 3526 3427 3416 3515 3527 3428 3417 3516
8 3527 3428 3417 3516 3528 3429 3418 3517
8 3529 3430 3419 3518 3530 3431 3420 3519
8 3530 3431 3420 3519 3531 3432 3421 3520
8 3531 3432 3421 3520 3532 3433 3422 3521
8 3532 3433 3422 3521 3533 3434 3423 3522
8 3533 3434 3423 3522 3534 3435 3424 3523
8 3534 3435 3424 3523 3535 3436 3425 3524
8 3535 3436 3425 3524 3536 3437 3426 3525
8 3536 3437 3426 3525 3537 3438 3427 3526
8 3537 3438 3427 3526 3538 3439 3428 3527
8 3539 3440 3430 3529 3540 3441 3431 3530
8 3540 3441 3431 3530 3541 3442 3432 3531
8 3541 3442 3432 3531 3542 3443 3433 3532
8 3542 3443 3433 3532 3543 3444 3434 3533
8 3543 3444 3434 3533 3544 3445 3435 3534
8 3544 3445 3435 3534 3545 3446 3436 3535
8 3545 3446 3436 3535 3546 3447 3437 3536
8 3546 3447 3437 3536 3547 3448 3438 3537
8 3557 3458 3449 3548 3558 3459 3450 3549
8 3558 3459 3450 3549 3559 3460 3451 3550
8 3559 3460 3451 3550 3560 3461 3452 3551
8 3560 3461 3452 3551 3561 3462 3453 3552
8 3561 3462 3453 3552 3562 3463 3454 3553
8 3564 3465 3455 3554 3565 3466 3456 3555
8 3565 3466 3456 3555 3566 3467 3457 3556
8 3566 3467 3457 3556 3567 3468 3458 3557
8 3567 3468 3458 3557 3568 3469 3459 3558
8 3568 3469 3459 3558 3569 3470 3460 3559
8 3569 3470 3460 3559 3570 3471 3461 3560
8 3570 3471 3461 3560 3571 3472 3462 3561
8 3571 3472 3462 3561 3572 3473 3463 3562
8 3574 3475 3464 3563 3575 3476 3465 3564
8 3575 3476 3465 3564 3576 3477 3466 3565
8 3576 3477 3466 3565 3577 3478 3467 3566
8 3577 3478 3467 3566 3578 3479 3468 3567
8 3578 3479 3468 3567 3579 3480 3469 3568
8 3579 3480 3469 3568 3580 3481 3470 3569
8 3580 3481 3470 3569 3581 3482 3471 3570
8 3581 3482 3471 3570 3582 3483 3472 3571
8 3582 3483 3472 3571 3583 3484 3473 3572
8 3584 3485 3474 3573 3585 3486 3475 3574
8 3585 3486 3475 3574 3586 3487 3476 3575
8 3586 3487 3476 3575 3587 3488 3477 3576
8 3587 3488 3477 3576 3588 3489 3478 3577
8 3588 3489 3478 3577 3589 3490 3479 3578
8 3589 3490 3479 3578 3590 3491 3480 3579
8 3590 3491 3480 3579 3591 3492 3481 3580
8 3591 3492 3481 3580 3592 3493 3482 3581
8 3592 3493 3482 3581 3593 3494 3483 3582
8 3593 3494 3483 3582 3594 3495 3484 3583
8 3595 3496 3485 3584 3596 3497 3486 3585
8 3596 3497 3486 3585 3597 3498 3487 3586
8 3597 3498 3487 3586 3598 3499 3488 3587
8 3598 3499 3488 3587 3599 3500 3489 3588
8 3599 3500 3489 3588 3600 3501 3490 3589
8 3600 3501 3490 3589 3601 3502 3491 3590
8 3601 3502 3491 3590 3602 3503 3492 3591
8 3602 3503 3492 3591 3603 3504 3493 3592
8 3603 3504 3493 3592 3604 3505 3494 3593
8 3604 3505 3494 3593 3605 3506 3495 3594
8 3606 3507 3496 3595 3607 3508 3497 3596
8 3607 3508 3497 3596 3608 3509 3498 3597
8 3608 3509 3498 3597 3609 3510 3499 3598
8 3609 3510 3499 3598 3610 3511 3500 3599
8 3610 3511 3500 3599 3611 3512 3501 3600
8 3611 3512 3501 3600 3612 3513 3502 3601
8 3612 3513 3502 3601 3613 3514 3503 3602
8 3613 3514 3503 3602 3614 3515 3504 3603
8 3614 3515 3504 3603 3615 3516 3505 3604
8 3615 3516 3505 3604 3616 3517 3506 3605
8 3617 3518 3507 3606 3618 3519 3508 3607
8 3618 3519 3508 3607 3619 3520 3509 3608
8 3619 3520 3509 3608 3620 3521 3510 3609
8 3620 3521 3510 3609 3621 3522 3511 3610
8 3621 3522 3511 3610 3622 3523 3512 3611
8 3622 3523 3512 3611 3623 3524 3513 3612
8 3623 3524 3513 3612 3624 3525 3514 3613
8 3624 3525 3514 3613 3625 3526 3515 3614
8 3625 3526 3515 3614 3626 3527 3516 3615
8 3626 3527 3516 3615 3627 3528 3517 3616
8 3628 3529 3518 3617 3629 3530 3519 3618
8 3629 3530 3519 3618 3630 3531 3520 3619
8 3630 3531 3520 3619 3631 3532 3521 3620
8 3631 3532 3521 3620 3632 3533 3522 3621
8 3632 3533 3522 3621 3633 3534 3523 3622
8 3633 3534 3523 3622 3634 3535 3524 3623
8 3634 3535 3524 3623 3635 3536 3525 3624
8 3635 3536 3525 3624 3636 3537 3526 3625
8 3636 3537 3526 3625 3637 3538 3527 3626
8 3638 3539 3529 3628 3639 3540 3530 3629
8 3639 3540 3530 3629 3640 3541 3531 3630
8 3640 3541 3531 3630 3641 3542 3532 3631
8 3641 3542 3532 3631 3642 3543 3533 3632
8 3642 3543 3533 3632 3643 3544 3534 3633
8 3643 3544 3534 3633 3644 3545 3535 3634
8 3644 3545 3535 3634 3645 3546 3536 3635
8 3645 3546 3536 3635 3646 3547 3537 3636
8 3656 3557 3548 3647 3657 3558 3549 3648
8 3657 3558 3549 3648 3658 3559 3550 3649
8 3658 3559 3550 3649 3659 3560 3551 3650
8 3659 3560 3551 3650 3660 3561 3552 3651
8 3660 3561 3552 3651 3661 3562 3553 3652
8 3663 3564 3554 3653 3664 3565 3555 3654
8 3664 3565 3555 3654 3665 3566 3556 3655
8 3665 3566 3556 3655 3666 3567 3557 3656
8 3666 3567 3557 3656 3667 3568 3558 3657
8 3667 3568 3558 3657 3668 3569 3559 3658
8 3668 3569 3559 3658 3669 3570 3560 3659
8 3669 3570 3560 3659 3670 3571 3561 3660
8 3670 3571 3561 3660 3671 3572 3562 3661
8 3673 3574 3563 3662 3674 3575 3564 3663
8 3674 3575 3564 3663 3675 3576 3565 3664
8 3675 3576 3565 3664 3676 3577 3566 3665
8 3676 3577 3566 3665 3677 3578 3567 3666
8 3677 3578 3567 3666 3678 3579 3568 3667
8 3678 3579 3568 3667 3679 3580 3569 3668
8 3679 3580 3569 3668 3680 3581 3570 3669
8 3680 3581 3570 3669 3681 3582 3571 3670
8 3681 3582 3571 3670 3682 3583 3572 3671
8 3683 3584 3573 3672 3684 3585 3574 3673
8 3684 3585 3574 3673 3685 3586 3575 3674
8 3685 3586 3575 3674 3686 3587 3576 3675
8 3686 3587 3576 3675 3687 3588 3577 3676
8 3687 3588 3577 3676 3688 3589 3578 3677
8 3688 3589 3578 3677 3689 3590 3579 3678
8 3689 3590 3579 3678 3690 3591 3580 3679
8 3690 3591 3580 3679 3691 3592 3581 3680
8 3691 3592 3581 3680 3692 3593 3582 3681
8 3692 3593 3582 3681 3693 3594 3583 3682
8 3694 3595 3584 3683 3695 3596 3585 3684
8 3695 3596 3585 3684 3696 3597 3586 3685
8 3696 3597 3586 3685 3697 3598 3587 3686
8 3697 3598 3587 3686 3698 3599 3588 3687
8 3698 3599 3588 3687 3699 3600 3589 3688
8 3699 3600 3589 3688 3700 3601 3590 3689
8 3700 3601 3590 3689 3701 3602 3591 3690
8 3701 3602 3591 3690 3702 3603 3592 3691
8 3702 3603 3592 3691 3703 3604 3593 3692
8 3703 3604 3593 3692 3704 3605 3594 3693
8 3705 3606 3595 3694 3706 3607 3596 3695
8 3706 3607 3596 3695 3707 3608 3597 3696
8 3707 3608 3597 3696 3708 3609 3598 3697
8 3708 3609 3598 3697 3709 3610 3599 3698
8 3709 3610 3599 3698 3710 3611 3600 3699
8 3710 3611 3600 3699 3711 3612 3601 3700
8 3711 3612 3601 3700 3712 3613 3602 3701
8 3712 3613 3602 3701 3713 3614 3603 3702
8 3713 3614 3603 3702 3714 3615 3604 3703
8 3714 3615 3604 3703 3715 3616 3605 3704
8 3716 3617 3606 3705 3717 3618 3607 3706
8 3717 3618 3607 3706 3718 3619 3608 3707
8 3718 3619 3608 3707 3719 3620 3609 3708
8 3719 3620 3609 3708 3720 3621 3610 3709
8 3720 3621 3610 3709 3721 3622 3611 3710
8 3721 3622 3611 3710 3722 3623 3612 3711
8 3722 3623 3612 3711 3723 3624 3613 3712
8 3723 3624 3613 3712 3724 3625 3614 3713
8 3724 3625 3614 3713 3725 3626 3615 3714
8 3725 3626 3615 3714 3726 3627 3616 3715
8 3727 3628 3617 3716 3728 3629 3618 3717
8 3728 3629 3618 3717 3729 3630 3619 3718
8 3729 3630 3619 3718 3730 3631 3620 3719
8 3730 3631 3620 3719 3731 3632 3621 3720
8 3731 3632 3621 3720 3732 3633 3622 3721
8 3732 3633 3622 3721 3733 3634 3623 3722
8 3733 3634 3623 3722 3734 3635 3624 3723
8 3734 3635 3624 3723 3735 3636 3625 3724
8 3735 3636 3625 3724 3736 3637 3626 3725
8 3737 3638 3628 3727 3738 3639 3629 3728
8 3738 3639 3629 3728 3739 3640 3630 3729
8 3739 3640 3630 3729 3740 3641 3631 3730
8 3740 3641 3631 3730 3741 3642 3632 3731
8 3741 3642 3632 3731 3742 3643 3633 3732
8 3742 3643 3633 3732 3743 3644 3634 3733
8 3743 3644 3634 3733 3744 3645 3635 3734
8 3744 3645 3635 3734 3745 3646 3636 3735
8 3755 3656 3647 3746 3756 3657 3648 3747
8 3756 3657 3648 3747 3757 3658 3649 3748
8 3757 3658 3649 3748 3758 3659 3650 3749
8 3758 3659 3650 3749 3759 3660 3651 3750
8 3759 3660 3651 3750 3760 3661 3652 3751
8 3762 3663 3653 3752 3763 3664 3654 3753
8 3763 3664 3654 3753 3764 3665 3655 3754
8 3764 3665 3655 3754 3765 3666 3656 3755
8 3765 3666 3656 3755 3766 3667 3657 3756
8 3766 3667 3657 3756 3767 3668 3658 3757
8 3767 3668 3658 3757 3768 3669 3659 3758
8 3768 3669 3659 3758 3769 3670 3660 3759
8 3769 3670 3660 3759 3770 3671 3661 3760
8 3772 3673 3662 3761 3773 3674 3663 3762
8 3773 3674 3663 3762 3774 3675 3664 3763
8 3774 3675 3664 3763 3775 3676 3665 3764
8 3775 3676 3665 3764 3776 3677 3666 3765
8 3776 3677 3666 3765 3777 3678 3667 3766
8 3777 3678 3667 3766 3778 3679 3668 3767
8 3778 3679 3668 3767 3779 3680 3669 3768
8 3779 3680 3669 3768 3780 3681 3670 3769
8 3780 3681 3670 3769 3781 3682 3671 3770
8 3782 3683 3672 3771 3783 3684 3673 3772
8 3783 3684 3673 3772 3784 3685 3674 3773
8 3784 3685 3674 3773 3785 3686 3675 3774
8 3785 3686 3675 3774 3786 3687 3676 3775
8 3786 3687 3676 3775 3787 3688 3677 3776
8 3787 3688 3677 3776 3788 3689 3678 3777
8 3788 3689 3678 3777 3789 3690 3679 3778
8 3789 3690 3679 3778 3790 3691 3680 3779
8 3790 3691 3680 3779 3791 3692 3681 3780
8 3791 3692 3681 3780 3792 3693 3682 3781
8 3793 3694 3683 3782 3794 3695 3684 3783
8 3794 3695 3684 3783 3795 3696 3685 3784
8 3795 3696 3685 3784 3796 3697 3686 3785
8 3796 3697 3686 3785 3797 3698 3687 3786
8 3797 3698 3687 3786 3798 3699 3688 3787
8 3798 3699 3688 3787 3799 3700 3689 3788
8 3799 3700 3689 3788 3800 3701 3690 3789
8 3800 3701 3690 3789 3801 3702 3691 3790
8 3801 3702 3691 3790 3802 3703 3692 3791
8 3802 3703 3692 3791 3803 3704 3693 3792
8 3804 3705 3694 3793 3805 3706 3695 3794
8 3805 3706 3695 3794 3806 3707 3696 3795
8 3806 3707 3696 3795 3807 3708 3697 3796
8 3807 3708 3697 3796 3808 3709 3698 3797
8 3808 3709 3698 3797 3809 3710 3699 3798
8 3809 3710 3699 3798 3810 3711 3700 3799
8 3810 3711 3700 3799 3811 3712 3701 3800
8 3811 3712 3701 3800 3812 3713 3702 3801
8 3812 3713 3702 3801 3813 3714 3703 3802
8 3813 3714 3703 3802 3814 3715 3704 3803
8 3815 3716 3705 3804 3816 3717 3706 3805
8 3816 3717 3706 3805 3817 3718 3707 3806
8 3817 3718 3707 3806 3818 3719 3708 3807
8 3818 3719 3708 3807 3819 3720 3709 3808
8 3819 3720 3709 3808 3820 3721 3710 3809
8 3820 3721 3710 3809 3821 3722 3711 3810
8 3821 3722 3711 3810 3822 3723 3712 3811
8 3822 3723 3712 3811 3823 3724 3713 3812
8 3823 3724 3713 3812 3824 3725 3714 3813
8 3824 3725 3714 3813 3825 3726 3715 3814
8 3826 3727 3716 3815 3827 3728 3717 3816
8 3827 3728 3717 3816 3828 3729 3718 3817
8 3828 3729 3718 3817 3829 3730 3719 3818
8 3829 3730 3719 3818 3830 3731 3720 3819
8 3830 3731 3720 3819 3831 3732 3721 3820
8 3831 3732 3721 3820 3832 3733 3722 3821
8 3832 3733 3722 3821 3833 3734 3723 3822
8 3833 3734 3723 3822 3834 3735 3724 3823
8 3834 3735 3724 3823 3835 3736 3725 3824
8 3836 3737 3727 3826 3837 3738 3728 3827
8 3837 3738 3728 3827 3838 3739 3729 3828
8 3838 3739 3729 3828 3839 3740 3730 3829
8 3839 3740 3730 3829 3840 3741 3731 3830
8 3840 3741 3731 3830 3841 3742 3732 3831
8 3841 3742 3732 3831 3842 3743 3733 3832
8 3842 3743 3733 3832 3843 3744 3734 3833
8 3843 3744 3734 3833 3844 3745 3735 3834
8 3854 3755 3746 3845 3855 3756 3747 3846
8 3855 3756 3747 3846 3856 3757 3748 3847
8 3856 3757 3748 3847 3857 3758 3749 3848
8 3857 3758 3749 3848 3858 3759 3750 3849
8 3858 3759 3750 3849 3859 3760 3751 3850
8 3861 3762 3752 3851 3862 3763 3753 3852
8 3862 3763 3753 3852 3863 3764 3754 3853
8 3863 3764 3754 3853 3864 3765 3755 3854
8 3864 3765 3755 3854 3865 3766 3756 3855
8 3865 3766 3756 3855 3866 3767 3757 3856
8 3866 3767 3757 3856 3867 3768 3758 3857
8 3867 3768 3758 3857 3868 3769 3759 3858
8 3868 3769 3759 3858 3869 3770 3760 3859
8 3871 3772 3761 3860 3872 3773 3762 3861
8 3872 3773 3762 3861 3873 3774 3763 3862
8 3873 3774 3763 3862 3874 3775 3764 3863
8 3874 3775 3764 3863 3875 3776 3765 3864
8 3875 3776 3765 3864 3876 3777 3766 3865
8 3876 3777 3766 3865 3877 3778 3767 3866
8 3877 3778 3767 3866 3878 3779 3768 3867
8 3878 3779 3768 3867 3879 3780 3769 3868
8 3879 3780 3769 3868 3880 3781 3770 3869
8 3881 3782 3771 3870 3882 3783 3772 3871
8 3882 3783 3772 3871 3883 3784 3773 3872
8 3883 3784 3773 3872 3884 3785 3774 3873
8 3884 3785 3774 3873 3885 3786 3775 3874
8 3885 3786 3775 3874 3886 3787 3776 3875
8 3886 3787 3776 3875 3887 3788 3777 3876
8 3887 3788 3777 3876 3888 3789 3778 3877
8 3888 3789 3778 3877 3889 3790 3779 3878
8 3889 3790 3779 3878 3890 3791 3780 3879
8 3890 3791 3780 3879 3891 3792 3781 3880
8 3892 3793 3782 3881 3893 3794 3783 3882
8 3893 3794 3783 3882 3894 3795 3784 3883
8 3894 3795 3784 3883 3895 3796 3785 3884
8 3895 3796 3785 3884 3896 3797 3786 3885
8 3896 3797 3786 3885 3897 3798 3787 3886
8 3897 3798 3787 3886 3898 3799 3788 3887
8 3898 3799 3788 3887 3899 3800 3789 3888
8 3899 3800 3789 3888 3900 3801 3790 3889
8 3900 3801 3790 3889 3901 3802 3791 3890
8 3901 3802 3791 3890 3902 3803 3792 3891
8 3903 3804 3793 3892 3904 3805 3794 3893
8 3904 3805 3794 3893 3905 3806 3795 3894
8 3905 3806 3795 3894 3906 3807 3796 3895
8 3906 3807 3796 3895 3907 3808 3797 3896
8 3907 3808 3797 3896 3908 3809 3798 3897
8 3908 3809 3798 3897 3909 3810 3799 3898
8 3909 3810 3799 3898 3910 3811 3800 3899
8 3910 3811 3800 3899 3911 3812 3801 3900
8 3911 3812 3801 3900 3912 3813 3802 3901
8 3912 3813 3802 3901 3913 3814 3803 3902
8 3914 3815 3804 3903 3915 3816 3805 3904
8 3915 3816 3805 3904 3916 3817 3806 3905
8 3916 3817 3806 3905 3917 3818 3807 3906
8 3917 3818 3807 3906 3918 3819 3808 3907
8 3918 3819 3808 3907 3919 3820 3809 3908
8 3919 3820 3809 3908 3920 3821 3810 3909
8 3920 3821 3810 3909 3921 3822 3811 3910
8 3921 3822 3811 3910 3922 3823 3812 3911
8 3922 3823 3812 3911 3923 3824 3813 3912
8 3923 3824 3813 3912 3924 3825 3814 3913
8 3925 3826 3815 3914 3926 3827 3816 3915
8 3926 3827 3816 3915 3927 3828 3817 3916
8 3927 3828 3817 3916 3928 3829 3818 3917
8 3928 3829 3818 3917 3929 3830 3819 3918
8 3929 3830 3819 3918 3930 3831 3820 3919
8 3930 3831 3820 3919 3931 3832 3821 3920
8 3931 3832 3821 3920 3932 3833 3822 3921
8 3932 3833 3822 3921 3933 3834 3823 3922
8 3933 3834 3823 3922 3934 3835 3824 3923
8 3935 3836 3826 3925 3936 3837 3827 3926
8 3936 3837 3827 3926 3937 3838 3828 3927
8 3937 3838 3828 3927 3938 3839 3829 3928
8 3938 3839 3829 3928 3939 3840 3830 3929
8 3939 3840 3830 3929 3940 3841 3831 3930
8 3940 3841 3831 3930 3941 3842 3832 3931
8 3941 3842 3832 3931 3942 3843 3833 3932
8 3942 3843 3833 3932 3943 3844 3834 3933
8 1181 3854 3845 1172 1182 3855 3846 1173
8 1182 3855 3846 1173 1183 3856 3847 1174
8 1183 3856 3847 1174 1184 3857 3848 1175
8 1184 3857 3848 1175 1185 3858 3849 1176
8 1185 3858 3849 1176 1186 3859 3850 1177
8 1188 3861 3851 1178 1189 3862 3852 1179
8 1189 3862 3852 1179 1190 3863 3853 1180
8 1190 3863 3853 1180 1191 3864 3854 1181
8 1191 3864 3854 1181 1192 3865 3855 1182
8 1192 3865 3855 1182 1193 3866 3856 1183
8 1193 3866 3856 1183 1194 3867 3857 1184
8 1194 3867 3857 1184 1195 3868 3858 1185
8 1195 3868 3858 1185 1196 3869 3859 1186
8 1198 3871 3860 1187 1199 3872 3861 1188
8 1199 3872 3861 1188 1200 3873 3862 1189
8 1200 3873 3862 1189 1201 3874 3863 1190
8 1201 3874 3863 1190 1202 3875 3864 1191
8 1202 3875 3864 1191 1203 3876 3865 1192
8 1203 3876 3865 1192 1204 3877 3866 1193
8 1204 3877 3866 1193 1205 3878 3867 1194
8 1205 3878 3867 1194 1206 3879 3868 1195
8 1206 3879 3868 1195 1207 3880 3869 1196
8 1208 3881 3870 1197 1209 3882 3871 1198
8 1209 3882 3871 1198 1210 3883 3872 1199
8 1210 3883 3872 1199 1211 3884 3873 1200
8 1211 3884 3873 1200 1212 3885 3874 1201
8 1212 3885 3874 1201 1213 3886 3875 1202
8 1213 3886 3875 1202 1214 3887 3876 1203
8 1214 3887 3876 1203 1215 3888 3877 1204
8 1215 3888 3877 1204 1216 3889 3878 1205
8 1216 3889 3878 1205 1217 3890 3879 1206
8 1217 3890 3879 1206 1218 3891 3880 1207
8 1219 3892 3881 1208 1220 3893 3882 1209
8 1220 3893 3882 1209 1221 3894 3883 1210
8 1221 3894 3883 1210 1222 3895 3884 1211
8 1222 3895 3884 1211 1223 3896 3885 1212
8 1223 3896 3885 1212 1224 3897 3886 1213
8 1224 3897 3886 1213 1225 3898 3887 1214
8 1225 3898 3887 1214 1226 3899 3888 1215
8 1226 3899 3888 1215 1227 3900 3889 1216
8 1227 3900 3889 1216 1228 3901 3890 1217
8 1228 3901 3890 1217 1229 3902 3891 1218
8 1230 3903 3892 1219 1231 3904 3893 1220
8 1231 3904 3893 1220 1232 3905 3894 1221
8 1232 3905 3894 1221 1233 3906 3895 1222
8 1233 3906 3895 1222 1234 3907 3896 1223
8 1234 3907 3896 1223 1235 3908 3897 1224
8 1235 3908 3897 1224 1236 3909 3898 1225
8 1236 3909 3898 1225 1237 3910 3899 1226
8 1237 3910 3899 1226 1238 3911 3900 1227
8 1238 3911 3900 1227 1239 3912 3901 1228
8 1239 3912 3901 1228 1240 3913 3902 1229
8 1241 3914 3903 1230 1242 3915 3904 1231
8 1242 3915 3904 1231 1243 3916 3905 1232
8 1243 3916 3905 1232 1244 3917 3906 1233
8 1244 3917 3906 1233 1245 3918 3907 1234
8 1245 3918 3907 1234 1246 3919 3908 1235
8 1246 3919 3908 1235 1247 3920 3909 1236
8 1247 3920 3909 1236 1248 3921 3910 1237
8 1248 3921 3910 1237 1249 3922 3911 1238
8 1249 3922 3911 1238 1250 3923 3912 1239
8 1250 3923 3912 1239 1251 3924 3913 1240
8 1252 3925 3914 1241 1253 3926 3915 1242
8 1253 3926 3915 1242 1254 3927 3916 1243
8 1254 3927 3916 1243 1255 3928 3917 1244
8 1255 3928 3917 1244 1256 3929 3918 1245
8 1256 3929 3918 1245 1257 3930 3919 1246
8 1257 3930 3919 1246 1258 3931 3920 1247
8 1258 3931 3920 1247 1259 3932 3921 1248
8 1259 3932 3921 1248 1260 3933 3922 1249
8 1260 3933 3922 1249 1261 3934 3923 1250
8 1262 3935 3925 1252 1263 3936 3926 1253
8 1263 3936 3926 1253 1264 3937 3927 1254
8 1264 3937 3927 1254 1265 3938 3928 1255
8 1265 3938 3928 1255 1266 3939 3929 1256
8 1266 3939 3929 1256 1267 3940 3930 1257
8 1267 3940 3930 1257 1268 3941 3931 1258
8 1268 3941 3931 1258 1269 3942 3932 1259
8 1269 3942 3932 1259 1270 3943 3933 1260
8 1389 1280 1271 1371 1391 1281 1272 1373
8 1391 1281 1272 1373 1393 1282 1273 1375
8 1393 1282 1273 1375 1395 1283 1274 1377
8 1395 1283 1274 1377 1397 1284 1275 1379
8 1397 1284 1275 1379 1399 1285 1276 1381
8 1403 1287 1277 1383 1405 1288 1278 1385
8 1405 1288 1278 1385 1407 1289 1279 1387
8 1407 1289 1279 1387 1409 1290 1280 1389
8 1409 1290 1280 1389 1411 1291 1281 1391
8 1411 1291 1281 1391 1413 1292 1282 1393
8 1413 1292 1282 1393 1415 1293 1283 1395
8 1415 1293 1283 1395 1417 1294 1284 1397
8 1417 1294 1284 1397 1419 1295 1285 1399
8 1423 1297 1286 1401 1425 1298 1287 1403
8 1425 1298 1287 1403 1427 1299 1288 1405
8 1427 1299 1288 1405 1429 1300 1289 1407
8 1429 1300 1289 1407 1431 1301 1290 1409
8 1431 1301 1290 1409 1433 1302 1291 1411
8 1433 1302 1291 1411 1435 1303 1292 1413
8 1435 1303 1292 1413 1437 1304 1293 1415
8 1437 1304 1293 1415 1439 1305 1294 1417
8 1439 1305 1294 1417 1441 1306 1295 1419
8 1443 1307 1296 1421 1445 1308 1297 1423
8 1445 1308 1297 1423 1447 1309 1298 1425
8 1447 1309 1298 1425 1449 1310 1299 1427
8 1449 1310 1299 1427 1451 1311 1300 1429
8 1451 1311 1300 1429 1453 1312 1301 1431
8 1453 1312 1301 1431 1455 1313 1302 1433
8 1455 1313 1302 1433 1457 1314 1303 1435
8 1457 1314 1303 1435 1459 1315 1304 1437
8 1459 1315 1304 1437 1461 1316 1305 1439
8 1461 1316 1305 1439 1463 1317 1306 1441
8 1465 1318 1307 1443 1467 1319 1308 1445
8 1467 1319 1308 1445 1469 1320 1309 1447
8 1469 1320 1309 1447 1471 1321 1310 1449
8 1471 1321 1310 1449 1473 1322 1311 1451
8 1473 1322 1311 1451 1475 1323 1312 1453
8 1475 1323 1312 1453 1477 1324 1313 1455
8 1477 1324 1313 1455 1479 1325 1314 1457
8 1479 1325 1314 1457 1481 1326 1315 1459
8 1481 1326 1315 1459 1483 1327 1316 1461
8 1483 1327 1316 1461 1485 1328 1317 1463
8 1487 1329 1318 1465 1489 1330 1319 1467
8 1489 1330 1319 1467 1491 1331 1320 1469
8 1491 1331 1320 1469 1493 1332 1321 1471
8 1493 1332 1321 1471 1495 1333 1322 1473
8 1495 1333 1322 1473 1497 1334 1323 1475
8 1497 1334 1323 1475 1499 1335 1324 1477
8 1499 1335 1324 1477 1501 1336 1325 1479
8 1501 1336 1325 1479 1503 1337 1326 1481
8 1503 1337 1326 1481 1505 1338 1327 1483
8 1505 1338 1327 1483 1507 1339 1328 1485
8 1509 1340 1329 1487 1511 1341 1330 1489
8 1511 1341 1330 1489 1513 1342 1331 1491
8 1513 1342 1331 1491 1515 1343 1332 1493
8 1515 1343 1332 1493 1517 1344 1333 1495
8 1517 1344 1333 1495 1519 1345 1334 1497
8 1519 1345 1334 1497 1521 1346 1335 1499
8 1521 1346 1335 1499 1523 1347 1336 1501
8 1523 1347 1336 1501 1525 1348 1337 1503
8 1525 1348 1337 1503 1527 1349 1338 1505
8 1527 1349 1338 1505 1529 1350 1339 1507
8 1531 1351 1340 1509 1533 1352 1341 1511
8 1533 1352 1341 1511 1535 1353 1342 1513
8 1535 1353 1342 1513 1537 1354 1343 1515
8 1537 1354 1343 1515 1539 1355 1344 1517
8 1539 1355 1344 1517 1541 1356 1345 1519
8 1541 1356 1345 1519 1543 1357 1346 1521
8 1543 1357 1346 1521 1545 1358 1347 1523
8 1545 1358 1347 1523 1547 1359 1348 1525
8 1547 1359 1348 1525 1549 1360 1349 1527
8 1551 1361 1351 1531 1553 1362 1352 1533
8 1553 1362 1352 1533 1555 1363 1353 1535
8 1555 1363 1353 1535 1557 1364 1354 1537
8 1557 1364 1354 1537 1559 1365 1355 1539
8 1559 1365 1355 1539 1561 1366 1356 1541
8 1561 1366 1356 1541 1563 1367 1357 1543
8 1563 1367 1357 1543 1565 1368 1358 1545
8 1565 1368 1358 1545 1567 1369 1359 1547
8 1587 1388 1370 1569 1589 1390 1372 1571
8 1589 1390 1372 1571 1591 1392 1374 1573
8 1591 1392 1374 1573 1593 1394 1376 1575
8 1593 1394 1376 1575 1595 1396 1378 1577
8 1595 1396 1378 1577 1597 1398 1380 1579
8 1601 1402 1382 1581 1603 1404 1384 1583
8 1603 1404 1384 1583 1605 1406 1386 1585
8 1605 1406 1386 1585 1607 1408 1388 1587
8 1607 1408 1388 1587 1609 1410 1390 1589
8 1609 1410 1390 1589 1611 1412 1392 1591
8 1611 1412 1392 1591 1613 1414 1394 1593
8 1613 1414 1394 1593 1615 1416 1396 1595
8 1615 1416 1396 1595 1617 1418 1398 1597
8 1621 1422 1400 1599 1623 1424 1402 1601
8 1623 1424 1402 1601 1625 1426 1404 1603
8 1625 1426 1404 1603 1627 1428 1406 1605
8 1627 1428 1406 1605 1629 1430 1408 1607
8 1629 1430 1408 1607 1631 1432 1410 1609
8 1631 1432 1410 1609 1633 1434 1412 1611
8 1633 1434 1412 1611 1635 1436 1414 1613
8 1635 1436 1414 1613 1637 1438 1416 1615
8 1637 1438 1416 1615 1639 1440 1418 1617
8 1641 1442 1420 1619 1643 1444 1422 1621
8 1643 1444 1422 1621 1645 1446 1424 1623
8 1645 1446 1424 1623 1647 1448 1426 1625
8 1647 1448 1426 1625 1649 1450 1428 1627
8 1649 1450 1428 1627 1651 1452 1430 1629
8 1651 1452 1430 1629 1653 1454 1432 1631
8 1653 1454 1432 1631 1655 1456 1434 1633
8 1655 1456 1434 1633 1657 1458 1436 1635
8 1657 1458 1436 1635 1659 1460 1438 1637
8 1659 1460 1438 1637 1661 1462 1440 1639
8 1663 1464 1442 1641 1665 1466 1444 1643
8 1665 1466 1444 1643 1667 1468 1446 1645
8 1667 1468 1446 1645 1669 1470 1448 1647
8 1669 1470 1448 1647 1671 1472 1450 1649
8 1671 1472 1450 1649 1673 1474 1452 1651
8 1673 1474 1452 1651 1675 1476 1454 1653
8 1675 1476 1454 1653 1677 1478 1456 1655
8 1677 1478 1456 1655 1679 1480 1458 1657
8 1679 1480 1458 1657 1681 1482 1460 1659
8 1681 1482 1460 1659 1683 1484 1462 1661
8 1685 1486 1464 1663 1687 1488 1466 1665
8 1687 1488 1466 1665 1689 1490 1468 1667
8 1689 1490 1468 1667 1691 1492 1470 1669
8 1691 1492 1470 1669 1693 1494 1472 1671
8 1693 1494 1472 1671 1695 1496 1474 1673
8 1695 1496 1474 1673 1697 1498 1476 1675
8 1697 1498 1476 1675 1699 1500 1478 1677
8 1699 1500 1478 1677 1701 1502 1480 1679
8 1701 1502 1480 1679 1703 1504 1482 1681
8 1703 1504 1482 1681 1705 1506 1484 1683
8 1707 1508 1486 1685 1709 1510 1488 1687
8 1709 1510 1488 1687 1711 1512 1490 1689
8 1711 1512 1490 1689 1713 1514 1492 1691
8 1713 1514 1492 1691 1715 1516 1494 1693
8 1715 1516 1494 1693 1717 1518 1496 1695
8 1717 1518 1496 1695 1719 1520 1498 1697
8 1719 1520 1498 1697 1721 1522 1500 1699
8 1721 1522 1500 1699 1723 1524 1502 1701
8 1723 1524 1502 1701 1725 1526 1504 1703
8 1725 1526 1504 1703 1727 1528 1506 1705
8 1729 1530 1508 1707 1731 1532 1510 1709
8 1731 1532 1510 1709 1733 1534 1512 1711
8 1733 1534 1512 1711 1735 1536 1514 1713
8 1735 1536 1514 1713 1737 1538 1516 1715
8 1737 1538 1516 1715 1739 1540 1518 1717
8 1739 1540 1518 1717 1741 1542 1520 1719
8 1741 1542 1520 1719 1743 1544 1522 1721
8 1743 1544 1522 1721 1745 1546 1524 1723
8 1745 1546 1524 1723 1747 1548 1526 1725
8 1749 1550 1530 1729 1751 1552 1532 1731
8 1751 1552 1532 1731 1753 1554 1534 1733
8 1753 1554 1534 1733 1755 1556 1536 1735
8 1755 1556 1536 1735 1757 1558 1538 1737
8 1757 1558 1538 1737 1759 1560 1540 1739
8 1759 1560 1540 1739 1761 1562 1542 1741
8 1761 1562 1542 1741 1763 1564 1544 1743
8 1763 1564 1544 1743 1765 1566 1546 1745
CELL_TYPES 2212
12
12
12
12
12
12
12
12
12
12
12
12
12
12
12
12
12
12
12
12
12
12
12
12
12
12
12
12
12
12
12
12
12
12
12
12
12
12
12
12
12
12
12
12
12
12
12
12
12
12
12
12
12
12
12
12
12
12
12
12
12
12
12
12
12
12
12
12
12
12
12
12
12
12
12
12
12
12
12
12
12
12
12
12
12
12
12
12
12
12
12
12
12
12
12
12
12
12
12
12
12
12
12
12
12
12
12
12
12
12
12
12
12
12
12
12
12
12
12
12
12
12
12
12
12
12
12
12
12
12
12
12
12
12
12
12
12
12
12
12
12
12
12
12
12
12
12
12
12
12
12
12
12
12
12
12
12
12
12
12
12
12
12
12
12
12
12
12
12
12
12
12
12
12
12
12
12
12
12
12
12
12
12
12
12
12
12
12
12
12
12
12
12
12
12
12
12
12
12
12
12
12
12
12
12
12
12
12
12
12
12
12
12
12
12
12
12
12
12
12
12
12
12
12
12
12
12
12
12
12
12
12
12
12
12
12
12
12
12
12
12
12
12
12
12
12
12
12
12
12
12
12
12
12
12
12
12
12
12
12
12
12
12
12
12
12
12
12
12
12
12
12
12
12
12
12
12
12
12
12
12
12
12
12
12
12
12
12
12
12
12
12
12
12
12
12
12
12
12
12
12
12
12
12
12
12
12
12
12
12
12
12
12
12
12
12
12
12
12
12
12
12
12
12
12
12
12
12
12
12
12
12
12
12
12
12
12
12
12
12
12
12
12
12
12
12
12
12
12
12
12
12
12
12
12
12
12
12
12
12
12
12
12
12
12
12
12
12
12
12
12
12
12
12
12
12
12
12
12
12
12
12
12
12
12
12
12
12
12
12
12
12
12
12
12
12
12
12
12
12
12
12
12
12
12
12
12
12
12
12
12
12
12
12
12
12
12
12
12
12
12
12
12
12
12
12
12
12
12
12
12
12
12
12
12
12
12
12
12
12
12
12
12
12
12
12
12
12
12
12
12
12
12
12
12
12
12
12
12
12
12
12
12
12
12
12
12
12
12
12
12
12
12
12
12
12
12
12
12
12
12
12
12
12
12
12
12
12
12
12
12
12
12
12
12
12
12
12
12
12
12
12
12
12
12
12
12
12
12
12
12
12
12
12
12
12
12
12
12
12
12
12
12
12
12
12
12
12
12
12
12
12
12
12
12
12
12
12
12
12
12
12
12
12
12
12
12
12
12
12
12
12
12
12
12
12
12
12
12
12
12
12
12
12
12
12
12
12
12
12
12
12
12
12
12
12
12
12
12
12
12
12
12
12
12
12
12
12
12
12
12
12
12
12
12
12
12
12
12
12
12
12
12
12
12
12
12
12
12
12
12
12
12
12
12
12
12
12
12
12
12
12
12
12
12
12
12
12
12
12
12
12
12
12
12
12
12
12
12
12
12
12
12
12
12
12
12
12
12
12
12
12
12
12
12
12
12
12
12
12
12
12
12
12
12
12
12
12
12
12
12
12
12
12
12
12
12
12
12
12
12
12
12
12
12
12
12
12
12
12
12
12
12
12
12
12
12
12
12
12
12
12
12
12
12
12
12
12
12
12
12
12
12
12
12
12
12
12
12
12
12
12
12
12
12
12
12
12
12
12
12
12
12
12
12
12
12
12
12
12
12
12
12
12
12
12
12
12
12
12
12
12
12
12
12
12
12
12
12
12
12
12
12
12
12
12
12
12
12
12
12
12
12
12
12
12
12
12
12
12
12
12
12
12
12
12
12
12
12
12
12
12
12
12
12
12
12
12
12
12
12
12
12
12
12
12
12
12
12
12
12
12
12
12
12
12
12
12
12
12
12
12
12
12
12
12
12
12
12
12
12
12
12
12
12
12
12
12
12
12
12
12
12
12
12
12
12
12
12
12
12
12
12
12
12
12
12
12
12
12
12
12
12
12
12
12
12
12
12
12
12
12
12
12
12
12
12
12
12
12
12
12
12
12
12
12
12
12
12
12
12
12
12
12
12
12
12
12
12
12
12
12
12
12
12
12
12
12
12
12
12
12
12
12
12
12
12
12
12
12
12
12
12
12
12
12
12
12
12
12
12
12
12
12
12
12
12
12
12
12
12
12
12
12
12
12
12
12
12
12
12
12
12
12
12
12
12
12
12
12
12
12
12
12
12
12
12
12
12
12
12
12
12
12
12
12
12
12
12
12
12
12
12
12
12
12
12
12
12
12
12
12
12
12
12
12
12
12
12
12
12
12
12
12
12
12
12
12
12
12
12
12
12
12
12
12
12
12
12
12
12
12
12
12
12
12
12
12
12
12
12
12
12
12
12
12
12
12
12
12
12
12
12
12
12
12
12
12
12
12
12
12
12
12
12
12
12
12
12
12
12
12
12
12
12
12
12
12
12
12
12
12
12
12
12
12
12
12
12
12
12
12
12
12
12
12
12
12
12
12
12
12
12
12
12
12
12
12
12
12
12
12
12
12
12
12
12
12
12
12
12
12
12
12
12
12
12
12
12
12
12
12
12
12
12
12
12
12
12
12
12
12
12
12
12
12
12
12
12
12
12
12
12
12
12
12
12
12
12
12
12
12
12
12
12
12
12
12
12
12
12
12
12
12
12
12
12
12
12
12
12
12
12
12
12
12
12
12
12
12
12
12
12
12
12
12
12
12
12
12
12
12
12
12
12
12
12
12
12
12
12
12
12
12
12
12
12
12
12
12
12
12
12
12
12
12
12
12
12
12
12
12
12
12
12
12
12
12
12
12
12
12
12
12
12
12
12
12
12
12
12
12
12
12
12
12
12
12
12
12
12
12
12
12
12
12
12
12
12
12
12
12
12
12
12
12
12
12
12
12
12
12
12
12
12
12
12
12
12
12
12
12
12
12
12
12
12
12
12
12
12
12
12
12
12
12
12
12
12
12
12
12
12
12
12
12
12
12
12
12
12
12
12
12
12
12
12
12
12
12
12
12
12
12
12
12
12
12
12
12
12
12
12
12
12
12
12
12
12
12
12
12
12
12
12
12
12
12
12
12
12
12
12
12
12
12
12
12
12
12
12
12
12
12
12
12
12
12
12
12
12
12
12
12
12
12
12
12
12
12
12
12
12
12
12
12
12
12
12
12
12
12
12
12
12
12
12
12
12
12
12
12
12
12
12
12
12
12
12
12
12
12
12
12
12
12
12
12
12
12
12
12
12
12
12
12
12
12
12
12
12
12
12
12
12
12
12
12
12
12
12
12
12
12
12
12
12
12
12
12
12
12
12
12
12
12
12
12
12
12
12
12
12
12
12
12
12
12
12
12
12
12
12
12
12
12
12
12
12
12
12
12
12
12
12
12
12
12
12
12
12
12
12
12
12
12
12
12
12
12
12
12
12
12
12
12
12
12
12
12
12
12
12
12
12
12
12
12
12
12
12
12
12
12
12
12
12
12
12
12
12
12
12
12
12
12
12
12
12
12
12
12
12
12
12
12
12
12
12
12
12
12
12
12
12
12
12
12
12
12
12
12
12
12
12
12
12
12
12
12
12
12
12
12
12
12
12
12
12
12
12
12
12
12
12
12
12
12
12
12
12
12
12
12
12
12
12
12
12
12
12
12
12
12
12
12
12
12
12
12
12
12
12
12
12
12
12
12
12
12
12
12
12
12
12
12
12
12
12
12
12
12
12
12
12
12
12
12
12
12
12
12
12
12
12
12
12
12
12
12
12
12
12
12
12
12
12
12
12
12
12
12
12
12
12
12
12
12
12
12
12
12
12
12
12
12
12
12
12
12
12
12
12
12
12
12
12
12
12
12
12
12
12
12
12
12
12
12
12
12
12
12
12
12
12
12
12
12
12
12
12
12
12
12
12
12
12
12
12
12
12
12
12
12
12
12
12
12
12
12
12
12
12
12
12
12
12
12
12
12
12
12
12
12
12
12
12
12
12
12
12
12
12
12
12
12
12
12
12
12
12
12
12
12
12
12
12
12
12
12
12
12
12
12
12
12
12
12
12
12
12
12
12
12
12
12
12
12
12
12
12
12
12
12
12
12
12
12
12
12
12
12
12
12
12
12
12
12
12
12
12
12
12
12
12
12
12
12
12
12
12
12
12
12
12
12
12
12
12
12
12
12
12
12
12
12
12
12
12
12
12
12
12
12
12
12
12
12
12
12
12
12
12
12
12
12
12
12
12
12
12
12
12
12
12
12
12
12
12
12
12
12
12
12
12
12
12
12
12
12
12
12
12
12
12
12
12
12
12
12
12
12
12
12
12
12
12
12
12
12
12
12
12
12
12
12
12
12
12
12
12
12
12
12
12
12
12
12
12
12
12
12
12
12
12
12
12
12
12
12
12
12
12
12
12
12
12
12
12
12
12
12
12
12
12
12
12
12
12
12
12
12
12
12
12
12
12
12
12
12
12
12
12
12
12
12
12
12
12
12
12
12
12
12
12
12
12
12
12
12
12
12
12
12
12
12
12
12
12
12
12
12
12
12
12
12
12
12
12
12
12
12
12
12
12
12
12
12
12
12
12
12
12
12
12
12
12
12
12
12
12
12
12
12
12
12
12
12
12
12
12
12
12
12
12
12
12
12
12
12
12
12
12
12
12
12
12
12
12
12
12
12
12
12
12
12
12
12
12
12
12
12
12
12
12
12
12
12
12
12
12
12
12
12
12
12
12
12
12
12
12
12
12
12
12
12
12
12
12
12
12
12
12
12
12
12
12
12
12
12
12
12
12
12
12
12
12
12
12
12
12
12
12
12
12
12
12
12
12
12
12
12
12
12
12
12
12
12
12
12
12
12
12
12
12
12
12
12
12
12
12
12
12
12
12
12
12
12
12
12
12
12
12
12
12
12
12
12
12
12
12
12
12
12
12
12
12
12
12
12
12
12
12
12
12
12
12
12
12
12
12
12
12
12
12
12
12
12
12
12
12
12
12
12
12
12
12
12
12
12
12
12
12
12
12
12
12
12
12
12
12
12
POINT_DATA 3944
SCALARS DISPLACEMENT double 3
LOOKUP_TABLE default
0 0 0
0 0 0
0 0 0
0 0 0
0 0 0
0 0 0
0 0 0
0 0 0
0 0 0
0 0 0
0 0 0
0 0 0
0 0 0
0 0 0
0 0 0
0 0 0
0 0 0
0 0 0
0 0 0
0 0 0
0 0 0
0 0 0
0 0 0
0 0 0
0 0 0
0 0 0
0 0 0
0 0 0
0 0 0
0 0 0
0 0 0
0 0 0
0 0 0
0 0 0
0 0 0
0 0 0
0 0 0
0 0 0
0 0 0
0 0 0
0 0 0
0 0 0
0 0 0
0 0 0
0 0 0
0 0 0
0 0 0
0 0 0
0 0 0
0 0 0
0 0 0
0 0 0
0 0 0
0 0 0
0 0 0
0 0 0
0 0 0
0 0 0
0 0 0
0 0 0
0 0 0
0 0 0
0 0 0
0 0 0
0 0 0
0 0 0
0 0 0
0 0 0
0 0 0
0 0 0
0 0 0
0 0 0
0 0 0
0 0 0
0 0 0
0 0 0
0 0 0
0 0 0
0 0 0
0 0 0
0 0 0
0 0 0
0 0 0
0 0 0
0 0 0
0 0 0
0 0 0
0 0 0
0 0 0
0 0 0
0 0 0
0 0 0
0 0 0
0 0 0
0 0 0
0 0 0
0 0 0
0 0 0
0 0 0
0 0 0
0 0 0
0 0 0
0 0 0
0 0 0
0 0 0
0 0 0
0 0 0
0 0 0
0 0 0
0 0 0
0 0 0
0 0 0
0 0 0
0 0 0
0 0 0
0 0 0
0 0 0
0 0 0
0 0 0
0 0 0
0 0 0
0 0 0
0 0 0
0 0 0
0 0 0
0 0 0
0 0 0
0 0 0
0 0 0
0 0 0
0 0 0
0 0 0
0 0 0
0 0 0
0 0 0
0 0 0
0 0 0
0 0 0
0 0 0
0 0 0
0 0 0
0 0 0
0 0 0
0 0 0
0 0 0
0 0 0
0 0 0
0 0 0
0 0 0
0 0 0
0 0 0
0 0 0
0 0 0
0 0 0
0 0 0
0 0 0
0 0 0
0 0 0
0 0 0
0 0 0
0 0 0
0 0 0
0 0 0
0 0 0
0 0 0
0 0 0
0 0 0
0 0 0
0 0 0
0 0 0
0 0 0
0 0 0
0 0 0
0 0 0
0 0 0
0 0 0
0 0 0
0 0 0
0 0 0
0 0 0
0 0 0
0 0 0
0 0 0
0 0 0
0 0 0
0 0 0
0 0 0
0 0 0
0 0 0
0 0 0
0 0 0
0 0 0
0 0 0
0 0 0
0 0 0
0 0 0
0 0 0
0 0 0
0 0 0
0 0 0
0 0 0
0 0 0
0 0 0
0 0 0
0 0 0
0 0 0
0 0 0
0 0 0
0 0 0
0 0 0
0 0 0
0 0 0
0 0 0
0 0 0
0 0 0
0 0 0
0 0 0
0 0 0
0 0 0
0 0 0
0 0 0
0 0 0
0 0 0
0 0 0
0 0 0
0 0 0
0 0 0
0 0 0
0 0 0
0 0 0
0 0 0
0 0 0
0 0 0
0 0 0
0 0 0
0 0 0
0 0 0
0 0 0
0 0 0
0 0 0
0 0 0
0 0 0
0 0 0
0 0 0
0 0 0
0 0 0
0 0 0
0 0 0
0 0 0
0 0 0
0 0 0
0 0 0
0 0 0
0 0 0
0 0 0
0 0 0
0 0 0
0 0 0
0 0 0
0 0 0
0 0 0
0 0 0
0 0 0
0 0 0
0 0 0
0 0 0
0 0 0
0 0 0
0 0 0
0 0 0
0 0 0
0 0 0
0 0 0
0 0 0
0 0 0
0 0 0
0 0 0
0 0 0
0 0 0
0 0 0
0 0 0
0 0 0
0 0 0
0 0 0
0 0 0
0 0 0
0 0 0
0 0 0
0 0 0
0 0 0
0 0 0
0 0 0
0 0 0
0 0 0
0 0 0
0 0 0
0 0 0
0 0 0
0 0 0
0 0 0
0 0 0
0 0 0
0 0 0
0 0 0
0 0 0
0 0 0
0 0 0
0 0 0
0 0 0
0 0 0
0 0 0
0 0 0
0 0 0
0 0 0
0 0 0
0 0 0
0 0 0
0 0 0
0 0 0
0 0 0
0 0 0
0 0 0
0 0 0
0 0 0
0 0 0
0 0 0
0 0 0
0 0 0
0 0 0
0 0 0
0 0 0
0 0 0
0 0 0
0 0 0
0 0 0
0 0 0
0 0 0
0 0 0
0 0 0
0 0 0
0 0 0
0 0 0
0 0 0
0 0 0
0 0 0
0 0 0
0 0 0
0 0 0
0 0 0
0 0 0
0 0 0
0 0 0
0 0 0
0 0 0
0 0 0
0 0 0
0 0 0
0 0 0
0 0 0
0 0 0
0 0 0
0 0 0
0 0 0
0 0 0
0 0 0
0 0 0
0 0 0
0 0 0
0 0 0
0 0 0
0 0 0
0 0 0
0 0 0
0 0 0
0 0 0
0 0 0
0 0 0
0 0 0
0 0 0
0 0 0
0 0 0
0 0 0
0 0 0
0 0 0
0 0 0
0 0 0
0 0 0
0 0 0
0 0 0
0 0 0
0 0 0
0 0 0
0 0 0
0 0 0
0 0 0
0 0 0
0 0 0
0 0 0
0 0 0
0 0 0
0 0 0
0 0 0
0 0 0
0 0 0
0 0 0
0 0 0
0 0 0
0 0 0
0 0 0
0 0 0
0 0 0
0 0 0
0 0 0
0 0 0
0 0 0
0 0 0
0 0 0
0 0 0
0 0 0
0 0 0
0 0 0
0 0 0
0 0 0
0 0 0
0 0 0
0 0 0
0 0 0
0 0 0
0 0 0
0 0 0
0 0 0
0 0 0
0 0 0
0 0 0
0 0 0
0 0 0
0 0 0
0 0 0
0 0 0
0 0 0
0 0 0
0 0 0
0 0 0
0 0 0
0 0 0
0 0 0
0 0 0
0 0 0
0 0 0
0 0 0
0 0 0
0 0 0
0 0 0
0 0 0
0 0 0
0 0 0
0 0 0
0 0 0
0 0 0
0 0 0
0 0 0
0 0 0
0 0 0
0 0 0
0 0 0
0 0 0
0 0 0
0 0 0
0 0 0
0 0 0
0 0 0
0 0 0
0 0 0
0 0 0
0 0 0
0 0 0
0 0 0
0 0 0
0 0 0
0 0 0
0 0 0
0 0 0
0 0 0
0 0 0
0 0 0
0 0 0
0 0 0
0 0 0
0 0 0
0 0 0
0 0 0
0 0 0
0 0 0
0 0 0
0 0 0
0 0 0
0 0 0
0 0 0
0 0 0
0 0 0
0 0 0
0 0 0
0 0 0
0 0 0
0 0 0
0 0 0
0 0 0
0 0 0
0 0 0
0 0 0
0 0 0
0 0 0
0 0 0
0 0 0
0 0 0
0 0 0
0 0 0
0 0 0
0 0 0
0 0 0
0 0 0
0 0 0
0 0 0
0 0 0
0 0 0
0 0 0
0 0 0
0 0 0
0 0 0
0 0 0
0 0 0
0 0 0
0 0 0
0 0 0
0 0 0
0 0 0
0 0 0
0 0 0
0 0 0
0 0 0
0 0 0
0 0 0
0 0 0
0 0 0
0 0 0
0 0 0
0 0 0
0 0 0
0 0 0
0 0 0
0 0 0
0 0 0
0 0 0
0 0 0
0 0 0
0 0 0
0 0 0
0 0 0
0 0 0
0 0 0
0 0 0
0 0 0
0 0 0
0 0 0
0 0 0
0 0 0
0 0 0
0 0 0
0 0 0
0 0 0
0 0 0
0 0 0
0 0 0
0 0 0
0 0 0
0 0 0
0 0 0
0 0 0
0 0 0
0 0 0
0 0 0
0 0 0
0 0 0
0 0 0
0 0 0
0 0 0
0 0 0
0 0 0
0 0 0
0 0 0
0 0 0
0 0 0
0 0 0
0 0 0
0 0 0
0 0 0
0 0 0
0 0 0
0 0 0
0 0 0
0 0 0
0 0 0
0 0 0
0 0 0
0 0 0
0 0 0
0 0 0
0 0 0
0 0 0
0 0 0
0 0 0
0 0 0
0 0 0
0 0 0
0 0 0
0 0 0
0 0 0
0 0 0
0 0 0
0 0 0
0 0 0
0 0 0
0 0 0
0 0 0
0 0 0
0 0 0
0 0 0
0 0 0
0 0 0
0 0 0
0 0 0
0 0 0
0 0 0
0 0 0
0 0 0
0 0 0
0 0 0
0 0 0
0 0 0
0 0 0
0 0 0
0 0 0
0 0 0
0 0 0
0 0 0
0 0 0
0 0 0
0 0 0
0 0 0
0 0 0
0 0 0
0 0 0
0 0 0
0 0 0
0 0 0
0 0 0
0 0 0
0 0 0
0 0 0
0 0 0
0 0 0
0 0 0
0 0 0
0 0 0
0 0 0
0 0 0
0 0 0
0 0 0
0 0 0
0 0 0
0 0 0
0 0 0
0 0 0
0 0 0
0 0 0
0 0 0
0 0 0
0 0 0
0 0 0
0 0 0
0 0 0
0 0 0
0 0 0
0 0 0
0 0 0
0 0 0
0 0 0
0 0 0
0 0 0
0 0 0
0 0 0
0 0 0
0 0 0
0 0 0
0 0 0
0 0 0
0 0 0
0 0 0
0 0 0
0 0 0
0 0 0
0 0 0
0 0 0
0 0 0
0 0 0
0 0 0
0 0 0
0 0 0
0 0 0
0 0 0
0 0 0
0 0 0
0 0 0
0 0 0
0 0 0
0 0 0
0 0 0
0 0 0
0 0 0
0 0 0
0 0 0
0 0 0
0 0 0
0 0 0
0 0 0
0 0 0
0 0 0
0 0 0
0 0 0
0 0 0
0 0 0
0 0 0
0 0 0
0 0 0
0 0 0
0 0 0
0 0 0
0 0 0
0 0 0
0 0 0
0 0 0
0 0 0
0 0 0
0 0 0
0 0 0
0 0 0
0 0 0
0 0 0
0 0 0
0 0 0
0 0 0
0 0 0
0 0 0
0 0 0
0 0 0
0 0 0
0 0 0
0 0 0
0 0 0
0 0 0
0 0 0
0 0 0
0 0 0
0 0 0
0 0 0
0 0 0
0 0 0
0 0 0
0 0 0
0 0 0
0 0 0
0 0 0
0 0 0
0 0 0
0 0 0
0 0 0
0 0 0
0 0 0
0 0 0
0 0 0
0 0 0
0 0 0
0 0 0
0 0 0
0 0 0
0 0 0
0 0 0
0 0 0
0 0 0
0 0 0
0 0 0
0 0 0
0 0 0
0 0 0
0 0 0
0 0 0
0 0 0
0 0 0
0 0 0
0 0 0
0 0 0
0 0 0
0 0 0
0 0 0
0 0 0
0 0 0
0 0 0
0 0 0
0 0 0
0 0 0
0 0 0
0 0 0
0 0 0
0 0 0
0 0 0
0 0 0
0 0 0
0 0 0
0 0 0
0 0 0
0 0 0
0 0 0
0 0 0
0 0 0
0 0 0
0 0 0
0 0 0
0 0 0
0 0 0
0 0 0
0 0 0
0 0 0
0 0 0
0 0 0
0 0 0
0 0 0
0 0 0
0 0 0
0 0 0
0 0 0
0 0 0
0 0 0
0 0 0
0 0 0
0 0 0
0 0 0
0 0 0
0 0 0
0 0 0
0 0 0
0 0 0
0 0 0
0 0 0
0 0 0
0 0 0
0 0 0
0 0 0
0 0 0
0 0 0
0 0 0
0 0 0
0 0 0
0 0 0
0 0 0
0 0 0
0 0 0
0 0 0
0 0 0
0 0 0
0 0 0
0 0 0
0 0 0
0 0 0
0 0 0
0 0 0
0 0 0
0 0 0
0 0 0
0 0 0
0 0 0
0 0 0
0 0 0
0 0 0
0 0 0
0 0 0
0 0 0
0 0 0
0 0 0
0 0 0
0 0 0
0 0 0
0 0 0
0 0 0
0 0 0
0 0 0
0 0 0
0 0 0
0 0 0
0 0 0
0 0 0
0 0 0
0 0 0
0 0 0
0 0 0
0 0 0
0 0 0
0 0 0
0 0 0
0 0 0
0 0 0
0 0 0
0 0 0
0 0 0
0 0 0
0 0 0
0 0 0
0 0 0
0 0 0
0 0 0
0 0 0
0 0 0
0 0 0
0 0 0
0 0 0
0 0 0
0 0 0
0 0 0
0 0 0
0 0 0
0 0 0
0 0 0
0 0 0
0 0 0
0 0 0
0 0 0
0 0 0
0 0 0
0 0 0
0 0 0
0 0 0
0 0 0
0 0 0
0 0 0
0 0 0
0 0 0
0 0 0
0 0 0
0 0 0
0 0 0
0 0 0
0 0 0
0 0 0
0 0 0
0 0 0
0 0 0
0 0 0
0 0 0
0 0 0
0 0 0
0 0 0
0 0 0
0 0 0
0 0 0
0 0 0
0 0 0
0 0 0
0 0 0
0 0 0
0 0 0
0 0 0
0 0 0
0 0 0
0 0 0
0 0 0
0 0 0
0 0 0
0 0 0
0 0 0
0 0 0
0 0 0
0 0 0
0 0 0
0 0 0
0 0 0
0 0 0
0 0 0
0 0 0
0 0 0
0 0 0
0 0 0
0 0 0
0 0 0
0 0 0
0 0 0
0 0 0
0 0 0
0 0 0
0 0 0
0 0 0
0 0 0
0 0 0
0 0 0
0 0 0
0 0 0
0 0 0
0 0 0
0 0 0
0 0 0
0 0 0
0 0 0
0 0 0
0 0 0
0 0 0
0 0 0
0 0 0
0 0 0
0 0 0
0 0 0
0 0 0
0 0 0
0 0 0
0 0 0
0 0 0
0 0 0
0 0 0
0 0 0
0 0 0
0 0 0
0 0 0
0 0 0
0 0 0
0 0 0
0 0 0
0 0 0
0 0 0
0 0 0
0 0 0
0 0 0
0 0 0
0 0 0
0 0 0
0 0 0
0 0 0
0 0 0
0 0 0
0 0 0
0 0 0
0 0 0
0 0 0
0 0 0
0 0 0
0 0 0
0 0 0
0 0 0
0 0 0
0 0 0
0 0 0
0 0 0
0 0 0
0 0 0
0 0 0
0 0 0
0 0 0
0 0 0
0 0 0
0 0 0
0 0 0
0 0 0
0 0 0
0 0 0
0 0 0
0 0 0
0 0 0
-0.00262477 0.00187839 -0.0435194
-0.00344578 0.00191192 -0.0437787
-0.00426859 0.00194571 -0.0440367
-0.0050922 0.00197943 -0.0442934
-0.00591567 0.00201329 -0.0445487
-0.00673809 0.00204751 -0.0448019
0.000132684 0.00184147 -0.0426861
-0.000661305 0.00187478 -0.0429464
-0.00145829 0.00190838 -0.0432065
-0.00225797 0.00194235 -0.0434663
-0.00306018 0.00197657 -0.0437254
-0.00386403 0.00201111 -0.0439835
-0.00466888 0.00204577 -0.0442403
-0.00547388 0.00208053 -0.0444957
-0.00627794 0.00211551 -0.0447493
0.00122365 0.00186912 -0.0423714
0.000452465 0.00190262 -0.0426317
-0.00032189 0.0019366 -0.0428917
-0.00109938 0.00197085 -0.0431517
-0.00187962 0.00200542 -0.0434113
-0.00266224 0.00204035 -0.0436703
-0.00344672 0.00207556 -0.0439283
-0.00423234 0.00211099 -0.0441852
-0.00501829 0.00214662 -0.0444408
-0.00580348 0.00218243 -0.0446947
0.00228086 0.001895 -0.0420561
0.00153335 0.00192904 -0.0423157
0.000782327 0.001963 -0.0425756
2.79245e-05 0.00199756 -0.0428354
-0.000729545 0.00203245 -0.043095
-0.00148981 0.00206767 -0.0433544
-0.00225251 0.00210321 -0.0436132
-0.00301714 0.00213907 -0.0438713
-0.00378305 0.0021752 -0.0441283
-0.00454947 0.00221159 -0.044384
-0.00531531 0.00224816 -0.0446383
0.00257927 0.00195347 -0.0419994
0.00185229 0.00198793 -0.0422585
0.00112166 0.00202266 -0.0425178
0.00038773 0.00205777 -0.0427772
-0.000349287 0.00209321 -0.0430365
-0.00108913 0.002129 -0.0432956
-0.00183146 0.00216512 -0.0435543
-0.00257581 0.00220157 -0.0438124
-0.00332156 0.00223833 -0.0440695
-0.00406798 0.00227538 -0.0443254
-0.00481405 0.00231263 -0.04458
0.00288615 0.00201147 -0.0419408
0.00217996 0.00204641 -0.0421994
0.00147018 0.00208159 -0.0424582
0.000757115 0.00211716 -0.0427171
4.09457e-05 0.0021531 -0.0429762
-0.000678078 0.00218938 -0.0432351
-0.00139963 0.00222601 -0.0434937
-0.00212326 0.00226298 -0.0437517
-0.00284842 0.0023003 -0.0440089
-0.00357442 0.00233794 -0.0442651
-0.00430029 0.00237581 -0.0445199
0.00320115 0.00206884 -0.0418805
0.0025161 0.00210418 -0.0421386
0.00182751 0.00213975 -0.0423969
0.00113565 0.00217572 -0.0426554
0.000440683 0.00221206 -0.0429141
-0.000257148 0.00224877 -0.0431728
-0.000957538 0.00228583 -0.0434312
-0.00166008 0.00232325 -0.0436892
-0.00236426 0.00236105 -0.0439465
-0.00306942 0.00239922 -0.0442029
-0.00377469 0.00243764 -0.0444581
0.00352396 0.00212561 -0.0418186
0.00286032 0.00216123 -0.042076
0.00219323 0.00219709 -0.0423338
0.00152287 0.00223338 -0.0425919
0.000849435 0.00227007 -0.0428503
0.000173126 0.00230712 -0.0431087
-0.000505761 0.00234453 -0.043367
-0.00118685 0.00238231 -0.043625
-0.00186968 0.00242052 -0.0438824
-0.00255364 0.00245918 -0.0441389
-0.00323794 0.00249807 -0.0443945
0.00385422 0.00218175 -0.041755
0.00321226 0.00221755 -0.0420119
0.0025669 0.00225359 -0.0422692
0.00191833 0.00229012 -0.0425268
0.00126669 0.00232708 -0.0427848
0.000612192 0.0023644 -0.043043
-4.48871e-05 0.00240205 -0.0433011
-0.000704205 0.00244011 -0.0435591
-0.00136555 0.00247873 -0.0438167
-0.0020279 0.00251776 -0.0440733
0.00419165 0.00223717 -0.0416899
0.00357153 0.00227311 -0.0419462
0.00294811 0.00230931 -0.0422028
0.00232155 0.00234592 -0.04246
0.00169196 0.00238299 -0.0427177
0.00105952 0.00242051 -0.0429756
0.000424479 0.00245844 -0.0432336
-0.000212839 0.00249672 -0.0434915
-0.000852118 0.00253542 -0.0437492
-0.00240775 0.000126883 -0.0410772
-0.00322769 6.84274e-05 -0.0413358
-0.00404927 1.06477e-05 -0.0415956
-0.00487187 -4.63406e-05 -0.0418569
-0.00569422 -0.000102478 -0.0421199
-0.00651569 -0.000157548 -0.0423847
0.000346693 0.000315323 -0.040313
-0.000446111 0.000254219 -0.0405681
-0.00124202 0.000193313 -0.0408242
-0.00204064 0.000132724 -0.0410814
-0.0028417 7.28036e-05 -0.0413397
-0.00364431 1.33742e-05 -0.0415993
-0.00444802 -4.53236e-05 -0.0418603
-0.00525198 -0.000103144 -0.042123
-0.0060551 -0.000159832 -0.0423876
0.00143656 0.000390189 -0.0400631
0.000666629 0.000327192 -0.0403175
-0.000106463 0.000264577 -0.0405722
-0.00088281 0.000202164 -0.0408281
-0.00166193 0.00014006 -0.041085
-0.00244336 7.84127e-05 -0.0413431
-0.0032266 1.73739e-05 -0.0416025
-0.00401105 -4.29186e-05 -0.0418633
-0.00479592 -0.000102299 -0.0421258
-0.00558011 -0.000160534 -0.04239
0.00249277 0.00046891 -0.039814
0.00174635 0.000404676 -0.0400672
0.000996721 0.000340186 -0.0403211
0.000243572 0.000276064 -0.0405758
-0.000512693 0.000212173 -0.0408314
-0.00127176 0.000148595 -0.0410881
-0.00203323 8.54551e-05 -0.041346
-0.00279661 2.29018e-05 -0.0416052
-0.00356132 -3.89081e-05 -0.0418658
-0.00432661 -9.97975e-05 -0.042128
-0.00509141 -0.000159526 -0.042392
0.00279127 0.000485481 -0.0398181
0.00206553 0.000419878 -0.0400708
0.00133624 0.00035425 -0.0403243
0.000603605 0.000288771 -0.0405788
-0.000132154 0.000223508 -0.0408342
-0.00087075 0.000158544 -0.0410906
-0.00161181 9.39985e-05 -0.0413483
-0.00235487 3.00199e-05 -0.0416072
-0.00309938 -3.3227e-05 -0.0418676
-0.00384462 -9.5557e-05 -0.0421296
-0.00458957 -0.000156723 -0.0423934
0.00309822 0.000503018 -0.0398214
0.00239336 0.00043629 -0.0400737
0.00168496 0.000369452 -0.0403269
0.000973223 0.000302737 -0.040581
0.000258359 0.000236213 -0.0408362
-0.000459363 0.000169964 -0.0410924
-0.00117959 0.000104108 -0.0413498
-0.00190191 3.8795e-05 -0.0416086
-0.00262579 -2.58018e-05 -0.0418688
-0.00335055 -8.94919e-05 -0.0421306
-0.00407522 -0.000152023 -0.0423942
0.00341333 0.000521528 -0.0398238
0.00272968 0.000453765 -0.0400758
0.0020425 0.000385841 -0.0403286
0.001352 0.000318011 -0.0405825
0.000658375 0.00025034 -0.0408374
-3.81086e-05 0.000182913 -0.0410934
-0.000737134 0.000115847 -0.0413506
-0.00143831 4.92968e-05 -0.0416092
-0.00214115 -1.65566e-05 -0.0418692
-0.00284503 -8.15134e-05 -0.0421308
-0.00354902 -0.00014533 -0.0423943
0.00373627 0.00054107 -0.0398253
0.00307411 0.000472356 -0.040077
0.00240844 0.000403463 -0.0403295
0.00173947 0.00033464 -0.040583
0.0010674 0.000265942 -0.0408377
0.000392484 0.00019745 -0.0410935
-0.00028499 0.000129281 -0.0413506
-0.000964666 6.15961e-05 -0.041609
-0.0016461 -5.41512e-06 -0.0418688
-0.00232869 -7.1338e-05 -0.0421302
-0.00301166 -0.000136547 -0.0423936
0.00406669 0.000561673 -0.0398259
0.00342628 0.000492112 -0.0400772
0.00278236 0.000422366 -0.0403294
0.00213518 0.000352673 -0.0405826
0.00148493 0.000283071 -0.0408371
0.000831858 0.000213628 -0.0410927
0.000176245 0.000144472 -0.0413496
-0.0004816 7.57639e-05 -0.0416078
-0.0011415 7.73177e-06 -0.0418675
-0.00180242 -5.9283e-05 -0.0421289
0.00440427 0.000583335 -0.0398254
0.00378571 0.000513044 -0.0400763
0.00316374 0.000442652 -0.0403282
0.00253859 0.000372235 -0.0405812
0.00191044 0.000301805 -0.0408354
0.0012795 0.000231482 -0.0410908
0.000646003 0.00016145 -0.0413475
1.02385e-05 9.1891e-05 -0.0416056
-0.00062757 2.29496e-05 -0.0418652
-0.0026184 0.00180352 -0.0434161
-0.00343955 0.0018331 -0.0436753
-0.0042625 0.00186294 -0.0439333
-0.00508627 0.00189274 -0.0441902
-0.00590993 0.00192268 -0.0444456
-0.00673256 0.00195303 -0.0446992
0.000139461 0.00177635 -0.042586
-0.000654613 0.00180558 -0.042846
-0.0014517 0.0018351 -0.0431059
-0.00225149 0.00186498 -0.0433655
-0.00305382 0.00189514 -0.0436245
-0.0038578 0.00192563 -0.0438825
-0.0046628 0.00195625 -0.0441394
-0.00546798 0.00198699 -0.044395
-0.00627225 0.00201798 -0.044649
0.00123058 0.00180603 -0.0422741
0.000459322 0.00183537 -0.0425341
-0.000315104 0.00186518 -0.0427939
-0.00109268 0.00189525 -0.0430536
-0.00187302 0.00192564 -0.043313
-0.00265576 0.0019564 -0.0435719
-0.00344036 0.00198746 -0.0438299
-0.00422612 0.00201874 -0.0440869
-0.00501224 0.00205024 -0.0443426
-0.00579761 0.00208196 -0.0445969
0.00228793 0.0018342 -0.0419617
0.00154036 0.001864 -0.042221
0.000789282 0.0018937 -0.0424806
3.48107e-05 0.00192401 -0.0427401
-0.000722736 0.00195463 -0.0429995
-0.00148309 0.00198556 -0.0432587
-0.00224589 0.00201684 -0.0435174
-0.00301064 0.00204844 -0.0437755
-0.00377668 0.00208033 -0.0440325
-0.00454325 0.00211249 -0.0442884
-0.00530926 0.00214488 -0.044543
0.00258641 0.00189086 -0.0419076
0.00185939 0.001921 -0.0421664
0.00112871 0.0019514 -0.0424254
0.000394721 0.00198216 -0.0426845
-0.000342362 0.00201325 -0.0429437
-0.00108229 0.00204467 -0.0432026
-0.00182471 0.00207643 -0.0434612
-0.00256915 0.00210853 -0.0437192
-0.00331502 0.00214095 -0.0439764
-0.00406158 0.00217368 -0.0442325
-0.00480781 0.00220666 -0.0444873
0.00289337 0.00194713 -0.0418517
0.00218715 0.00197767 -0.04211
0.00147733 0.00200845 -0.0423685
0.000764214 0.00203959 -0.0426272
4.79892e-05 0.00207109 -0.042886
-0.0006711 0.00210293 -0.0431448
-0.00139273 0.00213511 -0.0434033
-0.00211645 0.00216764 -0.0436612
-0.00284172 0.00220053 -0.0439185
-0.00356784 0.00223378 -0.0441748
-0.00429386 0.00226728 -0.0444299
0.00320845 0.00200284 -0.0417942
0.00252337 0.00203371 -0.0420519
0.00183475 0.0020648 -0.0423099
0.00114286 0.00209627 -0.0425682
0.000447849 0.00212811 -0.0428267
-0.000250035 0.0021603 -0.0430852
-0.000950489 0.00219283 -0.0433436
-0.00165311 0.00222574 -0.0436015
-0.00235738 0.00225903 -0.0438588
-0.00306265 0.00229272 -0.0441153
-0.00376805 0.00232669 -0.0443708
0.00353133 0.00205801 -0.041735
0.00286769 0.00208911 -0.0419922
0.00220057 0.00212042 -0.0422497
0.0015302 0.00215216 -0.0425076
0.000856728 0.00218428 -0.0427657
0.000180379 0.00221675 -0.043024
-0.000498559 0.00224956 -0.0432822
-0.00117971 0.00228275 -0.0435401
-0.00186262 0.00231638 -0.0437975
-0.00254667 0.00235048 -0.0440541
-0.00323109 0.00238484 -0.0443099
0.00386167 0.00211262 -0.0416742
0.00321972 0.00214384 -0.0419308
0.00257436 0.00217529 -0.0421878
0.00192577 0.00220722 -0.0424453
0.00127411 0.00223956 -0.042703
0.000619588 0.00227224 -0.0429611
-3.75273e-05 0.00230524 -0.0432191
-0.000696892 0.00233863 -0.043477
-0.0013583 0.00237259 -0.0437346
-0.00202073 0.002407 -0.0439913
0.00419919 0.00216658 -0.0416119
0.00357909 0.0021979 -0.0418679
0.00295568 0.00222947 -0.0421244
0.00232911 0.00226143 -0.0423813
0.00169952 0.00229384 -0.0426388
0.00106706 0.00232667 -0.0428966
0.000432003 0.0023599 -0.0431544
-0.000205344 0.00239348 -0.0434123
-0.000844676 0.00242747 -0.0436699
-0.00260543 0.00165495 -0.0432111
-0.00261192 0.0017291 -0.0433135
-0.00342679 0.00167673 -0.04347
-0.00343318 0.00175477 -0.0435726
-0.00424998 0.00169883 -0.0437281
-0.00425626 0.00178073 -0.0438306
-0.00507401 0.00172088 -0.0439851
-0.00508017 0.00180663 -0.0440876
-0.00589797 0.00174311 -0.0442411
-0.00590399 0.00183269 -0.0443433
-0.00672094 0.00176586 -0.0444954
-0.0067268 0.00185922 -0.0445972
0.000153101 0.00164699 -0.042387
0.00014629 0.00171158 -0.0424864
-0.000641101 0.00166819 -0.0426466
-0.000647854 0.00173677 -0.0427462
-0.00143836 0.00168965 -0.0429061
-0.00144503 0.00176224 -0.0430059
-0.00223833 0.00171148 -0.0431653
-0.00224491 0.00178808 -0.0432653
-0.00304084 0.00173362 -0.0434241
-0.00304734 0.00181422 -0.0435242
-0.00384504 0.00175615 -0.0436822
-0.00385144 0.00184072 -0.0437823
-0.00465029 0.0017788 -0.0439393
-0.00465658 0.00186733 -0.0440393
-0.00545576 0.00180163 -0.0441953
-0.00546191 0.00189409 -0.0442951
-0.00626036 0.0018248 -0.04445
-0.00626635 0.00192114 -0.0445494
0.00124447 0.00168068 -0.0420807
0.00123754 0.00174327 -0.0421773
0.000473095 0.00170182 -0.0423401
0.000466219 0.00176849 -0.042437
-0.000301439 0.00172341 -0.0425994
-0.000308266 0.00179417 -0.0426966
-0.00107916 0.00174522 -0.0428587
-0.00108592 0.00182009 -0.0429561
-0.00185965 0.00176737 -0.0431178
-0.00186634 0.00184634 -0.0432153
-0.00264256 0.00178992 -0.0433765
-0.00264917 0.00187297 -0.0434741
-0.00342737 0.00181281 -0.0436345
-0.00343388 0.00189993 -0.0437322
-0.00421336 0.00183594 -0.0438917
-0.00421976 0.00192712 -0.0439892
-0.00499974 0.00185932 -0.0441478
-0.00500602 0.00195454 -0.0442452
-0.00578542 0.00188301 -0.0444028
-0.00579155 0.00198221 -0.0444998
0.00230204 0.00171332 -0.041774
0.00229501 0.00177368 -0.0418677
0.00155437 0.00173478 -0.0420327
0.00154738 0.0017993 -0.0421268
0.00080322 0.0017561 -0.0422918
0.000796263 0.00182478 -0.0423861
4.86428e-05 0.00177801 -0.0425508
4.17353e-05 0.00185087 -0.0426454
-0.000709026 0.00180021 -0.0428098
-0.000715876 0.00187725 -0.0429046
-0.00146952 0.00182273 -0.0430686
-0.0014763 0.00190396 -0.0431636
-0.00223247 0.00184561 -0.0433272
-0.00223919 0.00193102 -0.0434223
-0.0029974 0.00186884 -0.0435852
-0.00300403 0.00195842 -0.0436803
-0.00376366 0.00189238 -0.0438424
-0.00377019 0.00198611 -0.0439374
-0.00453047 0.00191623 -0.0440987
-0.00453688 0.00201409 -0.0441935
-0.00529677 0.00194039 -0.0443539
-0.00530305 0.00204234 -0.0444484
0.00260064 0.00176641 -0.0417251
0.00259355 0.00182854 -0.0418163
0.00187355 0.00178804 -0.0419833
0.00186649 0.0018544 -0.0420748
0.0011428 0.00180992 -0.0422418
0.00113577 0.00188052 -0.0423336
0.000408727 0.00183211 -0.0425004
0.000401736 0.00190698 -0.0425924
-0.000328458 0.00185462 -0.0427591
-0.000335402 0.00193375 -0.0428513
-0.0010685 0.00187746 -0.0430178
-0.00107539 0.00196086 -0.0431102
-0.00181106 0.00190064 -0.0432762
-0.00181788 0.00198831 -0.0433687
-0.00255566 0.00192418 -0.0435341
-0.00256242 0.00201611 -0.0436266
-0.00330172 0.00194808 -0.0437914
-0.00330839 0.00204424 -0.0438839
-0.0040485 0.00197233 -0.0440479
-0.00405506 0.00207271 -0.0441401
-0.00479499 0.0019969 -0.0443033
-0.00480143 0.00210146 -0.0443953
0.00290771 0.00181926 -0.0416745
0.00290056 0.00188308 -0.041763
0.00220145 0.00184114 -0.0419322
0.00219432 0.00190928 -0.0420211
0.00149158 0.00186323 -0.0421902
0.00148447 0.00193568 -0.0422793
0.000778401 0.00188567 -0.0424485
0.000771322 0.00196245 -0.0425378
6.20954e-05 0.00190844 -0.0427069
5.50537e-05 0.00198957 -0.0427964
-0.000657091 0.00193154 -0.0429653
-0.000664088 0.00201701 -0.043055
-0.00137883 0.00195498 -0.0432235
-0.00138578 0.0020448 -0.0433134
-0.0021027 0.00197879 -0.0434814
-0.00210958 0.00207294 -0.0435713
-0.00282813 0.00200299 -0.0437388
-0.00283494 0.00210146 -0.0438286
-0.00355445 0.00202758 -0.0439954
-0.00356116 0.00213036 -0.0440851
-0.0042807 0.00205251 -0.0442511
-0.0042873 0.00215955 -0.0443405
0.00322291 0.00187169 -0.0416223
0.00321571 0.00193715 -0.0417082
0.00253782 0.00189377 -0.0418795
0.00253062 0.00196359 -0.0419657
0.00184917 0.00191603 -0.042137
0.00184199 0.00199024 -0.0422234
0.00115723 0.00193866 -0.0423949
0.00115006 0.00201727 -0.0424815
0.000462164 0.00196164 -0.0426529
0.000455022 0.00204466 -0.0427398
-0.000235796 0.00198495 -0.0429111
-0.000242904 0.00207238 -0.0429981
-0.000936343 0.00200859 -0.0431693
-0.000943409 0.00210044 -0.0432564
-0.00163908 0.00203262 -0.0434271
-0.00164609 0.00212888 -0.0435143
-0.00234349 0.00205706 -0.0436846
-0.00235044 0.00215773 -0.0437717
-0.00304893 0.00208195 -0.0439413
-0.0030558 0.00218699 -0.0440283
-0.00375454 0.00210719 -0.0441973
-0.00376131 0.00221657 -0.044284
0.00354592 0.00192372 -0.0415685
0.00353866 0.00199073 -0.0416517
0.00288229 0.0019459 -0.0418252
0.00287502 0.00201734 -0.0419086
0.00221517 0.00196827 -0.0420822
0.00220789 0.00204415 -0.0421659
0.00154477 0.00199104 -0.0423397
0.0015375 0.00207139 -0.0424236
0.000871257 0.00201419 -0.0425974
0.000864011 0.002099 -0.0426815
0.000194855 0.00203765 -0.0428554
0.000187633 0.00212694 -0.0429397
-0.000484151 0.00206144 -0.0431134
-0.000491343 0.00215521 -0.0431978
-0.00116539 0.00208562 -0.0433712
-0.00117255 0.00218386 -0.0434556
-0.00184841 0.00211026 -0.0436287
-0.00185551 0.00221297 -0.0437131
-0.00253262 0.00213543 -0.0438856
-0.00253965 0.00224259 -0.0439699
-0.00321721 0.0021609 -0.0441418
-0.00322416 0.00227247 -0.0442259
0.0038764 0.00197533 -0.0415132
0.00386907 0.00204383 -0.0415937
0.00323448 0.00199752 -0.0417693
0.00322713 0.0020705 -0.04185
0.00258913 0.00201992 -0.0420259
0.00258177 0.00209739 -0.0421068
0.00194054 0.00204279 -0.0422829
0.00193318 0.00212477 -0.0423641
0.00128886 0.00206606 -0.0425403
0.00128151 0.00215255 -0.0426217
0.000634308 0.00208962 -0.042798
0.000626968 0.00218065 -0.0428795
-2.28484e-05 0.00211349 -0.0430559
-3.01709e-05 0.00220905 -0.0431375
-0.000682273 0.00213775 -0.0433137
-0.00068957 0.00223784 -0.0433953
-0.00134378 0.00216257 -0.0435713
-0.00135103 0.00226721 -0.043653
-0.00200633 0.00218791 -0.0438283
-0.00201353 0.00229706 -0.0439098
0.00421406 0.00202641 -0.0414564
0.00420666 0.00209633 -0.0415341
0.00359401 0.00204863 -0.0417119
0.00358658 0.00212307 -0.0417899
0.00297064 0.00207108 -0.041968
0.00296319 0.00215005 -0.0420462
0.00234409 0.0020939 -0.0422246
0.00233663 0.00217742 -0.0423029
0.00171449 0.00211713 -0.0424817
0.00170703 0.0022052 -0.0425602
0.00108204 0.00214076 -0.0427391
0.00107458 0.00223341 -0.0428179
0.000446967 0.00216477 -0.0429968
0.000439507 0.002262 -0.0430757
-0.000190412 0.00218914 -0.0432546
-0.000197859 0.00229095 -0.0433334
-0.000829816 0.00221388 -0.0435123
-0.000837231 0.00232028 -0.0435911
-0.0025981 0.00158121 -0.0431088
-0.0025981 0.00158117 -0.0431087
-0.00341953 0.0015991 -0.0433677
-0.00341954 0.00159905 -0.0433676
-0.00424282 0.00161737 -0.0436258
-0.00424283 0.00161732 -0.0436257
-0.00506695 0.00163561 -0.043883
-0.00506695 0.00163555 -0.043883
-0.00589103 0.00165406 -0.0441392
-0.00589104 0.001654 -0.0441392
-0.00671415 0.00167305 -0.044394
-0.00671415 0.00167299 -0.044394
0.000160703 0.00158271 -0.0422877
0.000160701 0.00158268 -0.0422876
-0.000633547 0.00159995 -0.042547
-0.000633549 0.00159992 -0.042547
-0.00143087 0.00161745 -0.0428064
-0.00143087 0.00161741 -0.0428063
-0.00223091 0.00163531 -0.0430655
-0.00223091 0.00163526 -0.0430654
-0.00303349 0.00165346 -0.0433242
-0.00303349 0.00165341 -0.0433241
-0.00383777 0.00167203 -0.0435823
-0.00383777 0.00167198 -0.0435822
-0.00464313 0.00169076 -0.0438395
-0.00464313 0.00169071 -0.0438395
-0.00544871 0.00170972 -0.0440959
-0.00544872 0.00170966 -0.0440958
-0.00625344 0.00172904 -0.0443509
-0.00625344 0.00172897 -0.0443509
0.00125217 0.00161838 -0.0419841
0.00125216 0.00161835 -0.0419841
0.000480752 0.00163547 -0.0422433
0.00048075 0.00163544 -0.0422433
-0.000293818 0.001653 -0.0425024
-0.00029382 0.00165296 -0.0425023
-0.0010716 0.00167076 -0.0427615
-0.0010716 0.00167072 -0.0427614
-0.00185215 0.00168885 -0.0430204
-0.00185215 0.0016888 -0.0430204
-0.00263512 0.00170733 -0.043279
-0.00263513 0.00170729 -0.043279
-0.00342 0.00172617 -0.0435371
-0.00342 0.00172612 -0.043537
-0.00420609 0.00174527 -0.0437944
-0.00420609 0.00174522 -0.0437943
-0.00499258 0.00176467 -0.0440508
-0.00499258 0.00176461 -0.0440507
-0.00577838 0.00178441 -0.0443061
-0.00577838 0.00178434 -0.0443061
0.00230983 0.00165325 -0.0416803
0.00230983 0.00165322 -0.0416802
0.00156212 0.00167059 -0.0419387
0.00156212 0.00167056 -0.0419387
0.000810949 0.00168778 -0.0421975
0.000810948 0.00168774 -0.0421974
5.63353e-05 0.00170554 -0.0424562
5.63335e-05 0.0017055 -0.0424562
-0.000701379 0.00172359 -0.0427151
-0.000701381 0.00172354 -0.042715
-0.00146192 0.00174195 -0.0429738
-0.00146192 0.00174191 -0.0429737
-0.00222493 0.00176069 -0.0432322
-0.00222494 0.00176064 -0.0432322
-0.00298993 0.00177978 -0.0434903
-0.00298993 0.00177972 -0.0434902
-0.00375627 0.0017992 -0.0437476
-0.00375627 0.00179914 -0.0437476
-0.00452318 0.00181897 -0.0440041
-0.00452318 0.0018189 -0.0440041
-0.00528959 0.00183907 -0.0442597
-0.00528959 0.00183901 -0.0442596
0.00260847 0.0017046 -0.0416339
0.00260847 0.00170457 -0.0416339
0.00188136 0.00172203 -0.0418919
0.00188136 0.001722 -0.0418919
0.00115059 0.00173968 -0.0421501
0.00115059 0.00173965 -0.0421501
0.000416495 0.00175765 -0.0424085
0.000416493 0.00175761 -0.0424085
-0.000320726 0.00177593 -0.042667
-0.000320728 0.00177589 -0.042667
-0.00106081 0.00179453 -0.0429255
-0.00106081 0.00179449 -0.0429255
-0.00180342 0.00181349 -0.0431838
-0.00180342 0.00181343 -0.0431838
-0.00254808 0.00183281 -0.0434418
-0.00254808 0.00183275 -0.0434418
-0.00329421 0.00185249 -0.0436992
-0.00329422 0.00185243 -0.0436992
-0.00404108 0.00187257 -0.0439558
-0.00404108 0.0018725 -0.0439558
-0.00478767 0.001893 -0.0442116
-0.00478767 0.00189293 -0.0442116
0.00291559 0.00175575 -0.041586
0.00291559 0.00175572 -0.0415859
0.00220932 0.00177337 -0.0418434
0.00220932 0.00177334 -0.0418434
0.00149945 0.00179117 -0.0421011
0.00149944 0.00179114 -0.0421011
0.000786246 0.00180931 -0.0423592
0.000786245 0.00180927 -0.0423591
6.99143e-05 0.00182778 -0.0426174
6.99128e-05 0.00182773 -0.0426173
-0.000649305 0.00184657 -0.0428756
-0.000649306 0.00184652 -0.0428756
-0.00137109 0.0018657 -0.0431338
-0.00137109 0.00186565 -0.0431338
-0.002095 0.00188521 -0.0433917
-0.002095 0.00188515 -0.0433917
-0.0028205 0.00190512 -0.0436492
-0.0028205 0.00190506 -0.0436491
-0.00354689 0.00192545 -0.043906
-0.00354689 0.00192538 -0.0439059
-0.00427323 0.00194616 -0.044162
-0.00427323 0.00194609 -0.0441619
0.00323085 0.00180656 -0.0415364
0.00323084 0.00180653 -0.0415364
0.00254576 0.0018243 -0.0417933
0.00254576 0.00182427 -0.0417933
0.00185711 0.00184222 -0.0420506
0.00185711 0.00184218 -0.0420506
0.00116516 0.00186049 -0.0423082
0.00116516 0.00186045 -0.0423082
0.000470073 0.0018791 -0.0425661
0.000470071 0.00187905 -0.0425661
-0.00022791 0.00189803 -0.0428242
-0.000227912 0.00189798 -0.0428241
-0.000928487 0.0019173 -0.0430822
-0.000928489 0.00191724 -0.0430822
-0.00163126 0.00193696 -0.0433401
-0.00163126 0.00193689 -0.04334
-0.00233572 0.00195704 -0.0435976
-0.00233573 0.00195697 -0.0435975
-0.00304123 0.00197759 -0.0438545
-0.00304124 0.00197751 -0.0438545
-0.00374692 0.00199853 -0.0441108
-0.00374693 0.00199845 -0.0441107
0.00355391 0.00185703 -0.0414853
0.00355391 0.001857 -0.0414853
0.00289029 0.00187483 -0.0417417
0.00289029 0.00187479 -0.0417417
0.00222318 0.0018928 -0.0419985
0.00222318 0.00189276 -0.0419985
0.00155278 0.00191116 -0.0422557
0.00155277 0.00191112 -0.0422557
0.000879258 0.00192988 -0.0425133
0.000879257 0.00192983 -0.0425133
0.000202843 0.0019489 -0.0427711
0.000202841 0.00194885 -0.0427711
-0.000476182 0.00196826 -0.043029
-0.000476184 0.0019682 -0.043029
-0.00115745 0.001988 -0.0432869
-0.00115746 0.00198794 -0.0432868
-0.00184051 0.00200821 -0.0435444
-0.00184052 0.00200814 -0.0435444
-0.00252477 0.00202899 -0.0438014
-0.00252477 0.00202891 -0.0438014
-0.00320943 0.00205007 -0.044058
-0.00320944 0.00204999 -0.0440579
0.00388445 0.00190716 -0.0414327
0.00388445 0.00190713 -0.0414327
0.00324255 0.00192493 -0.0416886
0.00324255 0.00192489 -0.0416885
0.00259722 0.00194289 -0.0419449
0.00259722 0.00194285 -0.0419449
0.00194864 0.0019613 -0.0422017
0.00194864 0.00196125 -0.0422017
0.00129696 0.00198008 -0.042459
0.00129696 0.00198003 -0.0424589
0.000642401 0.00199916 -0.0427165
0.0006424 0.0019991 -0.0427165
-1.47635e-05 0.00201853 -0.0429743
-1.47649e-05 0.00201847 -0.0429743
-0.000674204 0.00203831 -0.0432321
-0.000674206 0.00203824 -0.043232
-0.00133575 0.00205863 -0.0434898
-0.00133575 0.00205856 -0.0434897
-0.00199833 0.00207952 -0.0437469
-0.00199833 0.00207944 -0.0437469
0.00422217 0.00195683 -0.0413787
0.00422217 0.0019568 -0.0413787
0.00360216 0.00197459 -0.0416339
0.00360216 0.00197456 -0.0416339
0.00297881 0.00199256 -0.0418898
0.00297881 0.00199252 -0.0418897
0.00235227 0.00201088 -0.0421462
0.00235227 0.00201084 -0.0421461
0.00172269 0.0020296 -0.0424031
0.00172269 0.00202954 -0.0424031
0.00109024 0.0020487 -0.0426604
0.00109024 0.00204864 -0.0426604
0.000455175 0.00206817 -0.042918
0.000455174 0.00206811 -0.042918
-0.000182207 0.00208799 -0.0431757
-0.000182208 0.00208793 -0.0431757
-0.000821634 0.00210821 -0.0434335
-0.000821636 0.00210814 -0.0434335
-0.00259075 0.00150784 -0.043007
-0.00341225 0.00152187 -0.0432658
-0.00423562 0.00153634 -0.043524
-0.00505983 0.00155078 -0.0437815
-0.00588401 0.00156546 -0.044038
-0.00670725 0.00158071 -0.0442933
0.000168271 0.00151876 -0.0421887
-0.000626016 0.00153206 -0.0424479
-0.00142339 0.00154562 -0.042707
-0.00222348 0.00155951 -0.0429661
-0.00302612 0.00157368 -0.0432247
-0.00383047 0.00158833 -0.0434829
-0.00463591 0.00160318 -0.0437404
-0.00544159 0.00161827 -0.043997
-0.00624643 0.00163375 -0.0442526
0.00125982 0.00155639 -0.0418879
0.000488372 0.00156945 -0.0421468
-0.000286225 0.00158294 -0.0424056
-0.00106405 0.00159666 -0.0426646
-0.00184465 0.0016107 -0.0429234
-0.00262767 0.00162514 -0.043182
-0.0034126 0.00163995 -0.0434402
-0.00419877 0.00165506 -0.0436977
-0.00498534 0.00167049 -0.0439544
-0.00577125 0.00168629 -0.0442101
0.00231755 0.00159348 -0.0415868
0.00156982 0.0016067 -0.041845
0.000818635 0.00161977 -0.0421035
6.39946e-05 0.00163341 -0.042362
-0.000693753 0.00164732 -0.0426207
-0.00145433 0.00166156 -0.0428793
-0.00221739 0.00167616 -0.0431378
-0.00298244 0.00169114 -0.0433958
-0.00374884 0.00170646 -0.0436534
-0.00451583 0.00172217 -0.0439102
-0.00528234 0.00173825 -0.0441661
0.00261624 0.00164307 -0.041543
0.00188912 0.0016563 -0.0418007
0.00115834 0.00166977 -0.0420587
0.000424223 0.00168353 -0.0423169
-0.000313023 0.0016976 -0.0425752
-0.00105314 0.00171198 -0.0428336
-0.00179578 0.00172673 -0.0430919
-0.00254049 0.00174185 -0.0433499
-0.00328668 0.00175735 -0.0436075
-0.00403361 0.00177328 -0.0438644
-0.00478028 0.00178959 -0.0441206
0.0029234 0.00169252 -0.0414976
0.00221714 0.00170588 -0.0417548
0.00150726 0.00171942 -0.0420123
0.000794046 0.00173329 -0.0422701
7.76976e-05 0.00174747 -0.0425282
-0.000641543 0.00176197 -0.0427864
-0.00136335 0.00177681 -0.0430445
-0.00208731 0.00179205 -0.0433025
-0.00281285 0.0018077 -0.0435601
-0.0035393 0.00182379 -0.0438171
-0.00426571 0.0018403 -0.0440735
0.00323871 0.00174169 -0.0414507
0.00255363 0.00175513 -0.0417074
0.00186499 0.00176872 -0.0419644
0.00117303 0.00178265 -0.0422219
0.000477938 0.00179691 -0.0424796
-0.000220058 0.00181148 -0.0427376
-0.000920654 0.0018264 -0.0429956
-0.00162345 0.00184171 -0.0432535
-0.00232796 0.00185746 -0.0435111
-0.00303352 0.00187369 -0.0437683
-0.00373927 0.00189035 -0.0440249
0.00356183 0.00179061 -0.0414023
0.00289822 0.00180404 -0.0416584
0.00223112 0.00181763 -0.041915
0.00156073 0.0018316 -0.0421721
0.000887208 0.00184591 -0.0424295
0.000210788 0.00186052 -0.0426872
-0.000468247 0.00187546 -0.0429451
-0.00114953 0.00189079 -0.0432029
-0.00183262 0.00190661 -0.0434606
-0.00251692 0.00192301 -0.0437178
-0.00320163 0.00193973 -0.0439747
0.00389242 0.00183925 -0.0413524
0.00325054 0.0018526 -0.041608
0.00260523 0.00186615 -0.0418641
0.00195666 0.00188012 -0.0421207
0.001305 0.00189444 -0.0423779
0.000650442 0.00190905 -0.0426354
-6.72224e-06 0.00192396 -0.0428931
-0.000666169 0.00193927 -0.0431509
-0.00132773 0.00195513 -0.0434086
-0.00199034 0.00197158 -0.043666
0.00423019 0.0018875 -0.041301
0.00361022 0.00190081 -0.0415561
0.0029869 0.00191433 -0.0418117
0.00236038 0.00192818 -0.0420679
0.00173081 0.0019424 -0.0423247
0.00109838 0.00195698 -0.042582
0.000463329 0.00197194 -0.0428395
-0.000174049 0.00198726 -0.0430973
-0.000813488 0.00200297 -0.0433551
-0.00258325 0.00143481 -0.0429055
-0.0034048 0.00144501 -0.0431644
-0.00422823 0.00145573 -0.0434227
-0.0050525 0.00146639 -0.0436804
-0.00587675 0.00147731 -0.0439373
-0.00670008 0.00148886 -0.0441931
0.000175938 0.00145509 -0.0420901
-0.000618372 0.00146448 -0.042349
-0.00141578 0.00147412 -0.0426081
-0.00221592 0.00148407 -0.042867
-0.0030186 0.00149429 -0.0431257
-0.00382299 0.00150506 -0.043384
-0.00462849 0.00151605 -0.0436416
-0.00543424 0.00152729 -0.0438986
-0.00623917 0.00153897 -0.0441546
0.00126754 0.00149467 -0.0417919
0.000496082 0.00150373 -0.0420507
-0.000278529 0.00151321 -0.0423093
-0.00105638 0.00152291 -0.0425681
-0.00183701 0.00153291 -0.0428268
-0.00262007 0.00154334 -0.0430854
-0.00340505 0.00155417 -0.0433437
-0.00419126 0.00156532 -0.0436013
-0.0049779 0.0015768 -0.0438584
-0.00576389 0.0015887 -0.0441146
0.00232533 0.00153394 -0.0414936
0.00157758 0.00154307 -0.0417515
0.000826399 0.00155205 -0.0420098
7.17444e-05 0.0015616 -0.0422682
-0.000686024 0.00157142 -0.0425267
-0.00144663 0.00158154 -0.0427852
-0.00220971 0.00159204 -0.0430437
-0.0029748 0.00160295 -0.0433018
-0.00374125 0.00161422 -0.0435595
-0.00450829 0.00162588 -0.0438166
-0.00527487 0.00163797 -0.044073
0.00262405 0.00158176 -0.0414524
0.00189694 0.00159084 -0.0417098
0.00116615 0.00160014 -0.0419675
0.000432029 0.00160974 -0.0422256
-0.000305229 0.00161963 -0.0424838
-0.00104536 0.00162983 -0.0427421
-0.00178802 0.00164039 -0.0430004
-0.00253276 0.00165135 -0.0432584
-0.00327899 0.00166272 -0.0435162
-0.00402598 0.00167452 -0.0437734
-0.00477271 0.00168675 -0.04403
0.00293125 0.00162953 -0.0414095
0.00222499 0.00163866 -0.0416665
0.00151512 0.00164797 -0.0419238
0.000801911 0.0016576 -0.0421814
8.55584e-05 0.00166753 -0.0424393
-0.000633692 0.00167777 -0.0426974
-0.00135552 0.00168837 -0.0429556
-0.00207949 0.00169936 -0.0432136
-0.00280506 0.00171079 -0.0434713
-0.00353156 0.00172269 -0.0437286
-0.00425802 0.00173503 -0.0439854
0.00324659 0.00167709 -0.0413652
0.00256153 0.00168623 -0.0416217
0.0018729 0.00169553 -0.0418785
0.00118096 0.00170516 -0.0421358
0.000485868 0.0017151 -0.0423934
-0.00021213 0.00172535 -0.0426513
-0.000912733 0.00173595 -0.0429092
-0.00161555 0.00174695 -0.0431672
-0.00232007 0.0017584 -0.043425
-0.00302566 0.00177037 -0.0436824
-0.00373146 0.00178279 -0.0439394
0.00356975 0.00172445 -0.0413195
0.00290618 0.00173353 -0.0415754
0.0022391 0.00174278 -0.0418318
0.00156872 0.00175239 -0.0420887
0.000895208 0.00176233 -0.042346
0.000218794 0.00177256 -0.0426036
-0.000460238 0.00178312 -0.0428614
-0.00114153 0.00179409 -0.0431193
-0.00182463 0.00180554 -0.0433771
-0.00250895 0.00181761 -0.0436346
-0.0031937 0.00183002 -0.0438918
0.00390039 0.00177161 -0.0412722
0.00325855 0.00178057 -0.0415276
0.00261327 0.00178972 -0.0417836
0.00196472 0.00179929 -0.04204
0.00131307 0.0018092 -0.042297
0.000658528 0.00181938 -0.0425544
1.37546e-06 0.00182986 -0.0428121
-0.000658066 0.00184075 -0.04307
-0.00131963 0.00185219 -0.0433278
-0.00198226 0.00186423 -0.0435854
0.0042382 0.00181844 -0.0412236
0.00361827 0.00182732 -0.0414784
0.00299499 0.00183642 -0.0417339
0.0023685 0.00184583 -0.04199
0.00173896 0.00185559 -0.0422466
0.00110655 0.00186571 -0.0425038
0.000471521 0.00187619 -0.0427613
-0.000165839 0.00188705 -0.0430191
-0.000805278 0.0018983 -0.043277
-0.00257575 0.00136192 -0.0428042
-0.00339734 0.00136833 -0.0430631
-0.00422081 0.0013753 -0.0433214
-0.00504512 0.00138221 -0.0435793
-0.00586944 0.0013894 -0.0438366
-0.00669283 0.00139727 -0.044093
0.000183563 0.00139152 -0.0419916
-0.000610759 0.00139701 -0.0422503
-0.00140819 0.00140275 -0.0425092
-0.00220836 0.0014088 -0.0427681
-0.00301107 0.0014151 -0.0430267
-0.00381549 0.001422 -0.0432851
-0.00462104 0.00142914 -0.043543
-0.00542685 0.00143656 -0.0438003
-0.00623184 0.00144448 -0.0440568
0.00127521 0.00143303 -0.0416961
0.000503745 0.00143811 -0.0419546
-0.00027087 0.0014436 -0.042213
-0.00104874 0.00144931 -0.0424717
-0.0018294 0.00145531 -0.0427303
-0.00261247 0.00146175 -0.0429889
-0.00339748 0.00146862 -0.0432472
-0.00418373 0.00147582 -0.0435051
-0.00497043 0.00148339 -0.0437624
-0.00575647 0.00149142 -0.0440191
0.00233304 0.00147448 -0.0414005
0.00158529 0.00147955 -0.0416582
0.000834112 0.00148447 -0.0419162
7.94513e-05 0.00148995 -0.0421744
-0.000678329 0.00149568 -0.0424328
-0.00143895 0.00150172 -0.0426912
-0.00220205 0.00150816 -0.0429496
-0.00296716 0.00151501 -0.0432078
-0.00373364 0.00152224 -0.0434657
-0.00450073 0.0015299 -0.0437231
-0.00526736 0.00153802 -0.04398
0.0026318 0.00152056 -0.0413618
0.00190468 0.0015255 -0.041619
0.00117391 0.00153067 -0.0418765
0.000439786 0.00153612 -0.0421343
-0.000297476 0.00154186 -0.0423924
-0.00103762 0.0015479 -0.0426506
-0.00178029 0.00155431 -0.0429088
-0.00252505 0.00156113 -0.043167
-0.0032713 0.00156838 -0.0434249
-0.00401832 0.00157609 -0.0436824
-0.0047651 0.00158427 -0.0439394
0.00293902 0.00156665 -0.0413216
0.00223278 0.00157158 -0.0415782
0.00152292 0.00157669 -0.0418353
0.00080972 0.0015821 -0.0420928
9.33699e-05 0.00158781 -0.0423505
-0.000625882 0.00159382 -0.0426085
-0.00134771 0.0016002 -0.0428666
-0.00207169 0.00160698 -0.0431247
-0.00279729 0.00161421 -0.0433826
-0.00352381 0.00162194 -0.0436402
-0.00425031 0.00163015 -0.0438973
0.0032544 0.00161261 -0.0412799
0.00256936 0.00161748 -0.0415361
0.00188075 0.00162252 -0.0417927
0.00118882 0.00162787 -0.0420498
0.00049374 0.00163353 -0.0423072
-0.000204253 0.00163949 -0.042565
-0.000904853 0.0016458 -0.0428229
-0.00160767 0.00165252 -0.0430809
-0.0023122 0.00165971 -0.0433388
-0.00301782 0.00166743 -0.0435965
-0.00372364 0.00167565 -0.0438538
0.0035776 0.00165843 -0.0412367
0.00291405 0.0016632 -0.0414924
0.002247 0.00166813 -0.0417486
0.00157664 0.00167341 -0.0420053
0.000903142 0.00167901 -0.0422624
0.000226741 0.0016849 -0.04252
-0.000452282 0.00169111 -0.0427778
-0.00113357 0.00169773 -0.0430357
-0.00181667 0.00170486 -0.0432936
-0.00250101 0.00171263 -0.0435513
-0.00318577 0.00172076 -0.0438089
0.00390827 0.00170412 -0.0411921
0.00326647 0.00170873 -0.0414473
0.00262122 0.00171352 -0.041703
0.0019727 0.00171871 -0.0419594
0.00132107 0.00172424 -0.0422162
0.000666546 0.00173002 -0.0424735
9.41059e-06 0.0017361 -0.0427312
-0.000650017 0.00174261 -0.042989
-0.00131158 0.00174965 -0.043247
-0.00197421 0.00175733 -0.0435048
0.00424612 0.00174955 -0.0411462
0.00362624 0.00175405 -0.0414008
0.00300299 0.00175875 -0.0416561
0.00237653 0.00176376 -0.041912
0.00174702 0.00176909 -0.0421685
0.00111464 0.00177477 -0.0424256
0.000479641 0.00178082 -0.0426831
-0.000157697 0.00178724 -0.0429409
-0.000797128 0.00179406 -0.0431989
-0.00256745 0.00128923 -0.0427029
-0.00338906 0.00129183 -0.0429618
-0.00421255 0.00129504 -0.0432203
-0.00503689 0.00129822 -0.0434784
-0.00586125 0.00130174 -0.0437361
-0.00668469 0.00130593 -0.043993
0.000191944 0.00132808 -0.0418931
-0.000602381 0.0013297 -0.0421516
-0.00139983 0.00133156 -0.0424104
-0.00220001 0.00133372 -0.0426692
-0.00300273 0.00133611 -0.0429278
-0.00380717 0.00133913 -0.0431863
-0.00461275 0.00134244 -0.0434444
-0.00541859 0.00134608 -0.0437021
-0.00622363 0.00135025 -0.0439591
0.00128362 0.00137153 -0.0416003
0.000512157 0.00137264 -0.0418586
-0.000262451 0.00137416 -0.0421167
-0.00104033 0.00137589 -0.0423752
-0.00182099 0.00137792 -0.0426338
-0.00260408 0.00138038 -0.0428924
-0.0033891 0.00138328 -0.0431508
-0.00417538 0.00138656 -0.0434089
-0.0049621 0.00139024 -0.0436666
-0.00574818 0.00139441 -0.0439237
0.00234147 0.00141514 -0.0413074
0.00159372 0.00141617 -0.0415649
0.000842566 0.00141704 -0.0418226
8.79113e-05 0.00141847 -0.0420806
-0.000669869 0.00142014 -0.0423388
-0.00143049 0.00142212 -0.0425972
-0.0021936 0.0014245 -0.0428556
-0.00295871 0.0014273 -0.0431139
-0.00372521 0.00143052 -0.043372
-0.00449232 0.00143419 -0.0436297
-0.00525899 0.00143836 -0.043887
0.00264025 0.0014595 -0.0412712
0.00191316 0.00146033 -0.0415281
0.0011824 0.00146137 -0.0417854
0.000448289 0.00146269 -0.0420431
-0.000288967 0.00146428 -0.042301
-0.0010291 0.00146618 -0.0425591
-0.00177178 0.00146846 -0.0428173
-0.00251654 0.00147116 -0.0430756
-0.0032628 0.0014743 -0.0433336
-0.00400984 0.00147793 -0.0435914
-0.00475665 0.00148208 -0.0438489
0.0029475 0.00150392 -0.0412335
0.00224129 0.00150467 -0.04149
0.00153145 0.00150559 -0.0417468
0.000818267 0.0015068 -0.0420041
0.000101929 0.00150829 -0.0422617
-0.000617313 0.0015101 -0.0425196
-0.00133914 0.00151226 -0.0427777
-0.00206312 0.00151485 -0.0430358
-0.00278872 0.0015179 -0.0432939
-0.00351525 0.00152147 -0.0435517
-0.00424177 0.00152556 -0.0438093
0.00326291 0.00154827 -0.0411944
0.0025779 0.00154891 -0.0414504
0.00188932 0.0015497 -0.0417068
0.00119741 0.00155079 -0.0419637
0.00050235 0.00155217 -0.042221
-0.000195627 0.00155386 -0.0424787
-0.000896214 0.0015559 -0.0427366
-0.00159902 0.00155835 -0.0429946
-0.00230355 0.00156129 -0.0432527
-0.00300918 0.00156479 -0.0435107
-0.00371501 0.00156881 -0.0437684
0.00358614 0.00159256 -0.0411539
0.00292263 0.00159305 -0.0414093
0.00225561 0.00159368 -0.0416653
0.00158528 0.00159464 -0.0419219
0.000911806 0.00159591 -0.0421789
0.000235426 0.00159747 -0.0424363
-0.000443578 0.00159935 -0.0426941
-0.00112485 0.00160166 -0.0429521
-0.00180794 0.00160448 -0.0432101
-0.00249228 0.00160795 -0.0434681
-0.00317705 0.00161182 -0.043726
0.00391684 0.00163678 -0.041112
0.00327509 0.00163707 -0.0413669
0.00262988 0.00163752 -0.0416224
0.00198139 0.00163836 -0.0418786
0.00132978 0.0016395 -0.0421353
0.00067529 0.00164091 -0.0423925
1.81818e-05 0.00164262 -0.0426501
-0.000641223 0.00164476 -0.0429081
-0.00130278 0.00164742 -0.0431662
-0.0019654 0.00165076 -0.0434242
0.00425473 0.00168083 -0.0410687
0.0036349 0.00168096 -0.041323
0.00301169 0.0016813 -0.0415781
0.00238527 0.00168191 -0.0418339
0.00175579 0.00168285 -0.0420903
0.00112345 0.0016841 -0.0423473
0.000488483 0.00168572 -0.0426048
-0.000148824 0.00168773 -0.0428626
-0.000788236 0.00169014 -0.0431208
-0.00255916 0.00121679 -0.0426019
-0.00338078 0.00121559 -0.0428609
-0.00420428 0.00121507 -0.0431195
-0.00502867 0.00121448 -0.043378
-0.005853 0.00121437 -0.0436359
-0.00667647 0.00121489 -0.0438934
0.000200266 0.00126487 -0.0417948
-0.000594051 0.00126263 -0.0420531
-0.0013915 0.00126062 -0.0423118
-0.00219169 0.00125889 -0.0425705
-0.0029944 0.00125738 -0.0428292
-0.00379884 0.00125655 -0.0430878
-0.00460443 0.00125605 -0.0433462
-0.00541029 0.00125591 -0.0436042
-0.00621535 0.00125632 -0.0438618
0.00129195 0.00131024 -0.0415046
0.000520506 0.0013074 -0.0417627
-0.000254086 0.00130496 -0.0420207
-0.00103196 0.00130273 -0.0422791
-0.00181262 0.00130079 -0.0425376
-0.0025957 0.00129927 -0.0427962
-0.00338072 0.00129824 -0.0430547
-0.004167 0.0012976 -0.043313
-0.00495373 0.00129739 -0.0435711
-0.00573984 0.00129772 -0.0438288
0.00234981 0.00135603 -0.0412145
0.00160208 0.00135302 -0.0414717
0.000850949 0.00134985 -0.0417292
9.63108e-05 0.00134724 -0.041987
-0.000661458 0.00134486 -0.0422451
-0.00142207 0.00134279 -0.0425034
-0.00218517 0.00134111 -0.0427618
-0.00295028 0.00133988 -0.0430202
-0.00371678 0.0013391 -0.0432785
-0.0044839 0.00133879 -0.0435366
-0.00525058 0.00133903 -0.0437944
0.00264862 0.00139866 -0.0411807
0.00192155 0.00139537 -0.0414374
0.00119081 0.0013923 -0.0416945
0.000456723 0.0013895 -0.041952
-0.000280516 0.00138697 -0.0422098
-0.00102064 0.00138474 -0.0424679
-0.0017633 0.00138289 -0.0427261
-0.00250805 0.00138148 -0.0429844
-0.00325431 0.00138053 -0.0432427
-0.00400135 0.00138011 -0.0435008
-0.00474817 0.00138022 -0.0437587
0.00295589 0.00144141 -0.0411456
0.0022497 0.00143799 -0.0414018
0.0015399 0.00143473 -0.0416585
0.000826738 0.00143175 -0.0419156
0.000110423 0.00142905 -0.0421731
-0.0006088 0.00142665 -0.0424309
-0.0013306 0.00142462 -0.042689
-0.00205457 0.00142302 -0.0429472
-0.00278016 0.0014219 -0.0432055
-0.00350669 0.00142134 -0.0434636
-0.00423322 0.00142132 -0.0437217
0.00327132 0.00148415 -0.0411091
0.00258635 0.00148057 -0.0413648
0.0018978 0.00147711 -0.041621
0.00120592 0.00147396 -0.0418778
0.000510887 0.00147109 -0.042135
-0.000187065 0.00146851 -0.0423926
-0.00088763 0.00146629 -0.0426505
-0.00159042 0.00146449 -0.0429086
-0.00229494 0.0014632 -0.0431669
-0.00300055 0.00146248 -0.0434251
-0.00370638 0.00146233 -0.0436833
0.00359457 0.0015269 -0.0410712
0.00293111 0.00152312 -0.0413264
0.00226412 0.00151947 -0.0415822
0.00159382 0.00151613 -0.0418386
0.000920387 0.00151309 -0.0420955
0.000244036 0.00151032 -0.0423529
-0.000434939 0.00150789 -0.0426106
-0.00111619 0.00150589 -0.0428687
-0.00179926 0.00150442 -0.0431269
-0.00248358 0.00150362 -0.0433851
-0.00316834 0.00150323 -0.0436435
0.0039253 0.00156966 -0.0410319
0.0032836 0.00156563 -0.0412866
0.00263843 0.00156177 -0.041542
0.00198998 0.00155826 -0.041798
0.00133841 0.00155504 -0.0420546
0.00068395 0.00155208 -0.0423117
2.68756e-05 0.00154943 -0.0425693
-0.000632498 0.00154722 -0.0428273
-0.00129403 0.00154553 -0.0430856
-0.00195663 0.00154454 -0.0433439
0.00426321 0.00161231 -0.0409912
0.00364344 0.0016081 -0.0412454
0.00302028 0.00160408 -0.0415003
0.00239389 0.00160033 -0.041756
0.00176445 0.00159687 -0.0420123
0.00113216 0.00159372 -0.0422692
0.000497237 0.00159092 -0.0425267
-0.000140032 0.00158853 -0.0427846
-0.000779416 0.00158656 -0.0430429
-0.00255068 0.00114458 -0.0425011
-0.00337228 0.00113961 -0.0427601
-0.00419568 0.00113518 -0.043019
-0.00502016 0.00113112 -0.0432776
-0.00584448 0.00112728 -0.0435359
-0.00666796 0.00112416 -0.043794
0.000208736 0.00120187 -0.0416967
-0.000585559 0.00119578 -0.0419548
-0.00138299 0.00118993 -0.0422133
-0.00218317 0.00118432 -0.042472
-0.00298587 0.0011789 -0.0427307
-0.00379029 0.00117427 -0.0429895
-0.00459587 0.00116999 -0.0432481
-0.00540172 0.00116604 -0.0435066
-0.00620679 0.00116272 -0.0437646
0.00130041 0.00124916 -0.0414092
0.000528995 0.00124237 -0.041667
-0.000245568 0.00123599 -0.0419248
-0.00102342 0.00122983 -0.0421831
-0.00180407 0.00122391 -0.0424415
-0.00258713 0.00121844 -0.0427001
-0.00337213 0.00121349 -0.0429588
-0.00415839 0.00120896 -0.0432174
-0.00494512 0.00120487 -0.0434758
-0.00573123 0.00120137 -0.043734
0.00235827 0.0012971 -0.0411217
0.00161056 0.00129007 -0.0413787
0.000859463 0.00128287 -0.0416359
0.000104853 0.00127624 -0.0418936
-0.000652892 0.00126984 -0.0421516
-0.00141348 0.00126372 -0.0424098
-0.00217656 0.001258 -0.0426683
-0.00294165 0.00125277 -0.0429268
-0.00370813 0.001248 -0.0431853
-0.00447524 0.00124373 -0.0434437
-0.00524192 0.00124004 -0.043702
0.00265708 0.00133799 -0.0410905
0.00193004 0.0013306 -0.0413469
0.00119935 0.00132345 -0.0416038
0.000465291 0.00131655 -0.0418611
-0.000271919 0.00130992 -0.0421188
-0.00101201 0.00130357 -0.0423768
-0.00175465 0.00129761 -0.042635
-0.00249937 0.00129211 -0.0428935
-0.00324561 0.0012871 -0.0431519
-0.00399264 0.00128262 -0.0434104
-0.00473945 0.00127873 -0.0436688
0.00296437 0.00137908 -0.0410578
0.00225822 0.00137149 -0.0413138
0.00154845 0.00136408 -0.0415703
0.000835332 0.00135693 -0.0418272
0.00011905 0.00135006 -0.0420846
-0.000600141 0.00134348 -0.0423424
-0.00132191 0.00133727 -0.0426005
-0.00204585 0.00133151 -0.0428588
-0.00277142 0.00132625 -0.0431172
-0.00349793 0.00132156 -0.0433757
-0.00422444 0.00131746 -0.0436342
0.00327981 0.00142023 -0.0410239
0.00259488 0.00141242 -0.0412794
0.00190638 0.00140476 -0.0415354
0.00121454 0.00139737 -0.041792
0.000519545 0.00139026 -0.0420491
-0.000178371 0.00138344 -0.0423067
-0.0008789 0.00137698 -0.0425646
-0.00158166 0.00137096 -0.0428228
-0.00228614 0.00136545 -0.0430812
-0.00299173 0.00136055 -0.0433398
-0.00369755 0.00135623 -0.0435983
0.00360308 0.00146145 -0.0409886
0.00293967 0.0014534 -0.0412436
0.00227273 0.00144548 -0.0414992
0.00160247 0.00143787 -0.0417554
0.000929076 0.00143053 -0.0420122
0.000252766 0.00142347 -0.0422696
-0.00042617 0.00141674 -0.0425273
-0.00110738 0.00141046 -0.0427855
-0.00179042 0.00140471 -0.0430439
-0.00247471 0.00139966 -0.0433024
-0.00315945 0.00139505 -0.0435612
0.00393383 0.00150275 -0.0409519
0.00329218 0.00149441 -0.0412064
0.00264706 0.00148624 -0.0414616
0.00199866 0.00147841 -0.0417175
0.00134713 0.00147086 -0.041974
0.000692716 0.00146355 -0.0422311
3.56857e-05 0.00145656 -0.0424887
-0.000623645 0.00145001 -0.0427468
-0.00128514 0.001444 -0.0430052
-0.0019477 0.00143869 -0.0432637
0.00427176 0.00154399 -0.0409139
0.00365204 0.00153546 -0.0411679
0.00302893 0.0015271 -0.0414227
0.0024026 0.001519 -0.0416782
0.00177321 0.00151116 -0.0419344
0.00114096 0.00150362 -0.0421913
0.000506091 0.00149644 -0.0424487
-0.000131129 0.00148968 -0.0427067
-0.000770473 0.00148335 -0.0429651
-0.00254221 0.0010724 -0.0424003
-0.0033638 0.00106366 -0.0426593
-0.00418716 0.00105553 -0.0429183
-0.00501162 0.00104779 -0.0431772
-0.00583591 0.00104025 -0.043436
-0.00665937 0.00103349 -0.0436945
0.00021714 0.00113888 -0.0415985
-0.00057712 0.00112895 -0.0418565
-0.00137452 0.00111925 -0.0421149
-0.00217468 0.00110976 -0.0423736
-0.00297736 0.00110048 -0.0426323
-0.00378174 0.00109204 -0.0428912
-0.00458729 0.00108396 -0.0431501
-0.00539313 0.00107622 -0.0434089
-0.00619818 0.00106919 -0.0436675
0.00130879 0.00118808 -0.0413137
0.000537414 0.00117736 -0.0415713
-0.000237108 0.00116705 -0.0418289
-0.00101493 0.00115694 -0.0420871
-0.00179555 0.00114706 -0.0423455
-0.00257859 0.00113765 -0.0426041
-0.00336355 0.0011288 -0.0428629
-0.00414978 0.00112038 -0.0431217
-0.00493649 0.00111241 -0.0433805
-0.00572258 0.00110508 -0.0436392
0.00236663 0.00123816 -0.041029
0.00161895 0.00122712 -0.0412857
0.0008679 0.00121591 -0.0415427
0.000113329 0.00120526 -0.0418002
-0.000644382 0.00119484 -0.042058
-0.00140494 0.00118468 -0.0423162
-0.00216798 0.00117495 -0.0425747
-0.00293304 0.00116571 -0.0428333
-0.00369948 0.00115696 -0.043092
-0.00446657 0.00114873 -0.0433508
-0.00523323 0.00114112 -0.0436096
0.00266545 0.00127733 -0.0410002
0.00193845 0.00126585 -0.0412564
0.0012078 0.00125461 -0.041513
0.000473784 0.00124363 -0.0417702
-0.000263388 0.00123289 -0.0420277
-0.00100345 0.00122244 -0.0422857
-0.00174604 0.00121238 -0.042544
-0.00249073 0.0012028 -0.0428025
-0.00323694 0.00119372 -0.0430612
-0.00398393 0.0011852 -0.0433199
-0.00473071 0.00117731 -0.0435788
0.00297274 0.00131676 -0.0409701
0.00226664 0.00130502 -0.0412259
0.00155692 0.00129345 -0.0414821
0.000843844 0.00128215 -0.0417389
0.000127603 0.00127111 -0.0419962
-0.000591548 0.00126035 -0.0422539
-0.00131328 0.00124997 -0.042512
-0.00203718 0.00124005 -0.0427704
-0.00276271 0.00123066 -0.043029
-0.00348919 0.00122185 -0.0432878
-0.00421567 0.00121367 -0.0435467
0.0032882 0.00135632 -0.0409387
0.00260332 0.0013443 -0.041194
0.00191487 0.00133242 -0.0414499
0.00122307 0.00132082 -0.0417063
0.00052812 0.00130948 -0.0419633
-0.000169753 0.00129842 -0.0422207
-0.000870238 0.00128773 -0.0424787
-0.00157295 0.00127748 -0.042737
-0.0022774 0.00126777 -0.0429956
-0.00298295 0.00125868 -0.0432544
-0.00368873 0.00125022 -0.0435134
0.00361148 0.00139602 -0.0409061
0.00294812 0.0013837 -0.0411609
0.00228123 0.00137152 -0.0414163
0.00161103 0.00135963 -0.0416723
0.000937674 0.00134802 -0.041929
0.00026141 0.00133666 -0.0421863
-0.000417478 0.00132565 -0.042444
-0.00109864 0.00131509 -0.0427022
-0.00178164 0.00130507 -0.0429608
-0.00246589 0.00129578 -0.0432196
-0.00315059 0.00128695 -0.0434788
0.00394224 0.00143585 -0.040872
0.00330065 0.00142322 -0.0411263
0.00265559 0.00141075 -0.0413813
0.00200723 0.0013986 -0.0416371
0.00135575 0.00138672 -0.0418934
0.000701387 0.00137507 -0.0421505
4.44072e-05 0.00136375 -0.0424081
-0.000614874 0.00135288 -0.0426662
-0.00127632 0.00134254 -0.0429247
-0.00193884 0.00133293 -0.0431836
0.00428018 0.0014757 -0.0408367
0.00366052 0.00146284 -0.0410904
0.00303747 0.00145016 -0.0413451
0.00241119 0.00143771 -0.0416004
0.00178185 0.00142551 -0.0418565
0.00114966 0.00141359 -0.0421133
0.000514844 0.00140202 -0.0423708
-0.00012232 0.0013909 -0.0426288
-0.000761617 0.00138021 -0.0428874
-0.00253298 0.00100023 -0.0422994
-0.00335453 0.000987731 -0.0425584
-0.00417785 0.00097586 -0.0428176
-0.00500226 0.000964434 -0.0430767
-0.00582652 0.000953236 -0.0433359
-0.00664994 0.000942838 -0.0435951
0.000226272 0.00107589 -0.0415004
-0.000567944 0.00106211 -0.0417582
-0.00136531 0.00104855 -0.0420165
-0.00216543 0.00103521 -0.0422751
-0.00296807 0.00102208 -0.0425338
-0.00377241 0.00100981 -0.0427928
-0.0045779 0.000997929 -0.043052
-0.00538371 0.00098643 -0.0433112
-0.00618872 0.000975662 -0.0435703
0.00131788 0.00112701 -0.0412182
0.000546554 0.00111235 -0.0414756
-0.000227917 0.0010981 -0.041733
-0.0010057 0.00108405 -0.041991
-0.00178628 0.00107023 -0.0422494
-0.00256928 0.00105688 -0.042508
-0.00335419 0.0010441 -0.0427669
-0.00414038 0.00103178 -0.0430259
-0.00492704 0.00101995 -0.0432851
-0.0057131 0.0010088 -0.0435443
0.00237568 0.00117923 -0.0409361
0.00162804 0.00116418 -0.0411926
0.000877052 0.00114895 -0.0414494
0.00012253 0.00113428 -0.0417067
-0.000635136 0.00111983 -0.0419645
-0.00139565 0.00110565 -0.0422226
-0.00215865 0.00109189 -0.042481
-0.00292365 0.00107865 -0.0427398
-0.00369005 0.00106591 -0.0429987
-0.00445709 0.00105373 -0.0432579
-0.00522372 0.00104221 -0.0435171
0.00267451 0.00121668 -0.0409099
0.00194756 0.00120112 -0.0411658
0.00121696 0.00118579 -0.0414222
0.000482996 0.00117071 -0.0416792
-0.000254128 0.00115587 -0.0419367
-0.000994141 0.00114131 -0.0421945
-0.00173669 0.00112715 -0.0424528
-0.00248133 0.00111348 -0.0427114
-0.00322748 0.00110034 -0.0429703
-0.00397444 0.00108778 -0.0432294
-0.00472117 0.0010759 -0.0434888
0.00298181 0.00125445 -0.0408823
0.00227575 0.00123856 -0.0411378
0.00156609 0.00122284 -0.0413939
0.000853067 0.00120737 -0.0416505
0.000136876 0.00119215 -0.0419076
-0.000582225 0.00117722 -0.0421653
-0.00130391 0.00116268 -0.0424234
-0.00202775 0.0011486 -0.0426819
-0.00275323 0.00113506 -0.0429407
-0.00347966 0.00112213 -0.0431998
-0.0042061 0.00110988 -0.0434592
0.00329727 0.00129241 -0.0408535
0.00261244 0.00127619 -0.0411086
0.00192405 0.0012601 -0.0413642
0.00123231 0.00124427 -0.0416205
0.000537408 0.00122869 -0.0418773
-0.000160412 0.0012134 -0.0421347
-0.000860843 0.00119847 -0.0423926
-0.0015635 0.001184 -0.042651
-0.0022679 0.00117008 -0.0429098
-0.0029734 0.0011568 -0.043169
-0.00367913 0.00114419 -0.0434283
0.00362055 0.00133058 -0.0408234
0.00295725 0.00131402 -0.041078
0.00229043 0.00129757 -0.0413332
0.00162027 0.00128141 -0.0415891
0.000946977 0.0012655 -0.0418457
0.000270768 0.00124986 -0.0421029
-0.000408063 0.00123456 -0.0423606
-0.00108917 0.00121971 -0.0426189
-0.00177211 0.00120543 -0.0428777
-0.00245631 0.00119189 -0.0431367
-0.00314095 0.00117884 -0.0433963
0.00395132 0.00136896 -0.040792
0.0033098 0.00135204 -0.0410461
0.00266479 0.00133526 -0.0413009
0.00201649 0.00131879 -0.0415565
0.00136507 0.00130258 -0.0418128
0.000710761 0.00128659 -0.0420697
5.38418e-05 0.00127093 -0.0423273
-0.000605381 0.00125574 -0.0425855
-0.00126677 0.00124107 -0.0428442
-0.00192924 0.00122717 -0.0431033
0.00428927 0.00140742 -0.0407593
0.00366968 0.00139024 -0.0410129
0.00304668 0.00137323 -0.0412673
0.00242046 0.00135643 -0.0415225
0.00179118 0.00133986 -0.0417785
0.00115905 0.00132356 -0.0420352
0.000524301 0.00130761 -0.0422927
-0.0001128 0.00129212 -0.0425508
-0.000752041 0.00127707 -0.0428095
-0.00252353 0.000928106 -0.0421985
-0.00334502 0.000911846 -0.0424576
-0.00416827 0.000896241 -0.0427169
-0.00499263 0.000881131 -0.0429763
-0.00581683 0.000866264 -0.0432359
-0.00664019 0.000852228 -0.0434956
0.000235583 0.00101295 -0.0414022
-0.000558577 0.000995313 -0.0416598
-0.00135589 0.000977909 -0.041918
-0.00215597 0.00096071 -0.0421765
-0.00295856 0.000943732 -0.0424353
-0.00376282 0.00092762 -0.0426944
-0.00456825 0.000911946 -0.0429538
-0.00537401 0.000896681 -0.0432134
-0.00617896 0.000882185 -0.0434731
0.00132713 0.00106598 -0.0411226
0.000555866 0.00104738 -0.0413798
-0.000218543 0.0010292 -0.041637
-0.000996273 0.00101121 -0.0418949
-0.00177681 0.000993448 -0.0421532
-0.00255974 0.000976155 -0.0424119
-0.00334459 0.000959447 -0.0426709
-0.00413072 0.000943235 -0.0429301
-0.00491732 0.000927543 -0.0431897
-0.00570332 0.000912573 -0.0434494
0.00238488 0.00112036 -0.0408432
0.00163729 0.0011013 -0.0410994
0.000886368 0.00108204 -0.041356
0.000131907 0.00106336 -0.0416132
-0.000625704 0.00104488 -0.0418708
-0.00138617 0.00102667 -0.0421288
-0.00214911 0.00100889 -0.0423873
-0.00291404 0.000991642 -0.0426462
-0.00368038 0.000974918 -0.0429053
-0.00444736 0.000958775 -0.0431648
-0.00521393 0.000943346 -0.0434246
0.00268371 0.00115608 -0.0408194
0.00195681 0.00113644 -0.0410751
0.00122628 0.00111702 -0.0413313
0.000492375 0.00109784 -0.0415881
-0.000244692 0.00107889 -0.0418455
-0.000984647 0.00106023 -0.0421033
-0.00172714 0.00104198 -0.0423616
-0.00247171 0.00102422 -0.0426203
-0.0032178 0.001007 -0.0428794
-0.00396469 0.00099041 -0.0431388
-0.00471137 0.000974527 -0.0433986
0.002991 0.00119219 -0.0407944
0.00228501 0.00117216 -0.0410496
0.00157541 0.00115228 -0.0413055
0.000862448 0.00113264 -0.0415619
0.000146317 0.00111325 -0.0418189
-0.000572724 0.00109415 -0.0420765
-0.00129434 0.00107543 -0.0423346
-0.00201812 0.00105719 -0.0425932
-0.00274354 0.00103951 -0.0428523
-0.00346991 0.00102247 -0.0431117
-0.00419628 0.00100614 -0.0433715
0.00330646 0.00122856 -0.0407681
0.0026217 0.00120814 -0.0410229
0.00193337 0.00118783 -0.0412784
0.00124169 0.00116777 -0.0415345
0.000546854 0.00114796 -0.0417912
-0.000150904 0.00112844 -0.0420485
-0.000851271 0.00110927 -0.0423065
-0.00155386 0.00109058 -0.0425649
-0.00225819 0.00107245 -0.0428239
-0.00296364 0.00105498 -0.0430834
-0.0036693 0.00103822 -0.0433432
0.00362975 0.0012652 -0.0407406
0.00296652 0.00124439 -0.0409949
0.00229975 0.00122368 -0.04125
0.00162966 0.00120324 -0.0415057
0.000956427 0.00118304 -0.0417622
0.000280282 0.00116311 -0.0420193
-0.000398483 0.00114352 -0.0422771
-0.00107952 0.00112439 -0.0425354
-0.0017624 0.00110584 -0.0427944
-0.00244653 0.00108806 -0.0430537
-0.00313111 0.00107079 -0.0433137
0.00396052 0.00130212 -0.0407118
0.00331907 0.00128091 -0.0409656
0.00267413 0.00125984 -0.0412203
0.00202588 0.00123905 -0.0414757
0.00137452 0.00121849 -0.0417319
0.000720281 0.00119817 -0.0419888
6.3429e-05 0.00117818 -0.0422464
-0.000595726 0.00115865 -0.0425046
-0.00125705 0.00113966 -0.0427635
-0.00191945 0.00112146 -0.0430229
0.00429847 0.0013392 -0.0406817
0.00367895 0.0013177 -0.0409351
0.00305601 0.00129635 -0.0411893
0.00242985 0.00127521 -0.0414444
0.00180063 0.00125427 -0.0417003
0.00116857 0.00123359 -0.0419569
0.000533897 0.00121326 -0.0422144
-0.000103134 0.00119339 -0.0424726
-0.000742309 0.00117399 -0.0427314
-0.00252352 0.000928181 -0.0421986
-0.00334502 0.000911929 -0.0424577
-0.00416827 0.000896331 -0.042717
-0.00499263 0.000881229 -0.0429764
-0.00581682 0.000866369 -0.043236
-0.00664018 0.000852341 -0.0434957
0.000235586 0.001013 -0.0414022
-0.000558574 0.000995377 -0.0416599
-0.00135589 0.00097798 -0.041918
-0.00215597 0.000960789 -0.0421766
-0.00295856 0.000943818 -0.0424353
-0.00376282 0.000927713 -0.0426945
-0.00456825 0.000912047 -0.0429539
-0.005374 0.00089679 -0.0432135
-0.00617896 0.000882303 -0.0434732
0.00132714 0.00106603 -0.0411226
0.000555869 0.00104744 -0.0413798
-0.00021854 0.00102926 -0.0416371
-0.00099627 0.00101129 -0.041895
-0.00177681 0.00099353 -0.0421532
-0.00255974 0.000976244 -0.0424119
-0.00334458 0.000959544 -0.0426709
-0.00413071 0.000943341 -0.0429302
-0.00491732 0.000927656 -0.0431898
-0.00570332 0.000912696 -0.0434495
0.00238488 0.0011204 -0.0408432
0.0016373 0.00110135 -0.0410995
0.000886371 0.00108211 -0.041356
0.00013191 0.00106342 -0.0416132
-0.000625701 0.00104496 -0.0418708
-0.00138617 0.00102676 -0.0421289
-0.0021491 0.00100899 -0.0423874
-0.00291404 0.000991743 -0.0426462
-0.00368038 0.000975028 -0.0429054
-0.00444736 0.000958894 -0.0431649
-0.00521393 0.000943474 -0.0434247
0.00268371 0.00115613 -0.0408194
0.00195681 0.0011365 -0.0410751
0.00122628 0.00111708 -0.0413314
0.000492377 0.00109791 -0.0415882
-0.000244689 0.00107897 -0.0418455
-0.000984645 0.00106032 -0.0421033
-0.00172713 0.00104207 -0.0423616
-0.0024717 0.00102432 -0.0426204
-0.0032178 0.00100712 -0.0428795
-0.00396469 0.000990533 -0.0431389
-0.00471137 0.00097466 -0.0433987
0.002991 0.00119224 -0.0407944
0.00228501 0.00117222 -0.0410497
0.00157541 0.00115234 -0.0413055
0.00086245 0.00113271 -0.041562
0.000146319 0.00111333 -0.041819
-0.000572722 0.00109424 -0.0420766
-0.00129434 0.00107553 -0.0423347
-0.00201812 0.0010573 -0.0425933
-0.00274353 0.00103963 -0.0428523
-0.00346991 0.0010226 -0.0431118
-0.00419628 0.00100628 -0.0433716
0.00330646 0.00122861 -0.0407681
0.0026217 0.0012082 -0.041023
0.00193337 0.0011879 -0.0412784
0.0012417 0.00116785 -0.0415345
0.000546856 0.00114805 -0.0417912
-0.000150902 0.00112853 -0.0420486
-0.000851269 0.00110938 -0.0423065
-0.00155386 0.00109069 -0.042565
-0.00225819 0.00107257 -0.042824
-0.00296363 0.00105512 -0.0430834
-0.00366929 0.00103837 -0.0433433
0.00362975 0.00126525 -0.0407406
0.00296652 0.00124445 -0.040995
0.00229975 0.00122375 -0.04125
0.00162966 0.00120332 -0.0415058
0.000956428 0.00118313 -0.0417622
0.000280284 0.0011632 -0.0420194
-0.000398481 0.00114362 -0.0422771
-0.00107952 0.00112451 -0.0425355
-0.00176239 0.00110597 -0.0427944
-0.00244653 0.0010882 -0.0430537
-0.00313111 0.00107094 -0.0433137
0.00396052 0.00130218 -0.0407118
0.00331907 0.00128098 -0.0409657
0.00267413 0.00125991 -0.0412203
0.00202588 0.00123913 -0.0414757
0.00137452 0.00121858 -0.0417319
0.000720282 0.00119827 -0.0419888
6.34307e-05 0.00117829 -0.0422464
-0.000595724 0.00115877 -0.0425047
-0.00125705 0.00113979 -0.0427635
-0.00191945 0.0011216 -0.0430229
0.00429847 0.00133926 -0.0406817
0.00367895 0.00131776 -0.0409351
0.00305601 0.00129643 -0.0411893
0.00242985 0.00127529 -0.0414444
0.00180063 0.00125436 -0.0417003
0.00116858 0.00123369 -0.041957
0.000533898 0.00121337 -0.0422144
-0.000103132 0.00119351 -0.0424726
-0.000742307 0.00117412 -0.0427315
-0.00251436 0.000855951 -0.0420976
-0.00333578 0.000835935 -0.0423568
-0.00415895 0.000816572 -0.0426162
-0.00498324 0.000797762 -0.0428759
-0.00580735 0.000779257 -0.0431359
-0.00663063 0.00076158 -0.0433962
0.000244553 0.000949965 -0.041304
-0.00054954 0.000928475 -0.0415615
-0.00134679 0.00090721 -0.0418195
-0.0021468 0.000886165 -0.0420779
-0.00294932 0.000865361 -0.0423368
-0.0037535 0.000845386 -0.0425961
-0.00455885 0.000825907 -0.0428557
-0.00536453 0.000806899 -0.0431157
-0.00616941 0.000788671 -0.0433759
0.00133603 0.00100492 -0.041027
0.000564831 0.000982379 -0.041284
-0.000209506 0.000960247 -0.041541
-0.00098717 0.000938323 -0.0417988
-0.00176764 0.00091663 -0.042057
-0.00255051 0.000895396 -0.0423157
-0.00333527 0.000874748 -0.0425749
-0.00412132 0.000854635 -0.0428344
-0.00490785 0.000835089 -0.0430943
-0.00569378 0.000816299 -0.0433546
0.0023937 0.00106145 -0.0407503
0.00164618 0.00103837 -0.0410063
0.000895327 0.00101511 -0.0412626
0.000140936 0.000992384 -0.0415196
-0.000616608 0.000969882 -0.0417771
-0.00137701 0.000947652 -0.0420351
-0.00213987 0.000925848 -0.0422936
-0.00290473 0.000904578 -0.0425526
-0.00367099 0.000883865 -0.042812
-0.00443789 0.000863771 -0.0430719
-0.00520438 0.000844433 -0.0433321
0.00269252 0.00109546 -0.0407289
0.00196569 0.00107174 -0.0409844
0.00123523 0.00104821 -0.0412404
0.000501396 0.00102492 -0.0414971
-0.000235602 0.00100187 -0.0417543
-0.000975488 0.000979109 -0.042012
-0.0017179 0.00095675 -0.0422703
-0.0024624 0.000934898 -0.0425292
-0.00320841 0.000913613 -0.0427885
-0.00395523 0.000892979 -0.0430483
-0.00470183 0.000873101 -0.0433086
0.0029998 0.00112991 -0.0407064
0.00229388 0.00110573 -0.0409614
0.00158435 0.00108168 -0.0412171
0.000871461 0.00105787 -0.0414734
0.0001554 0.0010343 -0.0417303
-0.00056357 0.00101102 -0.0419878
-0.00128512 0.000988132 -0.0422459
-0.00200882 0.000965729 -0.0425046
-0.00273415 0.0009439 -0.0427639
-0.00346045 0.000922742 -0.0430236
-0.00418674 0.000902339 -0.0432839
0.00331526 0.00116468 -0.0406827
0.00263056 0.00114006 -0.0409373
0.00194231 0.00111553 -0.0411925
0.0012507 0.00109123 -0.0414484
0.000555929 0.00106718 -0.0417051
-0.000141757 0.00104341 -0.0419624
-0.000842049 0.00102001 -0.0422203
-0.00154456 0.000997092 -0.0424789
-0.00224882 0.000974748 -0.042738
-0.00295418 0.00095309 -0.0429978
-0.00365976 0.000932179 -0.0432581
0.00363854 0.00119979 -0.0406577
0.00297537 0.00117473 -0.0409119
0.00230868 0.00114975 -0.0411667
0.00163866 0.00112502 -0.0414223
0.000965494 0.00110053 -0.0416787
0.000289421 0.0010763 -0.0419357
-0.000389269 0.00105242 -0.0421935
-0.00107023 0.00102901 -0.0424519
-0.00175303 0.00100618 -0.042711
-0.00243708 0.000984151 -0.0429706
-0.00312158 0.000962654 -0.0432311
0.0039693 0.00123525 -0.0406315
0.00332792 0.00120976 -0.0408852
0.00268305 0.00118437 -0.0411396
0.00203487 0.00115925 -0.0413949
0.00138358 0.00113435 -0.041651
0.000729411 0.00110969 -0.0419078
7.26346e-05 0.00108536 -0.0421654
-0.000586443 0.0010615 -0.0424237
-0.00124769 0.00103818 -0.0426828
-0.00191001 0.00101567 -0.0429424
0.00430725 0.00127095 -0.040604
0.00368779 0.00124512 -0.0408572
0.00306492 0.00121944 -0.0411113
0.00243882 0.00119394 -0.0413662
0.00180968 0.00116863 -0.041622
0.00117769 0.00114355 -0.0418786
0.000543094 0.00111884 -0.042136
-9.38588e-05 0.00109459 -0.0423943
-0.000732957 0.00107083 -0.0426533
-0.00250468 0.000783659 -0.0419966
-0.00332602 0.000759889 -0.0422558
-0.0041491 0.000736744 -0.0425154
-0.00497329 0.000714204 -0.0427753
-0.0057973 0.000692061 -0.0430357
-0.00662048 0.000670736 -0.0432966
0.000253982 0.00088689 -0.0412057
-0.000540032 0.000861516 -0.0414629
-0.0013372 0.000836362 -0.0417208
-0.00213714 0.000811463 -0.0419792
-0.00293957 0.000786845 -0.0422381
-0.00374365 0.000762987 -0.0424975
-0.00454891 0.00073967 -0.0427574
-0.00535449 0.000716907 -0.0430177
-0.00615928 0.000694937 -0.0432786
0.00134536 0.000943773 -0.0409313
0.00057425 0.000917266 -0.0411881
-0.000200005 0.000891166 -0.0414449
-0.00097759 0.000865277 -0.0417025
-0.00175798 0.000839645 -0.0419607
-0.00254076 0.000814465 -0.0422194
-0.00332543 0.000789858 -0.0424787
-0.00411139 0.000765819 -0.0427384
-0.00489782 0.000742403 -0.0429987
-0.00568365 0.000719779 -0.0432595
0.00240295 0.00100244 -0.0406572
0.0016555 0.000975343 -0.040913
0.000904735 0.000948047 -0.0411691
0.000150424 0.000921265 -0.0414259
-0.000607039 0.000894712 -0.0416833
-0.00136736 0.000868447 -0.0419412
-0.00213014 0.000842607 -0.0421998
-0.0028949 0.0008173 -0.0424588
-0.00366107 0.000792575 -0.0427185
-0.00442788 0.000768512 -0.0429787
-0.00519427 0.000745249 -0.0432394
0.00270176 0.00103473 -0.0406383
0.001975 0.00100692 -0.0408936
0.00124462 0.00097927 -0.0411494
0.000510871 0.000951845 -0.0414059
-0.000226047 0.000924664 -0.0416629
-0.00096585 0.000897782 -0.0419206
-0.00170818 0.000871306 -0.042179
-0.00245258 0.00084534 -0.0424379
-0.00319851 0.000819962 -0.0426974
-0.00394523 0.00079527 -0.0429575
-0.00469173 0.000771379 -0.0432183
0.00300903 0.0010675 -0.0406183
0.00230318 0.00103917 -0.0408731
0.00159373 0.00101093 -0.0411286
0.000880922 0.000982917 -0.0413847
0.000164941 0.000955149 -0.0416415
-0.000553946 0.000927677 -0.0418989
-0.00127541 0.000900594 -0.0421571
-0.00199902 0.000874006 -0.0424159
-0.00272426 0.000848009 -0.0426753
-0.00345047 0.00082271 -0.0429354
-0.00417666 0.000798214 -0.0431961
0.00332447 0.00110066 -0.0405972
0.00263985 0.00107183 -0.0408515
0.00195167 0.00104305 -0.0411066
0.00126015 0.00101449 -0.0413623
0.000565455 0.000986181 -0.0416189
-0.000132149 0.000958153 -0.0418761
-0.000832356 0.000930497 -0.042134
-0.00153478 0.000903323 -0.0423927
-0.00223894 0.000876742 -0.042652
-0.00294422 0.000850869 -0.0429121
-0.0036497 0.000825791 -0.0431728
0.00364774 0.00113423 -0.0405748
0.00298465 0.00110491 -0.0408287
0.00231804 0.00107564 -0.0410834
0.00164809 0.00104659 -0.0413388
0.000975004 0.00101778 -0.041595
0.000299012 0.000989232 -0.041852
-0.000379593 0.000961039 -0.0421098
-0.00106047 0.000933319 -0.0423683
-0.00174317 0.00090619 -0.0426276
-0.00242713 0.000879896 -0.0428875
-0.00311153 0.000854149 -0.0431483
0.00397849 0.00116822 -0.0405512
0.00333719 0.00113843 -0.0408046
0.00269239 0.00110871 -0.0410589
0.00204429 0.00107922 -0.041314
0.00139307 0.00104996 -0.04157
0.000738983 0.00102093 -0.0418268
8.2291e-05 0.000992242 -0.0420843
-0.0005767 0.000964017 -0.0423427
-0.00123786 0.000936353 -0.0426019
-0.00190008 0.000909521 -0.0428618
0.00431642 0.00120253 -0.0405263
0.00369704 0.00117236 -0.0407793
0.00307424 0.00114231 -0.0410332
0.00244822 0.00111243 -0.041288
0.00181915 0.00108271 -0.0415436
0.00118725 0.00105323 -0.0418002
0.00055273 0.00102411 -0.0420576
-8.41347e-05 0.000995442 -0.0423159
-0.000723144 0.000967289 -0.0425751
-0.00249482 0.000711414 -0.0418954
-0.00331607 0.000683877 -0.0421546
-0.00413904 0.000656969 -0.0424143
-0.00496312 0.0006307 -0.0426744
-0.00578701 0.000604875 -0.0429353
-0.00661007 0.00057989 -0.0431967
0.000263549 0.000823891 -0.0411073
-0.000530377 0.000794629 -0.0413643
-0.00132746 0.000765588 -0.0416221
-0.0021273 0.000736814 -0.0418804
-0.00292963 0.000708366 -0.0421393
-0.00373361 0.000680643 -0.0423988
-0.00453876 0.000653488 -0.0426589
-0.00534423 0.000626929 -0.0429196
-0.0061489 0.000601204 -0.0431809
0.00135483 0.000882705 -0.0408355
0.000583803 0.000852231 -0.0410921
-0.000190363 0.000822166 -0.0413487
-0.000967857 0.000792309 -0.0416062
-0.00174816 0.000762717 -0.0418643
-0.00253084 0.00073358 -0.042123
-0.00331541 0.000705019 -0.0423824
-0.00410125 0.000677049 -0.0426423
-0.00488758 0.000649739 -0.0429029
-0.0056733 0.000623265 -0.0431642
0.00241232 0.000943525 -0.0405641
0.00166495 0.000912396 -0.0408196
0.000914271 0.000881059 -0.0410755
0.00016005 0.000850223 -0.0413322
-0.000597324 0.000819616 -0.0415894
-0.00135755 0.000789303 -0.0418473
-0.00212023 0.000759418 -0.0421058
-0.0028849 0.000730072 -0.0423649
-0.00365096 0.000701328 -0.0426248
-0.00441766 0.000673279 -0.0428853
-0.00518394 0.000646074 -0.0431465
0.00271111 0.000974084 -0.0405477
0.00198443 0.000942171 -0.0408027
0.00125414 0.000910398 -0.0410583
0.000520478 0.000878843 -0.0413146
-0.000216351 0.000847531 -0.0415716
-0.000956063 0.00081652 -0.0418292
-0.0016983 0.000785918 -0.0420875
-0.0024426 0.000755834 -0.0423465
-0.00318842 0.000726355 -0.0426062
-0.00393503 0.000697591 -0.0428666
-0.00468143 0.000669672 -0.0431278
0.00301836 0.00100518 -0.0405303
0.00231259 0.000972683 -0.0407848
0.00160323 0.000940255 -0.04104
0.00089051 0.000908042 -0.041296
0.000174616 0.000876071 -0.0415526
-0.000544181 0.000844397 -0.04181
-0.00126555 0.000813115 -0.0420681
-0.00198906 0.000782335 -0.042327
-0.0027142 0.000752161 -0.0425866
-0.0034403 0.000722712 -0.042847
-0.00416638 0.000694108 -0.0431081
0.00333379 0.00103673 -0.0405117
0.00264925 0.00100367 -0.0407658
0.00196116 0.000970649 -0.0410206
0.00126971 0.000937835 -0.0412762
0.000575109 0.000905256 -0.0415326
-0.000122407 0.000872961 -0.0417898
-0.000822521 0.000841041 -0.0420477
-0.00152485 0.000809608 -0.0423064
-0.00222891 0.000778781 -0.0425659
-0.00293408 0.000748685 -0.0428262
-0.00363945 0.000719427 -0.0430873
0.00365704 0.00106876 -0.0404919
0.00299404 0.00103517 -0.0407456
0.0023275 0.0010016 -0.041
0.00165764 0.000968241 -0.0412553
0.000984634 0.000935107 -0.0415114
0.00030873 0.000902237 -0.0417683
-0.000369785 0.000869722 -0.0420261
-0.00105056 0.000837684 -0.0422847
-0.00173317 0.000806247 -0.0425441
-0.00241702 0.000775675 -0.0428042
-0.00310132 0.000745672 -0.0430655
0.00398777 0.00110128 -0.0404709
0.00334656 0.00106718 -0.0407242
0.00270184 0.00103312 -0.0409782
0.00205381 0.00099928 -0.0412332
0.00140268 0.000965647 -0.041489
0.000748674 0.000932249 -0.0417457
9.20713e-05 0.000899185 -0.0420033
-0.000566826 0.000866591 -0.0422617
-0.00122788 0.000834568 -0.042521
-0.00189001 0.000803402 -0.0427812
0.00432569 0.00113421 -0.0404487
0.00370639 0.00109968 -0.0407015
0.00308366 0.00106527 -0.0409552
0.00245772 0.001031 -0.0412098
0.00182873 0.000996876 -0.0414653
0.00119691 0.000962978 -0.0417218
0.000562482 0.00092943 -0.0419792
-7.42901e-05 0.000896353 -0.0422376
-0.000713203 0.000863803 -0.0424969
-0.00248446 0.00063913 -0.041794
-0.0033056 0.000607802 -0.0420532
-0.00412845 0.00057713 -0.042313
-0.0049524 0.000547127 -0.0425734
-0.00577616 0.000517592 -0.0428345
-0.00659909 0.000488926 -0.0430965
0.000273574 0.000760874 -0.0410087
-0.000520252 0.000727724 -0.0412655
-0.00131723 0.000694801 -0.0415231
-0.00211696 0.000662135 -0.0417814
-0.00291919 0.000629833 -0.0420402
-0.00372305 0.000598242 -0.0422998
-0.00452807 0.000567249 -0.0425601
-0.0053334 0.000536871 -0.0428212
-0.00613795 0.000507364 -0.043083
0.00136473 0.000821643 -0.0407395
0.000593808 0.000787194 -0.0409959
-0.000180256 0.000753163 -0.0412523
-0.000957649 0.000719337 -0.0415097
-0.00173785 0.000685769 -0.0417677
-0.00252042 0.000652656 -0.0420264
-0.00330487 0.000620134 -0.0422858
-0.00409059 0.000588226 -0.042546
-0.00487679 0.000557002 -0.0428069
-0.00566238 0.000526654 -0.0430686
0.00242211 0.00088464 -0.0404709
0.00167483 0.00084947 -0.0407261
0.000924254 0.000814077 -0.0409818
0.000170132 0.000779186 -0.0412383
-0.000587141 0.000744523 -0.0414953
-0.00134726 0.000710148 -0.0417531
-0.00210984 0.000676203 -0.0420116
-0.00287439 0.000642808 -0.0422708
-0.00364033 0.000610035 -0.0425309
-0.0044069 0.000577983 -0.0427917
-0.00517306 0.000546815 -0.0430533
0.00272089 0.000913472 -0.040457
0.0019943 0.000877446 -0.0407117
0.0012641 0.000841546 -0.0409671
0.000530535 0.000805859 -0.0412232
-0.000206194 0.000770409 -0.04148
-0.000945805 0.000735257 -0.0417375
-0.00168793 0.000700516 -0.0419958
-0.00243212 0.000666302 -0.0422549
-0.00317782 0.000632711 -0.0425148
-0.00392432 0.000599859 -0.0427755
-0.00467059 0.000567894 -0.0430371
0.00302812 0.000942913 -0.0404421
0.00232244 0.000906234 -0.0406964
0.00161317 0.000869612 -0.0409514
0.000900542 0.000833196 -0.0412071
0.000184745 0.000797015 -0.0414637
-0.000533952 0.000761128 -0.041721
-0.00125521 0.000725635 -0.041979
-0.00197862 0.000690651 -0.042238
-0.00270364 0.000656288 -0.0424977
-0.00342962 0.000622674 -0.0427583
-0.00415558 0.000589944 -0.0430199
0.00334352 0.000972871 -0.0404261
0.00265908 0.000935575 -0.04068
0.00197107 0.000898297 -0.0409346
0.00127972 0.000861218 -0.04119
0.000585208 0.000824365 -0.0414462
-0.000112209 0.000787792 -0.0417033
-0.00081222 0.000751595 -0.0419612
-0.00151444 0.000715892 -0.0422199
-0.00221839 0.000680806 -0.0424796
-0.00292344 0.000646473 -0.0427402
-0.00362869 0.000613016 -0.0430016
0.00366675 0.00100337 -0.0404089
0.00300384 0.000965492 -0.0406624
0.00233739 0.000927621 -0.0409166
0.00166762 0.000889946 -0.0411717
0.000994703 0.000852482 -0.0414277
0.000318894 0.000815277 -0.0416845
-0.00035952 0.000778428 -0.0419422
-0.00104019 0.00074206 -0.0422008
-0.00172269 0.000706302 -0.0424604
-0.00240643 0.000671432 -0.0427208
-0.0030906 0.000637161 -0.0429823
0.00399747 0.00103443 -0.0403906
0.00335634 0.000996007 -0.0406436
0.0027117 0.000957606 -0.0408975
0.00206376 0.000919402 -0.0411522
0.00141272 0.000881391 -0.0414079
0.000758803 0.000843609 -0.0416645
0.000102298 0.000806163 -0.041922
-0.000556496 0.00076919 -0.0421805
-0.00121745 0.000732792 -0.04244
-0.00187946 0.000697273 -0.0427004
0.00433536 0.00106597 -0.040371
0.00371614 0.00102709 -0.0406236
0.0030935 0.000988313 -0.0408771
0.00246763 0.000949644 -0.0411315
0.00183873 0.000911109 -0.0413869
0.001207 0.000872782 -0.0416433
0.000572669 0.000834802 -0.0419007
-6.40021e-05 0.000797304 -0.0421591
-0.000702808 0.000760343 -0.0424185
-0.00247437 0.000566555 -0.0416925
-0.00329538 0.000531425 -0.0419517
-0.00411809 0.000496952 -0.0422115
-0.0049419 0.000463176 -0.0424721
-0.00576551 0.00042993 -0.0427336
-0.00658828 0.000397574 -0.0429961
0.000283279 0.000697618 -0.04091
-0.000510433 0.000660555 -0.0411666
-0.00130729 0.000623717 -0.0414241
-0.00210691 0.000587146 -0.0416822
-0.00290901 0.000550984 -0.041941
-0.00371273 0.000515488 -0.0422007
-0.0045176 0.000480623 -0.0424612
-0.00532279 0.000446418 -0.0427226
-0.00612719 0.000413114 -0.0429849
0.0013743 0.000760359 -0.0406435
0.000603485 0.000721908 -0.0408997
-0.000170467 0.00068388 -0.0411559
-0.000947745 0.000646058 -0.041413
-0.00172783 0.0006085 -0.0416709
-0.00251028 0.000571392 -0.0419296
-0.00329459 0.000534877 -0.0421891
-0.00408017 0.000499002 -0.0424494
-0.00486623 0.000463848 -0.0427107
-0.00565167 0.000429611 -0.0429729
0.00243155 0.000825556 -0.0403776
0.00168436 0.000786314 -0.0406326
0.000933898 0.000746845 -0.040888
0.000179887 0.000707864 -0.0411443
-0.000577274 0.000669114 -0.0414012
-0.00133728 0.000630656 -0.0416588
-0.00209973 0.000592627 -0.0419173
-0.00286415 0.000555155 -0.0421766
-0.00362996 0.000518325 -0.0424368
-0.00439639 0.000482248 -0.0426979
-0.00516241 0.0004471 -0.04296
0.00273029 0.000852663 -0.0403662
0.0020038 0.000812498 -0.0406207
0.00127371 0.000772435 -0.0408758
0.000540254 0.00073258 -0.0411317
-0.000196365 0.000692961 -0.0413884
-0.000935862 0.000653642 -0.0416458
-0.00167787 0.000614735 -0.0419041
-0.00242193 0.000576362 -0.0421632
-0.0031675 0.00053863 -0.0424232
-0.00391386 0.000501665 -0.0426842
-0.00465999 0.000465632 -0.0429462
0.0030375 0.000880434 -0.0403538
0.00233191 0.000839551 -0.0406079
0.00162275 0.000798701 -0.0408626
0.000910223 0.000758046 -0.0411182
0.000194534 0.000717622 -0.0413746
-0.000524052 0.000677493 -0.0416318
-0.0012452 0.000637759 -0.0418898
-0.00196848 0.00059854 -0.0421488
-0.00269338 0.000559959 -0.0424086
-0.00341922 0.000522151 -0.0426695
-0.00414504 0.00048527 -0.0429314
0.00335287 0.000908785 -0.0403404
0.00266852 0.000867231 -0.040594
0.00198061 0.000825665 -0.0408484
0.00128936 0.000784285 -0.0411036
0.000594954 0.000743125 -0.0413597
-0.000102355 0.000702242 -0.0416167
-0.000802253 0.000661737 -0.0418745
-0.00150436 0.000621731 -0.0421333
-0.00220818 0.000582355 -0.0423931
-0.0029131 0.000543755 -0.0426539
-0.00361821 0.000506069 -0.0429157
0.00367607 0.00093775 -0.0403258
0.00301325 0.000895562 -0.040579
0.0023469 0.000853354 -0.0408331
0.00167722 0.000811324 -0.041088
0.0010044 0.000769495 -0.0413438
0.0003287 0.000727922 -0.0416005
-0.000349605 0.000686706 -0.0418582
-0.00103016 0.000645974 -0.0421168
-0.00171254 0.000605862 -0.0423765
-0.00239615 0.000566663 -0.0426371
-0.00308018 0.000528089 -0.042899
0.00400676 0.000967347 -0.0403101
0.00336572 0.000924572 -0.0405629
0.00272117 0.000881792 -0.0408166
0.00207332 0.000839186 -0.0410712
0.00142237 0.000796761 -0.0413267
0.000768558 0.000754563 -0.0415832
0.000112158 0.0007127 -0.0418407
-0.000546526 0.00067131 -0.0420992
-0.00120736 0.000630507 -0.0423587
-0.00186924 0.000590602 -0.0426194
0.00434462 0.000997493 -0.0402932
0.00372549 0.000954234 -0.0405456
0.00310292 0.000911044 -0.0407989
0.00247714 0.000867945 -0.0410532
0.00184833 0.000824959 -0.0413084
0.0012167 0.000782169 -0.0415647
0.00058247 0.000739723 -0.041822
-5.40928e-05 0.000697761 -0.0420804
-0.000692783 0.000656353 -0.0423399
-0.00246376 0.000493798 -0.0415908
-0.00328462 0.000454854 -0.0418499
-0.00410719 0.000416553 -0.0421099
-0.00493082 0.000378972 -0.0423707
-0.00575427 0.000341998 -0.0426325
-0.00657687 0.00030594 -0.0428954
0.00029346 0.000634242 -0.0408112
-0.000500127 0.000593232 -0.0410676
-0.00129686 0.000552442 -0.0413249
-0.00209634 0.000511946 -0.0415829
-0.0028983 0.000471912 -0.0418417
-0.00370187 0.000432486 -0.0421015
-0.00450658 0.000393714 -0.0423621
-0.00531161 0.000355657 -0.0426238
-0.00611583 0.000318543 -0.0428865
0.00138432 0.000698954 -0.0405474
0.000613635 0.000656475 -0.0408033
-0.000160195 0.000614415 -0.0410593
-0.000937345 0.000572561 -0.0413163
-0.0017173 0.000530991 -0.041574
-0.00249961 0.000489869 -0.0418327
-0.00328377 0.000449335 -0.0420922
-0.0040692 0.000409462 -0.0423527
-0.0048551 0.000370354 -0.0426142
-0.00564037 0.000332208 -0.0428769
0.00244143 0.000766346 -0.0402842
0.00169435 0.000723007 -0.0405389
0.000944011 0.000679442 -0.0407941
0.000190121 0.000636334 -0.0410501
-0.000566916 0.000593462 -0.0413069
-0.00132679 0.000550894 -0.0415644
-0.00208911 0.000508758 -0.0418229
-0.00285339 0.000467179 -0.0420822
-0.00361904 0.000426264 -0.0423425
-0.00438532 0.000386136 -0.0426039
-0.00515117 0.000346984 -0.0428664
0.00274015 0.000791714 -0.0402753
0.00201376 0.000747382 -0.0405295
0.00128379 0.000703124 -0.0407844
0.000550448 0.000659064 -0.0410401
-0.000186051 0.000615242 -0.0412966
-0.000925423 0.000571726 -0.0415539
-0.0016673 0.000528626 -0.0418121
-0.00241122 0.000486064 -0.0420713
-0.00315665 0.000444161 -0.0423315
-0.00390285 0.000403056 -0.0425927
-0.00464882 0.000362928 -0.0428551
0.00304732 0.000817786 -0.0402655
0.00234184 0.000772672 -0.0405193
0.00163279 0.000727558 -0.0407738
0.000920374 0.000682629 -0.0410292
0.000204802 0.000637928 -0.0412854
-0.000513663 0.000593524 -0.0415425
-0.00123468 0.000549519 -0.0418005
-0.00195782 0.000506034 -0.0420595
-0.00268258 0.000463203 -0.0423195
-0.00340827 0.000421169 -0.0425806
-0.00413394 0.000380109 -0.0428429
0.00336266 0.000844505 -0.0402546
0.00267841 0.000798661 -0.040508
0.00199061 0.000752773 -0.0407622
0.00129947 0.000707056 -0.0410172
0.000605174 0.000661552 -0.0412731
-9.20182e-05 0.000616326 -0.04153
-0.000791792 0.000571479 -0.0417878
-0.00149376 0.000527136 -0.0420466
-0.00219745 0.000483437 -0.0423065
-0.00290222 0.000440535 -0.0425675
-0.00360718 0.000398592 -0.0428297
0.00368583 0.000871908 -0.0402427
0.00302311 0.000825379 -0.0404957
0.00235685 0.000778796 -0.0407495
0.00168728 0.000732374 -0.0410042
0.00101457 0.000686144 -0.0412599
0.000338981 0.000640168 -0.0415165
-0.000339204 0.000594548 -0.0417741
-0.00101964 0.000549414 -0.0420328
-0.00170188 0.000504913 -0.0422925
-0.00238534 0.000461357 -0.0425534
-0.00306923 0.000418441 -0.0428156
0.00401648 0.000900015 -0.0402296
0.00337554 0.000852857 -0.0404822
0.00273108 0.000805658 -0.0407356
0.00208333 0.000758612 -0.0409901
0.00143248 0.000711737 -0.0412455
0.000778781 0.000665084 -0.0415018
0.000122495 0.000618764 -0.0417593
-0.000536067 0.000572914 -0.0420178
-0.00119677 0.000527675 -0.0422774
-0.00185851 0.000483351 -0.0425383
0.0043543 0.00092876 -0.0402154
0.00373526 0.000881073 -0.0404676
0.00311279 0.000833428 -0.0407207
0.0024871 0.000785856 -0.0409747
0.00185839 0.000738378 -0.0412298
0.00122686 0.000691087 -0.041486
0.000592741 0.000644136 -0.0417433
-4.37048e-05 0.000597667 -0.0420017
-0.000682268 0.000551773 -0.0422613
-0.00245303 0.00042099 -0.0414888
-0.00327374 0.000378206 -0.0417478
-0.00409614 0.000336068 -0.0420078
-0.0049196 0.00029467 -0.0422687
-0.00574286 0.000253926 -0.0425309
-0.00656527 0.000214124 -0.0427943
0.000303712 0.000570876 -0.0407121
-0.00048974 0.000525902 -0.0409682
-0.00128633 0.000481147 -0.0412253
-0.00208566 0.000436696 -0.0414832
-0.00288747 0.000392758 -0.041742
-0.00369088 0.000349395 -0.0420018
-0.00449542 0.0003067 -0.0422626
-0.00530026 0.000264751 -0.0425245
-0.0061043 0.000223789 -0.0427877
0.00139441 0.000637574 -0.040451
0.00062385 0.000591051 -0.0407066
-0.000149851 0.000544946 -0.0409623
-0.000926863 0.000499043 -0.0412192
-0.00170667 0.000453429 -0.0414768
-0.00248883 0.000408268 -0.0417354
-0.00327284 0.000363699 -0.041995
-0.0040581 0.000319808 -0.0422556
-0.00484382 0.00027671 -0.0425174
-0.00562892 0.000234617 -0.0427805
0.00245137 0.000707171 -0.0401905
0.0017044 0.000659723 -0.040445
0.000954183 0.000612036 -0.0407
0.000200421 0.000564792 -0.0409557
-0.000556482 0.000517782 -0.0412123
-0.00131622 0.000471079 -0.0414697
-0.00207839 0.000424811 -0.0417281
-0.00284251 0.000379106 -0.0419875
-0.00360801 0.000334081 -0.0422479
-0.00437412 0.00028987 -0.0425095
-0.00513979 0.000246676 -0.0427724
0.00275005 0.000730789 -0.0401842
0.00202377 0.000682272 -0.0404382
0.00129392 0.000633807 -0.0406928
0.000560702 0.000585532 -0.0409483
-0.000175668 0.000537491 -0.0412046
-0.000914905 0.000489756 -0.0414618
-0.00165664 0.000442438 -0.04172
-0.00240041 0.000395665 -0.0419791
-0.00314568 0.000349566 -0.0422394
-0.00389172 0.000304289 -0.0425009
-0.00463751 0.00026003 -0.0427636
0.00305718 0.000755168 -0.040177
0.00235181 0.000705798 -0.0404305
0.00164287 0.000656409 -0.0406848
0.000930581 0.000607193 -0.04094
0.000215132 0.000558199 -0.041196
-0.000503203 0.000509499 -0.0414529
-0.00122408 0.000461198 -0.0417109
-0.00194708 0.000413423 -0.0419699
-0.00267169 0.000366315 -0.04223
-0.00339722 0.000320029 -0.0424913
-0.00412271 0.000274755 -0.042754
0.00337249 0.000780259 -0.0401687
0.00268834 0.000730097 -0.0404219
0.00200066 0.000679873 -0.0406758
0.00130963 0.000629805 -0.0409306
0.000615449 0.000579941 -0.0411864
-8.16185e-05 0.000530351 -0.0414431
-0.000781261 0.000481138 -0.0417009
-0.00148309 0.000432433 -0.0419597
-0.00218663 0.000384383 -0.0422197
-0.00289125 0.000337152 -0.0424809
-0.00359604 0.00029092 -0.0427434
0.00369562 0.0008061 -0.0401595
0.003033 0.000755204 -0.0404122
0.00236685 0.00070423 -0.0406658
0.00169738 0.000653401 -0.0409203
0.00102479 0.000602753 -0.0411758
0.000349318 0.000552352 -0.0414323
-0.000328742 0.000502303 -0.0416899
-0.00100904 0.000452743 -0.0419485
-0.00169114 0.000403824 -0.0422084
-0.00237446 0.00035588 -0.0424694
-0.00305818 0.000308595 -0.042732
0.00402623 0.000832715 -0.0401491
0.00338539 0.000781149 -0.0404015
0.00274103 0.000729514 -0.0406547
0.00209339 0.000678013 -0.0409089
0.00144264 0.000626668 -0.0411641
0.000789052 0.000575538 -0.0414204
0.000132886 0.000524736 -0.0416778
-0.000525549 0.000474404 -0.0419363
-0.00118611 0.000424695 -0.042196
-0.00184771 0.000375922 -0.042457
0.00436402 0.000860048 -0.0401376
0.00374507 0.000807919 -0.0403895
0.00312269 0.000755804 -0.0406424
0.0024971 0.000703739 -0.0408963
0.00186849 0.000651749 -0.0411513
0.00123706 0.000599933 -0.0414073
0.000603057 0.000548451 -0.0416645
-3.32662e-05 0.000497454 -0.0419229
-0.000671696 0.000447043 -0.0421826
-0.00245303 0.000421031 -0.0414888
-0.00327374 0.00037825 -0.0417479
-0.00409614 0.000336117 -0.0420079
-0.0049196 0.000294723 -0.0422688
-0.00574285 0.000253983 -0.042531
-0.00656526 0.000214185 -0.0427944
0.000303713 0.000570907 -0.0407121
-0.000489738 0.000525936 -0.0409683
-0.00128633 0.000481185 -0.0412254
-0.00208566 0.000436738 -0.0414833
-0.00288747 0.000392806 -0.041742
-0.00369087 0.000349446 -0.0420018
-0.00449541 0.000306755 -0.0422626
-0.00530026 0.000264811 -0.0425246
-0.0061043 0.000223853 -0.0427878
0.00139441 0.000637602 -0.040451
0.000623851 0.000591082 -0.0407066
-0.000149849 0.000544982 -0.0409624
-0.000926861 0.000499083 -0.0412192
-0.00170667 0.000453474 -0.0414769
-0.00248883 0.000408317 -0.0417355
-0.00327284 0.000363752 -0.0419951
-0.0040581 0.000319865 -0.0422557
-0.00484382 0.000276772 -0.0425175
-0.00562891 0.000234683 -0.0427805
0.00245137 0.000707196 -0.0401906
0.0017044 0.000659752 -0.040445
0.000954184 0.000612069 -0.0407
0.000200423 0.000564829 -0.0409558
-0.000556481 0.000517824 -0.0412123
-0.00131622 0.000471126 -0.0414698
-0.00207839 0.000424862 -0.0417282
-0.00284251 0.000379162 -0.0419875
-0.00360801 0.00033414 -0.042248
-0.00437411 0.000289934 -0.0425096
-0.00513978 0.000246745 -0.0427725
0.00275005 0.000730815 -0.0401843
0.00202377 0.000682302 -0.0404382
0.00129392 0.000633842 -0.0406929
0.000560704 0.000585571 -0.0409483
-0.000175667 0.000537534 -0.0412046
-0.000914904 0.000489804 -0.0414618
-0.00165664 0.00044249 -0.04172
-0.00240041 0.000395722 -0.0419792
-0.00314568 0.000349628 -0.0422394
-0.00389172 0.000304356 -0.0425009
-0.00463751 0.000260102 -0.0427637
0.00305718 0.000755195 -0.040177
0.00235181 0.00070583 -0.0404305
0.00164287 0.000656445 -0.0406848
0.000930582 0.000607233 -0.04094
0.000215133 0.000558244 -0.041196
-0.000503201 0.000509549 -0.041453
-0.00122408 0.000461253 -0.0417109
-0.00194708 0.000413483 -0.0419699
-0.00267169 0.00036638 -0.04223
-0.00339722 0.000320099 -0.0424914
-0.00412271 0.00027483 -0.042754
0.00337249 0.000780287 -0.0401688
0.00268835 0.00073013 -0.0404219
0.00200066 0.00067991 -0.0406758
0.00130963 0.000629846 -0.0409307
0.00061545 0.000579988 -0.0411864
-8.16174e-05 0.000530403 -0.0414432
-0.00078126 0.000481195 -0.0417009
-0.00148309 0.000432495 -0.0419597
-0.00218663 0.00038445 -0.0422197
-0.00289125 0.000337224 -0.0424809
-0.00359604 0.000290998 -0.0427435
0.00369562 0.000806129 -0.0401595
0.003033 0.000755238 -0.0404122
0.00236685 0.000704269 -0.0406658
0.00169739 0.000653444 -0.0409203
0.00102479 0.000602801 -0.0411758
0.000349319 0.000552405 -0.0414323
-0.000328741 0.000502361 -0.0416899
-0.00100904 0.000452807 -0.0419486
-0.00169114 0.000403893 -0.0422084
-0.00237445 0.000355955 -0.0424694
-0.00305818 0.000308676 -0.042732
0.00402623 0.000832745 -0.0401491
0.00338539 0.000781184 -0.0404015
0.00274103 0.000729554 -0.0406547
0.00209339 0.000678058 -0.0409089
0.00144264 0.000626718 -0.0411641
0.000789052 0.000575593 -0.0414204
0.000132886 0.000524797 -0.0416778
-0.000525548 0.00047447 -0.0419363
-0.00118611 0.000424767 -0.042196
-0.00184771 0.000375999 -0.0424571
0.00436402 0.000860078 -0.0401376
0.00374507 0.000807955 -0.0403895
0.00312269 0.000755846 -0.0406424
0.0024971 0.000703785 -0.0408963
0.00186849 0.0006518 -0.0411513
0.00123707 0.00059999 -0.0414073
0.000603058 0.000548513 -0.0416645
-3.32653e-05 0.000497522 -0.0419229
-0.000671695 0.000447118 -0.0421826
-0.0024418 0.000348023 -0.0413863
-0.00326235 0.000301371 -0.0416453
-0.00408456 0.000255382 -0.0419053
-0.00490783 0.000210152 -0.0421664
-0.00573088 0.000165608 -0.0424288
-0.00655309 0.000122031 -0.0426925
0.000314434 0.000507398 -0.0406127
-0.000478873 0.000458451 -0.0408686
-0.00127531 0.000409726 -0.0411255
-0.00207449 0.0003613 -0.0413832
-0.00287613 0.000313433 -0.0416419
-0.00367936 0.000266115 -0.0419017
-0.00448371 0.000219485 -0.0421626
-0.00528836 0.000173619 -0.0424247
-0.0060922 0.000128771 -0.0426883
0.00140495 0.000576114 -0.0403543
0.00063453 0.000525534 -0.0406097
-0.000139032 0.000475375 -0.0408652
-0.000915896 0.000425414 -0.0411218
-0.00169555 0.000375737 -0.0413793
-0.00247755 0.000326512 -0.0416378
-0.00326139 0.000277891 -0.0418974
-0.00404647 0.000229963 -0.0421581
-0.004832 0.00018285 -0.0424201
-0.0056169 0.000136776 -0.0426834
0.00246174 0.000647956 -0.0400967
0.0017149 0.000596382 -0.0403508
0.000964815 0.000544552 -0.0406055
0.000211192 0.000493163 -0.0408611
-0.000545569 0.000442005 -0.0411175
-0.00130516 0.000391149 -0.0413747
-0.00206717 0.000340727 -0.041633
-0.00283113 0.000290876 -0.0418924
-0.00359645 0.00024172 -0.0421529
-0.00436237 0.000193402 -0.0424147
-0.00512785 0.000146134 -0.0426779
0.00276039 0.000669831 -0.040093
0.00203423 0.000617113 -0.0403466
0.00130451 0.000564431 -0.040601
0.000571422 0.000511931 -0.0408562
-0.00016481 0.000459658 -0.0411123
-0.000903904 0.000407686 -0.0413694
-0.00164548 0.00035613 -0.0416274
-0.0023891 0.000305125 -0.0418866
-0.0031342 0.000254809 -0.0421469
-0.00388006 0.000205336 -0.0424085
-0.00462566 0.000156916 -0.0426716
0.00306748 0.000692538 -0.0400883
0.00236223 0.000638897 -0.0403416
0.00165341 0.000585221 -0.0405956
0.000941248 0.000531706 -0.0408505
0.000225931 0.000478405 -0.0411063
-0.000492265 0.000425392 -0.0413631
-0.001213 0.000372776 -0.041621
-0.00193585 0.00032069 -0.0418799
-0.00266029 0.000269283 -0.0421401
-0.00338565 0.000218719 -0.0424016
-0.00411095 0.000169202 -0.0426645
0.00338275 0.000716021 -0.0400827
0.00269872 0.000661527 -0.0403356
0.00201115 0.000606954 -0.0405893
0.00132024 0.000552523 -0.0408439
0.000626187 0.000498285 -0.0410994
-7.07477e-05 0.000444313 -0.041356
-0.00077025 0.000390714 -0.0416136
-0.00147193 0.000337626 -0.0418724
-0.00217531 0.000285203 -0.0421324
-0.00287976 0.000233618 -0.0423938
-0.00358438 0.000183067 -0.0426566
0.00370584 0.000740318 -0.0400761
0.00304333 0.000685041 -0.0403286
0.00237729 0.000629665 -0.0405819
0.00170794 0.000574416 -0.0408362
0.00103547 0.000519335 -0.0410915
0.000360119 0.000464491 -0.0413479
-0.000317807 0.000409995 -0.0416053
-0.000997963 0.000355987 -0.0418639
-0.00167991 0.000302627 -0.0421238
-0.00236306 0.000250264 -0.042385
-0.00304662 0.000198587 -0.0426478
0.00403642 0.000765458 -0.0400685
0.00339568 0.000709472 -0.0403205
0.00275142 0.00065339 -0.0405735
0.00210388 0.000597422 -0.0408275
0.00145325 0.000541593 -0.0410826
0.00079978 0.000485967 -0.0413387
0.000143741 0.000430665 -0.041596
-0.000514559 0.00037583 -0.0418544
-0.00117497 0.000321622 -0.0421142
-0.00183642 0.000268371 -0.0423753
0.00437416 0.000791389 -0.0400597
0.00375531 0.000734813 -0.0403114
0.00313302 0.00067822 -0.040564
0.00250753 0.00062165 -0.0408177
0.00187903 0.000565134 -0.0410725
0.00124772 0.000508776 -0.0413284
0.000613829 0.000452744 -0.0415855
-2.23653e-05 0.0003972 -0.0418438
-0.000660653 0.000342248 -0.0421035
-0.0024418 0.000348062 -0.0413864
-0.00326234 0.000301414 -0.0416453
-0.00408456 0.000255429 -0.0419053
-0.00490783 0.000210203 -0.0421664
-0.00573088 0.000165663 -0.0424288
-0.00655309 0.00012209 -0.0426926
0.000314435 0.000507427 -0.0406127
-0.000478872 0.000458484 -0.0408686
-0.00127531 0.000409763 -0.0411255
-0.00207449 0.000361341 -0.0413832
-0.00287613 0.000313478 -0.0416419
-0.00367936 0.000266164 -0.0419017
-0.00448371 0.000219538 -0.0421626
-0.00528836 0.000173676 -0.0424248
-0.0060922 0.000128833 -0.0426884
0.00140495 0.000576142 -0.0403543
0.000634531 0.000525565 -0.0406097
-0.00013903 0.00047541 -0.0408652
-0.000915895 0.000425453 -0.0411218
-0.00169555 0.00037578 -0.0413793
-0.00247755 0.00032656 -0.0416378
-0.00326139 0.000277942 -0.0418974
-0.00404647 0.000230018 -0.0421581
-0.00483199 0.000182909 -0.0424201
-0.00561689 0.00013684 -0.0426835
0.00246174 0.000647981 -0.0400967
0.0017149 0.00059641 -0.0403508
0.000964816 0.000544584 -0.0406056
0.000211193 0.0004932 -0.0408611
-0.000545568 0.000442046 -0.0411175
-0.00130516 0.000391194 -0.0413748
-0.00206717 0.000340776 -0.041633
-0.00283113 0.00029093 -0.0418924
-0.00359645 0.000241778 -0.0421529
-0.00436237 0.000193464 -0.0424147
-0.00512785 0.000146201 -0.0426779
0.00276039 0.000669857 -0.040093
0.00203423 0.000617142 -0.0403466
0.00130451 0.000564464 -0.040601
0.000571423 0.000511968 -0.0408562
-0.00016481 0.0004597 -0.0411123
-0.000903903 0.000407732 -0.0413694
-0.00164548 0.000356181 -0.0416274
-0.0023891 0.00030518 -0.0418866
-0.0031342 0.000254868 -0.0421469
-0.00388006 0.000205401 -0.0424086
-0.00462566 0.000156986 -0.0426716
0.00306748 0.000692564 -0.0400883
0.00236223 0.000638927 -0.0403416
0.00165341 0.000585255 -0.0405956
0.000941248 0.000531745 -0.0408505
0.000225932 0.000478449 -0.0411063
-0.000492264 0.00042544 -0.0413632
-0.001213 0.000372828 -0.041621
-0.00193585 0.000320747 -0.04188
-0.00266028 0.000269345 -0.0421401
-0.00338565 0.000218786 -0.0424016
-0.00411095 0.000169274 -0.0426646
0.00338275 0.000716048 -0.0400827
0.00269872 0.000661559 -0.0403356
0.00201115 0.000606989 -0.0405893
0.00132024 0.000552563 -0.0408439
0.000626188 0.00049833 -0.0410994
-7.07472e-05 0.000444363 -0.041356
-0.00077025 0.000390769 -0.0416137
-0.00147193 0.000337685 -0.0418724
-0.00217531 0.000285267 -0.0421325
-0.00287976 0.000233688 -0.0423938
-0.00358438 0.000183142 -0.0426566
0.00370584 0.000740346 -0.0400761
0.00304333 0.000685074 -0.0403286
0.00237729 0.000629702 -0.0405819
0.00170794 0.000574458 -0.0408362
0.00103547 0.000519381 -0.0410915
0.000360119 0.000464542 -0.0413479
-0.000317807 0.000410051 -0.0416053
-0.000997963 0.000356049 -0.041864
-0.00167991 0.000302694 -0.0421239
-0.00236306 0.000250336 -0.042385
-0.00304662 0.000198665 -0.0426478
0.00403642 0.000765487 -0.0400685
0.00339568 0.000709505 -0.0403205
0.00275142 0.000653428 -0.0405735
0.00210388 0.000597465 -0.0408275
0.00145325 0.00054164 -0.0410826
0.00079978 0.00048602 -0.0413387
0.000143741 0.000430723 -0.041596
-0.000514559 0.000375893 -0.0418544
-0.00117497 0.000321691 -0.0421142
-0.00183642 0.000268446 -0.0423753
0.00437416 0.000791419 -0.0400597
0.00375531 0.000734847 -0.0403114
0.00313302 0.00067826 -0.040564
0.00250753 0.000621695 -0.0408177
0.00187903 0.000565183 -0.0410725
0.00124772 0.00050883 -0.0413284
0.000613829 0.000452804 -0.0415855
-2.23652e-05 0.000397265 -0.0418438
-0.000660653 0.000342319 -0.0421035
-0.00243082 0.000274582 -0.0412837
-0.00325117 0.000224036 -0.0415426
-0.00407319 0.000174155 -0.0418025
-0.00489625 0.000125043 -0.0420637
-0.00571909 7.66785e-05 -0.0423263
-0.00654107 2.93098e-05 -0.0425904
0.000324861 0.00044354 -0.0405132
-0.000468288 0.000390584 -0.0407688
-0.00126456 0.000337846 -0.0410254
-0.00206357 0.000285411 -0.041283
-0.00286503 0.000233576 -0.0415415
-0.00366807 0.00018226 -0.0418013
-0.00447221 0.00013165 -0.0420622
-0.00527665 8.18426e-05 -0.0423246
-0.00608027 3.30878e-05 -0.0425885
0.00141517 0.000514299 -0.0402576
0.000644906 0.00045962 -0.0405126
-0.000128506 0.000405358 -0.0407679
-0.00090521 0.000351294 -0.0410242
-0.0016847 0.000297521 -0.0412816
-0.00246652 0.000244199 -0.0415399
-0.00325017 0.00019148 -0.0417995
-0.00403506 0.000139475 -0.0420602
-0.00482038 8.83176e-05 -0.0423224
-0.00560506 3.8235e-05 -0.0425861
0.00247178 0.000588424 -0.0400027
0.00172507 0.000532671 -0.0402566
0.000975131 0.000476662 -0.040511
0.000221657 0.000421077 -0.0407663
-0.000534948 0.000365723 -0.0410224
-0.00129438 0.000310673 -0.0412795
-0.00205622 0.000256057 -0.0415377
-0.00282 0.000202018 -0.041797
-0.00358513 0.00014869 -0.0420575
-0.00435085 9.62284e-05 -0.0423195
-0.00511612 4.48571e-05 -0.042583
0.00277038 0.000608552 -0.0400016
0.00204435 0.000551586 -0.0402549
0.00131477 0.000494635 -0.040509
0.000581825 0.000437856 -0.040764
-0.000154259 0.000381302 -0.0410199
-0.000893197 0.000325048 -0.0412767
-0.00163461 0.000269211 -0.0415347
-0.00237806 0.00021393 -0.0417938
-0.00312297 0.000159352 -0.0420541
-0.00386864 0.000105643 -0.0423159
-0.00461404 5.30272e-05 -0.0425792
0.00307743 0.000629565 -0.0399995
0.0023723 0.000571611 -0.0402525
0.00166361 0.000513595 -0.0405062
0.000951585 0.000455728 -0.0407609
0.00023641 0.00039807 -0.0410165
-0.000481637 0.000340695 -0.0412731
-0.00120221 0.000283716 -0.0415309
-0.0019249 0.000227273 -0.0417898
-0.00264916 0.000171521 -0.0420499
-0.00337433 0.000116634 -0.0423116
-0.00409944 6.28327e-05 -0.0425747
0.00339264 0.000651418 -0.0399966
0.00270873 0.000592555 -0.0402491
0.00202129 0.000533579 -0.0405025
0.00133051 0.000474731 -0.0407569
0.000636591 0.000416067 -0.0410122
-6.02017e-05 0.000357662 -0.0412687
-0.000759555 0.000299628 -0.0415262
-0.00146108 0.000242106 -0.0417849
-0.00216429 0.000185262 -0.0420449
-0.00286856 0.000129275 -0.0423064
-0.00357298 7.43564e-05 -0.0425694
0.00371569 0.000674158 -0.0399926
0.00305329 0.000614457 -0.0402448
0.00238737 0.000554627 -0.0404979
0.00171814 0.000494904 -0.040752
0.00104579 0.000435336 -0.041007
0.000370579 0.000375997 -0.0412632
-0.000307205 0.000317 -0.0415206
-0.00098721 0.000258491 -0.0417791
-0.00166899 0.000200638 -0.042039
-0.00235197 0.00014381 -0.0423003
-0.00303534 8.76834e-05 -0.0425633
0.00404622 0.000697814 -0.0399877
0.00340558 0.000637359 -0.0402395
0.00276143 0.000576776 -0.0404922
0.00211401 0.000516286 -0.040746
0.0014635 0.000455918 -0.0410008
0.000810151 0.000395744 -0.0412568
0.000154246 0.000335884 -0.0415139
-0.000503911 0.000276487 -0.0417724
-0.00116416 0.000217732 -0.0420321
-0.00182545 0.000159951 -0.0422934
0.00438391 0.000722346 -0.0399816
0.00376515 0.000661257 -0.040233
0.00314296 0.000600127 -0.0404855
0.00251758 0.000538998 -0.0407389
0.00188919 0.000477899 -0.0409935
0.00125799 0.000416943 -0.0412492
0.000624231 0.000356306 -0.0415062
-1.18276e-05 0.000296152 -0.0417645
-0.000649965 0.000236601 -0.0420242
-0.0024193 0.000200807 -0.0411807
-0.00323946 0.000146327 -0.0414395
-0.00406126 9.25113e-05 -0.0416994
-0.0048841 3.94719e-05 -0.0419606
-0.0057067 -1.2752e-05 -0.0422234
-0.00652844 -6.39424e-05 -0.0424879
0.000335777 0.000379456 -0.0404133
-0.000457203 0.000322442 -0.0406687
-0.0012533 0.000265635 -0.0409251
-0.00205212 0.000209143 -0.0411825
-0.00285339 0.00015329 -0.0414409
-0.00365622 9.79303e-05 -0.0417006
-0.00446015 4.32917e-05 -0.0419616
-0.00526436 -1.04973e-05 -0.0422241
-0.00606773 -6.31902e-05 -0.0424884
0.00142587 0.000452259 -0.0401605
0.00065577 0.000393434 -0.0404153
-0.000117485 0.00033501 -0.0406703
-0.000894015 0.000276788 -0.0409264
-0.00167332 0.000218871 -0.0411835
-0.00245496 0.000161406 -0.0414418
-0.00323841 0.000104543 -0.0417013
-0.00402308 4.84126e-05 -0.0419621
-0.00480818 -6.83141e-06 -0.0422244
-0.00559263 -6.09609e-05 -0.0424884
0.00248228 0.000528676 -0.0399085
0.00173572 0.000468692 -0.0401621
0.000985932 0.00040846 -0.0404162
0.000232617 0.000348618 -0.0406713
-0.000523822 0.000289011 -0.0409271
-0.00128308 0.000229717 -0.0411841
-0.00204474 0.000170858 -0.0414421
-0.00280832 0.00011258 -0.0417013
-0.00357325 5.50315e-05 -0.0419619
-0.00433876 -1.62009e-06 -0.042224
-0.0051038 -5.71405e-05 -0.0424878
0.00278084 0.00054703 -0.03991
0.00205495 0.00048576 -0.040163
0.00132551 0.000424482 -0.0404169
0.00059272 0.000363365 -0.0406716
-0.000143205 0.000302471 -0.0409272
-0.000881976 0.000241881 -0.0411839
-0.00162322 0.00018171 -0.0414417
-0.00236648 0.000122099 -0.0417007
-0.00311119 6.32083e-05 -0.0419611
-0.00385665 5.21231e-06 -0.042223
-0.00460183 -5.16499e-05 -0.0424866
0.00308784 0.000566303 -0.0399106
0.00238284 0.000503981 -0.0401632
0.0016743 0.000441565 -0.0404167
0.000962412 0.000379288 -0.0406711
0.000247389 0.000317211 -0.0409265
-0.000470499 0.000255417 -0.0411829
-0.00119091 0.00019402 -0.0414405
-0.00191341 0.000133162 -0.0416994
-0.00263749 7.30108e-05 -0.0419596
-0.00336246 1.37455e-05 -0.0422213
-0.00408736 -4.43933e-05 -0.0424847
0.003403 0.000586484 -0.0399103
0.00271922 0.000523191 -0.0401626
0.0020319 0.000459754 -0.0404157
0.00134126 0.000396429 -0.0406698
0.000647491 0.000333277 -0.0409249
-4.91501e-05 0.000270379 -0.0411812
-0.000748343 0.000207849 -0.0414386
-0.0014497 0.000145835 -0.0416972
-0.00215273 8.45088e-05 -0.0419573
-0.00285681 2.40612e-05 -0.0422188
-0.00356102 -3.52808e-05 -0.0424821
0.003726 0.000607626 -0.0399091
0.00306372 0.000543439 -0.040161
0.00239792 0.000479092 -0.0404138
0.00172882 0.000414832 -0.0406676
0.00105661 0.000350715 -0.0409225
0.00038154 0.000286818 -0.0411785
-0.000296092 0.000223256 -0.0414357
-0.000975935 0.000160181 -0.0416942
-0.00165755 9.77731e-05 -0.0419541
-0.00234034 3.64228e-05 -0.0422154
-0.00302351 -2.42198e-05 -0.0424786
0.00405647 0.000629758 -0.0399068
0.00341595 0.000564771 -0.0401584
0.00277192 0.000499621 -0.0404109
0.00212461 0.000434543 -0.0406644
0.00147423 0.000369574 -0.040919
0.000821016 0.000304784 -0.0411748
0.000165255 0.000240297 -0.0414319
-0.000492749 0.000176266 -0.0416902
-0.00115283 0.000112902 -0.0419499
-0.00181394 5.05297e-05 -0.0422113
0.00439411 0.00065286 -0.0399035
0.00377545 0.000587185 -0.0401547
0.00315337 0.000521441 -0.0404069
0.0025281 0.000455685 -0.0406601
0.00189983 0.000389937 -0.0409145
0.00126876 0.000324315 -0.0411701
0.00063513 0.000259001 -0.0414269
-7.82808e-07 0.000194166 -0.0416851
-0.000638759 0.000129947 -0.0419448
CELL_DATA 2212
SCALARS MARKER int 1
LOOKUP_TABLE default
1
1
1
1
1
1
1
1
1
1
1
1
1
1
1
1
1
1
1
1
1
1
1
1
1
1
1
1
1
1
1
1
1
1
1
1
1
1
1
1
1
1
1
1
1
1
1
1
1
1
1
1
1
1
1
1
1
1
1
1
1
1
1
1
1
1
1
1
1
1
1
1
1
1
1
1
1
1
1
1
1
1
1
1
1
1
1
1
1
1
1
1
1
1
1
1
1
1
1
1
1
1
1
1
1
1
1
1
1
1
1
1
1
1
1
1
1
1
1
1
1
1
1
1
1
1
1
1
1
1
1
1
1
1
1
1
1
1
1
1
1
1
1
1
1
1
1
1
1
1
1
1
1
1
1
1
1
1
2
2
2
2
2
2
2
2
2
2
2
2
2
2
2
2
2
2
2
2
2
2
2
2
2
2
2
2
2
2
2
2
2
2
2
2
2
2
2
2
2
2
2
2
2
2
2
2
2
2
2
2
2
2
2
2
2
2
2
2
2
2
2
2
2
2
2
2
2
2
2
2
2
2
2
2
2
2
2
1
1
1
1
1
1
1
1
1
1
1
1
1
1
1
1
1
1
1
1
1
1
1
1
1
1
1
1
1
1
1
1
1
1
1
1
1
1
1
1
1
1
1
1
1
1
1
1
1
1
1
1
1
1
1
1
1
1
1
1
1
1
1
1
1
1
1
1
1
1
1
1
1
1
1
1
1
1
1
1
1
1
1
1
1
1
1
1
1
1
1
1
1
1
1
1
1
1
1
1
1
1
1
1
1
1
1
1
1
1
1
1
1
1
1
1
1
1
1
1
1
1
1
1
1
1
1
1
1
1
1
1
1
1
1
1
1
1
1
1
1
1
1
1
1
1
1
1
1
1
1
1
1
1
1
1
1
1
1
1
1
1
1
1
1
1
1
1
1
1
1
1
1
1
1
1
1
1
1
1
1
1
1
1
1
1
1
1
1
1
1
1
1
1
1
1
1
1
1
1
1
1
1
1
1
1
1
1
1
1
1
1
1
1
1
1
1
1
1
1
1
1
1
1
1
1
1
1
1
1
1
1
1
1
1
1
1
1
1
1
1
1
1
1
1
1
1
1
1
1
1
1
1
1
1
1
1
1
1
1
1
1
1
1
1
1
1
1
1
1
1
1
1
1
1
1
1
1
1
1
1
1
1
1
1
1
1
1
1
1
1
1
1
1
1
1
1
1
1
1
1
1
1
1
1
1
1
1
1
1
1
1
1
1
1
1
1
1
1
1
1
1
1
1
1
1
1
1
1
1
1
1
1
1
1
1
1
1
1
1
1
1
1
1
1
1
1
1
1
1
1
1
1
1
1
1
1
1
1
1
1
1
1
1
1
1
1
1
1
1
1
1
1
1
1
1
1
1
1
1
1
1
1
1
1
1
1
1
1
1
1
1
1
1
1
1
1
1
1
1
1
1
1
1
1
1
1
1
1
1
1
1
1
1
1
1
1
1
1
1
1
1
1
1
1
1
1
1
1
1
1
1
1
1
1
1
1
1
1
1
1
1
1
1
1
1
1
1
1
1
1
1
1
1
1
1
1
1
1
1
1
1
1
1
1
1
1
1
1
1
1
1
1
1
1
1
1
1
1
1
1
1
1
1
1
1
1
1
1
1
1
1
1
1
1
1
1
1
1
1
1
1
1
1
1
1
1
1
1
1
1
1
1
1
1
1
1
1
1
1
1
1
1
1
1
1
1
1
1
1
1
1
1
1
1
1
1
1
1
1
1
1
1
1
1
1
1
1
1
1
1
1
1
1
1
1
1
1
1
1
1
1
1
1
1
1
1
1
1
1
1
1
1
1
1
1
1
1
1
1
1
1
1
1
1
1
1
1
1
1
1
1
1
1
1
1
1
1
1
1
1
1
1
1
1
1
1
1
1
1
1
1
1
1
1
1
1
1
1
1
1
1
1
1
1
1
1
1
1
1
1
1
1
1
1
1
1
1
1
1
1
1
1
1
1
1
1
1
1
1
1
1
1
1
1
1
1
1
1
1
1
1
1
1
1
1
1
1
1
1
1
1
1
1
1
1
1
1
1
1
1
1
1
1
1
1
1
1
1
1
1
1
1
1
1
1
1
1
1
1
1
1
1
1
1
1
1
1
1
1
1
5
5
5
5
5
5
5
5
5
5
5
5
5
5
5
5
5
5
5
5
5
5
5
5
5
5
5
5
5
5
5
5
5
5
5
5
5
5
5
5
5
5
5
5
5
5
5
5
5
5
5
5
5
5
5
5
5
5
5
5
5
5
5
5
5
5
5
5
5
5
5
5
5
5
5
5
5
5
5
1
1
1
1
1
1
1
1
1
1
1
1
1
1
1
1
1
1
1
1
1
1
1
1
1
1
1
1
1
1
1
1
1
1
1
1
1
1
1
1
1
1
1
1
1
1
1
1
1
1
1
1
1
1
1
1
1
1
1
1
1
1
1
1
1
1
1
1
1
1
1
1
1
1
1
1
1
1
1
1
1
1
1
1
1
1
1
1
1
1
1
1
1
1
1
1
1
1
1
1
1
1
1
1
1
1
1
1
1
1
1
1
1
1
1
1
1
1
1
1
1
1
1
1
1
1
1
1
1
1
1
1
1
1
1
1
1
1
1
1
1
1
1
1
1
1
1
1
1
1
1
1
1
1
1
1
1
1
1
1
1
1
1
1
1
1
1
1
1
1
1
1
1
1
1
1
1
1
1
1
1
1
1
1
1
1
1
1
1
1
1
1
1
1
1
1
1
1
1
1
1
1
1
1
1
1
1
1
1
1
1
1
1
1
1
1
1
1
1
1
1
1
1
1
1
1
1
1
1
1
1
1
1
1
1
1
1
1
1
1
1
1
1
1
1
1
1
1
1
1
1
1
1
1
1
1
1
1
1
1
1
1
1
1
1
1
1
1
1
1
1
1
1
1
1
1
1
1
1
1
1
1
1
1
1
1
1
1
1
1
1
1
1
1
1
1
1
1
1
1
1
1
1
1
1
1
1
1
1
1
1
1
1
1
1
1
1
1
1
1
1
1
1
1
1
1
1
1
1
1
1
1
1
1
1
1
1
1
1
1
1
1
1
1
1
1
1
1
1
1
1
1
1
1
1
1
1
1
1
1
1
1
1
1
1
1
1
1
1
1
1
1
1
1
1
1
1
1
1
1
1
1
1
1
1
1
1
1
1
1
1
1
1
1
1
1
1
1
1
1
1
1
1
1
1
1
1
1
1
1
1
1
1
1
1
1
1
1
1
1
1
1
1
1
1
1
1
1
1
1
1
1
1
1
1
1
1
1
1
1
1
1
1
1
1
1
1
1
1
1
1
1
1
1
1
1
1
1
1
1
1
1
1
1
1
1
1
1
1
1
1
1
1
1
1
1
1
1
1
1
1
1
1
1
1
1
1
1
1
1
1
1
1
1
1
1
1
1
1
1
1
1
1
1
1
1
1
1
1
1
1
1
1
1
1
1
1
1
1
1
1
1
1
1
1
1
1
1
1
1
1
1
1
1
1
1
1
1
1
1
1
1
1
1
1
1
1
1
1
1
1
1
1
6
6
6
6
6
6
6
6
6
6
6
6
6
6
6
6
6
6
6
6
6
6
6
6
6
6
6
6
6
6
6
6
6
6
6
6
6
6
6
6
6
6
6
6
6
6
6
6
6
6
6
6
6
6
6
6
6
6
6
6
6
6
6
6
6
6
6
6
6
6
6
6
6
6
6
6
6
6
6
1
1
1
1
1
1
1
1
1
1
1
1
1
1
1
1
1
1
1
1
1
1
1
1
1
1
1
1
1
1
1
1
1
1
1
1
1
1
1
1
1
1
1
1
1
1
1
1
1
1
1
1
1
1
1
1
1
1
1
1
1
1
1
1
1
1
1
1
1
1
1
1
1
1
1
1
1
1
1
7
7
7
7
7
7
7
7
7
7
7
7
7
7
7
7
7
7
7
7
7
7
7
7
7
7
7
7
7
7
7
7
7
7
7
7
7
7
7
7
7
7
7
7
7
7
7
7
7
7
7
7
7
7
7
7
7
7
7
7
7
7
7
7
7
7
7
7
7
7
7
7
7
7
7
7
7
7
7
1
1
1
1
1
1
1
1
1
1
1
1
1
1
1
1
1
1
1
1
1
1
1
1
1
1
1
1
1
1
1
1
1
1
1
1
1
1
1
1
1
1
1
1
1
1
1
1
1
1
1
1
1
1
1
1
1
1
1
1
1
1
1
1
1
1
1
1
1
1
1
1
1
1
1
1
1
1
1
1
1
1
1
1
1
1
1
1
1
1
1
1
1
1
1
1
1
1
1
1
1
1
1
1
1
1
1
1
1
1
1
1
1
1
1
1
1
1
1
1
1
1
1
1
1
1
1
1
1
1
1
1
1
1
1
1
1
1
1
1
1
1
1
1
1
1
1
1
1
1
1
1
1
1
1
1
1
1
1
1
1
1
1
1
1
1
1
1
1
1
1
1
1
1
1
1
1
1
1
1
1
1
1
1
1
1
1
1
1
1
1
1
1
1
1
1
1
1
1
1
1
1
1
1
1
1
1
1
1
1
1
1
1
1
1
1
1
1
1
1
1
1
1
1
1
1
1
1
1
1
1
1
1
1
1
1
1
1
1
1
1
1
1
1
1
1
1
1
1
1
1
1
1
1
1
1
1
1
1
1
1
1
1
1
1
1
1
1
1
1
1
1
1
1
1
1
1
1
1
1
1
1
1
1
1
1
1
1
1
1
1
1
1
1
1
1
1
1
1
1
1
1
1
1
1
1
1
1
1
1
1
1
1
1
1
1
1
1
1
1
1
1
1
1
1
1
1
1
1
1
1
1
1
1
1
1
1
1
1
1
1
1
1
1
1
1
1
1
1
1
1
1
1
1
1
1
1
1
1
1
1
1
1
1
1
1
1
1
1
1
1
1
1
1
1
1
1
1
1
1
1
1
1
1
1
1
1
1
1
1
1
1
1
1
1
SCALARS LOCAL_STRESS double 6
LOOKUP_TABLE default
-8.06761 -0.280913 -0.00312534 1.07847 -0.000118153 0.0199854
-7.92859 -0.272948 -0.00299325 1.07893 -8.79439e-05 0.0213293
-7.76086 -0.264528 -0.00270424 1.07971 0.000294585 0.0230554
-7.58134 -0.255229 -0.00269707 1.08055 0.00029469 0.0242127
-7.38941 -0.245514 -0.00345477 1.07966 0.000115978 0.0252924
-8.56577 -0.297449 -0.00151716 1.0693 0.000701402 0.0162963
-8.47535 -0.293288 -0.00185912 1.07231 0.000376693 0.0173947
-8.38018 -0.289178 -0.00275803 1.07468 -7.65943e-06 0.0180425
-8.26717 -0.283639 -0.00319134 1.07622 -0.0001278 0.0195325
-8.13335 -0.276558 -0.0030647 1.07691 0.000367263 0.0211742
-7.97836 -0.269383 -0.00320047 1.07733 0.000396703 0.0227754
-7.80705 -0.261227 -0.00342445 1.07781 0.000404018 0.0241835
-7.6197 -0.252232 -0.00398853 1.07769 0.000575403 0.0253443
-8.8094 -0.304856 -0.00272301 1.06503 0.00073473 0.0151175
-8.74055 -0.300244 -0.0024521 1.06697 0.000860704 0.0161603
-8.65771 -0.296543 -0.00267468 1.06991 0.000529255 0.0171396
-8.56606 -0.29194 -0.00285701 1.07249 0.000546008 0.0181486
-8.46046 -0.286494 -0.00297834 1.07416 0.000517858 0.0194144
-8.33525 -0.280444 -0.00306701 1.07499 0.000508002 0.0209594
-8.19009 -0.273939 -0.00320444 1.07542 0.000521924 0.0225345
-8.02714 -0.266589 -0.00339923 1.07558 0.00051476 0.0240365
-7.84916 -0.25901 -0.00413133 1.07544 0.000758212 0.0252488
-9.04325 -0.310536 -0.00375644 1.05797 0.000944256 0.0131405
-8.98127 -0.307288 -0.00358236 1.0617 0.000731222 0.014459
-8.9156 -0.30166 -0.00248113 1.06502 0.000561314 0.0155674
-8.84159 -0.298333 -0.00263666 1.06773 0.000610071 0.0167244
-8.75618 -0.294538 -0.0028015 1.07009 0.000633698 0.0178772
-8.65651 -0.290059 -0.00293929 1.07177 0.000630941 0.0191917
-8.53932 -0.284945 -0.00305869 1.07273 0.000632695 0.0206921
-8.40351 -0.279257 -0.00320296 1.07318 0.000642345 0.0222649
-8.24916 -0.272779 -0.00338869 1.07316 0.000636928 0.0238427
-8.07963 -0.266444 -0.00423203 1.07293 0.00086964 0.0251663
-9.19632 -0.30811 -0.00248932 1.057 0.000931638 0.0124526
-9.14338 -0.305669 -0.00232658 1.05996 0.000586056 0.0138887
-9.08956 -0.303238 -0.00245084 1.06276 0.000644245 0.0150882
-9.02406 -0.30065 -0.00259715 1.06535 0.000695739 0.016301
-8.94602 -0.297702 -0.00275706 1.06757 0.000727151 0.0175465
-8.85362 -0.294185 -0.00290347 1.0692 0.00074123 0.0188957
-8.7449 -0.290036 -0.00303983 1.07019 0.000753348 0.020381
-8.61848 -0.285252 -0.00319024 1.07064 0.000764718 0.0219706
-8.47305 -0.279732 -0.00338016 1.07055 0.00076137 0.0236286
-8.31108 -0.274313 -0.00414684 1.07025 0.000946408 0.0250944
-9.35466 -0.3086 -0.0026532 1.05484 0.000887703 0.0121212
-9.30707 -0.306861 -0.00228052 1.05754 0.000664252 0.0134019
-9.26205 -0.305241 -0.00240641 1.06026 0.000728022 0.0145839
-9.20534 -0.303468 -0.00255639 1.06277 0.000785923 0.0158502
-9.13547 -0.301417 -0.00271949 1.06489 0.000824193 0.0171624
-9.0512 -0.298878 -0.00287139 1.06645 0.000849847 0.0185365
-8.9515 -0.295722 -0.00301507 1.06739 0.000872987 0.0200235
-8.83493 -0.291901 -0.00317128 1.0678 0.000890245 0.0216495
-8.69904 -0.287368 -0.0033571 1.06773 0.000895254 0.023398
-8.54391 -0.282686 -0.00391442 1.06732 0.0010211 0.0250067
-9.50845 -0.309335 -0.00264687 1.05268 0.000865867 0.0117029
-9.4685 -0.308498 -0.00222831 1.055 0.000734059 0.012833
-9.43266 -0.30769 -0.00234907 1.05754 0.000815646 0.0140255
-9.38542 -0.306772 -0.00251305 1.05997 0.000879799 0.0153614
-9.32429 -0.305662 -0.00268587 1.06204 0.000922364 0.0167287
-9.24872 -0.304137 -0.0028398 1.06349 0.000957728 0.0181168
-9.15879 -0.302013 -0.00298545 1.06431 0.000995241 0.0196171
-9.05293 -0.299203 -0.00314455 1.06467 0.0010191 0.021298
-8.92801 -0.295136 -0.00310942 1.06459 0.00110637 0.0231462
-8.78175 -0.291557 -0.00363022 1.06434 0.00113846 0.0249194
-9.65669 -0.3105 -0.00251722 1.05043 0.000863844 0.0111672
-9.62639 -0.310636 -0.00215251 1.05232 0.000808582 0.0121515
-9.60107 -0.310631 -0.00228637 1.05456 0.000909526 0.0134002
-9.56418 -0.310558 -0.00247421 1.05694 0.000976223 0.0148335
-9.51202 -0.310405 -0.00265708 1.05898 0.00101772 0.0162429
-9.4457 -0.309939 -0.00280888 1.06029 0.00106456 0.0176374
-9.3667 -0.308921 -0.00295448 1.06095 0.00111953 0.0191677
-9.27086 -0.30715 -0.00315179 1.06159 0.000451888 0.0206949
-9.14764 -0.303358 -0.00250165 1.0612 0.000595617 0.0219932
-9.80134 -0.31213 -0.00230116 1.04776 0.00101846 0.0106388
-9.77947 -0.312205 -0.00147204 1.04974 0.000925681 0.0115072
-9.76434 -0.313243 -0.00169348 1.05179 0.00102401 0.0128218
-9.7423 -0.315196 -0.00255612 1.05365 0.00113129 0.0142866
-9.70168 -0.316363 -0.00297978 1.05536 0.00122269 0.0157234
-9.64087 -0.316031 -0.00258606 1.05689 0.0012493 0.0171607
-9.56671 -0.315139 -0.00209659 1.05793 0.00118714 0.0187011
-9.49235 -0.315658 -0.00311221 1.05821 0.000947046 0.0208474
7.24554 -1.19273 -0.00293363 0.244875 0.0367615 -0.033421
7.31903 -1.18506 -0.00288195 0.241563 0.0381426 -0.0365377
7.40884 -1.1762 -0.00267081 0.236588 0.040018 -0.0401893
7.51036 -1.16631 -0.00260219 0.231831 0.0420374 -0.0432347
7.60001 -1.155 -0.00316356 0.227094 0.0436567 -0.0465531
6.9602 -1.2111 -0.00126587 0.262045 0.0308829 -0.0260313
7.02711 -1.20825 -0.00170951 0.259284 0.0325165 -0.0287688
7.08924 -1.20499 -0.00274136 0.256437 0.0337007 -0.031243
7.15621 -1.19974 -0.00301882 0.253204 0.0350289 -0.0344417
7.22703 -1.19289 -0.00288018 0.249561 0.036313 -0.0381421
7.30271 -1.1849 -0.00302518 0.244946 0.0384408 -0.0415579
7.39188 -1.17582 -0.00329172 0.240067 0.0406321 -0.044965
7.48472 -1.16554 -0.00373685 0.234966 0.042006 -0.0487793
6.82616 -1.22054 -0.0024624 0.270913 0.0284989 -0.0241193
6.87646 -1.21742 -0.00219862 0.269377 0.0293501 -0.0272714
6.93984 -1.21495 -0.00247986 0.266606 0.0307699 -0.029926
7.00711 -1.21151 -0.00274493 0.263913 0.0318794 -0.0329735
7.07195 -1.20679 -0.00284691 0.261007 0.033093 -0.036295
7.1358 -1.2007 -0.00286536 0.257392 0.0346601 -0.0398797
7.20553 -1.19344 -0.00299835 0.252974 0.0365934 -0.0434768
7.28429 -1.18496 -0.003236 0.248133 0.0387029 -0.0470665
7.3674 -1.17593 -0.00394221 0.242799 0.040238 -0.0508832
6.66959 -1.2271 -0.00364686 0.280401 0.0258343 -0.0214297
6.73301 -1.22599 -0.00336808 0.278326 0.0267067 -0.024671
6.80535 -1.22296 -0.00221254 0.27721 0.0277713 -0.0277363
6.8617 -1.22089 -0.00242876 0.274737 0.0289114 -0.0309904
6.92035 -1.21802 -0.00264647 0.271939 0.0300699 -0.0342931
6.97885 -1.21402 -0.00277375 0.2688 0.031357 -0.0378018
7.03787 -1.20877 -0.00284879 0.265106 0.0329014 -0.0415122
7.1011 -1.20229 -0.00298596 0.260767 0.0347236 -0.0452835
7.17086 -1.19452 -0.00320416 0.25593 0.0367373 -0.0490884
7.24454 -1.18649 -0.00402877 0.250456 0.0383789 -0.0530144
6.63781 -1.22989 -0.00226087 0.28879 0.0237657 -0.0218477
6.68444 -1.22918 -0.00209762 0.286885 0.0250365 -0.0251249
6.73038 -1.22836 -0.00219638 0.285022 0.0259736 -0.0285708
6.77929 -1.22696 -0.00237767 0.282608 0.0270376 -0.0320264
6.83009 -1.22477 -0.00257207 0.279738 0.0281929 -0.0355557
6.88138 -1.22152 -0.00271354 0.276452 0.0294942 -0.0392401
6.9338 -1.21708 -0.00281863 0.272683 0.0310251 -0.0430844
6.98987 -1.21144 -0.00296155 0.268367 0.0328055 -0.0470241
7.05142 -1.20448 -0.00317777 0.263504 0.0347629 -0.0510526
7.11697 -1.19714 -0.00391603 0.257955 0.0364279 -0.0551796
6.5735 -1.23428 -0.00240926 0.296505 0.0219297 -0.0225517
6.61212 -1.23393 -0.00205902 0.294473 0.0231593 -0.0258483
6.65101 -1.23385 -0.00214805 0.292638 0.0240672 -0.0293929
6.69277 -1.23317 -0.00232071 0.290253 0.0251071 -0.0330264
6.73596 -1.23171 -0.00251156 0.287323 0.0262384 -0.0367605
6.77939 -1.22925 -0.00266074 0.283926 0.0275149 -0.0406186
6.82391 -1.22564 -0.00277846 0.280096 0.0290331 -0.0446152
6.87206 -1.22085 -0.00292257 0.275789 0.0308266 -0.0487279
6.92591 -1.21479 -0.00313581 0.270911 0.0327951 -0.0529659
6.9842 -1.20791 -0.00365396 0.265282 0.0344747 -0.0573154
6.50842 -1.23857 -0.00233929 0.30392 0.0198773 -0.0232813
6.53668 -1.23882 -0.00197896 0.30182 0.0210325 -0.0265808
6.56749 -1.23943 -0.00206693 0.300034 0.0220269 -0.0301985
6.60212 -1.23951 -0.0022564 0.297685 0.0231026 -0.0339904
6.63784 -1.23884 -0.00245854 0.294697 0.024205 -0.0379055
6.67279 -1.23718 -0.00261162 0.2912 0.0254266 -0.0419374
6.70826 -1.23443 -0.00273244 0.287324 0.0269281 -0.0461145
6.74771 -1.23054 -0.00287355 0.283044 0.0287735 -0.0504223
6.79655 -1.22489 -0.00276691 0.278552 0.0306945 -0.0549357
6.84792 -1.21916 -0.00334274 0.272734 0.0324678 -0.0594625
6.44197 -1.24279 -0.00211238 0.310896 0.0176101 -0.023994
6.45796 -1.24386 -0.00185454 0.308822 0.0186495 -0.0273138
6.47952 -1.2451 -0.00196062 0.307172 0.0198494 -0.0309968
6.50723 -1.24595 -0.00217992 0.304904 0.0210264 -0.0349203
6.53564 -1.2461 -0.00239552 0.301858 0.0220992 -0.0389785
6.56149 -1.24529 -0.00255546 0.298262 0.0232469 -0.0431855
6.58683 -1.24343 -0.00268765 0.294358 0.0247227 -0.047588
6.62002 -1.24066 -0.00291428 0.290059 0.0269434 -0.0514451
6.66046 -1.23505 -0.00237793 0.285356 0.0283635 -0.0557164
6.36815 -1.24705 -0.00193659 0.317526 0.0152292 -0.0248282
6.38607 -1.24837 -0.00115701 0.315739 0.0162741 -0.0280934
6.39757 -1.25043 -0.00142126 0.314079 0.0176738 -0.0318401
6.40316 -1.25283 -0.00239968 0.311748 0.0188731 -0.0359217
6.41786 -1.25401 -0.00283622 0.30873 0.0198599 -0.0401673
6.44607 -1.25342 -0.00236651 0.305228 0.020996 -0.0444912
6.47683 -1.25179 -0.00176143 0.301297 0.0225681 -0.0489013
6.49239 -1.25073 -0.00260708 0.296956 0.024953 -0.053627
0 0 0 0 0 0
0 0 0 0 0 0
0 0 0 0 0 0
0 0 0 0 0 0
0 0 0 0 0 0
0 0 0 0 0 0
0 0 0 0 0 0
0 0 0 0 0 0
0 0 0 0 0 0
0 0 0 0 0 0
0 0 0 0 0 0
0 0 0 0 0 0
0 0 0 0 0 0
0 0 0 0 0 0
0 0 0 0 0 0
0 0 0 0 0 0
0 0 0 0 0 0
0 0 0 0 0 0
0 0 0 0 0 0
0 0 0 0 0 0
0 0 0 0 0 0
0 0 0 0 0 0
0 0 0 0 0 0
0 0 0 0 0 0
0 0 0 0 0 0
0 0 0 0 0 0
0 0 0 0 0 0
0 0 0 0 0 0
0 0 0 0 0 0
0 0 0 0 0 0
0 0 0 0 0 0
0 0 0 0 0 0
0 0 0 0 0 0
0 0 0 0 0 0
0 0 0 0 0 0
0 0 0 0 0 0
0 0 0 0 0 0
0 0 0 0 0 0
0 0 0 0 0 0
0 0 0 0 0 0
0 0 0 0 0 0
0 0 0 0 0 0
0 0 0 0 0 0
0 0 0 0 0 0
0 0 0 0 0 0
0 0 0 0 0 0
0 0 0 0 0 0
0 0 0 0 0 0
0 0 0 0 0 0
0 0 0 0 0 0
0 0 0 0 0 0
0 0 0 0 0 0
0 0 0 0 0 0
0 0 0 0 0 0
0 0 0 0 0 0
0 0 0 0 0 0
0 0 0 0 0 0
0 0 0 0 0 0
0 0 0 0 0 0
0 0 0 0 0 0
0 0 0 0 0 0
0 0 0 0 0 0
0 0 0 0 0 0
0 0 0 0 0 0
0 0 0 0 0 0
0 0 0 0 0 0
0 0 0 0 0 0
0 0 0 0 0 0
0 0 0 0 0 0
0 0 0 0 0 0
0 0 0 0 0 0
0 0 0 0 0 0
0 0 0 0 0 0
0 0 0 0 0 0
0 0 0 0 0 0
0 0 0 0 0 0
0 0 0 0 0 0
0 0 0 0 0 0
0 0 0 0 0 0
-7.49311 -0.422135 -0.00322357 1.0226 -0.0018148 0.0772589
-7.40871 -0.419148 -0.00354726 1.02189 -0.00176159 0.0831901
-7.2912 -0.415917 -0.00343196 1.02163 -0.000797117 0.089732
-7.16698 -0.411119 -0.00313045 1.02168 -0.00045298 0.0962184
-7.03801 -0.405896 -0.00341862 1.02026 -0.000636772 0.103229
-7.83469 -0.427061 -0.00157733 1.02003 -0.00116419 0.0607022
-7.77792 -0.426545 -0.00215369 1.02136 0.000196204 0.0657016
-7.71637 -0.425917 -0.00309345 1.02212 0.00093454 0.0706462
-7.63759 -0.424017 -0.0032661 1.02244 0.00110418 0.0764562
-7.54977 -0.421389 -0.00318967 1.02239 0.00172106 0.0826163
-7.44512 -0.418649 -0.0033312 1.02181 0.00240617 0.0892011
-7.32848 -0.415081 -0.00353257 1.02142 0.0030169 0.0961909
-7.20084 -0.410812 -0.00389236 1.02063 0.00349248 0.103438
-8.00344 -0.430227 -0.00248715 1.01917 -4.66749e-05 0.055413
-7.96226 -0.428982 -0.00229158 1.01963 0.00189677 0.0600429
-7.90563 -0.428721 -0.00262874 1.02108 0.00306755 0.0649238
-7.84398 -0.427631 -0.00290167 1.02222 0.00423966 0.0702633
-7.7753 -0.426024 -0.00304418 1.02273 0.00493718 0.0760592
-7.69355 -0.424089 -0.00312305 1.02255 0.00555696 0.0823793
-7.59603 -0.421818 -0.00326447 1.0221 0.00630983 0.089095
-7.48567 -0.418857 -0.00346661 1.02153 0.00693658 0.0962155
-7.3653 -0.415802 -0.00408636 1.02088 0.00761974 0.103448
-8.17516 -0.432374 -0.00359827 1.0154 0.00131154 0.0490884
-8.13221 -0.432117 -0.00331772 1.01763 0.00289177 0.0538389
-8.08931 -0.429886 -0.00234276 1.01964 0.00442102 0.0586906
-8.0403 -0.42972 -0.00256942 1.02094 0.00605691 0.0639478
-7.98321 -0.429263 -0.00280227 1.02201 0.00738665 0.0694996
-7.91752 -0.428387 -0.00295773 1.02258 0.0084122 0.075493
-7.84014 -0.427123 -0.00306761 1.02258 0.00933235 0.0819569
-7.74899 -0.425446 -0.00321848 1.02223 0.0102267 0.0888178
-7.64463 -0.423143 -0.00342348 1.02161 0.0109486 0.0960856
-7.53092 -0.421039 -0.00414706 1.021 0.0117676 0.103408
-8.28454 -0.429698 -0.00231956 1.0162 0.00395158 0.0471977
-8.25107 -0.430152 -0.00220711 1.01785 0.00547788 0.0523151
-8.21816 -0.430609 -0.00231531 1.01934 0.00738613 0.0574646
-8.17528 -0.431005 -0.00251079 1.02069 0.00912783 0.0628663
-8.12308 -0.431197 -0.00272025 1.02177 0.0106347 0.0685974
-8.06153 -0.431046 -0.00288453 1.02238 0.011928 0.0747534
-7.98914 -0.430492 -0.00301661 1.0225 0.0131073 0.081359
-7.90421 -0.429485 -0.00317608 1.02223 0.0141851 0.0883753
-7.80586 -0.427899 -0.00339009 1.02163 0.0150519 0.0958071
-7.69732 -0.426439 -0.00403724 1.02102 0.0159466 0.103305
-8.40584 -0.429559 -0.00246842 1.01585 0.00654333 0.0457236
-8.37495 -0.430478 -0.00215865 1.01734 0.00834725 0.0508559
-8.34788 -0.431551 -0.00226232 1.01892 0.0103912 0.056121
-8.31084 -0.432552 -0.00244646 1.02034 0.0122749 0.0616618
-8.26377 -0.433419 -0.00265101 1.02146 0.0139593 0.0675457
-8.20706 -0.434008 -0.00282194 1.02211 0.0154923 0.0738455
-8.14025 -0.434198 -0.00296518 1.02229 0.0169249 0.0805982
-8.06182 -0.433911 -0.00312961 1.0221 0.0182165 0.0877847
-7.96982 -0.433073 -0.00335177 1.02159 0.019269 0.0953863
-7.86498 -0.432065 -0.0037918 1.02089 0.0202289 0.103106
-8.52436 -0.429422 -0.00239321 1.01547 0.00919059 0.044146
-8.49922 -0.43105 -0.00207375 1.0168 0.0112487 0.0492862
-8.47814 -0.432727 -0.0021801 1.01839 0.0134666 0.0546619
-8.44704 -0.434346 -0.00237344 1.01989 0.0154952 0.0603307
-8.40525 -0.435912 -0.00258601 1.02107 0.0173433 0.0663419
-8.35383 -0.437271 -0.00276342 1.02176 0.0191077 0.0727696
-8.29325 -0.438242 -0.00291364 1.02196 0.0208139 0.0796796
-8.22196 -0.438712 -0.00308113 1.02183 0.0223523 0.0870619
-8.13741 -0.437717 -0.00290789 1.02141 0.023659 0.0948638
-8.03807 -0.437844 -0.00347344 1.021 0.024661 0.102823
-8.63919 -0.429407 -0.00213638 1.015 0.011903 0.0424417
-8.62272 -0.431939 -0.00195836 1.01623 0.0142047 0.0476141
-8.60854 -0.434169 -0.00207789 1.01773 0.0166349 0.0531009
-8.58377 -0.436379 -0.00229699 1.01931 0.0187866 0.0588851
-8.54734 -0.438657 -0.00252351 1.02059 0.0207696 0.0649934
-8.50162 -0.440823 -0.0027077 1.0213 0.0227702 0.071527
-8.44805 -0.442623 -0.00286583 1.02151 0.024788 0.0786007
-8.38401 -0.44392 -0.00312196 1.02157 0.0258974 0.08593
-8.30192 -0.443482 -0.00269071 1.02079 0.0274712 0.0932164
-8.75443 -0.429965 -0.00201644 1.01414 0.014798 0.0407792
-8.74256 -0.432419 -0.00147893 1.01581 0.0172153 0.0458963
-8.73484 -0.435366 -0.0016885 1.01726 0.0198668 0.0514633
-8.72242 -0.439199 -0.00251352 1.01842 0.0222523 0.0574027
-8.69513 -0.442466 -0.00291628 1.01956 0.0244404 0.0636503
-8.65156 -0.444533 -0.00255683 1.02069 0.0265736 0.0702415
-8.59799 -0.446195 -0.00208331 1.02148 0.0286682 0.0773008
-8.54421 -0.449019 -0.00279498 1.02148 0.0304878 0.085351
-3.54567 -0.670565 -0.00328289 -1.00909 0.0914712 0.00351466
-3.54156 -0.665127 -0.00371972 -1.008 0.0985103 0.00281303
-3.54807 -0.656847 -0.00361225 -1.0075 0.106268 0.00166722
-3.53682 -0.647601 -0.00322946 -1.00746 0.113486 0.00153777
-3.5183 -0.638262 -0.00340079 -1.00604 0.121184 0.00148717
-3.48657 -0.692431 -0.00145637 -1.00793 0.0726474 0.00317041
-3.5039 -0.689338 -0.00215425 -1.0089 0.0785396 0.00171276
-3.51947 -0.685877 -0.00312631 -1.00931 0.0841441 0.000736737
-3.52703 -0.680526 -0.0032749 -1.00945 0.0905588 6.71754e-05
-3.52841 -0.67447 -0.00317601 -1.00925 0.0977788 -0.00110054
-3.53461 -0.667339 -0.00330343 -1.00841 0.105658 -0.00196858
-3.53467 -0.659202 -0.00347233 -1.00787 0.113559 -0.00249478
-3.52772 -0.650257 -0.00377546 -1.007 0.121569 -0.00326698
-3.46435 -0.70432 -0.00239079 -1.00794 0.0664026 0.00199848
-3.47006 -0.701637 -0.00216463 -1.00803 0.0718685 -0.000299535
-3.49166 -0.698314 -0.00255517 -1.00917 0.0776109 -0.00167306
-3.50412 -0.694404 -0.00283168 -1.01003 0.0836139 -0.00312088
-3.51239 -0.689945 -0.00299538 -1.01032 0.0901299 -0.00428024
-3.52077 -0.684557 -0.00308287 -1.00993 0.0974925 -0.00540632
-3.53018 -0.678024 -0.00321649 -1.00926 0.105389 -0.00643574
-3.5351 -0.670481 -0.00340286 -1.00857 0.113531 -0.0071609
-3.53917 -0.662389 -0.00394878 -1.00784 0.121679 -0.00809531
-3.42947 -0.716436 -0.00356665 -1.00496 0.0591656 0.000958737
-3.44738 -0.71368 -0.00325718 -1.00683 0.0645284 -0.00120514
-3.44581 -0.710277 -0.00226581 -1.00857 0.0702413 -0.00314446
-3.46546 -0.707432 -0.00249376 -1.00955 0.0763999 -0.00515446
-3.48403 -0.703987 -0.00273005 -1.01036 0.0827329 -0.00685675
-3.50019 -0.699895 -0.00289574 -1.01071 0.0895364 -0.00833272
-3.51533 -0.694949 -0.00300959 -1.01052 0.0970026 -0.00971089
-3.52973 -0.68899 -0.00315366 -1.00999 0.104989 -0.0109391
-3.5404 -0.682018 -0.0033488 -1.00927 0.11334 -0.0118885
-3.55332 -0.674651 -0.00402301 -1.0086 0.121696 -0.0129855
-3.37172 -0.722312 -0.00220524 -1.00621 0.0568902 -0.00207392
-3.39492 -0.720598 -0.00213379 -1.00757 0.0627274 -0.00409871
-3.41739 -0.718973 -0.00223783 -1.00876 0.068795 -0.0065088
-3.44188 -0.716672 -0.00243194 -1.00984 0.075112 -0.00871466
-3.46669 -0.71371 -0.00264512 -1.01067 0.0816918 -0.0106714
-3.49026 -0.710063 -0.00281374 -1.01108 0.0887123 -0.0124294
-3.51234 -0.705615 -0.0029465 -1.01103 0.0963098 -0.0140528
-3.53271 -0.700235 -0.00310105 -1.01062 0.104439 -0.0155
-3.54989 -0.693845 -0.00331004 -1.00995 0.113009 -0.0166886
-3.56921 -0.68696 -0.00391909 -1.00928 0.121614 -0.0179522
-3.33383 -0.730403 -0.00234519 -1.00629 0.0552533 -0.00522592
-3.3627 -0.728899 -0.00207742 -1.00753 0.061077 -0.00741577
-3.39067 -0.727812 -0.00218156 -1.00885 0.0672339 -0.00995984
-3.42057 -0.726044 -0.00236477 -1.01004 0.0737063 -0.0123549
-3.45185 -0.723585 -0.00257079 -1.01095 0.0804815 -0.0145552
-3.48275 -0.720434 -0.00274393 -1.01143 0.0876741 -0.0165821
-3.51196 -0.716534 -0.00288834 -1.01146 0.0954204 -0.0184601
-3.53883 -0.711763 -0.00305086 -1.01116 0.103734 -0.0201416
-3.56282 -0.705983 -0.00326814 -1.0106 0.112545 -0.0215745
-3.58734 -0.699374 -0.00367868 -1.00988 0.121419 -0.0229998
-3.29715 -0.73826 -0.00226068 -1.00634 0.0534301 -0.00847936
-3.33279 -0.73732 -0.00199106 -1.00747 0.059244 -0.0108426
-3.36595 -0.736775 -0.00209585 -1.00886 0.0655231 -0.0135062
-3.40133 -0.735549 -0.00228904 -1.01017 0.0721636 -0.0160741
-3.4393 -0.733606 -0.00250095 -1.01117 0.0790979 -0.0184987
-3.47772 -0.73099 -0.0026805 -1.01171 0.0864281 -0.0207934
-3.51425 -0.727693 -0.00283403 -1.0118 0.0943362 -0.0229521
-3.5479 -0.723582 -0.00300232 -1.0116 0.102876 -0.0248898
-3.56868 -0.718078 -0.00279012 -1.01115 0.1119 -0.0266364
-3.60502 -0.712196 -0.00334984 -1.01075 0.121075 -0.028176
-3.26329 -0.745862 -0.00200211 -1.00632 0.0513704 -0.0118068
-3.3062 -0.7458 -0.0018729 -1.0074 0.0571965 -0.0143704
-3.34371 -0.745845 -0.0019931 -1.00876 0.0636521 -0.0171531
-3.38411 -0.745176 -0.00220552 -1.0102 0.0704815 -0.0198623
-3.42886 -0.743755 -0.00243005 -1.01133 0.0775417 -0.0224819
-3.47505 -0.741712 -0.00261895 -1.01192 0.0849746 -0.0250506
-3.51918 -0.739088 -0.00278539 -1.01206 0.0930557 -0.0275348
-3.55985 -0.735701 -0.00304158 -1.01203 0.101566 -0.0290354
-3.58851 -0.730531 -0.00266514 -1.01123 0.110043 -0.0310743
-3.23522 -0.753776 -0.00191785 -1.00592 0.049277 -0.0152958
-3.27718 -0.753828 -0.00142766 -1.0075 0.0551167 -0.0179473
-3.32082 -0.754512 -0.00164995 -1.00885 0.0617111 -0.0208544
-3.37409 -0.755328 -0.00247373 -1.0099 0.0686685 -0.0237798
-3.427 -0.754845 -0.00287619 -1.01093 0.0758472 -0.0266658
-3.47363 -0.752709 -0.00252603 -1.01198 0.0833999 -0.0294375
-3.5187 -0.749774 -0.00205221 -1.01273 0.0915922 -0.0320345
-3.57221 -0.747436 -0.00266686 -1.0127 0.100897 -0.0342316
5.92915 -1.22823 -0.00349622 0.137648 0.0695906 -0.0658263
5.93618 -1.2251 -0.00407712 0.135033 0.0736975 -0.0717487
5.96498 -1.22079 -0.00397223 0.130174 0.078357 -0.0783755
6.0125 -1.21543 -0.00353953 0.125984 0.0836496 -0.0843936
6.04875 -1.20896 -0.00353099 0.122246 0.0889864 -0.0908003
5.84436 -1.23673 -0.00149608 0.152594 0.0559855 -0.0510651
5.85726 -1.23686 -0.00231499 0.149793 0.059171 -0.0568725
5.86753 -1.23629 -0.00337201 0.146798 0.0623821 -0.0623128
5.8896 -1.23392 -0.00345669 0.14343 0.0661627 -0.0681628
5.91293 -1.23086 -0.00328406 0.140245 0.0701198 -0.0746054
5.93217 -1.22702 -0.00339776 0.136117 0.075066 -0.0811586
5.96379 -1.22254 -0.00357659 0.1318 0.0804797 -0.0878531
5.99892 -1.21713 -0.00379752 0.127519 0.0855068 -0.0950136
5.80199 -1.24296 -0.00238084 0.159639 0.0506559 -0.0473257
5.80577 -1.24205 -0.00217404 0.157876 0.0527387 -0.0534597
5.82186 -1.2421 -0.00259037 0.15466 0.0557738 -0.0591262
5.84143 -1.24126 -0.00290569 0.151725 0.0589029 -0.0652198
5.85877 -1.23967 -0.00309598 0.148837 0.0624458 -0.0714449
5.8728 -1.23717 -0.0031777 0.145519 0.0665823 -0.07803
5.89018 -1.23389 -0.00330286 0.14153 0.0713583 -0.0848738
5.91542 -1.22987 -0.0034948 0.137273 0.076661 -0.0918587
5.94447 -1.22551 -0.00398944 0.132761 0.081713 -0.0991513
5.72588 -1.24724 -0.00367938 0.167515 0.0449961 -0.042666
5.74777 -1.24764 -0.00326563 0.164959 0.0468964 -0.048778
5.77729 -1.24696 -0.00229161 0.163283 0.049357 -0.0548342
5.7896 -1.24705 -0.00253111 0.160522 0.0521258 -0.0612793
5.80408 -1.24667 -0.0027957 0.157517 0.0552351 -0.0677489
5.81763 -1.2456 -0.00297942 0.154373 0.0587748 -0.0743912
5.82983 -1.2437 -0.00309274 0.150887 0.062852 -0.0813258
5.8445 -1.241 -0.00323422 0.146919 0.0675109 -0.0884835
5.86468 -1.2375 -0.00343382 0.142647 0.0727096 -0.0957863
5.88816 -1.23395 -0.00405315 0.138006 0.0777739 -0.103294
5.73055 -1.24936 -0.00224579 0.173632 0.0409486 -0.0436783
5.73919 -1.25043 -0.00215922 0.171345 0.0433707 -0.0500168
5.74587 -1.25146 -0.00226656 0.169098 0.045692 -0.0566776
5.75496 -1.2521 -0.00247191 0.166362 0.0483675 -0.063405
5.76529 -1.25225 -0.00270489 0.163274 0.0514161 -0.0702262
5.77499 -1.25172 -0.00288641 0.159943 0.0549063 -0.0772429
5.7842 -1.25043 -0.00302054 0.156316 0.0589216 -0.0845217
5.79556 -1.24835 -0.00317712 0.152316 0.0635033 -0.092013
5.81135 -1.24545 -0.00339181 0.147987 0.068622 -0.0996594
5.83032 -1.24239 -0.00394706 0.143257 0.0736785 -0.107451
5.7037 -1.25318 -0.00238307 0.179694 0.0371574 -0.0451052
5.70809 -1.25442 -0.00210534 0.177241 0.039549 -0.051616
5.71204 -1.25604 -0.00221081 0.174963 0.0418472 -0.058494
5.7182 -1.25726 -0.00240438 0.172206 0.0444654 -0.0654914
5.72485 -1.25797 -0.00262552 0.16902 0.0474343 -0.0726384
5.73056 -1.25803 -0.0028083 0.165535 0.0508408 -0.0800076
5.73595 -1.25736 -0.00295585 0.16179 0.0547872 -0.0876415
5.74351 -1.25593 -0.00312331 0.157741 0.0593227 -0.0954887
5.75535 -1.25369 -0.0033508 0.153349 0.064398 -0.10349
5.77044 -1.25087 -0.00371301 0.148511 0.0694605 -0.111601
5.67698 -1.2568 -0.00228023 0.185665 0.0331306 -0.0465182
5.6755 -1.25856 -0.0020095 0.183142 0.0354631 -0.053209
5.67607 -1.26073 -0.0021214 0.180851 0.0378087 -0.0602884
5.67942 -1.26253 -0.00232655 0.178063 0.0404062 -0.0675332
5.68267 -1.26383 -0.00255219 0.17477 0.0432875 -0.0749748
5.68413 -1.2645 -0.00273935 0.171141 0.0465809 -0.0826847
5.68502 -1.26447 -0.00289692 0.167299 0.0504444 -0.0906986
5.68833 -1.26373 -0.00307137 0.163213 0.0549559 -0.0989359
5.70092 -1.26145 -0.0028476 0.159268 0.0599209 -0.107371
5.71222 -1.25979 -0.00340631 0.154096 0.0650661 -0.115788
5.64988 -1.26024 -0.00197237 0.191442 0.0288804 -0.0478857
5.64128 -1.26286 -0.00187797 0.188958 0.0311203 -0.0547907
5.6378 -1.2655 -0.00200726 0.186725 0.0335797 -0.062068
5.6386 -1.26788 -0.00223473 0.183933 0.0361974 -0.0695297
5.63868 -1.26979 -0.00247134 0.180524 0.0389874 -0.0772241
5.63555 -1.2711 -0.00266794 0.176759 0.0421388 -0.0852623
5.6313 -1.27177 -0.00284207 0.172845 0.0458936 -0.0936925
5.6304 -1.27179 -0.00310937 0.168745 0.050706 -0.101646
5.63338 -1.26982 -0.00281758 0.164552 0.0550608 -0.109979
5.61453 -1.26396 -0.0019466 0.197074 0.024511 -0.0493535
5.61197 -1.26687 -0.00145651 0.194739 0.0267262 -0.0563326
5.60367 -1.27011 -0.00171579 0.192486 0.0292662 -0.0638058
5.58888 -1.27369 -0.0025723 0.189663 0.0318378 -0.0715964
5.58048 -1.27642 -0.0029816 0.186273 0.0344884 -0.0796349
5.5826 -1.27788 -0.00263035 0.182531 0.0375387 -0.0879096
5.58663 -1.27864 -0.00215264 0.178507 0.0412736 -0.0964591
5.57797 -1.27968 -0.00269714 0.174099 0.0461758 -0.105485
-17.187 0.0386205 -0.00369163 -0.111218 0.0700131 0.0722938
-17.1554 0.038338 -0.00443247 -0.108729 0.0759308 0.0771069
-17.121 0.0402254 -0.00442233 -0.103932 0.0827565 0.0820897
-17.0812 0.0440545 -0.00392336 -0.0999256 0.0896442 0.0878513
-17.022 0.0474166 -0.00372275 -0.096422 0.0967041 0.094163
-17.2619 0.034831 -0.00163647 -0.125585 0.0538957 0.0572385
-17.2688 0.0342792 -0.00257276 -0.122787 0.0602324 0.0604907
-17.2642 0.0338036 -0.00359545 -0.119764 0.0662781 0.064053
-17.2467 0.0350754 -0.00363294 -0.116363 0.0725868 0.0685536
-17.2246 0.0366149 -0.0034689 -0.113276 0.0791118 0.0731657
-17.1912 0.0378336 -0.00357961 -0.109302 0.0858908 0.0784279
-17.1541 0.0400263 -0.00373942 -0.105178 0.0933572 0.0842668
-17.1063 0.0427431 -0.00389267 -0.101104 0.101165 0.0902199
-17.3201 0.0315752 -0.00243636 -0.132204 0.0500411 0.0513216
-17.3143 0.0312071 -0.00223913 -0.130387 0.0565757 0.0535923
-17.3226 0.0311814 -0.00270507 -0.127071 0.0627085 0.0567935
-17.3211 0.031704 -0.00303178 -0.124094 0.0694167 0.0602957
-17.3116 0.0323027 -0.00323954 -0.121201 0.0760799 0.0644433
-17.2918 0.0329038 -0.00334256 -0.117948 0.0828566 0.0691728
-17.2643 0.0338922 -0.0034686 -0.114086 0.0900171 0.0743867
-17.2307 0.0355791 -0.00364292 -0.110004 0.0976131 0.0801789
-17.193 0.0375326 -0.00409929 -0.105708 0.105522 0.0860079
-17.3431 0.0260924 -0.00369334 -0.13969 0.0453711 0.0448283
-17.3586 0.0268159 -0.00325844 -0.13701 0.0518735 0.0470929
-17.3682 0.0284312 -0.00240431 -0.135191 0.0582682 0.0498052
-17.3756 0.028286 -0.00264328 -0.132379 0.0651216 0.0528078
-17.3786 0.0283978 -0.00291863 -0.129337 0.072101 0.0562985
-17.3741 0.028637 -0.00311679 -0.126192 0.0791858 0.0603741
-17.3607 0.0289874 -0.00324314 -0.122758 0.0864478 0.0650052
-17.3393 0.0296798 -0.00338726 -0.118896 0.093988 0.0701589
-17.3104 0.0309306 -0.00357728 -0.114784 0.101824 0.0758997
-17.2803 0.032297 -0.00415113 -0.110365 0.109903 0.0816673
-17.3792 0.0268053 -0.00234718 -0.145258 0.0466294 0.0404205
-17.3983 0.0263522 -0.00226071 -0.142867 0.0534009 0.0431362
-17.4158 0.0256754 -0.00237313 -0.140528 0.0603812 0.0457032
-17.4293 0.0252277 -0.00258351 -0.137724 0.0674837 0.0486668
-17.4376 0.0249759 -0.00282412 -0.134597 0.0747603 0.0521087
-17.4387 0.0248504 -0.00301704 -0.131263 0.0822342 0.0560981
-17.4315 0.0248774 -0.00316188 -0.127676 0.0899313 0.0606393
-17.4163 0.0252257 -0.00332408 -0.123763 0.0978582 0.0657326
-17.3931 0.0260613 -0.003534 -0.119581 0.105995 0.0714191
-17.3678 0.0270592 -0.00404362 -0.115068 0.114299 0.0771793
-17.4195 0.0244009 -0.00248901 -0.150928 0.0480955 0.0362594
-17.4402 0.023729 -0.00220443 -0.148363 0.0551697 0.0388784
-17.4642 0.0227673 -0.00231538 -0.145972 0.0624298 0.0414332
-17.4838 0.0220263 -0.00251421 -0.143133 0.0697952 0.0443549
-17.4979 0.0214289 -0.00274181 -0.1399 0.0773685 0.0477259
-17.5049 0.0209253 -0.00293447 -0.136405 0.0852182 0.0516141
-17.504 0.0205754 -0.00309235 -0.132689 0.0933416 0.0560613
-17.4953 0.0205413 -0.0032677 -0.12871 0.101671 0.0610969
-17.4788 0.0209745 -0.00349692 -0.124447 0.110139 0.0667308
-17.4559 0.0217573 -0.00381272 -0.119821 0.118717 0.072524
-17.4585 0.0221698 -0.00236952 -0.156553 0.049556 0.0319283
-17.484 0.0210008 -0.00210146 -0.153922 0.0569269 0.0344356
-17.5134 0.0197214 -0.00222486 -0.151496 0.0644561 0.0369888
-17.5392 0.01869 -0.0024334 -0.148611 0.0720577 0.0398722
-17.5595 0.0177566 -0.00266486 -0.145262 0.0799078 0.0431577
-17.5726 0.0168538 -0.00286182 -0.141616 0.0881293 0.0469233
-17.5781 0.0160794 -0.00303064 -0.137792 0.0966967 0.0512603
-17.5764 0.0156278 -0.00321603 -0.133758 0.105461 0.05624
-17.5608 0.0164254 -0.00294987 -0.12996 0.114381 0.0617908
-17.5506 0.0165714 -0.00351534 -0.124954 0.123236 0.0676803
-17.4956 0.0200526 -0.00204717 -0.162051 0.0510171 0.0274163
-17.5295 0.0181488 -0.00196634 -0.159454 0.0587082 0.0298181
-17.5635 0.0165266 -0.00210714 -0.157064 0.0664908 0.032375
-17.5953 0.0152237 -0.0023423 -0.154156 0.0742815 0.0352306
-17.6219 0.0139661 -0.00258529 -0.150682 0.082371 0.0384207
-17.6413 0.0126348 -0.00279049 -0.146894 0.0909598 0.0420338
-17.6536 0.0113844 -0.00297404 -0.142989 0.100001 0.0462272
-17.6589 0.0104431 -0.00325118 -0.138944 0.108531 0.0514767
-17.645 0.0104156 -0.00298353 -0.134885 0.117406 0.0564335
-17.5328 0.0171472 -0.0019754 -0.167438 0.0526482 0.022822
-17.5746 0.0156939 -0.00163534 -0.164961 0.0604006 0.025128
-17.6137 0.0136645 -0.00187553 -0.162556 0.068453 0.0276554
-17.6523 0.0109264 -0.00265134 -0.15962 0.0766637 0.0304331
-17.6855 0.00889173 -0.00304265 -0.156157 0.0851365 0.0334904
-17.7109 0.00803984 -0.00277116 -0.152375 0.0939413 0.0369723
-17.7299 0.00750513 -0.00239297 -0.148341 0.103055 0.041069
-17.7434 0.0058324 -0.0028828 -0.143935 0.112683 0.0463541
-6.94664 -0.561921 -0.00384604 0.969117 -0.002638 0.109998
-6.92027 -0.563907 -0.00482319 0.967013 -0.00226268 0.118621
-6.85603 -0.566045 -0.00565095 0.966041 -0.0018392 0.128315
-6.78649 -0.565375 -0.00477814 0.965536 -0.00125815 0.137714
-6.71915 -0.564539 -0.00384014 0.964032 -0.000678283 0.147602
-7.12854 -0.554261 -0.00177394 0.972098 -0.0025458 0.0860859
-7.10897 -0.557851 -0.00279521 0.97208 -0.000320769 0.0935429
-7.08107 -0.561036 -0.0037677 0.971498 0.00126141 0.100884
-7.03602 -0.562728 -0.00376491 0.971049 0.00207688 0.109089
-6.99429 -0.563819 -0.00361807 0.970476 0.00302593 0.117919
-6.94159 -0.565458 -0.00375187 0.96909 0.00398583 0.127479
-6.88138 -0.566613 -0.00385971 0.968102 0.00493505 0.137541
-6.8154 -0.566989 -0.00392306 0.966853 0.00566442 0.147972
-7.22684 -0.553221 -0.0024658 0.974645 -0.000703152 0.0783585
-7.2131 -0.555201 -0.00230458 0.973744 0.00224558 0.0852274
-7.18365 -0.558692 -0.00279064 0.974 0.00426049 0.0925229
-7.15238 -0.56121 -0.0030974 0.973988 0.00633957 0.10031
-7.12017 -0.563339 -0.00332548 0.97363 0.00774562 0.108574
-7.08205 -0.565304 -0.00347325 0.972704 0.00884684 0.117601
-7.03327 -0.5672 -0.00360093 0.97157 0.0100131 0.127309
-6.97692 -0.568694 -0.00374174 0.97054 0.011029 0.137561
-6.91529 -0.570019 -0.00410705 0.969517 0.0120328 0.148072
-7.33742 -0.552112 -0.00373298 0.974056 0.00115354 0.0695961
-7.31306 -0.554537 -0.00327865 0.974843 0.00392488 0.0763165
-7.29327 -0.555799 -0.00249506 0.975797 0.00639808 0.0834457
-7.27029 -0.55883 -0.00272745 0.975888 0.00903318 0.0911575
-7.24206 -0.561736 -0.00299328 0.975925 0.011304 0.0992144
-7.21051 -0.564377 -0.00320514 0.975661 0.0131187 0.107788
-7.17331 -0.566818 -0.00335627 0.974973 0.0146621 0.11704
-7.12763 -0.569087 -0.00350696 0.974051 0.0160929 0.126938
-7.07443 -0.570986 -0.00368158 0.973082 0.0172848 0.137403
-7.01674 -0.572994 -0.00416789 0.972207 0.0185047 0.148074
-7.40356 -0.549109 -0.00237954 0.976522 0.00537869 0.0670508
-7.39037 -0.552313 -0.00234377 0.977066 0.00809942 0.074313
-7.37857 -0.55563 -0.00245885 0.977438 0.0111132 0.0818029
-7.35906 -0.559006 -0.00266602 0.977744 0.0139143 0.0896709
-7.33347 -0.562324 -0.00290312 0.977907 0.0164205 0.0979517
-7.30335 -0.565459 -0.00310644 0.977772 0.0186018 0.106774
-7.26779 -0.568386 -0.00326976 0.977282 0.0205401 0.11625
-7.22499 -0.571087 -0.00343742 0.976557 0.0222737 0.126364
-7.1747 -0.573445 -0.00363933 0.975711 0.0236991 0.137062
-7.11933 -0.575862 -0.00407947 0.974915 0.0250916 0.147954
-7.4895 -0.54829 -0.00251275 0.977934 0.00962142 0.0650176
-7.47602 -0.55173 -0.00227817 0.978445 0.012675 0.0723732
-7.46685 -0.555444 -0.00239929 0.979061 0.0158938 0.0800156
-7.4502 -0.559201 -0.00259731 0.97959 0.0188988 0.0880382
-7.42697 -0.562956 -0.0028233 0.979921 0.0216595 0.0965047
-7.39872 -0.566587 -0.0030256 0.979936 0.0241938 0.105537
-7.3654 -0.570012 -0.00319968 0.979625 0.0265206 0.115237
-7.32562 -0.573185 -0.00338328 0.979093 0.0285878 0.125592
-7.2783 -0.576029 -0.00360785 0.978425 0.0302926 0.136535
-7.22361 -0.578672 -0.00387277 0.977634 0.0318425 0.147696
-7.57434 -0.547247 -0.0024042 0.97932 0.0139346 0.0628318
-7.56431 -0.551178 -0.0021782 0.979882 0.0173153 0.0702846
-7.55778 -0.555263 -0.00231121 0.980681 0.0207667 0.0780821
-7.54376 -0.559407 -0.00251733 0.981434 0.0239803 0.0862472
-7.52271 -0.563615 -0.0027464 0.98196 0.0269967 0.0948616
-7.49662 -0.567754 -0.00295427 0.982132 0.029889 0.10407
-7.46611 -0.571693 -0.0031409 0.981988 0.0326298 0.113996
-7.42978 -0.575362 -0.00333912 0.981654 0.035068 0.124622
-7.38611 -0.577525 -0.00306217 0.981172 0.037132 0.135836
-7.33396 -0.581295 -0.00358754 0.980832 0.0388016 0.147315
-7.65752 -0.546067 -0.00208199 0.980638 0.0183364 0.0604568
-7.65426 -0.550711 -0.0020509 0.981366 0.0220384 0.0680526
-7.65095 -0.555116 -0.00220298 0.982289 0.0257472 0.0760129
-7.63959 -0.559619 -0.00243259 0.983272 0.0291498 0.0843005
-7.62057 -0.564286 -0.0026737 0.984009 0.032405 0.0930184
-7.59696 -0.568949 -0.00289053 0.984336 0.0356744 0.102363
-7.56999 -0.573419 -0.00309154 0.984354 0.0388818 0.112515
-7.53812 -0.577597 -0.00337629 0.984165 0.0409907 0.123172
-7.49736 -0.580575 -0.00318502 0.983345 0.043425 0.133918
-7.74445 -0.54553 -0.00208775 0.981587 0.0229137 0.0580733
-7.74274 -0.550041 -0.00181801 0.982961 0.0267537 0.0656907
-7.7424 -0.554801 -0.00202179 0.984036 0.0307526 0.0737761
-7.73929 -0.560399 -0.00270915 0.984841 0.0345327 0.0822514
-7.72619 -0.565728 -0.00308311 0.985607 0.0381623 0.0911343
-7.70264 -0.570254 -0.00288685 0.986415 0.0417123 0.100568
-7.67337 -0.574552 -0.00259968 0.987054 0.0451071 0.110763
-7.64231 -0.57962 -0.00303287 0.987013 0.0480132 0.122266
-5.45455 -0.672742 -0.00401601 -0.955994 0.117534 0.00241528
-5.48866 -0.672256 -0.00344998 -0.954 0.126274 0.00317446
-5.53281 -0.669291 -0.00330305 -0.952701 0.136882 0.00167674
-5.56827 -0.665923 -0.00406428 -0.951767 0.146729 -0.000553793
-5.59709 -0.662553 -0.00397119 -0.950326 0.156717 -0.000294248
-5.28614 -0.67914 -0.00169545 -0.960297 0.0927339 0.00244995
-5.3418 -0.680098 -0.00283563 -0.959967 0.100853 0.000206461
-5.39531 -0.680166 -0.00383713 -0.959059 0.108504 -0.00141839
-5.43903 -0.678316 -0.00385568 -0.958466 0.11675 -0.00252003
-5.47339 -0.676749 -0.00370361 -0.957779 0.126073 -0.00405873
-5.51886 -0.674706 -0.00378169 -0.956156 0.136479 -0.00528526
-5.56214 -0.671995 -0.00384385 -0.955036 0.146896 -0.00599914
-5.59633 -0.66883 -0.00389502 -0.953756 0.157409 -0.00681814
-5.23298 -0.684639 -0.00243121 -0.963668 0.0845985 0.000790877
-5.2706 -0.684937 -0.00222882 -0.962434 0.0919602 -0.00237602
-5.33064 -0.684775 -0.00278534 -0.962403 0.0998566 -0.00451446
-5.37945 -0.684122 -0.00310133 -0.96212 0.107963 -0.00667857
-5.4234 -0.68342 -0.00336493 -0.961597 0.116407 -0.00836651
-5.46712 -0.682389 -0.00351314 -0.960511 0.125893 -0.00993864
-5.51424 -0.680646 -0.00363034 -0.959202 0.136264 -0.0113688
-5.55943 -0.678314 -0.00376868 -0.958074 0.146967 -0.0123737
-5.60219 -0.675713 -0.00406744 -0.957009 0.157754 -0.0134813
-5.17462 -0.691404 -0.00377479 -0.963831 0.0756177 -0.000521763
-5.22139 -0.690752 -0.00329848 -0.964289 0.082537 -0.00371579
-5.25572 -0.69014 -0.00250297 -0.965011 0.0901707 -0.00646946
-5.30773 -0.690148 -0.00272997 -0.964804 0.0984497 -0.00936532
-5.35988 -0.689792 -0.00300102 -0.964601 0.106891 -0.0118452
-5.4097 -0.689225 -0.00323189 -0.964167 0.115758 -0.0139577
-5.45896 -0.688314 -0.0033905 -0.963333 0.125454 -0.015881
-5.50923 -0.686834 -0.00352955 -0.962281 0.135929 -0.0175784
-5.55763 -0.684806 -0.00369722 -0.961242 0.146887 -0.0188835
-5.60664 -0.68266 -0.00413633 -0.960335 0.15795 -0.0202499
-5.12591 -0.694055 -0.00236415 -0.966741 0.0729704 -0.00475542
-5.17693 -0.694645 -0.00236722 -0.967031 0.0805525 -0.00781528
-5.22887 -0.695415 -0.00247213 -0.967137 0.0885772 -0.0112054
-5.28374 -0.695706 -0.00267327 -0.967191 0.0969779 -0.0143391
-5.33974 -0.695607 -0.00291472 -0.967143 0.105673 -0.0171385
-5.3949 -0.695223 -0.00312855 -0.96685 0.114849 -0.0196357
-5.44935 -0.694496 -0.00329556 -0.966236 0.124769 -0.0219102
-5.50358 -0.69328 -0.00345846 -0.965417 0.135429 -0.023913
-5.55604 -0.691542 -0.00365819 -0.964531 0.146654 -0.0255335
-5.60922 -0.689603 -0.00405473 -0.963718 0.158003 -0.027153
-5.0899 -0.699401 -0.00248682 -0.96858 0.0710279 -0.00920173
-5.14449 -0.699915 -0.00229247 -0.968873 0.0787129 -0.0124775
-5.20012 -0.700919 -0.00241333 -0.969266 0.0868502 -0.0160575
-5.25842 -0.701458 -0.0026082 -0.969586 0.0953868 -0.0194298
-5.31867 -0.701595 -0.00283616 -0.969738 0.104282 -0.0225425
-5.37897 -0.701424 -0.00304431 -0.969616 0.113695 -0.0254092
-5.43846 -0.700929 -0.00322291 -0.969209 0.123843 -0.0280502
-5.49707 -0.699995 -0.00340559 -0.968618 0.134744 -0.0303884
-5.55399 -0.698547 -0.00362801 -0.967939 0.146262 -0.0323354
-5.61025 -0.696603 -0.00385396 -0.96715 0.157912 -0.0342005
-5.05178 -0.704555 -0.00236527 -0.970397 0.0688677 -0.0137462
-5.11099 -0.705403 -0.00218926 -0.97079 0.0766587 -0.0172657
-5.16987 -0.706631 -0.00232394 -0.971417 0.0849541 -0.0210261
-5.23171 -0.707402 -0.00253052 -0.972002 0.0936439 -0.0246275
-5.29643 -0.707761 -0.00275966 -0.972378 0.102694 -0.0280399
-5.36182 -0.707828 -0.00297091 -0.972441 0.112288 -0.0312757
-5.42624 -0.707612 -0.00316351 -0.972238 0.122671 -0.0343138
-5.4894 -0.706993 -0.00336522 -0.971882 0.133864 -0.0370218
-5.53829 -0.705364 -0.0030514 -0.971402 0.14564 -0.0393788
-5.60645 -0.703975 -0.00357162 -0.97111 0.157643 -0.0414304
-5.01272 -0.709514 -0.00203022 -0.972153 0.066439 -0.0183615
-5.0772 -0.711056 -0.00205721 -0.972773 0.0743773 -0.0221625
-5.13858 -0.712534 -0.00221603 -0.973581 0.0828822 -0.0261069
-5.20359 -0.713528 -0.00244287 -0.974436 0.0917328 -0.0299131
-5.27285 -0.714096 -0.00268199 -0.97505 0.100886 -0.0336038
-5.34334 -0.714427 -0.00290215 -0.975299 0.110607 -0.0372175
-5.41256 -0.714548 -0.00311322 -0.9753 0.121236 -0.0407045
-5.47957 -0.714351 -0.00340555 -0.975084 0.13249 -0.0430664
-5.53753 -0.713211 -0.00324564 -0.974293 0.143765 -0.0458099
-4.97844 -0.715129 -0.00208856 -0.973551 0.0639088 -0.0231015
-5.04166 -0.716576 -0.00188052 -0.974868 0.0719557 -0.0270511
-5.10559 -0.718294 -0.00207826 -0.975877 0.0806182 -0.031203
-5.1785 -0.720228 -0.0027274 -0.976612 0.0896248 -0.0353607
-5.25297 -0.721378 -0.00309303 -0.977301 0.0989273 -0.039455
-5.32372 -0.721528 -0.00293829 -0.978042 0.10878 -0.0433781
-5.39381 -0.721271 -0.00270454 -0.97867 0.119559 -0.0470685
-5.47008 -0.721207 -0.00308022 -0.978663 0.131744 -0.0502196
4.63471 -1.26466 -0.00427022 0.0323113 0.0849285 -0.0812916
4.59248 -1.26595 -0.00492638 0.030546 0.0901173 -0.0884563
4.56523 -1.26532 -0.0044475 0.0268933 0.0965152 -0.0968928
4.54425 -1.26517 -0.00436018 0.0224722 0.103082 -0.104407
4.52599 -1.26425 -0.00411993 0.0194305 0.110291 -0.111742
4.74708 -1.26255 -0.00169923 0.0451247 0.0674258 -0.0630112
4.70775 -1.26595 -0.00291696 0.0422854 0.0716241 -0.0703486
4.66768 -1.26819 -0.00401751 0.0390125 0.0759089 -0.077148
4.64618 -1.26896 -0.0040634 0.0355708 0.0807678 -0.0843339
4.62357 -1.2697 -0.00379931 0.0330382 0.0858441 -0.0923262
4.58746 -1.27013 -0.00383404 0.0294888 0.0921966 -0.100446
4.56343 -1.27036 -0.00395118 0.0256743 0.0992824 -0.108455
4.54342 -1.26989 -0.00394917 0.0223049 0.106078 -0.116865
4.79348 -1.26572 -0.00247097 0.0504857 0.0606414 -0.0583918
4.75205 -1.26704 -0.0022563 0.048581 0.0634904 -0.0659531
4.72156 -1.26985 -0.00281982 0.0448956 0.0675037 -0.0731077
4.69495 -1.27171 -0.00318392 0.0416592 0.0716976 -0.0806467
4.66772 -1.27332 -0.00349863 0.0387867 0.0762909 -0.0882271
4.63452 -1.27452 -0.0036417 0.0358633 0.0815528 -0.0962735
4.60111 -1.27533 -0.00372139 0.0323689 0.0877247 -0.10466
4.5747 -1.27586 -0.00386287 0.0286729 0.0946425 -0.113091
4.55187 -1.27624 -0.0041377 0.0250411 0.101449 -0.121818
4.79538 -1.26772 -0.00394531 0.0567304 0.0537847 -0.0527282
4.77754 -1.26963 -0.00338351 0.0537443 0.0561205 -0.0601892
4.76609 -1.27143 -0.00256135 0.0515642 0.0593961 -0.0676341
4.73527 -1.27379 -0.00278612 0.04855 0.0630558 -0.0756327
4.70715 -1.27599 -0.00308808 0.0453244 0.0671629 -0.0836014
4.67839 -1.27793 -0.0033492 0.0421939 0.0717498 -0.0916959
4.64637 -1.27949 -0.00350209 0.0389919 0.0769921 -0.100142
4.61444 -1.28069 -0.00362674 0.0354504 0.0830448 -0.108868
4.58691 -1.28157 -0.00380224 0.0317442 0.0898333 -0.117708
4.56205 -1.28256 -0.0042052 0.0279699 0.0966224 -0.126779
4.83657 -1.26916 -0.00245456 0.0606331 0.0489296 -0.0539389
4.80915 -1.27205 -0.00244691 0.0580353 0.0519064 -0.0617218
4.77799 -1.27501 -0.0025432 0.0554515 0.0549429 -0.0698937
4.74837 -1.2778 -0.00274582 0.0524274 0.0584642 -0.0781777
4.71984 -1.28037 -0.00300613 0.0491391 0.062459 -0.0865381
4.69035 -1.28267 -0.00323783 0.0458052 0.0669833 -0.0950832
4.65891 -1.28463 -0.00340503 0.0423891 0.0721741 -0.103939
4.62781 -1.28624 -0.00356262 0.038754 0.0781388 -0.113054
4.59983 -1.28751 -0.00376744 0.0349703 0.0848335 -0.122317
4.57397 -1.28878 -0.0041225 0.0310787 0.0915877 -0.131756
4.84649 -1.27242 -0.00257504 0.0651257 0.0442828 -0.0557342
4.81881 -1.27528 -0.00237268 0.0623232 0.0472762 -0.0637375
4.78941 -1.27868 -0.00249122 0.0596363 0.0502734 -0.0721463
4.76122 -1.28188 -0.00269047 0.0565451 0.0536953 -0.080711
4.73291 -1.28485 -0.00293058 0.0531469 0.0575655 -0.0894302
4.70311 -1.28754 -0.00314815 0.0496344 0.0619869 -0.0983894
4.67192 -1.28991 -0.0033282 0.0460456 0.0671022 -0.10767
4.64131 -1.29196 -0.00351222 0.0423019 0.0729999 -0.117212
4.61335 -1.29367 -0.00374366 0.0384124 0.0796349 -0.126912
4.58717 -1.29498 -0.00392439 0.03437 0.0863622 -0.136742
4.85746 -1.27538 -0.00242366 0.0697372 0.0393939 -0.0574804
4.82859 -1.27867 -0.00225674 0.0668545 0.0423603 -0.0657272
4.80062 -1.28244 -0.00240155 0.064086 0.0453826 -0.0743739
4.77397 -1.28604 -0.00261783 0.0609058 0.0487369 -0.0832072
4.74628 -1.28942 -0.00285586 0.0573695 0.0524718 -0.0922505
4.71632 -1.29252 -0.00307017 0.0536925 0.056755 -0.101601
4.68518 -1.29534 -0.0032653 0.0499664 0.0617727 -0.11133
4.65495 -1.29786 -0.00347213 0.0461202 0.0676178 -0.121342
4.633 -1.29911 -0.00315764 0.0427193 0.0741091 -0.131551
4.6065 -1.3016 -0.00367337 0.0382241 0.080909 -0.14177
4.86903 -1.27807 -0.00204843 0.0744069 0.0342811 -0.0591287
4.83843 -1.2822 -0.00211044 0.0715567 0.0371885 -0.0676746
4.81155 -1.2863 -0.00228716 0.0687621 0.0402837 -0.0765688
4.7867 -1.29028 -0.0025276 0.0655029 0.043594 -0.0856455
4.75989 -1.29406 -0.00277211 0.061812 0.0471753 -0.0949696
4.72969 -1.2976 -0.00299066 0.0579866 0.0512847 -0.104692
4.69843 -1.30089 -0.00320756 0.054167 0.0561798 -0.114907
4.6668 -1.30385 -0.00352275 0.0503135 0.0623304 -0.124715
4.63565 -1.30559 -0.00343115 0.0466003 0.0681811 -0.134888
4.87128 -1.28125 -0.00213848 0.0791467 0.0290533 -0.0608149
4.85096 -1.28567 -0.00195761 0.0763245 0.0319178 -0.0694969
4.82553 -1.29009 -0.00217477 0.0735013 0.0350329 -0.0786377
4.79307 -1.29487 -0.00282792 0.0702269 0.0382283 -0.0880993
4.76304 -1.29924 -0.00319844 0.0665241 0.0416211 -0.0978399
4.73918 -1.30293 -0.00306633 0.0626495 0.0455947 -0.107873
4.71673 -1.30634 -0.00286356 0.0586576 0.0504488 -0.118305
4.68603 -1.30971 -0.00319355 0.0542809 0.0567142 -0.129312
-17.2585 -0.0661336 -0.00436938 -0.0061882 0.0803794 0.0848358
-17.2684 -0.0710838 -0.0050161 -0.00454339 0.0873246 0.090265
-17.2654 -0.0741836 -0.00449821 -0.000982725 0.0953707 0.0967926
-17.2694 -0.077142 -0.00450804 0.00338885 0.103277 0.10339
-17.2647 -0.0793845 -0.00418208 0.00614705 0.110915 0.110863
-17.2614 -0.0522915 -0.00170061 -0.0183719 0.0615931 0.0669635
-17.2922 -0.057637 -0.00297617 -0.0155387 0.0688988 0.0711335
-17.3076 -0.0626003 -0.00407271 -0.0122134 0.075895 0.0754396
-17.3168 -0.0655274 -0.00417446 -0.00878344 0.0834211 0.0804858
-17.3297 -0.0685399 -0.0039381 -0.00635127 0.0912397 0.085792
-17.335 -0.0726063 -0.00392146 -0.00294525 0.0990454 0.0922345
-17.3407 -0.0757718 -0.00402886 0.000703799 0.107343 0.0993268
-17.3395 -0.0784032 -0.00399098 0.00384967 0.115985 0.106376
-17.3078 -0.0483058 -0.00252379 -0.0233161 0.0571146 0.0597964
-17.317 -0.0526169 -0.00227631 -0.0213793 0.0646073 0.0627401
-17.3457 -0.0568899 -0.00287972 -0.0175963 0.0716961 0.0667826
-17.3641 -0.0605143 -0.0032702 -0.0143168 0.0794354 0.0710247
-17.3808 -0.0641128 -0.00361136 -0.0114451 0.0871987 0.0757742
-17.3936 -0.068055 -0.00374652 -0.00858608 0.0950896 0.0812382
-17.4034 -0.0719588 -0.00380307 -0.00521158 0.103293 0.0875343
-17.4121 -0.0753286 -0.00394449 -0.0016794 0.111852 0.0945269
-17.4195 -0.0784432 -0.0042034 0.00172699 0.120761 0.101533
-17.3236 -0.0475675 -0.00399183 -0.0291706 0.0516414 0.0524373
-17.3478 -0.0501165 -0.00339605 -0.0260494 0.0590888 0.054946
-17.3758 -0.0522005 -0.0026484 -0.0237642 0.0663897 0.0583458
-17.3994 -0.0561436 -0.00286343 -0.0207057 0.0742847 0.0620597
-17.422 -0.0598871 -0.00318282 -0.0174462 0.0823302 0.0662546
-17.4424 -0.0636166 -0.00346051 -0.0143181 0.0905121 0.0709923
-17.4596 -0.0675082 -0.00361065 -0.0111694 0.0988741 0.0764121
-17.4739 -0.0713439 -0.00372187 -0.00773203 0.107494 0.082606
-17.4863 -0.0748269 -0.00389203 -0.00418078 0.116386 0.0895124
-17.5 -0.0782338 -0.00427302 -0.000634001 0.125581 0.0964821
-17.3626 -0.0439193 -0.00257536 -0.0325483 0.0529412 0.0473326
-17.3937 -0.0475428 -0.00254874 -0.0298446 0.0607232 0.05041
-17.4247 -0.0515365 -0.00263691 -0.0271811 0.0687067 0.0535516
-17.4538 -0.0554248 -0.00283641 -0.0240987 0.0768644 0.0571725
-17.4811 -0.0592165 -0.00310432 -0.0207754 0.0852247 0.0612852
-17.5059 -0.063025 -0.00334443 -0.0174416 0.093803 0.0659615
-17.5277 -0.0669121 -0.00350981 -0.014069 0.102612 0.0713172
-17.5467 -0.0707303 -0.00366175 -0.0105239 0.11166 0.0774293
-17.5633 -0.0742869 -0.00386328 -0.0068842 0.120927 0.0842679
-17.5804 -0.0777553 -0.00418384 -0.0032181 0.130431 0.0912182
-17.4072 -0.0435015 -0.00270047 -0.0366558 0.0546734 0.0424251
-17.4383 -0.0469845 -0.00247374 -0.0337422 0.0627334 0.0454654
-17.4748 -0.0508913 -0.00258904 -0.0309548 0.0709895 0.0485661
-17.5094 -0.0547086 -0.00278864 -0.0277906 0.0794154 0.0521024
-17.5416 -0.0585113 -0.00303276 -0.0243515 0.0880863 0.056108
-17.5712 -0.0623723 -0.0032535 -0.0208342 0.0970521 0.0606821
-17.5979 -0.0662795 -0.0034323 -0.0172792 0.106307 0.0659514
-17.6219 -0.0701065 -0.00361427 -0.0136113 0.115799 0.0719925
-17.6434 -0.073714 -0.00384637 -0.00985117 0.125469 0.0787797
-17.6611 -0.0770758 -0.00397943 -0.00602531 0.135309 0.0857383
-17.4493 -0.0428043 -0.00252059 -0.0409289 0.0563624 0.0373121
-17.4853 -0.0464194 -0.0023442 -0.0379409 0.0647156 0.0402972
-17.5265 -0.050248 -0.0024983 -0.0350503 0.073241 0.0433865
-17.5661 -0.0539835 -0.00271755 -0.0317824 0.0819195 0.0468462
-17.6033 -0.0577722 -0.00295773 -0.0281975 0.0908852 0.05072
-17.6379 -0.0616778 -0.00317209 -0.0245105 0.100237 0.055151
-17.6698 -0.0656214 -0.0033666 -0.0208092 0.109953 0.0603077
-17.6993 -0.0694686 -0.0035736 -0.017023 0.119915 0.0662818
-17.7187 -0.072205 -0.00322462 -0.0137716 0.130091 0.0729611
-17.7498 -0.0759948 -0.00375057 -0.00945639 0.14028 0.0800277
-17.489 -0.0418812 -0.00209867 -0.0453247 0.0579979 0.0319972
-17.5343 -0.0458588 -0.00218638 -0.0423653 0.0666738 0.0349239
-17.5795 -0.0496098 -0.00238069 -0.0394303 0.075465 0.0380241
-17.6238 -0.0532424 -0.00263252 -0.0360673 0.0843618 0.0414136
-17.6661 -0.0570002 -0.00287944 -0.0323204 0.0935909 0.0451261
-17.7058 -0.0609574 -0.00309287 -0.0284805 0.103329 0.0493675
-17.7433 -0.0649512 -0.00330839 -0.0246778 0.113541 0.0543774
-17.7766 -0.0689717 -0.00362121 -0.0208833 0.123302 0.0606545
-17.7982 -0.0725698 -0.00352684 -0.0172894 0.133468 0.0667293
-17.5299 -0.0419532 -0.00218202 -0.0498442 0.0597279 0.0265863
-17.5835 -0.0451259 -0.00206593 -0.0468933 0.0684677 0.0294602
-17.6326 -0.0487102 -0.0022674 -0.0439249 0.0775545 0.032508
-17.6822 -0.0530608 -0.00286948 -0.0405447 0.086883 0.0357433
-17.7301 -0.0571655 -0.00323476 -0.0367717 0.0965422 0.0392497
-17.7753 -0.0606269 -0.00316719 -0.0328667 0.106584 0.0433306
-17.8187 -0.0639112 -0.00304045 -0.0288802 0.116981 0.0482647
-17.8565 -0.0677941 -0.00332477 -0.0245224 0.12793 0.0546478
-17.2769 -0.0922039 -0.00442028 0.0198846 0.0804362 0.0834862
-17.2956 -0.0984238 -0.00508814 0.0214645 0.0874159 0.0892825
-17.3025 -0.102962 -0.00460335 0.0248614 0.0955632 0.0959318
-17.318 -0.107382 -0.00461403 0.0290871 0.103387 0.10246
-17.3264 -0.110972 -0.00423237 0.0316299 0.110934 0.110264
-17.2614 -0.074014 -0.00174054 0.00829617 0.0616845 0.0652524
-17.2978 -0.0804653 -0.00304971 0.0111492 0.0690281 0.06926
-17.3186 -0.0864799 -0.00409382 0.0145065 0.0760055 0.0734907
-17.3349 -0.0905752 -0.00420982 0.0179216 0.0834935 0.0787855
-17.3562 -0.0948237 -0.00400777 0.0202884 0.0913386 0.0844385
-17.3712 -0.10016 -0.00398094 0.0235349 0.0991872 0.0909388
-17.3877 -0.104688 -0.00407078 0.02702 0.107447 0.097908
-17.399 -0.108698 -0.00401134 0.0299529 0.116051 0.105253
-17.3053 -0.0682237 -0.00256401 0.00375237 0.0572002 0.0573824
-17.3177 -0.0734922 -0.00229913 0.00574544 0.0646992 0.0604623
-17.3515 -0.0788412 -0.00293955 0.0096229 0.0718027 0.0644608
-17.3752 -0.0835327 -0.00332891 0.0129496 0.0795399 0.0686817
-17.3985 -0.0882121 -0.00367632 0.0158341 0.0872844 0.0736363
-17.4194 -0.0932733 -0.0038172 0.0186319 0.0951854 0.0793944
-17.4385 -0.0983688 -0.00386781 0.0218794 0.103411 0.085814
-17.4579 -0.103007 -0.00399636 0.0252512 0.111953 0.0928144
-17.4771 -0.107414 -0.00422007 0.0284338 0.120836 0.100032
-17.3193 -0.0658834 -0.00405651 -0.00167292 0.051729 0.0490184
-17.3457 -0.069279 -0.00343879 0.00154969 0.0591659 0.0518725
-17.3777 -0.0723052 -0.00272219 0.00394104 0.0664685 0.0554526
-17.4055 -0.0771938 -0.00292864 0.0070537 0.0743822 0.0592014
-17.4331 -0.081917 -0.00324448 0.0103526 0.0824311 0.0634734
-17.4599 -0.0866556 -0.00352713 0.0134862 0.0906055 0.0684097
-17.4848 -0.091598 -0.00368218 0.0165845 0.0989733 0.0740745
-17.508 -0.0965474 -0.00379068 0.0199152 0.107603 0.0804265
-17.5307 -0.101214 -0.00395321 0.0233148 0.116487 0.0874275
-17.5557 -0.105832 -0.00429473 0.0266397 0.125666 0.094588
-17.3587 -0.061582 -0.00264966 -0.00455449 0.053006 0.0434397
-17.3927 -0.0659867 -0.0026305 -0.00174747 0.0607846 0.0466777
-17.427 -0.070794 -0.00271356 0.00100001 0.0687851 0.0499898
-17.4602 -0.0755384 -0.00290775 0.00414457 0.076961 0.0537399
-17.4923 -0.0802232 -0.00317342 0.00750596 0.0853262 0.0580021
-17.5232 -0.0849596 -0.00341628 0.0108436 0.0939018 0.0628846
-17.5522 -0.0898185 -0.00358507 0.0141744 0.102714 0.0684618
-17.5798 -0.0946677 -0.00373598 0.0176279 0.111767 0.0747472
-17.6064 -0.0993226 -0.00393137 0.0211264 0.121031 0.081733
-17.6343 -0.103923 -0.00421509 0.0245785 0.130527 0.0889167
-17.4041 -0.0604558 -0.00277097 -0.00826425 0.054754 0.0380478
-17.4379 -0.0646328 -0.00255462 -0.00523863 0.0628049 0.0411225
-17.4777 -0.0692644 -0.00266874 -0.0023546 0.0710735 0.0443879
-17.516 -0.0738483 -0.00286494 0.000880776 0.0795147 0.0480902
-17.5529 -0.0784552 -0.00310689 0.00436001 0.0881916 0.052286
-17.5881 -0.0831566 -0.00332988 0.00788213 0.097156 0.0570715
-17.6217 -0.0879484 -0.00351226 0.0114029 0.106411 0.0625432
-17.654 -0.0927181 -0.00369416 0.0149926 0.115906 0.0687531
-17.6851 -0.0973359 -0.00391977 0.0186233 0.125576 0.0757101
-17.7134 -0.101753 -0.00402327 0.0222455 0.135415 0.0829836
-17.447 -0.0590258 -0.0025904 -0.0121957 0.0564519 0.0325168
-17.4856 -0.0632396 -0.00242542 -0.00908955 0.0647949 0.0354747
-17.5298 -0.0677 -0.00258172 -0.00608831 0.0733306 0.0386537
-17.573 -0.0721117 -0.00279839 -0.0027386 0.0820241 0.0422666
-17.6146 -0.076614 -0.00303626 0.000889447 0.0909962 0.0463409
-17.6546 -0.0812669 -0.00325304 0.00458235 0.100345 0.050975
-17.6931 -0.0859997 -0.00345209 0.00825646 0.11006 0.0563057
-17.7304 -0.0906957 -0.00366159 0.0119786 0.120025 0.0624241
-17.759 -0.0943101 -0.0032889 0.0151034 0.1302 0.0693489
-17.8005 -0.0990791 -0.00379471 0.019248 0.140388 0.076809
-17.4875 -0.0573456 -0.00216971 -0.0163111 0.0580886 0.0268207
-17.5353 -0.0618173 -0.0022685 -0.0132283 0.0667564 0.0297185
-17.5834 -0.0661034 -0.0024683 -0.0101644 0.0755572 0.0327926
-17.6311 -0.0703221 -0.00271813 -0.00670679 0.0844722 0.0362856
-17.6774 -0.0747022 -0.00296316 -0.0029143 0.0937083 0.0401828
-17.7222 -0.0793082 -0.00317929 0.000930496 0.10344 0.0445954
-17.766 -0.0839864 -0.00339972 0.00471182 0.113648 0.0497319
-17.8066 -0.0887615 -0.00370942 0.00844959 0.123411 0.0561516
-17.8375 -0.0932247 -0.0036406 0.011926 0.133566 0.0625523
-17.5294 -0.0566878 -0.00229484 -0.0206021 0.0598094 0.0210648
-17.5854 -0.0602765 -0.00219905 -0.0175242 0.0685332 0.0238926
-17.637 -0.0642139 -0.00235958 -0.0144254 0.0776148 0.0267824
-17.6896 -0.0689477 -0.00290498 -0.0109488 0.0869737 0.030038
-17.7413 -0.0735794 -0.00327164 -0.0071191 0.0966557 0.0336888
-17.7915 -0.0777179 -0.00327424 -0.00319325 0.106704 0.0378933
-17.8411 -0.0817126 -0.0032193 0.000783655 0.117111 0.0428912
-17.8855 -0.0861769 -0.00345781 0.00510304 0.128071 0.0493971
0 0 0 0 0 0
0 0 0 0 0 0
0 0 0 0 0 0
0 0 0 0 0 0
0 0 0 0 0 0
0 0 0 0 0 0
0 0 0 0 0 0
0 0 0 0 0 0
0 0 0 0 0 0
0 0 0 0 0 0
0 0 0 0 0 0
0 0 0 0 0 0
0 0 0 0 0 0
0 0 0 0 0 0
0 0 0 0 0 0
0 0 0 0 0 0
0 0 0 0 0 0
0 0 0 0 0 0
0 0 0 0 0 0
0 0 0 0 0 0
0 0 0 0 0 0
0 0 0 0 0 0
0 0 0 0 0 0
0 0 0 0 0 0
0 0 0 0 0 0
0 0 0 0 0 0
0 0 0 0 0 0
0 0 0 0 0 0
0 0 0 0 0 0
0 0 0 0 0 0
0 0 0 0 0 0
0 0 0 0 0 0
0 0 0 0 0 0
0 0 0 0 0 0
0 0 0 0 0 0
0 0 0 0 0 0
0 0 0 0 0 0
0 0 0 0 0 0
0 0 0 0 0 0
0 0 0 0 0 0
0 0 0 0 0 0
0 0 0 0 0 0
0 0 0 0 0 0
0 0 0 0 0 0
0 0 0 0 0 0
0 0 0 0 0 0
0 0 0 0 0 0
0 0 0 0 0 0
0 0 0 0 0 0
0 0 0 0 0 0
0 0 0 0 0 0
0 0 0 0 0 0
0 0 0 0 0 0
0 0 0 0 0 0
0 0 0 0 0 0
0 0 0 0 0 0
0 0 0 0 0 0
0 0 0 0 0 0
0 0 0 0 0 0
0 0 0 0 0 0
0 0 0 0 0 0
0 0 0 0 0 0
0 0 0 0 0 0
0 0 0 0 0 0
0 0 0 0 0 0
0 0 0 0 0 0
0 0 0 0 0 0
0 0 0 0 0 0
0 0 0 0 0 0
0 0 0 0 0 0
0 0 0 0 0 0
0 0 0 0 0 0
0 0 0 0 0 0
0 0 0 0 0 0
0 0 0 0 0 0
0 0 0 0 0 0
0 0 0 0 0 0
0 0 0 0 0 0
0 0 0 0 0 0
3.66936 -1.29193 -0.00441527 -0.0458644 0.0823135 -0.076164
3.58747 -1.29631 -0.00511327 -0.0474394 0.0882144 -0.0828028
3.51522 -1.29912 -0.00473483 -0.0506184 0.0948793 -0.0902721
3.44953 -1.3028 -0.00469503 -0.0545987 0.101275 -0.0980938
3.39136 -1.30588 -0.00428349 -0.0569676 0.109123 -0.105726
3.92906 -1.28195 -0.00183276 -0.0348493 0.0641139 -0.0575379
3.8536 -1.28758 -0.00314457 -0.0377514 0.0680128 -0.0645239
3.77788 -1.29189 -0.00408709 -0.041113 0.0721428 -0.0714048
3.71876 -1.29524 -0.00416686 -0.0445054 0.0774713 -0.0790483
3.65759 -1.29899 -0.00401648 -0.0468433 0.0832228 -0.0865668
3.58213 -1.30263 -0.00403033 -0.0499216 0.0897024 -0.0938162
3.51642 -1.30641 -0.00409319 -0.0532411 0.0965148 -0.102005
3.45514 -1.30986 -0.00401917 -0.0559634 0.103896 -0.110599
4.04122 -1.28296 -0.00258216 -0.030683 0.0559455 -0.0533464
3.96635 -1.28583 -0.00232703 -0.0327585 0.0590721 -0.0604943
3.90035 -1.29072 -0.00300564 -0.0367296 0.0630199 -0.0672066
3.83828 -1.29467 -0.00335963 -0.0401053 0.06717 -0.0748407
3.77631 -1.29872 -0.00369023 -0.0430125 0.0721454 -0.0825408
3.70815 -1.30268 -0.00384726 -0.0457529 0.0779778 -0.0900765
3.63804 -1.30657 -0.00391542 -0.048869 0.0843933 -0.0978476
3.57322 -1.31055 -0.00403416 -0.0520828 0.0913107 -0.106207
3.51162 -1.31461 -0.00419929 -0.0550388 0.0985362 -0.115006
4.10218 -1.28313 -0.00412952 -0.025728 0.0471798 -0.0482272
4.0541 -1.28627 -0.00350035 -0.0290145 0.0501522 -0.0553734
4.01118 -1.28982 -0.00277989 -0.0315162 0.0537985 -0.0622385
3.94834 -1.29392 -0.00298724 -0.0346931 0.0575232 -0.0697253
3.88782 -1.2981 -0.00328273 -0.0380356 0.0617759 -0.077546
3.82673 -1.30232 -0.00355395 -0.0411804 0.0667388 -0.0855424
3.76195 -1.3065 -0.00371819 -0.044231 0.0724538 -0.0935727
3.69597 -1.31063 -0.00383756 -0.047453 0.0788126 -0.101815
3.633 -1.31482 -0.00399591 -0.0507035 0.0857743 -0.110451
3.57197 -1.3193 -0.00427756 -0.0538087 0.0929351 -0.119478
4.16857 -1.28411 -0.00266934 -0.023313 0.0413975 -0.0495029
4.11436 -1.28833 -0.00268065 -0.0262195 0.0446759 -0.0569787
4.05545 -1.29275 -0.00276908 -0.0290552 0.0480361 -0.0644781
3.99707 -1.29716 -0.00296142 -0.0322654 0.051809 -0.0722089
3.93923 -1.30159 -0.0032169 -0.0356669 0.0560899 -0.080264
3.88016 -1.30603 -0.00345516 -0.039011 0.0610078 -0.0885791
3.81858 -1.31044 -0.00363074 -0.0423006 0.0666247 -0.0970559
3.75624 -1.31484 -0.00378708 -0.0456605 0.0729221 -0.105744
3.69573 -1.31926 -0.00397934 -0.0490199 0.0798956 -0.114709
3.63637 -1.32389 -0.00422333 -0.0522676 0.087099 -0.123983
4.20585 -1.2869 -0.00278002 -0.0200138 0.0357884 -0.0510938
4.15458 -1.291 -0.0026065 -0.0231513 0.0388503 -0.058875
4.10067 -1.29573 -0.00272576 -0.0261267 0.0421628 -0.066664
4.04694 -1.30044 -0.00291942 -0.0294305 0.0459058 -0.0746468
3.99245 -1.30513 -0.00315548 -0.0329479 0.0501424 -0.0829595
3.93609 -1.30982 -0.0033785 -0.0364737 0.054969 -0.0916137
3.87776 -1.3145 -0.00356761 -0.0399586 0.0604726 -0.100523
3.81892 -1.31917 -0.00375319 -0.0434668 0.0666932 -0.109649
3.76137 -1.32387 -0.0039725 -0.0469669 0.0736486 -0.118979
3.70446 -1.32841 -0.00406497 -0.0503973 0.0809793 -0.128529
4.24515 -1.28939 -0.00262787 -0.0164268 0.0300746 -0.0526433
4.19618 -1.2938 -0.00249341 -0.0196637 0.0329925 -0.0607395
4.1471 -1.29879 -0.00264682 -0.0227617 0.0361865 -0.0688111
4.09813 -1.30377 -0.00285979 -0.0261856 0.0398362 -0.0770295
4.04743 -1.30873 -0.00309351 -0.0298502 0.0439578 -0.0856038
3.99417 -1.31368 -0.00331372 -0.0335438 0.0486302 -0.0946164
3.93921 -1.31865 -0.00352011 -0.0371868 0.0539814 -0.103967
3.88401 -1.32363 -0.00373213 -0.040839 0.0601015 -0.113538
3.8368 -1.32764 -0.00335062 -0.0438593 0.067066 -0.123359
3.78241 -1.33327 -0.0038145 -0.0478424 0.0746181 -0.133208
4.286 -1.29158 -0.00225778 -0.0125978 0.0242115 -0.0541776
4.23911 -1.29672 -0.00235283 -0.0158182 0.0270728 -0.06259
4.19472 -1.30192 -0.00254517 -0.0189962 0.0301107 -0.0709296
4.15073 -1.30714 -0.00278313 -0.0225371 0.0336214 -0.0793475
4.10408 -1.31236 -0.00302359 -0.0263639 0.0375599 -0.0881677
4.05405 -1.31759 -0.00324871 -0.0302029 0.0419949 -0.0975604
4.00267 -1.32288 -0.00347901 -0.0339568 0.047131 -0.107379
3.94905 -1.3281 -0.00378676 -0.0376369 0.0535584 -0.116731
3.89397 -1.33265 -0.00377215 -0.0409985 0.0600457 -0.126544
4.31727 -1.29436 -0.00246943 -0.00854411 0.0183087 -0.0558583
4.28367 -1.29969 -0.00235455 -0.0117496 0.0210998 -0.0642302
4.24655 -1.30495 -0.00244709 -0.0149589 0.0238915 -0.0728698
4.20134 -1.31067 -0.00293376 -0.0185168 0.027124 -0.0817529
4.15485 -1.31634 -0.0033136 -0.0223857 0.0307949 -0.0910254
4.11109 -1.32179 -0.00339487 -0.0263219 0.0349985 -0.100738
4.06853 -1.32723 -0.00340603 -0.0302872 0.0399707 -0.110726
4.02106 -1.33253 -0.00359829 -0.0345474 0.046488 -0.121237
-7.81843 -0.676007 -0.00416895 -0.890528 0.1082 0.00476432
-7.9024 -0.681831 -0.00487117 -0.887996 0.116757 0.00392534
-7.99273 -0.685604 -0.00463939 -0.885327 0.126196 0.00350472
-8.09464 -0.689408 -0.00454916 -0.883514 0.136176 0.00282864
-8.17619 -0.693501 -0.00414523 -0.882019 0.147136 0.00299846
-7.51625 -0.663011 -0.00183698 -0.901477 0.0824243 0.00497064
-7.6174 -0.668523 -0.00314632 -0.899755 0.089806 0.00315419
-7.71584 -0.672871 -0.00388999 -0.897439 0.0974567 0.00145105
-7.80746 -0.676158 -0.00394641 -0.895648 0.106675 -0.000339178
-7.89182 -0.680404 -0.00393225 -0.894022 0.115763 -0.00184169
-7.98526 -0.684695 -0.00399675 -0.891625 0.124983 -0.00222464
-8.08069 -0.688869 -0.00402174 -0.88986 0.13546 -0.00284205
-8.16774 -0.693127 -0.00391816 -0.888302 0.146688 -0.00362977
-7.42528 -0.660905 -0.00252704 -0.90904 0.0739482 0.00244896
-7.50233 -0.664705 -0.00226457 -0.906095 0.08092 -0.000219128
-7.60999 -0.668648 -0.00302601 -0.904582 0.0881116 -0.0019039
-7.70418 -0.672256 -0.0033206 -0.90289 0.0963031 -0.00415685
-7.79451 -0.676265 -0.00359992 -0.901309 0.105165 -0.00611412
-7.88423 -0.680553 -0.00377213 -0.899438 0.114293 -0.00740704
-7.978 -0.684755 -0.00386923 -0.897481 0.123933 -0.00823636
-8.07254 -0.688978 -0.00396945 -0.89589 0.134532 -0.00902092
-8.16396 -0.69341 -0.00407339 -0.894575 0.145738 -0.0100368
-7.33786 -0.660736 -0.00399963 -0.913039 0.0644687 0.00044491
-7.42136 -0.662907 -0.00339977 -0.911806 0.0713463 -0.00254164
-7.49834 -0.66577 -0.00278957 -0.911127 0.0784169 -0.00464743
-7.59056 -0.66941 -0.00299068 -0.90951 0.0859674 -0.00709807
-7.68471 -0.673029 -0.00325016 -0.908076 0.0942719 -0.00946356
-7.77766 -0.676884 -0.00348976 -0.906678 0.103236 -0.0115798
-7.87055 -0.680945 -0.00365724 -0.905124 0.112645 -0.0132118
-7.96547 -0.68504 -0.00378763 -0.90354 0.122622 -0.0144236
-8.06056 -0.68922 -0.00393292 -0.902184 0.1334 -0.0154326
-8.15496 -0.693735 -0.00415587 -0.901103 0.144668 -0.0166486
-7.29818 -0.659756 -0.00264368 -0.917861 0.061302 -0.00411954
-7.38483 -0.663084 -0.00266874 -0.916848 0.0686186 -0.00700696
-7.47321 -0.666832 -0.00276763 -0.915673 0.0758734 -0.00978075
-7.56566 -0.670416 -0.0029538 -0.914515 0.083618 -0.0124124
-7.66053 -0.673975 -0.00318609 -0.91341 0.0920474 -0.0149502
-7.75566 -0.67769 -0.00340479 -0.912281 0.101145 -0.017286
-7.85106 -0.68158 -0.00357989 -0.911056 0.110799 -0.0192452
-7.94751 -0.685562 -0.00373766 -0.909828 0.12106 -0.0208096
-8.04395 -0.689658 -0.00391785 -0.908755 0.13204 -0.0220683
-8.1399 -0.694039 -0.00412049 -0.907878 0.143453 -0.0234464
-7.2645 -0.661651 -0.00275153 -0.921838 0.0583331 -0.00881911
-7.35222 -0.66457 -0.00259651 -0.921024 0.0657543 -0.0119821
-7.44183 -0.668195 -0.00272127 -0.920333 0.073194 -0.0149814
-7.53505 -0.671675 -0.00290814 -0.919631 0.081087 -0.0178238
-7.6311 -0.67513 -0.00312825 -0.918896 0.0896278 -0.0205837
-7.72817 -0.678713 -0.00334009 -0.918089 0.0988635 -0.0231946
-7.82569 -0.682464 -0.00352716 -0.917213 0.108733 -0.0254956
-7.92385 -0.686336 -0.00370902 -0.91635 0.119243 -0.0274068
-8.02198 -0.69033 -0.00391249 -0.915609 0.130435 -0.0289363
-8.11866 -0.694379 -0.00398438 -0.914898 0.14208 -0.030449
-7.22471 -0.663467 -0.00262809 -0.925865 0.055279 -0.0135823
-7.31415 -0.666367 -0.00249926 -0.925371 0.0628413 -0.0169999
-7.40456 -0.669846 -0.00264826 -0.925127 0.0704099 -0.0202429
-7.49867 -0.673189 -0.00285028 -0.924873 0.0783917 -0.0233107
-7.59605 -0.676509 -0.00307137 -0.92453 0.0870115 -0.026335
-7.69487 -0.679967 -0.00328698 -0.924078 0.0963714 -0.0292785
-7.79418 -0.68361 -0.00349107 -0.923576 0.10643 -0.0319542
-7.89407 -0.687383 -0.0036943 -0.923104 0.117164 -0.0342245
-7.97958 -0.690666 -0.00327071 -0.922779 0.128703 -0.0361225
-8.08727 -0.694893 -0.00370738 -0.922728 0.140675 -0.0377076
-7.17965 -0.66521 -0.00230276 -0.929899 0.0521483 -0.0184333
-7.27121 -0.668433 -0.00237847 -0.929881 0.0598882 -0.0220752
-7.36179 -0.671766 -0.00256131 -0.930051 0.0675381 -0.0255612
-7.45649 -0.674948 -0.00278415 -0.930241 0.0755469 -0.0288545
-7.55518 -0.678113 -0.00301499 -0.930299 0.0841974 -0.0321773
-7.65545 -0.681462 -0.00324092 -0.930216 0.0936546 -0.0355197
-7.75612 -0.685034 -0.00346762 -0.930121 0.103872 -0.0386204
-7.85626 -0.688793 -0.00373064 -0.929888 0.114662 -0.0404953
-7.95069 -0.692548 -0.0037027 -0.929372 0.125869 -0.0427538
-7.13676 -0.667888 -0.00252748 -0.933604 0.0491518 -0.0234135
-7.22439 -0.670721 -0.00242997 -0.934471 0.0567422 -0.0270616
-7.31217 -0.673643 -0.00244626 -0.935179 0.0644363 -0.0308706
-7.40883 -0.677053 -0.00284648 -0.935613 0.07259 -0.0346447
-7.50993 -0.680437 -0.0032301 -0.935934 0.0813769 -0.0384498
-7.61093 -0.683634 -0.00339817 -0.93633 0.0908975 -0.042153
-7.71257 -0.686826 -0.00347734 -0.936848 0.101096 -0.0454563
-7.81718 -0.689954 -0.00361149 -0.937053 0.11274 -0.0480652
-6.01953 -0.80378 -0.00396433 0.877337 -0.00199387 0.105106
-6.07251 -0.812847 -0.00461647 0.874642 -0.000671807 0.11325
-6.10887 -0.821705 -0.00447008 0.871795 0.00012846 0.122682
-6.14435 -0.831461 -0.00438657 0.869834 0.000527351 0.132152
-6.18931 -0.839802 -0.00400035 0.868243 0.000188855 0.142225
-5.9156 -0.774411 -0.00184463 0.889643 -0.00216457 0.0805486
-5.95606 -0.784592 -0.00309364 0.88767 -0.000442833 0.0880125
-5.98672 -0.794046 -0.00371057 0.885115 0.00109781 0.0954188
-6.01205 -0.80277 -0.0037889 0.882974 0.00288278 0.103981
-6.05063 -0.811402 -0.00387263 0.881038 0.00478983 0.11263
-6.08917 -0.820552 -0.00394441 0.878548 0.005444 0.121751
-6.12875 -0.829862 -0.00394858 0.876672 0.00580068 0.131796
-6.1727 -0.838654 -0.00384058 0.87504 0.00647347 0.142234
-5.89617 -0.766404 -0.00253749 0.898064 -0.000151433 0.0726273
-5.92791 -0.773823 -0.00228105 0.89475 0.00257513 0.0794506
-5.94946 -0.783944 -0.00302434 0.89293 0.00426182 0.0866545
-5.97456 -0.792838 -0.00329022 0.890947 0.00638867 0.0945877
-6.00595 -0.801635 -0.00354396 0.88909 0.00837038 0.102904
-6.04202 -0.810486 -0.00372115 0.887032 0.00995372 0.111597
-6.07841 -0.819602 -0.00382475 0.88497 0.0109721 0.120974
-6.11713 -0.828837 -0.00390804 0.883293 0.0116662 0.131137
-6.16048 -0.837963 -0.00399882 0.881919 0.0126117 0.141685
-5.89579 -0.759504 -0.00396029 0.90286 0.00106181 0.0639208
-5.90672 -0.766796 -0.00334269 0.901268 0.00424092 0.0704031
-5.929 -0.773905 -0.00280926 0.900242 0.00645616 0.0773341
-5.95335 -0.78253 -0.0029916 0.898354 0.00900072 0.0848235
-5.97775 -0.791355 -0.00322921 0.896664 0.011366 0.0928682
-6.00605 -0.800216 -0.00345123 0.895034 0.0135501 0.101384
-6.03807 -0.809162 -0.0036182 0.893315 0.0153756 0.110374
-6.07189 -0.818288 -0.00374922 0.89163 0.016729 0.120007
-6.10863 -0.827511 -0.00388173 0.890207 0.0177388 0.130341
-6.15085 -0.83684 -0.00408387 0.889085 0.0189358 0.14102
-5.89395 -0.755937 -0.00267413 0.908006 0.00515692 0.0610629
-5.91388 -0.763907 -0.00267036 0.906707 0.00814939 0.0681055
-5.93934 -0.772169 -0.00278007 0.905274 0.0111073 0.0752468
-5.96224 -0.780735 -0.00295684 0.903878 0.0138762 0.0828605
-5.98493 -0.789525 -0.00317277 0.902552 0.0164885 0.0910166
-6.01028 -0.798429 -0.00337848 0.901231 0.0189152 0.0997111
-6.03885 -0.80744 -0.00354974 0.899865 0.0210173 0.108957
-6.06992 -0.816594 -0.00370438 0.89855 0.0226974 0.118839
-6.10413 -0.825846 -0.00387171 0.897429 0.02401 0.129378
-6.14357 -0.83518 -0.00405387 0.896539 0.0254394 0.140238
-5.91822 -0.753923 -0.00278265 0.91241 0.00956123 0.0585938
-5.93296 -0.76174 -0.0026038 0.911354 0.0127107 0.0657662
-5.95574 -0.770005 -0.00273434 0.910442 0.0158683 0.0730463
-5.97637 -0.778538 -0.00291384 0.909534 0.0188607 0.0807599
-5.99668 -0.787315 -0.00312123 0.908615 0.0217345 0.0890118
-6.01912 -0.79625 -0.00332322 0.907654 0.0244424 0.0978621
-6.0446 -0.80531 -0.00350513 0.906666 0.026854 0.107334
-6.0729 -0.8145 -0.00367953 0.905735 0.0288646 0.117454
-6.10434 -0.823791 -0.00386821 0.904969 0.0304722 0.128221
-6.13938 -0.832993 -0.0039308 0.904278 0.0321109 0.139321
-5.94498 -0.751333 -0.0026738 0.916891 0.0140349 0.0560024
-5.95807 -0.759198 -0.00251119 0.916192 0.0173588 0.0633384
-5.97794 -0.767432 -0.00266745 0.915764 0.020708 0.0707367
-5.99581 -0.775933 -0.00286003 0.915338 0.0239271 0.0785168
-6.01332 -0.784701 -0.00307027 0.914848 0.0270798 0.0868322
-6.03291 -0.793657 -0.00327851 0.914281 0.0301082 0.0958111
-6.05564 -0.80275 -0.00347637 0.913698 0.0328657 0.105487
-6.08127 -0.811976 -0.00366837 0.913182 0.0352243 0.115839
-6.10959 -0.819865 -0.00323081 0.912904 0.0372297 0.126906
-6.14042 -0.829965 -0.00363743 0.912892 0.0389899 0.138336
-5.97398 -0.748228 -0.00236528 0.921396 0.0185519 0.0532811
-5.98857 -0.75632 -0.0024012 0.921209 0.0220733 0.0608213
-6.00564 -0.764474 -0.00258983 0.921234 0.0256064 0.0683198
-6.02049 -0.772916 -0.00280364 0.921288 0.0290477 0.0761247
-6.03494 -0.781668 -0.00302439 0.921238 0.0324991 0.0844543
-6.05189 -0.790626 -0.00324468 0.921083 0.0358905 0.0935297
-6.07235 -0.799732 -0.00346426 0.920939 0.0390386 0.103396
-6.09651 -0.808894 -0.00369515 0.920705 0.0409891 0.113805
-6.12588 -0.817674 -0.00368544 0.920265 0.0433667 0.12448
-6.01156 -0.745622 -0.00257905 0.925588 0.0231375 0.0505893
-6.02315 -0.753203 -0.00245142 0.926309 0.0267085 0.0580655
-6.03549 -0.760858 -0.00242928 0.926955 0.0305008 0.0656407
-6.05031 -0.769438 -0.00277998 0.927327 0.0343696 0.0735938
-6.06526 -0.778436 -0.00317713 0.927571 0.0382766 0.0820658
-6.08022 -0.787417 -0.00341251 0.927883 0.0419998 0.0912222
-6.09608 -0.796437 -0.0035342 0.928349 0.0453463 0.101124
-6.11106 -0.805597 -0.00361086 0.928583 0.048046 0.112431
-17.349 -0.196485 -0.00388524 0.124072 0.0702256 0.0706354
-17.4001 -0.207196 -0.00439298 0.125904 0.0765748 0.0750752
-17.4465 -0.217515 -0.0042501 0.128574 0.0837614 0.0807306
-17.5089 -0.227923 -0.00426106 0.131715 0.0903574 0.0862553
-17.5722 -0.237444 -0.00393672 0.133584 0.096558 0.0927069
-17.2596 -0.161009 -0.00175235 0.115112 0.0537207 0.0550749
-17.3168 -0.171533 -0.00296908 0.118115 0.0602335 0.0587666
-17.3607 -0.181547 -0.00353223 0.121416 0.0663467 0.0623805
-17.4058 -0.190873 -0.00370788 0.124648 0.0731495 0.0666014
-17.459 -0.200554 -0.00385925 0.127165 0.0802446 0.0709631
-17.5111 -0.210793 -0.00390496 0.129829 0.0870333 0.0764434
-17.5723 -0.22082 -0.00391206 0.132486 0.0940505 0.0824151
-17.6365 -0.230537 -0.00382463 0.134591 0.101289 0.0884561
-17.2961 -0.148059 -0.00257101 0.112139 0.0499784 0.0483167
-17.3189 -0.157081 -0.00223812 0.114504 0.0565673 0.0510187
-17.3719 -0.166813 -0.00302767 0.11869 0.0628098 0.054622
-17.4178 -0.175895 -0.00329843 0.122074 0.0696955 0.0582254
-17.4679 -0.185084 -0.00356182 0.125044 0.0765427 0.0621763
-17.5197 -0.194636 -0.00372778 0.127761 0.0834471 0.0667574
-17.575 -0.204422 -0.00381336 0.130541 0.0905609 0.0721209
-17.6373 -0.214176 -0.00389471 0.1332 0.0978829 0.0780411
-17.7054 -0.223887 -0.00400544 0.135473 0.10548 0.0840118
-17.3023 -0.13905 -0.00401309 0.108562 0.0452594 0.0414643
-17.3378 -0.145998 -0.00338347 0.112145 0.0517612 0.0436577
-17.383 -0.152925 -0.00285025 0.114935 0.058064 0.0468251
-17.4275 -0.161603 -0.00301413 0.118257 0.0650708 0.0500579
-17.4762 -0.170335 -0.00324943 0.121652 0.0721988 0.0536566
-17.5281 -0.179224 -0.00347307 0.124834 0.0793955 0.0576571
-17.5826 -0.188394 -0.00363362 0.127828 0.0866918 0.0622476
-17.6408 -0.197774 -0.00375587 0.130763 0.0941634 0.0675423
-17.7049 -0.207215 -0.00388506 0.133528 0.101818 0.0734241
-17.7761 -0.216788 -0.0040972 0.135955 0.109741 0.0793543
-17.3429 -0.132478 -0.00275718 0.107464 0.046332 0.0366879
-17.3875 -0.139994 -0.00272209 0.110793 0.0531784 0.0393507
-17.4347 -0.148045 -0.00282764 0.113905 0.0601891 0.0421504
-17.4838 -0.156229 -0.00299254 0.117286 0.0673875 0.0453334
-17.5357 -0.16455 -0.00320367 0.120767 0.0747559 0.0488909
-17.5904 -0.173074 -0.0034076 0.124141 0.0822796 0.052882
-17.6477 -0.181851 -0.00357361 0.127364 0.0899582 0.0574504
-17.7089 -0.190831 -0.00372247 0.130473 0.0978086 0.0626887
-17.7753 -0.199925 -0.00388378 0.133399 0.10582 0.068545
-17.848 -0.209167 -0.00406566 0.135995 0.114063 0.0744859
-17.3905 -0.128502 -0.00286204 0.105407 0.0480533 0.0320332
-17.4353 -0.135458 -0.0026611 0.108988 0.0551135 0.0346185
-17.4874 -0.142989 -0.0027881 0.112257 0.0623269 0.0373561
-17.5409 -0.150663 -0.00295844 0.115754 0.0697167 0.0404599
-17.5965 -0.158535 -0.0031598 0.119367 0.077323 0.0439323
-17.6543 -0.16665 -0.00335778 0.122923 0.085165 0.0478574
-17.7149 -0.175016 -0.00353529 0.126347 0.0932258 0.0523684
-17.7792 -0.183586 -0.00370331 0.129636 0.101468 0.0575471
-17.8487 -0.192294 -0.00388356 0.132744 0.109859 0.0633805
-17.9213 -0.201066 -0.0039441 0.13555 0.118423 0.0693884
-17.4369 -0.124148 -0.00274519 0.102888 0.0497062 0.0272454
-17.4852 -0.130737 -0.00256732 0.10659 0.0570202 0.0297949
-17.5414 -0.137743 -0.00272646 0.110012 0.0644411 0.0324529
-17.5991 -0.144893 -0.002912 0.113651 0.0720191 0.0354461
-17.6584 -0.152288 -0.00311537 0.117419 0.0798535 0.0387823
-17.7197 -0.159966 -0.00331782 0.121147 0.0880132 0.0425814
-17.7838 -0.167897 -0.00351194 0.124746 0.0964698 0.0469968
-17.8518 -0.176035 -0.00369753 0.128211 0.105123 0.0521036
-17.9183 -0.183182 -0.00321699 0.130873 0.113967 0.0578947
-18.0017 -0.191911 -0.00363083 0.134359 0.122852 0.0640833
-17.4816 -0.119471 -0.00242827 0.0999439 0.0512586 0.022312
-17.537 -0.125849 -0.00245416 0.103655 0.0588728 0.0248753
-17.5967 -0.132313 -0.00264948 0.107195 0.0665071 0.0274483
-17.6582 -0.138916 -0.00285722 0.110976 0.0742537 0.0303016
-17.7212 -0.145811 -0.003069 0.114905 0.0822937 0.0334407
-17.7861 -0.153032 -0.00328273 0.11878 0.0907754 0.0370445
-17.8543 -0.160504 -0.00350059 0.122517 0.0996634 0.0413237
-17.9241 -0.168256 -0.00371855 0.126035 0.108065 0.0467818
-17.9936 -0.176124 -0.00368097 0.129045 0.116841 0.0520721
-17.5275 -0.115681 -0.00264561 0.0965966 0.0527973 0.0173239
-17.5894 -0.120881 -0.00249378 0.100229 0.0604542 0.0198583
-17.6517 -0.126243 -0.00244783 0.103828 0.0683497 0.0222679
-17.7172 -0.132589 -0.00276966 0.107675 0.0765111 0.0248897
-17.7846 -0.139426 -0.00317579 0.111694 0.0849806 0.0277932
-17.8542 -0.146302 -0.00346509 0.115698 0.0937662 0.031214
-17.9273 -0.153131 -0.00363537 0.119662 0.102858 0.0353941
-17.9992 -0.160074 -0.00367683 0.12372 0.112449 0.0410041
2.37663 -1.32758 -0.00381475 -0.150319 0.0668047 -0.0605449
2.24819 -1.33551 -0.00420982 -0.152186 0.0710491 -0.0662642
2.11719 -1.34302 -0.00411181 -0.154713 0.0762402 -0.0724791
1.98991 -1.35186 -0.00418213 -0.157628 0.0811377 -0.078525
1.87209 -1.36066 -0.0039254 -0.159302 0.0871459 -0.084485
2.83565 -1.30748 -0.00176486 -0.14199 0.0523245 -0.0453051
2.71513 -1.3157 -0.00290198 -0.145035 0.0555579 -0.0510327
2.59353 -1.32266 -0.00338762 -0.148365 0.0587402 -0.0565585
2.47585 -1.32967 -0.00363366 -0.151548 0.0627354 -0.0629933
2.35551 -1.3375 -0.00387318 -0.154087 0.0668988 -0.0694328
2.22934 -1.34536 -0.0039249 -0.156619 0.0718945 -0.0753352
2.10776 -1.35392 -0.00394812 -0.159134 0.0771949 -0.0817623
1.99069 -1.36282 -0.00387438 -0.161029 0.0828119 -0.0886119
3.03466 -1.3059 -0.00262335 -0.139439 0.0455148 -0.0420734
2.91489 -1.31059 -0.00227007 -0.141876 0.0480774 -0.0478908
2.79989 -1.31819 -0.00308485 -0.14614 0.0513186 -0.0532806
2.68842 -1.32498 -0.00334655 -0.149575 0.054536 -0.0595368
2.57692 -1.33221 -0.0036078 -0.152579 0.0582398 -0.0658582
2.461 -1.33974 -0.00377035 -0.155264 0.0625873 -0.0720536
2.34244 -1.34767 -0.00385724 -0.15794 0.0675209 -0.0783643
2.22589 -1.35623 -0.00395374 -0.160459 0.0728784 -0.0850452
2.11171 -1.36535 -0.00404692 -0.162513 0.0783809 -0.0921546
3.17654 -1.30347 -0.00411434 -0.136352 0.038429 -0.0380294
3.08644 -1.30838 -0.00350015 -0.140011 0.0406564 -0.0437688
2.99935 -1.31403 -0.002915 -0.142874 0.043688 -0.049195
2.89336 -1.32045 -0.00308073 -0.146256 0.0466372 -0.0552841
2.78796 -1.32727 -0.00331126 -0.1497 0.0499296 -0.0616667
2.68153 -1.33449 -0.00353373 -0.152907 0.053676 -0.0681957
2.57196 -1.34205 -0.00369461 -0.155875 0.0579931 -0.0747479
2.46038 -1.35004 -0.00382055 -0.158722 0.062888 -0.0814364
2.34939 -1.3586 -0.00396124 -0.161353 0.068276 -0.0883954
2.23908 -1.36786 -0.00415396 -0.163567 0.0737304 -0.0957398
3.27329 -1.30392 -0.00281448 -0.135691 0.0335675 -0.0389718
3.18282 -1.30982 -0.00280423 -0.139138 0.0361559 -0.0450051
3.08674 -1.31612 -0.00290499 -0.142335 0.0388079 -0.0510395
2.9894 -1.32268 -0.00306799 -0.145784 0.0417764 -0.0572977
2.89112 -1.32958 -0.00327662 -0.149313 0.0450872 -0.0638416
2.79095 -1.33682 -0.00348079 -0.152708 0.0488318 -0.0706008
2.6881 -1.34443 -0.00364958 -0.155909 0.053113 -0.0774899
2.58344 -1.35247 -0.00380182 -0.158942 0.0579689 -0.0845383
2.47859 -1.36106 -0.00397158 -0.161741 0.0633698 -0.0917923
2.3735 -1.37028 -0.00414504 -0.164135 0.0688614 -0.099354
3.34694 -1.30605 -0.00291735 -0.13405 0.0287824 -0.0403435
3.26385 -1.31174 -0.00274908 -0.137762 0.0312246 -0.0466226
3.17695 -1.31822 -0.0028738 -0.141125 0.0338336 -0.0528652
3.08848 -1.32491 -0.00304258 -0.144696 0.036762 -0.0592993
2.99796 -1.33189 -0.00324229 -0.148358 0.0400294 -0.0660242
2.90489 -1.33919 -0.0034415 -0.151935 0.0437199 -0.0730322
2.8092 -1.34686 -0.00362289 -0.155342 0.0479399 -0.0802519
2.7117 -1.35497 -0.00379446 -0.158565 0.0527447 -0.0876525
2.61363 -1.36361 -0.00397924 -0.161552 0.0581318 -0.0952234
2.5147 -1.37263 -0.00404846 -0.164167 0.0637324 -0.103013
3.42421 -1.30795 -0.00280992 -0.131883 0.0238996 -0.0416797
3.34802 -1.31373 -0.00266568 -0.135736 0.0262639 -0.0482136
3.27026 -1.32033 -0.00281982 -0.139261 0.0287772 -0.0546619
3.19078 -1.32714 -0.00300522 -0.14298 0.0316137 -0.0612635
3.1085 -1.3342 -0.00320667 -0.146798 0.0347706 -0.0681767
3.0231 -1.34158 -0.00341064 -0.150547 0.0383419 -0.0754509
2.93509 -1.34933 -0.0036099 -0.154136 0.0424623 -0.0830078
2.8452 -1.35752 -0.00379879 -0.157546 0.0471994 -0.0907634
2.76381 -1.36526 -0.00331294 -0.16011 0.0526019 -0.0987587
2.67148 -1.37506 -0.00370837 -0.163429 0.0584079 -0.106795
3.50437 -1.30959 -0.00252025 -0.129233 0.0188866 -0.0429918
3.4352 -1.31579 -0.00255649 -0.133106 0.0212589 -0.0497797
3.36662 -1.32246 -0.00274984 -0.136765 0.0236462 -0.0564203
3.29637 -1.32935 -0.00295584 -0.140634 0.0263457 -0.0631655
3.22261 -1.33649 -0.00316574 -0.144614 0.0293195 -0.0702594
3.14528 -1.34395 -0.00338128 -0.148507 0.0326886 -0.0778199
3.06557 -1.35182 -0.00360518 -0.152243 0.0366591 -0.0857364
2.98256 -1.35997 -0.00381935 -0.155724 0.0417727 -0.0932091
2.89632 -1.36827 -0.00381083 -0.158647 0.046761 -0.101136
3.57685 -1.31172 -0.00277594 -0.126103 0.0138621 -0.0443906
3.52479 -1.31791 -0.00259944 -0.129896 0.016192 -0.0510707
3.47155 -1.32428 -0.00249732 -0.133625 0.0183614 -0.0579387
3.40808 -1.33135 -0.0027965 -0.13757 0.0207985 -0.0650938
3.33836 -1.33883 -0.00322908 -0.141651 0.0235262 -0.0726089
3.26734 -1.34655 -0.00358137 -0.145684 0.0266972 -0.0804702
3.19741 -1.35456 -0.00379754 -0.149651 0.0305552 -0.0885436
3.12571 -1.36251 -0.0038079 -0.153665 0.0358456 -0.0971277
-9.71322 -0.677804 -0.00352034 -0.837383 0.0816905 0.0059343
-9.83972 -0.687329 -0.00380575 -0.83426 0.0881756 0.00506009
-9.97272 -0.696628 -0.00376709 -0.830813 0.0954357 0.00469972
-10.1163 -0.706697 -0.00390205 -0.828278 0.102663 0.00440873
-10.2457 -0.717248 -0.0037283 -0.826402 0.11085 0.00481185
-9.30815 -0.64937 -0.00164778 -0.854072 0.0619041 0.00570324
-9.44314 -0.658028 -0.00275415 -0.851239 0.0675819 0.00464994
-9.57523 -0.665682 -0.003087 -0.847838 0.0732219 0.00360578
-9.70742 -0.673676 -0.00336938 -0.844632 0.0802322 0.00222445
-9.84043 -0.682716 -0.00373569 -0.841744 0.0871534 0.000839575
-9.97279 -0.691935 -0.00380453 -0.838753 0.0941112 0.000608847
-10.1085 -0.701653 -0.00384192 -0.836446 0.101858 0.000387548
-10.239 -0.712005 -0.00376906 -0.834712 0.110291 -8.4681e-05
-9.18972 -0.641448 -0.00253155 -0.865046 0.0552738 0.00359325
-9.29844 -0.647806 -0.00214914 -0.860569 0.0605737 0.00181818
-9.44323 -0.655111 -0.0030496 -0.857705 0.0659653 0.000943681
-9.57344 -0.662268 -0.00327591 -0.854765 0.0721139 -0.000595178
-9.70223 -0.670051 -0.00349864 -0.852107 0.0787277 -0.00202416
-9.83081 -0.678438 -0.00365167 -0.849449 0.0855731 -0.00299726
-9.96242 -0.687295 -0.00374875 -0.846929 0.0928356 -0.00353542
-10.0959 -0.696761 -0.00385365 -0.844904 0.100768 -0.00396114
-10.2271 -0.706957 -0.00390645 -0.843393 0.109229 -0.00465887
-9.07958 -0.635371 -0.00393485 -0.872165 0.0480286 0.00199432
-9.19347 -0.640034 -0.0033899 -0.869538 0.0530274 -7.40581e-05
-9.30254 -0.645633 -0.00287715 -0.867464 0.0582967 -0.00122048
-9.42694 -0.652195 -0.00303957 -0.864663 0.0639304 -0.00282854
-9.55481 -0.659064 -0.00324622 -0.862128 0.0701391 -0.00443409
-9.68331 -0.666444 -0.00344391 -0.859784 0.0768248 -0.00592392
-9.81247 -0.674383 -0.00359558 -0.857517 0.0838718 -0.00707738
-9.94359 -0.682862 -0.00372224 -0.855427 0.0913859 -0.0078795
-10.0759 -0.691991 -0.00386535 -0.853723 0.0994961 -0.00850042
-10.2076 -0.701965 -0.00401647 -0.85248 0.108012 -0.00936958
-9.04562 -0.63187 -0.00275457 -0.878385 0.0452084 -0.00126754
-9.16185 -0.637239 -0.00276831 -0.87623 0.050637 -0.00315005
-9.27938 -0.643328 -0.00286638 -0.873969 0.0559892 -0.00496844
-9.40193 -0.649557 -0.00302392 -0.871774 0.0617431 -0.00670251
-9.52815 -0.656076 -0.0032154 -0.869714 0.068021 -0.00841493
-9.6561 -0.66305 -0.00340207 -0.867772 0.0747975 -0.010023
-9.78524 -0.67056 -0.00356262 -0.865927 0.0820224 -0.0113712
-9.91591 -0.678643 -0.00371042 -0.864268 0.0897477 -0.0124164
-10.0477 -0.687388 -0.00387834 -0.862936 0.0980279 -0.0132264
-10.1789 -0.69696 -0.00402493 -0.861984 0.106642 -0.0142183
-9.01441 -0.63095 -0.00286294 -0.884047 0.0425719 -0.00473713
-9.12987 -0.635658 -0.00271455 -0.882276 0.0481065 -0.00680247
-9.24663 -0.64136 -0.00283619 -0.880659 0.0535803 -0.00877395
-9.36781 -0.647208 -0.00299899 -0.879071 0.0594207 -0.0106542
-9.49276 -0.653336 -0.00318542 -0.87753 0.0657558 -0.012512
-9.61998 -0.659897 -0.00337163 -0.876051 0.0726195 -0.0142887
-9.74874 -0.666986 -0.00354459 -0.874665 0.0799964 -0.015853
-9.87893 -0.674659 -0.00370911 -0.873458 0.0879043 -0.017137
-10.0102 -0.682994 -0.00388763 -0.872555 0.0963508 -0.0181449
-10.1405 -0.691999 -0.00394571 -0.871896 0.105128 -0.0192237
-8.97405 -0.630085 -0.00277633 -0.889868 0.0398748 -0.00826256
-9.08886 -0.63444 -0.00264151 -0.888559 0.0455367 -0.0104882
-9.20447 -0.639721 -0.00278607 -0.887556 0.0510905 -0.0126217
-9.32437 -0.645154 -0.00296402 -0.886568 0.0569717 -0.0146599
-9.44813 -0.650864 -0.0031539 -0.885573 0.0633351 -0.0166999
-9.5744 -0.657008 -0.00334762 -0.884599 0.0702652 -0.0186951
-9.70244 -0.663682 -0.00353741 -0.883714 0.0777666 -0.0205035
-9.83205 -0.670936 -0.00371608 -0.882998 0.0858371 -0.0220348
-9.948 -0.678147 -0.003201 -0.882753 0.0945778 -0.023332
-10.0877 -0.686885 -0.00358057 -0.88283 0.103613 -0.0244239
-8.9253 -0.629277 -0.00251954 -0.89578 0.0371282 -0.0118643
-9.03928 -0.633556 -0.00254522 -0.895076 0.0429422 -0.0142104
-9.15316 -0.638405 -0.00272693 -0.894656 0.0485283 -0.0165001
-9.2715 -0.643395 -0.00292381 -0.894265 0.0543982 -0.0186997
-9.3939 -0.64867 -0.0031243 -0.893825 0.0607441 -0.0209556
-9.51878 -0.654403 -0.00333039 -0.893385 0.0677084 -0.0232257
-9.64568 -0.660677 -0.00354257 -0.893055 0.0753056 -0.0253159
-9.77252 -0.667492 -0.00369572 -0.892763 0.08342 -0.0263556
-9.89638 -0.675023 -0.00366135 -0.892494 0.0918246 -0.0279104
-8.87402 -0.629402 -0.0027337 -0.901446 0.0345192 -0.015567
-8.98078 -0.633037 -0.00256522 -0.901745 0.0401169 -0.017811
-9.08809 -0.636933 -0.0024133 -0.902156 0.0456808 -0.0203136
-9.20501 -0.641633 -0.00266885 -0.902285 0.0516549 -0.0229056
-9.32824 -0.646885 -0.00310844 -0.902236 0.0581216 -0.0255729
-9.45361 -0.652468 -0.00349855 -0.902274 0.0651533 -0.0281456
-9.58031 -0.658283 -0.00373 -0.902599 0.0727457 -0.0303805
-9.70782 -0.664147 -0.00369393 -0.902886 0.0817144 -0.032053
-5.47774 -0.941976 -0.00325012 0.823815 -0.0010913 0.0721334
-5.56662 -0.955037 -0.00339837 0.820516 -4.80537e-05 0.0777141
-5.65741 -0.968644 -0.00338497 0.816871 0.000578271 0.0842924
-5.7575 -0.983384 -0.00359581 0.814154 0.000715025 0.0905984
-5.86948 -0.997232 -0.0035028 0.812118 2.76356e-05 0.0974936
-5.20844 -0.900674 -0.00150668 0.842035 -0.000842245 0.0548908
-5.27904 -0.914163 -0.00254565 0.838902 7.17016e-06 0.060154
-5.34285 -0.926932 -0.00277594 0.835208 0.000804003 0.0651566
-5.41441 -0.940091 -0.0031282 0.831594 0.00202065 0.0711995
-5.49739 -0.953822 -0.00358341 0.828321 0.003537 0.0772045
-5.58574 -0.96729 -0.0036426 0.825166 0.00391089 0.0834217
-5.68179 -0.981185 -0.00368796 0.822733 0.00393799 0.0902527
-5.78952 -0.994946 -0.0036576 0.820926 0.00420676 0.097431
-5.12288 -0.88909 -0.00246437 0.853861 0.000524714 0.0494114
-5.1779 -0.899538 -0.00207848 0.848984 0.00224493 0.0541408
-5.22994 -0.91337 -0.00295879 0.845765 0.00301528 0.0590716
-5.28891 -0.925913 -0.00316848 0.842492 0.00433761 0.0645519
-5.35654 -0.938603 -0.00337191 0.839516 0.00563512 0.070262
-5.43285 -0.951489 -0.00351258 0.836613 0.00667662 0.0762042
-5.51615 -0.964752 -0.00360641 0.833928 0.00727167 0.0826183
-5.60849 -0.97838 -0.00371228 0.831784 0.00758285 0.0895732
-5.71277 -0.992121 -0.00379202 0.830206 0.00810051 0.0968308
-5.05461 -0.878763 -0.00379594 0.861801 0.00117258 0.0434429
-5.08797 -0.889043 -0.00326325 0.858795 0.00326459 0.0477452
-5.1347 -0.899294 -0.00281088 0.85633 0.0043969 0.0524577
-5.18631 -0.911116 -0.0029551 0.853221 0.00597959 0.0575852
-5.24151 -0.923341 -0.00314565 0.850389 0.00746523 0.0631144
-5.30366 -0.93582 -0.00332739 0.84777 0.00886636 0.0689473
-5.37371 -0.948549 -0.00346865 0.845284 0.0100256 0.0750948
-5.45165 -0.961614 -0.00359017 0.843037 0.0108347 0.0816979
-5.53909 -0.975017 -0.00372875 0.841224 0.0113875 0.088795
-5.63925 -0.988688 -0.00389063 0.839927 0.012115 0.0961357
-5.01897 -0.874945 -0.00272145 0.868349 0.00363615 0.04115
-5.05564 -0.885641 -0.0026964 0.865871 0.00545392 0.0459873
-5.10189 -0.896719 -0.00279646 0.863322 0.00730989 0.0508239
-5.14911 -0.908253 -0.00294322 0.860853 0.00904253 0.056015
-5.19965 -0.920193 -0.00312014 0.858533 0.0106879 0.0615947
-5.2562 -0.932444 -0.00329279 0.856355 0.012227 0.0675382
-5.32025 -0.944982 -0.00344276 0.854317 0.0135459 0.0738619
-5.39255 -0.957843 -0.00358371 0.852517 0.0145675 0.0806426
-5.47442 -0.97104 -0.00374278 0.85109 0.015335 0.087895
-5.56895 -0.984492 -0.00389231 0.850102 0.0162506 0.0953461
-5.00713 -0.872289 -0.00283046 0.874444 0.00644005 0.039265
-5.03579 -0.882628 -0.002646 0.872387 0.00832256 0.0442048
-5.0766 -0.893486 -0.00276732 0.870521 0.0103041 0.0491201
-5.11866 -0.904752 -0.00292059 0.868694 0.0121794 0.0543554
-5.1639 -0.916423 -0.00309379 0.866931 0.0139894 0.0599754
-5.21474 -0.928435 -0.00326664 0.865252 0.0156972 0.0660114
-5.27285 -0.940758 -0.00342837 0.863701 0.0172065 0.0724855
-5.33931 -0.953403 -0.00358241 0.862374 0.0184437 0.0794311
-5.41531 -0.966385 -0.00374914 0.861394 0.0194094 0.08685
-5.50272 -0.979515 -0.00381333 0.860726 0.0204769 0.0944619
-5.00006 -0.86888 -0.00275374 0.880721 0.00928632 0.0372904
-5.02368 -0.878998 -0.00257236 0.879163 0.0112578 0.0423645
-5.05871 -0.889603 -0.00271992 0.877946 0.0133469 0.047344
-5.09512 -0.900599 -0.00288668 0.876757 0.0153643 0.0525972
-5.13469 -0.911999 -0.0030636 0.875578 0.0173483 0.0582328
-5.17976 -0.923755 -0.00324395 0.874442 0.0192537 0.0643385
-5.23199 -0.935841 -0.00342105 0.873422 0.0209818 0.0709433
-5.29249 -0.948257 -0.00358642 0.872608 0.0224484 0.0780432
-5.36136 -0.959495 -0.00305678 0.872355 0.0237147 0.085699
-5.43958 -0.973263 -0.0034187 0.872437 0.0248247 0.0935634
-4.99759 -0.864773 -0.00250585 0.887106 0.0121556 0.0352231
-5.0188 -0.874786 -0.0024821 0.886189 0.0142292 0.0404678
-5.04804 -0.885087 -0.002665 0.885594 0.0164165 0.0454902
-5.07855 -0.895786 -0.00285126 0.885039 0.01857 0.050725
-5.11227 -0.906898 -0.00303774 0.884456 0.0207395 0.0563347
-5.15172 -0.918368 -0.00322986 0.883895 0.0228721 0.0624834
-5.19826 -0.93019 -0.00342786 0.883462 0.0248537 0.0692095
-5.25318 -0.942142 -0.00352418 0.88313 0.0258238 0.0763149
-5.32063 -0.954163 -0.00348741 0.882896 0.0273487 0.0835492
-5.00535 -0.860728 -0.0026461 0.893285 0.0150764 0.033203
-5.02132 -0.869923 -0.00243186 0.893405 0.0170872 0.0383164
-5.04114 -0.879296 -0.00227168 0.893701 0.0194218 0.0433581
-5.06697 -0.889751 -0.00250801 0.893718 0.0218896 0.0487089
-5.09822 -0.900946 -0.00295489 0.893555 0.0244153 0.0544527
-5.13425 -0.91243 -0.00336507 0.893491 0.0268003 0.060681
-5.17429 -0.924039 -0.00359027 0.893743 0.0289171 0.0674308
-5.21762 -0.935635 -0.00350039 0.894009 0.0305415 0.0753844
0 0 0 0 0 0
0 0 0 0 0 0
0 0 0 0 0 0
0 0 0 0 0 0
0 0 0 0 0 0
0 0 0 0 0 0
0 0 0 0 0 0
0 0 0 0 0 0
0 0 0 0 0 0
0 0 0 0 0 0
0 0 0 0 0 0
0 0 0 0 0 0
0 0 0 0 0 0
0 0 0 0 0 0
0 0 0 0 0 0
0 0 0 0 0 0
0 0 0 0 0 0
0 0 0 0 0 0
0 0 0 0 0 0
0 0 0 0 0 0
0 0 0 0 0 0
0 0 0 0 0 0
0 0 0 0 0 0
0 0 0 0 0 0
0 0 0 0 0 0
0 0 0 0 0 0
0 0 0 0 0 0
0 0 0 0 0 0
0 0 0 0 0 0
0 0 0 0 0 0
0 0 0 0 0 0
0 0 0 0 0 0
0 0 0 0 0 0
0 0 0 0 0 0
0 0 0 0 0 0
0 0 0 0 0 0
0 0 0 0 0 0
0 0 0 0 0 0
0 0 0 0 0 0
0 0 0 0 0 0
0 0 0 0 0 0
0 0 0 0 0 0
0 0 0 0 0 0
0 0 0 0 0 0
0 0 0 0 0 0
0 0 0 0 0 0
0 0 0 0 0 0
0 0 0 0 0 0
0 0 0 0 0 0
0 0 0 0 0 0
0 0 0 0 0 0
0 0 0 0 0 0
0 0 0 0 0 0
0 0 0 0 0 0
0 0 0 0 0 0
0 0 0 0 0 0
0 0 0 0 0 0
0 0 0 0 0 0
0 0 0 0 0 0
0 0 0 0 0 0
0 0 0 0 0 0
0 0 0 0 0 0
0 0 0 0 0 0
0 0 0 0 0 0
0 0 0 0 0 0
0 0 0 0 0 0
0 0 0 0 0 0
0 0 0 0 0 0
0 0 0 0 0 0
0 0 0 0 0 0
0 0 0 0 0 0
0 0 0 0 0 0
0 0 0 0 0 0
0 0 0 0 0 0
0 0 0 0 0 0
0 0 0 0 0 0
0 0 0 0 0 0
0 0 0 0 0 0
0 0 0 0 0 0
-17.4026 -0.301299 -0.00311756 0.229876 0.0429616 0.0405018
-17.4847 -0.316188 -0.00311403 0.231993 0.0469434 0.0426535
-17.5696 -0.332055 -0.00308976 0.2342 0.0515154 0.0457073
-17.6763 -0.348591 -0.00338594 0.236351 0.0553925 0.0485088
-17.7914 -0.364544 -0.00338596 0.237398 0.058821 0.0521233
-17.2498 -0.248193 -0.00133371 0.223609 0.0328586 0.0315612
-17.3246 -0.262695 -0.0023518 0.226769 0.0368356 0.0337943
-17.3882 -0.276774 -0.00254587 0.2301 0.0404338 0.0357268
-17.4591 -0.291712 -0.00300106 0.233092 0.0448168 0.0380536
-17.5426 -0.307305 -0.00354041 0.235833 0.0494186 0.0401797
-17.6307 -0.322604 -0.00357778 0.238096 0.0535037 0.0430744
-17.7336 -0.338035 -0.00363713 0.240101 0.0576758 0.0462715
-17.8491 -0.353443 -0.00364831 0.241325 0.0619916 0.0494858
-17.28 -0.228405 -0.00246729 0.222382 0.0307998 0.0275638
-17.3115 -0.24125 -0.00200292 0.225131 0.0348716 0.0290997
-17.3812 -0.255423 -0.00292724 0.229587 0.0385207 0.0312318
-17.4468 -0.268954 -0.00314576 0.233073 0.0427975 0.0331802
-17.5206 -0.282738 -0.0033592 0.236139 0.0470478 0.0352642
-17.6013 -0.296947 -0.00348749 0.238809 0.0512807 0.0376647
-17.691 -0.311557 -0.00356758 0.241243 0.0555818 0.0405187
-17.7938 -0.326432 -0.00368189 0.243305 0.0599824 0.0436895
-17.9099 -0.341513 -0.00380959 0.244693 0.0645594 0.0467994
-17.2778 -0.212631 -0.00382641 0.220801 0.0279849 0.0235571
-17.323 -0.223281 -0.00327938 0.224722 0.031929 0.0246888
-17.3789 -0.234083 -0.00281304 0.227819 0.0355819 0.0266469
-17.4385 -0.24663 -0.00294091 0.231369 0.0399047 0.0284214
-17.5057 -0.259446 -0.00313206 0.234906 0.0443172 0.0303789
-17.5804 -0.272577 -0.00331694 0.238174 0.0487594 0.0325142
-17.6623 -0.286109 -0.00345244 0.24111 0.0532203 0.034951
-17.7535 -0.300039 -0.00356953 0.243735 0.0577554 0.0377862
-17.8565 -0.314307 -0.00371141 0.245947 0.0623905 0.0409452
-17.9733 -0.328949 -0.00391079 0.247516 0.0672029 0.0440005
-17.3208 -0.203795 -0.00278708 0.2214 0.0284274 0.020601
-17.3741 -0.214451 -0.00270974 0.225278 0.0326296 0.0221968
-17.4329 -0.225825 -0.00280492 0.228763 0.0369215 0.023753
-17.4964 -0.237529 -0.0029408 0.232412 0.0413471 0.0255096
-17.5659 -0.249568 -0.00311415 0.236068 0.0458886 0.0274531
-17.6421 -0.261977 -0.00328638 0.239533 0.0505159 0.029604
-17.7256 -0.274795 -0.00343304 0.242704 0.0552086 0.0320522
-17.8181 -0.28802 -0.00357228 0.245536 0.0599898 0.0348675
-17.9219 -0.301627 -0.00373088 0.247952 0.0648682 0.0380229
-18.0386 -0.315638 -0.00390178 0.249724 0.0698986 0.0410836
-17.3714 -0.196996 -0.00288674 0.221028 0.0295745 0.017732
-17.4246 -0.206744 -0.00266566 0.225205 0.0338889 0.0192742
-17.4878 -0.217248 -0.00278076 0.228881 0.0382885 0.0207936
-17.5551 -0.228086 -0.00292439 0.232683 0.0428111 0.0225078
-17.6274 -0.239307 -0.0030919 0.236498 0.0474797 0.0244079
-17.7056 -0.250941 -0.00326177 0.240162 0.0522898 0.0265368
-17.7909 -0.263002 -0.00342133 0.243553 0.0572164 0.0289698
-17.8851 -0.275485 -0.00357277 0.2466 0.0622471 0.0317576
-17.9902 -0.28837 -0.00373525 0.249233 0.0673788 0.0349039
-18.1059 -0.301615 -0.00381656 0.251255 0.0726234 0.0380318
-17.4215 -0.18972 -0.00279646 0.219964 0.0306624 0.0147708
-17.477 -0.19871 -0.00258865 0.224312 0.03514 0.016318
-17.544 -0.208336 -0.00273617 0.228182 0.0396455 0.0177808
-17.6147 -0.218291 -0.00289362 0.232159 0.0442598 0.0194241
-17.6899 -0.22866 -0.00306262 0.236154 0.0490483 0.021244
-17.7706 -0.239475 -0.00323773 0.240007 0.0540442 0.0233084
-17.8581 -0.250733 -0.00341406 0.243605 0.0592154 0.0256998
-17.9542 -0.262429 -0.00357733 0.246872 0.0645027 0.0284506
-18.0557 -0.273221 -0.00300723 0.249115 0.0699651 0.0315896
-18.1796 -0.286017 -0.00339021 0.251963 0.0754112 0.0348982
-17.4706 -0.182033 -0.00253519 0.218238 0.0316694 0.0117096
-17.5313 -0.190372 -0.00249047 0.222648 0.0363486 0.0133257
-17.6013 -0.199096 -0.00267613 0.226678 0.0409608 0.0147211
-17.6752 -0.208144 -0.00285231 0.230831 0.0456484 0.0162657
-17.7533 -0.217636 -0.00302706 0.235002 0.0505385 0.0179578
-17.8366 -0.227592 -0.00321283 0.23902 0.0557265 0.0199061
-17.9269 -0.237992 -0.00341246 0.242801 0.0611735 0.0222306
-18.0234 -0.248722 -0.00348054 0.246152 0.0660837 0.025362
-18.1284 -0.259952 -0.00341542 0.248817 0.0713533 0.0280877
-17.5202 -0.174847 -0.00262312 0.215793 0.0326781 0.00864436
-17.5863 -0.181636 -0.00236916 0.220101 0.0372769 0.0102709
-17.6581 -0.188664 -0.00221254 0.224267 0.0420355 0.0115498
-17.7352 -0.196915 -0.00244379 0.228567 0.0470358 0.0129371
-17.8169 -0.206059 -0.00289208 0.23288 0.0522764 0.0144726
-17.9041 -0.215562 -0.0033228 0.23705 0.0577017 0.0162973
-17.9984 -0.225067 -0.00356546 0.241063 0.0632793 0.0185615
-18.0955 -0.234603 -0.00343532 0.244907 0.0692347 0.0218824
0 0 0 0 0 0
0 0 0 0 0 0
0 0 0 0 0 0
0 0 0 0 0 0
0 0 0 0 0 0
0 0 0 0 0 0
0 0 0 0 0 0
0 0 0 0 0 0
0 0 0 0 0 0
0 0 0 0 0 0
0 0 0 0 0 0
0 0 0 0 0 0
0 0 0 0 0 0
0 0 0 0 0 0
0 0 0 0 0 0
0 0 0 0 0 0
0 0 0 0 0 0
0 0 0 0 0 0
0 0 0 0 0 0
0 0 0 0 0 0
0 0 0 0 0 0
0 0 0 0 0 0
0 0 0 0 0 0
0 0 0 0 0 0
0 0 0 0 0 0
0 0 0 0 0 0
0 0 0 0 0 0
0 0 0 0 0 0
0 0 0 0 0 0
0 0 0 0 0 0
0 0 0 0 0 0
0 0 0 0 0 0
0 0 0 0 0 0
0 0 0 0 0 0
0 0 0 0 0 0
0 0 0 0 0 0
0 0 0 0 0 0
0 0 0 0 0 0
0 0 0 0 0 0
0 0 0 0 0 0
0 0 0 0 0 0
0 0 0 0 0 0
0 0 0 0 0 0
0 0 0 0 0 0
0 0 0 0 0 0
0 0 0 0 0 0
0 0 0 0 0 0
0 0 0 0 0 0
0 0 0 0 0 0
0 0 0 0 0 0
0 0 0 0 0 0
0 0 0 0 0 0
0 0 0 0 0 0
0 0 0 0 0 0
0 0 0 0 0 0
0 0 0 0 0 0
0 0 0 0 0 0
0 0 0 0 0 0
0 0 0 0 0 0
0 0 0 0 0 0
0 0 0 0 0 0
0 0 0 0 0 0
0 0 0 0 0 0
0 0 0 0 0 0
0 0 0 0 0 0
0 0 0 0 0 0
0 0 0 0 0 0
0 0 0 0 0 0
0 0 0 0 0 0
0 0 0 0 0 0
0 0 0 0 0 0
0 0 0 0 0 0
0 0 0 0 0 0
0 0 0 0 0 0
0 0 0 0 0 0
0 0 0 0 0 0
0 0 0 0 0 0
0 0 0 0 0 0
0 0 0 0 0 0
1.06712 -1.36197 -0.00303723 -0.256749 0.0341442 -0.0278874
0.892348 -1.37316 -0.00289577 -0.258917 0.0357104 -0.0308447
0.703725 -1.38507 -0.00290056 -0.261006 0.0379594 -0.0341973
0.513708 -1.39899 -0.00329203 -0.262888 0.0396916 -0.0371147
0.331019 -1.41354 -0.00340866 -0.263771 0.0422754 -0.0399605
1.73212 -1.3323 -0.00133645 -0.251084 0.0272737 -0.0202116
1.56508 -1.34284 -0.00227536 -0.254287 0.0287973 -0.0230032
1.39587 -1.35232 -0.00240233 -0.257661 0.0300048 -0.0255464
1.21631 -1.3629 -0.00293085 -0.26062 0.0317727 -0.0289736
1.0319 -1.37473 -0.00357334 -0.263404 0.033337 -0.0324686
0.852164 -1.38662 -0.00362233 -0.265583 0.0353608 -0.0353651
0.675064 -1.3998 -0.00372416 -0.26747 0.0374138 -0.0385801
0.501674 -1.41415 -0.00375905 -0.268495 0.0396834 -0.0421826
2.01695 -1.32839 -0.00252564 -0.250328 0.023448 -0.0188688
1.85069 -1.33475 -0.00204479 -0.253174 0.0246895 -0.021718
1.68532 -1.34485 -0.00298847 -0.257711 0.0262028 -0.0240568
1.52306 -1.35434 -0.00320543 -0.261256 0.0274963 -0.0272077
1.35995 -1.36461 -0.00341828 -0.264354 0.0290306 -0.0304442
1.19308 -1.37554 -0.00354469 -0.267005 0.0308483 -0.0335572
1.02347 -1.38733 -0.00363393 -0.269367 0.0328812 -0.0366922
0.854249 -1.40031 -0.00377807 -0.271312 0.0350394 -0.0400859
0.686421 -1.41451 -0.00390187 -0.2725 0.0371577 -0.0438228
2.24134 -1.32335 -0.00391391 -0.2493 0.0194288 -0.0170929
2.10768 -1.33005 -0.00339195 -0.253279 0.0204695 -0.0197616
1.97504 -1.33757 -0.00287011 -0.256435 0.0221156 -0.0220717
1.82435 -1.34618 -0.00300635 -0.260063 0.0233813 -0.0249932
1.67246 -1.35553 -0.00319782 -0.263662 0.0247777 -0.0281604
1.51861 -1.36559 -0.00338598 -0.266965 0.0263645 -0.0314466
1.36155 -1.37637 -0.00352711 -0.269891 0.0281868 -0.0347271
1.2019 -1.38804 -0.00365512 -0.272452 0.0302364 -0.0380788
1.04126 -1.40082 -0.00382082 -0.274551 0.032464 -0.0416161
0.880189 -1.41488 -0.00402212 -0.275932 0.0345299 -0.0454572
2.36835 -1.32336 -0.00284766 -0.250308 0.0165125 -0.0172369
2.24044 -1.33074 -0.0027774 -0.254305 0.0178719 -0.0201128
2.10559 -1.33884 -0.00287198 -0.25789 0.0191062 -0.0229412
1.96775 -1.34745 -0.00301127 -0.261626 0.0204381 -0.025932
1.82732 -1.35668 -0.00318649 -0.265349 0.0218936 -0.0291411
1.68395 -1.36659 -0.00336379 -0.268855 0.0235167 -0.0325046
1.53728 -1.37723 -0.00351971 -0.272023 0.0253492 -0.0359474
1.38785 -1.38874 -0.00366909 -0.274799 0.0274026 -0.0394927
1.23673 -1.40133 -0.00384803 -0.277105 0.0296706 -0.0431742
1.08415 -1.41515 -0.0040367 -0.278699 0.0317974 -0.0470883
2.47829 -1.32486 -0.00294789 -0.250367 0.0135952 -0.0178392
2.36217 -1.33192 -0.00274201 -0.254683 0.0148216 -0.0208659
2.24077 -1.34006 -0.00285304 -0.258466 0.016055 -0.0237976
2.11607 -1.34866 -0.00299968 -0.262362 0.0173994 -0.0268617
1.98781 -1.3578 -0.00316937 -0.266251 0.0188669 -0.0301326
1.85585 -1.36758 -0.00334521 -0.269962 0.0204957 -0.0335934
1.72025 -1.37807 -0.00351556 -0.273361 0.0223264 -0.0371897
1.58161 -1.38943 -0.00367841 -0.276361 0.0243694 -0.0409129
1.44092 -1.40185 -0.00385666 -0.278886 0.0266338 -0.0447581
1.29806 -1.41533 -0.00397804 -0.280738 0.0288906 -0.0487497
2.5936 -1.32617 -0.00286555 -0.249669 0.0106178 -0.0184289
2.48882 -1.33313 -0.00267734 -0.254184 0.0118127 -0.0216074
2.38087 -1.34125 -0.00281456 -0.258168 0.0129766 -0.0246395
2.26951 -1.34981 -0.00297425 -0.262246 0.0142841 -0.0277698
2.15395 -1.35887 -0.00314421 -0.266322 0.0157121 -0.0311138
2.03413 -1.36853 -0.00332488 -0.270231 0.0172999 -0.0346864
1.91042 -1.3789 -0.00351329 -0.273849 0.0191053 -0.038432
1.78326 -1.39012 -0.00368939 -0.277082 0.0211324 -0.0423253
1.66541 -1.40141 -0.00312444 -0.279252 0.0234667 -0.0464545
1.53321 -1.41531 -0.00349786 -0.281949 0.0259257 -0.0505353
2.71328 -1.32726 -0.00263281 -0.248259 0.00755485 -0.0190455
2.62025 -1.33435 -0.00258222 -0.252848 0.00882663 -0.0223516
2.5258 -1.34241 -0.00275938 -0.257005 0.00988006 -0.025462
2.428 -1.35091 -0.00293355 -0.261267 0.0111059 -0.0286437
2.32547 -1.35988 -0.00310739 -0.265525 0.0124349 -0.0320582
2.21845 -1.36943 -0.00329692 -0.269605 0.0139137 -0.0357542
2.10763 -1.3797 -0.00350977 -0.27342 0.0156628 -0.0396566
1.9937 -1.39055 -0.00356245 -0.276755 0.0181238 -0.0431103
1.87503 -1.40239 -0.00353905 -0.279359 0.0201849 -0.0470164
2.82952 -1.32859 -0.00271495 -0.246044 0.00454908 -0.0197759
2.75773 -1.33547 -0.00242077 -0.250537 0.00582721 -0.0228104
2.68499 -1.34301 -0.0022138 -0.254857 0.00671205 -0.0260206
2.59974 -1.35147 -0.00244691 -0.259286 0.00775975 -0.0295034
2.50494 -1.36064 -0.00292934 -0.263693 0.00892668 -0.0332235
2.40675 -1.37039 -0.00340262 -0.26792 0.0102687 -0.0371091
2.30977 -1.38066 -0.00366317 -0.271958 0.0119596 -0.041069
2.2115 -1.39108 -0.00348713 -0.275782 0.0146698 -0.0454577
-11.6355 -0.677919 -0.00277841 -0.782394 0.0310438 0.00688199
-11.8035 -0.691041 -0.00254362 -0.778449 0.033358 0.00659941
-11.9789 -0.705496 -0.00255707 -0.774078 0.036285 0.00640475
-12.1628 -0.721843 -0.00305746 -0.770676 0.0387222 0.00624395
-12.3413 -0.739052 -0.00328849 -0.768154 0.0420077 0.00670443
-11.1279 -0.634248 -0.00123713 -0.805514 0.0229494 0.00601858
-11.2962 -0.645998 -0.00218915 -0.801255 0.0250144 0.00614959
-11.4628 -0.656932 -0.00218104 -0.796588 0.0267847 0.00618038
-11.6355 -0.669547 -0.00268912 -0.79179 0.0296489 0.00588282
-11.8171 -0.683343 -0.00341367 -0.787352 0.0322867 0.00525682
-11.9898 -0.69729 -0.00347783 -0.783438 0.0347481 0.00532978
-12.1669 -0.712406 -0.00361777 -0.78047 0.03762 0.00525609
-12.3415 -0.728964 -0.00368055 -0.778486 0.0411118 0.00496242
-10.9851 -0.620508 -0.00239605 -0.820046 0.0199628 0.00482056
-11.1257 -0.629288 -0.00188838 -0.81382 0.0218843 0.00458974
-11.3064 -0.639849 -0.00290971 -0.80942 0.0235318 0.00501435
-11.4731 -0.65052 -0.00309489 -0.805075 0.0257369 0.00468697
-11.6403 -0.662081 -0.00327359 -0.801126 0.0282571 0.00434904
-11.8076 -0.674518 -0.00339227 -0.797374 0.0308053 0.00419687
-11.9779 -0.687901 -0.00349789 -0.793998 0.0334661 0.00416937
-12.1513 -0.702509 -0.00365766 -0.79135 0.0364999 0.00405844
-12.3235 -0.718523 -0.00375043 -0.789533 0.039878 0.0036599
-10.8547 -0.608327 -0.00368548 -0.830425 0.0167942 0.00376987
-10.9981 -0.615553 -0.00323181 -0.826267 0.0184081 0.00349769
-11.1376 -0.623801 -0.00277417 -0.82257 0.0201311 0.00395413
-11.2947 -0.63323 -0.00291153 -0.818421 0.0219577 0.00378001
-11.4569 -0.6433 -0.0030814 -0.814611 0.0241628 0.00351135
-11.6212 -0.654173 -0.00324829 -0.811102 0.0266483 0.0032244
-11.7868 -0.66593 -0.00338508 -0.807844 0.0292714 0.0030379
-11.9547 -0.6787 -0.00351821 -0.80497 0.0320849 0.00293246
-12.125 -0.692693 -0.00368981 -0.802692 0.035203 0.00280763
-12.2955 -0.708172 -0.00386569 -0.801156 0.0385117 0.00237214
-10.8258 -0.602427 -0.00273992 -0.838033 0.014702 0.00289766
-10.9707 -0.609714 -0.00266585 -0.834549 0.0166443 0.00284351
-11.1177 -0.618102 -0.00276696 -0.831043 0.0183518 0.00269437
-11.271 -0.62692 -0.00290368 -0.827652 0.020258 0.00252023
-11.4293 -0.636337 -0.0030649 -0.82446 0.022473 0.00227753
-11.5907 -0.646513 -0.00322801 -0.821484 0.0249603 0.00201081
-11.754 -0.657579 -0.00338004 -0.818751 0.0276539 0.00179173
-11.9193 -0.669682 -0.00352887 -0.816383 0.0305681 0.00162422
-12.0869 -0.683002 -0.00370975 -0.814549 0.0337419 0.0014841
-12.255 -0.697821 -0.00389868 -0.813378 0.037036 0.00107822
-10.7977 -0.598663 -0.00285179 -0.845373 0.0127345 0.00178509
-10.9405 -0.605037 -0.00263169 -0.842469 0.0147267 0.00162205
-11.0847 -0.612774 -0.00274222 -0.83978 0.0165089 0.00143632
-11.2347 -0.620933 -0.00288657 -0.837153 0.0184619 0.00124058
-11.3895 -0.629662 -0.00304585 -0.834633 0.0206853 0.000993933
-11.5478 -0.639126 -0.00321094 -0.832257 0.023185 0.000719211
-11.7085 -0.649481 -0.00337598 -0.83009 0.0259276 0.000467307
-11.8712 -0.660875 -0.00353713 -0.828256 0.0289089 0.000246845
-12.0358 -0.673478 -0.00371457 -0.826929 0.0321283 6.51905e-05
-12.2012 -0.687512 -0.00386132 -0.826178 0.0354641 -0.000278118
-10.7574 -0.595073 -0.00279519 -0.853012 0.0107625 0.000639528
-10.8975 -0.600763 -0.00258005 -0.8507 0.0128294 0.000420573
-11.0388 -0.607815 -0.00270427 -0.848799 0.0146365 0.000173247
-11.1854 -0.615284 -0.00285888 -0.84694 0.0165954 -5.6168e-05
-11.3369 -0.623298 -0.00301991 -0.845125 0.0188132 -0.000335165
-11.4919 -0.632036 -0.00319039 -0.843398 0.0213119 -0.000644454
-11.6497 -0.641662 -0.0033699 -0.841851 0.0240742 -0.000931844
-11.8094 -0.652317 -0.00354281 -0.840596 0.0271033 -0.00119998
-11.9565 -0.663378 -0.00296911 -0.840181 0.0305483 -0.00149819
-12.1291 -0.676611 -0.00333528 -0.840183 0.0339991 -0.00171263
-10.7059 -0.591661 -0.00260802 -0.860846 0.00883353 -0.00059708
-10.8423 -0.596869 -0.0025061 -0.859243 0.0109876 -0.000788287
-10.98 -0.603232 -0.00266429 -0.858094 0.0127527 -0.00109444
-11.123 -0.609987 -0.00283007 -0.857007 0.0146792 -0.00136847
-11.2709 -0.61727 -0.00299422 -0.85591 0.0168618 -0.00170458
-11.4222 -0.62528 -0.00316916 -0.854875 0.0193247 -0.00208025
-11.5765 -0.63417 -0.0033696 -0.854022 0.0220718 -0.00240888
-11.7301 -0.643896 -0.00335442 -0.853397 0.0250504 -0.00200442
-11.8844 -0.655114 -0.00333911 -0.853168 0.0281395 -0.00230425
-10.6453 -0.589018 -0.00264337 -0.868587 0.00711729 -0.001919
-10.7721 -0.593336 -0.00233197 -0.868106 0.00895335 -0.00180473
-10.9013 -0.598316 -0.00207082 -0.86802 0.0106266 -0.00216614
-11.0411 -0.604403 -0.00228625 -0.867648 0.012637 -0.0026849
-11.188 -0.611447 -0.00278454 -0.867051 0.0148929 -0.00327256
-11.3376 -0.619153 -0.00325824 -0.86659 0.0173559 -0.00380532
-11.4884 -0.627283 -0.00348417 -0.866567 0.020049 -0.00414852
-11.6391 -0.635752 -0.00322756 -0.866677 0.023786 -0.00416379
-4.90264 -1.08207 -0.00254783 0.768186 0.000155142 0.0149136
-5.02827 -1.09908 -0.00220423 0.763914 0.000312554 0.015894
-5.17017 -1.11723 -0.00221259 0.759242 0.000655022 0.0175792
-5.33523 -1.13682 -0.00283622 0.755626 0.000722146 0.0186082
-5.51433 -1.15637 -0.00317495 0.752927 -6.52375e-05 0.0201248
-4.47262 -1.0289 -0.00115729 0.792973 0.00100871 0.0108558
-4.57306 -1.04573 -0.00209676 0.788268 0.000587697 0.0119658
-4.66949 -1.06192 -0.00197182 0.783275 0.000216863 0.0126442
-4.78446 -1.07935 -0.00245153 0.778099 0.000172795 0.0141791
-4.91055 -1.09796 -0.00320265 0.773248 0.000691566 0.0154902
-5.04545 -1.11573 -0.0032779 0.76903 0.000655713 0.0166785
-5.19593 -1.1343 -0.00342565 0.765876 0.000574653 0.0180833
-5.36846 -1.15326 -0.00356525 0.763802 0.000567815 0.0197904
-4.31872 -1.01385 -0.00226089 0.808481 0.00122035 0.00955824
-4.39445 -1.02727 -0.00176252 0.801782 0.00127909 0.010521
-4.47565 -1.04466 -0.00274629 0.796971 0.000676866 0.0112302
-4.56801 -1.06091 -0.00290804 0.792254 0.000697103 0.0123
-4.67217 -1.07751 -0.00306765 0.787937 0.000739981 0.0135168
-4.78791 -1.09437 -0.00318219 0.783837 0.000770348 0.0147436
-4.91595 -1.11177 -0.0032958 0.780185 0.000745986 0.0160336
-5.06044 -1.12986 -0.00344762 0.777339 0.000697269 0.0175131
-5.22561 -1.14841 -0.00358913 0.775413 0.000780808 0.0191098
-4.1792 -1.00026 -0.00345465 0.81976 0.00112774 0.0081216
-4.23595 -1.01341 -0.00301238 0.81515 0.0012727 0.00879137
-4.30638 -1.02664 -0.00261322 0.81098 0.000706062 0.00957097
-4.38403 -1.04168 -0.00273434 0.806471 0.000753195 0.0104423
-4.46924 -1.05736 -0.00288626 0.802316 0.000788123 0.0115078
-4.56475 -1.07347 -0.00303689 0.798471 0.000830648 0.0127069
-4.67184 -1.08996 -0.00316843 0.794901 0.00085794 0.0139725
-4.79231 -1.10698 -0.00330498 0.791767 0.000848436 0.0153374
-4.92917 -1.12461 -0.00345846 0.789293 0.000822533 0.0168546
-5.0868 -1.14281 -0.00367365 0.787654 0.000968684 0.0183856
-4.11139 -0.996165 -0.00262036 0.827659 0.000884469 0.00681666
-4.16383 -1.00941 -0.00246762 0.823788 0.000704209 0.0078663
-4.22986 -1.02332 -0.00258706 0.819941 0.000776419 0.00867589
-4.30019 -1.03786 -0.00271395 0.816226 0.000830256 0.00958991
-4.37743 -1.05301 -0.00286201 0.812722 0.000879027 0.010657
-4.46419 -1.06864 -0.00301217 0.809443 0.000925011 0.0118573
-4.56255 -1.08471 -0.0031562 0.806427 0.000955779 0.013159
-4.67468 -1.10129 -0.0033047 0.803817 0.000959717 0.0145725
-4.80305 -1.11845 -0.00346246 0.801796 0.00094913 0.0161141
-4.95239 -1.13623 -0.00370052 0.800543 0.00112719 0.017626
-4.06262 -0.9929 -0.00274202 0.835421 0.000963478 0.00583654
-4.10427 -1.00564 -0.00242781 0.832176 0.000770563 0.00690234
-4.16223 -1.01911 -0.00255337 0.829191 0.000848346 0.00775263
-4.22449 -1.03316 -0.00268831 0.826279 0.000910091 0.00868879
-4.29323 -1.04779 -0.00283704 0.823484 0.000969947 0.00975853
-4.37104 -1.06293 -0.00298954 0.820837 0.00102273 0.0109645
-4.46042 -1.07854 -0.003143 0.818414 0.00106038 0.0122907
-4.56366 -1.09466 -0.00330086 0.816358 0.00107506 0.0137358
-4.68307 -1.11132 -0.00345434 0.81486 0.0010812 0.0152981
-4.82297 -1.12861 -0.00366034 0.814054 0.00125919 0.0168347
-4.02067 -0.988706 -0.00270705 0.843527 0.00104274 0.00484523
-4.05392 -1.001 -0.00238283 0.840904 0.000845055 0.00595222
-4.10348 -1.01399 -0.00251492 0.838748 0.000919793 0.00681511
-4.15727 -1.02754 -0.00265836 0.836649 0.000990026 0.00775373
-4.21715 -1.04166 -0.00280912 0.834598 0.00106075 0.00881937
-4.28586 -1.05629 -0.00296501 0.832634 0.00112276 0.0100236
-4.36606 -1.07142 -0.00312853 0.830856 0.00116795 0.0113588
-4.46001 -1.08705 -0.00329692 0.8294 0.00119516 0.0128255
-4.56776 -1.10169 -0.00271384 0.828895 0.00130374 0.0145541
-4.69254 -1.11921 -0.00308489 0.82882 0.00137609 0.0161789
-3.98549 -0.983657 -0.00254063 0.851853 0.00114896 0.00385979
-4.01235 -0.995491 -0.00231757 0.849968 0.000919608 0.0050335
-4.05365 -1.00798 -0.00247217 0.848605 0.000993644 0.00587334
-4.09879 -1.02101 -0.00262615 0.847327 0.00106901 0.00679501
-4.14965 -1.03459 -0.0027796 0.846038 0.00115006 0.00784091
-4.20934 -1.04868 -0.00293725 0.844798 0.00122366 0.00902495
-4.2803 -1.0633 -0.00311517 0.84374 0.00127921 0.0103531
-4.36442 -1.07803 -0.00304933 0.842964 0.000629201 0.0116867
-4.4691 -1.09341 -0.00307312 0.842686 0.000704419 0.0129594
-3.96146 -0.978078 -0.00254142 0.860144 0.00131313 0.00305672
-3.98095 -0.988927 -0.00216965 0.859383 0.000809476 0.00394427
-4.00889 -1.00025 -0.00188797 0.859112 0.000828566 0.00470497
-4.04548 -1.01282 -0.00208955 0.858576 0.00104823 0.00572892
-4.09141 -1.02631 -0.00259989 0.85781 0.0013311 0.00689518
-4.14558 -1.04017 -0.00306264 0.857194 0.00152043 0.00812159
-4.20667 -1.05416 -0.00323183 0.857051 0.00157361 0.00941823
-4.27621 -1.06812 -0.00288072 0.857062 0.00133972 0.0114385
-1.60992 -0.669796 -0.00290946 -1.06422 0.0410469 0.00397641
-1.56285 -0.658592 -0.0027718 -1.06443 0.0439153 0.00339595
-1.52059 -0.645075 -0.00252208 -1.06494 0.0471664 0.00277509
-1.46768 -0.630593 -0.00249602 -1.06553 0.0496572 0.00280735
-1.40974 -0.615561 -0.00319519 -1.06447 0.0522156 0.00260105
-1.65383 -0.706667 -0.00127649 -1.05682 0.0335905 0.00345749
-1.6351 -0.699801 -0.00166435 -1.05937 0.0358201 0.00352778
-1.61538 -0.692829 -0.00261619 -1.06131 0.0375595 0.00357749
-1.58656 -0.684056 -0.00298687 -1.06249 0.0402421 0.00315585
-1.5497 -0.673436 -0.0028583 -1.06293 0.0434341 0.00211162
-1.51558 -0.661303 -0.00299397 -1.06306 0.0467057 0.00181793
-1.47328 -0.647779 -0.00323548 -1.0633 0.0495977 0.00177087
-1.424 -0.633112 -0.00375067 -1.06303 0.0522681 0.00117396
-1.6617 -0.725273 -0.00254264 -1.05339 0.0309525 0.00315955
-1.63424 -0.719585 -0.00224115 -1.05493 0.0331257 0.00250406
-1.61966 -0.713235 -0.00249512 -1.05746 0.0352187 0.00251795
-1.59678 -0.706065 -0.00270379 -1.05966 0.0373038 0.00214615
-1.56854 -0.697807 -0.0028108 -1.06102 0.0398721 0.00163406
-1.53943 -0.688069 -0.00286436 -1.06155 0.0430112 0.00105541
-1.51023 -0.676805 -0.00299637 -1.06171 0.0462341 0.000659248
-1.47529 -0.66409 -0.00320072 -1.06166 0.0493137 0.000463782
-1.43951 -0.650499 -0.00391472 -1.06141 0.0521075 -0.000115708
-1.65202 -0.742867 -0.00362313 -1.04713 0.0273832 0.00302708
-1.6389 -0.737922 -0.0034329 -1.0505 0.0297333 0.00250077
-1.60154 -0.731787 -0.00226874 -1.05346 0.0320129 0.00209694
-1.58908 -0.726148 -0.0024506 -1.0558 0.0343891 0.00157887
-1.57434 -0.719625 -0.00263028 -1.05781 0.0367581 0.00109204
-1.55596 -0.711998 -0.00275638 -1.05919 0.0394363 0.00055097
-1.53537 -0.703032 -0.00284894 -1.05987 0.0424932 -1.50979e-05
-1.51304 -0.692631 -0.0029841 -1.06008 0.0457081 -0.000482774
-1.48609 -0.680752 -0.00317843 -1.05988 0.0489396 -0.00082169
-1.46212 -0.668131 -0.00402614 -1.05957 0.0519465 -0.00143196
-1.58446 -0.751971 -0.00227929 -1.04666 0.026049 0.00226353
-1.57823 -0.747974 -0.00214331 -1.04927 0.0286018 0.00196686
-1.57072 -0.743977 -0.00224596 -1.05171 0.0310536 0.00126533
-1.56472 -0.739124 -0.00240337 -1.05396 0.0335437 0.000634586
-1.55812 -0.733326 -0.00257172 -1.05587 0.0360956 4.48486e-05
-1.54915 -0.726432 -0.00270938 -1.05721 0.038852 -0.000541198
-1.53749 -0.718283 -0.0028254 -1.05795 0.0418853 -0.0011148
-1.52314 -0.708766 -0.00296567 -1.05819 0.0451332 -0.00163095
-1.50499 -0.697759 -0.00316122 -1.05794 0.0485244 -0.00209279
-1.49001 -0.685884 -0.00393116 -1.05756 0.0517649 -0.00278034
-1.54386 -0.762905 -0.00242989 -1.04495 0.025254 0.00141361
-1.54539 -0.759392 -0.00209755 -1.04733 0.0276192 0.00110577
-1.54502 -0.756214 -0.00219779 -1.04973 0.0300461 0.000383758
-1.54617 -0.752176 -0.00235437 -1.05195 0.0326413 -0.000323237
-1.54798 -0.747164 -0.0025235 -1.05379 0.0353273 -0.00100459
-1.54839 -0.741069 -0.00266777 -1.05509 0.0381397 -0.00164696
-1.54595 -0.733789 -0.00279293 -1.0558 0.041183 -0.00224499
-1.54019 -0.725201 -0.00293587 -1.05603 0.0445033 -0.00279415
-1.53104 -0.715113 -0.00312555 -1.05583 0.0480708 -0.00334159
-1.52372 -0.703805 -0.00368104 -1.05533 0.051528 -0.00410136
-1.50778 -0.773569 -0.00239261 -1.04321 0.0243113 0.000469761
-1.51809 -0.770815 -0.0020336 -1.04527 0.0264782 0.000151382
-1.52473 -0.768477 -0.00212861 -1.04756 0.0289302 -0.000538856
-1.53321 -0.765301 -0.00229997 -1.04974 0.0316632 -0.00129751
-1.54371 -0.76112 -0.00247955 -1.05156 0.0344606 -0.00205855
-1.55381 -0.755874 -0.00262742 -1.05278 0.0373074 -0.00276617
-1.56094 -0.749528 -0.00275585 -1.05341 0.0403823 -0.00340518
-1.56412 -0.741939 -0.00290006 -1.05361 0.0438143 -0.00398244
-1.55734 -0.73262 -0.00281738 -1.05342 0.0475181 -0.00467429
-1.56141 -0.722223 -0.00336683 -1.05311 0.0512006 -0.00543647
-1.47843 -0.783936 -0.00222897 -1.04141 0.0231523 -0.000526364
-1.49751 -0.782166 -0.00193047 -1.0431 0.0251148 -0.000873454
-1.51041 -0.780756 -0.00204482 -1.04515 0.0276813 -0.00149711
-1.52576 -0.778492 -0.00224463 -1.04733 0.0306029 -0.00228013
-1.5451 -0.77516 -0.00243853 -1.04915 0.0334869 -0.00310479
-1.56531 -0.770814 -0.00258811 -1.05028 0.0363551 -0.00388721
-1.58255 -0.765495 -0.00271885 -1.05078 0.0394956 -0.00459423
-1.59535 -0.758903 -0.00292899 -1.05124 0.0428031 -0.00450448
-1.59477 -0.749666 -0.00232031 -1.05072 0.0459197 -0.00528697
-1.45579 -0.794257 -0.00203113 -1.03918 0.0219309 -0.00165946
-1.47367 -0.792812 -0.00123096 -1.0411 0.0238222 -0.00196731
-1.49576 -0.792392 -0.00146369 -1.04298 0.0265128 -0.00251018
-1.52828 -0.792009 -0.00237955 -1.04461 0.029458 -0.00330879
-1.55886 -0.789942 -0.00281142 -1.04614 0.0323645 -0.00423597
-1.58087 -0.785749 -0.00238199 -1.04758 0.0353488 -0.00507677
-1.60036 -0.780433 -0.00182799 -1.04857 0.0386253 -0.00572579
-1.63008 -0.775972 -0.00273983 -1.04877 0.0426024 -0.0060763
-17.1278 0.144559 -0.00310247 -0.217837 0.0427031 0.0421406
-17.0626 0.150626 -0.00321046 -0.214637 0.0460932 0.0446012
-16.9891 0.158295 -0.00308113 -0.20969 0.0504867 0.0471523
-16.9052 0.167272 -0.00293979 -0.205103 0.0547831 0.0501326
-16.7974 0.175704 -0.00334267 -0.200606 0.0591058 0.0533251
-17.2699 0.123153 -0.0014467 -0.234409 0.033169 0.0337371
-17.2555 0.127551 -0.00196623 -0.231654 0.0369709 0.0355862
-17.2313 0.131658 -0.00295963 -0.228804 0.0404618 0.0374928
-17.1888 0.136957 -0.00316975 -0.225515 0.0442234 0.0399945
-17.1335 0.142948 -0.00306494 -0.22191 0.0482251 0.042284
-17.0639 0.149451 -0.00320969 -0.217434 0.0523796 0.0450492
-16.9845 0.157145 -0.00346834 -0.212734 0.0570409 0.0481569
-16.8907 0.165399 -0.00388695 -0.207807 0.0619415 0.0510692
-17.3391 0.11229 -0.00250449 -0.242785 0.0308949 0.0305748
-17.3198 0.115926 -0.00226761 -0.241186 0.0348703 0.031701
-17.3096 0.120123 -0.00258923 -0.238343 0.0384935 0.0334676
-17.2888 0.124871 -0.00287789 -0.235606 0.0425715 0.0353223
-17.2539 0.129819 -0.00299358 -0.232679 0.0466043 0.0375333
-17.2037 0.135065 -0.00302694 -0.229104 0.0507146 0.0400276
-17.1411 0.140997 -0.0031646 -0.224797 0.0550894 0.0427583
-17.0663 0.147855 -0.00339977 -0.220124 0.0597803 0.0458238
-16.9843 0.155011 -0.0041132 -0.214979 0.0646936 0.0486738
-17.3675 0.100395 -0.003624 -0.251895 0.0280629 0.0268217
-17.3759 0.104478 -0.00334916 -0.249677 0.0320218 0.0281808
-17.3688 0.109928 -0.00230184 -0.248419 0.0358695 0.0296249
-17.3614 0.113609 -0.00253152 -0.24589 0.0400232 0.0312092
-17.3457 0.117649 -0.00276978 -0.243048 0.044268 0.0330629
-17.3175 0.121987 -0.00290969 -0.239892 0.0485959 0.0352353
-17.2754 0.126693 -0.00299442 -0.236227 0.0530421 0.0376779
-17.2202 0.131994 -0.00313951 -0.231978 0.0576574 0.0403734
-17.1515 0.138079 -0.00336083 -0.227292 0.0624738 0.0433913
-17.0787 0.144318 -0.00416951 -0.22203 0.0674406 0.0462249
-17.4012 0.0982364 -0.00234423 -0.259724 0.0288358 0.0242813
-17.4093 0.101056 -0.00217734 -0.257689 0.0329447 0.0259768
-17.4148 0.10375 -0.002281 -0.255727 0.0371948 0.0273099
-17.4139 0.106783 -0.00247646 -0.253238 0.041512 0.028866
-17.4042 0.110143 -0.00268631 -0.250316 0.045953 0.0306932
-17.383 0.113813 -0.00283975 -0.247007 0.0505369 0.0328173
-17.3486 0.117869 -0.00295409 -0.243257 0.0552666 0.0352165
-17.3012 0.122483 -0.00310701 -0.23901 0.0601254 0.0378855
-17.2397 0.127813 -0.00332869 -0.234285 0.0651158 0.0408622
-17.1733 0.133373 -0.00404343 -0.22895 0.0702015 0.0437199
-17.4377 0.0929509 -0.00249852 -0.267025 0.0296797 0.0219581
-17.4484 0.0952216 -0.00213845 -0.264853 0.0340185 0.0235561
-17.461 0.0972728 -0.00223062 -0.262897 0.0384626 0.0248835
-17.4669 0.0996599 -0.00241378 -0.260418 0.0429618 0.0264196
-17.4641 0.102337 -0.00261822 -0.257425 0.0475997 0.028211
-17.45 0.105291 -0.00277938 -0.253996 0.0524274 0.0302799
-17.4233 0.108614 -0.00290662 -0.250171 0.0574319 0.0326358
-17.3839 0.112484 -0.00306139 -0.245916 0.0625446 0.0352906
-17.3309 0.117066 -0.00328756 -0.241154 0.067726 0.0382393
-17.2685 0.122109 -0.00377487 -0.235741 0.0729761 0.0411457
-17.4735 0.0877418 -0.00241342 -0.274071 0.0305573 0.0195014
-17.4888 0.089165 -0.00204968 -0.271838 0.0350905 0.0209851
-17.5075 0.0905127 -0.00214573 -0.269905 0.0397216 0.0223341
-17.5205 0.0922439 -0.00234211 -0.267443 0.0443791 0.0238684
-17.525 0.0942321 -0.00255708 -0.264378 0.0491942 0.0256216
-17.5182 0.0964222 -0.00272335 -0.260838 0.0542637 0.0276241
-17.4993 0.0989312 -0.00285498 -0.256952 0.0595631 0.0299298
-17.4682 0.101997 -0.00300762 -0.252704 0.064959 0.0325821
-17.4196 0.106373 -0.00285202 -0.248358 0.0704479 0.0354826
-17.3694 0.110581 -0.00345492 -0.242699 0.0758439 0.03848
-17.5082 0.0825458 -0.00214054 -0.280747 0.0314773 0.0169109
-17.5306 0.0828666 -0.00192154 -0.278535 0.0362146 0.0182731
-17.5542 0.0834518 -0.00203202 -0.276714 0.0410155 0.0196654
-17.5742 0.0845347 -0.00226062 -0.27431 0.045783 0.0212213
-17.5864 0.085837 -0.00248988 -0.271175 0.0507371 0.0229368
-17.5874 0.0872119 -0.00266278 -0.267525 0.0560457 0.0248588
-17.5764 0.0888219 -0.00280412 -0.263595 0.0616674 0.0270983
-17.5561 0.0911333 -0.00305584 -0.259323 0.0667043 0.0300651
-17.5078 0.0949309 -0.00254269 -0.25475 0.0720402 0.0324465
-17.5415 0.0767163 -0.00197612 -0.287113 0.0326066 0.0142483
-17.5712 0.0772507 -0.00133238 -0.28514 0.037332 0.0155239
-17.6008 0.0769568 -0.00157421 -0.283314 0.0422989 0.0169429
-17.6292 0.0759644 -0.00248029 -0.280861 0.0473573 0.0184947
-17.6489 0.0760386 -0.00289939 -0.277752 0.0525596 0.0201567
-17.6565 0.0777324 -0.00248847 -0.274175 0.0579421 0.0220268
-17.6535 0.0799 -0.00195595 -0.270191 0.0635038 0.0242384
-17.6454 0.0804998 -0.00274279 -0.265812 0.0694925 0.0272684
SCALARS STRAIN double 6
LOOKUP_TABLE default
2.54429e-05 5.23259e-05 -0.000108115 -1.37769e-07 4.46657e-05 1.12608e-05
2.49092e-05 5.29612e-05 -0.000107558 3.27397e-08 4.41542e-05 1.10124e-05
2.43148e-05 5.36965e-05 -0.000106949 2.90884e-07 4.34395e-05 1.07496e-05
2.36436e-05 5.45001e-05 -0.00010628 4.49858e-07 4.27016e-05 1.04927e-05
2.28742e-05 5.52316e-05 -0.000105427 5.84098e-07 4.19173e-05 1.01968e-05
2.71114e-05 4.99115e-05 -0.000109132 -5.77621e-07 4.74094e-05 1.20074e-05
2.6768e-05 5.04951e-05 -0.000109005 -4.75938e-07 4.70077e-05 1.18096e-05
2.63713e-05 5.10501e-05 -0.000108812 -4.26649e-07 4.65778e-05 1.16411e-05
2.59296e-05 5.16273e-05 -0.000108474 -2.58541e-07 4.61054e-05 1.13926e-05
2.54351e-05 5.22343e-05 -0.000107978 -6.40463e-09 4.55701e-05 1.11719e-05
2.48767e-05 5.28757e-05 -0.000107411 2.00479e-07 4.48722e-05 1.08926e-05
2.42442e-05 5.35954e-05 -0.000106773 3.87424e-07 4.41193e-05 1.0617e-05
2.35222e-05 5.43427e-05 -0.000106016 5.68346e-07 4.33111e-05 1.03639e-05
2.77532e-05 4.88095e-05 -0.00010959 -7.71545e-07 4.88715e-05 1.2246e-05
2.74833e-05 4.92735e-05 -0.000109421 -6.38092e-07 4.86679e-05 1.21049e-05
2.71796e-05 4.98159e-05 -0.000109324 -5.50755e-07 4.82878e-05 1.1926e-05
2.6829e-05 5.03839e-05 -0.000109146 -4.23553e-07 4.79077e-05 1.1768e-05
2.64282e-05 5.0946e-05 -0.000108842 -2.71566e-07 4.74787e-05 1.15603e-05
2.59714e-05 5.15093e-05 -0.000108412 -8.25017e-08 4.69357e-05 1.13068e-05
2.54554e-05 5.21049e-05 -0.000107893 1.18619e-07 4.62654e-05 1.10377e-05
2.48701e-05 5.27511e-05 -0.00010728 3.13725e-07 4.55166e-05 1.07579e-05
2.42019e-05 5.34263e-05 -0.000106593 5.09197e-07 4.46783e-05 1.05194e-05
2.83254e-05 4.75827e-05 -0.000109751 -1.03353e-06 5.03827e-05 1.2551e-05
2.81111e-05 4.81153e-05 -0.000109783 -9.04255e-07 5.01292e-05 1.23706e-05
2.78797e-05 4.86985e-05 -0.000109701 -7.99113e-07 5.00059e-05 1.22038e-05
2.76107e-05 4.91899e-05 -0.000109621 -6.55128e-07 4.96698e-05 1.20515e-05
2.73023e-05 4.9697e-05 -0.000109472 -5.11389e-07 4.92768e-05 1.18861e-05
2.69452e-05 5.02098e-05 -0.000109218 -3.50196e-07 4.882e-05 1.16854e-05
2.65338e-05 5.07311e-05 -0.00010885 -1.64217e-07 4.82692e-05 1.14486e-05
2.60639e-05 5.12766e-05 -0.000108382 3.5602e-08 4.7611e-05 1.11891e-05
2.55267e-05 5.18577e-05 -0.00010781 2.38829e-07 4.68635e-05 1.09102e-05
2.49098e-05 5.24623e-05 -0.00010718 4.46186e-07 4.59995e-05 1.06697e-05
2.8646e-05 4.7252e-05 -0.000109932 -1.17862e-06 5.18065e-05 1.26727e-05
2.8478e-05 4.76766e-05 -0.000109958 -1.05144e-06 5.15635e-05 1.24699e-05
2.82827e-05 4.80961e-05 -0.000109962 -9.06733e-07 5.13224e-05 1.23299e-05
2.80571e-05 4.85317e-05 -0.00010992 -7.57138e-07 5.09976e-05 1.21801e-05
2.77932e-05 4.89802e-05 -0.000109809 -6.02468e-07 5.05978e-05 1.20141e-05
2.74829e-05 4.94373e-05 -0.000109604 -4.35015e-07 5.01247e-05 1.1821e-05
2.71199e-05 4.99056e-05 -0.000109292 -2.49195e-07 4.95671e-05 1.15974e-05
2.66993e-05 5.03962e-05 -0.000108879 -4.77015e-08 4.89145e-05 1.13467e-05
2.62128e-05 5.09165e-05 -0.000108357 1.64317e-07 4.81646e-05 1.10697e-05
2.56494e-05 5.1463e-05 -0.000107775 3.82289e-07 4.72876e-05 1.08193e-05
2.89667e-05 4.67361e-05 -0.000110124 -1.28224e-06 5.30872e-05 1.27546e-05
2.88484e-05 4.70993e-05 -0.000110171 -1.15761e-06 5.2825e-05 1.25882e-05
2.86983e-05 4.74627e-05 -0.000110219 -1.01455e-06 5.25918e-05 1.24596e-05
2.8518e-05 4.78418e-05 -0.00011022 -8.59032e-07 5.22749e-05 1.23137e-05
2.83013e-05 4.82315e-05 -0.000110155 -6.96425e-07 5.18714e-05 1.21505e-05
2.80404e-05 4.8628e-05 -0.000109998 -5.24582e-07 5.13873e-05 1.19659e-05
2.77287e-05 4.90353e-05 -0.00010974 -3.37177e-07 5.08251e-05 1.17538e-05
2.73605e-05 4.94655e-05 -0.000109382 -1.31468e-07 5.01772e-05 1.15107e-05
2.69275e-05 4.99289e-05 -0.000108919 9.09778e-08 4.94275e-05 1.12363e-05
2.64205e-05 5.04206e-05 -0.000108377 3.18223e-07 4.85416e-05 1.09741e-05
2.92994e-05 4.62167e-05 -0.000110317 -1.38952e-06 5.43044e-05 1.28493e-05
2.92297e-05 4.64998e-05 -0.000110387 -1.27058e-06 5.40314e-05 1.27157e-05
2.9126e-05 4.67994e-05 -0.000110472 -1.12507e-06 5.38089e-05 1.25962e-05
2.89932e-05 4.71197e-05 -0.00011052 -9.62088e-07 5.35028e-05 1.24531e-05
2.88257e-05 4.74504e-05 -0.000110505 -7.93082e-07 5.30968e-05 1.22945e-05
2.86166e-05 4.77817e-05 -0.000110398 -6.18288e-07 5.26036e-05 1.21196e-05
2.83597e-05 4.812e-05 -0.000110191 -4.27886e-07 5.20397e-05 1.19183e-05
2.80474e-05 4.84845e-05 -0.000109891 -2.16074e-07 5.13998e-05 1.16814e-05
2.76699e-05 4.89012e-05 -0.000109473 2.31729e-08 5.06977e-05 1.14152e-05
2.72225e-05 4.93428e-05 -0.000109005 2.58673e-07 4.97959e-05 1.11392e-05
2.96446e-05 4.56849e-05 -0.000110511 -1.50284e-06 5.54363e-05 1.29599e-05
2.96221e-05 4.58783e-05 -0.000110603 -1.39135e-06 5.51665e-05 1.28568e-05
2.95662e-05 4.61024e-05 -0.00011072 -1.23906e-06 5.49678e-05 1.27413e-05
2.94817e-05 4.63651e-05 -0.000110819 -1.06649e-06 5.46808e-05 1.25981e-05
2.93642e-05 4.66378e-05 -0.000110857 -8.93072e-07 5.42729e-05 1.24453e-05
2.92101e-05 4.68985e-05 -0.0001108 -7.1597e-07 5.37714e-05 1.22815e-05
2.90129e-05 4.71585e-05 -0.000110646 -5.20665e-07 5.32095e-05 1.20901e-05
2.87559e-05 4.74833e-05 -0.00011043 -3.97823e-07 5.2566e-05 1.18103e-05
2.84363e-05 4.7852e-05 -0.000110011 -2.09095e-07 5.18334e-05 1.1614e-05
3.00046e-05 4.51089e-05 -0.000110683 -1.5954e-06 5.6499e-05 1.30855e-05
3.00329e-05 4.52856e-05 -0.000110807 -1.50305e-06 5.62884e-05 1.2999e-05
3.00266e-05 4.54348e-05 -0.000110969 -1.34428e-06 5.60935e-05 1.28858e-05
2.9988e-05 4.55615e-05 -0.000111126 -1.16324e-06 5.5789e-05 1.2754e-05
2.99198e-05 4.57393e-05 -0.000111211 -9.81538e-07 5.53789e-05 1.26132e-05
2.98244e-05 4.59889e-05 -0.000111196 -8.02939e-07 5.48949e-05 1.24528e-05
2.96916e-05 4.62507e-05 -0.000111098 -6.19376e-07 5.43421e-05 1.226e-05
2.94929e-05 4.643e-05 -0.000110975 -3.87447e-07 5.37246e-05 1.19751e-05
2.59796e-05 4.81184e-05 -0.000108265 3.15103e-06 3.66843e-05 7.95401e-06
2.55848e-05 4.85664e-05 -0.000107825 3.63942e-06 3.62147e-05 7.66346e-06
2.51327e-05 4.91146e-05 -0.000107333 4.21976e-06 3.55017e-05 7.28804e-06
2.46118e-05 4.97349e-05 -0.00010678 4.70828e-06 3.48166e-05 6.87806e-06
2.40143e-05 5.02788e-05 -0.000106068 5.23729e-06 3.41363e-05 6.5043e-06
2.72674e-05 4.63522e-05 -0.000109142 1.92376e-06 3.91842e-05 9.05118e-06
2.70129e-05 4.67694e-05 -0.000109051 2.35162e-06 3.87936e-05 8.77194e-06
2.67045e-05 4.71568e-05 -0.000108895 2.74094e-06 3.83885e-05 8.54805e-06
2.63787e-05 4.75693e-05 -0.000108619 3.24094e-06 3.79312e-05 8.28882e-06
2.60232e-05 4.80019e-05 -0.000108239 3.81864e-06 3.74168e-05 8.02287e-06
2.56034e-05 4.84635e-05 -0.000107777 4.36122e-06 3.67554e-05 7.6159e-06
2.511e-05 4.90081e-05 -0.000107253 4.90446e-06 3.60548e-05 7.18577e-06
2.45482e-05 4.95739e-05 -0.000106629 5.50996e-06 3.53242e-05 6.86125e-06
2.77475e-05 4.55282e-05 -0.000109553 1.57328e-06 4.04895e-05 9.49744e-06
2.75669e-05 4.58387e-05 -0.000109425 2.05373e-06 4.02843e-05 9.33908e-06
2.73435e-05 4.6234e-05 -0.000109361 2.46933e-06 3.98918e-05 9.09763e-06
2.7078e-05 4.6652e-05 -0.000109226 2.94281e-06 3.95137e-05 8.89139e-06
2.67878e-05 4.70516e-05 -0.000108993 3.45865e-06 3.9106e-05 8.6572e-06
2.64618e-05 4.74421e-05 -0.000108655 4.01892e-06 3.85948e-05 8.35603e-06
2.60782e-05 4.78676e-05 -0.000108237 4.58701e-06 3.79642e-05 7.9862e-06
2.56281e-05 4.83478e-05 -0.000107739 5.15716e-06 3.72706e-05 7.57534e-06
2.51091e-05 4.88553e-05 -0.000107186 5.76473e-06 3.65054e-05 7.23804e-06
2.81741e-05 4.45561e-05 -0.000109691 1.10251e-06 4.18811e-05 9.95302e-06
2.80368e-05 4.49534e-05 -0.000109748 1.60022e-06 4.15966e-05 9.81435e-06
2.78861e-05 4.54013e-05 -0.000109704 2.06463e-06 4.14532e-05 9.63539e-06
2.76932e-05 4.5753e-05 -0.000109656 2.56722e-06 4.11095e-05 9.44056e-06
2.7469e-05 4.61176e-05 -0.000109551 3.07945e-06 4.07177e-05 9.2341e-06
2.72146e-05 4.64788e-05 -0.000109361 3.62486e-06 4.02769e-05 8.99685e-06
2.69222e-05 4.68406e-05 -0.000109077 4.20443e-06 3.97549e-05 8.70783e-06
2.65773e-05 4.72267e-05 -0.000108707 4.79785e-06 3.91373e-05 8.36327e-06
2.61701e-05 4.76515e-05 -0.000108246 5.39999e-06 3.84458e-05 7.97477e-06
2.56957e-05 4.81018e-05 -0.000107749 6.02487e-06 3.76606e-05 7.63165e-06
2.84262e-05 4.43585e-05 -0.000109877 1.10229e-06 4.31325e-05 1.03066e-05
2.83303e-05 4.46509e-05 -0.000109931 1.60408e-06 4.28735e-05 1.01122e-05
2.8209e-05 4.49392e-05 -0.000109963 2.13068e-06 4.26219e-05 9.96291e-06
2.80563e-05 4.52453e-05 -0.000109954 2.6628e-06 4.22884e-05 9.78736e-06
2.78724e-05 4.55617e-05 -0.000109886 3.20929e-06 4.18877e-05 9.58917e-06
2.7657e-05 4.5879e-05 -0.00010974 3.78196e-06 4.14261e-05 9.35808e-06
2.74035e-05 4.62009e-05 -0.000109506 4.382e-06 4.08939e-05 9.08001e-06
2.71003e-05 4.65435e-05 -0.000109185 5.0003e-06 4.02809e-05 8.75086e-06
2.6737e-05 4.69181e-05 -0.000108771 5.6359e-06 3.95873e-05 8.37987e-06
2.63097e-05 4.73183e-05 -0.000108316 6.29124e-06 3.87925e-05 8.04208e-06
2.86802e-05 4.3962e-05 -0.000110073 1.14964e-06 4.42857e-05 1.06266e-05
2.86269e-05 4.42042e-05 -0.000110144 1.65528e-06 4.40079e-05 1.04444e-05
2.85455e-05 4.44495e-05 -0.00011022 2.19634e-06 4.37613e-05 1.03079e-05
2.84323e-05 4.4712e-05 -0.000110253 2.75472e-06 4.34334e-05 1.01442e-05
2.8289e-05 4.49818e-05 -0.000110228 3.33212e-06 4.30252e-05 9.95785e-06
2.81151e-05 4.52511e-05 -0.000110127 3.93145e-06 4.25484e-05 9.73915e-06
2.79047e-05 4.55249e-05 -0.000109941 4.55462e-06 4.20083e-05 9.47214e-06
2.76468e-05 4.58193e-05 -0.000109672 5.1986e-06 4.13981e-05 9.15073e-06
2.73298e-05 4.61471e-05 -0.000109313 5.86547e-06 4.07038e-05 8.78825e-06
2.69499e-05 4.6502e-05 -0.000108886 6.55452e-06 3.98986e-05 8.45588e-06
2.89478e-05 4.356e-05 -0.000110265 1.20304e-06 4.53944e-05 1.098e-05
2.8936e-05 4.37381e-05 -0.000110362 1.7096e-06 4.51065e-05 1.08156e-05
2.8895e-05 4.39338e-05 -0.000110477 2.26118e-06 4.48677e-05 1.06741e-05
2.8821e-05 4.41528e-05 -0.000110554 2.84287e-06 4.45464e-05 1.05134e-05
2.87184e-05 4.43772e-05 -0.000110575 3.44763e-06 4.4131e-05 1.03401e-05
2.85885e-05 4.45946e-05 -0.00011052 4.07357e-06 4.36405e-05 1.01387e-05
2.84249e-05 4.4813e-05 -0.000110382 4.72394e-06 4.30948e-05 9.88369e-06
2.82158e-05 4.50543e-05 -0.000110166 5.39674e-06 4.24901e-05 9.56477e-06
2.79476e-05 4.53508e-05 -0.00010984 6.10172e-06 4.18553e-05 9.21754e-06
2.76173e-05 4.56644e-05 -0.000109489 6.81856e-06 4.10234e-05 8.88369e-06
2.92262e-05 4.31489e-05 -0.000110452 1.25718e-06 4.64376e-05 1.13662e-05
2.92581e-05 4.32514e-05 -0.000110584 1.76658e-06 4.61538e-05 1.1227e-05
2.92575e-05 4.33901e-05 -0.000110731 2.32685e-06 4.59357e-05 1.10619e-05
2.92221e-05 4.35671e-05 -0.000110855 2.92752e-06 4.56274e-05 1.08946e-05
2.91608e-05 4.3747e-05 -0.000110924 3.55402e-06 4.52044e-05 1.07348e-05
2.9077e-05 4.39087e-05 -0.000110916 4.20673e-06 4.47007e-05 1.05537e-05
2.89635e-05 4.40652e-05 -0.000110828 4.89084e-06 4.41526e-05 1.03126e-05
2.88008e-05 4.42694e-05 -0.000110686 5.49674e-06 4.35415e-05 9.94957e-06
2.8581e-05 4.4512e-05 -0.000110357 6.16726e-06 4.28736e-05 9.68191e-06
2.95161e-05 4.26915e-05 -0.000110625 1.33198e-06 4.74305e-05 1.1769e-05
2.95939e-05 4.28056e-05 -0.000110799 1.83111e-06 4.71889e-05 1.16379e-05
2.96304e-05 4.28828e-05 -0.000110985 2.40094e-06 4.69697e-05 1.14506e-05
2.96328e-05 4.29249e-05 -0.00011116 3.0256e-06 4.66532e-05 1.12888e-05
2.96165e-05 4.30209e-05 -0.000111275 3.67978e-06 4.62358e-05 1.11509e-05
2.95848e-05 4.31968e-05 -0.00011131 4.3492e-06 4.57468e-05 1.09812e-05
2.95263e-05 4.33862e-05 -0.000111277 5.03463e-06 4.51947e-05 1.07366e-05
2.94103e-05 4.3484e-05 -0.000111214 5.77008e-06 4.45839e-05 1.03616e-05
0 0 0 0 0 0
0 0 0 0 0 0
0 0 0 0 0 0
0 0 0 0 0 0
0 0 0 0 0 0
0 0 0 0 0 0
0 0 0 0 0 0
0 0 0 0 0 0
0 0 0 0 0 0
0 0 0 0 0 0
0 0 0 0 0 0
0 0 0 0 0 0
0 0 0 0 0 0
0 0 0 0 0 0
0 0 0 0 0 0
0 0 0 0 0 0
0 0 0 0 0 0
0 0 0 0 0 0
0 0 0 0 0 0
0 0 0 0 0 0
0 0 0 0 0 0
0 0 0 0 0 0
0 0 0 0 0 0
0 0 0 0 0 0
0 0 0 0 0 0
0 0 0 0 0 0
0 0 0 0 0 0
0 0 0 0 0 0
0 0 0 0 0 0
0 0 0 0 0 0
0 0 0 0 0 0
0 0 0 0 0 0
0 0 0 0 0 0
0 0 0 0 0 0
0 0 0 0 0 0
0 0 0 0 0 0
0 0 0 0 0 0
0 0 0 0 0 0
0 0 0 0 0 0
0 0 0 0 0 0
0 0 0 0 0 0
0 0 0 0 0 0
0 0 0 0 0 0
0 0 0 0 0 0
0 0 0 0 0 0
0 0 0 0 0 0
0 0 0 0 0 0
0 0 0 0 0 0
0 0 0 0 0 0
0 0 0 0 0 0
0 0 0 0 0 0
0 0 0 0 0 0
0 0 0 0 0 0
0 0 0 0 0 0
0 0 0 0 0 0
0 0 0 0 0 0
0 0 0 0 0 0
0 0 0 0 0 0
0 0 0 0 0 0
0 0 0 0 0 0
0 0 0 0 0 0
0 0 0 0 0 0
0 0 0 0 0 0
0 0 0 0 0 0
0 0 0 0 0 0
0 0 0 0 0 0
0 0 0 0 0 0
0 0 0 0 0 0
0 0 0 0 0 0
0 0 0 0 0 0
0 0 0 0 0 0
0 0 0 0 0 0
0 0 0 0 0 0
0 0 0 0 0 0
0 0 0 0 0 0
0 0 0 0 0 0
0 0 0 0 0 0
0 0 0 0 0 0
0 0 0 0 0 0
2.94186e-05 4.39876e-05 -0.000108431 6.5172e-06 2.88063e-05 5.44777e-06
2.91528e-05 4.42357e-05 -0.000108109 7.16938e-06 2.83869e-05 4.76653e-06
2.88451e-05 4.45903e-05 -0.000107747 7.99518e-06 2.77057e-05 4.10892e-06
2.84878e-05 4.50385e-05 -0.00010734 8.74665e-06 2.70856e-05 3.38201e-06
2.80662e-05 4.54152e-05 -0.000106793 9.49702e-06 2.6479e-05 2.52325e-06
3.03117e-05 4.28447e-05 -0.000109095 4.72414e-06 3.11133e-05 7.42573e-06
3.01537e-05 4.30956e-05 -0.000109062 5.41387e-06 3.07349e-05 7.02128e-06
2.9957e-05 4.33253e-05 -0.000108968 6.03334e-06 3.03337e-05 6.54685e-06
2.97501e-05 4.35943e-05 -0.000108778 6.6873e-06 2.98686e-05 5.90989e-06
2.95192e-05 4.38781e-05 -0.000108517 7.42638e-06 2.93833e-05 5.2737e-06
2.92356e-05 4.41671e-05 -0.000108175 8.22351e-06 2.87766e-05 4.58636e-06
2.88974e-05 4.45285e-05 -0.000107791 9.05698e-06 2.81405e-05 3.83858e-06
2.8503e-05 4.49132e-05 -0.000107326 9.90482e-06 2.74751e-05 3.03549e-06
3.06537e-05 4.23139e-05 -0.000109462 4.22635e-06 3.2269e-05 8.1751e-06
3.05579e-05 4.2481e-05 -0.000109379 4.93037e-06 3.20551e-05 7.87274e-06
3.04281e-05 4.2726e-05 -0.000109369 5.58904e-06 3.16479e-05 7.4659e-06
3.02674e-05 4.29905e-05 -0.000109298 6.29495e-06 3.12661e-05 7.00148e-06
3.00902e-05 4.32398e-05 -0.000109152 6.99999e-06 3.08632e-05 6.42932e-06
2.98838e-05 4.34775e-05 -0.000108919 7.75623e-06 3.03783e-05 5.78176e-06
2.96308e-05 4.37421e-05 -0.000108619 8.57319e-06 2.9794e-05 5.09503e-06
2.93266e-05 4.40539e-05 -0.00010826 9.42193e-06 2.91621e-05 4.34097e-06
2.89666e-05 4.43915e-05 -0.000107861 1.02916e-05 2.84688e-05 3.57144e-06
3.0945e-05 4.16032e-05 -0.000109571 3.63928e-06 3.35338e-05 9.02858e-06
3.08882e-05 4.18657e-05 -0.000109656 4.32263e-06 3.32216e-05 8.69579e-06
3.08195e-05 4.21752e-05 -0.000109664 5.0044e-06 3.30467e-05 8.33793e-06
3.07164e-05 4.23878e-05 -0.000109665 5.74899e-06 3.26961e-05 7.94428e-06
3.05899e-05 4.26119e-05 -0.000109623 6.49454e-06 3.23018e-05 7.48043e-06
3.0442e-05 4.28312e-05 -0.000109515 7.25656e-06 3.1868e-05 6.92878e-06
3.02639e-05 4.30481e-05 -0.000109329 8.06036e-06 3.13687e-05 6.30539e-06
3.00433e-05 4.3284e-05 -0.000109073 8.90722e-06 3.07915e-05 5.62588e-06
2.97736e-05 4.35537e-05 -0.000108747 9.78162e-06 3.01578e-05 4.87316e-06
2.9451e-05 4.38461e-05 -0.0001084 1.06758e-05 2.94478e-05 4.11749e-06
3.11497e-05 4.15073e-05 -0.000109761 3.66392e-06 3.46217e-05 9.54781e-06
3.11253e-05 4.16826e-05 -0.00010985 4.37885e-06 3.43382e-05 9.17412e-06
3.10831e-05 4.18487e-05 -0.000109923 5.13676e-06 3.40682e-05 8.83406e-06
3.10141e-05 4.20297e-05 -0.000109963 5.90745e-06 3.37236e-05 8.44362e-06
3.09215e-05 4.22179e-05 -0.000109957 6.69111e-06 3.33189e-05 7.98649e-06
3.08053e-05 4.24043e-05 -0.000109888 7.49959e-06 3.28637e-05 7.4531e-06
3.06591e-05 4.25918e-05 -0.000109747 8.34631e-06 3.23515e-05 6.84985e-06
3.0473e-05 4.27954e-05 -0.000109536 9.22893e-06 3.1774e-05 6.18128e-06
3.02392e-05 4.30267e-05 -0.000109252 1.01362e-05 3.11344e-05 5.43432e-06
2.99555e-05 4.32814e-05 -0.000108942 1.10574e-05 3.04145e-05 4.67572e-06
3.13556e-05 4.12293e-05 -0.000109964 3.73027e-06 3.56523e-05 1.00193e-05
3.13664e-05 4.13657e-05 -0.000110067 4.4771e-06 3.53479e-05 9.67833e-06
3.13571e-05 4.15021e-05 -0.000110183 5.26152e-06 3.50782e-05 9.34795e-06
3.13214e-05 4.16523e-05 -0.000110263 6.06179e-06 3.47345e-05 8.96527e-06
3.12623e-05 4.18068e-05 -0.000110297 6.88082e-06 3.43196e-05 8.51812e-06
3.118e-05 4.19577e-05 -0.000110269 7.7306e-06 3.38472e-05 8.00239e-06
3.1069e-05 4.21095e-05 -0.000110172 8.62012e-06 3.3324e-05 7.41831e-06
3.09198e-05 4.22773e-05 -0.000110008 9.54331e-06 3.27448e-05 6.76274e-06
3.07236e-05 4.24732e-05 -0.000109772 1.04884e-05 3.20999e-05 6.02611e-06
3.04798e-05 4.26927e-05 -0.000109486 1.14403e-05 3.1369e-05 5.25732e-06
3.15727e-05 4.09503e-05 -0.000110163 3.79309e-06 3.66523e-05 1.05083e-05
3.16187e-05 4.10355e-05 -0.000110292 4.56798e-06 3.63395e-05 1.01996e-05
3.16415e-05 4.11364e-05 -0.000110444 5.38227e-06 3.60726e-05 9.88268e-06
3.1638e-05 4.12562e-05 -0.000110566 6.21128e-06 3.57302e-05 9.5092e-06
3.16125e-05 4.1378e-05 -0.000110643 7.06152e-06 3.53047e-05 9.07359e-06
3.15661e-05 4.14905e-05 -0.000110657 7.95e-06 3.48164e-05 8.57666e-06
3.1493e-05 4.16012e-05 -0.000110605 8.88539e-06 3.42845e-05 8.01314e-06
3.13835e-05 4.17295e-05 -0.000110488 9.85522e-06 3.37061e-05 7.37181e-06
3.12275e-05 4.19145e-05 -0.000110276 1.0845e-05 3.31255e-05 6.64722e-06
3.10247e-05 4.21024e-05 -0.000110065 1.18288e-05 3.23545e-05 5.8691e-06
3.17998e-05 4.0665e-05 -0.000110354 3.85178e-06 3.76054e-05 1.10178e-05
3.18819e-05 4.06914e-05 -0.000110525 4.65548e-06 3.7298e-05 1.07392e-05
3.19359e-05 4.07503e-05 -0.000110705 5.50313e-06 3.7046e-05 1.04391e-05
3.19631e-05 4.08408e-05 -0.000110869 6.35694e-06 3.67107e-05 1.00737e-05
3.19713e-05 4.09311e-05 -0.000110991 7.2322e-06 3.62742e-05 9.64998e-06
3.19626e-05 4.10024e-05 -0.000111049 8.15755e-06 3.57702e-05 9.17503e-06
3.19306e-05 4.10663e-05 -0.000111042 9.14336e-06 3.52326e-05 8.63586e-06
3.18588e-05 4.11637e-05 -0.000110988 1.00627e-05 3.46482e-05 7.96473e-06
3.1743e-05 4.12906e-05 -0.000110776 1.10279e-05 3.40335e-05 7.32705e-06
3.20359e-05 4.03301e-05 -0.000110535 3.93597e-06 3.85214e-05 1.15422e-05
3.21518e-05 4.03763e-05 -0.000110751 4.74437e-06 3.82473e-05 1.12896e-05
3.22354e-05 4.03915e-05 -0.000110966 5.62381e-06 3.79956e-05 1.10109e-05
3.22949e-05 4.0373e-05 -0.000111176 6.51896e-06 3.7654e-05 1.06616e-05
3.23411e-05 4.03982e-05 -0.000111341 7.43037e-06 3.72212e-05 1.0253e-05
3.23755e-05 4.04901e-05 -0.000111441 8.37531e-06 3.67267e-05 9.79447e-06
3.23877e-05 4.05919e-05 -0.000111484 9.36815e-06 3.61802e-05 9.27434e-06
3.2353e-05 4.06117e-05 -0.000111496 1.04392e-05 3.55802e-05 8.61248e-06
3.00464e-05 4.19303e-05 -0.000108557 8.03261e-06 2.48933e-05 3.83877e-06
2.98519e-05 4.2074e-05 -0.000108286 8.86793e-06 2.45161e-05 3.12105e-06
2.96258e-05 4.23379e-05 -0.000107983 9.84062e-06 2.38451e-05 2.368e-06
2.93551e-05 4.27066e-05 -0.000107648 1.06455e-05 2.32448e-05 1.55686e-06
2.90264e-05 4.30014e-05 -0.000107184 1.1491e-05 2.26817e-05 6.67675e-07
3.07162e-05 4.10998e-05 -0.000109111 5.97273e-06 2.7108e-05 5.99077e-06
3.06139e-05 4.1266e-05 -0.000109113 6.76682e-06 2.67309e-05 5.51121e-06
3.04752e-05 4.14136e-05 -0.000109052 7.48116e-06 2.63259e-05 5.00113e-06
3.03264e-05 4.16153e-05 -0.000108902 8.25145e-06 2.58644e-05 4.36292e-06
3.01621e-05 4.18272e-05 -0.000108692 9.15875e-06 2.54123e-05 3.68465e-06
2.99584e-05 4.20273e-05 -0.000108406 1.01106e-05 2.48282e-05 2.89325e-06
2.97066e-05 4.23017e-05 -0.000108091 1.10303e-05 2.42111e-05 2.05568e-06
2.9402e-05 4.25997e-05 -0.000107703 1.1988e-05 2.35847e-05 1.2199e-06
3.09649e-05 4.07094e-05 -0.000109462 5.38338e-06 2.81939e-05 6.83608e-06
3.09192e-05 4.08029e-05 -0.000109399 6.21305e-06 2.79784e-05 6.48986e-06
3.08414e-05 4.09755e-05 -0.000109419 6.98474e-06 2.75558e-05 6.02148e-06
3.07351e-05 4.1168e-05 -0.00010938 7.79003e-06 2.71675e-05 5.52463e-06
3.06149e-05 4.13456e-05 -0.000109274 8.61924e-06 2.67746e-05 4.93487e-06
3.04739e-05 4.15062e-05 -0.000109088 9.53769e-06 2.63127e-05 4.24183e-06
3.02957e-05 4.16892e-05 -0.000108843 1.05072e-05 2.57507e-05 3.47241e-06
3.00728e-05 4.19197e-05 -0.000108551 1.14729e-05 2.51428e-05 2.63552e-06
2.98002e-05 4.21761e-05 -0.000108224 1.24636e-05 2.44873e-05 1.81173e-06
3.1173e-05 4.01196e-05 -0.000109564 4.66993e-06 2.93895e-05 7.74343e-06
3.11556e-05 4.03199e-05 -0.000109657 5.47988e-06 2.90681e-05 7.41243e-06
3.11337e-05 4.05653e-05 -0.000109691 6.29645e-06 2.88793e-05 7.01408e-06
3.10798e-05 4.07097e-05 -0.000109716 7.1759e-06 2.85222e-05 6.57192e-06
3.10053e-05 4.08665e-05 -0.000109704 8.04329e-06 2.81249e-05 6.07303e-06
3.09131e-05 4.10175e-05 -0.000109633 8.93786e-06 2.76991e-05 5.49267e-06
3.07979e-05 4.11623e-05 -0.000109493 9.8948e-06 2.72176e-05 4.82247e-06
3.06479e-05 4.13232e-05 -0.00010929 1.08946e-05 2.66616e-05 4.07157e-06
3.04552e-05 4.15173e-05 -0.000109029 1.19058e-05 2.60538e-05 3.24253e-06
3.02153e-05 4.17338e-05 -0.000108752 1.29366e-05 2.53808e-05 2.42207e-06
3.1336e-05 4.00863e-05 -0.000109753 4.69973e-06 3.0391e-05 8.34078e-06
3.13495e-05 4.02024e-05 -0.00010986 5.54335e-06 3.01036e-05 7.94919e-06
3.13501e-05 4.03072e-05 -0.000109952 6.45136e-06 2.98272e-05 7.57125e-06
3.1327e-05 4.04265e-05 -0.000110015 7.36784e-06 2.94767e-05 7.13995e-06
3.12832e-05 4.05528e-05 -0.000110037 8.28858e-06 2.90697e-05 6.64836e-06
3.12205e-05 4.06757e-05 -0.000110003 9.23696e-06 2.86207e-05 6.08156e-06
3.11341e-05 4.07968e-05 -0.000109906 1.02344e-05 2.81229e-05 5.4306e-06
3.10146e-05 4.09319e-05 -0.000109746 1.12724e-05 2.75655e-05 4.69519e-06
3.08536e-05 4.10937e-05 -0.000109524 1.23324e-05 2.69525e-05 3.87531e-06
3.06485e-05 4.12775e-05 -0.000109281 1.34074e-05 2.62694e-05 3.05313e-06
3.14998e-05 3.98662e-05 -0.000109959 4.81102e-06 3.13614e-05 8.88485e-06
3.15463e-05 3.99495e-05 -0.00011008 5.67177e-06 3.1051e-05 8.51687e-06
3.1576e-05 4.00316e-05 -0.000110213 6.6034e-06 3.07732e-05 8.15075e-06
3.15825e-05 4.01272e-05 -0.000110316 7.55622e-06 3.04229e-05 7.73005e-06
3.15692e-05 4.02256e-05 -0.000110377 8.52381e-06 3.00052e-05 7.25044e-06
3.15373e-05 4.03186e-05 -0.000110382 9.51963e-06 2.95373e-05 6.70085e-06
3.14824e-05 4.04105e-05 -0.000110327 1.05603e-05 2.90262e-05 6.06848e-06
3.13958e-05 4.05163e-05 -0.000110212 1.16426e-05 2.84657e-05 5.34613e-06
3.12687e-05 4.06489e-05 -0.000110036 1.2754e-05 2.78474e-05 4.53463e-06
3.10996e-05 4.08029e-05 -0.000109814 1.3875e-05 2.7152e-05 3.70689e-06
3.16741e-05 3.96461e-05 -0.000110159 4.91445e-06 3.23097e-05 9.45985e-06
3.17526e-05 3.96853e-05 -0.000110307 5.79297e-06 3.19893e-05 9.11719e-06
3.18111e-05 3.974e-05 -0.000110477 6.75e-06 3.17133e-05 8.7573e-06
3.18464e-05 3.98121e-05 -0.000110621 7.73881e-06 3.13625e-05 8.3441e-06
3.18632e-05 3.98841e-05 -0.000110722 8.74744e-06 3.09326e-05 7.87853e-06
3.18635e-05 3.99452e-05 -0.000110768 9.7869e-06 3.04473e-05 7.34998e-06
3.18425e-05 4.00029e-05 -0.000110754 1.08748e-05 2.99258e-05 6.73784e-06
3.17914e-05 4.00764e-05 -0.000110686 1.20079e-05 2.93644e-05 6.02696e-06
3.17004e-05 4.02051e-05 -0.000110529 1.31716e-05 2.88117e-05 5.23161e-06
3.1569e-05 4.03329e-05 -0.000110383 1.43387e-05 2.80739e-05 4.39531e-06
3.18573e-05 3.94211e-05 -0.000110352 5.00272e-06 3.32188e-05 1.00678e-05
3.19684e-05 3.94096e-05 -0.000110541 5.90332e-06 3.29052e-05 9.75253e-06
3.20549e-05 3.94311e-05 -0.000110741 6.89091e-06 3.26416e-05 9.3924e-06
3.21179e-05 3.94811e-05 -0.000110926 7.91433e-06 3.2295e-05 8.9811e-06
3.21649e-05 3.9528e-05 -0.000111071 8.95745e-06 3.18521e-05 8.53017e-06
3.21986e-05 3.95546e-05 -0.000111158 1.00375e-05 3.135e-05 8.02727e-06
3.2214e-05 3.95735e-05 -0.000111188 1.11783e-05 3.08217e-05 7.43932e-06
3.21969e-05 3.9619e-05 -0.000111176 1.22625e-05 3.02551e-05 6.69428e-06
3.21416e-05 3.96892e-05 -0.000111021 1.3401e-05 2.96676e-05 5.99162e-06
3.20482e-05 3.91468e-05 -0.000110536 5.10587e-06 3.40998e-05 1.06965e-05
3.21892e-05 3.91636e-05 -0.00011077 6.0157e-06 3.38155e-05 1.03966e-05
3.23018e-05 3.91483e-05 -0.000111005 7.03112e-06 3.35506e-05 1.0041e-05
3.2393e-05 3.90966e-05 -0.000111235 8.09111e-06 3.31987e-05 9.64635e-06
3.24736e-05 3.90854e-05 -0.000111421 9.17464e-06 3.27598e-05 9.21861e-06
3.25468e-05 3.91386e-05 -0.000111548 1.02883e-05 3.22654e-05 8.73251e-06
3.26036e-05 3.92022e-05 -0.000111627 1.14533e-05 3.17263e-05 8.15367e-06
3.26204e-05 3.91861e-05 -0.000111676 1.26961e-05 3.11336e-05 7.40777e-06
3.0044e-05 3.98875e-05 -0.000108615 8.77045e-06 2.09708e-05 3.48113e-06
2.99083e-05 3.99266e-05 -0.000108395 9.67111e-06 2.06258e-05 2.83053e-06
2.97464e-05 4.00994e-05 -0.000108153 1.06933e-05 1.99522e-05 2.09244e-06
2.95416e-05 4.03874e-05 -0.000107883 1.16199e-05 1.93735e-05 1.25242e-06
2.92886e-05 4.06031e-05 -0.000107489 1.2601e-05 1.88649e-05 3.88492e-07
3.05598e-05 3.93657e-05 -0.000109077 6.4629e-06 2.30848e-05 5.61619e-06
3.04978e-05 3.9449e-05 -0.000109109 7.34782e-06 2.27113e-05 5.13626e-06
3.03986e-05 3.95148e-05 -0.000109073 8.17959e-06 2.23061e-05 4.64191e-06
3.0295e-05 3.96493e-05 -0.000108957 9.07508e-06 2.18485e-05 4.05383e-06
3.01868e-05 3.979e-05 -0.0001088 1.00574e-05 2.14226e-05 3.43475e-06
3.00451e-05 3.99038e-05 -0.00010857 1.10632e-05 2.08571e-05 2.65695e-06
2.98553e-05 4.00946e-05 -0.000108317 1.20914e-05 2.02645e-05 1.80201e-06
2.96203e-05 4.03057e-05 -0.000107994 1.31887e-05 1.96808e-05 9.93356e-07
3.07485e-05 3.91128e-05 -0.00010941 5.85408e-06 2.41052e-05 6.46649e-06
3.07414e-05 3.91344e-05 -0.000109369 6.77989e-06 2.38886e-05 6.14976e-06
3.07008e-05 3.92369e-05 -0.000109414 7.64695e-06 2.34523e-05 5.6958e-06
3.06313e-05 3.93592e-05 -0.0001094 8.57547e-06 2.30609e-05 5.21896e-06
3.05535e-05 3.94658e-05 -0.00010933 9.52322e-06 2.26775e-05 4.67369e-06
3.04645e-05 3.95494e-05 -0.000109191 1.05277e-05 2.22328e-05 4.03143e-06
3.03435e-05 3.96526e-05 -0.000109 1.15757e-05 2.16902e-05 3.28507e-06
3.01801e-05 3.98041e-05 -0.000108768 1.26467e-05 2.11086e-05 2.45152e-06
2.9972e-05 3.99796e-05 -0.000108506 1.37653e-05 2.04916e-05 1.64798e-06
3.09039e-05 3.86439e-05 -0.000109506 5.10216e-06 2.52425e-05 7.33909e-06
3.09196e-05 3.8782e-05 -0.000109609 6.0306e-06 2.49077e-05 7.06648e-06
3.09317e-05 3.89649e-05 -0.000109667 6.94419e-06 2.47033e-05 6.70512e-06
3.09117e-05 3.90432e-05 -0.000109711 7.92371e-06 2.43405e-05 6.29298e-06
3.08719e-05 3.91343e-05 -0.000109725 8.9087e-06 2.39415e-05 5.82482e-06
3.08199e-05 3.9218e-05 -0.000109688 9.92042e-06 2.35231e-05 5.2859e-06
3.0752e-05 3.92913e-05 -0.00010959 1.09782e-05 2.3056e-05 4.65884e-06
3.06544e-05 3.93787e-05 -0.000109439 1.20727e-05 2.25189e-05 3.9363e-06
3.05176e-05 3.94993e-05 -0.000109237 1.31911e-05 2.19375e-05 3.12399e-06
3.03386e-05 3.96415e-05 -0.000109023 1.43428e-05 2.13028e-05 2.32631e-06
3.10488e-05 3.86748e-05 -0.0001097 5.20728e-06 2.61602e-05 7.9791e-06
3.10924e-05 3.87313e-05 -0.000109822 6.1674e-06 2.58671e-05 7.63306e-06
3.11228e-05 3.87757e-05 -0.00010993 7.1752e-06 2.55823e-05 7.29934e-06
3.11301e-05 3.88348e-05 -0.000110011 8.19656e-06 2.52252e-05 6.90766e-06
3.11185e-05 3.89007e-05 -0.000110058 9.23448e-06 2.48165e-05 6.45472e-06
3.10927e-05 3.89612e-05 -0.000110056 1.03033e-05 2.43731e-05 5.9294e-06
3.10495e-05 3.90169e-05 -0.000109999 1.14133e-05 2.38876e-05 5.31811e-06
3.09778e-05 3.90847e-05 -0.000109888 1.25577e-05 2.33481e-05 4.61378e-06
3.08684e-05 3.91789e-05 -0.000109723 1.37277e-05 2.27608e-05 3.81989e-06
3.07202e-05 3.92935e-05 -0.00010954 1.49222e-05 2.21151e-05 3.02963e-06
3.11937e-05 3.85134e-05 -0.000109912 5.37447e-06 2.70729e-05 8.5825e-06
3.12667e-05 3.85431e-05 -0.000110045 6.36149e-06 2.67563e-05 8.24513e-06
3.13228e-05 3.85715e-05 -0.000110194 7.40184e-06 2.64685e-05 7.92155e-06
3.1356e-05 3.86132e-05 -0.000110315 8.46352e-06 2.61102e-05 7.54497e-06
3.13714e-05 3.8657e-05 -0.000110398 9.55065e-06 2.56895e-05 7.11035e-06
3.13729e-05 3.86935e-05 -0.000110433 1.06731e-05 2.52257e-05 6.60399e-06
3.13569e-05 3.87264e-05 -0.000110416 1.18368e-05 2.47253e-05 6.00977e-06
3.13137e-05 3.87716e-05 -0.000110347 1.30345e-05 2.41812e-05 5.31947e-06
3.12336e-05 3.88422e-05 -0.000110226 1.42578e-05 2.35872e-05 4.53936e-06
3.11165e-05 3.89324e-05 -0.000110061 1.55005e-05 2.29276e-05 3.75308e-06
3.1349e-05 3.8352e-05 -0.000110115 5.54031e-06 2.79717e-05 9.22138e-06
3.14506e-05 3.83456e-05 -0.000110277 6.55462e-06 2.76461e-05 8.89856e-06
3.15316e-05 3.83538e-05 -0.000110461 7.62504e-06 2.73579e-05 8.57395e-06
3.15892e-05 3.8379e-05 -0.000110621 8.72375e-06 2.69971e-05 8.20685e-06
3.16307e-05 3.84026e-05 -0.000110744 9.8555e-06 2.65623e-05 7.79188e-06
3.16604e-05 3.84135e-05 -0.000110817 1.10297e-05 2.60798e-05 7.30914e-06
3.16741e-05 3.84194e-05 -0.000110841 1.22507e-05 2.55677e-05 6.73438e-06
3.1662e-05 3.84392e-05 -0.000110817 1.35067e-05 2.5021e-05 6.05528e-06
3.16134e-05 3.85135e-05 -0.000110708 1.47912e-05 2.44968e-05 5.29607e-06
3.15286e-05 3.85826e-05 -0.00011062 1.60821e-05 2.37899e-05 4.5084e-06
3.15131e-05 3.81874e-05 -0.000110309 5.7008e-06 2.88415e-05 9.8936e-06
3.16437e-05 3.81382e-05 -0.000110517 6.7467e-06 2.85233e-05 9.59216e-06
3.17489e-05 3.81218e-05 -0.000110731 7.84612e-06 2.82452e-05 9.25594e-06
3.18295e-05 3.81321e-05 -0.00011093 8.97715e-06 2.78852e-05 8.89208e-06
3.18967e-05 3.8137e-05 -0.000111093 1.01474e-05 2.74352e-05 8.49739e-06
3.19556e-05 3.81202e-05 -0.000111206 1.13714e-05 2.69348e-05 8.0428e-06
3.2001e-05 3.80952e-05 -0.000111272 1.26549e-05 2.64152e-05 7.49174e-06
3.20186e-05 3.80901e-05 -0.000111299 1.38688e-05 2.58643e-05 6.77565e-06
3.20007e-05 3.81043e-05 -0.000111192 1.51399e-05 2.53024e-05 6.11118e-06
3.16805e-05 3.79718e-05 -0.000110497 5.87729e-06 2.96904e-05 1.05835e-05
3.18397e-05 3.79606e-05 -0.000110754 6.93312e-06 2.93949e-05 1.02935e-05
3.19652e-05 3.79152e-05 -0.000111001 8.06183e-06 2.91152e-05 9.95055e-06
3.20689e-05 3.78309e-05 -0.000111242 9.24203e-06 2.87531e-05 9.60005e-06
3.21663e-05 3.77843e-05 -0.000111445 1.04633e-05 2.83086e-05 9.23328e-06
3.22616e-05 3.77999e-05 -0.000111597 1.17224e-05 2.78134e-05 8.80145e-06
3.23447e-05 3.78259e-05 -0.000111709 1.30244e-05 2.72783e-05 8.26179e-06
3.23912e-05 3.77744e-05 -0.000111791 1.44001e-05 2.66895e-05 7.54068e-06
3.32626e-05 3.78569e-05 -0.00010867 9.59005e-06 1.70693e-05 3.40462e-06
3.31868e-05 3.77964e-05 -0.000108506 1.04891e-05 1.6743e-05 2.65988e-06
3.30914e-05 3.78751e-05 -0.00010833 1.15404e-05 1.60801e-05 1.88668e-06
3.29628e-05 3.80787e-05 -0.000108132 1.2595e-05 1.55352e-05 9.91227e-07
3.27921e-05 3.82167e-05 -0.000107814 1.36716e-05 1.50664e-05 -2.78993e-09
3.35911e-05 3.76395e-05 -0.000109025 7.085e-06 1.90872e-05 5.72727e-06
3.35746e-05 3.76423e-05 -0.00010909 8.04868e-06 1.8718e-05 5.24518e-06
3.35278e-05 3.76306e-05 -0.000109084 8.97073e-06 1.83132e-05 4.70657e-06
3.34798e-05 3.76965e-05 -0.00010901 9.93473e-06 1.7854e-05 4.02048e-06
3.34303e-05 3.77675e-05 -0.00010891 1.09286e-05 1.74432e-05 3.31485e-06
3.33522e-05 3.77997e-05 -0.000108741 1.19668e-05 1.69023e-05 2.50224e-06
3.3234e-05 3.79028e-05 -0.000108556 1.31084e-05 1.63444e-05 1.59759e-06
3.30777e-05 3.80251e-05 -0.000108304 1.43004e-05 1.57962e-05 6.6537e-07
3.37121e-05 3.75284e-05 -0.000109339 6.46223e-06 2.00434e-05 6.65677e-06
3.37455e-05 3.74811e-05 -0.000109319 7.44804e-06 1.98216e-05 6.31817e-06
3.37502e-05 3.75118e-05 -0.000109394 8.38524e-06 1.93738e-05 5.84684e-06
3.37297e-05 3.75611e-05 -0.000109411 9.40551e-06 1.89807e-05 5.32213e-06
3.37047e-05 3.7596e-05 -0.000109383 1.04185e-05 1.85999e-05 4.69577e-06
3.36717e-05 3.76069e-05 -0.000109295 1.1451e-05 1.81662e-05 3.9755e-06
3.36118e-05 3.76335e-05 -0.000109162 1.25452e-05 1.76449e-05 3.17559e-06
3.35164e-05 3.77044e-05 -0.000108998 1.37058e-05 1.7094e-05 2.28228e-06
3.33816e-05 3.77974e-05 -0.000108807 1.49145e-05 1.65136e-05 1.37685e-06
3.37988e-05 3.71868e-05 -0.000109421 5.71166e-06 2.11224e-05 7.64596e-06
3.38559e-05 3.726e-05 -0.000109538 6.69911e-06 2.0772e-05 7.32427e-06
3.3907e-05 3.73772e-05 -0.000109624 7.66414e-06 2.0549e-05 6.93191e-06
3.39304e-05 3.7389e-05 -0.000109692 8.7048e-06 2.01815e-05 6.49153e-06
3.39368e-05 3.74132e-05 -0.000109736 9.76591e-06 1.97809e-05 5.97395e-06
3.39345e-05 3.74298e-05 -0.000109739 1.08435e-05 1.93657e-05 5.36376e-06
3.39202e-05 3.74346e-05 -0.000109689 1.19496e-05 1.89086e-05 4.66396e-06
3.38806e-05 3.74507e-05 -0.000109594 1.31002e-05 1.83902e-05 3.87879e-06
3.3808e-05 3.74974e-05 -0.000109457 1.42967e-05 1.78366e-05 2.99828e-06
3.36989e-05 3.75637e-05 -0.000109312 1.55317e-05 1.72393e-05 2.10928e-06
3.39193e-05 3.72695e-05 -0.000109619 5.85746e-06 2.19604e-05 8.33785e-06
3.4e-05 3.72695e-05 -0.000109759 6.8828e-06 2.1655e-05 7.95333e-06
3.40684e-05 3.72555e-05 -0.000109887 7.93883e-06 2.13588e-05 7.58864e-06
3.41162e-05 3.72548e-05 -0.000109992 9.01649e-06 2.09945e-05 7.16027e-06
3.4148e-05 3.72599e-05 -0.000110069 1.01225e-05 2.05832e-05 6.65581e-06
3.4169e-05 3.72589e-05 -0.000110105 1.12593e-05 2.01428e-05 6.0642e-06
3.41761e-05 3.72514e-05 -0.000110093 1.24313e-05 1.96663e-05 5.38379e-06
3.41589e-05 3.72537e-05 -0.000110036 1.36399e-05 1.91431e-05 4.61374e-06
3.41099e-05 3.72799e-05 -0.000109934 1.48817e-05 1.85814e-05 3.74718e-06
3.4028e-05 3.73248e-05 -0.000109819 1.61508e-05 1.79717e-05 2.86498e-06
3.40401e-05 3.71668e-05 -0.000109837 6.03343e-06 2.28149e-05 8.99479e-06
3.41462e-05 3.71459e-05 -0.000109986 7.10511e-06 2.24858e-05 8.6282e-06
3.42372e-05 3.71224e-05 -0.000110153 8.20315e-06 2.21841e-05 8.27158e-06
3.4308e-05 3.71107e-05 -0.000110296 9.3202e-06 2.18164e-05 7.8556e-06
3.43638e-05 3.71e-05 -0.000110408 1.04711e-05 2.13918e-05 7.3677e-06
3.44087e-05 3.7081e-05 -0.00011048 1.16651e-05 2.09302e-05 6.79718e-06
3.44395e-05 3.70571e-05 -0.000110506 1.29014e-05 2.04376e-05 6.13704e-06
3.44471e-05 3.7043e-05 -0.000110489 1.41704e-05 1.99076e-05 5.38211e-06
3.44231e-05 3.70515e-05 -0.000110427 1.54621e-05 1.93363e-05 4.52998e-06
3.43688e-05 3.70776e-05 -0.000110327 1.67729e-05 1.87118e-05 3.64713e-06
3.41714e-05 3.70658e-05 -0.000110045 6.2089e-06 2.36627e-05 9.67729e-06
3.43021e-05 3.70162e-05 -0.000110222 7.32521e-06 2.3326e-05 9.33276e-06
3.44139e-05 3.69792e-05 -0.000110423 8.46355e-06 2.30211e-05 8.98185e-06
3.45058e-05 3.69573e-05 -0.000110604 9.61607e-06 2.26484e-05 8.57748e-06
3.45845e-05 3.69327e-05 -0.000110754 1.0809e-05 2.22084e-05 8.10843e-06
3.4654e-05 3.68949e-05 -0.000110862 1.20595e-05 2.17272e-05 7.56243e-06
3.47105e-05 3.68509e-05 -0.000110927 1.33627e-05 2.12218e-05 6.92524e-06
3.4745e-05 3.68183e-05 -0.000110952 1.46968e-05 2.06868e-05 6.18561e-06
3.47489e-05 3.68406e-05 -0.000110898 1.60523e-05 2.01881e-05 5.34947e-06
3.47228e-05 3.68508e-05 -0.000110876 1.74071e-05 1.95092e-05 4.46289e-06
3.43099e-05 3.69633e-05 -0.000110241 6.38539e-06 2.44916e-05 1.03864e-05
3.44669e-05 3.68791e-05 -0.000110468 7.54909e-06 2.41624e-05 1.00653e-05
3.45982e-05 3.6825e-05 -0.000110697 8.72487e-06 2.38648e-05 9.71861e-06
3.4709e-05 3.67947e-05 -0.000110915 9.90571e-06 2.349e-05 9.32399e-06
3.48099e-05 3.67579e-05 -0.000111103 1.11352e-05 2.30332e-05 8.8753e-06
3.4905e-05 3.66994e-05 -0.000111249 1.24414e-05 2.25336e-05 8.35848e-06
3.4989e-05 3.66321e-05 -0.000111354 1.38157e-05 2.20197e-05 7.74959e-06
3.50492e-05 3.65784e-05 -0.000111424 1.5115e-05 2.14814e-05 6.97669e-06
3.50802e-05 3.6539e-05 -0.000111374 1.64658e-05 2.09435e-05 6.2326e-06
3.44551e-05 3.68074e-05 -0.000110435 6.58801e-06 2.53053e-05 1.11083e-05
3.4632e-05 3.67657e-05 -0.000110712 7.75994e-06 2.49944e-05 1.08086e-05
3.47795e-05 3.66933e-05 -0.000110972 8.97598e-06 2.46966e-05 1.0471e-05
3.49101e-05 3.65825e-05 -0.000111229 1.02195e-05 2.43207e-05 1.00939e-05
3.5038e-05 3.65029e-05 -0.000111455 1.1506e-05 2.38685e-05 9.67164e-06
3.51651e-05 3.64779e-05 -0.000111639 1.28442e-05 2.33713e-05 9.18152e-06
3.52815e-05 3.64613e-05 -0.000111789 1.42303e-05 2.28388e-05 8.59483e-06
3.53665e-05 3.63737e-05 -0.000111908 1.56957e-05 2.22548e-05 7.82399e-06
3.32265e-05 3.58312e-05 -0.000108786 1.06645e-05 1.31882e-05 2.3118e-06
3.32084e-05 3.56727e-05 -0.000108675 1.16286e-05 1.28877e-05 1.42568e-06
3.31363e-05 3.56712e-05 -0.000108581 1.27271e-05 1.22611e-05 4.27515e-07
3.30886e-05 3.57926e-05 -0.000108431 1.38047e-05 1.17611e-05 -5.25795e-07
3.30476e-05 3.58399e-05 -0.00010821 1.49322e-05 1.12933e-05 -1.53759e-06
3.33663e-05 3.5919e-05 -0.000109014 8.05516e-06 1.51258e-05 4.89013e-06
3.33968e-05 3.58406e-05 -0.000109117 9.09478e-06 1.47577e-05 4.34959e-06
3.34036e-05 3.57527e-05 -0.000109149 1.00564e-05 1.43474e-05 3.74376e-06
3.341e-05 3.5751e-05 -0.000109123 1.10311e-05 1.38838e-05 2.95936e-06
3.34164e-05 3.57534e-05 -0.000109077 1.2082e-05 1.34956e-05 2.12107e-06
3.34014e-05 3.57028e-05 -0.000108967 1.32171e-05 1.29849e-05 1.19796e-06
3.33595e-05 3.5716e-05 -0.000108855 1.44051e-05 1.24525e-05 2.17818e-07
3.32861e-05 3.57512e-05 -0.000108685 1.56082e-05 1.19343e-05 -8.33656e-07
3.34232e-05 3.59503e-05 -0.000109311 7.38983e-06 1.60184e-05 5.93878e-06
3.34966e-05 3.58338e-05 -0.000109314 8.43671e-06 1.57911e-05 5.53137e-06
3.35461e-05 3.57912e-05 -0.000109422 9.44182e-06 1.53296e-05 4.98813e-06
3.35751e-05 3.57664e-05 -0.000109475 1.05026e-05 1.49285e-05 4.39197e-06
3.36013e-05 3.57314e-05 -0.000109493 1.15415e-05 1.45474e-05 3.67033e-06
3.3622e-05 3.56716e-05 -0.000109457 1.26306e-05 1.413e-05 2.82973e-06
3.36238e-05 3.56214e-05 -0.000109383 1.38025e-05 1.3633e-05 1.91815e-06
3.35992e-05 3.56108e-05 -0.000109289 1.50173e-05 1.31078e-05 9.2842e-07
3.35422e-05 3.56227e-05 -0.000109176 1.62591e-05 1.25609e-05 -9.5159e-08
3.34524e-05 3.57347e-05 -0.000109383 6.61077e-06 1.7032e-05 7.07314e-06
3.35425e-05 3.57444e-05 -0.00010951 7.63006e-06 1.66692e-05 6.67689e-06
3.36315e-05 3.57954e-05 -0.000109626 8.65493e-06 1.64283e-05 6.20443e-06
3.36971e-05 3.57395e-05 -0.000109721 9.76494e-06 1.60549e-05 5.68313e-06
3.37491e-05 3.56963e-05 -0.0001098 1.08746e-05 1.56489e-05 5.08368e-06
3.37948e-05 3.5647e-05 -0.000109846 1.19909e-05 1.52353e-05 4.37727e-06
3.38321e-05 3.55847e-05 -0.000109846 1.31518e-05 1.47909e-05 3.56491e-06
3.38506e-05 3.55299e-05 -0.000109809 1.43716e-05 1.42927e-05 2.66656e-06
3.38438e-05 3.55021e-05 -0.000109741 1.56276e-05 1.37642e-05 1.67726e-06
3.38081e-05 3.54926e-05 -0.00010967 1.691e-05 1.32009e-05 6.65996e-07
3.35529e-05 3.58671e-05 -0.000109581 6.75009e-06 1.77891e-05 7.81993e-06
3.36623e-05 3.58125e-05 -0.00010974 7.81887e-06 1.74726e-05 7.366e-06
3.37661e-05 3.57405e-05 -0.000109891 8.94208e-06 1.71663e-05 6.91761e-06
3.38524e-05 3.56796e-05 -0.000110023 1.0086e-05 1.67948e-05 6.40311e-06
3.39259e-05 3.56237e-05 -0.000110133 1.12445e-05 1.63791e-05 5.81015e-06
3.39913e-05 3.55619e-05 -0.00011021 1.24271e-05 1.59404e-05 5.12125e-06
3.40467e-05 3.54924e-05 -0.000110246 1.36543e-05 1.54743e-05 4.33238e-06
3.40839e-05 3.54298e-05 -0.000110245 1.49293e-05 1.49684e-05 3.44873e-06
3.40963e-05 3.5388e-05 -0.000110209 1.62349e-05 1.44306e-05 2.46477e-06
3.40831e-05 3.53629e-05 -0.000110166 1.75594e-05 1.38542e-05 1.45342e-06
3.36539e-05 3.58217e-05 -0.000109803 6.94332e-06 1.85856e-05 8.51673e-06
3.3785e-05 3.57526e-05 -0.00010997 8.05833e-06 1.82437e-05 8.09117e-06
3.39069e-05 3.56781e-05 -0.000110159 9.21965e-06 1.79293e-05 7.65399e-06
3.40124e-05 3.56129e-05 -0.000110329 1.04016e-05 1.75525e-05 7.15037e-06
3.4106e-05 3.55476e-05 -0.000110473 1.16073e-05 1.71232e-05 6.57011e-06
3.41914e-05 3.54738e-05 -0.000110583 1.28503e-05 1.6663e-05 5.90169e-06
3.42665e-05 3.5394e-05 -0.000110655 1.4143e-05 1.61788e-05 5.13589e-06
3.43241e-05 3.53215e-05 -0.000110692 1.5479e-05 1.56637e-05 4.26791e-06
3.43571e-05 3.52684e-05 -0.000110694 1.68405e-05 1.51148e-05 3.29337e-06
3.43673e-05 3.52302e-05 -0.000110665 1.82108e-05 1.45224e-05 2.27389e-06
3.37628e-05 3.5781e-05 -0.000110015 7.12784e-06 1.93829e-05 9.23697e-06
3.39157e-05 3.56897e-05 -0.000110211 8.28803e-06 1.90326e-05 8.84079e-06
3.40542e-05 3.56091e-05 -0.000110432 9.49052e-06 1.87126e-05 8.41677e-06
3.41771e-05 3.55403e-05 -0.000110639 1.07099e-05 1.83286e-05 7.92554e-06
3.42897e-05 3.54675e-05 -0.000110819 1.19589e-05 1.78832e-05 7.36219e-06
3.43954e-05 3.53814e-05 -0.000110963 1.32593e-05 1.74031e-05 6.71855e-06
3.44916e-05 3.52886e-05 -0.000111072 1.46202e-05 1.69047e-05 5.97844e-06
3.45713e-05 3.52047e-05 -0.000111149 1.60243e-05 1.63821e-05 5.12726e-06
3.46273e-05 3.51745e-05 -0.000111155 1.74486e-05 1.59056e-05 4.1648e-06
3.46615e-05 3.51261e-05 -0.000111205 1.8868e-05 1.52542e-05 3.13465e-06
3.3879e-05 3.57401e-05 -0.000110216 7.30227e-06 2.01699e-05 9.9862e-06
3.40536e-05 3.56228e-05 -0.000110461 8.51105e-06 1.98272e-05 9.61605e-06
3.42075e-05 3.55327e-05 -0.00011071 9.75766e-06 1.95111e-05 9.20633e-06
3.43457e-05 3.54619e-05 -0.000110952 1.10101e-05 1.91227e-05 8.72727e-06
3.44763e-05 3.53832e-05 -0.000111168 1.22962e-05 1.86593e-05 8.18371e-06
3.46028e-05 3.52835e-05 -0.000111348 1.36516e-05 1.81607e-05 7.57123e-06
3.47219e-05 3.51751e-05 -0.000111495 1.5086e-05 1.76531e-05 6.86267e-06
3.4823e-05 3.50744e-05 -0.000111612 1.64588e-05 1.71278e-05 5.97951e-06
3.49015e-05 3.49832e-05 -0.000111625 1.78747e-05 1.6612e-05 5.10875e-06
3.3998e-05 3.56451e-05 -0.000110415 7.49477e-06 2.0948e-05 1.0755e-05
3.41892e-05 3.55733e-05 -0.00011071 8.71955e-06 2.06219e-05 1.04039e-05
3.43562e-05 3.54755e-05 -0.000110988 1.001e-05 2.03057e-05 1.00159e-05
3.45115e-05 3.53401e-05 -0.000111267 1.13221e-05 1.99155e-05 9.56232e-06
3.46651e-05 3.52279e-05 -0.00011152 1.26649e-05 1.94551e-05 9.04691e-06
3.48183e-05 3.51616e-05 -0.000111737 1.40593e-05 1.89565e-05 8.46106e-06
3.49643e-05 3.51021e-05 -0.000111927 1.55191e-05 1.84291e-05 7.77474e-06
3.5086e-05 3.49794e-05 -0.000112088 1.70677e-05 1.78522e-05 6.89303e-06
3.40376e-05 3.38109e-05 -0.000108887 1.16766e-05 9.31343e-06 1.62901e-06
3.41841e-05 3.35976e-05 -0.000108853 1.25314e-05 9.05077e-06 6.34669e-07
3.42313e-05 3.35171e-05 -0.000108789 1.38352e-05 8.51315e-06 -3.31692e-07
3.41681e-05 3.35143e-05 -0.000108693 1.51354e-05 7.98592e-06 -1.15393e-06
3.41725e-05 3.34726e-05 -0.000108574 1.61844e-05 7.52898e-06 -2.25033e-06
3.39686e-05 3.42054e-05 -0.000109003 8.96408e-06 1.11735e-05 4.25568e-06
3.40546e-05 3.40454e-05 -0.000109144 1.00755e-05 1.08056e-05 3.6564e-06
3.41177e-05 3.38786e-05 -0.000109207 1.1075e-05 1.03825e-05 3.03104e-06
3.41786e-05 3.38119e-05 -0.000109223 1.20841e-05 9.91848e-06 2.28238e-06
3.42471e-05 3.37443e-05 -0.000109229 1.32473e-05 9.56856e-06 1.46568e-06
3.43111e-05 3.36056e-05 -0.000109175 1.44984e-05 9.08456e-06 4.94836e-07
3.43519e-05 3.35343e-05 -0.00010913 1.56986e-05 8.56272e-06 -5.32836e-07
3.43597e-05 3.34878e-05 -0.000109038 1.69179e-05 8.08138e-06 -1.56775e-06
3.39396e-05 3.43733e-05 -0.000109285 8.23962e-06 1.20008e-05 5.31801e-06
3.40635e-05 3.41855e-05 -0.000109311 9.36148e-06 1.17739e-05 4.88889e-06
3.41652e-05 3.40707e-05 -0.000109451 1.04438e-05 1.12963e-05 4.3035e-06
3.42474e-05 3.39757e-05 -0.000109534 1.15478e-05 1.08817e-05 3.69105e-06
3.43266e-05 3.38742e-05 -0.000109593 1.26353e-05 1.05044e-05 2.98961e-06
3.44095e-05 3.37417e-05 -0.000109606 1.38214e-05 1.01112e-05 2.16129e-06
3.44826e-05 3.36121e-05 -0.000109587 1.50898e-05 9.63723e-06 1.22016e-06
3.45342e-05 3.3523e-05 -0.00010956 1.63501e-05 9.13071e-06 1.9576e-07
3.45589e-05 3.3457e-05 -0.000109518 1.76302e-05 8.61849e-06 -8.30644e-07
3.38937e-05 3.42757e-05 -0.000109352 7.38349e-06 1.29476e-05 6.40995e-06
3.40223e-05 3.42258e-05 -0.00010949 8.46884e-06 1.25747e-05 6.04217e-06
3.41582e-05 3.4215e-05 -0.000109633 9.57718e-06 1.232e-05 5.55354e-06
3.42735e-05 3.40919e-05 -0.000109753 1.07749e-05 1.19397e-05 5.00721e-06
3.43761e-05 3.39835e-05 -0.000109862 1.19475e-05 1.1526e-05 4.3973e-06
3.44743e-05 3.38702e-05 -0.000109946 1.3126e-05 1.11163e-05 3.70044e-06
3.45707e-05 3.37402e-05 -0.000109992 1.43729e-05 1.06893e-05 2.89185e-06
3.46566e-05 3.36132e-05 -0.000110009 1.56808e-05 1.02116e-05 1.97272e-06
3.47224e-05 3.35128e-05 -0.000110005 1.69995e-05 9.70485e-06 9.57002e-07
3.47643e-05 3.34303e-05 -0.000110004 1.8337e-05 9.17557e-06 -6.55344e-08
3.39603e-05 3.44698e-05 -0.000109555 7.51718e-06 1.362e-05 7.16543e-06
3.41063e-05 3.43594e-05 -0.000109732 8.65569e-06 1.32992e-05 6.71899e-06
3.4253e-05 3.42283e-05 -0.000109902 9.87534e-06 1.29859e-05 6.26013e-06
3.4385e-05 3.41071e-05 -0.000110058 1.11109e-05 1.26073e-05 5.73139e-06
3.45061e-05 3.39916e-05 -0.000110197 1.23443e-05 1.21862e-05 5.13325e-06
3.46222e-05 3.38701e-05 -0.00011031 1.35974e-05 1.17511e-05 4.44905e-06
3.47339e-05 3.37385e-05 -0.00011039 1.49061e-05 1.12984e-05 3.65891e-06
3.48342e-05 3.36107e-05 -0.000110441 1.62662e-05 1.08108e-05 2.75751e-06
3.49152e-05 3.35024e-05 -0.000110468 1.76468e-05 1.02957e-05 1.75142e-06
3.49761e-05 3.34093e-05 -0.000110491 1.90418e-05 9.7527e-06 7.29801e-07
3.40267e-05 3.44814e-05 -0.000109783 7.74432e-06 1.43593e-05 7.87132e-06
3.41923e-05 3.43629e-05 -0.000109967 8.91783e-06 1.40107e-05 7.43961e-06
3.43526e-05 3.42366e-05 -0.000110175 1.01699e-05 1.36867e-05 6.99404e-06
3.44999e-05 3.41183e-05 -0.000110368 1.14453e-05 1.33017e-05 6.48133e-06
3.4638e-05 3.39993e-05 -0.000110539 1.27336e-05 1.28674e-05 5.90013e-06
3.47714e-05 3.38712e-05 -0.000110683 1.40516e-05 1.24102e-05 5.23489e-06
3.48995e-05 3.37355e-05 -0.000110797 1.54242e-05 1.19371e-05 4.46436e-06
3.50161e-05 3.36049e-05 -0.000110884 1.68456e-05 1.14382e-05 3.57823e-06
3.5114e-05 3.34917e-05 -0.000110946 1.82921e-05 1.09118e-05 2.58095e-06
3.51945e-05 3.33908e-05 -0.000110981 1.97456e-05 1.03512e-05 1.55661e-06
3.41e-05 3.44988e-05 -0.00011 7.95836e-06 1.5108e-05 8.61026e-06
3.4284e-05 3.43654e-05 -0.000110213 9.16928e-06 1.47492e-05 8.19789e-06
3.44572e-05 3.42412e-05 -0.000110454 1.04575e-05 1.44175e-05 7.75925e-06
3.46182e-05 3.41264e-05 -0.000110682 1.17736e-05 1.40233e-05 7.2595e-06
3.47719e-05 3.4006e-05 -0.000110887 1.31106e-05 1.35722e-05 6.69862e-06
3.49224e-05 3.38717e-05 -0.000111064 1.44877e-05 1.30945e-05 6.05827e-06
3.50679e-05 3.37302e-05 -0.000111213 1.59278e-05 1.26057e-05 5.31018e-06
3.52025e-05 3.35956e-05 -0.000111339 1.74195e-05 1.20973e-05 4.43791e-06
3.53193e-05 3.35117e-05 -0.0001114 1.89327e-05 1.1644e-05 3.45867e-06
3.54203e-05 3.34064e-05 -0.000111514 2.04463e-05 1.10224e-05 2.42657e-06
3.41796e-05 3.45173e-05 -0.000110205 8.15166e-06 1.58547e-05 9.38458e-06
3.43812e-05 3.43666e-05 -0.000110469 9.40743e-06 1.55035e-05 8.99322e-06
3.45662e-05 3.42414e-05 -0.000110737 1.07371e-05 1.51725e-05 8.55586e-06
3.47392e-05 3.41317e-05 -0.000111 1.20921e-05 1.47713e-05 8.06546e-06
3.49075e-05 3.40115e-05 -0.00011124 1.34704e-05 1.43009e-05 7.52797e-06
3.50751e-05 3.38702e-05 -0.000111449 1.49017e-05 1.38044e-05 6.91928e-06
3.52393e-05 3.3721e-05 -0.000111635 1.64154e-05 1.3306e-05 6.19828e-06
3.5391e-05 3.3574e-05 -0.000111796 1.78771e-05 1.27951e-05 5.2882e-06
3.5526e-05 3.34315e-05 -0.000111866 1.93805e-05 1.23001e-05 4.40538e-06
3.42592e-05 3.44809e-05 -0.000110411 8.34737e-06 1.66018e-05 1.01829e-05
3.44731e-05 3.43842e-05 -0.000110724 9.62968e-06 1.62626e-05 9.80194e-06
3.46681e-05 3.426e-05 -0.000111021 1.09979e-05 1.59303e-05 9.37373e-06
3.4855e-05 3.40961e-05 -0.000111319 1.24065e-05 1.55282e-05 8.90896e-06
3.50423e-05 3.39503e-05 -0.000111594 1.3843e-05 1.50602e-05 8.40389e-06
3.52327e-05 3.38452e-05 -0.000111839 1.53209e-05 1.45613e-05 7.81983e-06
3.54201e-05 3.37473e-05 -0.000112067 1.68731e-05 1.40413e-05 7.11098e-06
3.55891e-05 3.35924e-05 -0.000112268 1.85192e-05 1.34705e-05 6.1916e-06
3.39493e-05 3.17972e-05 -0.000108945 1.18553e-05 5.41248e-06 1.60927e-06
3.40655e-05 3.15347e-05 -0.000108977 1.29344e-05 5.20312e-06 8.4722e-07
3.4184e-05 3.13606e-05 -0.000108936 1.42169e-05 4.72238e-06 -1.02946e-07
3.42771e-05 3.12278e-05 -0.000108934 1.53679e-05 4.12046e-06 -1.07698e-06
3.43551e-05 3.11103e-05 -0.000108887 1.64819e-05 3.72245e-06 -2.15337e-06
3.37221e-05 3.24966e-05 -0.000108964 9.03993e-06 7.18303e-06 4.20898e-06
3.38527e-05 3.22578e-05 -0.00010914 1.01528e-05 6.81514e-06 3.61113e-06
3.39553e-05 3.20118e-05 -0.000109229 1.11889e-05 6.37875e-06 2.98882e-06
3.40576e-05 3.18778e-05 -0.000109281 1.22837e-05 5.9201e-06 2.27678e-06
3.41867e-05 3.17362e-05 -0.00010934 1.34917e-05 5.60273e-06 1.53556e-06
3.43187e-05 3.15093e-05 -0.000109347 1.47263e-05 5.13502e-06 5.98334e-07
3.44187e-05 3.13585e-05 -0.000109365 1.59463e-05 4.62702e-06 -4.5072e-07
3.44937e-05 3.12313e-05 -0.000109339 1.72228e-05 4.18825e-06 -1.46339e-06
3.36253e-05 3.27972e-05 -0.000109229 8.3127e-06 7.94634e-06 5.24165e-06
3.37918e-05 3.25381e-05 -0.000109277 9.45194e-06 7.71919e-06 4.8366e-06
3.39347e-05 3.23526e-05 -0.000109447 1.05439e-05 7.22405e-06 4.26705e-06
3.40542e-05 3.21892e-05 -0.000109558 1.16897e-05 6.79859e-06 3.66218e-06
3.41735e-05 3.20213e-05 -0.000109652 1.2839e-05 6.42757e-06 2.99591e-06
3.4309e-05 3.18146e-05 -0.000109713 1.4058e-05 6.05246e-06 2.22776e-06
3.44436e-05 3.16057e-05 -0.000109752 1.53319e-05 5.59491e-06 1.32108e-06
3.45554e-05 3.14405e-05 -0.000109788 1.66138e-05 5.10769e-06 3.00045e-07
3.46433e-05 3.12978e-05 -0.000109812 1.79394e-05 4.63222e-06 -7.07768e-07
3.35229e-05 3.28162e-05 -0.000109288 7.42355e-06 8.83338e-06 6.26397e-06
3.36851e-05 3.27064e-05 -0.000109438 8.55591e-06 8.44458e-06 5.94552e-06
3.38584e-05 3.26362e-05 -0.000109609 9.67987e-06 8.17558e-06 5.48954e-06
3.40106e-05 3.24469e-05 -0.000109751 1.08924e-05 7.78659e-06 4.97112e-06
3.41489e-05 3.22746e-05 -0.000109887 1.21021e-05 7.36593e-06 4.38368e-06
3.42864e-05 3.20977e-05 -0.000110006 1.33298e-05 6.96036e-06 3.72258e-06
3.44312e-05 3.18991e-05 -0.000110098 1.46104e-05 6.54674e-06 2.96139e-06
3.45718e-05 3.17004e-05 -0.000110168 1.59351e-05 6.08472e-06 2.07631e-06
3.4694e-05 3.15289e-05 -0.000110226 1.7278e-05 5.59903e-06 1.07795e-06
3.47965e-05 3.13748e-05 -0.00011029 1.86558e-05 5.10493e-06 7.81125e-08
3.35696e-05 3.3076e-05 -0.000109499 7.57465e-06 9.42308e-06 7.01671e-06
3.37457e-05 3.29088e-05 -0.000109692 8.75202e-06 9.09444e-06 6.60801e-06
3.39246e-05 3.27184e-05 -0.000109881 9.98716e-06 8.77078e-06 6.19023e-06
3.40893e-05 3.25376e-05 -0.000110059 1.12423e-05 8.38246e-06 5.69732e-06
3.42437e-05 3.23634e-05 -0.000110224 1.25107e-05 7.95538e-06 5.13122e-06
3.43968e-05 3.21825e-05 -0.00011037 1.3807e-05 7.52289e-06 4.48382e-06
3.45523e-05 3.19884e-05 -0.000110493 1.515e-05 7.08048e-06 3.73454e-06
3.47019e-05 3.17958e-05 -0.000110595 1.65334e-05 6.60741e-06 2.86675e-06
3.48354e-05 3.16223e-05 -0.000110681 1.79398e-05 6.11334e-06 1.88637e-06
3.49532e-05 3.14625e-05 -0.000110767 1.93732e-05 5.60452e-06 8.95515e-07
3.36163e-05 3.31453e-05 -0.000109736 7.80835e-06 1.01049e-05 7.74083e-06
3.38077e-05 3.29761e-05 -0.000109933 9.02005e-06 9.74745e-06 7.33168e-06
3.39956e-05 3.27978e-05 -0.000110159 1.02912e-05 9.41022e-06 6.92432e-06
3.4171e-05 3.26268e-05 -0.000110371 1.15886e-05 9.01398e-06 6.45084e-06
3.43391e-05 3.24547e-05 -0.000110567 1.29112e-05 8.57323e-06 5.90789e-06
3.45066e-05 3.22726e-05 -0.000110743 1.42704e-05 8.11724e-06 5.28036e-06
3.46742e-05 3.2081e-05 -0.000110898 1.5678e-05 7.6523e-06 4.54681e-06
3.48351e-05 3.18924e-05 -0.000111035 1.71256e-05 7.16625e-06 3.69356e-06
3.49808e-05 3.172e-05 -0.000111153 1.85979e-05 6.65969e-06 2.72664e-06
3.51139e-05 3.15578e-05 -0.000111247 2.00905e-05 6.13133e-06 1.7421e-06
3.36703e-05 3.32202e-05 -0.000109959 8.03387e-06 1.08041e-05 8.5006e-06
3.38758e-05 3.30444e-05 -0.000110186 9.28239e-06 1.04365e-05 8.09989e-06
3.40716e-05 3.28759e-05 -0.000110443 1.05896e-05 1.00889e-05 7.69271e-06
3.42558e-05 3.27155e-05 -0.000110689 1.19275e-05 9.68139e-06 7.23359e-06
3.44356e-05 3.25481e-05 -0.000110917 1.32994e-05 9.2225e-06 6.71529e-06
3.46167e-05 3.23658e-05 -0.000111124 1.47181e-05 8.74495e-06 6.11296e-06
3.47974e-05 3.21754e-05 -0.000111313 1.61934e-05 8.26292e-06 5.3987e-06
3.49712e-05 3.19903e-05 -0.000111486 1.77117e-05 7.76511e-06 4.55826e-06
3.51309e-05 3.18537e-05 -0.000111598 1.92561e-05 7.33503e-06 3.61364e-06
3.52792e-05 3.16926e-05 -0.000111773 2.081e-05 6.7422e-06 2.62789e-06
3.373e-05 3.32979e-05 -0.000110168 8.24438e-06 1.15111e-05 9.29306e-06
3.3949e-05 3.31133e-05 -0.000110449 9.53716e-06 1.11506e-05 8.90794e-06
3.41517e-05 3.29524e-05 -0.000110733 1.08813e-05 1.0801e-05 8.49325e-06
3.43429e-05 3.28041e-05 -0.000111011 1.22561e-05 1.03836e-05 8.04467e-06
3.45331e-05 3.26431e-05 -0.000111271 1.3671e-05 9.90375e-06 7.55364e-06
3.47279e-05 3.24602e-05 -0.000111511 1.5146e-05 9.40688e-06 6.98189e-06
3.49224e-05 3.22701e-05 -0.000111735 1.66944e-05 8.91454e-06 6.29096e-06
3.51078e-05 3.20772e-05 -0.000111938 1.81824e-05 8.41414e-06 5.40897e-06
3.52804e-05 3.18841e-05 -0.000112058 1.97238e-05 7.93734e-06 4.56228e-06
3.37877e-05 3.33187e-05 -0.00011038 8.46001e-06 1.22289e-05 1.01028e-05
3.40146e-05 3.31991e-05 -0.000110713 9.77283e-06 1.18736e-05 9.73008e-06
3.42222e-05 3.3048e-05 -0.000111023 1.11539e-05 1.15215e-05 9.31558e-06
3.4423e-05 3.28542e-05 -0.000111334 1.25861e-05 1.11047e-05 8.88845e-06
3.46284e-05 3.26743e-05 -0.000111628 1.4063e-05 1.06262e-05 8.43058e-06
3.4842e-05 3.2531e-05 -0.000111904 1.55847e-05 1.01244e-05 7.88462e-06
3.50552e-05 3.23959e-05 -0.000112168 1.71665e-05 9.60799e-06 7.20576e-06
3.52523e-05 3.22097e-05 -0.000112405 1.88369e-05 9.03866e-06 6.31121e-06
3.7029e-05 2.97861e-05 -0.000108992 1.19139e-05 1.51876e-06 1.93658e-06
3.72076e-05 2.94389e-05 -0.000109083 1.29595e-05 1.32569e-06 1.15071e-06
3.73969e-05 2.91714e-05 -0.000109107 1.41832e-05 8.55748e-07 1.94773e-07
3.75543e-05 2.89471e-05 -0.000109175 1.53921e-05 2.64104e-07 -7.70454e-07
3.77028e-05 2.87501e-05 -0.000109197 1.65491e-05 -8.94688e-08 -1.87227e-06
3.66379e-05 3.07891e-05 -0.000108912 9.02795e-06 3.19184e-06 4.56526e-06
3.6813e-05 3.04745e-05 -0.000109122 1.01361e-05 2.82464e-06 3.97957e-06
3.69596e-05 3.01529e-05 -0.000109239 1.12018e-05 2.38191e-06 3.36121e-06
3.71077e-05 2.99448e-05 -0.000109328 1.23471e-05 1.92754e-06 2.62947e-06
3.72944e-05 2.97257e-05 -0.000109442 1.35286e-05 1.62382e-06 1.86515e-06
3.74933e-05 2.94161e-05 -0.000109515 1.47154e-05 1.1751e-06 9.27808e-07
3.76572e-05 2.91823e-05 -0.000109597 1.59772e-05 6.93876e-07 -1.09506e-07
3.78003e-05 2.89717e-05 -0.000109636 1.72865e-05 2.90087e-07 -1.1466e-06
3.64763e-05 3.12244e-05 -0.000109157 8.3248e-06 3.89419e-06 5.64675e-06
3.66834e-05 3.08953e-05 -0.000109228 9.45406e-06 3.66175e-06 5.23384e-06
3.68697e-05 3.0638e-05 -0.000109428 1.0537e-05 3.1516e-06 4.6674e-06
3.70313e-05 3.04035e-05 -0.000109567 1.17129e-05 2.72121e-06 4.06238e-06
3.71962e-05 3.01658e-05 -0.000109699 1.28894e-05 2.35168e-06 3.38097e-06
3.73867e-05 2.98863e-05 -0.000109812 1.40848e-05 1.98498e-06 2.59326e-06
3.75822e-05 2.9601e-05 -0.000109912 1.53306e-05 1.54392e-06 1.68022e-06
3.77557e-05 2.93584e-05 -0.000110011 1.66303e-05 1.08202e-06 6.60603e-07
3.79089e-05 2.91374e-05 -0.000110103 1.79812e-05 6.41453e-07 -3.63866e-07
3.63129e-05 3.13648e-05 -0.0001092 7.46686e-06 4.72459e-06 6.73659e-06
3.65137e-05 3.11926e-05 -0.000109367 8.59821e-06 4.31558e-06 6.39776e-06
3.67249e-05 3.10597e-05 -0.000109565 9.70153e-06 4.02987e-06 5.92979e-06
3.69176e-05 3.08046e-05 -0.000109732 1.0899e-05 3.63352e-06 5.40982e-06
3.70969e-05 3.05666e-05 -0.000109897 1.21204e-05 3.20838e-06 4.8162e-06
3.72787e-05 3.03241e-05 -0.000110052 1.33611e-05 2.80382e-06 4.14067e-06
3.74747e-05 3.00579e-05 -0.000110192 1.46287e-05 2.39752e-06 3.36285e-06
3.76718e-05 2.97889e-05 -0.00011032 1.59368e-05 1.95019e-06 2.46802e-06
3.78535e-05 2.95458e-05 -0.000110441 1.72863e-05 1.48794e-06 1.46433e-06
3.80195e-05 2.93187e-05 -0.000110572 1.86809e-05 1.02861e-06 4.50517e-07
3.63391e-05 3.16818e-05 -0.000109418 7.63514e-06 5.23683e-06 7.52533e-06
3.655e-05 3.14586e-05 -0.000109628 8.81316e-06 4.89243e-06 7.10679e-06
3.67651e-05 3.12101e-05 -0.000109838 1.00209e-05 4.55551e-06 6.67901e-06
3.69676e-05 3.097e-05 -0.00011004 1.12576e-05 4.15757e-06 6.17739e-06
3.71613e-05 3.07361e-05 -0.000110234 1.25263e-05 3.72528e-06 5.60044e-06
3.73571e-05 3.04949e-05 -0.000110416 1.38275e-05 3.29306e-06 4.93819e-06
3.75605e-05 3.02389e-05 -0.000110584 1.51634e-05 2.85677e-06 4.17358e-06
3.77625e-05 2.99821e-05 -0.000110741 1.6536e-05 2.39659e-06 3.29438e-06
3.79524e-05 2.97428e-05 -0.000110888 1.7942e-05 1.92398e-06 2.30427e-06
3.81316e-05 2.95155e-05 -0.000111039 1.93832e-05 1.44919e-06 1.29673e-06
3.63675e-05 3.18089e-05 -0.000109662 7.86233e-06 5.86088e-06 8.28744e-06
3.65892e-05 3.15899e-05 -0.000109873 9.08327e-06 5.48732e-06 7.87561e-06
3.68099e-05 3.13604e-05 -0.000110118 1.03325e-05 5.13399e-06 7.45799e-06
3.70201e-05 3.11368e-05 -0.000110353 1.16097e-05 4.72588e-06 6.97314e-06
3.72252e-05 3.09112e-05 -0.000110577 1.29255e-05 4.27866e-06 6.41643e-06
3.7433e-05 3.06748e-05 -0.000110788 1.42857e-05 3.82202e-06 5.7736e-06
3.76451e-05 3.04275e-05 -0.000110987 1.56892e-05 3.36191e-06 5.02581e-06
3.78546e-05 3.01813e-05 -0.000111174 1.71288e-05 2.88678e-06 4.16111e-06
3.80533e-05 2.99489e-05 -0.000111352 1.85957e-05 2.39924e-06 3.18262e-06
3.82449e-05 2.97249e-05 -0.000111508 2.00883e-05 1.90318e-06 2.17556e-06
3.64039e-05 3.19425e-05 -0.000109891 8.08184e-06 6.50926e-06 9.07954e-06
3.66355e-05 3.17248e-05 -0.000110132 9.34697e-06 6.12681e-06 8.67997e-06
3.68597e-05 3.15122e-05 -0.000110406 1.0637e-05 5.76014e-06 8.26734e-06
3.70751e-05 3.13058e-05 -0.000110672 1.19526e-05 5.33846e-06 7.79765e-06
3.72891e-05 3.10914e-05 -0.000110927 1.33133e-05 4.87175e-06 7.26463e-06
3.75078e-05 3.08613e-05 -0.000111168 1.47322e-05 4.39272e-06 6.64734e-06
3.77295e-05 3.06222e-05 -0.000111398 1.62055e-05 3.91428e-06 5.92056e-06
3.79482e-05 3.03863e-05 -0.00011162 1.77159e-05 3.42503e-06 5.07021e-06
3.81576e-05 3.01983e-05 -0.000111787 1.92542e-05 3.01696e-06 4.10784e-06
3.83606e-05 2.9981e-05 -0.000112025 2.08024e-05 2.45068e-06 3.09408e-06
3.64452e-05 3.20807e-05 -0.000110103 8.2925e-06 7.17549e-06 9.90077e-06
3.66867e-05 3.18624e-05 -0.000110402 9.60542e-06 6.79969e-06 9.51667e-06
3.69131e-05 3.16653e-05 -0.0001107 1.09353e-05 6.42839e-06 9.10516e-06
3.71314e-05 3.14778e-05 -0.000110997 1.22841e-05 5.99418e-06 8.64923e-06
3.73527e-05 3.12761e-05 -0.000111282 1.36852e-05 5.50535e-06 8.14414e-06
3.75821e-05 3.10524e-05 -0.000111554 1.51628e-05 5.00644e-06 7.55941e-06
3.78139e-05 3.08213e-05 -0.000111818 1.67105e-05 4.51659e-06 6.85899e-06
3.80401e-05 3.0583e-05 -0.000112065 1.81911e-05 4.02462e-06 5.9666e-06
3.8259e-05 3.03405e-05 -0.000112239 1.97305e-05 3.5655e-06 5.09642e-06
3.64827e-05 3.21606e-05 -0.00011032 8.51627e-06 7.86082e-06 1.07364e-05
3.67289e-05 3.20154e-05 -0.000110672 9.83865e-06 7.48678e-06 1.03661e-05
3.69563e-05 3.18393e-05 -0.000110995 1.12128e-05 7.11271e-06 9.96495e-06
3.71811e-05 3.1618e-05 -0.000111321 1.2626e-05 6.67915e-06 9.53577e-06
3.74145e-05 3.14043e-05 -0.000111639 1.40912e-05 6.18961e-06 9.06601e-06
3.76589e-05 3.1221e-05 -0.000111946 1.56145e-05 5.68328e-06 8.5103e-06
3.79046e-05 3.10461e-05 -0.000112249 1.71911e-05 5.16747e-06 7.82658e-06
3.81381e-05 3.08268e-05 -0.000112526 1.88527e-05 4.60052e-06 6.92198e-06
3.79435e-05 2.77746e-05 -0.000109043 1.21163e-05 -2.36027e-06 2.23542e-06
3.81844e-05 2.73462e-05 -0.000109189 1.31666e-05 -2.54343e-06 1.40642e-06
3.84408e-05 2.69865e-05 -0.000109273 1.44041e-05 -2.98824e-06 4.44981e-07
3.86707e-05 2.66707e-05 -0.00010941 1.55997e-05 -3.5588e-06 -4.9567e-07
3.88983e-05 2.63922e-05 -0.000109514 1.67416e-05 -3.88101e-06 -1.63091e-06
3.73651e-05 2.90821e-05 -0.000108853 9.23995e-06 -7.75501e-07 4.88852e-06
3.75855e-05 2.86931e-05 -0.000109096 1.03539e-05 -1.14539e-06 4.33488e-06
3.77824e-05 2.82979e-05 -0.000109244 1.1417e-05 -1.59302e-06 3.73599e-06
3.79852e-05 2.80126e-05 -0.000109376 1.25566e-05 -2.04544e-06 2.97686e-06
3.82311e-05 2.77146e-05 -0.000109544 1.37415e-05 -2.33925e-06 2.17192e-06
3.84939e-05 2.73242e-05 -0.000109675 1.49335e-05 -2.76391e-06 1.23813e-06
3.87265e-05 2.70046e-05 -0.000109821 1.61884e-05 -3.22102e-06 2.32643e-07
3.89456e-05 2.671e-05 -0.000109939 1.74905e-05 -3.5934e-06 -8.33404e-07
3.71316e-05 2.96543e-05 -0.000109081 8.53892e-06 -1.32777e-07 6.06632e-06
3.73803e-05 2.92559e-05 -0.000109172 9.66955e-06 -3.73542e-07 5.63916e-06
3.76102e-05 2.89254e-05 -0.000109401 1.07553e-05 -8.97635e-07 5.08655e-06
3.78189e-05 2.86176e-05 -0.000109571 1.19313e-05 -1.33506e-06 4.49249e-06
3.80351e-05 2.83086e-05 -0.000109744 1.31051e-05 -1.70663e-06 3.78968e-06
3.82817e-05 2.79575e-05 -0.000109907 1.43015e-05 -2.06415e-06 2.96863e-06
3.85379e-05 2.75971e-05 -0.000110064 1.55496e-05 -2.48616e-06 2.04888e-06
3.87772e-05 2.72758e-05 -0.000110228 1.68457e-05 -2.92431e-06 1.04116e-06
3.90024e-05 2.69756e-05 -0.000110393 1.81911e-05 -3.33178e-06 -3.99351e-10
3.69002e-05 2.99177e-05 -0.000109109 7.68448e-06 6.33766e-07 7.29819e-06
3.71388e-05 2.96828e-05 -0.00010929 8.81501e-06 2.09591e-07 6.91294e-06
3.73892e-05 2.94849e-05 -0.000109513 9.91938e-06 -9.18972e-08 6.42439e-06
3.76235e-05 2.91635e-05 -0.000109705 1.112e-05 -4.96163e-07 5.90579e-06
3.78473e-05 2.88587e-05 -0.0001099 1.23422e-05 -9.27139e-07 5.30818e-06
3.80774e-05 2.85498e-05 -0.000110095 1.35818e-05 -1.33257e-06 4.61166e-06
3.8326e-05 2.82166e-05 -0.000110282 1.48499e-05 -1.73134e-06 3.80721e-06
3.85804e-05 2.78779e-05 -0.000110465 1.61588e-05 -2.16271e-06 2.89997e-06
3.88247e-05 2.75623e-05 -0.00011065 1.75059e-05 -2.60246e-06 1.89475e-06
3.90591e-05 2.72614e-05 -0.00011085 1.88965e-05 -3.02889e-06 8.66206e-07
3.69008e-05 3.02874e-05 -0.000109327 7.85305e-06 1.07202e-06 8.15543e-06
3.71448e-05 3.00088e-05 -0.000109555 9.03133e-06 7.12228e-07 7.71793e-06
3.7396e-05 2.9703e-05 -0.000109786 1.02422e-05 3.62943e-07 7.27031e-06
3.76372e-05 2.94034e-05 -0.000110012 1.14821e-05 -4.41195e-08 6.75566e-06
3.78725e-05 2.9109e-05 -0.000110235 1.27518e-05 -4.82038e-07 6.1635e-06
3.81134e-05 2.88071e-05 -0.000110455 1.40526e-05 -9.14863e-07 5.47865e-06
3.83659e-05 2.84894e-05 -0.000110669 1.53886e-05 -1.3449e-06 4.69032e-06
3.86217e-05 2.81688e-05 -0.000110878 1.67614e-05 -1.7914e-06 3.79587e-06
3.88707e-05 2.78632e-05 -0.000111087 1.81657e-05 -2.24304e-06 2.79584e-06
3.9115e-05 2.75675e-05 -0.000111306 1.96044e-05 -2.68604e-06 1.76669e-06
3.69033e-05 3.04717e-05 -0.000109574 8.08554e-06 1.63702e-06 8.98774e-06
3.71536e-05 3.02041e-05 -0.000109802 9.30597e-06 1.24672e-06 8.57525e-06
3.74067e-05 2.99239e-05 -0.000110066 1.05577e-05 8.7911e-07 8.1382e-06
3.76522e-05 2.96475e-05 -0.000110324 1.18378e-05 4.60509e-07 7.63439e-06
3.78957e-05 2.93679e-05 -0.000110577 1.31547e-05 7.37528e-09 7.05594e-06
3.81451e-05 2.9077e-05 -0.000110824 1.45148e-05 -4.5e-07 6.38918e-06
3.84025e-05 2.87743e-05 -0.000111066 1.59181e-05 -9.05002e-07 5.61997e-06
3.86619e-05 2.84704e-05 -0.000111304 1.73576e-05 -1.36849e-06 4.74008e-06
3.89161e-05 2.81779e-05 -0.000111542 1.88235e-05 -1.83678e-06 3.74772e-06
3.91697e-05 2.78912e-05 -0.000111764 2.03143e-05 -2.30254e-06 2.70645e-06
3.69132e-05 3.06646e-05 -0.000109807 8.30893e-06 2.23462e-06 9.84014e-06
3.71693e-05 3.04054e-05 -0.000110063 9.57341e-06 1.83451e-06 9.4486e-06
3.74216e-05 3.01493e-05 -0.000110355 1.08658e-05 1.45145e-06 9.02721e-06
3.76686e-05 2.98968e-05 -0.000110643 1.21842e-05 1.01772e-06 8.53995e-06
3.79175e-05 2.9635e-05 -0.000110925 1.35462e-05 5.44637e-07 7.98316e-06
3.81739e-05 2.93572e-05 -0.000111201 1.49648e-05 6.47113e-08 7.34264e-06
3.84367e-05 2.90695e-05 -0.000111472 1.64376e-05 -4.09696e-07 6.59806e-06
3.8701e-05 2.87827e-05 -0.000111742 1.7948e-05 -8.89389e-07 5.73553e-06
3.89624e-05 2.85434e-05 -0.000111967 1.94852e-05 -1.27864e-06 4.7474e-06
3.92243e-05 2.82695e-05 -0.000112272 2.10319e-05 -1.81954e-06 3.68731e-06
3.69273e-05 3.08641e-05 -0.000110023 8.52184e-06 2.85913e-06 1.07161e-05
3.71896e-05 3.06123e-05 -0.000110336 9.83448e-06 2.46492e-06 1.03399e-05
3.74394e-05 3.03791e-05 -0.000110651 1.11668e-05 2.07451e-06 9.9363e-06
3.76853e-05 3.01521e-05 -0.000110968 1.2519e-05 1.62637e-06 9.46968e-06
3.79375e-05 2.99096e-05 -0.000111279 1.39215e-05 1.13079e-06 8.94259e-06
3.82004e-05 2.96452e-05 -0.000111583 1.53981e-05 6.31108e-07 8.3388e-06
3.84688e-05 2.93732e-05 -0.000111886 1.6945e-05 1.44412e-07 7.62703e-06
3.87366e-05 2.90902e-05 -0.000112178 1.84256e-05 -3.39105e-07 6.72199e-06
3.90041e-05 2.87993e-05 -0.000112411 1.99624e-05 -7.80827e-07 5.8138e-06
3.6936e-05 3.10047e-05 -0.000110245 8.74596e-06 3.51041e-06 1.1601e-05
3.71991e-05 3.08321e-05 -0.000110611 1.00669e-05 3.11734e-06 1.12407e-05
3.74457e-05 3.06322e-05 -0.000110948 1.14412e-05 2.72383e-06 1.08666e-05
3.76942e-05 3.03847e-05 -0.000111292 1.28596e-05 2.27617e-06 1.04385e-05
3.79542e-05 3.01374e-05 -0.000111634 1.43287e-05 1.77836e-06 9.95218e-06
3.82271e-05 2.99133e-05 -0.000111972 1.58531e-05 1.26898e-06 9.38393e-06
3.85043e-05 2.96974e-05 -0.000112312 1.74311e-05 7.5466e-07 8.69755e-06
3.87754e-05 2.94441e-05 -0.00011263 1.90941e-05 1.9351e-07 7.78249e-06
0 0 0 0 0 0
0 0 0 0 0 0
0 0 0 0 0 0
0 0 0 0 0 0
0 0 0 0 0 0
0 0 0 0 0 0
0 0 0 0 0 0
0 0 0 0 0 0
0 0 0 0 0 0
0 0 0 0 0 0
0 0 0 0 0 0
0 0 0 0 0 0
0 0 0 0 0 0
0 0 0 0 0 0
0 0 0 0 0 0
0 0 0 0 0 0
0 0 0 0 0 0
0 0 0 0 0 0
0 0 0 0 0 0
0 0 0 0 0 0
0 0 0 0 0 0
0 0 0 0 0 0
0 0 0 0 0 0
0 0 0 0 0 0
0 0 0 0 0 0
0 0 0 0 0 0
0 0 0 0 0 0
0 0 0 0 0 0
0 0 0 0 0 0
0 0 0 0 0 0
0 0 0 0 0 0
0 0 0 0 0 0
0 0 0 0 0 0
0 0 0 0 0 0
0 0 0 0 0 0
0 0 0 0 0 0
0 0 0 0 0 0
0 0 0 0 0 0
0 0 0 0 0 0
0 0 0 0 0 0
0 0 0 0 0 0
0 0 0 0 0 0
0 0 0 0 0 0
0 0 0 0 0 0
0 0 0 0 0 0
0 0 0 0 0 0
0 0 0 0 0 0
0 0 0 0 0 0
0 0 0 0 0 0
0 0 0 0 0 0
0 0 0 0 0 0
0 0 0 0 0 0
0 0 0 0 0 0
0 0 0 0 0 0
0 0 0 0 0 0
0 0 0 0 0 0
0 0 0 0 0 0
0 0 0 0 0 0
0 0 0 0 0 0
0 0 0 0 0 0
0 0 0 0 0 0
0 0 0 0 0 0
0 0 0 0 0 0
0 0 0 0 0 0
0 0 0 0 0 0
0 0 0 0 0 0
0 0 0 0 0 0
0 0 0 0 0 0
0 0 0 0 0 0
0 0 0 0 0 0
0 0 0 0 0 0
0 0 0 0 0 0
0 0 0 0 0 0
0 0 0 0 0 0
0 0 0 0 0 0
0 0 0 0 0 0
0 0 0 0 0 0
0 0 0 0 0 0
0 0 0 0 0 0
3.67944e-05 2.57631e-05 -0.000109109 1.16739e-05 -6.25768e-06 2.30243e-06
3.70977e-05 2.52568e-05 -0.000109307 1.26734e-05 -6.44264e-06 1.46914e-06
3.74183e-05 2.48059e-05 -0.000109443 1.38085e-05 -6.86007e-06 5.17092e-07
3.77268e-05 2.43989e-05 -0.000109648 1.50019e-05 -7.39413e-06 -3.89036e-07
3.80396e-05 2.40374e-05 -0.000109845 1.61551e-05 -7.68982e-06 -1.51302e-06
3.59978e-05 2.73759e-05 -0.000108803 8.82052e-06 -4.75728e-06 4.91687e-06
3.62677e-05 2.69139e-05 -0.000109076 9.88158e-06 -5.13712e-06 4.38755e-06
3.6524e-05 2.64469e-05 -0.00010926 1.09304e-05 -5.5861e-06 3.81326e-06
3.67907e-05 2.60809e-05 -0.00010944 1.2093e-05 -6.03401e-06 3.0603e-06
3.70961e-05 2.57023e-05 -0.000109658 1.3229e-05 -6.32593e-06 2.25162e-06
3.74192e-05 2.52337e-05 -0.000109839 1.43306e-05 -6.73004e-06 1.33194e-06
3.77263e-05 2.48269e-05 -0.000110051 1.55738e-05 -7.16303e-06 3.64033e-07
3.80281e-05 2.44472e-05 -0.000110255 1.68728e-05 -7.50414e-06 -6.90391e-07
3.56863e-05 2.8087e-05 -0.000109023 8.16585e-06 -4.16854e-06 6.13068e-06
3.59783e-05 2.762e-05 -0.000109128 9.24485e-06 -4.42418e-06 5.7024e-06
3.6254e-05 2.72149e-05 -0.000109384 1.02731e-05 -4.96511e-06 5.16463e-06
3.65169e-05 2.6832e-05 -0.000109588 1.14341e-05 -5.4106e-06 4.59001e-06
3.67906e-05 2.645e-05 -0.000109806 1.26015e-05 -5.78589e-06 3.89431e-06
3.70939e-05 2.60283e-05 -0.000110016 1.37432e-05 -6.13759e-06 3.07261e-06
3.741e-05 2.55941e-05 -0.000110225 1.49226e-05 -6.54342e-06 2.16464e-06
3.77183e-05 2.51934e-05 -0.000110453 1.61904e-05 -6.95942e-06 1.18274e-06
3.80214e-05 2.48134e-05 -0.000110695 1.75216e-05 -7.33379e-06 1.55506e-07
3.53829e-05 2.8475e-05 -0.000109042 7.36728e-06 -3.46936e-06 7.41461e-06
3.56579e-05 2.81768e-05 -0.000109234 8.45503e-06 -3.9052e-06 7.01638e-06
3.59489e-05 2.79118e-05 -0.000109477 9.49514e-06 -4.22637e-06 6.52402e-06
3.62267e-05 2.75241e-05 -0.000109692 1.06328e-05 -4.64336e-06 6.01577e-06
3.64995e-05 2.71514e-05 -0.000109919 1.18213e-05 -5.08252e-06 5.42913e-06
3.67819e-05 2.6775e-05 -0.000110154 1.30345e-05 -5.49095e-06 4.73793e-06
3.70842e-05 2.63751e-05 -0.000110387 1.4252e-05 -5.88512e-06 3.93592e-06
3.7396e-05 2.59676e-05 -0.000110622 1.55024e-05 -6.30321e-06 3.03859e-06
3.77049e-05 2.55791e-05 -0.000110869 1.68115e-05 -6.72262e-06 2.05203e-06
3.80116e-05 2.52037e-05 -0.000111141 1.81778e-05 -7.11749e-06 1.03782e-06
3.53534e-05 2.88928e-05 -0.000109259 7.53913e-06 -3.10054e-06 8.29915e-06
3.56298e-05 2.85594e-05 -0.000109504 8.67311e-06 -3.47738e-06 7.86061e-06
3.59171e-05 2.81969e-05 -0.000109753 9.81005e-06 -3.84351e-06 7.4113e-06
3.61979e-05 2.78379e-05 -0.000110003 1.09842e-05 -4.26366e-06 6.89953e-06
3.64772e-05 2.74825e-05 -0.000110256 1.22081e-05 -4.70986e-06 6.312e-06
3.67652e-05 2.71193e-05 -0.000110513 1.34702e-05 -5.14558e-06 5.63031e-06
3.70675e-05 2.67402e-05 -0.00011077 1.4756e-05 -5.57198e-06 4.8454e-06
3.73774e-05 2.63561e-05 -0.000111031 1.60737e-05 -6.00728e-06 3.95967e-06
3.76869e-05 2.59837e-05 -0.000111301 1.74326e-05 -6.44044e-06 2.97366e-06
3.79983e-05 2.56191e-05 -0.000111588 1.88366e-05 -6.85467e-06 1.95519e-06
3.53228e-05 2.91338e-05 -0.000109507 7.75131e-06 -2.5978e-06 9.16086e-06
3.5602e-05 2.88183e-05 -0.000109754 8.93244e-06 -3.00674e-06 8.75509e-06
3.58871e-05 2.84881e-05 -0.000110036 1.01135e-05 -3.39152e-06 8.31605e-06
3.61682e-05 2.8159e-05 -0.000110318 1.13259e-05 -3.82372e-06 7.81202e-06
3.64508e-05 2.78252e-05 -0.000110599 1.25889e-05 -4.28523e-06 7.23424e-06
3.67424e-05 2.74797e-05 -0.000110881 1.39028e-05 -4.74547e-06 6.56907e-06
3.70452e-05 2.71215e-05 -0.000111164 1.52544e-05 -5.19771e-06 5.80377e-06
3.73547e-05 2.67602e-05 -0.000111452 1.66384e-05 -5.65181e-06 4.93223e-06
3.76651e-05 2.64071e-05 -0.000111748 1.80527e-05 -6.10318e-06 3.95166e-06
3.79815e-05 2.60574e-05 -0.00011204 1.94991e-05 -6.54257e-06 2.91506e-06
3.52975e-05 2.93864e-05 -0.000109744 7.95517e-06 -2.05254e-06 1.00376e-05
3.55786e-05 2.90862e-05 -0.000110017 9.18392e-06 -2.47394e-06 9.65627e-06
3.58592e-05 2.8787e-05 -0.000110328 1.0408e-05 -2.87485e-06 9.23732e-06
3.61377e-05 2.84885e-05 -0.000110639 1.16563e-05 -3.32317e-06 8.74995e-06
3.6421e-05 2.81792e-05 -0.000110948 1.29593e-05 -3.80465e-06 8.19223e-06
3.67146e-05 2.78537e-05 -0.000111256 1.43278e-05 -4.28718e-06 7.55295e-06
3.7018e-05 2.75175e-05 -0.000111567 1.57462e-05 -4.75967e-06 6.81335e-06
3.73277e-05 2.71797e-05 -0.000111884 1.71975e-05 -5.23189e-06 5.95986e-06
3.7641e-05 2.68892e-05 -0.000112168 1.86813e-05 -5.60821e-06 4.97695e-06
3.79618e-05 2.65585e-05 -0.000112539 2.01764e-05 -6.1276e-06 3.91558e-06
3.52752e-05 2.96478e-05 -0.000109968 8.15498e-06 -1.4714e-06 1.09356e-05
3.55583e-05 2.93626e-05 -0.000110294 9.43064e-06 -1.888e-06 1.05682e-05
3.58324e-05 2.90935e-05 -0.000110628 1.06952e-05 -2.29881e-06 1.01744e-05
3.61061e-05 2.8827e-05 -0.000110966 1.1974e-05 -2.76304e-06 9.71007e-06
3.63881e-05 2.85437e-05 -0.000111302 1.33149e-05 -3.26684e-06 9.1823e-06
3.66825e-05 2.82392e-05 -0.000111636 1.4741e-05 -3.76816e-06 8.58134e-06
3.69862e-05 2.79262e-05 -0.000111978 1.62298e-05 -4.25369e-06 7.87698e-06
3.72954e-05 2.75992e-05 -0.000112315 1.76488e-05 -4.73167e-06 6.97948e-06
3.76108e-05 2.72609e-05 -0.00011261 1.91339e-05 -5.15885e-06 6.0693e-06
3.52462e-05 2.98511e-05 -0.000110198 8.3749e-06 -8.55739e-07 1.18396e-05
3.55249e-05 2.96497e-05 -0.000110572 9.64442e-06 -1.27041e-06 1.14871e-05
3.5792e-05 2.94263e-05 -0.000110926 1.09538e-05 -1.68366e-06 1.11315e-05
3.60638e-05 2.91536e-05 -0.000111291 1.2302e-05 -2.14696e-06 1.07113e-05
3.63481e-05 2.88726e-05 -0.000111656 1.37105e-05 -2.65364e-06 1.02268e-05
3.66465e-05 2.86077e-05 -0.000112023 1.51849e-05 -3.16706e-06 9.66406e-06
3.69537e-05 2.83503e-05 -0.000112401 1.67007e-05 -3.68277e-06 8.98821e-06
3.72628e-05 2.80619e-05 -0.000112761 1.82962e-05 -4.23846e-06 8.07957e-06
3.88595e-05 2.37422e-05 -0.000109153 1.14174e-05 -1.01484e-05 2.87858e-06
3.92127e-05 2.31632e-05 -0.000109394 1.24185e-05 -1.03507e-05 2.12107e-06
3.95889e-05 2.26218e-05 -0.000109584 1.34779e-05 -1.07386e-05 1.223e-06
3.99796e-05 2.21209e-05 -0.000109863 1.46259e-05 -1.12208e-05 3.05072e-07
4.03734e-05 2.16704e-05 -0.000110147 1.57779e-05 -1.14993e-05 -8.05223e-07
3.78558e-05 2.56615e-05 -0.000108734 8.60668e-06 -8.744e-06 5.44301e-06
3.81739e-05 2.51289e-05 -0.000109038 9.5964e-06 -9.13488e-06 4.91616e-06
3.84932e-05 2.45922e-05 -0.000109259 1.06052e-05 -9.578e-06 4.34073e-06
3.88243e-05 2.41374e-05 -0.000109485 1.17883e-05 -1.00191e-05 3.61013e-06
3.91798e-05 2.36723e-05 -0.000109746 1.29205e-05 -1.03224e-05 2.86889e-06
3.95556e-05 2.31301e-05 -0.000109977 1.39525e-05 -1.07052e-05 1.99406e-06
3.99398e-05 2.26345e-05 -0.00011026 1.51428e-05 -1.11051e-05 1.01703e-06
4.03231e-05 2.21668e-05 -0.000110549 1.64258e-05 -1.14194e-05 -2.08724e-08
3.7488e-05 2.65131e-05 -0.000108951 7.95196e-06 -8.21059e-06 6.59229e-06
3.78161e-05 2.59782e-05 -0.000109069 8.98251e-06 -8.48608e-06 6.18135e-06
3.81363e-05 2.54973e-05 -0.000109352 9.94652e-06 -9.04161e-06 5.6588e-06
3.8457e-05 2.50364e-05 -0.000109591 1.10705e-05 -9.48884e-06 5.08617e-06
3.87898e-05 2.45764e-05 -0.00010985 1.22307e-05 -9.86912e-06 4.41457e-06
3.91442e-05 2.40834e-05 -0.000110104 1.33474e-05 -1.02205e-05 3.64606e-06
3.95149e-05 2.35773e-05 -0.000110364 1.44712e-05 -1.06099e-05 2.77634e-06
3.98928e-05 2.30961e-05 -0.000110658 1.56913e-05 -1.09992e-05 1.80473e-06
4.02732e-05 2.26341e-05 -0.000110976 1.69976e-05 -1.13415e-05 7.95831e-07
3.71302e-05 2.70318e-05 -0.000108969 7.13215e-06 -7.584e-06 7.77395e-06
3.74396e-05 2.66667e-05 -0.000109169 8.195e-06 -8.0323e-06 7.41311e-06
3.77659e-05 2.63303e-05 -0.000109429 9.17996e-06 -8.37388e-06 6.94627e-06
3.80866e-05 2.58763e-05 -0.000109668 1.02562e-05 -8.80149e-06 6.4624e-06
3.84102e-05 2.54336e-05 -0.000109927 1.14038e-05 -9.24513e-06 5.89204e-06
3.87458e-05 2.49867e-05 -0.0001102 1.25931e-05 -9.65702e-06 5.22807e-06
3.90989e-05 2.45192e-05 -0.000110475 1.37774e-05 -1.00496e-05 4.46769e-06
3.94653e-05 2.40431e-05 -0.00011076 1.49777e-05 -1.04544e-05 3.60499e-06
3.9839e-05 2.35807e-05 -0.000111071 1.62407e-05 -1.08511e-05 2.63936e-06
4.02181e-05 2.31288e-05 -0.000111413 1.75757e-05 -1.12139e-05 1.64741e-06
3.70819e-05 2.7489e-05 -0.000109188 7.26448e-06 -7.28192e-06 8.60966e-06
3.73909e-05 2.71006e-05 -0.000109448 8.36074e-06 -7.68164e-06 8.19771e-06
3.77122e-05 2.66818e-05 -0.000109714 9.43769e-06 -8.06508e-06 7.78218e-06
3.80326e-05 2.62633e-05 -0.000109985 1.05537e-05 -8.49654e-06 7.30019e-06
3.83575e-05 2.58453e-05 -0.000110268 1.17331e-05 -8.94861e-06 6.73736e-06
3.86938e-05 2.54188e-05 -0.000110561 1.2961e-05 -9.38733e-06 6.08451e-06
3.9045e-05 2.49771e-05 -0.000110859 1.42071e-05 -9.81182e-06 5.33496e-06
3.9408e-05 2.45291e-05 -0.000111168 1.54756e-05 -1.0236e-05 4.48167e-06
3.97786e-05 2.40887e-05 -0.000111498 1.67872e-05 -1.06494e-05 3.52266e-06
4.01577e-05 2.36534e-05 -0.000111854 1.81556e-05 -1.10336e-05 2.53389e-06
3.70294e-05 2.77868e-05 -0.000109442 7.42511e-06 -6.84359e-06 9.4417e-06
3.73398e-05 2.74234e-05 -0.000109705 8.56316e-06 -7.27718e-06 9.04839e-06
3.76571e-05 2.70431e-05 -0.000110004 9.68433e-06 -7.6795e-06 8.64007e-06
3.7975e-05 2.66609e-05 -0.000110307 1.08389e-05 -8.12393e-06 8.16757e-06
3.82989e-05 2.62718e-05 -0.000110616 1.20542e-05 -8.59199e-06 7.61895e-06
3.86344e-05 2.58701e-05 -0.000110931 1.33269e-05 -9.05517e-06 6.98276e-06
3.89835e-05 2.54554e-05 -0.000111253 1.46332e-05 -9.50594e-06 6.24878e-06
3.93438e-05 2.50355e-05 -0.000111588 1.59655e-05 -9.95082e-06 5.4081e-06
3.9712e-05 2.46205e-05 -0.000111942 1.73291e-05 -1.03847e-05 4.45749e-06
4.0092e-05 2.42064e-05 -0.000112302 1.87374e-05 -1.07957e-05 3.459e-06
3.69793e-05 2.81003e-05 -0.000109687 7.58087e-06 -6.35342e-06 1.02888e-05
3.72898e-05 2.77582e-05 -0.000109976 8.76139e-06 -6.80169e-06 9.91012e-06
3.76011e-05 2.74156e-05 -0.000110303 9.92272e-06 -7.22122e-06 9.5162e-06
3.79141e-05 2.70704e-05 -0.000110635 1.11113e-05 -7.68283e-06 9.06059e-06
3.82351e-05 2.67128e-05 -0.000110969 1.23638e-05 -8.17105e-06 8.53388e-06
3.85684e-05 2.63386e-05 -0.000111308 1.36858e-05 -8.65655e-06 7.92196e-06
3.89149e-05 2.59524e-05 -0.000111657 1.50526e-05 -9.12859e-06 7.21001e-06
3.92728e-05 2.55621e-05 -0.00011202 1.64475e-05 -9.59343e-06 6.38617e-06
3.96404e-05 2.5221e-05 -0.000112362 1.78828e-05 -9.95576e-06 5.43662e-06
4.00212e-05 2.48322e-05 -0.000112796 1.93377e-05 -1.04535e-05 4.41864e-06
3.69311e-05 2.84247e-05 -0.000109921 7.73557e-06 -5.81871e-06 1.11525e-05
3.72405e-05 2.8105e-05 -0.000110258 8.95829e-06 -6.2631e-06 1.07835e-05
3.75435e-05 2.7799e-05 -0.000110609 1.01545e-05 -6.69517e-06 1.04082e-05
3.78495e-05 2.74921e-05 -0.000110968 1.13705e-05 -7.17403e-06 9.97561e-06
3.81656e-05 2.71677e-05 -0.000111327 1.26589e-05 -7.68421e-06 9.47928e-06
3.84956e-05 2.68223e-05 -0.000111691 1.40342e-05 -8.18825e-06 8.90143e-06
3.88392e-05 2.64665e-05 -0.000112068 1.54633e-05 -8.675e-06 8.22021e-06
3.91948e-05 2.60951e-05 -0.00011245 1.68226e-05 -9.14674e-06 7.35034e-06
3.95618e-05 2.57099e-05 -0.000112804 1.82635e-05 -9.55778e-06 6.47523e-06
3.68761e-05 2.86942e-05 -0.000110161 7.91603e-06 -5.24308e-06 1.20156e-05
3.71769e-05 2.84605e-05 -0.000110543 9.12334e-06 -5.68138e-06 1.16666e-05
3.74718e-05 2.82134e-05 -0.000110914 1.03584e-05 -6.11599e-06 1.13221e-05
3.77738e-05 2.7915e-05 -0.000111298 1.16404e-05 -6.59523e-06 1.09272e-05
3.80883e-05 2.75994e-05 -0.000111686 1.29943e-05 -7.10945e-06 1.04702e-05
3.84175e-05 2.72928e-05 -0.000112081 1.4415e-05 -7.62773e-06 9.92687e-06
3.87604e-05 2.69925e-05 -0.000112493 1.58651e-05 -8.14735e-06 9.27255e-06
3.9114e-05 2.66661e-05 -0.000112896 1.73958e-05 -8.69466e-06 8.39182e-06
3.95928e-05 2.17187e-05 -0.000109179 1.15771e-05 -1.40254e-05 3.57556e-06
3.99936e-05 2.10687e-05 -0.000109462 1.25865e-05 -1.42444e-05 2.9218e-06
4.04261e-05 2.04366e-05 -0.000109713 1.36838e-05 -1.46066e-05 2.07662e-06
4.08847e-05 1.98391e-05 -0.000110065 1.47469e-05 -1.50483e-05 1.19736e-06
4.13448e-05 1.92976e-05 -0.000110422 1.57865e-05 -1.53076e-05 1.77079e-07
3.84181e-05 2.3945e-05 -0.000108661 8.90371e-06 -1.2722e-05 5.98779e-06
3.87792e-05 2.33438e-05 -0.000108997 9.89234e-06 -1.31172e-05 5.44972e-06
3.91462e-05 2.27368e-05 -0.000109253 1.0858e-05 -1.3557e-05 4.89115e-06
3.95245e-05 2.21901e-05 -0.000109515 1.19711e-05 -1.39922e-05 4.23782e-06
3.99256e-05 2.1634e-05 -0.000109816 1.31004e-05 -1.43085e-05 3.59447e-06
4.03544e-05 2.10165e-05 -0.000110106 1.41495e-05 -1.46714e-05 2.77007e-06
4.08024e-05 2.04353e-05 -0.000110457 1.52649e-05 -1.50375e-05 1.82447e-06
4.12506e-05 1.98806e-05 -0.000110818 1.64513e-05 -1.53253e-05 8.71636e-07
3.79979e-05 2.49332e-05 -0.000108876 8.25681e-06 -1.22473e-05 7.01892e-06
3.83569e-05 2.43295e-05 -0.000109006 9.27867e-06 -1.2539e-05 6.63428e-06
3.87165e-05 2.37734e-05 -0.000109318 1.02447e-05 -1.31044e-05 6.11751e-06
3.90803e-05 2.32359e-05 -0.00010959 1.13281e-05 -1.35509e-05 5.56644e-06
3.94571e-05 2.26978e-05 -0.000109883 1.24335e-05 -1.39361e-05 4.96299e-06
3.98553e-05 2.21312e-05 -0.000110179 1.35351e-05 -1.42894e-05 4.27983e-06
4.02754e-05 2.15523e-05 -0.000110493 1.46503e-05 -1.46632e-05 3.46845e-06
4.07117e-05 2.09919e-05 -0.000110851 1.58135e-05 -1.50254e-05 2.54568e-06
4.11537e-05 2.04486e-05 -0.000111238 1.70414e-05 -1.53367e-05 1.6121e-06
3.75972e-05 2.55816e-05 -0.00010889 7.43849e-06 -1.16881e-05 8.03047e-06
3.7934e-05 2.51489e-05 -0.000109102 8.48082e-06 -1.21538e-05 7.73572e-06
3.8288e-05 2.47426e-05 -0.000109379 9.46335e-06 -1.25103e-05 7.29968e-06
3.86431e-05 2.42226e-05 -0.000109642 1.05434e-05 -1.2944e-05 6.83816e-06
3.90046e-05 2.37106e-05 -0.000109931 1.16637e-05 -1.33896e-05 6.30204e-06
3.93799e-05 2.3193e-05 -0.000110237 1.2813e-05 -1.38048e-05 5.70007e-06
3.97742e-05 2.26566e-05 -0.000110553 1.39734e-05 -1.41968e-05 5.01274e-06
4.01869e-05 2.21113e-05 -0.00011089 1.51518e-05 -1.45888e-05 4.21121e-06
4.06141e-05 2.15755e-05 -0.000111261 1.6367e-05 -1.49624e-05 3.30409e-06
4.10513e-05 2.10477e-05 -0.000111669 1.76362e-05 -1.52938e-05 2.38498e-06
3.75352e-05 2.60821e-05 -0.000109119 7.55713e-06 -1.1451e-05 8.78333e-06
3.78689e-05 2.56372e-05 -0.000109391 8.63678e-06 -1.18747e-05 8.41518e-06
3.82155e-05 2.51613e-05 -0.000109674 9.72185e-06 -1.22719e-05 8.03539e-06
3.85655e-05 2.46832e-05 -0.000109968 1.08389e-05 -1.27112e-05 7.58703e-06
3.89233e-05 2.42029e-05 -0.000110278 1.19975e-05 -1.31671e-05 7.06707e-06
3.9295e-05 2.37127e-05 -0.000110603 1.31926e-05 -1.36085e-05 6.4733e-06
3.96841e-05 2.32076e-05 -0.00011094 1.44107e-05 -1.40316e-05 5.78979e-06
4.00899e-05 2.26951e-05 -0.000111298 1.56509e-05 -1.44449e-05 4.99808e-06
4.05097e-05 2.21868e-05 -0.000111686 1.69206e-05 -1.4838e-05 4.10223e-06
4.09427e-05 2.16816e-05 -0.000112107 1.82345e-05 -1.51915e-05 3.18929e-06
3.74698e-05 2.64372e-05 -0.000109384 7.74236e-06 -1.10732e-05 9.53097e-06
3.78014e-05 2.60242e-05 -0.000109659 8.85399e-06 -1.15319e-05 9.1659e-06
3.81406e-05 2.55932e-05 -0.000109974 9.97579e-06 -1.19492e-05 8.79506e-06
3.8484e-05 2.51576e-05 -0.000110298 1.11277e-05 -1.2403e-05 8.36208e-06
3.88364e-05 2.4713e-05 -0.000110632 1.23248e-05 -1.28759e-05 7.86152e-06
3.92028e-05 2.42547e-05 -0.000110978 1.35672e-05 -1.33419e-05 7.28262e-06
3.9586e-05 2.37826e-05 -0.000111338 1.48431e-05 -1.37915e-05 6.60969e-06
3.99854e-05 2.33036e-05 -0.000111719 1.61444e-05 -1.4227e-05 5.82933e-06
4.03989e-05 2.28266e-05 -0.000112129 1.74704e-05 -1.46429e-05 4.94209e-06
4.08281e-05 2.23485e-05 -0.000112552 1.88331e-05 -1.50238e-05 4.02585e-06
3.74058e-05 2.68109e-05 -0.00010964 7.91902e-06 -1.06357e-05 1.02982e-05
3.77343e-05 2.64264e-05 -0.00010994 9.06707e-06 -1.11096e-05 9.93645e-06
3.80642e-05 2.60393e-05 -0.000110283 1.02225e-05 -1.15461e-05 9.57522e-06
3.8399e-05 2.5647e-05 -0.000110634 1.14063e-05 -1.20182e-05 9.1611e-06
3.87439e-05 2.52409e-05 -0.000110993 1.26406e-05 -1.2512e-05 8.68506e-06
3.91038e-05 2.48173e-05 -0.000111361 1.39315e-05 -1.30007e-05 8.12811e-06
3.94805e-05 2.43803e-05 -0.000111746 1.52664e-05 -1.34725e-05 7.47201e-06
3.98737e-05 2.39369e-05 -0.000112153 1.663e-05 -1.39295e-05 6.7059e-06
4.02816e-05 2.35452e-05 -0.000112549 1.80261e-05 -1.42749e-05 5.82708e-06
4.0707e-05 2.30986e-05 -0.000113042 1.94411e-05 -1.47497e-05 4.89546e-06
3.73435e-05 2.71976e-05 -0.000109885 8.08387e-06 -1.01448e-05 1.10829e-05
3.76671e-05 2.6843e-05 -0.000110232 9.27418e-06 -1.06161e-05 1.07246e-05
3.79855e-05 2.64993e-05 -0.000110598 1.04603e-05 -1.10669e-05 1.03735e-05
3.83095e-05 2.61519e-05 -0.000110975 1.1671e-05 -1.15575e-05 9.98173e-06
3.86453e-05 2.57859e-05 -0.000111358 1.29394e-05 -1.20733e-05 9.53728e-06
3.89975e-05 2.53987e-05 -0.00011175 1.42797e-05 -1.25813e-05 9.01014e-06
3.93673e-05 2.49992e-05 -0.000112161 1.56769e-05 -1.30693e-05 8.37714e-06
3.97547e-05 2.45832e-05 -0.000112585 1.70037e-05 -1.3534e-05 7.563e-06
4.01576e-05 2.41509e-05 -0.000112994 1.84002e-05 -1.39287e-05 6.76586e-06
3.72743e-05 2.7533e-05 -0.000110136 8.25666e-06 -9.60549e-06 1.18716e-05
3.75865e-05 2.72691e-05 -0.000110526 9.44489e-06 -1.00659e-05 1.15285e-05
3.78939e-05 2.6997e-05 -0.000110912 1.06666e-05 -1.05209e-05 1.11976e-05
3.82102e-05 2.66706e-05 -0.000111314 1.19383e-05 -1.10153e-05 1.08372e-05
3.85399e-05 2.63192e-05 -0.000111724 1.32701e-05 -1.1538e-05 1.0428e-05
3.88863e-05 2.59705e-05 -0.000112146 1.46548e-05 -1.20617e-05 9.92979e-06
3.92507e-05 2.56278e-05 -0.000112591 1.60782e-05 -1.25829e-05 9.3169e-06
3.96323e-05 2.52636e-05 -0.000113033 1.75824e-05 -1.31202e-05 8.48825e-06
4.16013e-05 1.97006e-05 -0.000109182 1.13721e-05 -1.79386e-05 4.54023e-06
4.2063e-05 1.89787e-05 -0.000109513 1.23305e-05 -1.81639e-05 3.95492e-06
4.2562e-05 1.82561e-05 -0.000109826 1.34197e-05 -1.85078e-05 3.18954e-06
4.3083e-05 1.75639e-05 -0.000110238 1.44245e-05 -1.89261e-05 2.45586e-06
4.36084e-05 1.69317e-05 -0.000110664 1.5361e-05 -1.9158e-05 1.58528e-06
4.02608e-05 2.2237e-05 -0.000108583 8.84967e-06 -1.67282e-05 6.67557e-06
4.06672e-05 2.15666e-05 -0.000108946 9.84107e-06 -1.71265e-05 6.19996e-06
4.10801e-05 2.0887e-05 -0.000109227 1.07752e-05 -1.75722e-05 5.72842e-06
4.15068e-05 2.02505e-05 -0.000109522 1.18115e-05 -1.80026e-05 5.16876e-06
4.19648e-05 1.96018e-05 -0.000109868 1.28859e-05 -1.83244e-05 4.59634e-06
4.24564e-05 1.89033e-05 -0.000110215 1.39159e-05 -1.86702e-05 3.85987e-06
4.29654e-05 1.82385e-05 -0.000110623 1.49797e-05 -1.90133e-05 3.05766e-06
4.34779e-05 1.76009e-05 -0.000111052 1.60724e-05 -1.92727e-05 2.24751e-06
3.97764e-05 2.33573e-05 -0.000108788 8.27072e-06 -1.63138e-05 7.65945e-06
4.01768e-05 2.26823e-05 -0.000108933 9.2687e-06 -1.66166e-05 7.30957e-06
4.05803e-05 2.20509e-05 -0.000109271 1.02287e-05 -1.71929e-05 6.84439e-06
4.09884e-05 2.14388e-05 -0.000109568 1.12784e-05 -1.76453e-05 6.37548e-06
4.14114e-05 2.08262e-05 -0.000109892 1.23193e-05 -1.80363e-05 5.85885e-06
4.18626e-05 2.01851e-05 -0.000110231 1.33669e-05 -1.83891e-05 5.25218e-06
4.2341e-05 1.95301e-05 -0.000110598 1.4446e-05 -1.87499e-05 4.53387e-06
4.28369e-05 1.88916e-05 -0.000111013 1.55553e-05 -1.9091e-05 3.73882e-06
4.33409e-05 1.82693e-05 -0.000111465 1.67025e-05 -1.93727e-05 2.9407e-06
3.93164e-05 2.41277e-05 -0.000108792 7.54195e-06 -1.58165e-05 8.63972e-06
3.96909e-05 2.36314e-05 -0.000109019 8.53603e-06 -1.63013e-05 8.37156e-06
4.00835e-05 2.31596e-05 -0.000109313 9.49461e-06 -1.66696e-05 7.96617e-06
4.04805e-05 2.25726e-05 -0.000109598 1.05619e-05 -1.71117e-05 7.55055e-06
4.08846e-05 2.19921e-05 -0.000109912 1.16477e-05 -1.75638e-05 7.08369e-06
4.13047e-05 2.14056e-05 -0.00011025 1.27422e-05 -1.79838e-05 6.56067e-06
4.17487e-05 2.07999e-05 -0.000110607 1.38501e-05 -1.8375e-05 5.95365e-06
4.22157e-05 2.01839e-05 -0.000110992 1.49837e-05 -1.87562e-05 5.24634e-06
4.27002e-05 1.95752e-05 -0.000111419 1.61433e-05 -1.91106e-05 4.45703e-06
4.31974e-05 1.89734e-05 -0.00011189 1.73402e-05 -1.94127e-05 3.66624e-06
3.92358e-05 2.46834e-05 -0.000109028 7.69338e-06 -1.56452e-05 9.37044e-06
3.96047e-05 2.41813e-05 -0.000109313 8.73684e-06 -1.60896e-05 9.03729e-06
3.99868e-05 2.36469e-05 -0.000109613 9.80313e-06 -1.65004e-05 8.68652e-06
4.03756e-05 2.31081e-05 -0.000109928 1.08994e-05 -1.695e-05 8.28048e-06
4.07738e-05 2.25657e-05 -0.000110263 1.20216e-05 -1.74131e-05 7.82134e-06
4.11882e-05 2.20126e-05 -0.000110618 1.31662e-05 -1.78592e-05 7.30091e-06
4.1624e-05 2.14439e-05 -0.000110994 1.43327e-05 -1.82816e-05 6.69827e-06
4.20807e-05 2.08662e-05 -0.000111399 1.55239e-05 -1.86859e-05 6.00028e-06
4.25554e-05 2.02906e-05 -0.00011184 1.67378e-05 -1.90616e-05 5.21531e-06
4.30466e-05 1.97168e-05 -0.000112322 1.79835e-05 -1.93866e-05 4.42332e-06
3.91521e-05 2.50958e-05 -0.000109301 7.93419e-06 -1.53264e-05 1.00863e-05
3.95146e-05 2.46324e-05 -0.000109588 9.01134e-06 -1.58066e-05 9.76437e-06
3.98867e-05 2.41496e-05 -0.00010992 1.0109e-05 -1.62393e-05 9.42504e-06
4.02658e-05 2.366e-05 -0.000110263 1.12345e-05 -1.67048e-05 9.03273e-06
4.06561e-05 2.31599e-05 -0.000110621 1.23932e-05 -1.71858e-05 8.58783e-06
4.10628e-05 2.26452e-05 -0.000110996 1.35865e-05 -1.76566e-05 8.07854e-06
4.14896e-05 2.21156e-05 -0.000111393 1.48113e-05 -1.81061e-05 7.48566e-06
4.19367e-05 2.15774e-05 -0.000111818 1.60622e-05 -1.85341e-05 6.79771e-06
4.24025e-05 2.10388e-05 -0.000112279 1.73338e-05 -1.89341e-05 6.01722e-06
4.28875e-05 2.04976e-05 -0.000112762 1.8629e-05 -1.92878e-05 5.21471e-06
3.90694e-05 2.55279e-05 -0.000109567 8.1614e-06 -1.49393e-05 1.08215e-05
3.94243e-05 2.51012e-05 -0.000109876 9.27721e-06 -1.54356e-05 1.05064e-05
3.97835e-05 2.46691e-05 -0.000110234 1.04068e-05 -1.58896e-05 1.01803e-05
4.01511e-05 2.42296e-05 -0.000110604 1.15615e-05 -1.63746e-05 9.80608e-06
4.05313e-05 2.37746e-05 -0.000110985 1.27552e-05 -1.68771e-05 9.38294e-06
4.09287e-05 2.33015e-05 -0.000111382 1.39971e-05 -1.7371e-05 8.89374e-06
4.13457e-05 2.28138e-05 -0.000111801 1.52821e-05 -1.78436e-05 8.31647e-06
4.17834e-05 2.23174e-05 -0.00011225 1.65954e-05 -1.82948e-05 7.64064e-06
4.22413e-05 2.1873e-05 -0.000112696 1.79312e-05 -1.86251e-05 6.86425e-06
4.27202e-05 2.13692e-05 -0.000113248 1.92791e-05 -1.90777e-05 6.04098e-06
3.8987e-05 2.59752e-05 -0.000109822 8.37047e-06 -1.44896e-05 1.15775e-05
3.93329e-05 2.55863e-05 -0.000110176 9.53102e-06 -1.49851e-05 1.12639e-05
3.96771e-05 2.52052e-05 -0.000110556 1.06933e-05 -1.54552e-05 1.09513e-05
4.00308e-05 2.48172e-05 -0.00011095 1.18741e-05 -1.596e-05 1.0599e-05
4.03991e-05 2.44092e-05 -0.000111354 1.30996e-05 -1.64849e-05 1.02064e-05
4.07859e-05 2.39797e-05 -0.000111774 1.43904e-05 -1.69983e-05 9.74767e-06
4.11923e-05 2.35371e-05 -0.000112218 1.57407e-05 -1.74883e-05 9.19223e-06
4.16205e-05 2.30758e-05 -0.000112681 1.7017e-05 -1.79492e-05 8.46434e-06
4.20707e-05 2.2596e-05 -0.00011314 1.83452e-05 -1.83317e-05 7.76348e-06
3.88949e-05 2.63733e-05 -0.000110081 8.57452e-06 -1.39801e-05 1.23411e-05
3.92271e-05 2.6084e-05 -0.000110478 9.74084e-06 -1.44637e-05 1.20347e-05
3.95566e-05 2.57866e-05 -0.000110877 1.09424e-05 -1.49404e-05 1.1747e-05
3.98988e-05 2.54307e-05 -0.000111294 1.21854e-05 -1.54521e-05 1.14305e-05
4.02571e-05 2.50431e-05 -0.000111724 1.34755e-05 -1.5987e-05 1.10749e-05
4.06341e-05 2.46527e-05 -0.000112172 1.48125e-05 -1.65175e-05 1.06454e-05
4.10314e-05 2.4269e-05 -0.000112648 1.61948e-05 -1.70397e-05 1.01071e-05
4.14509e-05 2.38695e-05 -0.000113127 1.76521e-05 -1.75721e-05 9.35719e-06
4.05479e-05 1.76793e-05 -0.000109198 1.0127e-05 -2.19161e-05 5.0097e-06
4.10776e-05 1.68859e-05 -0.000109578 1.09919e-05 -2.21513e-05 4.46548e-06
4.16438e-05 1.60745e-05 -0.000109945 1.19354e-05 -2.24809e-05 3.78171e-06
4.22321e-05 1.52896e-05 -0.000110414 1.28567e-05 -2.28698e-05 3.15449e-06
4.28339e-05 1.45636e-05 -0.000110919 1.37559e-05 -2.30744e-05 2.36586e-06
3.89908e-05 2.05301e-05 -0.000108511 7.79744e-06 -2.079e-05 6.95285e-06
3.94487e-05 1.97888e-05 -0.000108898 8.67233e-06 -2.12005e-05 6.55339e-06
3.99164e-05 1.90367e-05 -0.000109205 9.5193e-06 -2.16549e-05 6.15458e-06
4.04028e-05 1.83091e-05 -0.000109538 1.05004e-05 -2.20806e-05 5.63855e-06
4.09241e-05 1.75662e-05 -0.000109931 1.14775e-05 -2.24105e-05 5.10689e-06
4.14791e-05 1.67863e-05 -0.000110328 1.23746e-05 -2.27433e-05 4.4543e-06
4.20532e-05 1.60367e-05 -0.000110792 1.33496e-05 -2.30698e-05 3.76475e-06
4.26399e-05 1.5316e-05 -0.000111298 1.43828e-05 -2.33007e-05 3.03326e-06
3.84175e-05 2.1784e-05 -0.000108709 7.29761e-06 -2.04345e-05 7.93483e-06
3.88658e-05 2.10373e-05 -0.000108867 8.18134e-06 -2.07539e-05 7.61185e-06
3.93163e-05 2.03288e-05 -0.000109226 9.01501e-06 -2.13482e-05 7.20774e-06
3.97756e-05 1.96399e-05 -0.000109548 9.97145e-06 -2.18128e-05 6.80436e-06
4.02536e-05 1.89517e-05 -0.000109908 1.09344e-05 -2.22127e-05 6.33383e-06
4.07634e-05 1.82359e-05 -0.000110291 1.18762e-05 -2.25661e-05 5.7724e-06
4.13022e-05 1.75043e-05 -0.000110707 1.28351e-05 -2.29174e-05 5.1294e-06
4.18607e-05 1.67865e-05 -0.000111179 1.38479e-05 -2.32424e-05 4.43053e-06
4.2435e-05 1.60849e-05 -0.000111701 1.4921e-05 -2.34953e-05 3.71657e-06
3.78792e-05 2.26771e-05 -0.000108703 6.67292e-06 -2.00053e-05 8.94109e-06
3.82926e-05 2.21174e-05 -0.000108942 7.55413e-06 -2.05071e-05 8.67309e-06
3.87291e-05 2.15783e-05 -0.000109252 8.38281e-06 -2.08927e-05 8.29401e-06
3.91701e-05 2.09229e-05 -0.000109557 9.314e-06 -2.13507e-05 7.92721e-06
3.96214e-05 2.02724e-05 -0.000109896 1.02893e-05 -2.18156e-05 7.51348e-06
4.0092e-05 1.9616e-05 -0.000110267 1.12846e-05 -2.22442e-05 7.03691e-06
4.05898e-05 1.89404e-05 -0.000110665 1.22816e-05 -2.2637e-05 6.48032e-06
4.11132e-05 1.82529e-05 -0.000111098 1.3298e-05 -2.30109e-05 5.84328e-06
4.16574e-05 1.75704e-05 -0.00011158 1.4353e-05 -2.33505e-05 5.13944e-06
4.22204e-05 1.68936e-05 -0.000112117 1.54623e-05 -2.36254e-05 4.43306e-06
3.77648e-05 2.32856e-05 -0.000108941 6.80823e-06 -1.99e-05 9.68142e-06
3.8168e-05 2.27269e-05 -0.00010924 7.73159e-06 -2.0368e-05 9.36428e-06
3.85883e-05 2.21337e-05 -0.000109557 8.65326e-06 -2.07988e-05 9.04106e-06
3.90172e-05 2.15333e-05 -0.000109891 9.61008e-06 -2.12654e-05 8.67312e-06
3.94583e-05 2.09276e-05 -0.00011025 1.061e-05 -2.17417e-05 8.25766e-06
3.99187e-05 2.03108e-05 -0.000110637 1.1641e-05 -2.21967e-05 7.78188e-06
4.04035e-05 1.96777e-05 -0.000111051 1.26899e-05 -2.26218e-05 7.23102e-06
4.09124e-05 1.90341e-05 -0.000111501 1.37612e-05 -2.30206e-05 6.60009e-06
4.1443e-05 1.83903e-05 -0.000111997 1.48614e-05 -2.33831e-05 5.89434e-06
4.19958e-05 1.77464e-05 -0.000112542 1.60043e-05 -2.3683e-05 5.18215e-06
3.76451e-05 2.37547e-05 -0.000109218 7.00012e-06 -1.96456e-05 1.04136e-05
3.80374e-05 2.32418e-05 -0.000109519 7.96203e-06 -2.01512e-05 1.01175e-05
3.84428e-05 2.27069e-05 -0.000109867 8.91591e-06 -2.06052e-05 9.80237e-06
3.88577e-05 2.21627e-05 -0.000110229 9.89982e-06 -2.10886e-05 9.44182e-06
3.92864e-05 2.16062e-05 -0.000110611 1.09277e-05 -2.15834e-05 9.03384e-06
3.97343e-05 2.10343e-05 -0.000111016 1.1997e-05 -2.20635e-05 8.56678e-06
4.02054e-05 2.04465e-05 -0.000111448 1.30966e-05 -2.25168e-05 8.02554e-06
4.07002e-05 1.98482e-05 -0.000111917 1.42218e-05 -2.29413e-05 7.4027e-06
4.12176e-05 1.92474e-05 -0.00011243 1.53705e-05 -2.33294e-05 6.69943e-06
4.17601e-05 1.86417e-05 -0.000112976 1.6549e-05 -2.36606e-05 5.96999e-06
3.75257e-05 2.42458e-05 -0.000109489 7.18282e-06 -1.93132e-05 1.116e-05
3.7905e-05 2.37765e-05 -0.000109811 8.18369e-06 -1.98379e-05 1.08763e-05
3.8293e-05 2.32997e-05 -0.000110185 9.16937e-06 -2.03144e-05 1.05763e-05
3.86915e-05 2.28125e-05 -0.000110573 1.01793e-05 -2.08186e-05 1.02305e-05
3.91056e-05 2.23081e-05 -0.000110977 1.12364e-05 -2.13353e-05 9.83982e-06
3.95393e-05 2.17847e-05 -0.000111402 1.23466e-05 -2.1839e-05 9.39121e-06
3.99955e-05 2.12456e-05 -0.000111856 1.34977e-05 -2.23168e-05 8.86549e-06
4.04759e-05 2.06954e-05 -0.000112345 1.46771e-05 -2.27666e-05 8.25342e-06
4.09816e-05 2.01967e-05 -0.000112844 1.58858e-05 -2.30885e-05 7.54521e-06
4.15135e-05 1.96348e-05 -0.000113455 1.71063e-05 -2.35226e-05 6.79054e-06
3.74052e-05 2.47541e-05 -0.000109753 7.35833e-06 -1.89091e-05 1.19249e-05
3.77705e-05 2.43304e-05 -0.000110115 8.39714e-06 -1.9435e-05 1.16427e-05
3.81384e-05 2.39117e-05 -0.000110511 9.41245e-06 -1.993e-05 1.13617e-05
3.85185e-05 2.34828e-05 -0.000110922 1.04449e-05 -2.04555e-05 1.10369e-05
3.89158e-05 2.30324e-05 -0.000111348 1.153e-05 -2.09948e-05 1.06741e-05
3.93337e-05 2.25601e-05 -0.000111794 1.26839e-05 -2.15179e-05 1.02563e-05
3.9774e-05 2.20736e-05 -0.000112271 1.38896e-05 -2.20148e-05 9.75379e-06
4.02401e-05 2.15669e-05 -0.000112773 1.50274e-05 -2.24772e-05 9.08524e-06
4.07341e-05 2.10397e-05 -0.000113287 1.62286e-05 -2.28532e-05 8.43936e-06
3.7274e-05 2.52162e-05 -0.00011002 7.54319e-06 -1.8433e-05 1.26908e-05
3.76206e-05 2.48999e-05 -0.000110423 8.56536e-06 -1.89477e-05 1.24171e-05
3.79691e-05 2.45767e-05 -0.000110835 9.615e-06 -1.94514e-05 1.21685e-05
3.83322e-05 2.41912e-05 -0.000111269 1.0709e-05 -1.99852e-05 1.18835e-05
3.87136e-05 2.37674e-05 -0.000111719 1.18576e-05 -2.05366e-05 1.15585e-05
3.91155e-05 2.33358e-05 -0.000112193 1.30573e-05 -2.10782e-05 1.11715e-05
3.95408e-05 2.29112e-05 -0.0001127 1.4288e-05 -2.16084e-05 1.06874e-05
3.99942e-05 2.2475e-05 -0.000113217 1.55951e-05 -2.21417e-05 9.99253e-06
4.26534e-05 1.5639e-05 -0.000109196 9.28473e-06 -2.58858e-05 5.94593e-06
4.32401e-05 1.47754e-05 -0.000109621 1.00737e-05 -2.61409e-05 5.45337e-06
4.38642e-05 1.38764e-05 -0.00011004 1.08933e-05 -2.64564e-05 4.82748e-06
4.45223e-05 1.29963e-05 -0.000110576 1.17036e-05 -2.68038e-05 4.21279e-06
4.52012e-05 1.21716e-05 -0.000111164 1.25336e-05 -2.69835e-05 3.43035e-06
4.09087e-05 1.88064e-05 -0.000108415 7.17034e-06 -2.48503e-05 7.81208e-06
4.14132e-05 1.79942e-05 -0.000108827 7.90158e-06 -2.52757e-05 7.41438e-06
4.19382e-05 1.71704e-05 -0.000109167 8.62947e-06 -2.57332e-05 7.01445e-06
4.24843e-05 1.63469e-05 -0.00010954 9.53559e-06 -2.61534e-05 6.51067e-06
4.30607e-05 1.55068e-05 -0.000109977 1.0429e-05 -2.64994e-05 6.02607e-06
4.36714e-05 1.46481e-05 -0.000110422 1.12033e-05 -2.68218e-05 5.41978e-06
4.43125e-05 1.38135e-05 -0.00011095 1.2059e-05 -2.7127e-05 4.74026e-06
4.49755e-05 1.30066e-05 -0.000111538 1.30083e-05 -2.73288e-05 4.02281e-06
4.02834e-05 2.01974e-05 -0.000108614 6.67884e-06 -2.4556e-05 8.69468e-06
4.0768e-05 1.93802e-05 -0.000108781 7.44219e-06 -2.48983e-05 8.38684e-06
4.12615e-05 1.85928e-05 -0.000109164 8.13371e-06 -2.551e-05 7.99641e-06
4.17741e-05 1.78245e-05 -0.000109516 8.96819e-06 -2.59831e-05 7.5951e-06
4.23085e-05 1.7056e-05 -0.000109914 9.83696e-06 -2.6392e-05 7.13959e-06
4.28722e-05 1.62638e-05 -0.000110338 1.06795e-05 -2.67494e-05 6.61698e-06
4.34667e-05 1.54562e-05 -0.000110803 1.15194e-05 -2.70925e-05 6.01127e-06
4.40893e-05 1.46582e-05 -0.000111336 1.24163e-05 -2.73994e-05 5.3324e-06
4.47374e-05 1.38747e-05 -0.000111933 1.33935e-05 -2.76225e-05 4.63526e-06
3.96972e-05 2.12222e-05 -0.000108605 6.06572e-06 -2.42045e-05 9.57131e-06
4.01435e-05 2.05937e-05 -0.000108855 6.83697e-06 -2.47213e-05 9.33096e-06
4.06158e-05 1.99815e-05 -0.000109178 7.53396e-06 -2.51269e-05 8.97418e-06
4.10984e-05 1.92575e-05 -0.000109504 8.32145e-06 -2.56e-05 8.62902e-06
4.15979e-05 1.85351e-05 -0.000109871 9.16944e-06 -2.60756e-05 8.22854e-06
4.21199e-05 1.78057e-05 -0.000110277 1.00536e-05 -2.6513e-05 7.77141e-06
4.26695e-05 1.70584e-05 -0.000110715 1.09384e-05 -2.69093e-05 7.24648e-06
4.32478e-05 1.62989e-05 -0.000111196 1.18339e-05 -2.72769e-05 6.64205e-06
4.38534e-05 1.5541e-05 -0.000111736 1.2771e-05 -2.76008e-05 5.96406e-06
4.44866e-05 1.47866e-05 -0.000112343 1.37733e-05 -2.78478e-05 5.2788e-06
3.9569e-05 2.18711e-05 -0.00010885 6.11028e-06 -2.41638e-05 1.0227e-05
4.00034e-05 2.12558e-05 -0.000109161 6.90622e-06 -2.46598e-05 9.92628e-06
4.04585e-05 2.06038e-05 -0.000109493 7.68516e-06 -2.51122e-05 9.63104e-06
4.09262e-05 1.99416e-05 -0.000109847 8.4991e-06 -2.55951e-05 9.28786e-06
4.14114e-05 1.92712e-05 -0.000110233 9.36632e-06 -2.60838e-05 8.89178e-06
4.19191e-05 1.85884e-05 -0.000110651 1.02739e-05 -2.65479e-05 8.43745e-06
4.24532e-05 1.78891e-05 -0.000111104 1.11996e-05 -2.69768e-05 7.91422e-06
4.30152e-05 1.71782e-05 -0.0001116 1.21444e-05 -2.7371e-05 7.31306e-06
4.36044e-05 1.64644e-05 -0.000112152 1.31206e-05 -2.772e-05 6.6366e-06
4.42231e-05 1.5748e-05 -0.000112764 1.41475e-05 -2.79942e-05 5.95296e-06
3.94333e-05 2.2397e-05 -0.000109135 6.18883e-06 -2.39775e-05 1.08884e-05
3.98559e-05 2.18344e-05 -0.00010945 7.01724e-06 -2.45137e-05 1.05951e-05
4.02941e-05 2.12473e-05 -0.000109813 7.82636e-06 -2.49901e-05 1.03046e-05
4.07452e-05 2.06479e-05 -0.000110194 8.66577e-06 -2.54913e-05 9.96878e-06
4.12143e-05 2.00338e-05 -0.0001106 9.55532e-06 -2.59996e-05 9.58249e-06
4.1706e-05 1.94028e-05 -0.000111036 1.04912e-05 -2.64896e-05 9.13684e-06
4.22236e-05 1.87549e-05 -0.000111505 1.14572e-05 -2.69477e-05 8.62042e-06
4.27689e-05 1.80948e-05 -0.000112018 1.24478e-05 -2.73692e-05 8.02519e-06
4.33421e-05 1.74298e-05 -0.000112585 1.34638e-05 -2.77456e-05 7.35193e-06
4.39468e-05 1.67575e-05 -0.000113197 1.45188e-05 -2.80534e-05 6.65883e-06
3.92957e-05 2.29487e-05 -0.000109417 6.26254e-06 -2.37044e-05 1.15617e-05
3.97037e-05 2.24357e-05 -0.000109752 7.12239e-06 -2.42625e-05 1.12723e-05
4.01228e-05 2.19133e-05 -0.000110141 7.95822e-06 -2.47627e-05 1.09912e-05
4.05553e-05 2.13776e-05 -0.000110547 8.8197e-06 -2.52862e-05 1.06685e-05
4.10066e-05 2.08228e-05 -0.000110974 9.7326e-06 -2.58172e-05 1.02988e-05
4.14807e-05 2.02475e-05 -0.000111428 1.06997e-05 -2.63316e-05 9.86938e-06
4.19807e-05 1.96547e-05 -0.000111917 1.17059e-05 -2.68159e-05 9.36574e-06
4.25088e-05 1.90487e-05 -0.000112448 1.27411e-05 -2.72646e-05 8.77963e-06
4.30672e-05 1.84962e-05 -0.000113001 1.38155e-05 -2.75786e-05 8.10294e-06
4.36578e-05 1.78744e-05 -0.000113673 1.49045e-05 -2.79955e-05 7.38859e-06
3.9156e-05 2.352e-05 -0.000109693 6.33507e-06 -2.33513e-05 1.22474e-05
3.95471e-05 2.30596e-05 -0.000110065 7.22383e-06 -2.39123e-05 1.19568e-05
3.99444e-05 2.26016e-05 -0.000110476 8.08057e-06 -2.44332e-05 1.16888e-05
4.03562e-05 2.2131e-05 -0.000110905 8.95901e-06 -2.49792e-05 1.13846e-05
4.07877e-05 2.16373e-05 -0.000111353 9.894e-06 -2.55334e-05 1.10397e-05
4.12426e-05 2.11208e-05 -0.000111826 1.08947e-05 -2.60681e-05 1.06358e-05
4.17238e-05 2.05875e-05 -0.000112337 1.19418e-05 -2.65738e-05 1.01522e-05
4.22362e-05 2.00353e-05 -0.00011288 1.29305e-05 -2.70363e-05 9.50898e-06
4.27805e-05 1.94606e-05 -0.000113448 1.39994e-05 -2.74062e-05 8.8953e-06
3.90062e-05 2.40511e-05 -0.000109972 6.42867e-06 -2.29159e-05 1.29287e-05
3.93754e-05 2.37021e-05 -0.000110381 7.2832e-06 -2.34642e-05 1.26516e-05
3.97517e-05 2.33505e-05 -0.000110808 8.16058e-06 -2.39954e-05 1.24081e-05
4.01445e-05 2.29339e-05 -0.00011126 9.09194e-06 -2.45523e-05 1.21346e-05
4.05566e-05 2.24727e-05 -0.000111732 1.00837e-05 -2.51202e-05 1.1821e-05
4.09917e-05 2.19999e-05 -0.000112231 1.11245e-05 -2.5675e-05 1.14426e-05
4.14544e-05 2.15337e-05 -0.000112772 1.21881e-05 -2.62159e-05 1.0976e-05
4.19515e-05 2.10563e-05 -0.000113328 1.3337e-05 -2.67468e-05 1.03091e-05
4.31063e-05 1.35861e-05 -0.00010915 8.98603e-06 -2.98563e-05 7.51135e-06
4.37431e-05 1.2652e-05 -0.000109614 9.69837e-06 -3.01297e-05 7.14129e-06
4.44226e-05 1.16642e-05 -0.000110087 1.04735e-05 -3.04334e-05 6.62672e-06
4.51427e-05 1.06862e-05 -0.00011069 1.11687e-05 -3.07479e-05 6.10615e-06
4.58874e-05 9.76215e-06 -0.000111347 1.18312e-05 -3.09026e-05 5.44392e-06
4.11982e-05 1.70717e-05 -0.000108294 7.14651e-06 -2.8914e-05 9.08607e-06
4.17424e-05 1.61889e-05 -0.00010873 7.81293e-06 -2.93479e-05 8.71712e-06
4.23108e-05 1.52918e-05 -0.000109097 8.44764e-06 -2.9808e-05 8.36558e-06
4.29017e-05 1.43713e-05 -0.000109502 9.23412e-06 -3.02235e-05 7.95445e-06
4.35252e-05 1.34318e-05 -0.000109975 1.00455e-05 -3.05853e-05 7.58916e-06
4.41887e-05 1.24924e-05 -0.000110472 1.07564e-05 -3.08992e-05 7.08688e-06
4.48881e-05 1.15736e-05 -0.000111061 1.14939e-05 -3.11822e-05 6.4957e-06
4.56128e-05 1.06802e-05 -0.000111719 1.22881e-05 -3.13568e-05 5.90272e-06
4.0518e-05 1.85973e-05 -0.000108495 6.70119e-06 -2.8683e-05 9.76289e-06
4.10318e-05 1.77087e-05 -0.000108671 7.39961e-06 -2.90457e-05 9.51347e-06
4.15616e-05 1.68433e-05 -0.000109076 8.0321e-06 -2.9669e-05 9.16675e-06
4.21138e-05 1.59962e-05 -0.000109455 8.77349e-06 -3.01465e-05 8.8199e-06
4.26903e-05 1.5147e-05 -0.000109882 9.53345e-06 -3.0563e-05 8.4533e-06
4.32983e-05 1.4276e-05 -0.000110344 1.02882e-05 -3.09252e-05 8.04169e-06
4.39417e-05 1.33909e-05 -0.000110857 1.10443e-05 -3.12611e-05 7.54154e-06
4.46189e-05 1.25129e-05 -0.000111447 1.18251e-05 -3.15495e-05 6.96524e-06
4.53265e-05 1.16467e-05 -0.000112111 1.2655e-05 -3.17457e-05 6.3891e-06
3.9888e-05 1.9755e-05 -0.000108487 6.12604e-06 -2.84039e-05 1.03994e-05
4.03596e-05 1.9056e-05 -0.000108748 6.8272e-06 -2.89381e-05 1.02388e-05
4.08578e-05 1.83711e-05 -0.000109082 7.46474e-06 -2.93592e-05 9.94326e-06
4.13726e-05 1.75786e-05 -0.000109428 8.19666e-06 -2.98425e-05 9.65426e-06
4.19073e-05 1.67843e-05 -0.000109819 8.9607e-06 -3.03253e-05 9.319e-06
4.24672e-05 1.59811e-05 -0.000110253 9.74594e-06 -3.07699e-05 8.94943e-06
4.30577e-05 1.51606e-05 -0.000110727 1.05366e-05 -3.11698e-05 8.52802e-06
4.36811e-05 1.43277e-05 -0.000111253 1.13365e-05 -3.15313e-05 8.02982e-06
4.43378e-05 1.34941e-05 -0.000111848 1.21588e-05 -3.18392e-05 7.46242e-06
4.50275e-05 1.26618e-05 -0.000112519 1.30208e-05 -3.206e-05 6.89864e-06
3.97443e-05 2.04459e-05 -0.000108746 6.14516e-06 -2.84264e-05 1.09146e-05
4.0201e-05 1.97724e-05 -0.000109064 6.87325e-06 -2.89489e-05 1.06726e-05
4.06801e-05 1.90607e-05 -0.00010941 7.60262e-06 -2.94183e-05 1.04397e-05
4.11754e-05 1.83363e-05 -0.000109782 8.35768e-06 -2.99137e-05 1.01605e-05
4.16914e-05 1.76009e-05 -0.000110191 9.14463e-06 -3.04116e-05 9.83666e-06
4.22328e-05 1.68511e-05 -0.000110637 9.95746e-06 -3.08834e-05 9.46936e-06
4.2804e-05 1.60843e-05 -0.000111124 1.07852e-05 -3.13158e-05 9.04557e-06
4.34074e-05 1.53049e-05 -0.000111662 1.16276e-05 -3.17051e-05 8.55033e-06
4.40438e-05 1.45203e-05 -0.000112266 1.24903e-05 -3.20401e-05 7.98804e-06
4.47153e-05 1.37314e-05 -0.000112939 1.33852e-05 -3.22889e-05 7.43089e-06
3.95956e-05 2.10291e-05 -0.000109046 6.23589e-06 -2.83025e-05 1.14261e-05
4.00367e-05 2.04149e-05 -0.000109367 6.98372e-06 -2.88672e-05 1.11789e-05
4.04953e-05 1.97746e-05 -0.000109743 7.73592e-06 -2.93623e-05 1.0952e-05
4.097e-05 1.91194e-05 -0.000110142 8.5117e-06 -2.98779e-05 1.06838e-05
4.14657e-05 1.84471e-05 -0.000110569 9.32134e-06 -3.03972e-05 1.0373e-05
4.1987e-05 1.77559e-05 -0.000111031 1.01631e-05 -3.08959e-05 1.00133e-05
4.25377e-05 1.70466e-05 -0.000111533 1.10282e-05 -3.13582e-05 9.59314e-06
4.31206e-05 1.63234e-05 -0.000112085 1.19122e-05 -3.17762e-05 9.10261e-06
4.3737e-05 1.55931e-05 -0.000112701 1.28148e-05 -3.21405e-05 8.5429e-06
4.43899e-05 1.4854e-05 -0.000113371 1.37444e-05 -3.24237e-05 7.98272e-06
3.94446e-05 2.1641e-05 -0.000109343 6.31694e-06 -2.80846e-05 1.19512e-05
3.9868e-05 2.10833e-05 -0.000109683 7.08945e-06 -2.86721e-05 1.16992e-05
4.03039e-05 2.0514e-05 -0.000110084 7.86108e-06 -2.91932e-05 1.14772e-05
4.07562e-05 1.9929e-05 -0.000110507 8.65492e-06 -2.97327e-05 1.12223e-05
4.12301e-05 1.93228e-05 -0.000110954 9.48578e-06 -3.02762e-05 1.09281e-05
4.17297e-05 1.86943e-05 -0.000111433 1.0357e-05 -3.08006e-05 1.05815e-05
4.22587e-05 1.80465e-05 -0.000111952 1.12604e-05 -3.12903e-05 1.01702e-05
4.28205e-05 1.73835e-05 -0.000112521 1.21863e-05 -3.17371e-05 9.68716e-06
4.34173e-05 1.67767e-05 -0.000113121 1.31425e-05 -3.20398e-05 9.13065e-06
4.4051e-05 1.60941e-05 -0.000113848 1.4109e-05 -3.24397e-05 8.55195e-06
3.92919e-05 2.22748e-05 -0.000109634 6.3862e-06 -2.7778e-05 1.24877e-05
3.96947e-05 2.17769e-05 -0.00011001 7.18773e-06 -2.83705e-05 1.22301e-05
4.01055e-05 2.12785e-05 -0.000110433 7.97532e-06 -2.89134e-05 1.20134e-05
4.05334e-05 2.07652e-05 -0.000110877 8.78278e-06 -2.94769e-05 1.17747e-05
4.09837e-05 2.02271e-05 -0.000111344 9.63169e-06 -3.00447e-05 1.15025e-05
4.14602e-05 1.96648e-05 -0.000111842 1.05325e-05 -3.0591e-05 1.11749e-05
4.19664e-05 1.90834e-05 -0.000112381 1.14766e-05 -3.11041e-05 1.07774e-05
4.25091e-05 1.84847e-05 -0.00011296 1.23514e-05 -3.15647e-05 1.02403e-05
4.30875e-05 1.78614e-05 -0.000113576 1.32934e-05 -3.19274e-05 9.75553e-06
3.91315e-05 2.28759e-05 -0.000109927 6.46122e-06 -2.73783e-05 1.30241e-05
3.95102e-05 2.24945e-05 -0.000110341 7.24152e-06 -2.79557e-05 1.27751e-05
3.98964e-05 2.2112e-05 -0.000110779 8.04738e-06 -2.85124e-05 1.25712e-05
4.03015e-05 2.16615e-05 -0.000111245 8.90098e-06 -2.90911e-05 1.23533e-05
4.0728e-05 2.11616e-05 -0.000111736 9.80242e-06 -2.96752e-05 1.21045e-05
4.11801e-05 2.0647e-05 -0.000112259 1.07393e-05 -3.02423e-05 1.17953e-05
4.16631e-05 2.01393e-05 -0.000112826 1.17019e-05 -3.07907e-05 1.14101e-05
4.21859e-05 1.96202e-05 -0.000113415 1.27385e-05 -3.1317e-05 1.08515e-05
0 0 0 0 0 0
0 0 0 0 0 0
0 0 0 0 0 0
0 0 0 0 0 0
0 0 0 0 0 0
0 0 0 0 0 0
0 0 0 0 0 0
0 0 0 0 0 0
0 0 0 0 0 0
0 0 0 0 0 0
0 0 0 0 0 0
0 0 0 0 0 0
0 0 0 0 0 0
0 0 0 0 0 0
0 0 0 0 0 0
0 0 0 0 0 0
0 0 0 0 0 0
0 0 0 0 0 0
0 0 0 0 0 0
0 0 0 0 0 0
0 0 0 0 0 0
0 0 0 0 0 0
0 0 0 0 0 0
0 0 0 0 0 0
0 0 0 0 0 0
0 0 0 0 0 0
0 0 0 0 0 0
0 0 0 0 0 0
0 0 0 0 0 0
0 0 0 0 0 0
0 0 0 0 0 0
0 0 0 0 0 0
0 0 0 0 0 0
0 0 0 0 0 0
0 0 0 0 0 0
0 0 0 0 0 0
0 0 0 0 0 0
0 0 0 0 0 0
0 0 0 0 0 0
0 0 0 0 0 0
0 0 0 0 0 0
0 0 0 0 0 0
0 0 0 0 0 0
0 0 0 0 0 0
0 0 0 0 0 0
0 0 0 0 0 0
0 0 0 0 0 0
0 0 0 0 0 0
0 0 0 0 0 0
0 0 0 0 0 0
0 0 0 0 0 0
0 0 0 0 0 0
0 0 0 0 0 0
0 0 0 0 0 0
0 0 0 0 0 0
0 0 0 0 0 0
0 0 0 0 0 0
0 0 0 0 0 0
0 0 0 0 0 0
0 0 0 0 0 0
0 0 0 0 0 0
0 0 0 0 0 0
0 0 0 0 0 0
0 0 0 0 0 0
0 0 0 0 0 0
0 0 0 0 0 0
0 0 0 0 0 0
0 0 0 0 0 0
0 0 0 0 0 0
0 0 0 0 0 0
0 0 0 0 0 0
0 0 0 0 0 0
0 0 0 0 0 0
0 0 0 0 0 0
0 0 0 0 0 0
0 0 0 0 0 0
0 0 0 0 0 0
0 0 0 0 0 0
0 0 0 0 0 0
4.51304e-05 1.15394e-05 -0.000109077 8.10258e-06 -3.38843e-05 9.39524e-06
4.582e-05 1.0534e-05 -0.000109578 8.7108e-06 -3.41697e-05 9.19241e-06
4.65569e-05 9.45668e-06 -0.000110101 9.4075e-06 -3.44641e-05 8.86151e-06
4.73334e-05 8.38179e-06 -0.000110758 1.00004e-05 -3.47554e-05 8.58571e-06
4.81359e-05 7.35949e-06 -0.000111475 1.05183e-05 -3.48856e-05 8.19686e-06
4.30819e-05 1.53463e-05 -0.000108165 6.55271e-06 -3.3027e-05 1.0437e-05
4.36641e-05 1.43917e-05 -0.000108619 7.16797e-06 -3.34676e-05 1.02066e-05
4.42719e-05 1.34195e-05 -0.000109004 7.72814e-06 -3.39365e-05 1.00167e-05
4.49061e-05 1.24033e-05 -0.000109434 8.40256e-06 -3.43491e-05 9.77511e-06
4.55799e-05 1.13642e-05 -0.000109942 9.10766e-06 -3.47226e-05 9.5752e-06
4.62979e-05 1.034e-05 -0.000110485 9.73234e-06 -3.5029e-05 9.26821e-06
4.70504e-05 9.33622e-06 -0.000111123 1.0368e-05 -3.52963e-05 8.92895e-06
4.78313e-05 8.35801e-06 -0.000111841 1.10193e-05 -3.54464e-05 8.59793e-06
4.23466e-05 1.70023e-05 -0.000108364 6.23725e-06 -3.28598e-05 1.09818e-05
4.2897e-05 1.60399e-05 -0.000108548 6.86355e-06 -3.32385e-05 1.08255e-05
4.34644e-05 1.50976e-05 -0.000108971 7.43966e-06 -3.38744e-05 1.06055e-05
4.40555e-05 1.41733e-05 -0.000109368 8.10195e-06 -3.43613e-05 1.04129e-05
4.46733e-05 1.32457e-05 -0.000109819 8.75718e-06 -3.47859e-05 1.0208e-05
4.53283e-05 1.22953e-05 -0.000110314 9.40687e-06 -3.51516e-05 9.96384e-06
4.60223e-05 1.13303e-05 -0.000110868 1.0065e-05 -3.54817e-05 9.6617e-06
4.67511e-05 1.03718e-05 -0.000111507 1.07351e-05 -3.57558e-05 9.324e-06
4.75121e-05 9.42456e-06 -0.000112228 1.14264e-05 -3.59283e-05 9.00697e-06
4.16662e-05 1.82851e-05 -0.000108351 5.80664e-06 -3.26454e-05 1.15122e-05
4.21723e-05 1.752e-05 -0.000108623 6.42267e-06 -3.31996e-05 1.14208e-05
4.27045e-05 1.67673e-05 -0.000108967 6.98924e-06 -3.36333e-05 1.12154e-05
4.32561e-05 1.59053e-05 -0.000109328 7.65885e-06 -3.41292e-05 1.10413e-05
4.38283e-05 1.50396e-05 -0.000109738 8.34171e-06 -3.46226e-05 1.08466e-05
4.4428e-05 1.41639e-05 -0.000110195 9.027e-06 -3.50759e-05 1.06329e-05
4.50621e-05 1.32698e-05 -0.0001107 9.71259e-06 -3.54795e-05 1.03822e-05
4.57326e-05 1.23623e-05 -0.000111265 1.04069e-05 -3.58364e-05 1.00815e-05
4.64388e-05 1.14529e-05 -0.000111906 1.1113e-05 -3.61311e-05 9.74359e-06
4.71802e-05 1.05441e-05 -0.000112632 1.18408e-05 -3.63287e-05 9.43326e-06
4.15095e-05 1.90312e-05 -0.00010862 5.87695e-06 -3.27313e-05 1.19661e-05
4.19984e-05 1.8298e-05 -0.000108945 6.53105e-06 -3.32771e-05 1.18087e-05
4.2509e-05 1.75255e-05 -0.000109302 7.19557e-06 -3.37636e-05 1.16627e-05
4.30387e-05 1.67378e-05 -0.00010969 7.88124e-06 -3.42738e-05 1.14917e-05
4.35903e-05 1.59373e-05 -0.000110116 8.58417e-06 -3.47839e-05 1.12987e-05
4.41695e-05 1.51211e-05 -0.000110584 9.29847e-06 -3.52651e-05 1.10817e-05
4.47815e-05 1.42866e-05 -0.0001111 1.00203e-05 -3.5702e-05 1.08282e-05
4.54288e-05 1.34381e-05 -0.000111675 1.07528e-05 -3.60878e-05 1.05292e-05
4.61125e-05 1.25829e-05 -0.000112322 1.14966e-05 -3.64109e-05 1.01901e-05
4.68343e-05 1.17224e-05 -0.000113049 1.22583e-05 -3.66373e-05 9.87709e-06
4.13488e-05 1.96713e-05 -0.000108931 6.04486e-06 -3.26675e-05 1.24107e-05
4.18173e-05 1.90046e-05 -0.000109257 6.71789e-06 -3.32568e-05 1.22594e-05
4.23053e-05 1.83101e-05 -0.000109644 7.39987e-06 -3.37711e-05 1.21196e-05
4.28119e-05 1.75983e-05 -0.000110056 8.10107e-06 -3.43031e-05 1.19551e-05
4.33412e-05 1.68676e-05 -0.000110501 8.82412e-06 -3.48361e-05 1.17683e-05
4.38979e-05 1.61164e-05 -0.000110984 9.56709e-06 -3.53454e-05 1.15538e-05
4.44865e-05 1.53455e-05 -0.000111513 1.03254e-05 -3.58133e-05 1.13015e-05
4.51105e-05 1.4559e-05 -0.000112099 1.10966e-05 -3.62292e-05 1.10054e-05
4.57718e-05 1.37634e-05 -0.000112756 1.18797e-05 -3.6583e-05 1.06665e-05
4.6473e-05 1.29581e-05 -0.000113479 1.26751e-05 -3.68448e-05 1.03409e-05
4.11851e-05 2.03417e-05 -0.00010924 6.1988e-06 -3.2501e-05 1.28686e-05
4.16314e-05 1.97396e-05 -0.000109582 6.89739e-06 -3.31147e-05 1.2716e-05
4.20937e-05 1.91228e-05 -0.000109993 7.59657e-06 -3.3657e-05 1.25845e-05
4.25755e-05 1.84881e-05 -0.000110429 8.31275e-06 -3.42144e-05 1.24305e-05
4.30807e-05 1.78302e-05 -0.000110893 9.05496e-06 -3.47732e-05 1.22552e-05
4.36134e-05 1.71485e-05 -0.000111393 9.82698e-06 -3.53094e-05 1.20496e-05
4.41773e-05 1.64458e-05 -0.000111937 1.06232e-05 -3.58063e-05 1.18026e-05
4.4777e-05 1.57255e-05 -0.000112536 1.14342e-05 -3.62529e-05 1.1511e-05
4.54171e-05 1.50622e-05 -0.000113176 1.22637e-05 -3.65461e-05 1.11693e-05
4.60969e-05 1.43191e-05 -0.000113953 1.30952e-05 -3.69293e-05 1.08199e-05
4.1018e-05 2.10363e-05 -0.000109542 6.3358e-06 -3.22368e-05 1.33405e-05
4.14401e-05 2.05017e-05 -0.000109919 7.06484e-06 -3.28581e-05 1.31786e-05
4.18741e-05 1.99631e-05 -0.00011035 7.7811e-06 -3.34235e-05 1.30564e-05
4.2329e-05 1.94069e-05 -0.000110807 8.50947e-06 -3.40065e-05 1.29166e-05
4.28086e-05 1.88239e-05 -0.00011129 9.26811e-06 -3.45906e-05 1.27598e-05
4.33155e-05 1.82155e-05 -0.000111808 1.00699e-05 -3.515e-05 1.25707e-05
4.38532e-05 1.75866e-05 -0.00011237 1.09086e-05 -3.5672e-05 1.2333e-05
4.4431e-05 1.69398e-05 -0.000112977 1.16641e-05 -3.61341e-05 1.19829e-05
4.50504e-05 1.62665e-05 -0.000113635 1.2468e-05 -3.64914e-05 1.17028e-05
4.08415e-05 2.17045e-05 -0.000109846 6.46769e-06 -3.18653e-05 1.38122e-05
4.12379e-05 2.12955e-05 -0.00011026 7.18403e-06 -3.24722e-05 1.365e-05
4.16437e-05 2.08824e-05 -0.000110707 7.92307e-06 -3.30567e-05 1.35439e-05
4.20721e-05 2.0397e-05 -0.000111184 8.69906e-06 -3.36592e-05 1.3427e-05
4.25244e-05 1.98582e-05 -0.000111689 9.51092e-06 -3.42621e-05 1.32931e-05
4.30034e-05 1.93016e-05 -0.00011223 1.03492e-05 -3.48421e-05 1.31222e-05
4.35146e-05 1.87526e-05 -0.000112819 1.1209e-05 -3.53978e-05 1.28934e-05
4.40697e-05 1.81942e-05 -0.000113435 1.21237e-05 -3.59254e-05 1.25136e-05
0 0 0 0 0 0
0 0 0 0 0 0
0 0 0 0 0 0
0 0 0 0 0 0
0 0 0 0 0 0
0 0 0 0 0 0
0 0 0 0 0 0
0 0 0 0 0 0
0 0 0 0 0 0
0 0 0 0 0 0
0 0 0 0 0 0
0 0 0 0 0 0
0 0 0 0 0 0
0 0 0 0 0 0
0 0 0 0 0 0
0 0 0 0 0 0
0 0 0 0 0 0
0 0 0 0 0 0
0 0 0 0 0 0
0 0 0 0 0 0
0 0 0 0 0 0
0 0 0 0 0 0
0 0 0 0 0 0
0 0 0 0 0 0
0 0 0 0 0 0
0 0 0 0 0 0
0 0 0 0 0 0
0 0 0 0 0 0
0 0 0 0 0 0
0 0 0 0 0 0
0 0 0 0 0 0
0 0 0 0 0 0
0 0 0 0 0 0
0 0 0 0 0 0
0 0 0 0 0 0
0 0 0 0 0 0
0 0 0 0 0 0
0 0 0 0 0 0
0 0 0 0 0 0
0 0 0 0 0 0
0 0 0 0 0 0
0 0 0 0 0 0
0 0 0 0 0 0
0 0 0 0 0 0
0 0 0 0 0 0
0 0 0 0 0 0
0 0 0 0 0 0
0 0 0 0 0 0
0 0 0 0 0 0
0 0 0 0 0 0
0 0 0 0 0 0
0 0 0 0 0 0
0 0 0 0 0 0
0 0 0 0 0 0
0 0 0 0 0 0
0 0 0 0 0 0
0 0 0 0 0 0
0 0 0 0 0 0
0 0 0 0 0 0
0 0 0 0 0 0
0 0 0 0 0 0
0 0 0 0 0 0
0 0 0 0 0 0
0 0 0 0 0 0
0 0 0 0 0 0
0 0 0 0 0 0
0 0 0 0 0 0
0 0 0 0 0 0
0 0 0 0 0 0
0 0 0 0 0 0
0 0 0 0 0 0
0 0 0 0 0 0
0 0 0 0 0 0
0 0 0 0 0 0
0 0 0 0 0 0
0 0 0 0 0 0
0 0 0 0 0 0
0 0 0 0 0 0
0 0 0 0 0 0
4.4179e-05 9.48677e-06 -0.000109033 6.05957e-06 -3.7995e-05 1.02473e-05
4.49353e-05 8.4066e-06 -0.000109574 6.51573e-06 -3.82956e-05 1.01429e-05
4.57374e-05 7.24081e-06 -0.000110143 7.03012e-06 -3.85815e-05 9.94363e-06
4.65766e-05 6.07108e-06 -0.00011085 7.47822e-06 -3.88399e-05 9.83929e-06
4.745e-05 4.94826e-06 -0.000111636 7.90821e-06 -3.895e-05 9.61877e-06
4.191e-05 1.36182e-05 -0.000108057 4.87534e-06 -3.72093e-05 1.09507e-05
4.25435e-05 1.25877e-05 -0.000108526 5.31452e-06 -3.7665e-05 1.08331e-05
4.32063e-05 1.15398e-05 -0.000108932 5.71803e-06 -3.81481e-05 1.07594e-05
4.39003e-05 1.04295e-05 -0.000109393 6.24999e-06 -3.85629e-05 1.06106e-05
4.46362e-05 9.29144e-06 -0.000109938 6.79073e-06 -3.89511e-05 1.05048e-05
4.54145e-05 8.18174e-06 -0.00011052 7.23793e-06 -3.92539e-05 1.03381e-05
4.62276e-05 7.09142e-06 -0.000111208 7.73035e-06 -3.95108e-05 1.01812e-05
4.70797e-05 6.02671e-06 -0.000111998 8.274e-06 -3.96365e-05 1.0006e-05
4.10805e-05 1.54095e-05 -0.000108257 4.6699e-06 -3.71067e-05 1.14604e-05
4.16791e-05 1.43726e-05 -0.000108445 5.11501e-06 -3.75089e-05 1.13534e-05
4.22938e-05 1.33517e-05 -0.000108882 5.49676e-06 -3.81666e-05 1.12322e-05
4.29368e-05 1.23478e-05 -0.000109301 5.99198e-06 -3.86707e-05 1.1145e-05
4.36099e-05 1.134e-05 -0.00010978 6.49659e-06 -3.91075e-05 1.10308e-05
4.4322e-05 1.03097e-05 -0.000110309 6.97951e-06 -3.94788e-05 1.08831e-05
4.50735e-05 9.26382e-06 -0.000110903 7.46354e-06 -3.9807e-05 1.07135e-05
4.58614e-05 8.22285e-06 -0.00011159 7.98298e-06 -4.00711e-05 1.05383e-05
4.66888e-05 7.19309e-06 -0.000112375 8.54784e-06 -4.02201e-05 1.03828e-05
4.03174e-05 1.68175e-05 -0.000108238 4.39802e-06 -3.6967e-05 1.19838e-05
4.08636e-05 1.59869e-05 -0.000108518 4.8247e-06 -3.75391e-05 1.19108e-05
4.14402e-05 1.51643e-05 -0.00010887 5.19191e-06 -3.79916e-05 1.17574e-05
4.20362e-05 1.42314e-05 -0.000109246 5.6536e-06 -3.85096e-05 1.16653e-05
4.2656e-05 1.32926e-05 -0.000109675 6.15163e-06 -3.90216e-05 1.15615e-05
4.33058e-05 1.23428e-05 -0.000110159 6.66517e-06 -3.94887e-05 1.14375e-05
4.3992e-05 1.13741e-05 -0.000110696 7.17505e-06 -3.98995e-05 1.12872e-05
4.47162e-05 1.03908e-05 -0.000111298 7.69281e-06 -4.02557e-05 1.11134e-05
4.54785e-05 9.40364e-06 -0.000111986 8.23476e-06 -4.05417e-05 1.09252e-05
4.62814e-05 8.41638e-06 -0.000112771 8.81656e-06 -4.07186e-05 1.07751e-05
4.01233e-05 1.76166e-05 -0.00010851 4.42693e-06 -3.71159e-05 1.24282e-05
4.06481e-05 1.68245e-05 -0.000108842 4.88459e-06 -3.76892e-05 1.23106e-05
4.11974e-05 1.59904e-05 -0.000109211 5.33211e-06 -3.82016e-05 1.22178e-05
4.17675e-05 1.51386e-05 -0.000109612 5.80491e-06 -3.87352e-05 1.21158e-05
4.23621e-05 1.42717e-05 -0.000110058 6.31011e-06 -3.92653e-05 1.20021e-05
4.29866e-05 1.33877e-05 -0.00011055 6.83665e-06 -3.97619e-05 1.18711e-05
4.36457e-05 1.24843e-05 -0.000111096 7.37249e-06 -4.02078e-05 1.17175e-05
4.43425e-05 1.15653e-05 -0.000111707 7.92066e-06 -4.05944e-05 1.15412e-05
4.50785e-05 1.06378e-05 -0.000112399 8.4856e-06 -4.09102e-05 1.13448e-05
4.58574e-05 9.70352e-06 -0.000113184 9.07984e-06 -4.11182e-05 1.11831e-05
3.99228e-05 1.83134e-05 -0.000108824 4.51699e-06 -3.71202e-05 1.28764e-05
4.04227e-05 1.75947e-05 -0.000109159 4.99946e-06 -3.77398e-05 1.27765e-05
4.0945e-05 1.68456e-05 -0.000109558 5.46382e-06 -3.8281e-05 1.26841e-05
4.14875e-05 1.60766e-05 -0.000109984 5.94872e-06 -3.88378e-05 1.258e-05
4.2055e-05 1.52864e-05 -0.000110447 6.46434e-06 -3.93922e-05 1.24636e-05
4.26522e-05 1.4474e-05 -0.000110953 7.0069e-06 -3.99186e-05 1.23303e-05
4.32831e-05 1.36402e-05 -0.00011151 7.56728e-06 -4.03975e-05 1.21752e-05
4.39517e-05 1.27889e-05 -0.00011213 8.1436e-06 -4.08163e-05 1.19985e-05
4.46607e-05 1.19268e-05 -0.000112829 8.73452e-06 -4.11633e-05 1.18007e-05
4.54149e-05 1.10531e-05 -0.00011361 9.34222e-06 -4.14093e-05 1.16167e-05
3.9719e-05 1.90432e-05 -0.00010914 4.59955e-06 -3.70119e-05 1.33335e-05
4.01908e-05 1.83959e-05 -0.000109489 5.10608e-06 -3.76601e-05 1.32369e-05
4.06829e-05 1.77316e-05 -0.000109912 5.58688e-06 -3.82303e-05 1.31543e-05
4.11959e-05 1.70468e-05 -0.000110362 6.08298e-06 -3.88139e-05 1.30551e-05
4.17346e-05 1.63364e-05 -0.000110844 6.61086e-06 -3.93954e-05 1.29436e-05
4.23027e-05 1.56005e-05 -0.000111365 7.17153e-06 -3.99505e-05 1.2815e-05
4.29037e-05 1.48414e-05 -0.000111935 7.75576e-06 -4.04609e-05 1.26621e-05
4.3543e-05 1.40623e-05 -0.000112566 8.3591e-06 -4.0913e-05 1.24859e-05
4.42266e-05 1.33405e-05 -0.000113249 8.98965e-06 -4.12052e-05 1.22735e-05
4.49552e-05 1.25355e-05 -0.000114078 9.61691e-06 -4.15761e-05 1.20614e-05
3.95101e-05 1.97999e-05 -0.000109453 4.6808e-06 -3.67976e-05 1.38025e-05
3.99524e-05 1.92273e-05 -0.000109832 5.20687e-06 -3.74558e-05 1.36944e-05
4.04111e-05 1.86481e-05 -0.000110274 5.7006e-06 -3.80512e-05 1.3627e-05
4.08929e-05 1.80486e-05 -0.000110746 6.20573e-06 -3.86616e-05 1.3539e-05
4.14011e-05 1.74204e-05 -0.000111246 6.74545e-06 -3.92698e-05 1.34411e-05
4.19381e-05 1.6765e-05 -0.000111783 7.32574e-06 -3.98494e-05 1.33274e-05
4.25075e-05 1.6087e-05 -0.00011237 7.93479e-06 -4.0388e-05 1.31814e-05
4.31207e-05 1.53904e-05 -0.000113007 8.47349e-06 -4.08586e-05 1.29383e-05
4.378e-05 1.46657e-05 -0.000113711 9.07406e-06 -4.12169e-05 1.27664e-05
3.92917e-05 2.0536e-05 -0.000109766 4.77299e-06 -3.64625e-05 1.4262e-05
3.97033e-05 2.00964e-05 -0.00011018 5.25794e-06 -3.71086e-05 1.41534e-05
4.01291e-05 1.96523e-05 -0.000110637 5.76774e-06 -3.77274e-05 1.41094e-05
4.05784e-05 1.91321e-05 -0.000111128 6.31891e-06 -3.83605e-05 1.40468e-05
4.10528e-05 1.85536e-05 -0.000111648 6.90521e-06 -3.89886e-05 1.39718e-05
4.15554e-05 1.79549e-05 -0.000112208 7.51482e-06 -3.95885e-05 1.38774e-05
4.20925e-05 1.73644e-05 -0.00011282 8.13406e-06 -4.016e-05 1.37394e-05
4.26791e-05 1.67652e-05 -0.000113464 8.81553e-06 -4.06964e-05 1.3457e-05
4.63249e-05 7.40238e-06 -0.000108969 4.65397e-06 -4.21098e-05 1.1553e-05
4.71396e-05 6.24119e-06 -0.00010955 4.94381e-06 -4.24285e-05 1.14778e-05
4.7999e-05 4.98588e-06 -0.000110165 5.28696e-06 -4.27065e-05 1.13363e-05
4.88994e-05 3.72066e-06 -0.000110931 5.57176e-06 -4.29219e-05 1.12624e-05
4.98467e-05 2.49493e-06 -0.000111796 5.87424e-06 -4.3012e-05 1.10475e-05
4.38854e-05 1.18584e-05 -0.000107919 3.85554e-06 -4.1395e-05 1.21516e-05
4.4562e-05 1.07472e-05 -0.000108404 4.08323e-06 -4.1869e-05 1.20355e-05
4.52804e-05 9.62329e-06 -0.000108839 4.29145e-06 -4.23638e-05 1.19605e-05
4.60321e-05 8.42135e-06 -0.000109337 4.64592e-06 -4.27837e-05 1.1814e-05
4.68219e-05 7.18585e-06 -0.000109918 5.01044e-06 -4.31887e-05 1.17385e-05
4.76533e-05 5.99084e-06 -0.00011054 5.27744e-06 -4.34904e-05 1.16159e-05
4.85289e-05 4.81323e-06 -0.000111286 5.60034e-06 -4.37347e-05 1.14822e-05
4.94566e-05 3.6577e-06 -0.000112159 6.00463e-06 -4.3835e-05 1.1324e-05
4.30146e-05 1.37945e-05 -0.000108127 3.66523e-06 -4.13618e-05 1.25282e-05
4.36462e-05 1.26837e-05 -0.000108317 3.91393e-06 -4.17955e-05 1.24316e-05
4.4301e-05 1.15822e-05 -0.000108771 4.07686e-06 -4.24744e-05 1.23234e-05
4.49959e-05 1.04955e-05 -0.000109218 4.36994e-06 -4.29937e-05 1.2239e-05
4.5724e-05 9.40324e-06 -0.00010973 4.69387e-06 -4.3443e-05 1.21323e-05
4.64883e-05 8.29045e-06 -0.000110293 4.99765e-06 -4.38222e-05 1.20117e-05
4.72929e-05 7.16296e-06 -0.000110928 5.29758e-06 -4.41497e-05 1.18772e-05
4.81427e-05 6.03704e-06 -0.000111671 5.64194e-06 -4.44032e-05 1.17274e-05
4.90435e-05 4.92045e-06 -0.000112528 6.04656e-06 -4.45286e-05 1.15882e-05
4.22121e-05 1.53374e-05 -0.00010811 3.43933e-06 -4.13115e-05 1.28928e-05
4.27898e-05 1.44351e-05 -0.000108398 3.66753e-06 -4.1897e-05 1.28375e-05
4.33994e-05 1.35361e-05 -0.000108755 3.82485e-06 -4.23715e-05 1.27036e-05
4.40351e-05 1.25315e-05 -0.000109148 4.0629e-06 -4.29119e-05 1.26318e-05
4.47018e-05 1.15171e-05 -0.000109602 4.35031e-06 -4.34417e-05 1.25392e-05
4.54018e-05 1.04898e-05 -0.000110115 4.6668e-06 -4.3923e-05 1.2428e-05
4.6138e-05 9.44398e-06 -0.000110685 4.98413e-06 -4.43426e-05 1.2301e-05
4.69151e-05 8.38291e-06 -0.000111329 5.30984e-06 -4.46993e-05 1.21567e-05
4.77371e-05 7.31493e-06 -0.00011207 5.66577e-06 -4.49768e-05 1.19965e-05
4.86091e-05 6.24494e-06 -0.000112922 6.06854e-06 -4.51338e-05 1.18651e-05
4.20099e-05 1.61751e-05 -0.00010839 3.32118e-06 -4.15221e-05 1.32144e-05
4.25657e-05 1.53244e-05 -0.00010873 3.56198e-06 -4.21267e-05 1.31042e-05
4.3148e-05 1.44283e-05 -0.000109109 3.78485e-06 -4.26673e-05 1.30357e-05
4.37556e-05 1.35116e-05 -0.000109527 4.03216e-06 -4.3225e-05 1.29551e-05
4.43931e-05 1.25764e-05 -0.000109995 4.31889e-06 -4.37753e-05 1.28571e-05
4.50636e-05 1.16217e-05 -0.000110515 4.63502e-06 -4.42881e-05 1.27413e-05
4.57706e-05 1.06467e-05 -0.000111092 4.96504e-06 -4.47443e-05 1.26081e-05
4.65187e-05 9.6546e-06 -0.000111743 5.30953e-06 -4.51332e-05 1.24575e-05
4.73117e-05 8.65146e-06 -0.000112485 5.67453e-06 -4.54423e-05 1.22902e-05
4.81552e-05 7.63952e-06 -0.000113333 6.0743e-06 -4.56326e-05 1.21541e-05
4.17987e-05 1.69284e-05 -0.000108714 3.23487e-06 -4.15996e-05 1.35518e-05
4.23302e-05 1.61576e-05 -0.000109059 3.49497e-06 -4.22549e-05 1.3446e-05
4.28841e-05 1.53535e-05 -0.000109469 3.73103e-06 -4.28248e-05 1.33736e-05
4.34619e-05 1.45263e-05 -0.000109912 3.9868e-06 -4.34075e-05 1.32898e-05
4.4069e-05 1.36749e-05 -0.000110395 4.27617e-06 -4.39843e-05 1.31899e-05
4.47089e-05 1.27987e-05 -0.000110926 4.59606e-06 -4.45292e-05 1.30717e-05
4.53853e-05 1.1899e-05 -0.000111513 4.93648e-06 -4.50207e-05 1.29347e-05
4.61028e-05 1.09799e-05 -0.00011217 5.29533e-06 -4.54437e-05 1.27802e-05
4.68656e-05 1.00483e-05 -0.000112916 5.67115e-06 -4.57854e-05 1.26098e-05
4.76807e-05 9.1027e-06 -0.000113762 6.07071e-06 -4.60155e-05 1.24595e-05
4.15821e-05 1.77202e-05 -0.000109043 3.14557e-06 -4.15567e-05 1.38931e-05
4.20845e-05 1.70257e-05 -0.000109401 3.42104e-06 -4.22442e-05 1.37837e-05
4.26076e-05 1.63131e-05 -0.000109836 3.66773e-06 -4.28442e-05 1.37147e-05
4.3154e-05 1.55769e-05 -0.000110302 3.92909e-06 -4.34552e-05 1.3633e-05
4.37294e-05 1.48127e-05 -0.000110803 4.22275e-06 -4.40613e-05 1.35357e-05
4.43373e-05 1.40198e-05 -0.000111348 4.54773e-06 -4.46374e-05 1.34194e-05
4.49816e-05 1.32008e-05 -0.000111946 4.89569e-06 -4.51633e-05 1.3282e-05
4.56671e-05 1.23595e-05 -0.000112612 5.26641e-06 -4.5622e-05 1.31251e-05
4.64013e-05 1.1579e-05 -0.000113343 5.67591e-06 -4.59158e-05 1.29389e-05
4.71875e-05 1.07086e-05 -0.000114227 6.08058e-06 -4.62773e-05 1.27637e-05
4.13588e-05 1.85417e-05 -0.000109372 3.06472e-06 -4.14005e-05 1.42388e-05
4.18289e-05 1.79283e-05 -0.000109755 3.34705e-06 -4.20996e-05 1.41165e-05
4.2318e-05 1.73065e-05 -0.000110211 3.59686e-06 -4.27263e-05 1.40568e-05
4.28315e-05 1.66629e-05 -0.000110699 3.86091e-06 -4.33655e-05 1.39823e-05
4.33739e-05 1.59881e-05 -0.000111217 4.15832e-06 -4.40004e-05 1.38931e-05
4.39483e-05 1.52828e-05 -0.000111776 4.48789e-06 -4.46039e-05 1.37858e-05
4.45587e-05 1.45512e-05 -0.000112391 4.8402e-06 -4.51617e-05 1.36525e-05
4.52178e-05 1.38025e-05 -0.000113061 5.13567e-06 -4.56407e-05 1.34276e-05
4.59262e-05 1.30245e-05 -0.000113816 5.51116e-06 -4.60018e-05 1.3279e-05
4.11268e-05 1.93501e-05 -0.000109701 3.00875e-06 -4.11128e-05 1.45702e-05
4.15635e-05 1.88712e-05 -0.000110116 3.22473e-06 -4.18003e-05 1.44491e-05
4.20201e-05 1.83923e-05 -0.000110587 3.47204e-06 -4.24542e-05 1.44032e-05
4.24995e-05 1.78354e-05 -0.000111094 3.77208e-06 -4.312e-05 1.43442e-05
4.30045e-05 1.72151e-05 -0.000111631 4.10477e-06 -4.37752e-05 1.42721e-05
4.35409e-05 1.65732e-05 -0.000112212 4.4519e-06 -4.4398e-05 1.41797e-05
4.41157e-05 1.59407e-05 -0.00011285 4.80167e-06 -4.49885e-05 1.40525e-05
4.47469e-05 1.52965e-05 -0.000113527 5.22461e-06 -4.55317e-05 1.37896e-05
4.6488e-05 5.29549e-06 -0.000108837 3.90151e-06 -4.62424e-05 1.40089e-05
4.73526e-05 4.04988e-06 -0.000109447 4.03805e-06 -4.65732e-05 1.40696e-05
4.82638e-05 2.7024e-06 -0.000110101 4.26548e-06 -4.68441e-05 1.40844e-05
4.92204e-05 1.33964e-06 -0.000110926 4.39009e-06 -4.70242e-05 1.41611e-05
5.02328e-05 1.17491e-08 -0.000111859 4.47052e-06 -4.70946e-05 1.41122e-05
4.38895e-05 1.00761e-05 -0.000107732 3.53125e-06 -4.55965e-05 1.41576e-05
4.46007e-05 8.88223e-06 -0.00010823 3.62827e-06 -4.60837e-05 1.41168e-05
4.53626e-05 7.68119e-06 -0.00010869 3.68593e-06 -4.6588e-05 1.41282e-05
4.61596e-05 6.38995e-06 -0.000109215 3.86441e-06 -4.70128e-05 1.40935e-05
4.69939e-05 5.05866e-06 -0.000109824 4.07828e-06 -4.74299e-05 1.41543e-05
4.78721e-05 3.77579e-06 -0.000110481 4.21489e-06 -4.77309e-05 1.41786e-05
4.88045e-05 2.50928e-06 -0.000111281 4.36616e-06 -4.79639e-05 1.4195e-05
4.97963e-05 1.26074e-06 -0.000112225 4.54947e-06 -4.80435e-05 1.42076e-05
4.29697e-05 1.21581e-05 -0.000107954 3.41858e-06 -4.5634e-05 1.42475e-05
4.36248e-05 1.09732e-05 -0.000108144 3.54945e-06 -4.60966e-05 1.42365e-05
4.43114e-05 9.79252e-06 -0.000108612 3.59537e-06 -4.67894e-05 1.42134e-05
4.50451e-05 8.62315e-06 -0.000109081 3.73688e-06 -4.732e-05 1.42228e-05
4.58147e-05 7.44542e-06 -0.000109619 3.89269e-06 -4.77788e-05 1.42296e-05
4.66202e-05 6.2479e-06 -0.000110208 4.04456e-06 -4.81643e-05 1.42428e-05
4.74697e-05 5.03644e-06 -0.000110879 4.19441e-06 -4.84913e-05 1.4256e-05
4.83736e-05 3.82412e-06 -0.000111671 4.3575e-06 -4.87349e-05 1.42642e-05
4.9335e-05 2.61853e-06 -0.000112593 4.54007e-06 -4.88419e-05 1.42928e-05
4.21232e-05 1.38398e-05 -0.000107948 3.25902e-06 -4.56689e-05 1.43043e-05
4.27242e-05 1.28627e-05 -0.000108239 3.37485e-06 -4.62666e-05 1.43381e-05
4.33558e-05 1.18871e-05 -0.000108598 3.42188e-06 -4.67581e-05 1.42949e-05
4.40206e-05 1.08104e-05 -0.000109004 3.54664e-06 -4.73159e-05 1.43151e-05
4.47208e-05 9.7202e-06 -0.000109478 3.6899e-06 -4.78597e-05 1.43236e-05
4.54572e-05 8.61429e-06 -0.000110014 3.84549e-06 -4.83522e-05 1.43287e-05
4.62315e-05 7.48929e-06 -0.00011061 4.0032e-06 -4.8779e-05 1.4335e-05
4.70509e-05 6.34815e-06 -0.000111288 4.16402e-06 -4.91363e-05 1.43396e-05
4.79235e-05 5.19774e-06 -0.000112074 4.33478e-06 -4.94055e-05 1.43425e-05
4.88518e-05 4.04385e-06 -0.000112986 4.51869e-06 -4.95457e-05 1.43804e-05
4.19059e-05 1.47152e-05 -0.000108244 3.10919e-06 -4.59382e-05 1.44245e-05
4.24822e-05 1.38041e-05 -0.000108582 3.23246e-06 -4.65696e-05 1.4386e-05
4.30845e-05 1.28451e-05 -0.00010897 3.35363e-06 -4.71329e-05 1.44072e-05
4.37168e-05 1.18629e-05 -0.0001094 3.48458e-06 -4.771e-05 1.44227e-05
4.43829e-05 1.08587e-05 -0.000109885 3.63063e-06 -4.82771e-05 1.44302e-05
4.50852e-05 9.83219e-06 -0.000110426 3.78839e-06 -4.88035e-05 1.44327e-05
4.58268e-05 8.78346e-06 -0.000111029 3.95219e-06 -4.92686e-05 1.44329e-05
4.66137e-05 7.71608e-06 -0.000111711 4.12124e-06 -4.96595e-05 1.44309e-05
4.74532e-05 6.63534e-06 -0.000112495 4.29784e-06 -4.99618e-05 1.44293e-05
4.83481e-05 5.54481e-06 -0.000113401 4.48479e-06 -5.01356e-05 1.44687e-05
4.168e-05 1.55253e-05 -0.000108584 3.02131e-06 -4.60815e-05 1.45481e-05
4.22301e-05 1.47004e-05 -0.00010893 3.14767e-06 -4.67673e-05 1.45047e-05
4.28006e-05 1.38401e-05 -0.000109347 3.27526e-06 -4.73612e-05 1.45219e-05
4.33993e-05 1.29539e-05 -0.000109801 3.41073e-06 -4.79656e-05 1.45349e-05
4.40306e-05 1.20404e-05 -0.000110301 3.55969e-06 -4.85619e-05 1.45414e-05
4.46979e-05 1.1099e-05 -0.000110851 3.72052e-06 -4.91231e-05 1.45413e-05
4.54051e-05 1.01313e-05 -0.000111461 3.8895e-06 -4.96257e-05 1.4537e-05
4.61576e-05 9.14228e-06 -0.000112148 4.06481e-06 -5.00525e-05 1.45298e-05
4.69622e-05 8.1389e-06 -0.000112933 4.24706e-06 -5.03889e-05 1.45244e-05
4.78238e-05 7.12035e-06 -0.000113834 4.43858e-06 -5.06022e-05 1.45573e-05
4.14483e-05 1.63792e-05 -0.000108932 2.92596e-06 -4.60985e-05 1.46731e-05
4.19671e-05 1.56357e-05 -0.000109289 3.05783e-06 -4.68177e-05 1.46228e-05
4.2504e-05 1.48734e-05 -0.000109732 3.18801e-06 -4.74434e-05 1.46376e-05
4.3068e-05 1.4085e-05 -0.00011021 3.32615e-06 -4.80778e-05 1.46501e-05
4.36635e-05 1.32658e-05 -0.000110726 3.47743e-06 -4.87063e-05 1.46562e-05
4.42947e-05 1.24143e-05 -0.000111288 3.64077e-06 -4.9302e-05 1.46549e-05
4.49662e-05 1.1533e-05 -0.000111908 3.81334e-06 -4.98416e-05 1.46478e-05
4.56825e-05 1.06274e-05 -0.000112601 3.99414e-06 -5.0306e-05 1.46366e-05
4.64526e-05 9.78714e-06 -0.00011337 4.20255e-06 -5.05987e-05 1.46195e-05
4.72798e-05 8.84947e-06 -0.000114301 4.3992e-06 -5.09514e-05 1.46313e-05
4.12113e-05 1.72652e-05 -0.00010928 2.82802e-06 -4.59943e-05 1.47999e-05
4.1694e-05 1.66098e-05 -0.00010966 2.96423e-06 -4.67265e-05 1.47378e-05
4.21951e-05 1.5944e-05 -0.000110124 3.09327e-06 -4.73794e-05 1.47535e-05
4.27228e-05 1.52555e-05 -0.000110624 3.23164e-06 -4.80436e-05 1.47669e-05
4.32815e-05 1.45329e-05 -0.000111157 3.38352e-06 -4.87039e-05 1.47742e-05
4.38755e-05 1.37757e-05 -0.000111733 3.54752e-06 -4.93307e-05 1.47739e-05
4.45096e-05 1.29878e-05 -0.000112366 3.72219e-06 -4.99053e-05 1.47662e-05
4.51966e-05 1.21841e-05 -0.000113062 3.81857e-06 -5.03909e-05 1.46948e-05
4.59362e-05 1.13497e-05 -0.000113857 3.97881e-06 -5.07522e-05 1.47219e-05
4.0966e-05 1.81482e-05 -0.000109627 2.74831e-06 -4.5748e-05 1.49124e-05
4.14118e-05 1.76273e-05 -0.00011004 2.8249e-06 -4.64699e-05 1.48512e-05
4.18801e-05 1.71082e-05 -0.00011052 2.94139e-06 -4.71547e-05 1.48678e-05
4.2371e-05 1.65117e-05 -0.000111038 3.10735e-06 -4.78505e-05 1.48838e-05
4.2888e-05 1.58487e-05 -0.000111589 3.29421e-06 -4.85307e-05 1.48973e-05
4.34387e-05 1.51642e-05 -0.000112185 3.47572e-06 -4.91743e-05 1.49025e-05
4.40318e-05 1.44896e-05 -0.000112841 3.64841e-06 -4.97807e-05 1.48961e-05
4.46872e-05 1.37997e-05 -0.000113541 3.86428e-06 -5.03296e-05 1.47933e-05
2.58893e-05 5.02113e-05 -0.000108237 1.87635e-06 4.06737e-05 8.67955e-06
2.54354e-05 5.07546e-05 -0.000107739 2.26455e-06 4.01851e-05 8.34193e-06
2.49229e-05 5.13968e-05 -0.00010719 2.7084e-06 3.9476e-05 7.95702e-06
2.43378e-05 5.21079e-05 -0.000106582 3.00337e-06 3.87631e-05 7.57026e-06
2.36665e-05 5.27425e-05 -0.000105807 3.33184e-06 3.80259e-05 7.17622e-06
2.73226e-05 4.81233e-05 -0.000109174 1.01354e-06 4.32951e-05 9.76153e-06
2.70321e-05 4.86236e-05 -0.000109067 1.26122e-06 4.28967e-05 9.47817e-06
2.6689e-05 4.9095e-05 -0.000108896 1.46041e-06 4.24772e-05 9.2372e-06
2.63145e-05 4.95875e-05 -0.000108593 1.81098e-06 4.20144e-05 8.92989e-06
2.58996e-05 5.0104e-05 -0.000108155 2.28392e-06 4.14918e-05 8.61706e-06
2.54222e-05 5.06538e-05 -0.000107642 2.69395e-06 4.08124e-05 8.2025e-06
2.4872e-05 5.12851e-05 -0.000107065 3.04045e-06 4.00824e-05 7.78826e-06
2.42433e-05 5.19423e-05 -0.000106382 3.42363e-06 3.93112e-05 7.43727e-06
2.7859e-05 4.71611e-05 -0.000109607 6.97696e-07 4.46756e-05 1.01696e-05
2.76412e-05 4.7547e-05 -0.00010946 1.00633e-06 4.44703e-05 9.97224e-06
2.7386e-05 4.80147e-05 -0.000109381 1.245e-06 4.40827e-05 9.71571e-06
2.70877e-05 4.85066e-05 -0.000109228 1.5232e-06 4.37015e-05 9.48906e-06
2.67515e-05 4.89865e-05 -0.000108962 1.869e-06 4.32838e-05 9.21105e-06
2.63701e-05 4.94622e-05 -0.00010858 2.28735e-06 4.27593e-05 8.86345e-06
2.59317e-05 4.99713e-05 -0.000108113 2.70156e-06 4.21094e-05 8.47342e-06
2.5427e-05 5.05333e-05 -0.000107562 3.08317e-06 4.13863e-05 8.06216e-06
2.48473e-05 5.1125e-05 -0.000106947 3.4791e-06 4.05836e-05 7.70801e-06
2.83367e-05 4.60613e-05 -0.000109754 2.62953e-07 4.61206e-05 1.06241e-05
2.81655e-05 4.65264e-05 -0.000109801 5.79745e-07 4.58526e-05 1.04185e-05
2.79818e-05 4.70412e-05 -0.000109738 8.69376e-07 4.57206e-05 1.01952e-05
2.77595e-05 4.74614e-05 -0.000109677 1.19171e-06 4.53793e-05 9.97005e-06
2.75029e-05 4.78961e-05 -0.000109552 1.51262e-06 4.49856e-05 9.73261e-06
2.72069e-05 4.83321e-05 -0.000109333 1.87461e-06 4.45369e-05 9.45469e-06
2.68654e-05 4.87726e-05 -0.00010901 2.2835e-06 4.40018e-05 9.12434e-06
2.64696e-05 4.92372e-05 -0.000108593 2.70378e-06 4.33647e-05 8.75204e-06
2.60103e-05 4.97388e-05 -0.00010808 3.1164e-06 4.26442e-05 8.34826e-06
2.54779e-05 5.02654e-05 -0.000107521 3.5392e-06 4.18185e-05 7.98515e-06
2.86059e-05 4.5798e-05 -0.000109935 1.35977e-07 4.74562e-05 1.08913e-05
2.84791e-05 4.61561e-05 -0.000109977 4.49073e-07 4.72053e-05 1.0644e-05
2.83284e-05 4.6509e-05 -0.000109997 7.93985e-07 4.69591e-05 1.04456e-05
2.81479e-05 4.68787e-05 -0.000109974 1.13965e-06 4.66293e-05 1.02283e-05
2.79336e-05 4.72599e-05 -0.000109888 1.49107e-06 4.62282e-05 9.99041e-06
2.76808e-05 4.7646e-05 -0.000109715 1.86699e-06 4.57606e-05 9.71793e-06
2.73831e-05 4.80402e-05 -0.000109445 2.27465e-06 4.52163e-05 9.40061e-06
2.7033e-05 4.84556e-05 -0.00010908 2.70327e-06 4.45842e-05 9.03977e-06
2.66212e-05 4.89019e-05 -0.000108616 3.14577e-06 4.38623e-05 8.64179e-06
2.61392e-05 4.9374e-05 -0.000108102 3.6019e-06 4.30261e-05 8.27164e-06
2.88772e-05 4.53413e-05 -0.000110127 8.10724e-08 4.86701e-05 1.11119e-05
2.87969e-05 4.56437e-05 -0.000110189 3.76559e-07 4.83992e-05 1.08923e-05
2.86884e-05 4.59474e-05 -0.000110254 7.20681e-07 4.81595e-05 1.07073e-05
2.85502e-05 4.62672e-05 -0.000110273 1.08512e-06 4.78369e-05 1.04956e-05
2.83798e-05 4.65958e-05 -0.000110231 1.46061e-06 4.74305e-05 1.0262e-05
2.81726e-05 4.69276e-05 -0.000110104 1.84905e-06 4.69495e-05 9.99878e-06
2.79223e-05 4.7267e-05 -0.000109885 2.26067e-06 4.63984e-05 9.69282e-06
2.76211e-05 4.76283e-05 -0.000109574 2.70022e-06 4.57702e-05 9.3381e-06
2.72597e-05 4.8023e-05 -0.000109168 3.17031e-06 4.50491e-05 8.94136e-06
2.683e-05 4.8445e-05 -0.000108688 3.65738e-06 4.42033e-05 8.56463e-06
2.91618e-05 4.48802e-05 -0.000110318 2.31709e-08 4.98305e-05 1.13593e-05
2.91261e-05 4.51103e-05 -0.000110404 2.99461e-07 4.95475e-05 1.11687e-05
2.9061e-05 4.53577e-05 -0.000110507 6.42394e-07 4.93175e-05 1.09859e-05
2.89663e-05 4.56267e-05 -0.000110573 1.02636e-06 4.90039e-05 1.0774e-05
2.88411e-05 4.59032e-05 -0.000110579 1.42225e-06 4.85927e-05 1.05464e-05
2.86818e-05 4.61764e-05 -0.0001105 1.82179e-06 4.81e-05 1.02961e-05
2.84823e-05 4.64534e-05 -0.00011033 2.24128e-06 4.75448e-05 1.00012e-05
2.82335e-05 4.67551e-05 -0.000110075 2.69523e-06 4.69234e-05 9.64843e-06
2.79244e-05 4.71104e-05 -0.000109708 3.19229e-06 4.62548e-05 9.26173e-06
2.75502e-05 4.74874e-05 -0.000109303 3.70438e-06 4.53891e-05 8.87447e-06
2.94583e-05 4.44083e-05 -0.000110508 -4.81891e-08 5.09142e-05 1.16363e-05
2.94679e-05 4.45557e-05 -0.000110621 2.09392e-07 5.06348e-05 1.14775e-05
2.94465e-05 4.47371e-05 -0.000110755 5.56261e-07 5.0427e-05 1.12832e-05
2.93953e-05 4.49566e-05 -0.000110871 9.61863e-07 5.01299e-05 1.10632e-05
2.93158e-05 4.51821e-05 -0.000110928 1.37383e-06 4.9714e-05 1.08429e-05
2.92071e-05 4.53921e-05 -0.000110898 1.78408e-06 4.92101e-05 1.06082e-05
2.90628e-05 4.55988e-05 -0.00011078 2.21769e-06 4.86542e-05 1.03242e-05
2.88649e-05 4.58619e-05 -0.000110604 2.58845e-06 4.8027e-05 9.92705e-06
2.86088e-05 4.61672e-05 -0.000110235 3.03468e-06 4.73277e-05 9.61727e-06
2.97684e-05 4.38923e-05 -0.000110679 -1.08788e-07 5.19398e-05 1.19338e-05
2.98258e-05 4.40374e-05 -0.000110827 1.34555e-07 5.17121e-05 1.17868e-05
2.98485e-05 4.41502e-05 -0.000111005 4.86011e-07 5.15041e-05 1.15795e-05
2.98399e-05 4.42332e-05 -0.000111176 8.96447e-07 5.1193e-05 1.13685e-05
2.98071e-05 4.4369e-05 -0.000111279 1.32154e-06 5.07784e-05 1.1166e-05
2.97529e-05 4.45816e-05 -0.000111292 1.74934e-06 5.02915e-05 1.09349e-05
2.96678e-05 4.48076e-05 -0.000111228 2.19098e-06 4.97397e-05 1.06418e-05
2.95228e-05 4.49458e-05 -0.000111139 2.6781e-06 4.91265e-05 1.02343e-05
2.93424e-05 4.60488e-05 -0.000108298 4.7333e-06 3.27303e-05 7.48896e-06
2.90145e-05 4.63981e-05 -0.000107919 5.26152e-06 3.22795e-05 7.04967e-06
2.86343e-05 4.68482e-05 -0.000107491 5.95206e-06 3.1576e-05 6.58677e-06
2.81929e-05 4.73803e-05 -0.000107006 6.62545e-06 3.09255e-05 6.04759e-06
2.76812e-05 4.78395e-05 -0.000106368 7.3021e-06 3.02886e-05 5.4544e-06
3.04259e-05 4.45952e-05 -0.000109086 3.1914e-06 3.51252e-05 8.93487e-06
3.02198e-05 4.493e-05 -0.000109018 3.77759e-06 3.47435e-05 8.63051e-06
2.99671e-05 4.52382e-05 -0.000108887 4.31821e-06 3.43455e-05 8.30653e-06
2.97031e-05 4.55764e-05 -0.000108649 4.90239e-06 3.38841e-05 7.88167e-06
2.94129e-05 4.59323e-05 -0.000108331 5.52463e-06 3.33774e-05 7.4779e-06
2.90606e-05 4.63082e-05 -0.000107927 6.1761e-06 3.27423e-05 6.98811e-06
2.86415e-05 4.67619e-05 -0.000107467 6.90463e-06 3.20778e-05 6.43462e-06
2.81607e-05 4.72361e-05 -0.000106916 7.67045e-06 3.13811e-05 5.8951e-06
3.08295e-05 4.39171e-05 -0.000109474 2.79071e-06 3.63546e-05 9.48763e-06
3.06933e-05 4.41558e-05 -0.000109368 3.39413e-06 3.61463e-05 9.2948e-06
3.05174e-05 4.44764e-05 -0.000109326 3.95438e-06 3.57502e-05 9.0084e-06
3.03045e-05 4.48176e-05 -0.000109218 4.58152e-06 3.53733e-05 8.69857e-06
3.00729e-05 4.51403e-05 -0.000109025 5.20335e-06 3.49677e-05 8.32498e-06
2.98091e-05 4.54527e-05 -0.000108739 5.84153e-06 3.44664e-05 7.89638e-06
2.94906e-05 4.57976e-05 -0.000108378 6.52451e-06 3.38581e-05 7.4194e-06
2.91109e-05 4.61941e-05 -0.000107945 7.25725e-06 3.31977e-05 6.87891e-06
2.86675e-05 4.66158e-05 -0.000107464 8.02659e-06 3.24687e-05 6.35954e-06
3.11774e-05 4.30772e-05 -0.000109597 2.30156e-06 3.76891e-05 1.00968e-05
3.10861e-05 4.34058e-05 -0.000109669 2.90712e-06 3.73884e-05 9.8914e-06
3.09784e-05 4.37843e-05 -0.000109649 3.48898e-06 3.72299e-05 9.66232e-06
3.08315e-05 4.40668e-05 -0.000109621 4.12584e-06 3.68844e-05 9.40767e-06
3.06569e-05 4.43609e-05 -0.000109544 4.77859e-06 3.64932e-05 9.10487e-06
3.04574e-05 4.46499e-05 -0.000109392 5.44602e-06 3.60558e-05 8.74435e-06
3.02238e-05 4.49379e-05 -0.000109155 6.13485e-06 3.55436e-05 8.33148e-06
2.99408e-05 4.52484e-05 -0.000108839 6.85319e-06 3.49456e-05 7.86782e-06
2.96005e-05 4.55958e-05 -0.000108442 7.6047e-06 3.42843e-05 7.34201e-06
2.91991e-05 4.59673e-05 -0.000108016 8.38288e-06 3.35383e-05 6.83489e-06
3.14e-05 4.29315e-05 -0.000109788 2.35831e-06 3.88597e-05 1.05186e-05
3.13454e-05 4.31639e-05 -0.000109857 2.98483e-06 3.85875e-05 1.02663e-05
3.1266e-05 4.33905e-05 -0.000109908 3.63182e-06 3.83271e-05 1.00637e-05
3.11567e-05 4.36339e-05 -0.000109919 4.2927e-06 3.79889e-05 9.82098e-06
3.10196e-05 4.38858e-05 -0.000109879 4.97522e-06 3.75872e-05 9.52961e-06
3.08553e-05 4.41368e-05 -0.000109768 5.6819e-06 3.7129e-05 9.18402e-06
3.06568e-05 4.43904e-05 -0.000109579 6.41354e-06 3.66061e-05 8.78587e-06
3.0412e-05 4.46627e-05 -0.00010931 7.16809e-06 3.60104e-05 8.33473e-06
3.01117e-05 4.49655e-05 -0.000108956 7.94578e-06 3.53444e-05 7.82352e-06
2.97539e-05 4.52931e-05 -0.00010857 8.7422e-06 3.45885e-05 7.32107e-06
3.16245e-05 4.2595e-05 -0.000109989 2.42957e-06 3.99523e-05 1.09091e-05
3.16081e-05 4.27827e-05 -0.000110073 3.0913e-06 3.96614e-05 1.06767e-05
3.15658e-05 4.29726e-05 -0.000110166 3.76711e-06 3.94035e-05 1.04831e-05
3.14931e-05 4.31786e-05 -0.00011022 4.455e-06 3.90681e-05 1.02511e-05
3.13931e-05 4.33904e-05 -0.000110221 5.16736e-06 3.86572e-05 9.97295e-06
3.12666e-05 4.35998e-05 -0.000110153 5.9112e-06 3.81829e-05 9.64373e-06
3.11071e-05 4.38116e-05 -0.00011001 6.68428e-06 3.76509e-05 9.26061e-06
3.09036e-05 4.40417e-05 -0.000109789 7.47668e-06 3.70559e-05 8.82064e-06
3.06452e-05 4.4303e-05 -0.000109488 8.28307e-06 3.6386e-05 8.32301e-06
3.03313e-05 4.45903e-05 -0.000109126 9.10451e-06 3.56195e-05 7.82014e-06
3.18626e-05 4.22546e-05 -0.000110185 2.50773e-06 4.10072e-05 1.13205e-05
3.1884e-05 4.2385e-05 -0.000110296 3.19885e-06 4.07087e-05 1.11116e-05
3.18778e-05 4.2532e-05 -0.000110426 3.9023e-06 4.04556e-05 1.0922e-05
3.18404e-05 4.2701e-05 -0.000110522 4.61363e-06 4.01238e-05 1.06982e-05
3.17775e-05 4.28738e-05 -0.000110567 5.35288e-06 3.97036e-05 1.04339e-05
3.1691e-05 4.30382e-05 -0.000110544 6.13353e-06 3.92146e-05 1.01231e-05
3.15741e-05 4.32017e-05 -0.000110447 6.95094e-06 3.86758e-05 9.75642e-06
3.1415e-05 4.33854e-05 -0.000110278 7.78542e-06 3.8084e-05 9.32641e-06
3.12018e-05 4.3626e-05 -0.000110003 8.63447e-06 3.74781e-05 8.84318e-06
3.09325e-05 4.38763e-05 -0.000109717 9.47945e-06 3.66763e-05 8.33877e-06
3.21118e-05 4.19067e-05 -0.000110373 2.59495e-06 4.20074e-05 1.17522e-05
3.2173e-05 4.19697e-05 -0.000110526 3.31629e-06 4.17135e-05 1.15697e-05
3.22017e-05 4.2067e-05 -0.000110685 4.04418e-06 4.14782e-05 1.13801e-05
3.21982e-05 4.22004e-05 -0.000110824 4.77142e-06 4.11561e-05 1.11607e-05
3.21728e-05 4.23353e-05 -0.000110916 5.53188e-06 4.07265e-05 1.09105e-05
3.21284e-05 4.24513e-05 -0.000110939 6.34892e-06 4.02228e-05 1.06206e-05
3.20569e-05 4.25606e-05 -0.00011089 7.21463e-06 3.968e-05 1.02732e-05
3.19397e-05 4.27101e-05 -0.000110789 7.99587e-06 3.90817e-05 9.80711e-06
3.17712e-05 4.28937e-05 -0.000110512 8.82384e-06 3.8441e-05 9.40587e-06
3.23709e-05 4.15098e-05 -0.000110551 2.71562e-06 4.2963e-05 1.21947e-05
3.24719e-05 4.15897e-05 -0.000110749 3.43341e-06 4.27046e-05 1.20337e-05
3.25326e-05 4.16346e-05 -0.000110945 4.18603e-06 4.24699e-05 1.18469e-05
3.25637e-05 4.16449e-05 -0.000111131 4.95694e-06 4.21424e-05 1.16364e-05
3.25802e-05 4.1705e-05 -0.000111267 5.75412e-06 4.17186e-05 1.14028e-05
3.25835e-05 4.18394e-05 -0.000111333 6.58162e-06 4.12265e-05 1.11298e-05
3.25614e-05 4.19855e-05 -0.000111336 7.4388e-06 4.0675e-05 1.07967e-05
3.24856e-05 4.20433e-05 -0.000111307 8.36246e-06 4.00681e-05 1.03326e-05
SCALARS PreDamageArea int 1
LOOKUP_TABLE default
0
0
0
0
0
0
0
0
0
0
0
0
0
0
0
0
0
0
0
0
0
0
0
0
0
0
0
0
0
0
0
0
0
0
0
0
0
0
0
0
0
0
0
0
0
0
0
0
0
0
0
0
0
0
0
0
0
0
0
0
0
0
0
0
0
0
0
0
0
0
0
0
0
0
0
0
0
0
0
0
0
0
0
0
0
0
0
0
0
0
0
0
0
0
0
0
0
0
0
0
0
0
0
0
0
0
0
0
0
0
0
0
0
0
0
0
0
0
0
0
0
0
0
0
0
0
0
0
0
0
0
0
0
0
0
0
0
0
0
0
0
0
0
0
0
0
0
0
0
0
0
0
0
0
0
0
0
0
0
0
0
0
0
0
0
0
0
0
0
0
0
0
0
0
0
0
0
0
0
0
0
0
0
0
0
0
0
0
0
0
0
0
0
0
0
0
0
0
0
0
0
0
0
0
0
0
0
0
0
0
0
0
0
0
0
0
0
0
0
0
0
0
0
0
0
0
0
0
0
0
0
0
0
0
0
0
0
0
0
0
0
0
0
0
0
0
0
0
0
0
0
0
0
0
0
0
0
0
0
0
0
0
0
0
0
0
0
0
0
0
0
0
0
0
0
0
0
0
0
0
0
0
0
0
0
0
0
0
0
0
0
0
0
0
0
0
0
0
0
0
0
0
0
0
0
0
0
0
0
0
0
0
0
0
0
0
0
0
0
0
0
0
0
0
0
0
0
0
0
0
0
0
0
0
0
0
0
0
0
0
0
0
0
0
0
0
0
0
0
0
0
0
0
0
0
0
0
0
0
0
0
0
0
0
0
0
0
0
0
0
0
0
0
0
0
0
0
0
0
0
0
0
0
0
0
0
0
0
0
0
0
0
0
0
0
0
0
0
0
0
0
0
0
0
0
0
0
0
0
0
0
0
0
0
0
0
0
0
0
0
0
0
0
0
0
0
0
0
0
0
0
0
0
0
0
0
0
0
0
0
0
0
0
0
0
0
0
0
0
0
0
0
0
0
0
0
0
0
0
0
0
0
0
0
0
0
0
0
0
0
0
0
0
0
0
0
0
0
0
0
0
0
0
0
0
0
0
0
0
0
0
0
0
0
0
0
0
0
0
0
0
0
0
0
0
0
0
0
0
0
0
0
0
0
0
0
0
0
0
0
0
0
0
0
0
0
0
0
0
0
0
0
0
0
0
0
0
0
0
0
0
0
0
0
0
0
0
0
0
0
0
0
0
0
0
0
0
0
0
0
0
0
0
0
0
0
0
0
0
0
0
0
0
0
0
0
0
0
0
0
0
0
0
0
0
0
0
0
0
0
0
0
0
0
0
0
0
0
0
0
0
0
0
0
0
0
0
0
0
0
0
0
0
0
0
0
0
0
0
0
0
0
0
0
0
0
0
0
0
0
0
0
0
0
0
0
0
0
0
0
0
0
0
0
0
0
0
0
0
0
0
0
0
0
0
0
0
0
0
0
0
0
0
0
0
0
0
0
0
0
0
0
0
0
0
0
0
0
0
0
0
0
0
0
0
0
0
0
0
0
0
0
0
0
0
0
0
0
0
0
0
0
0
0
0
0
0
0
0
0
0
0
0
0
0
0
0
0
0
0
0
0
0
0
0
0
0
0
0
0
0
0
0
0
0
0
0
0
0
0
0
0
0
0
0
0
0
0
0
0
0
0
0
0
0
0
0
0
0
0
0
0
0
0
0
0
0
0
0
0
0
0
0
0
0
0
0
0
0
0
0
0
0
0
0
0
0
0
0
0
0
0
0
0
0
0
0
0
0
0
0
0
0
0
0
0
0
0
0
0
0
0
0
0
0
0
0
0
0
0
0
0
0
0
0
0
0
0
0
0
0
0
0
0
0
0
0
0
0
0
0
0
0
0
0
0
0
0
0
0
0
0
0
0
0
0
0
0
0
0
0
0
0
0
0
0
0
0
0
0
0
0
0
0
0
0
0
0
0
0
0
0
0
0
0
0
0
0
0
0
0
0
0
0
0
0
0
0
0
0
0
0
0
0
0
0
0
0
0
0
0
0
0
0
0
0
0
0
0
0
0
0
0
0
0
0
0
0
0
0
0
0
0
0
0
0
0
0
0
0
0
0
0
0
0
0
0
0
0
0
0
0
0
0
0
0
0
0
0
0
0
0
0
0
0
0
0
0
0
0
0
0
0
0
0
0
0
0
0
0
0
0
0
0
0
0
0
0
0
0
0
0
0
0
0
0
0
0
0
0
0
0
0
0
0
0
0
0
0
0
0
0
0
0
0
0
0
0
0
0
0
0
0
0
0
0
0
0
0
0
0
0
0
0
0
0
0
0
0
0
0
0
0
0
0
0
0
0
0
0
0
0
0
0
0
0
0
0
0
0
0
0
0
0
0
0
0
0
0
0
0
0
0
0
0
0
0
0
0
0
0
0
0
0
0
0
0
0
0
0
0
0
0
0
0
0
0
0
0
0
0
0
0
0
0
0
0
0
0
0
0
0
0
0
0
0
0
0
0
0
0
0
0
0
0
0
0
0
0
0
0
0
0
0
0
0
0
0
0
0
0
0
0
0
0
0
0
0
0
0
0
0
0
0
0
0
0
0
0
0
0
0
0
0
0
0
0
0
0
0
0
0
0
0
0
0
0
0
0
0
0
0
0
0
0
0
0
0
0
0
0
0
0
0
0
0
0
0
0
0
0
0
0
0
0
0
0
0
0
0
0
0
0
0
0
0
0
0
0
0
0
0
0
0
0
0
0
0
0
0
0
0
0
0
0
0
0
0
0
0
0
0
0
0
0
0
0
0
0
0
0
0
0
0
0
0
0
0
0
0
0
0
0
0
0
0
0
0
0
0
0
0
0
0
0
0
0
0
0
0
0
0
0
0
0
0
0
0
0
0
0
0
0
0
0
0
0
0
0
0
0
0
0
0
0
0
0
0
0
0
0
0
0
0
0
0
0
0
0
0
0
0
0
0
0
0
0
0
0
0
0
0
0
0
0
0
0
0
0
0
0
0
0
0
0
0
0
0
0
0
0
0
0
0
0
0
0
0
0
0
0
0
0
0
0
0
0
0
0
0
0
0
0
0
0
0
0
0
0
0
0
0
0
0
0
0
0
0
0
0
0
0
0
0
0
0
0
0
0
0
0
0
0
0
0
0
0
0
0
0
0
0
0
0
0
0
0
0
0
0
0
0
0
0
0
0
0
0
0
0
0
0
0
0
0
0
0
0
0
0
0
0
0
0
0
0
0
0
0
0
0
0
0
0
0
0
0
0
0
0
0
0
0
0
0
0
0
0
0
0
0
0
0
0
0
0
0
0
0
0
0
0
0
0
0
0
0
0
0
0
0
0
0
0
0
0
0
0
0
0
0
0
0
0
0
0
0
0
0
0
0
0
0
0
0
0
0
0
0
0
0
0
0
0
0
0
0
0
0
0
0
0
0
0
0
0
0
0
0
0
0
0
0
0
0
0
0
0
0
0
0
0
0
0
0
0
0
0
0
0
0
0
0
0
0
0
0
0
0
0
0
0
0
0
0
0
0
0
0
0
0
0
0
0
0
0
0
0
0
0
0
0
0
0
0
0
0
0
0
0
0
0
0
0
0
0
0
0
0
0
0
0
0
0
0
0
0
0
0
0
0
0
0
0
0
0
0
0
0
0
0
0
0
0
0
0
0
0
0
0
0
0
0
0
0
0
0
0
0
0
0
0
0
0
0
0
0
0
0
0
0
0
0
0
0
0
0
0
0
0
0
0
0
0
0
0
0
0
0
0
0
0
0
0
0
0
0
0
0
0
0
0
0
0
0
0
0
0
0
0
0
0
0
0
0
0
0
0
0
0
0
0
0
0
0
0
0
0
0
0
0
0
0
0
0
0
0
0
0
0
0
0
0
0
0
0
0
0
0
0
0
0
0
0
0
0
0
0
0
0
0
0
0
0
0
0
0
0
0
0
0
0
0
0
0
0
0
0
0
0
0
0
0
0
0
0
0
0
0
0
0
0
0
0
0
0
0
0
0
0
0
0
0
0
0
0
0
0
0
0
0
0
0
0
0
0
0
0
0
0
0
0
0
0
0
0
0
0
0
0
0
0
0
0
0
0
0
0
0
0
0
0
0
0
0
0
0
0
0
0
0
0
0
0
0
0
0
0
0
0
0
0
0
0
0
0
0
0
0
0
0
0
0
0
0
0
0
0
0
0
0
0
0
0
0
0
0
0
0
0
0
0
0
0
0
0
0
0
0
0
0
0
0
0
0
0
0
0
0
0
0
0
0
0
0
0
0
0
0
0
0
0
0
0
0
0
0
0
0
0
0
0
0
0
0
0
0
0
0
0
0
0
0
0
0
0
0
0
0
0
0
0
0
0
0
0
0
0
0
0
0
0
0
0
0
0
0
0
0
0
0
0
0
0
0
0
0
0
0
0
0
0
0
0
0
0
0
0
0
0
0
0
0
0
0
0
0
0
0
0
0
0
0
0
0
0
0
0
0
0
0
0
0
0
0
0
0
0
0
0
0
0
0
0
0
0
0
0
0
0
0
0
0
0
0
0
0
0
0
0
0
0
0
0
0
0
0
0
0
0
0
0
0
0
0
0
0
0
0
0
0
0
0
0
0
0
0
0
0
0
0
0
0
0
0
0
0
0
0
0
0
0
0
0
0
0
0
0
0
0
0
0
0
0
0
0
0
0
0
0
0
0
0
0
0
0
0
0
0
0
0
0
0
0
0
0
0
0
0
0
0
0
0
0
0
0
0
0
0
0
0
0
0
0
0
0
0
0
0
0
0
0
0
0
0
0
0
0
0
0
0
0
0
0
0
0
0
0
0
0
0
0
0
0
0
0
0
0
0
0
0
0
0
0
0
0
0
0
0
0
0
0
0
0
0
0
0
0
0
0
0
0
0
0
0
0
0
0
0
0
0
0
0
0
0
0
0
0
0
0
0
0
0
0
0
0
0
0
0
0
0
0
SCALARS d double 9
LOOKUP_TABLE default
0 0 0 0 0 0 0 0 0
0 0 0 0 0 0 0 0 0
0 0 0 0 0 0 0 0 0
0 0 0 0 0 0 0 0 0
0 0 0 0 0 0 0 0 0
0 0 0 0 0 0 0 0 0
0 0 0 0 0 0 0 0 0
0 0 0 0 0 0 0 0 0
0 0 0 0 0 0 0 0 0
0 0 0 0 0 0 0 0 0
0 0 0 0 0 0 0 0 0
0 0 0 0 0 0 0 0 0
0 0 0 0 0 0 0 0 0
0 0 0 0 0 0 0 0 0
0 0 0 0 0 0 0 0 0
0 0 0 0 0 0 0 0 0
0 0 0 0 0 0 0 0 0
0 0 0 0 0 0 0 0 0
0 0 0 0 0 0 0 0 0
0 0 0 0 0 0 0 0 0
0 0 0 0 0 0 0 0 0
0 0 0 0 0 0 0 0 0
0 0 0 0 0 0 0 0 0
0 0 0 0 0 0 0 0 0
0 0 0 0 0 0 0 0 0
0 0 0 0 0 0 0 0 0
0 0 0 0 0 0 0 0 0
0 0 0 0 0 0 0 0 0
0 0 0 0 0 0 0 0 0
0 0 0 0 0 0 0 0 0
0 0 0 0 0 0 0 0 0
0 0 0 0 0 0 0 0 0
0 0 0 0 0 0 0 0 0
0 0 0 0 0 0 0 0 0
0 0 0 0 0 0 0 0 0
0 0 0 0 0 0 0 0 0
0 0 0 0 0 0 0 0 0
0 0 0 0 0 0 0 0 0
0 0 0 0 0 0 0 0 0
0 0 0 0 0 0 0 0 0
0 0 0 0 0 0 0 0 0
0 0 0 0 0 0 0 0 0
0 0 0 0 0 0 0 0 0
0 0 0 0 0 0 0 0 0
0 0 0 0 0 0 0 0 0
0 0 0 0 0 0 0 0 0
0 0 0 0 0 0 0 0 0
0 0 0 0 0 0 0 0 0
0 0 0 0 0 0 0 0 0
0 0 0 0 0 0 0 0 0
0 0 0 0 0 0 0 0 0
0 0 0 0 0 0 0 0 0
0 0 0 0 0 0 0 0 0
0 0 0 0 0 0 0 0 0
0 0 0 0 0 0 0 0 0
0 0 0 0 0 0 0 0 0
0 0 0 0 0 0 0 0 0
0 0 0 0 0 0 0 0 0
0 0 0 0 0 0 0 0 0
0 0 0 0 0 0 0 0 0
0 0 0 0 0 0 0 0 0
0 0 0 0 0 0 0 0 0
0 0 0 0 0 0 0 0 0
0 0 0 0 0 0 0 0 0
0 0 0 0 0 0 0 0 0
0 0 0 0 0 0 0 0 0
0 0 0 0 0 0 0 0 0
0 0 0 0 0 0 0 0 0
0 0 0 0 0 0 0 0 0
0 0 0 0 0 0 0 0 0
0 0 0 0 0 0 0 0 0
0 0 0 0 0 0 0 0 0
0 0 0 0 0 0 0 0 0
0 0 0 0 0 0 0 0 0
0 0 0 0 0 0 0 0 0
0 0 0 0 0 0 0 0 0
0 0 0 0 0 0 0 0 0
0 0 0 0 0 0 0 0 0
0 0 0 0 0 0 0 0 0
0 0 0 0 0 0 0 0 0
0 0 0 0 0 0 0 0 0
0 0 0 0 0 0 0 0 0
0 0 0 0 0 0 0 0 0
0 0 0 0 0 0 0 0 0
0 0 0 0 0 0 0 0 0
0 0 0 0 0 0 0 0 0
0 0 0 0 0 0 0 0 0
0 0 0 0 0 0 0 0 0
0 0 0 0 0 0 0 0 0
0 0 0 0 0 0 0 0 0
0 0 0 0 0 0 0 0 0
0 0 0 0 0 0 0 0 0
0 0 0 0 0 0 0 0 0
0 0 0 0 0 0 0 0 0
0 0 0 0 0 0 0 0 0
0 0 0 0 0 0 0 0 0
0 0 0 0 0 0 0 0 0
0 0 0 0 0 0 0 0 0
0 0 0 0 0 0 0 0 0
0 0 0 0 0 0 0 0 0
0 0 0 0 0 0 0 0 0
0 0 0 0 0 0 0 0 0
0 0 0 0 0 0 0 0 0
0 0 0 0 0 0 0 0 0
0 0 0 0 0 0 0 0 0
0 0 0 0 0 0 0 0 0
0 0 0 0 0 0 0 0 0
0 0 0 0 0 0 0 0 0
0 0 0 0 0 0 0 0 0
0 0 0 0 0 0 0 0 0
0 0 0 0 0 0 0 0 0
0 0 0 0 0 0 0 0 0
0 0 0 0 0 0 0 0 0
0 0 0 0 0 0 0 0 0
0 0 0 0 0 0 0 0 0
0 0 0 0 0 0 0 0 0
0 0 0 0 0 0 0 0 0
0 0 0 0 0 0 0 0 0
0 0 0 0 0 0 0 0 0
0 0 0 0 0 0 0 0 0
0 0 0 0 0 0 0 0 0
0 0 0 0 0 0 0 0 0
0 0 0 0 0 0 0 0 0
0 0 0 0 0 0 0 0 0
0 0 0 0 0 0 0 0 0
0 0 0 0 0 0 0 0 0
0 0 0 0 0 0 0 0 0
0 0 0 0 0 0 0 0 0
0 0 0 0 0 0 0 0 0
0 0 0 0 0 0 0 0 0
0 0 0 0 0 0 0 0 0
0 0 0 0 0 0 0 0 0
0 0 0 0 0 0 0 0 0
0 0 0 0 0 0 0 0 0
0 0 0 0 0 0 0 0 0
0 0 0 0 0 0 0 0 0
0 0 0 0 0 0 0 0 0
0 0 0 0 0 0 0 0 0
0 0 0 0 0 0 0 0 0
0 0 0 0 0 0 0 0 0
0 0 0 0 0 0 0 0 0
0 0 0 0 0 0 0 0 0
0 0 0 0 0 0 0 0 0
0 0 0 0 0 0 0 0 0
0 0 0 0 0 0 0 0 0
0 0 0 0 0 0 0 0 0
0 0 0 0 0 0 0 0 0
0 0 0 0 0 0 0 0 0
0 0 0 0 0 0 0 0 0
0 0 0 0 0 0 0 0 0
0 0 0 0 0 0 0 0 0
0 0 0 0 0 0 0 0 0
0 0 0 0 0 0 0 0 0
0 0 0 0 0 0 0 0 0
0 0 0 0 0 0 0 0 0
0 0 0 0 0 0 0 0 0
0 0 0 0 0 0 0 0 0
0 0 0 0 0 0 0 0 0
0 0 0 0 0 0 0 0 0
0 0 0 0 0 0 0 0 0
0 0 0 0 0 0 0 0 0
0 0 0 0 0 0 0 0 0
0 0 0 0 0 0 0 0 0
0 0 0 0 0 0 0 0 0
0 0 0 0 0 0 0 0 0
0 0 0 0 0 0 0 0 0
0 0 0 0 0 0 0 0 0
0 0 0 0 0 0 0 0 0
0 0 0 0 0 0 0 0 0
0 0 0 0 0 0 0 0 0
0 0 0 0 0 0 0 0 0
0 0 0 0 0 0 0 0 0
0 0 0 0 0 0 0 0 0
0 0 0 0 0 0 0 0 0
0 0 0 0 0 0 0 0 0
0 0 0 0 0 0 0 0 0
0 0 0 0 0 0 0 0 0
0 0 0 0 0 0 0 0 0
0 0 0 0 0 0 0 0 0
0 0 0 0 0 0 0 0 0
0 0 0 0 0 0 0 0 0
0 0 0 0 0 0 0 0 0
0 0 0 0 0 0 0 0 0
0 0 0 0 0 0 0 0 0
0 0 0 0 0 0 0 0 0
0 0 0 0 0 0 0 0 0
0 0 0 0 0 0 0 0 0
0 0 0 0 0 0 0 0 0
0 0 0 0 0 0 0 0 0
0 0 0 0 0 0 0 0 0
0 0 0 0 0 0 0 0 0
0 0 0 0 0 0 0 0 0
0 0 0 0 0 0 0 0 0
0 0 0 0 0 0 0 0 0
0 0 0 0 0 0 0 0 0
0 0 0 0 0 0 0 0 0
0 0 0 0 0 0 0 0 0
0 0 0 0 0 0 0 0 0
0 0 0 0 0 0 0 0 0
0 0 0 0 0 0 0 0 0
0 0 0 0 0 0 0 0 0
0 0 0 0 0 0 0 0 0
0 0 0 0 0 0 0 0 0
0 0 0 0 0 0 0 0 0
0 0 0 0 0 0 0 0 0
0 0 0 0 0 0 0 0 0
0 0 0 0 0 0 0 0 0
0 0 0 0 0 0 0 0 0
0 0 0 0 0 0 0 0 0
0 0 0 0 0 0 0 0 0
0 0 0 0 0 0 0 0 0
0 0 0 0 0 0 0 0 0
0 0 0 0 0 0 0 0 0
0 0 0 0 0 0 0 0 0
0 0 0 0 0 0 0 0 0
0 0 0 0 0 0 0 0 0
0 0 0 0 0 0 0 0 0
0 0 0 0 0 0 0 0 0
0 0 0 0 0 0 0 0 0
0 0 0 0 0 0 0 0 0
0 0 0 0 0 0 0 0 0
0 0 0 0 0 0 0 0 0
0 0 0 0 0 0 0 0 0
0 0 0 0 0 0 0 0 0
0 0 0 0 0 0 0 0 0
0 0 0 0 0 0 0 0 0
0 0 0 0 0 0 0 0 0
0 0 0 0 0 0 0 0 0
0 0 0 0 0 0 0 0 0
0 0 0 0 0 0 0 0 0
0 0 0 0 0 0 0 0 0
0 0 0 0 0 0 0 0 0
0 0 0 0 0 0 0 0 0
0 0 0 0 0 0 0 0 0
0 0 0 0 0 0 0 0 0
0 0 0 0 0 0 0 0 0
0 0 0 0 0 0 0 0 0
0 0 0 0 0 0 0 0 0
0 0 0 0 0 0 0 0 0
0 0 0 0 0 0 0 0 0
0 0 0 0 0 0 0 0 0
0 0 0 0 0 0 0 0 0
0 0 0 0 0 0 0 0 0
0 0 0 0 0 0 0 0 0
0 0 0 0 0 0 0 0 0
0 0 0 0 0 0 0 0 0
0 0 0 0 0 0 0 0 0
0 0 0 0 0 0 0 0 0
0 0 0 0 0 0 0 0 0
0 0 0 0 0 0 0 0 0
0 0 0 0 0 0 0 0 0
0 0 0 0 0 0 0 0 0
0 0 0 0 0 0 0 0 0
0 0 0 0 0 0 0 0 0
0 0 0 0 0 0 0 0 0
0 0 0 0 0 0 0 0 0
0 0 0 0 0 0 0 0 0
0 0 0 0 0 0 0 0 0
0 0 0 0 0 0 0 0 0
0 0 0 0 0 0 0 0 0
0 0 0 0 0 0 0 0 0
0 0 0 0 0 0 0 0 0
0 0 0 0 0 0 0 0 0
0 0 0 0 0 0 0 0 0
0 0 0 0 0 0 0 0 0
0 0 0 0 0 0 0 0 0
0 0 0 0 0 0 0 0 0
0 0 0 0 0 0 0 0 0
0 0 0 0 0 0 0 0 0
0 0 0 0 0 0 0 0 0
0 0 0 0 0 0 0 0 0
0 0 0 0 0 0 0 0 0
0 0 0 0 0 0 0 0 0
0 0 0 0 0 0 0 0 0
0 0 0 0 0 0 0 0 0
0 0 0 0 0 0 0 0 0
0 0 0 0 0 0 0 0 0
0 0 0 0 0 0 0 0 0
0 0 0 0 0 0 0 0 0
0 0 0 0 0 0 0 0 0
0 0 0 0 0 0 0 0 0
0 0 0 0 0 0 0 0 0
0 0 0 0 0 0 0 0 0
0 0 0 0 0 0 0 0 0
0 0 0 0 0 0 0 0 0
0 0 0 0 0 0 0 0 0
0 0 0 0 0 0 0 0 0
0 0 0 0 0 0 0 0 0
0 0 0 0 0 0 0 0 0
0 0 0 0 0 0 0 0 0
0 0 0 0 0 0 0 0 0
0 0 0 0 0 0 0 0 0
0 0 0 0 0 0 0 0 0
0 0 0 0 0 0 0 0 0
0 0 0 0 0 0 0 0 0
0 0 0 0 0 0 0 0 0
0 0 0 0 0 0 0 0 0
0 0 0 0 0 0 0 0 0
0 0 0 0 0 0 0 0 0
0 0 0 0 0 0 0 0 0
0 0 0 0 0 0 0 0 0
0 0 0 0 0 0 0 0 0
0 0 0 0 0 0 0 0 0
0 0 0 0 0 0 0 0 0
0 0 0 0 0 0 0 0 0
0 0 0 0 0 0 0 0 0
0 0 0 0 0 0 0 0 0
0 0 0 0 0 0 0 0 0
0 0 0 0 0 0 0 0 0
0 0 0 0 0 0 0 0 0
0 0 0 0 0 0 0 0 0
0 0 0 0 0 0 0 0 0
0 0 0 0 0 0 0 0 0
0 0 0 0 0 0 0 0 0
0 0 0 0 0 0 0 0 0
0 0 0 0 0 0 0 0 0
0 0 0 0 0 0 0 0 0
0 0 0 0 0 0 0 0 0
0 0 0 0 0 0 0 0 0
0 0 0 0 0 0 0 0 0
0 0 0 0 0 0 0 0 0
0 0 0 0 0 0 0 0 0
0 0 0 0 0 0 0 0 0
0 0 0 0 0 0 0 0 0
0 0 0 0 0 0 0 0 0
0 0 0 0 0 0 0 0 0
0 0 0 0 0 0 0 0 0
0 0 0 0 0 0 0 0 0
0 0 0 0 0 0 0 0 0
0 0 0 0 0 0 0 0 0
0 0 0 0 0 0 0 0 0
0 0 0 0 0 0 0 0 0
0 0 0 0 0 0 0 0 0
0 0 0 0 0 0 0 0 0
0 0 0 0 0 0 0 0 0
0 0 0 0 0 0 0 0 0
0 0 0 0 0 0 0 0 0
0 0 0 0 0 0 0 0 0
0 0 0 0 0 0 0 0 0
0 0 0 0 0 0 0 0 0
0 0 0 0 0 0 0 0 0
0 0 0 0 0 0 0 0 0
0 0 0 0 0 0 0 0 0
0 0 0 0 0 0 0 0 0
0 0 0 0 0 0 0 0 0
0 0 0 0 0 0 0 0 0
0 0 0 0 0 0 0 0 0
0 0 0 0 0 0 0 0 0
0 0 0 0 0 0 0 0 0
0 0 0 0 0 0 0 0 0
0 0 0 0 0 0 0 0 0
0 0 0 0 0 0 0 0 0
0 0 0 0 0 0 0 0 0
0 0 0 0 0 0 0 0 0
0 0 0 0 0 0 0 0 0
0 0 0 0 0 0 0 0 0
0 0 0 0 0 0 0 0 0
0 0 0 0 0 0 0 0 0
0 0 0 0 0 0 0 0 0
0 0 0 0 0 0 0 0 0
0 0 0 0 0 0 0 0 0
0 0 0 0 0 0 0 0 0
0 0 0 0 0 0 0 0 0
0 0 0 0 0 0 0 0 0
0 0 0 0 0 0 0 0 0
0 0 0 0 0 0 0 0 0
0 0 0 0 0 0 0 0 0
0 0 0 0 0 0 0 0 0
0 0 0 0 0 0 0 0 0
0 0 0 0 0 0 0 0 0
0 0 0 0 0 0 0 0 0
0 0 0 0 0 0 0 0 0
0 0 0 0 0 0 0 0 0
0 0 0 0 0 0 0 0 0
0 0 0 0 0 0 0 0 0
0 0 0 0 0 0 0 0 0
0 0 0 0 0 0 0 0 0
0 0 0 0 0 0 0 0 0
0 0 0 0 0 0 0 0 0
0 0 0 0 0 0 0 0 0
0 0 0 0 0 0 0 0 0
0 0 0 0 0 0 0 0 0
0 0 0 0 0 0 0 0 0
0 0 0 0 0 0 0 0 0
0 0 0 0 0 0 0 0 0
0 0 0 0 0 0 0 0 0
0 0 0 0 0 0 0 0 0
0 0 0 0 0 0 0 0 0
0 0 0 0 0 0 0 0 0
0 0 0 0 0 0 0 0 0
0 0 0 0 0 0 0 0 0
0 0 0 0 0 0 0 0 0
0 0 0 0 0 0 0 0 0
0 0 0 0 0 0 0 0 0
0 0 0 0 0 0 0 0 0
0 0 0 0 0 0 0 0 0
0 0 0 0 0 0 0 0 0
0 0 0 0 0 0 0 0 0
0 0 0 0 0 0 0 0 0
0 0 0 0 0 0 0 0 0
0 0 0 0 0 0 0 0 0
0 0 0 0 0 0 0 0 0
0 0 0 0 0 0 0 0 0
0 0 0 0 0 0 0 0 0
0 0 0 0 0 0 0 0 0
0 0 0 0 0 0 0 0 0
0 0 0 0 0 0 0 0 0
0 0 0 0 0 0 0 0 0
0 0 0 0 0 0 0 0 0
0 0 0 0 0 0 0 0 0
0 0 0 0 0 0 0 0 0
0 0 0 0 0 0 0 0 0
0 0 0 0 0 0 0 0 0
0 0 0 0 0 0 0 0 0
0 0 0 0 0 0 0 0 0
0 0 0 0 0 0 0 0 0
0 0 0 0 0 0 0 0 0
0 0 0 0 0 0 0 0 0
0 0 0 0 0 0 0 0 0
0 0 0 0 0 0 0 0 0
0 0 0 0 0 0 0 0 0
0 0 0 0 0 0 0 0 0
0 0 0 0 0 0 0 0 0
0 0 0 0 0 0 0 0 0
0 0 0 0 0 0 0 0 0
0 0 0 0 0 0 0 0 0
0 0 0 0 0 0 0 0 0
0 0 0 0 0 0 0 0 0
0 0 0 0 0 0 0 0 0
0 0 0 0 0 0 0 0 0
0 0 0 0 0 0 0 0 0
0 0 0 0 0 0 0 0 0
0 0 0 0 0 0 0 0 0
0 0 0 0 0 0 0 0 0
0 0 0 0 0 0 0 0 0
0 0 0 0 0 0 0 0 0
0 0 0 0 0 0 0 0 0
0 0 0 0 0 0 0 0 0
0 0 0 0 0 0 0 0 0
0 0 0 0 0 0 0 0 0
0 0 0 0 0 0 0 0 0
0 0 0 0 0 0 0 0 0
0 0 0 0 0 0 0 0 0
0 0 0 0 0 0 0 0 0
0 0 0 0 0 0 0 0 0
0 0 0 0 0 0 0 0 0
0 0 0 0 0 0 0 0 0
0 0 0 0 0 0 0 0 0
0 0 0 0 0 0 0 0 0
0 0 0 0 0 0 0 0 0
0 0 0 0 0 0 0 0 0
0 0 0 0 0 0 0 0 0
0 0 0 0 0 0 0 0 0
0 0 0 0 0 0 0 0 0
0 0 0 0 0 0 0 0 0
0 0 0 0 0 0 0 0 0
0 0 0 0 0 0 0 0 0
0 0 0 0 0 0 0 0 0
0 0 0 0 0 0 0 0 0
0 0 0 0 0 0 0 0 0
0 0 0 0 0 0 0 0 0
0 0 0 0 0 0 0 0 0
0 0 0 0 0 0 0 0 0
0 0 0 0 0 0 0 0 0
0 0 0 0 0 0 0 0 0
0 0 0 0 0 0 0 0 0
0 0 0 0 0 0 0 0 0
0 0 0 0 0 0 0 0 0
0 0 0 0 0 0 0 0 0
0 0 0 0 0 0 0 0 0
0 0 0 0 0 0 0 0 0
0 0 0 0 0 0 0 0 0
0 0 0 0 0 0 0 0 0
0 0 0 0 0 0 0 0 0
0 0 0 0 0 0 0 0 0
0 0 0 0 0 0 0 0 0
0 0 0 0 0 0 0 0 0
0 0 0 0 0 0 0 0 0
0 0 0 0 0 0 0 0 0
0 0 0 0 0 0 0 0 0
0 0 0 0 0 0 0 0 0
0 0 0 0 0 0 0 0 0
0 0 0 0 0 0 0 0 0
0 0 0 0 0 0 0 0 0
0 0 0 0 0 0 0 0 0
0 0 0 0 0 0 0 0 0
0 0 0 0 0 0 0 0 0
0 0 0 0 0 0 0 0 0
0 0 0 0 0 0 0 0 0
0 0 0 0 0 0 0 0 0
0 0 0 0 0 0 0 0 0
0 0 0 0 0 0 0 0 0
0 0 0 0 0 0 0 0 0
0 0 0 0 0 0 0 0 0
0 0 0 0 0 0 0 0 0
0 0 0 0 0 0 0 0 0
0 0 0 0 0 0 0 0 0
0 0 0 0 0 0 0 0 0
0 0 0 0 0 0 0 0 0
0 0 0 0 0 0 0 0 0
0 0 0 0 0 0 0 0 0
0 0 0 0 0 0 0 0 0
0 0 0 0 0 0 0 0 0
0 0 0 0 0 0 0 0 0
0 0 0 0 0 0 0 0 0
0 0 0 0 0 0 0 0 0
0 0 0 0 0 0 0 0 0
0 0 0 0 0 0 0 0 0
0 0 0 0 0 0 0 0 0
0 0 0 0 0 0 0 0 0
0 0 0 0 0 0 0 0 0
0 0 0 0 0 0 0 0 0
0 0 0 0 0 0 0 0 0
0 0 0 0 0 0 0 0 0
0 0 0 0 0 0 0 0 0
0 0 0 0 0 0 0 0 0
0 0 0 0 0 0 0 0 0
0 0 0 0 0 0 0 0 0
0 0 0 0 0 0 0 0 0
0 0 0 0 0 0 0 0 0
0 0 0 0 0 0 0 0 0
0 0 0 0 0 0 0 0 0
0 0 0 0 0 0 0 0 0
0 0 0 0 0 0 0 0 0
0 0 0 0 0 0 0 0 0
0 0 0 0 0 0 0 0 0
0 0 0 0 0 0 0 0 0
0 0 0 0 0 0 0 0 0
0 0 0 0 0 0 0 0 0
0 0 0 0 0 0 0 0 0
0 0 0 0 0 0 0 0 0
0 0 0 0 0 0 0 0 0
0 0 0 0 0 0 0 0 0
0 0 0 0 0 0 0 0 0
0 0 0 0 0 0 0 0 0
0 0 0 0 0 0 0 0 0
0 0 0 0 0 0 0 0 0
0 0 0 0 0 0 0 0 0
0 0 0 0 0 0 0 0 0
0 0 0 0 0 0 0 0 0
0 0 0 0 0 0 0 0 0
0 0 0 0 0 0 0 0 0
0 0 0 0 0 0 0 0 0
0 0 0 0 0 0 0 0 0
0 0 0 0 0 0 0 0 0
0 0 0 0 0 0 0 0 0
0 0 0 0 0 0 0 0 0
0 0 0 0 0 0 0 0 0
0 0 0 0 0 0 0 0 0
0 0 0 0 0 0 0 0 0
0 0 0 0 0 0 0 0 0
0 0 0 0 0 0 0 0 0
0 0 0 0 0 0 0 0 0
0 0 0 0 0 0 0 0 0
0 0 0 0 0 0 0 0 0
0 0 0 0 0 0 0 0 0
0 0 0 0 0 0 0 0 0
0 0 0 0 0 0 0 0 0
0 0 0 0 0 0 0 0 0
0 0 0 0 0 0 0 0 0
0 0 0 0 0 0 0 0 0
0 0 0 0 0 0 0 0 0
0 0 0 0 0 0 0 0 0
0 0 0 0 0 0 0 0 0
0 0 0 0 0 0 0 0 0
0 0 0 0 0 0 0 0 0
0 0 0 0 0 0 0 0 0
0 0 0 0 0 0 0 0 0
0 0 0 0 0 0 0 0 0
0 0 0 0 0 0 0 0 0
0 0 0 0 0 0 0 0 0
0 0 0 0 0 0 0 0 0
0 0 0 0 0 0 0 0 0
0 0 0 0 0 0 0 0 0
0 0 0 0 0 0 0 0 0
0 0 0 0 0 0 0 0 0
0 0 0 0 0 0 0 0 0
0 0 0 0 0 0 0 0 0
0 0 0 0 0 0 0 0 0
0 0 0 0 0 0 0 0 0
0 0 0 0 0 0 0 0 0
0 0 0 0 0 0 0 0 0
0 0 0 0 0 0 0 0 0
0 0 0 0 0 0 0 0 0
0 0 0 0 0 0 0 0 0
0 0 0 0 0 0 0 0 0
0 0 0 0 0 0 0 0 0
0 0 0 0 0 0 0 0 0
0 0 0 0 0 0 0 0 0
0 0 0 0 0 0 0 0 0
0 0 0 0 0 0 0 0 0
0 0 0 0 0 0 0 0 0
0 0 0 0 0 0 0 0 0
0 0 0 0 0 0 0 0 0
0 0 0 0 0 0 0 0 0
0 0 0 0 0 0 0 0 0
0 0 0 0 0 0 0 0 0
0 0 0 0 0 0 0 0 0
0 0 0 0 0 0 0 0 0
0 0 0 0 0 0 0 0 0
0 0 0 0 0 0 0 0 0
0 0 0 0 0 0 0 0 0
0 0 0 0 0 0 0 0 0
0 0 0 0 0 0 0 0 0
0 0 0 0 0 0 0 0 0
0 0 0 0 0 0 0 0 0
0 0 0 0 0 0 0 0 0
0 0 0 0 0 0 0 0 0
0 0 0 0 0 0 0 0 0
0 0 0 0 0 0 0 0 0
0 0 0 0 0 0 0 0 0
0 0 0 0 0 0 0 0 0
0 0 0 0 0 0 0 0 0
0 0 0 0 0 0 0 0 0
0 0 0 0 0 0 0 0 0
0 0 0 0 0 0 0 0 0
0 0 0 0 0 0 0 0 0
0 0 0 0 0 0 0 0 0
0 0 0 0 0 0 0 0 0
0 0 0 0 0 0 0 0 0
0 0 0 0 0 0 0 0 0
0 0 0 0 0 0 0 0 0
0 0 0 0 0 0 0 0 0
0 0 0 0 0 0 0 0 0
0 0 0 0 0 0 0 0 0
0 0 0 0 0 0 0 0 0
0 0 0 0 0 0 0 0 0
0 0 0 0 0 0 0 0 0
0 0 0 0 0 0 0 0 0
0 0 0 0 0 0 0 0 0
0 0 0 0 0 0 0 0 0
0 0 0 0 0 0 0 0 0
0 0 0 0 0 0 0 0 0
0 0 0 0 0 0 0 0 0
0 0 0 0 0 0 0 0 0
0 0 0 0 0 0 0 0 0
0 0 0 0 0 0 0 0 0
0 0 0 0 0 0 0 0 0
0 0 0 0 0 0 0 0 0
0 0 0 0 0 0 0 0 0
0 0 0 0 0 0 0 0 0
0 0 0 0 0 0 0 0 0
0 0 0 0 0 0 0 0 0
0 0 0 0 0 0 0 0 0
0 0 0 0 0 0 0 0 0
0 0 0 0 0 0 0 0 0
0 0 0 0 0 0 0 0 0
0 0 0 0 0 0 0 0 0
0 0 0 0 0 0 0 0 0
0 0 0 0 0 0 0 0 0
0 0 0 0 0 0 0 0 0
0 0 0 0 0 0 0 0 0
0 0 0 0 0 0 0 0 0
0 0 0 0 0 0 0 0 0
0 0 0 0 0 0 0 0 0
0 0 0 0 0 0 0 0 0
0 0 0 0 0 0 0 0 0
0 0 0 0 0 0 0 0 0
0 0 0 0 0 0 0 0 0
0 0 0 0 0 0 0 0 0
0 0 0 0 0 0 0 0 0
0 0 0 0 0 0 0 0 0
0 0 0 0 0 0 0 0 0
0 0 0 0 0 0 0 0 0
0 0 0 0 0 0 0 0 0
0 0 0 0 0 0 0 0 0
0 0 0 0 0 0 0 0 0
0 0 0 0 0 0 0 0 0
0 0 0 0 0 0 0 0 0
0 0 0 0 0 0 0 0 0
0 0 0 0 0 0 0 0 0
0 0 0 0 0 0 0 0 0
0 0 0 0 0 0 0 0 0
0 0 0 0 0 0 0 0 0
0 0 0 0 0 0 0 0 0
0 0 0 0 0 0 0 0 0
0 0 0 0 0 0 0 0 0
0 0 0 0 0 0 0 0 0
0 0 0 0 0 0 0 0 0
0 0 0 0 0 0 0 0 0
0 0 0 0 0 0 0 0 0
0 0 0 0 0 0 0 0 0
0 0 0 0 0 0 0 0 0
0 0 0 0 0 0 0 0 0
0 0 0 0 0 0 0 0 0
0 0 0 0 0 0 0 0 0
0 0 0 0 0 0 0 0 0
0 0 0 0 0 0 0 0 0
0 0 0 0 0 0 0 0 0
0 0 0 0 0 0 0 0 0
0 0 0 0 0 0 0 0 0
0 0 0 0 0 0 0 0 0
0 0 0 0 0 0 0 0 0
0 0 0 0 0 0 0 0 0
0 0 0 0 0 0 0 0 0
0 0 0 0 0 0 0 0 0
0 0 0 0 0 0 0 0 0
0 0 0 0 0 0 0 0 0
0 0 0 0 0 0 0 0 0
0 0 0 0 0 0 0 0 0
0 0 0 0 0 0 0 0 0
0 0 0 0 0 0 0 0 0
0 0 0 0 0 0 0 0 0
0 0 0 0 0 0 0 0 0
0 0 0 0 0 0 0 0 0
0 0 0 0 0 0 0 0 0
0 0 0 0 0 0 0 0 0
0 0 0 0 0 0 0 0 0
0 0 0 0 0 0 0 0 0
0 0 0 0 0 0 0 0 0
0 0 0 0 0 0 0 0 0
0 0 0 0 0 0 0 0 0
0 0 0 0 0 0 0 0 0
0 0 0 0 0 0 0 0 0
0 0 0 0 0 0 0 0 0
0 0 0 0 0 0 0 0 0
0 0 0 0 0 0 0 0 0
0 0 0 0 0 0 0 0 0
0 0 0 0 0 0 0 0 0
0 0 0 0 0 0 0 0 0
0 0 0 0 0 0 0 0 0
0 0 0 0 0 0 0 0 0
0 0 0 0 0 0 0 0 0
0 0 0 0 0 0 0 0 0
0 0 0 0 0 0 0 0 0
0 0 0 0 0 0 0 0 0
0 0 0 0 0 0 0 0 0
0 0 0 0 0 0 0 0 0
0 0 0 0 0 0 0 0 0
0 0 0 0 0 0 0 0 0
0 0 0 0 0 0 0 0 0
0 0 0 0 0 0 0 0 0
0 0 0 0 0 0 0 0 0
0 0 0 0 0 0 0 0 0
0 0 0 0 0 0 0 0 0
0 0 0 0 0 0 0 0 0
0 0 0 0 0 0 0 0 0
0 0 0 0 0 0 0 0 0
0 0 0 0 0 0 0 0 0
0 0 0 0 0 0 0 0 0
0 0 0 0 0 0 0 0 0
0 0 0 0 0 0 0 0 0
0 0 0 0 0 0 0 0 0
0 0 0 0 0 0 0 0 0
0 0 0 0 0 0 0 0 0
0 0 0 0 0 0 0 0 0
0 0 0 0 0 0 0 0 0
0 0 0 0 0 0 0 0 0
0 0 0 0 0 0 0 0 0
0 0 0 0 0 0 0 0 0
0 0 0 0 0 0 0 0 0
0 0 0 0 0 0 0 0 0
0 0 0 0 0 0 0 0 0
0 0 0 0 0 0 0 0 0
0 0 0 0 0 0 0 0 0
0 0 0 0 0 0 0 0 0
0 0 0 0 0 0 0 0 0
0 0 0 0 0 0 0 0 0
0 0 0 0 0 0 0 0 0
0 0 0 0 0 0 0 0 0
0 0 0 0 0 0 0 0 0
0 0 0 0 0 0 0 0 0
0 0 0 0 0 0 0 0 0
0 0 0 0 0 0 0 0 0
0 0 0 0 0 0 0 0 0
0 0 0 0 0 0 0 0 0
0 0 0 0 0 0 0 0 0
0 0 0 0 0 0 0 0 0
0 0 0 0 0 0 0 0 0
0 0 0 0 0 0 0 0 0
0 0 0 0 0 0 0 0 0
0 0 0 0 0 0 0 0 0
0 0 0 0 0 0 0 0 0
0 0 0 0 0 0 0 0 0
0 0 0 0 0 0 0 0 0
0 0 0 0 0 0 0 0 0
0 0 0 0 0 0 0 0 0
0 0 0 0 0 0 0 0 0
0 0 0 0 0 0 0 0 0
0 0 0 0 0 0 0 0 0
0 0 0 0 0 0 0 0 0
0 0 0 0 0 0 0 0 0
0 0 0 0 0 0 0 0 0
0 0 0 0 0 0 0 0 0
0 0 0 0 0 0 0 0 0
0 0 0 0 0 0 0 0 0
0 0 0 0 0 0 0 0 0
0 0 0 0 0 0 0 0 0
0 0 0 0 0 0 0 0 0
0 0 0 0 0 0 0 0 0
0 0 0 0 0 0 0 0 0
0 0 0 0 0 0 0 0 0
0 0 0 0 0 0 0 0 0
0 0 0 0 0 0 0 0 0
0 0 0 0 0 0 0 0 0
0 0 0 0 0 0 0 0 0
0 0 0 0 0 0 0 0 0
0 0 0 0 0 0 0 0 0
0 0 0 0 0 0 0 0 0
0 0 0 0 0 0 0 0 0
0 0 0 0 0 0 0 0 0
0 0 0 0 0 0 0 0 0
0 0 0 0 0 0 0 0 0
0 0 0 0 0 0 0 0 0
0 0 0 0 0 0 0 0 0
0 0 0 0 0 0 0 0 0
0 0 0 0 0 0 0 0 0
0 0 0 0 0 0 0 0 0
0 0 0 0 0 0 0 0 0
0 0 0 0 0 0 0 0 0
0 0 0 0 0 0 0 0 0
0 0 0 0 0 0 0 0 0
0 0 0 0 0 0 0 0 0
0 0 0 0 0 0 0 0 0
0 0 0 0 0 0 0 0 0
0 0 0 0 0 0 0 0 0
0 0 0 0 0 0 0 0 0
0 0 0 0 0 0 0 0 0
0 0 0 0 0 0 0 0 0
0 0 0 0 0 0 0 0 0
0 0 0 0 0 0 0 0 0
0 0 0 0 0 0 0 0 0
0 0 0 0 0 0 0 0 0
0 0 0 0 0 0 0 0 0
0 0 0 0 0 0 0 0 0
0 0 0 0 0 0 0 0 0
0 0 0 0 0 0 0 0 0
0 0 0 0 0 0 0 0 0
0 0 0 0 0 0 0 0 0
0 0 0 0 0 0 0 0 0
0 0 0 0 0 0 0 0 0
0 0 0 0 0 0 0 0 0
0 0 0 0 0 0 0 0 0
0 0 0 0 0 0 0 0 0
0 0 0 0 0 0 0 0 0
0 0 0 0 0 0 0 0 0
0 0 0 0 0 0 0 0 0
0 0 0 0 0 0 0 0 0
0 0 0 0 0 0 0 0 0
0 0 0 0 0 0 0 0 0
0 0 0 0 0 0 0 0 0
0 0 0 0 0 0 0 0 0
0 0 0 0 0 0 0 0 0
0 0 0 0 0 0 0 0 0
0 0 0 0 0 0 0 0 0
0 0 0 0 0 0 0 0 0
0 0 0 0 0 0 0 0 0
0 0 0 0 0 0 0 0 0
0 0 0 0 0 0 0 0 0
0 0 0 0 0 0 0 0 0
0 0 0 0 0 0 0 0 0
0 0 0 0 0 0 0 0 0
0 0 0 0 0 0 0 0 0
0 0 0 0 0 0 0 0 0
0 0 0 0 0 0 0 0 0
0 0 0 0 0 0 0 0 0
0 0 0 0 0 0 0 0 0
0 0 0 0 0 0 0 0 0
0 0 0 0 0 0 0 0 0
0 0 0 0 0 0 0 0 0
0 0 0 0 0 0 0 0 0
0 0 0 0 0 0 0 0 0
0 0 0 0 0 0 0 0 0
0 0 0 0 0 0 0 0 0
0 0 0 0 0 0 0 0 0
0 0 0 0 0 0 0 0 0
0 0 0 0 0 0 0 0 0
0 0 0 0 0 0 0 0 0
0 0 0 0 0 0 0 0 0
0 0 0 0 0 0 0 0 0
0 0 0 0 0 0 0 0 0
0 0 0 0 0 0 0 0 0
0 0 0 0 0 0 0 0 0
0 0 0 0 0 0 0 0 0
0 0 0 0 0 0 0 0 0
0 0 0 0 0 0 0 0 0
0 0 0 0 0 0 0 0 0
0 0 0 0 0 0 0 0 0
0 0 0 0 0 0 0 0 0
0 0 0 0 0 0 0 0 0
0 0 0 0 0 0 0 0 0
0 0 0 0 0 0 0 0 0
0 0 0 0 0 0 0 0 0
0 0 0 0 0 0 0 0 0
0 0 0 0 0 0 0 0 0
0 0 0 0 0 0 0 0 0
0 0 0 0 0 0 0 0 0
0 0 0 0 0 0 0 0 0
0 0 0 0 0 0 0 0 0
0 0 0 0 0 0 0 0 0
0 0 0 0 0 0 0 0 0
0 0 0 0 0 0 0 0 0
0 0 0 0 0 0 0 0 0
0 0 0 0 0 0 0 0 0
0 0 0 0 0 0 0 0 0
0 0 0 0 0 0 0 0 0
0 0 0 0 0 0 0 0 0
0 0 0 0 0 0 0 0 0
0 0 0 0 0 0 0 0 0
0 0 0 0 0 0 0 0 0
0 0 0 0 0 0 0 0 0
0 0 0 0 0 0 0 0 0
0 0 0 0 0 0 0 0 0
0 0 0 0 0 0 0 0 0
0 0 0 0 0 0 0 0 0
0 0 0 0 0 0 0 0 0
0 0 0 0 0 0 0 0 0
0 0 0 0 0 0 0 0 0
0 0 0 0 0 0 0 0 0
0 0 0 0 0 0 0 0 0
0 0 0 0 0 0 0 0 0
0 0 0 0 0 0 0 0 0
0 0 0 0 0 0 0 0 0
0 0 0 0 0 0 0 0 0
0 0 0 0 0 0 0 0 0
0 0 0 0 0 0 0 0 0
0 0 0 0 0 0 0 0 0
0 0 0 0 0 0 0 0 0
0 0 0 0 0 0 0 0 0
0 0 0 0 0 0 0 0 0
0 0 0 0 0 0 0 0 0
0 0 0 0 0 0 0 0 0
0 0 0 0 0 0 0 0 0
0 0 0 0 0 0 0 0 0
0 0 0 0 0 0 0 0 0
0 0 0 0 0 0 0 0 0
0 0 0 0 0 0 0 0 0
0 0 0 0 0 0 0 0 0
0 0 0 0 0 0 0 0 0
0 0 0 0 0 0 0 0 0
0 0 0 0 0 0 0 0 0
0 0 0 0 0 0 0 0 0
0 0 0 0 0 0 0 0 0
0 0 0 0 0 0 0 0 0
0 0 0 0 0 0 0 0 0
0 0 0 0 0 0 0 0 0
0 0 0 0 0 0 0 0 0
0 0 0 0 0 0 0 0 0
0 0 0 0 0 0 0 0 0
0 0 0 0 0 0 0 0 0
0 0 0 0 0 0 0 0 0
0 0 0 0 0 0 0 0 0
0 0 0 0 0 0 0 0 0
0 0 0 0 0 0 0 0 0
0 0 0 0 0 0 0 0 0
0 0 0 0 0 0 0 0 0
0 0 0 0 0 0 0 0 0
0 0 0 0 0 0 0 0 0
0 0 0 0 0 0 0 0 0
0 0 0 0 0 0 0 0 0
0 0 0 0 0 0 0 0 0
0 0 0 0 0 0 0 0 0
0 0 0 0 0 0 0 0 0
0 0 0 0 0 0 0 0 0
0 0 0 0 0 0 0 0 0
0 0 0 0 0 0 0 0 0
0 0 0 0 0 0 0 0 0
0 0 0 0 0 0 0 0 0
0 0 0 0 0 0 0 0 0
0 0 0 0 0 0 0 0 0
0 0 0 0 0 0 0 0 0
0 0 0 0 0 0 0 0 0
0 0 0 0 0 0 0 0 0
0 0 0 0 0 0 0 0 0
0 0 0 0 0 0 0 0 0
0 0 0 0 0 0 0 0 0
0 0 0 0 0 0 0 0 0
0 0 0 0 0 0 0 0 0
0 0 0 0 0 0 0 0 0
0 0 0 0 0 0 0 0 0
0 0 0 0 0 0 0 0 0
0 0 0 0 0 0 0 0 0
0 0 0 0 0 0 0 0 0
0 0 0 0 0 0 0 0 0
0 0 0 0 0 0 0 0 0
0 0 0 0 0 0 0 0 0
0 0 0 0 0 0 0 0 0
0 0 0 0 0 0 0 0 0
0 0 0 0 0 0 0 0 0
0 0 0 0 0 0 0 0 0
0 0 0 0 0 0 0 0 0
0 0 0 0 0 0 0 0 0
0 0 0 0 0 0 0 0 0
0 0 0 0 0 0 0 0 0
0 0 0 0 0 0 0 0 0
0 0 0 0 0 0 0 0 0
0 0 0 0 0 0 0 0 0
0 0 0 0 0 0 0 0 0
0 0 0 0 0 0 0 0 0
0 0 0 0 0 0 0 0 0
0 0 0 0 0 0 0 0 0
0 0 0 0 0 0 0 0 0
0 0 0 0 0 0 0 0 0
0 0 0 0 0 0 0 0 0
0 0 0 0 0 0 0 0 0
0 0 0 0 0 0 0 0 0
0 0 0 0 0 0 0 0 0
0 0 0 0 0 0 0 0 0
0 0 0 0 0 0 0 0 0
0 0 0 0 0 0 0 0 0
0 0 0 0 0 0 0 0 0
0 0 0 0 0 0 0 0 0
0 0 0 0 0 0 0 0 0
0 0 0 0 0 0 0 0 0
0 0 0 0 0 0 0 0 0
0 0 0 0 0 0 0 0 0
0 0 0 0 0 0 0 0 0
0 0 0 0 0 0 0 0 0
0 0 0 0 0 0 0 0 0
0 0 0 0 0 0 0 0 0
0 0 0 0 0 0 0 0 0
0 0 0 0 0 0 0 0 0
0 0 0 0 0 0 0 0 0
0 0 0 0 0 0 0 0 0
0 0 0 0 0 0 0 0 0
0 0 0 0 0 0 0 0 0
0 0 0 0 0 0 0 0 0
0 0 0 0 0 0 0 0 0
0 0 0 0 0 0 0 0 0
0 0 0 0 0 0 0 0 0
0 0 0 0 0 0 0 0 0
0 0 0 0 0 0 0 0 0
0 0 0 0 0 0 0 0 0
0 0 0 0 0 0 0 0 0
0 0 0 0 0 0 0 0 0
0 0 0 0 0 0 0 0 0
0 0 0 0 0 0 0 0 0
0 0 0 0 0 0 0 0 0
0 0 0 0 0 0 0 0 0
0 0 0 0 0 0 0 0 0
0 0 0 0 0 0 0 0 0
0 0 0 0 0 0 0 0 0
0 0 0 0 0 0 0 0 0
0 0 0 0 0 0 0 0 0
0 0 0 0 0 0 0 0 0
0 0 0 0 0 0 0 0 0
0 0 0 0 0 0 0 0 0
0 0 0 0 0 0 0 0 0
0 0 0 0 0 0 0 0 0
0 0 0 0 0 0 0 0 0
0 0 0 0 0 0 0 0 0
0 0 0 0 0 0 0 0 0
0 0 0 0 0 0 0 0 0
0 0 0 0 0 0 0 0 0
0 0 0 0 0 0 0 0 0
0 0 0 0 0 0 0 0 0
0 0 0 0 0 0 0 0 0
0 0 0 0 0 0 0 0 0
0 0 0 0 0 0 0 0 0
0 0 0 0 0 0 0 0 0
0 0 0 0 0 0 0 0 0
0 0 0 0 0 0 0 0 0
0 0 0 0 0 0 0 0 0
0 0 0 0 0 0 0 0 0
0 0 0 0 0 0 0 0 0
0 0 0 0 0 0 0 0 0
0 0 0 0 0 0 0 0 0
0 0 0 0 0 0 0 0 0
0 0 0 0 0 0 0 0 0
0 0 0 0 0 0 0 0 0
0 0 0 0 0 0 0 0 0
0 0 0 0 0 0 0 0 0
0 0 0 0 0 0 0 0 0
0 0 0 0 0 0 0 0 0
0 0 0 0 0 0 0 0 0
0 0 0 0 0 0 0 0 0
0 0 0 0 0 0 0 0 0
0 0 0 0 0 0 0 0 0
0 0 0 0 0 0 0 0 0
0 0 0 0 0 0 0 0 0
0 0 0 0 0 0 0 0 0
0 0 0 0 0 0 0 0 0
0 0 0 0 0 0 0 0 0
0 0 0 0 0 0 0 0 0
0 0 0 0 0 0 0 0 0
0 0 0 0 0 0 0 0 0
0 0 0 0 0 0 0 0 0
0 0 0 0 0 0 0 0 0
0 0 0 0 0 0 0 0 0
0 0 0 0 0 0 0 0 0
0 0 0 0 0 0 0 0 0
0 0 0 0 0 0 0 0 0
0 0 0 0 0 0 0 0 0
0 0 0 0 0 0 0 0 0
0 0 0 0 0 0 0 0 0
0 0 0 0 0 0 0 0 0
0 0 0 0 0 0 0 0 0
0 0 0 0 0 0 0 0 0
0 0 0 0 0 0 0 0 0
0 0 0 0 0 0 0 0 0
0 0 0 0 0 0 0 0 0
0 0 0 0 0 0 0 0 0
0 0 0 0 0 0 0 0 0
0 0 0 0 0 0 0 0 0
0 0 0 0 0 0 0 0 0
0 0 0 0 0 0 0 0 0
0 0 0 0 0 0 0 0 0
0 0 0 0 0 0 0 0 0
0 0 0 0 0 0 0 0 0
0 0 0 0 0 0 0 0 0
0 0 0 0 0 0 0 0 0
0 0 0 0 0 0 0 0 0
0 0 0 0 0 0 0 0 0
0 0 0 0 0 0 0 0 0
0 0 0 0 0 0 0 0 0
0 0 0 0 0 0 0 0 0
0 0 0 0 0 0 0 0 0
0 0 0 0 0 0 0 0 0
0 0 0 0 0 0 0 0 0
0 0 0 0 0 0 0 0 0
0 0 0 0 0 0 0 0 0
0 0 0 0 0 0 0 0 0
0 0 0 0 0 0 0 0 0
0 0 0 0 0 0 0 0 0
0 0 0 0 0 0 0 0 0
0 0 0 0 0 0 0 0 0
0 0 0 0 0 0 0 0 0
0 0 0 0 0 0 0 0 0
0 0 0 0 0 0 0 0 0
0 0 0 0 0 0 0 0 0
0 0 0 0 0 0 0 0 0
0 0 0 0 0 0 0 0 0
0 0 0 0 0 0 0 0 0
0 0 0 0 0 0 0 0 0
0 0 0 0 0 0 0 0 0
0 0 0 0 0 0 0 0 0
0 0 0 0 0 0 0 0 0
0 0 0 0 0 0 0 0 0
0 0 0 0 0 0 0 0 0
0 0 0 0 0 0 0 0 0
0 0 0 0 0 0 0 0 0
0 0 0 0 0 0 0 0 0
0 0 0 0 0 0 0 0 0
0 0 0 0 0 0 0 0 0
0 0 0 0 0 0 0 0 0
0 0 0 0 0 0 0 0 0
0 0 0 0 0 0 0 0 0
0 0 0 0 0 0 0 0 0
0 0 0 0 0 0 0 0 0
0 0 0 0 0 0 0 0 0
0 0 0 0 0 0 0 0 0
0 0 0 0 0 0 0 0 0
0 0 0 0 0 0 0 0 0
0 0 0 0 0 0 0 0 0
0 0 0 0 0 0 0 0 0
0 0 0 0 0 0 0 0 0
0 0 0 0 0 0 0 0 0
0 0 0 0 0 0 0 0 0
0 0 0 0 0 0 0 0 0
0 0 0 0 0 0 0 0 0
0 0 0 0 0 0 0 0 0
0 0 0 0 0 0 0 0 0
0 0 0 0 0 0 0 0 0
0 0 0 0 0 0 0 0 0
0 0 0 0 0 0 0 0 0
0 0 0 0 0 0 0 0 0
0 0 0 0 0 0 0 0 0
0 0 0 0 0 0 0 0 0
0 0 0 0 0 0 0 0 0
0 0 0 0 0 0 0 0 0
0 0 0 0 0 0 0 0 0
0 0 0 0 0 0 0 0 0
0 0 0 0 0 0 0 0 0
0 0 0 0 0 0 0 0 0
0 0 0 0 0 0 0 0 0
0 0 0 0 0 0 0 0 0
0 0 0 0 0 0 0 0 0
0 0 0 0 0 0 0 0 0
0 0 0 0 0 0 0 0 0
0 0 0 0 0 0 0 0 0
0 0 0 0 0 0 0 0 0
0 0 0 0 0 0 0 0 0
0 0 0 0 0 0 0 0 0
0 0 0 0 0 0 0 0 0
0 0 0 0 0 0 0 0 0
0 0 0 0 0 0 0 0 0
0 0 0 0 0 0 0 0 0
0 0 0 0 0 0 0 0 0
0 0 0 0 0 0 0 0 0
0 0 0 0 0 0 0 0 0
0 0 0 0 0 0 0 0 0
0 0 0 0 0 0 0 0 0
0 0 0 0 0 0 0 0 0
0 0 0 0 0 0 0 0 0
0 0 0 0 0 0 0 0 0
0 0 0 0 0 0 0 0 0
0 0 0 0 0 0 0 0 0
0 0 0 0 0 0 0 0 0
0 0 0 0 0 0 0 0 0
0 0 0 0 0 0 0 0 0
0 0 0 0 0 0 0 0 0
0 0 0 0 0 0 0 0 0
0 0 0 0 0 0 0 0 0
0 0 0 0 0 0 0 0 0
0 0 0 0 0 0 0 0 0
0 0 0 0 0 0 0 0 0
0 0 0 0 0 0 0 0 0
0 0 0 0 0 0 0 0 0
0 0 0 0 0 0 0 0 0
0 0 0 0 0 0 0 0 0
0 0 0 0 0 0 0 0 0
0 0 0 0 0 0 0 0 0
0 0 0 0 0 0 0 0 0
0 0 0 0 0 0 0 0 0
0 0 0 0 0 0 0 0 0
0 0 0 0 0 0 0 0 0
0 0 0 0 0 0 0 0 0
0 0 0 0 0 0 0 0 0
0 0 0 0 0 0 0 0 0
0 0 0 0 0 0 0 0 0
0 0 0 0 0 0 0 0 0
0 0 0 0 0 0 0 0 0
0 0 0 0 0 0 0 0 0
0 0 0 0 0 0 0 0 0
0 0 0 0 0 0 0 0 0
0 0 0 0 0 0 0 0 0
0 0 0 0 0 0 0 0 0
0 0 0 0 0 0 0 0 0
0 0 0 0 0 0 0 0 0
0 0 0 0 0 0 0 0 0
0 0 0 0 0 0 0 0 0
0 0 0 0 0 0 0 0 0
0 0 0 0 0 0 0 0 0
0 0 0 0 0 0 0 0 0
0 0 0 0 0 0 0 0 0
0 0 0 0 0 0 0 0 0
0 0 0 0 0 0 0 0 0
0 0 0 0 0 0 0 0 0
0 0 0 0 0 0 0 0 0
0 0 0 0 0 0 0 0 0
0 0 0 0 0 0 0 0 0
0 0 0 0 0 0 0 0 0
0 0 0 0 0 0 0 0 0
0 0 0 0 0 0 0 0 0
0 0 0 0 0 0 0 0 0
0 0 0 0 0 0 0 0 0
0 0 0 0 0 0 0 0 0
0 0 0 0 0 0 0 0 0
0 0 0 0 0 0 0 0 0
0 0 0 0 0 0 0 0 0
0 0 0 0 0 0 0 0 0
0 0 0 0 0 0 0 0 0
0 0 0 0 0 0 0 0 0
0 0 0 0 0 0 0 0 0
0 0 0 0 0 0 0 0 0
0 0 0 0 0 0 0 0 0
0 0 0 0 0 0 0 0 0
0 0 0 0 0 0 0 0 0
0 0 0 0 0 0 0 0 0
0 0 0 0 0 0 0 0 0
0 0 0 0 0 0 0 0 0
0 0 0 0 0 0 0 0 0
0 0 0 0 0 0 0 0 0
0 0 0 0 0 0 0 0 0
0 0 0 0 0 0 0 0 0
0 0 0 0 0 0 0 0 0
0 0 0 0 0 0 0 0 0
0 0 0 0 0 0 0 0 0
0 0 0 0 0 0 0 0 0
0 0 0 0 0 0 0 0 0
0 0 0 0 0 0 0 0 0
0 0 0 0 0 0 0 0 0
0 0 0 0 0 0 0 0 0
0 0 0 0 0 0 0 0 0
0 0 0 0 0 0 0 0 0
0 0 0 0 0 0 0 0 0
0 0 0 0 0 0 0 0 0
0 0 0 0 0 0 0 0 0
0 0 0 0 0 0 0 0 0
0 0 0 0 0 0 0 0 0
0 0 0 0 0 0 0 0 0
0 0 0 0 0 0 0 0 0
0 0 0 0 0 0 0 0 0
0 0 0 0 0 0 0 0 0
0 0 0 0 0 0 0 0 0
0 0 0 0 0 0 0 0 0
0 0 0 0 0 0 0 0 0
0 0 0 0 0 0 0 0 0
0 0 0 0 0 0 0 0 0
0 0 0 0 0 0 0 0 0
0 0 0 0 0 0 0 0 0
0 0 0 0 0 0 0 0 0
0 0 0 0 0 0 0 0 0
0 0 0 0 0 0 0 0 0
0 0 0 0 0 0 0 0 0
0 0 0 0 0 0 0 0 0
0 0 0 0 0 0 0 0 0
0 0 0 0 0 0 0 0 0
0 0 0 0 0 0 0 0 0
0 0 0 0 0 0 0 0 0
0 0 0 0 0 0 0 0 0
0 0 0 0 0 0 0 0 0
0 0 0 0 0 0 0 0 0
0 0 0 0 0 0 0 0 0
0 0 0 0 0 0 0 0 0
0 0 0 0 0 0 0 0 0
0 0 0 0 0 0 0 0 0
0 0 0 0 0 0 0 0 0
0 0 0 0 0 0 0 0 0
0 0 0 0 0 0 0 0 0
0 0 0 0 0 0 0 0 0
0 0 0 0 0 0 0 0 0
0 0 0 0 0 0 0 0 0
0 0 0 0 0 0 0 0 0
0 0 0 0 0 0 0 0 0
0 0 0 0 0 0 0 0 0
0 0 0 0 0 0 0 0 0
0 0 0 0 0 0 0 0 0
0 0 0 0 0 0 0 0 0
0 0 0 0 0 0 0 0 0
0 0 0 0 0 0 0 0 0
0 0 0 0 0 0 0 0 0
0 0 0 0 0 0 0 0 0
0 0 0 0 0 0 0 0 0
0 0 0 0 0 0 0 0 0
0 0 0 0 0 0 0 0 0
0 0 0 0 0 0 0 0 0
0 0 0 0 0 0 0 0 0
0 0 0 0 0 0 0 0 0
0 0 0 0 0 0 0 0 0
0 0 0 0 0 0 0 0 0
0 0 0 0 0 0 0 0 0
0 0 0 0 0 0 0 0 0
0 0 0 0 0 0 0 0 0
0 0 0 0 0 0 0 0 0
0 0 0 0 0 0 0 0 0
0 0 0 0 0 0 0 0 0
0 0 0 0 0 0 0 0 0
0 0 0 0 0 0 0 0 0
0 0 0 0 0 0 0 0 0
0 0 0 0 0 0 0 0 0
0 0 0 0 0 0 0 0 0
0 0 0 0 0 0 0 0 0
0 0 0 0 0 0 0 0 0
0 0 0 0 0 0 0 0 0
0 0 0 0 0 0 0 0 0
0 0 0 0 0 0 0 0 0
0 0 0 0 0 0 0 0 0
0 0 0 0 0 0 0 0 0
0 0 0 0 0 0 0 0 0
0 0 0 0 0 0 0 0 0
0 0 0 0 0 0 0 0 0
0 0 0 0 0 0 0 0 0
0 0 0 0 0 0 0 0 0
0 0 0 0 0 0 0 0 0
0 0 0 0 0 0 0 0 0
0 0 0 0 0 0 0 0 0
0 0 0 0 0 0 0 0 0
0 0 0 0 0 0 0 0 0
0 0 0 0 0 0 0 0 0
0 0 0 0 0 0 0 0 0
0 0 0 0 0 0 0 0 0
0 0 0 0 0 0 0 0 0
0 0 0 0 0 0 0 0 0
0 0 0 0 0 0 0 0 0
0 0 0 0 0 0 0 0 0
0 0 0 0 0 0 0 0 0
0 0 0 0 0 0 0 0 0
0 0 0 0 0 0 0 0 0
0 0 0 0 0 0 0 0 0
0 0 0 0 0 0 0 0 0
0 0 0 0 0 0 0 0 0
0 0 0 0 0 0 0 0 0
0 0 0 0 0 0 0 0 0
0 0 0 0 0 0 0 0 0
0 0 0 0 0 0 0 0 0
0 0 0 0 0 0 0 0 0
0 0 0 0 0 0 0 0 0
0 0 0 0 0 0 0 0 0
0 0 0 0 0 0 0 0 0
0 0 0 0 0 0 0 0 0
0 0 0 0 0 0 0 0 0
0 0 0 0 0 0 0 0 0
0 0 0 0 0 0 0 0 0
0 0 0 0 0 0 0 0 0
0 0 0 0 0 0 0 0 0
0 0 0 0 0 0 0 0 0
0 0 0 0 0 0 0 0 0
0 0 0 0 0 0 0 0 0
0 0 0 0 0 0 0 0 0
0 0 0 0 0 0 0 0 0
0 0 0 0 0 0 0 0 0
0 0 0 0 0 0 0 0 0
0 0 0 0 0 0 0 0 0
0 0 0 0 0 0 0 0 0
0 0 0 0 0 0 0 0 0
0 0 0 0 0 0 0 0 0
0 0 0 0 0 0 0 0 0
0 0 0 0 0 0 0 0 0
0 0 0 0 0 0 0 0 0
0 0 0 0 0 0 0 0 0
0 0 0 0 0 0 0 0 0
0 0 0 0 0 0 0 0 0
0 0 0 0 0 0 0 0 0
0 0 0 0 0 0 0 0 0
0 0 0 0 0 0 0 0 0
0 0 0 0 0 0 0 0 0
0 0 0 0 0 0 0 0 0
0 0 0 0 0 0 0 0 0
0 0 0 0 0 0 0 0 0
0 0 0 0 0 0 0 0 0
0 0 0 0 0 0 0 0 0
0 0 0 0 0 0 0 0 0
0 0 0 0 0 0 0 0 0
0 0 0 0 0 0 0 0 0
0 0 0 0 0 0 0 0 0
0 0 0 0 0 0 0 0 0
0 0 0 0 0 0 0 0 0
0 0 0 0 0 0 0 0 0
0 0 0 0 0 0 0 0 0
0 0 0 0 0 0 0 0 0
0 0 0 0 0 0 0 0 0
0 0 0 0 0 0 0 0 0
0 0 0 0 0 0 0 0 0
0 0 0 0 0 0 0 0 0
0 0 0 0 0 0 0 0 0
0 0 0 0 0 0 0 0 0
0 0 0 0 0 0 0 0 0
0 0 0 0 0 0 0 0 0
0 0 0 0 0 0 0 0 0
0 0 0 0 0 0 0 0 0
0 0 0 0 0 0 0 0 0
0 0 0 0 0 0 0 0 0
0 0 0 0 0 0 0 0 0
0 0 0 0 0 0 0 0 0
0 0 0 0 0 0 0 0 0
0 0 0 0 0 0 0 0 0
0 0 0 0 0 0 0 0 0
0 0 0 0 0 0 0 0 0
0 0 0 0 0 0 0 0 0
0 0 0 0 0 0 0 0 0
0 0 0 0 0 0 0 0 0
0 0 0 0 0 0 0 0 0
0 0 0 0 0 0 0 0 0
0 0 0 0 0 0 0 0 0
0 0 0 0 0 0 0 0 0
0 0 0 0 0 0 0 0 0
0 0 0 0 0 0 0 0 0
0 0 0 0 0 0 0 0 0
0 0 0 0 0 0 0 0 0
0 0 0 0 0 0 0 0 0
0 0 0 0 0 0 0 0 0
0 0 0 0 0 0 0 0 0
0 0 0 0 0 0 0 0 0
0 0 0 0 0 0 0 0 0
0 0 0 0 0 0 0 0 0
0 0 0 0 0 0 0 0 0
0 0 0 0 0 0 0 0 0
0 0 0 0 0 0 0 0 0
0 0 0 0 0 0 0 0 0
0 0 0 0 0 0 0 0 0
0 0 0 0 0 0 0 0 0
0 0 0 0 0 0 0 0 0
0 0 0 0 0 0 0 0 0
0 0 0 0 0 0 0 0 0
0 0 0 0 0 0 0 0 0
0 0 0 0 0 0 0 0 0
0 0 0 0 0 0 0 0 0
0 0 0 0 0 0 0 0 0
0 0 0 0 0 0 0 0 0
0 0 0 0 0 0 0 0 0
0 0 0 0 0 0 0 0 0
0 0 0 0 0 0 0 0 0
0 0 0 0 0 0 0 0 0
0 0 0 0 0 0 0 0 0
0 0 0 0 0 0 0 0 0
0 0 0 0 0 0 0 0 0
0 0 0 0 0 0 0 0 0
0 0 0 0 0 0 0 0 0
0 0 0 0 0 0 0 0 0
0 0 0 0 0 0 0 0 0
0 0 0 0 0 0 0 0 0
0 0 0 0 0 0 0 0 0
0 0 0 0 0 0 0 0 0
0 0 0 0 0 0 0 0 0
0 0 0 0 0 0 0 0 0
0 0 0 0 0 0 0 0 0
0 0 0 0 0 0 0 0 0
0 0 0 0 0 0 0 0 0
0 0 0 0 0 0 0 0 0
0 0 0 0 0 0 0 0 0
0 0 0 0 0 0 0 0 0
0 0 0 0 0 0 0 0 0
0 0 0 0 0 0 0 0 0
0 0 0 0 0 0 0 0 0
0 0 0 0 0 0 0 0 0
0 0 0 0 0 0 0 0 0
0 0 0 0 0 0 0 0 0
0 0 0 0 0 0 0 0 0
0 0 0 0 0 0 0 0 0
0 0 0 0 0 0 0 0 0
0 0 0 0 0 0 0 0 0
0 0 0 0 0 0 0 0 0
0 0 0 0 0 0 0 0 0
0 0 0 0 0 0 0 0 0
0 0 0 0 0 0 0 0 0
0 0 0 0 0 0 0 0 0
0 0 0 0 0 0 0 0 0
0 0 0 0 0 0 0 0 0
0 0 0 0 0 0 0 0 0
0 0 0 0 0 0 0 0 0
0 0 0 0 0 0 0 0 0
0 0 0 0 0 0 0 0 0
0 0 0 0 0 0 0 0 0
0 0 0 0 0 0 0 0 0
0 0 0 0 0 0 0 0 0
0 0 0 0 0 0 0 0 0
0 0 0 0 0 0 0 0 0
0 0 0 0 0 0 0 0 0
0 0 0 0 0 0 0 0 0
0 0 0 0 0 0 0 0 0
0 0 0 0 0 0 0 0 0
0 0 0 0 0 0 0 0 0
0 0 0 0 0 0 0 0 0
0 0 0 0 0 0 0 0 0
0 0 0 0 0 0 0 0 0
0 0 0 0 0 0 0 0 0
0 0 0 0 0 0 0 0 0
0 0 0 0 0 0 0 0 0
0 0 0 0 0 0 0 0 0
0 0 0 0 0 0 0 0 0
0 0 0 0 0 0 0 0 0
0 0 0 0 0 0 0 0 0
0 0 0 0 0 0 0 0 0
0 0 0 0 0 0 0 0 0
0 0 0 0 0 0 0 0 0
0 0 0 0 0 0 0 0 0
0 0 0 0 0 0 0 0 0
0 0 0 0 0 0 0 0 0
0 0 0 0 0 0 0 0 0
0 0 0 0 0 0 0 0 0
0 0 0 0 0 0 0 0 0
0 0 0 0 0 0 0 0 0
0 0 0 0 0 0 0 0 0
0 0 0 0 0 0 0 0 0
0 0 0 0 0 0 0 0 0
0 0 0 0 0 0 0 0 0
0 0 0 0 0 0 0 0 0
0 0 0 0 0 0 0 0 0
0 0 0 0 0 0 0 0 0
0 0 0 0 0 0 0 0 0
0 0 0 0 0 0 0 0 0
0 0 0 0 0 0 0 0 0
0 0 0 0 0 0 0 0 0
0 0 0 0 0 0 0 0 0
0 0 0 0 0 0 0 0 0
0 0 0 0 0 0 0 0 0
0 0 0 0 0 0 0 0 0
0 0 0 0 0 0 0 0 0
0 0 0 0 0 0 0 0 0
0 0 0 0 0 0 0 0 0
0 0 0 0 0 0 0 0 0
0 0 0 0 0 0 0 0 0
0 0 0 0 0 0 0 0 0
0 0 0 0 0 0 0 0 0
0 0 0 0 0 0 0 0 0
0 0 0 0 0 0 0 0 0
0 0 0 0 0 0 0 0 0
0 0 0 0 0 0 0 0 0
0 0 0 0 0 0 0 0 0
0 0 0 0 0 0 0 0 0
0 0 0 0 0 0 0 0 0
0 0 0 0 0 0 0 0 0
0 0 0 0 0 0 0 0 0
0 0 0 0 0 0 0 0 0
0 0 0 0 0 0 0 0 0
0 0 0 0 0 0 0 0 0
0 0 0 0 0 0 0 0 0
0 0 0 0 0 0 0 0 0
0 0 0 0 0 0 0 0 0
0 0 0 0 0 0 0 0 0
0 0 0 0 0 0 0 0 0
0 0 0 0 0 0 0 0 0
0 0 0 0 0 0 0 0 0
0 0 0 0 0 0 0 0 0
0 0 0 0 0 0 0 0 0
0 0 0 0 0 0 0 0 0
0 0 0 0 0 0 0 0 0
0 0 0 0 0 0 0 0 0
0 0 0 0 0 0 0 0 0
0 0 0 0 0 0 0 0 0
0 0 0 0 0 0 0 0 0
0 0 0 0 0 0 0 0 0
0 0 0 0 0 0 0 0 0
0 0 0 0 0 0 0 0 0
0 0 0 0 0 0 0 0 0
0 0 0 0 0 0 0 0 0
0 0 0 0 0 0 0 0 0
0 0 0 0 0 0 0 0 0
0 0 0 0 0 0 0 0 0
0 0 0 0 0 0 0 0 0
0 0 0 0 0 0 0 0 0
0 0 0 0 0 0 0 0 0
0 0 0 0 0 0 0 0 0
0 0 0 0 0 0 0 0 0
0 0 0 0 0 0 0 0 0
0 0 0 0 0 0 0 0 0
0 0 0 0 0 0 0 0 0
0 0 0 0 0 0 0 0 0
0 0 0 0 0 0 0 0 0
0 0 0 0 0 0 0 0 0
0 0 0 0 0 0 0 0 0
0 0 0 0 0 0 0 0 0
0 0 0 0 0 0 0 0 0
0 0 0 0 0 0 0 0 0
0 0 0 0 0 0 0 0 0
0 0 0 0 0 0 0 0 0
0 0 0 0 0 0 0 0 0
0 0 0 0 0 0 0 0 0
0 0 0 0 0 0 0 0 0
0 0 0 0 0 0 0 0 0
0 0 0 0 0 0 0 0 0
0 0 0 0 0 0 0 0 0
0 0 0 0 0 0 0 0 0
0 0 0 0 0 0 0 0 0
0 0 0 0 0 0 0 0 0
0 0 0 0 0 0 0 0 0
0 0 0 0 0 0 0 0 0
0 0 0 0 0 0 0 0 0
0 0 0 0 0 0 0 0 0
0 0 0 0 0 0 0 0 0
0 0 0 0 0 0 0 0 0
0 0 0 0 0 0 0 0 0
0 0 0 0 0 0 0 0 0
0 0 0 0 0 0 0 0 0
0 0 0 0 0 0 0 0 0
0 0 0 0 0 0 0 0 0
0 0 0 0 0 0 0 0 0
0 0 0 0 0 0 0 0 0
0 0 0 0 0 0 0 0 0
0 0 0 0 0 0 0 0 0
0 0 0 0 0 0 0 0 0
0 0 0 0 0 0 0 0 0
0 0 0 0 0 0 0 0 0
0 0 0 0 0 0 0 0 0
0 0 0 0 0 0 0 0 0
0 0 0 0 0 0 0 0 0
0 0 0 0 0 0 0 0 0
0 0 0 0 0 0 0 0 0
0 0 0 0 0 0 0 0 0
0 0 0 0 0 0 0 0 0
0 0 0 0 0 0 0 0 0
0 0 0 0 0 0 0 0 0
0 0 0 0 0 0 0 0 0
0 0 0 0 0 0 0 0 0
0 0 0 0 0 0 0 0 0
0 0 0 0 0 0 0 0 0
0 0 0 0 0 0 0 0 0
0 0 0 0 0 0 0 0 0
0 0 0 0 0 0 0 0 0
0 0 0 0 0 0 0 0 0
0 0 0 0 0 0 0 0 0
0 0 0 0 0 0 0 0 0
0 0 0 0 0 0 0 0 0
0 0 0 0 0 0 0 0 0
0 0 0 0 0 0 0 0 0
0 0 0 0 0 0 0 0 0
0 0 0 0 0 0 0 0 0
0 0 0 0 0 0 0 0 0
0 0 0 0 0 0 0 0 0
0 0 0 0 0 0 0 0 0
0 0 0 0 0 0 0 0 0
0 0 0 0 0 0 0 0 0
0 0 0 0 0 0 0 0 0
0 0 0 0 0 0 0 0 0
0 0 0 0 0 0 0 0 0
0 0 0 0 0 0 0 0 0
0 0 0 0 0 0 0 0 0
0 0 0 0 0 0 0 0 0
0 0 0 0 0 0 0 0 0
0 0 0 0 0 0 0 0 0
0 0 0 0 0 0 0 0 0
0 0 0 0 0 0 0 0 0
0 0 0 0 0 0 0 0 0
0 0 0 0 0 0 0 0 0
0 0 0 0 0 0 0 0 0
0 0 0 0 0 0 0 0 0
0 0 0 0 0 0 0 0 0
0 0 0 0 0 0 0 0 0
0 0 0 0 0 0 0 0 0
0 0 0 0 0 0 0 0 0
0 0 0 0 0 0 0 0 0
0 0 0 0 0 0 0 0 0
0 0 0 0 0 0 0 0 0
0 0 0 0 0 0 0 0 0
0 0 0 0 0 0 0 0 0
0 0 0 0 0 0 0 0 0
0 0 0 0 0 0 0 0 0
0 0 0 0 0 0 0 0 0
0 0 0 0 0 0 0 0 0
0 0 0 0 0 0 0 0 0
0 0 0 0 0 0 0 0 0
0 0 0 0 0 0 0 0 0
0 0 0 0 0 0 0 0 0
0 0 0 0 0 0 0 0 0
0 0 0 0 0 0 0 0 0
0 0 0 0 0 0 0 0 0
0 0 0 0 0 0 0 0 0
0 0 0 0 0 0 0 0 0
0 0 0 0 0 0 0 0 0
0 0 0 0 0 0 0 0 0
0 0 0 0 0 0 0 0 0
0 0 0 0 0 0 0 0 0
0 0 0 0 0 0 0 0 0
0 0 0 0 0 0 0 0 0
0 0 0 0 0 0 0 0 0
0 0 0 0 0 0 0 0 0
0 0 0 0 0 0 0 0 0
0 0 0 0 0 0 0 0 0
0 0 0 0 0 0 0 0 0
0 0 0 0 0 0 0 0 0
0 0 0 0 0 0 0 0 0
0 0 0 0 0 0 0 0 0
0 0 0 0 0 0 0 0 0
0 0 0 0 0 0 0 0 0
0 0 0 0 0 0 0 0 0
0 0 0 0 0 0 0 0 0
0 0 0 0 0 0 0 0 0
0 0 0 0 0 0 0 0 0
0 0 0 0 0 0 0 0 0
0 0 0 0 0 0 0 0 0
0 0 0 0 0 0 0 0 0
0 0 0 0 0 0 0 0 0
0 0 0 0 0 0 0 0 0
0 0 0 0 0 0 0 0 0
0 0 0 0 0 0 0 0 0
0 0 0 0 0 0 0 0 0
0 0 0 0 0 0 0 0 0
0 0 0 0 0 0 0 0 0
0 0 0 0 0 0 0 0 0
0 0 0 0 0 0 0 0 0
0 0 0 0 0 0 0 0 0
0 0 0 0 0 0 0 0 0
0 0 0 0 0 0 0 0 0
0 0 0 0 0 0 0 0 0
0 0 0 0 0 0 0 0 0
0 0 0 0 0 0 0 0 0
0 0 0 0 0 0 0 0 0
0 0 0 0 0 0 0 0 0
0 0 0 0 0 0 0 0 0
0 0 0 0 0 0 0 0 0
0 0 0 0 0 0 0 0 0
0 0 0 0 0 0 0 0 0
0 0 0 0 0 0 0 0 0
0 0 0 0 0 0 0 0 0
0 0 0 0 0 0 0 0 0
0 0 0 0 0 0 0 0 0
0 0 0 0 0 0 0 0 0
0 0 0 0 0 0 0 0 0
0 0 0 0 0 0 0 0 0
0 0 0 0 0 0 0 0 0
0 0 0 0 0 0 0 0 0
0 0 0 0 0 0 0 0 0
0 0 0 0 0 0 0 0 0
0 0 0 0 0 0 0 0 0
0 0 0 0 0 0 0 0 0
0 0 0 0 0 0 0 0 0
0 0 0 0 0 0 0 0 0
0 0 0 0 0 0 0 0 0
0 0 0 0 0 0 0 0 0
0 0 0 0 0 0 0 0 0
0 0 0 0 0 0 0 0 0
0 0 0 0 0 0 0 0 0
0 0 0 0 0 0 0 0 0
0 0 0 0 0 0 0 0 0
0 0 0 0 0 0 0 0 0
0 0 0 0 0 0 0 0 0
0 0 0 0 0 0 0 0 0
0 0 0 0 0 0 0 0 0
0 0 0 0 0 0 0 0 0
0 0 0 0 0 0 0 0 0
0 0 0 0 0 0 0 0 0
0 0 0 0 0 0 0 0 0
0 0 0 0 0 0 0 0 0
0 0 0 0 0 0 0 0 0
0 0 0 0 0 0 0 0 0
0 0 0 0 0 0 0 0 0
0 0 0 0 0 0 0 0 0
0 0 0 0 0 0 0 0 0
0 0 0 0 0 0 0 0 0
0 0 0 0 0 0 0 0 0
0 0 0 0 0 0 0 0 0
0 0 0 0 0 0 0 0 0
0 0 0 0 0 0 0 0 0
0 0 0 0 0 0 0 0 0
0 0 0 0 0 0 0 0 0
0 0 0 0 0 0 0 0 0
0 0 0 0 0 0 0 0 0
0 0 0 0 0 0 0 0 0
0 0 0 0 0 0 0 0 0
0 0 0 0 0 0 0 0 0
0 0 0 0 0 0 0 0 0
0 0 0 0 0 0 0 0 0
0 0 0 0 0 0 0 0 0
0 0 0 0 0 0 0 0 0
0 0 0 0 0 0 0 0 0
0 0 0 0 0 0 0 0 0
0 0 0 0 0 0 0 0 0
0 0 0 0 0 0 0 0 0
0 0 0 0 0 0 0 0 0
0 0 0 0 0 0 0 0 0
0 0 0 0 0 0 0 0 0
0 0 0 0 0 0 0 0 0
0 0 0 0 0 0 0 0 0
0 0 0 0 0 0 0 0 0
0 0 0 0 0 0 0 0 0
0 0 0 0 0 0 0 0 0
0 0 0 0 0 0 0 0 0
0 0 0 0 0 0 0 0 0
0 0 0 0 0 0 0 0 0
0 0 0 0 0 0 0 0 0
0 0 0 0 0 0 0 0 0
0 0 0 0 0 0 0 0 0
0 0 0 0 0 0 0 0 0
0 0 0 0 0 0 0 0 0
0 0 0 0 0 0 0 0 0
0 0 0 0 0 0 0 0 0
0 0 0 0 0 0 0 0 0
0 0 0 0 0 0 0 0 0
0 0 0 0 0 0 0 0 0
0 0 0 0 0 0 0 0 0
0 0 0 0 0 0 0 0 0
0 0 0 0 0 0 0 0 0
0 0 0 0 0 0 0 0 0
0 0 0 0 0 0 0 0 0
0 0 0 0 0 0 0 0 0
0 0 0 0 0 0 0 0 0
0 0 0 0 0 0 0 0 0
0 0 0 0 0 0 0 0 0
0 0 0 0 0 0 0 0 0
0 0 0 0 0 0 0 0 0
0 0 0 0 0 0 0 0 0
0 0 0 0 0 0 0 0 0
0 0 0 0 0 0 0 0 0
0 0 0 0 0 0 0 0 0
0 0 0 0 0 0 0 0 0
0 0 0 0 0 0 0 0 0
0 0 0 0 0 0 0 0 0
0 0 0 0 0 0 0 0 0
0 0 0 0 0 0 0 0 0
0 0 0 0 0 0 0 0 0
0 0 0 0 0 0 0 0 0
0 0 0 0 0 0 0 0 0
0 0 0 0 0 0 0 0 0
0 0 0 0 0 0 0 0 0
0 0 0 0 0 0 0 0 0
0 0 0 0 0 0 0 0 0
0 0 0 0 0 0 0 0 0
0 0 0 0 0 0 0 0 0
0 0 0 0 0 0 0 0 0
0 0 0 0 0 0 0 0 0
0 0 0 0 0 0 0 0 0
0 0 0 0 0 0 0 0 0
0 0 0 0 0 0 0 0 0
0 0 0 0 0 0 0 0 0
0 0 0 0 0 0 0 0 0
0 0 0 0 0 0 0 0 0
0 0 0 0 0 0 0 0 0
0 0 0 0 0 0 0 0 0
0 0 0 0 0 0 0 0 0
0 0 0 0 0 0 0 0 0
0 0 0 0 0 0 0 0 0
0 0 0 0 0 0 0 0 0
0 0 0 0 0 0 0 0 0
0 0 0 0 0 0 0 0 0
0 0 0 0 0 0 0 0 0
0 0 0 0 0 0 0 0 0
0 0 0 0 0 0 0 0 0
0 0 0 0 0 0 0 0 0
0 0 0 0 0 0 0 0 0
0 0 0 0 0 0 0 0 0
0 0 0 0 0 0 0 0 0
0 0 0 0 0 0 0 0 0
0 0 0 0 0 0 0 0 0
0 0 0 0 0 0 0 0 0
0 0 0 0 0 0 0 0 0
0 0 0 0 0 0 0 0 0
0 0 0 0 0 0 0 0 0
0 0 0 0 0 0 0 0 0
0 0 0 0 0 0 0 0 0
0 0 0 0 0 0 0 0 0
0 0 0 0 0 0 0 0 0
0 0 0 0 0 0 0 0 0
0 0 0 0 0 0 0 0 0
0 0 0 0 0 0 0 0 0
0 0 0 0 0 0 0 0 0
0 0 0 0 0 0 0 0 0
0 0 0 0 0 0 0 0 0
0 0 0 0 0 0 0 0 0
0 0 0 0 0 0 0 0 0
0 0 0 0 0 0 0 0 0
0 0 0 0 0 0 0 0 0
0 0 0 0 0 0 0 0 0
0 0 0 0 0 0 0 0 0
0 0 0 0 0 0 0 0 0
0 0 0 0 0 0 0 0 0
0 0 0 0 0 0 0 0 0
0 0 0 0 0 0 0 0 0
0 0 0 0 0 0 0 0 0
0 0 0 0 0 0 0 0 0
0 0 0 0 0 0 0 0 0
0 0 0 0 0 0 0 0 0
0 0 0 0 0 0 0 0 0
0 0 0 0 0 0 0 0 0
0 0 0 0 0 0 0 0 0
0 0 0 0 0 0 0 0 0
0 0 0 0 0 0 0 0 0
0 0 0 0 0 0 0 0 0
0 0 0 0 0 0 0 0 0
0 0 0 0 0 0 0 0 0
0 0 0 0 0 0 0 0 0
0 0 0 0 0 0 0 0 0
0 0 0 0 0 0 0 0 0
0 0 0 0 0 0 0 0 0
0 0 0 0 0 0 0 0 0
0 0 0 0 0 0 0 0 0
0 0 0 0 0 0 0 0 0
0 0 0 0 0 0 0 0 0
0 0 0 0 0 0 0 0 0
0 0 0 0 0 0 0 0 0
0 0 0 0 0 0 0 0 0
0 0 0 0 0 0 0 0 0
0 0 0 0 0 0 0 0 0
0 0 0 0 0 0 0 0 0
0 0 0 0 0 0 0 0 0
0 0 0 0 0 0 0 0 0
0 0 0 0 0 0 0 0 0
0 0 0 0 0 0 0 0 0
0 0 0 0 0 0 0 0 0
0 0 0 0 0 0 0 0 0
0 0 0 0 0 0 0 0 0
0 0 0 0 0 0 0 0 0
0 0 0 0 0 0 0 0 0
0 0 0 0 0 0 0 0 0
0 0 0 0 0 0 0 0 0
0 0 0 0 0 0 0 0 0
0 0 0 0 0 0 0 0 0
0 0 0 0 0 0 0 0 0
0 0 0 0 0 0 0 0 0
0 0 0 0 0 0 0 0 0
0 0 0 0 0 0 0 0 0
0 0 0 0 0 0 0 0 0
0 0 0 0 0 0 0 0 0
0 0 0 0 0 0 0 0 0
0 0 0 0 0 0 0 0 0
0 0 0 0 0 0 0 0 0
0 0 0 0 0 0 0 0 0
0 0 0 0 0 0 0 0 0
0 0 0 0 0 0 0 0 0
0 0 0 0 0 0 0 0 0
0 0 0 0 0 0 0 0 0
0 0 0 0 0 0 0 0 0
0 0 0 0 0 0 0 0 0
0 0 0 0 0 0 0 0 0
0 0 0 0 0 0 0 0 0
0 0 0 0 0 0 0 0 0
0 0 0 0 0 0 0 0 0
0 0 0 0 0 0 0 0 0
0 0 0 0 0 0 0 0 0
0 0 0 0 0 0 0 0 0
0 0 0 0 0 0 0 0 0
0 0 0 0 0 0 0 0 0
0 0 0 0 0 0 0 0 0
0 0 0 0 0 0 0 0 0
0 0 0 0 0 0 0 0 0
0 0 0 0 0 0 0 0 0
0 0 0 0 0 0 0 0 0
0 0 0 0 0 0 0 0 0
0 0 0 0 0 0 0 0 0
0 0 0 0 0 0 0 0 0
0 0 0 0 0 0 0 0 0
0 0 0 0 0 0 0 0 0
0 0 0 0 0 0 0 0 0
0 0 0 0 0 0 0 0 0
0 0 0 0 0 0 0 0 0
0 0 0 0 0 0 0 0 0
0 0 0 0 0 0 0 0 0
0 0 0 0 0 0 0 0 0
0 0 0 0 0 0 0 0 0
0 0 0 0 0 0 0 0 0
0 0 0 0 0 0 0 0 0
0 0 0 0 0 0 0 0 0
0 0 0 0 0 0 0 0 0
0 0 0 0 0 0 0 0 0
0 0 0 0 0 0 0 0 0
0 0 0 0 0 0 0 0 0
0 0 0 0 0 0 0 0 0
0 0 0 0 0 0 0 0 0
0 0 0 0 0 0 0 0 0
0 0 0 0 0 0 0 0 0
0 0 0 0 0 0 0 0 0
0 0 0 0 0 0 0 0 0
0 0 0 0 0 0 0 0 0
0 0 0 0 0 0 0 0 0
0 0 0 0 0 0 0 0 0
0 0 0 0 0 0 0 0 0
0 0 0 0 0 0 0 0 0
0 0 0 0 0 0 0 0 0
0 0 0 0 0 0 0 0 0
0 0 0 0 0 0 0 0 0
0 0 0 0 0 0 0 0 0
0 0 0 0 0 0 0 0 0
0 0 0 0 0 0 0 0 0
0 0 0 0 0 0 0 0 0
0 0 0 0 0 0 0 0 0
0 0 0 0 0 0 0 0 0
0 0 0 0 0 0 0 0 0
0 0 0 0 0 0 0 0 0
0 0 0 0 0 0 0 0 0
0 0 0 0 0 0 0 0 0
0 0 0 0 0 0 0 0 0
0 0 0 0 0 0 0 0 0
0 0 0 0 0 0 0 0 0
0 0 0 0 0 0 0 0 0
0 0 0 0 0 0 0 0 0
0 0 0 0 0 0 0 0 0
0 0 0 0 0 0 0 0 0
0 0 0 0 0 0 0 0 0
0 0 0 0 0 0 0 0 0
0 0 0 0 0 0 0 0 0
0 0 0 0 0 0 0 0 0
0 0 0 0 0 0 0 0 0
0 0 0 0 0 0 0 0 0
0 0 0 0 0 0 0 0 0
0 0 0 0 0 0 0 0 0
0 0 0 0 0 0 0 0 0
0 0 0 0 0 0 0 0 0
0 0 0 0 0 0 0 0 0
0 0 0 0 0 0 0 0 0
0 0 0 0 0 0 0 0 0
0 0 0 0 0 0 0 0 0
0 0 0 0 0 0 0 0 0
0 0 0 0 0 0 0 0 0
0 0 0 0 0 0 0 0 0
0 0 0 0 0 0 0 0 0
0 0 0 0 0 0 0 0 0
0 0 0 0 0 0 0 0 0
0 0 0 0 0 0 0 0 0
0 0 0 0 0 0 0 0 0
0 0 0 0 0 0 0 0 0
0 0 0 0 0 0 0 0 0
0 0 0 0 0 0 0 0 0
0 0 0 0 0 0 0 0 0
0 0 0 0 0 0 0 0 0
0 0 0 0 0 0 0 0 0
0 0 0 0 0 0 0 0 0
0 0 0 0 0 0 0 0 0
0 0 0 0 0 0 0 0 0
0 0 0 0 0 0 0 0 0
0 0 0 0 0 0 0 0 0
0 0 0 0 0 0 0 0 0
0 0 0 0 0 0 0 0 0
0 0 0 0 0 0 0 0 0
0 0 0 0 0 0 0 0 0
0 0 0 0 0 0 0 0 0
0 0 0 0 0 0 0 0 0
0 0 0 0 0 0 0 0 0
0 0 0 0 0 0 0 0 0
0 0 0 0 0 0 0 0 0
0 0 0 0 0 0 0 0 0
0 0 0 0 0 0 0 0 0
0 0 0 0 0 0 0 0 0
0 0 0 0 0 0 0 0 0
0 0 0 0 0 0 0 0 0
0 0 0 0 0 0 0 0 0
0 0 0 0 0 0 0 0 0
0 0 0 0 0 0 0 0 0
0 0 0 0 0 0 0 0 0
0 0 0 0 0 0 0 0 0
0 0 0 0 0 0 0 0 0
0 0 0 0 0 0 0 0 0
0 0 0 0 0 0 0 0 0
0 0 0 0 0 0 0 0 0
0 0 0 0 0 0 0 0 0
0 0 0 0 0 0 0 0 0
0 0 0 0 0 0 0 0 0
0 0 0 0 0 0 0 0 0
0 0 0 0 0 0 0 0 0
0 0 0 0 0 0 0 0 0
0 0 0 0 0 0 0 0 0
0 0 0 0 0 0 0 0 0
0 0 0 0 0 0 0 0 0
0 0 0 0 0 0 0 0 0
0 0 0 0 0 0 0 0 0
0 0 0 0 0 0 0 0 0
0 0 0 0 0 0 0 0 0
0 0 0 0 0 0 0 0 0
0 0 0 0 0 0 0 0 0
0 0 0 0 0 0 0 0 0
0 0 0 0 0 0 0 0 0
0 0 0 0 0 0 0 0 0
0 0 0 0 0 0 0 0 0
0 0 0 0 0 0 0 0 0
0 0 0 0 0 0 0 0 0
0 0 0 0 0 0 0 0 0
0 0 0 0 0 0 0 0 0
0 0 0 0 0 0 0 0 0
0 0 0 0 0 0 0 0 0
0 0 0 0 0 0 0 0 0
0 0 0 0 0 0 0 0 0
0 0 0 0 0 0 0 0 0
0 0 0 0 0 0 0 0 0
0 0 0 0 0 0 0 0 0
0 0 0 0 0 0 0 0 0
0 0 0 0 0 0 0 0 0
0 0 0 0 0 0 0 0 0
0 0 0 0 0 0 0 0 0
0 0 0 0 0 0 0 0 0
0 0 0 0 0 0 0 0 0
0 0 0 0 0 0 0 0 0
0 0 0 0 0 0 0 0 0
0 0 0 0 0 0 0 0 0
0 0 0 0 0 0 0 0 0
0 0 0 0 0 0 0 0 0
0 0 0 0 0 0 0 0 0
0 0 0 0 0 0 0 0 0
0 0 0 0 0 0 0 0 0
0 0 0 0 0 0 0 0 0
0 0 0 0 0 0 0 0 0
0 0 0 0 0 0 0 0 0
0 0 0 0 0 0 0 0 0
0 0 0 0 0 0 0 0 0
0 0 0 0 0 0 0 0 0
0 0 0 0 0 0 0 0 0
0 0 0 0 0 0 0 0 0
0 0 0 0 0 0 0 0 0
0 0 0 0 0 0 0 0 0
0 0 0 0 0 0 0 0 0
0 0 0 0 0 0 0 0 0
0 0 0 0 0 0 0 0 0
0 0 0 0 0 0 0 0 0
0 0 0 0 0 0 0 0 0
0 0 0 0 0 0 0 0 0
0 0 0 0 0 0 0 0 0
0 0 0 0 0 0 0 0 0
0 0 0 0 0 0 0 0 0
0 0 0 0 0 0 0 0 0
0 0 0 0 0 0 0 0 0
0 0 0 0 0 0 0 0 0
0 0 0 0 0 0 0 0 0
0 0 0 0 0 0 0 0 0
0 0 0 0 0 0 0 0 0
0 0 0 0 0 0 0 0 0
0 0 0 0 0 0 0 0 0
0 0 0 0 0 0 0 0 0
0 0 0 0 0 0 0 0 0
0 0 0 0 0 0 0 0 0
0 0 0 0 0 0 0 0 0
0 0 0 0 0 0 0 0 0
0 0 0 0 0 0 0 0 0
0 0 0 0 0 0 0 0 0
0 0 0 0 0 0 0 0 0
0 0 0 0 0 0 0 0 0
0 0 0 0 0 0 0 0 0
0 0 0 0 0 0 0 0 0
0 0 0 0 0 0 0 0 0
0 0 0 0 0 0 0 0 0
0 0 0 0 0 0 0 0 0
0 0 0 0 0 0 0 0 0
0 0 0 0 0 0 0 0 0
0 0 0 0 0 0 0 0 0
0 0 0 0 0 0 0 0 0
0 0 0 0 0 0 0 0 0
0 0 0 0 0 0 0 0 0
0 0 0 0 0 0 0 0 0
0 0 0 0 0 0 0 0 0
0 0 0 0 0 0 0 0 0
0 0 0 0 0 0 0 0 0
0 0 0 0 0 0 0 0 0
0 0 0 0 0 0 0 0 0
0 0 0 0 0 0 0 0 0
0 0 0 0 0 0 0 0 0
0 0 0 0 0 0 0 0 0
0 0 0 0 0 0 0 0 0
0 0 0 0 0 0 0 0 0
0 0 0 0 0 0 0 0 0
0 0 0 0 0 0 0 0 0
0 0 0 0 0 0 0 0 0
0 0 0 0 0 0 0 0 0
0 0 0 0 0 0 0 0 0
0 0 0 0 0 0 0 0 0
0 0 0 0 0 0 0 0 0
0 0 0 0 0 0 0 0 0
0 0 0 0 0 0 0 0 0
0 0 0 0 0 0 0 0 0
0 0 0 0 0 0 0 0 0
0 0 0 0 0 0 0 0 0
0 0 0 0 0 0 0 0 0
0 0 0 0 0 0 0 0 0
0 0 0 0 0 0 0 0 0
0 0 0 0 0 0 0 0 0
0 0 0 0 0 0 0 0 0
0 0 0 0 0 0 0 0 0
0 0 0 0 0 0 0 0 0
0 0 0 0 0 0 0 0 0
0 0 0 0 0 0 0 0 0
0 0 0 0 0 0 0 0 0
0 0 0 0 0 0 0 0 0
0 0 0 0 0 0 0 0 0
0 0 0 0 0 0 0 0 0
0 0 0 0 0 0 0 0 0
0 0 0 0 0 0 0 0 0
0 0 0 0 0 0 0 0 0
0 0 0 0 0 0 0 0 0
0 0 0 0 0 0 0 0 0
0 0 0 0 0 0 0 0 0
0 0 0 0 0 0 0 0 0
0 0 0 0 0 0 0 0 0
0 0 0 0 0 0 0 0 0
0 0 0 0 0 0 0 0 0
0 0 0 0 0 0 0 0 0
0 0 0 0 0 0 0 0 0
SCALARS max_shear_normal_tau double 9
LOOKUP_TABLE default
0 0 0 0 0 0 0 0 0
0 0 0 0 0 0 0 0 0
0 0 0 0 0 0 0 0 0
0 0 0 0 0 0 0 0 0
0 0 0 0 0 0 0 0 0
0 0 0 0 0 0 0 0 0
0 0 0 0 0 0 0 0 0
0 0 0 0 0 0 0 0 0
0 0 0 0 0 0 0 0 0
0 0 0 0 0 0 0 0 0
0 0 0 0 0 0 0 0 0
0 0 0 0 0 0 0 0 0
0 0 0 0 0 0 0 0 0
0 0 0 0 0 0 0 0 0
0 0 0 0 0 0 0 0 0
0 0 0 0 0 0 0 0 0
0 0 0 0 0 0 0 0 0
0 0 0 0 0 0 0 0 0
0 0 0 0 0 0 0 0 0
0 0 0 0 0 0 0 0 0
0 0 0 0 0 0 0 0 0
0 0 0 0 0 0 0 0 0
0 0 0 0 0 0 0 0 0
0 0 0 0 0 0 0 0 0
0 0 0 0 0 0 0 0 0
0 0 0 0 0 0 0 0 0
0 0 0 0 0 0 0 0 0
0 0 0 0 0 0 0 0 0
0 0 0 0 0 0 0 0 0
0 0 0 0 0 0 0 0 0
0 0 0 0 0 0 0 0 0
0 0 0 0 0 0 0 0 0
0 0 0 0 0 0 0 0 0
0 0 0 0 0 0 0 0 0
0 0 0 0 0 0 0 0 0
0 0 0 0 0 0 0 0 0
0 0 0 0 0 0 0 0 0
0 0 0 0 0 0 0 0 0
0 0 0 0 0 0 0 0 0
0 0 0 0 0 0 0 0 0
0 0 0 0 0 0 0 0 0
0 0 0 0 0 0 0 0 0
0 0 0 0 0 0 0 0 0
0 0 0 0 0 0 0 0 0
0 0 0 0 0 0 0 0 0
0 0 0 0 0 0 0 0 0
0 0 0 0 0 0 0 0 0
0 0 0 0 0 0 0 0 0
0 0 0 0 0 0 0 0 0
0 0 0 0 0 0 0 0 0
0 0 0 0 0 0 0 0 0
0 0 0 0 0 0 0 0 0
0 0 0 0 0 0 0 0 0
0 0 0 0 0 0 0 0 0
0 0 0 0 0 0 0 0 0
0 0 0 0 0 0 0 0 0
0 0 0 0 0 0 0 0 0
0 0 0 0 0 0 0 0 0
0 0 0 0 0 0 0 0 0
0 0 0 0 0 0 0 0 0
0 0 0 0 0 0 0 0 0
0 0 0 0 0 0 0 0 0
0 0 0 0 0 0 0 0 0
0 0 0 0 0 0 0 0 0
0 0 0 0 0 0 0 0 0
0 0 0 0 0 0 0 0 0
0 0 0 0 0 0 0 0 0
0 0 0 0 0 0 0 0 0
0 0 0 0 0 0 0 0 0
0 0 0 0 0 0 0 0 0
0 0 0 0 0 0 0 0 0
0 0 0 0 0 0 0 0 0
0 0 0 0 0 0 0 0 0
0 0 0 0 0 0 0 0 0
0 0 0 0 0 0 0 0 0
0 0 0 0 0 0 0 0 0
0 0 0 0 0 0 0 0 0
0 0 0 0 0 0 0 0 0
0 0 0 0 0 0 0 0 0
0 0 0 0 0 0 0 0 0
0 0 0 0 0 0 0 0 0
0 0 0 0 0 0 0 0 0
0 0 0 0 0 0 0 0 0
0 0 0 0 0 0 0 0 0
0 0 0 0 0 0 0 0 0
0 0 0 0 0 0 0 0 0
0 0 0 0 0 0 0 0 0
0 0 0 0 0 0 0 0 0
0 0 0 0 0 0 0 0 0
0 0 0 0 0 0 0 0 0
0 0 0 0 0 0 0 0 0
0 0 0 0 0 0 0 0 0
0 0 0 0 0 0 0 0 0
0 0 0 0 0 0 0 0 0
0 0 0 0 0 0 0 0 0
0 0 0 0 0 0 0 0 0
0 0 0 0 0 0 0 0 0
0 0 0 0 0 0 0 0 0
0 0 0 0 0 0 0 0 0
0 0 0 0 0 0 0 0 0
0 0 0 0 0 0 0 0 0
0 0 0 0 0 0 0 0 0
0 0 0 0 0 0 0 0 0
0 0 0 0 0 0 0 0 0
0 0 0 0 0 0 0 0 0
0 0 0 0 0 0 0 0 0
0 0 0 0 0 0 0 0 0
0 0 0 0 0 0 0 0 0
0 0 0 0 0 0 0 0 0
0 0 0 0 0 0 0 0 0
0 0 0 0 0 0 0 0 0
0 0 0 0 0 0 0 0 0
0 0 0 0 0 0 0 0 0
0 0 0 0 0 0 0 0 0
0 0 0 0 0 0 0 0 0
0 0 0 0 0 0 0 0 0
0 0 0 0 0 0 0 0 0
0 0 0 0 0 0 0 0 0
0 0 0 0 0 0 0 0 0
0 0 0 0 0 0 0 0 0
0 0 0 0 0 0 0 0 0
0 0 0 0 0 0 0 0 0
0 0 0 0 0 0 0 0 0
0 0 0 0 0 0 0 0 0
0 0 0 0 0 0 0 0 0
0 0 0 0 0 0 0 0 0
0 0 0 0 0 0 0 0 0
0 0 0 0 0 0 0 0 0
0 0 0 0 0 0 0 0 0
0 0 0 0 0 0 0 0 0
0 0 0 0 0 0 0 0 0
0 0 0 0 0 0 0 0 0
0 0 0 0 0 0 0 0 0
0 0 0 0 0 0 0 0 0
0 0 0 0 0 0 0 0 0
0 0 0 0 0 0 0 0 0
0 0 0 0 0 0 0 0 0
0 0 0 0 0 0 0 0 0
0 0 0 0 0 0 0 0 0
0 0 0 0 0 0 0 0 0
0 0 0 0 0 0 0 0 0
0 0 0 0 0 0 0 0 0
0 0 0 0 0 0 0 0 0
0 0 0 0 0 0 0 0 0
0 0 0 0 0 0 0 0 0
0 0 0 0 0 0 0 0 0
0 0 0 0 0 0 0 0 0
0 0 0 0 0 0 0 0 0
0 0 0 0 0 0 0 0 0
0 0 0 0 0 0 0 0 0
0 0 0 0 0 0 0 0 0
0 0 0 0 0 0 0 0 0
0 0 0 0 0 0 0 0 0
0 0 0 0 0 0 0 0 0
0 0 0 0 0 0 0 0 0
0 0 0 0 0 0 0 0 0
0 0 0 0 0 0 0 0 0
0 0 0 0 0 0 0 0 0
0.0620673 0.064723 0.0623645 0.0651046 0.0620673 0.064723 0.0623645 0.0651046 0
0.0667316 0.0695632 0.0671803 0.0701125 0.0667316 0.0695632 0.0671803 0.0701125 0
0.0717452 0.0748763 0.0722746 0.0752498 0.0717452 0.0748763 0.0722746 0.0752498 0
0.0774284 0.0812677 0.0777119 0.0814619 0.0774284 0.0812677 0.0777119 0.0814619 0
0.0841076 0.0880268 0.084232 0.0880497 0.0841076 0.0880268 0.084232 0.0880497 0
0.0482126 0.050245 0.0487023 0.0507484 0.0482126 0.050245 0.0487023 0.0507484 0
0.0519305 0.0544905 0.0524262 0.0549539 0.0519305 0.0544905 0.0524262 0.0549539 0
0.0564745 0.0593283 0.0569288 0.0597872 0.0564745 0.0593283 0.0569288 0.0597872 0
0.0614311 0.0643214 0.0618181 0.0645083 0.0614311 0.0643214 0.0618181 0.0645083 0
0.06647 0.0694504 0.0665342 0.0693786 0.06647 0.0694504 0.0665342 0.0693786 0
0.0717345 0.0749949 0.0715939 0.074803 0.0717345 0.0749949 0.0715939 0.074803 0
0.0775729 0.0813546 0.0773866 0.081234 0.0775729 0.0813546 0.0773866 0.081234 0
0.084195 0.0881731 0.0840934 0.0880576 0.084195 0.0881731 0.0840934 0.0880576 0
0.043305 0.0454666 0.0439847 0.0461998 0.043305 0.0454666 0.0439847 0.0461998 0
0.0471216 0.0494744 0.0477839 0.0499009 0.0471216 0.0494744 0.0477839 0.0499009 0
0.0513036 0.0539426 0.0516276 0.0542166 0.0513036 0.0539426 0.0516276 0.0542166 0
0.0559726 0.0588759 0.056215 0.0590805 0.0559726 0.0588759 0.056215 0.0590805 0
0.0610585 0.0641173 0.0612247 0.0642165 0.0610585 0.0641173 0.0612247 0.0642165 0
0.0663936 0.0695541 0.0664332 0.0694979 0.0663936 0.0695541 0.0664332 0.0694979 0
0.0719465 0.0753222 0.0718292 0.0751337 0.0719465 0.0753222 0.0718292 0.0751337 0
0.0779266 0.081666 0.0777172 0.0814704 0.0779266 0.081666 0.0777172 0.0814704 0
0.0844564 0.0883404 0.0842921 0.088248 0.0844564 0.0883404 0.0842921 0.088248 0
0.038175 0.0404084 0.0388316 0.0411442 0.038175 0.0404084 0.0388316 0.0411442 0
0.042103 0.0445009 0.042798 0.045013 0.042103 0.0445009 0.042798 0.045013 0
0.0463045 0.0488291 0.0467275 0.0491872 0.0463045 0.0488291 0.0467275 0.0491872 0
0.0507593 0.0535043 0.0510702 0.0537508 0.0507593 0.0535043 0.0510702 0.0537508 0
0.0556014 0.0585829 0.0558073 0.0587417 0.0556014 0.0585829 0.0558073 0.0587417 0
0.0608345 0.0640038 0.0609533 0.0640601 0.0608345 0.0640038 0.0609533 0.0640601 0
0.066373 0.0696763 0.0663775 0.069602 0.066373 0.0696763 0.0663775 0.069602 0
0.0721596 0.0756406 0.072035 0.0754577 0.0721596 0.0756406 0.072035 0.0754577 0
0.0782932 0.0820593 0.0780805 0.0818233 0.0782932 0.0820593 0.0780805 0.0818233 0
0.0848446 0.0886881 0.0846041 0.0884585 0.0848446 0.0886881 0.0846041 0.0884585 0
0.0368756 0.0392843 0.0376515 0.0399123 0.0368756 0.0392843 0.0376515 0.0399123 0
0.0411049 0.0436684 0.0416514 0.0441406 0.0411049 0.0436684 0.0416514 0.0441406 0
0.0455843 0.0482514 0.0459974 0.0485777 0.0455843 0.0482514 0.0459974 0.0485777 0
0.0502733 0.0531269 0.050545 0.0533362 0.0502733 0.0531269 0.050545 0.0533362 0
0.0552982 0.0583748 0.055464 0.0584838 0.0552982 0.0583748 0.055464 0.0584838 0
0.0607 0.0639756 0.0607661 0.0639809 0.0607 0.0639756 0.0607661 0.0639809 0
0.0664291 0.0698564 0.0663866 0.0697442 0.0664291 0.0698564 0.0663866 0.0697442 0
0.0724208 0.0759994 0.0722626 0.0757853 0.0724208 0.0759994 0.0722626 0.0757853 0
0.0787034 0.0825127 0.0784595 0.0822434 0.0787034 0.0825127 0.0784595 0.0822434 0
0.0853354 0.0892381 0.08504 0.0888966 0.0853354 0.0892381 0.08504 0.0888966 0
0.035757 0.0383104 0.0363673 0.038854 0.035757 0.0383104 0.0363673 0.038854 0
0.0402422 0.0429633 0.0407261 0.0433521 0.0402422 0.0429633 0.0407261 0.0433521 0
0.0449811 0.0477701 0.0453111 0.0480341 0.0449811 0.0477701 0.0453111 0.0480341 0
0.0498741 0.0528309 0.0500925 0.0529907 0.0498741 0.0528309 0.0500925 0.0529907 0
0.0550761 0.0582521 0.0551935 0.058312 0.0550761 0.0582521 0.0551935 0.058312 0
0.0606549 0.0640429 0.0606696 0.0639917 0.0606549 0.0640429 0.0606696 0.0639917 0
0.0665832 0.0701356 0.0664813 0.0699608 0.0665832 0.0701356 0.0664813 0.0699608 0
0.0727804 0.0764539 0.072559 0.076178 0.0727804 0.0764539 0.072559 0.076178 0
0.0792001 0.0830305 0.0789012 0.0827228 0.0792001 0.0830305 0.0789012 0.0827228 0
0.0859012 0.0899147 0.0855654 0.0895103 0.0859012 0.0899147 0.0855654 0.0895103 0
0.0348978 0.0375852 0.0353615 0.0379699 0.0348978 0.0375852 0.0353615 0.0379699 0
0.0396115 0.0424581 0.0399432 0.0427228 0.0396115 0.0424581 0.0399432 0.0427228 0
0.0445575 0.0474437 0.044778 0.0476109 0.0445575 0.0474437 0.044778 0.0476109 0
0.0496118 0.0526472 0.0497443 0.0527381 0.0496118 0.0526472 0.0497443 0.0527381 0
0.054955 0.0582243 0.0550115 0.0582281 0.054955 0.0582243 0.0550115 0.0582281 0
0.0607056 0.0642154 0.060664 0.0641023 0.0607056 0.0642154 0.060664 0.0641023 0
0.0668505 0.0705402 0.0666816 0.0702902 0.0668505 0.0705402 0.0666816 0.0702902 0
0.0732798 0.0770755 0.0729728 0.0766936 0.0732798 0.0770755 0.0729728 0.0766936 0
0.0798859 0.0837701 0.0794634 0.083311 0.0798859 0.0837701 0.0794634 0.083311 0
0.0866588 0.0906675 0.0861939 0.0902237 0.0866588 0.0906675 0.0861939 0.0902237 0
0.0342712 0.0371384 0.0346048 0.0373617 0.0342712 0.0371384 0.0346048 0.0373617 0
0.0392703 0.0422282 0.0394304 0.0423247 0.0392703 0.0422282 0.0394304 0.0423247 0
0.0443894 0.0473334 0.0444523 0.0473682 0.0443894 0.0473334 0.0444523 0.0473682 0
0.0495377 0.052615 0.0495554 0.0526134 0.0495377 0.052615 0.0495554 0.0526134 0
0.0549665 0.0583136 0.0549423 0.0582466 0.0549665 0.0583136 0.0549423 0.0582466 0
0.06087 0.064507 0.0607602 0.0643232 0.06087 0.064507 0.0607602 0.0643232 0
0.067246 0.0710923 0.0670011 0.0707543 0.067246 0.0710923 0.0670011 0.0707543 0
0.0739116 0.0777681 0.0735301 0.0773612 0.0739116 0.0777681 0.0735301 0.0773612 0
0.0805902 0.0844473 0.0801853 0.0840721 0.0805902 0.0844473 0.0801853 0.0840721 0
0.0339735 0.0368586 0.0341023 0.0370037 0.0339735 0.0368586 0.0341023 0.0370037 0
0.0390139 0.042019 0.0391586 0.0421459 0.0390139 0.042019 0.0391586 0.0421459 0
0.0442701 0.0474126 0.04434 0.0473448 0.0442701 0.0474126 0.04434 0.0473448 0
0.0497537 0.0530075 0.0495903 0.0527199 0.0497537 0.0530075 0.0495903 0.0527199 0
0.0554318 0.058802 0.055097 0.0584621 0.0554318 0.058802 0.055097 0.0584621 0
0.0613343 0.0648824 0.0610238 0.0646575 0.0613343 0.0648824 0.0610238 0.0646575 0
0.0675702 0.0713657 0.0673995 0.0712574 0.0675702 0.0713657 0.0673995 0.0712574 0
0.074214 0.0782008 0.0740966 0.0779961 0.074214 0.0782008 0.0740966 0.0779961 0
0 0 0 0 0 0 0 0 0
0 0 0 0 0 0 0 0 0
0 0 0 0 0 0 0 0 0
0 0 0 0 0 0 0 0 0
0 0 0 0 0 0 0 0 0
0 0 0 0 0 0 0 0 0
0 0 0 0 0 0 0 0 0
0 0 0 0 0 0 0 0 0
0 0 0 0 0 0 0 0 0
0 0 0 0 0 0 0 0 0
0 0 0 0 0 0 0 0 0
0 0 0 0 0 0 0 0 0
0 0 0 0 0 0 0 0 0
0 0 0 0 0 0 0 0 0
0 0 0 0 0 0 0 0 0
0 0 0 0 0 0 0 0 0
0 0 0 0 0 0 0 0 0
0 0 0 0 0 0 0 0 0
0 0 0 0 0 0 0 0 0
0 0 0 0 0 0 0 0 0
0 0 0 0 0 0 0 0 0
0 0 0 0 0 0 0 0 0
0 0 0 0 0 0 0 0 0
0 0 0 0 0 0 0 0 0
0 0 0 0 0 0 0 0 0
0 0 0 0 0 0 0 0 0
0 0 0 0 0 0 0 0 0
0 0 0 0 0 0 0 0 0
0 0 0 0 0 0 0 0 0
0 0 0 0 0 0 0 0 0
0 0 0 0 0 0 0 0 0
0 0 0 0 0 0 0 0 0
0 0 0 0 0 0 0 0 0
0 0 0 0 0 0 0 0 0
0 0 0 0 0 0 0 0 0
0 0 0 0 0 0 0 0 0
0 0 0 0 0 0 0 0 0
0 0 0 0 0 0 0 0 0
0 0 0 0 0 0 0 0 0
0 0 0 0 0 0 0 0 0
0 0 0 0 0 0 0 0 0
0 0 0 0 0 0 0 0 0
0 0 0 0 0 0 0 0 0
0 0 0 0 0 0 0 0 0
0 0 0 0 0 0 0 0 0
0 0 0 0 0 0 0 0 0
0 0 0 0 0 0 0 0 0
0 0 0 0 0 0 0 0 0
0 0 0 0 0 0 0 0 0
0 0 0 0 0 0 0 0 0
0 0 0 0 0 0 0 0 0
0 0 0 0 0 0 0 0 0
0 0 0 0 0 0 0 0 0
0 0 0 0 0 0 0 0 0
0 0 0 0 0 0 0 0 0
0 0 0 0 0 0 0 0 0
0 0 0 0 0 0 0 0 0
0 0 0 0 0 0 0 0 0
0 0 0 0 0 0 0 0 0
0 0 0 0 0 0 0 0 0
0 0 0 0 0 0 0 0 0
0 0 0 0 0 0 0 0 0
0 0 0 0 0 0 0 0 0
0 0 0 0 0 0 0 0 0
0 0 0 0 0 0 0 0 0
0 0 0 0 0 0 0 0 0
0 0 0 0 0 0 0 0 0
0 0 0 0 0 0 0 0 0
0 0 0 0 0 0 0 0 0
0 0 0 0 0 0 0 0 0
0 0 0 0 0 0 0 0 0
0 0 0 0 0 0 0 0 0
0 0 0 0 0 0 0 0 0
0 0 0 0 0 0 0 0 0
0 0 0 0 0 0 0 0 0
0 0 0 0 0 0 0 0 0
0 0 0 0 0 0 0 0 0
0 0 0 0 0 0 0 0 0
0 0 0 0 0 0 0 0 0
0 0 0 0 0 0 0 0 0
0 0 0 0 0 0 0 0 0
0 0 0 0 0 0 0 0 0
0 0 0 0 0 0 0 0 0
0 0 0 0 0 0 0 0 0
0 0 0 0 0 0 0 0 0
0 0 0 0 0 0 0 0 0
0 0 0 0 0 0 0 0 0
0 0 0 0 0 0 0 0 0
0 0 0 0 0 0 0 0 0
0 0 0 0 0 0 0 0 0
0 0 0 0 0 0 0 0 0
0 0 0 0 0 0 0 0 0
0 0 0 0 0 0 0 0 0
0 0 0 0 0 0 0 0 0
0 0 0 0 0 0 0 0 0
0 0 0 0 0 0 0 0 0
0 0 0 0 0 0 0 0 0
0 0 0 0 0 0 0 0 0
0 0 0 0 0 0 0 0 0
0 0 0 0 0 0 0 0 0
0 0 0 0 0 0 0 0 0
0 0 0 0 0 0 0 0 0
0 0 0 0 0 0 0 0 0
0 0 0 0 0 0 0 0 0
0 0 0 0 0 0 0 0 0
0 0 0 0 0 0 0 0 0
0 0 0 0 0 0 0 0 0
0 0 0 0 0 0 0 0 0
0 0 0 0 0 0 0 0 0
0 0 0 0 0 0 0 0 0
0 0 0 0 0 0 0 0 0
0 0 0 0 0 0 0 0 0
0 0 0 0 0 0 0 0 0
0 0 0 0 0 0 0 0 0
0 0 0 0 0 0 0 0 0
0 0 0 0 0 0 0 0 0
0 0 0 0 0 0 0 0 0
0 0 0 0 0 0 0 0 0
0 0 0 0 0 0 0 0 0
0 0 0 0 0 0 0 0 0
0 0 0 0 0 0 0 0 0
0 0 0 0 0 0 0 0 0
0 0 0 0 0 0 0 0 0
0 0 0 0 0 0 0 0 0
0 0 0 0 0 0 0 0 0
0 0 0 0 0 0 0 0 0
0 0 0 0 0 0 0 0 0
0 0 0 0 0 0 0 0 0
0 0 0 0 0 0 0 0 0
0 0 0 0 0 0 0 0 0
0 0 0 0 0 0 0 0 0
0 0 0 0 0 0 0 0 0
0 0 0 0 0 0 0 0 0
0 0 0 0 0 0 0 0 0
0 0 0 0 0 0 0 0 0
0 0 0 0 0 0 0 0 0
0 0 0 0 0 0 0 0 0
0 0 0 0 0 0 0 0 0
0 0 0 0 0 0 0 0 0
0 0 0 0 0 0 0 0 0
0 0 0 0 0 0 0 0 0
0 0 0 0 0 0 0 0 0
0 0 0 0 0 0 0 0 0
0 0 0 0 0 0 0 0 0
0 0 0 0 0 0 0 0 0
0 0 0 0 0 0 0 0 0
0 0 0 0 0 0 0 0 0
0 0 0 0 0 0 0 0 0
0 0 0 0 0 0 0 0 0
0 0 0 0 0 0 0 0 0
0 0 0 0 0 0 0 0 0
0 0 0 0 0 0 0 0 0
0 0 0 0 0 0 0 0 0
0 0 0 0 0 0 0 0 0
0 0 0 0 0 0 0 0 0
0 0 0 0 0 0 0 0 0
0 0 0 0 0 0 0 0 0
0 0 0 0 0 0 0 0 0
0 0 0 0 0 0 0 0 0
0 0 0 0 0 0 0 0 0
0 0 0 0 0 0 0 0 0
0 0 0 0 0 0 0 0 0
0 0 0 0 0 0 0 0 0
0 0 0 0 0 0 0 0 0
0 0 0 0 0 0 0 0 0
0 0 0 0 0 0 0 0 0
0 0 0 0 0 0 0 0 0
0 0 0 0 0 0 0 0 0
0 0 0 0 0 0 0 0 0
0 0 0 0 0 0 0 0 0
0 0 0 0 0 0 0 0 0
0 0 0 0 0 0 0 0 0
0 0 0 0 0 0 0 0 0
0 0 0 0 0 0 0 0 0
0 0 0 0 0 0 0 0 0
0 0 0 0 0 0 0 0 0
0 0 0 0 0 0 0 0 0
0 0 0 0 0 0 0 0 0
0 0 0 0 0 0 0 0 0
0 0 0 0 0 0 0 0 0
0 0 0 0 0 0 0 0 0
0 0 0 0 0 0 0 0 0
0 0 0 0 0 0 0 0 0
0 0 0 0 0 0 0 0 0
0 0 0 0 0 0 0 0 0
0 0 0 0 0 0 0 0 0
0 0 0 0 0 0 0 0 0
0 0 0 0 0 0 0 0 0
0 0 0 0 0 0 0 0 0
0 0 0 0 0 0 0 0 0
0 0 0 0 0 0 0 0 0
0 0 0 0 0 0 0 0 0
0 0 0 0 0 0 0 0 0
0 0 0 0 0 0 0 0 0
0 0 0 0 0 0 0 0 0
0 0 0 0 0 0 0 0 0
0 0 0 0 0 0 0 0 0
0 0 0 0 0 0 0 0 0
0 0 0 0 0 0 0 0 0
0 0 0 0 0 0 0 0 0
0 0 0 0 0 0 0 0 0
0 0 0 0 0 0 0 0 0
0 0 0 0 0 0 0 0 0
0 0 0 0 0 0 0 0 0
0 0 0 0 0 0 0 0 0
0 0 0 0 0 0 0 0 0
0 0 0 0 0 0 0 0 0
0 0 0 0 0 0 0 0 0
0 0 0 0 0 0 0 0 0
0 0 0 0 0 0 0 0 0
0 0 0 0 0 0 0 0 0
0 0 0 0 0 0 0 0 0
0 0 0 0 0 0 0 0 0
0 0 0 0 0 0 0 0 0
0 0 0 0 0 0 0 0 0
0 0 0 0 0 0 0 0 0
0 0 0 0 0 0 0 0 0
0 0 0 0 0 0 0 0 0
0 0 0 0 0 0 0 0 0
0 0 0 0 0 0 0 0 0
0 0 0 0 0 0 0 0 0
0 0 0 0 0 0 0 0 0
0 0 0 0 0 0 0 0 0
0 0 0 0 0 0 0 0 0
0 0 0 0 0 0 0 0 0
0 0 0 0 0 0 0 0 0
0 0 0 0 0 0 0 0 0
0 0 0 0 0 0 0 0 0
0 0 0 0 0 0 0 0 0
0 0 0 0 0 0 0 0 0
0 0 0 0 0 0 0 0 0
0 0 0 0 0 0 0 0 0
0 0 0 0 0 0 0 0 0
0 0 0 0 0 0 0 0 0
0 0 0 0 0 0 0 0 0
0 0 0 0 0 0 0 0 0
0 0 0 0 0 0 0 0 0
0 0 0 0 0 0 0 0 0
0 0 0 0 0 0 0 0 0
0 0 0 0 0 0 0 0 0
0 0 0 0 0 0 0 0 0
0 0 0 0 0 0 0 0 0
0 0 0 0 0 0 0 0 0
0 0 0 0 0 0 0 0 0
0 0 0 0 0 0 0 0 0
0 0 0 0 0 0 0 0 0
0 0 0 0 0 0 0 0 0
0 0 0 0 0 0 0 0 0
0 0 0 0 0 0 0 0 0
0 0 0 0 0 0 0 0 0
0 0 0 0 0 0 0 0 0
0 0 0 0 0 0 0 0 0
0 0 0 0 0 0 0 0 0
0 0 0 0 0 0 0 0 0
0 0 0 0 0 0 0 0 0
0 0 0 0 0 0 0 0 0
0 0 0 0 0 0 0 0 0
0 0 0 0 0 0 0 0 0
0 0 0 0 0 0 0 0 0
0 0 0 0 0 0 0 0 0
0 0 0 0 0 0 0 0 0
0 0 0 0 0 0 0 0 0
0 0 0 0 0 0 0 0 0
0 0 0 0 0 0 0 0 0
0 0 0 0 0 0 0 0 0
0 0 0 0 0 0 0 0 0
0 0 0 0 0 0 0 0 0
0 0 0 0 0 0 0 0 0
0 0 0 0 0 0 0 0 0
0 0 0 0 0 0 0 0 0
0 0 0 0 0 0 0 0 0
0 0 0 0 0 0 0 0 0
0 0 0 0 0 0 0 0 0
0 0 0 0 0 0 0 0 0
0 0 0 0 0 0 0 0 0
0 0 0 0 0 0 0 0 0
0 0 0 0 0 0 0 0 0
0 0 0 0 0 0 0 0 0
0 0 0 0 0 0 0 0 0
0 0 0 0 0 0 0 0 0
0 0 0 0 0 0 0 0 0
0 0 0 0 0 0 0 0 0
0 0 0 0 0 0 0 0 0
0 0 0 0 0 0 0 0 0
0 0 0 0 0 0 0 0 0
0 0 0 0 0 0 0 0 0
0 0 0 0 0 0 0 0 0
0 0 0 0 0 0 0 0 0
0 0 0 0 0 0 0 0 0
0 0 0 0 0 0 0 0 0
0 0 0 0 0 0 0 0 0
0 0 0 0 0 0 0 0 0
0 0 0 0 0 0 0 0 0
0 0 0 0 0 0 0 0 0
0 0 0 0 0 0 0 0 0
0 0 0 0 0 0 0 0 0
0 0 0 0 0 0 0 0 0
0 0 0 0 0 0 0 0 0
0 0 0 0 0 0 0 0 0
0 0 0 0 0 0 0 0 0
0 0 0 0 0 0 0 0 0
0 0 0 0 0 0 0 0 0
0 0 0 0 0 0 0 0 0
0 0 0 0 0 0 0 0 0
0 0 0 0 0 0 0 0 0
0 0 0 0 0 0 0 0 0
0 0 0 0 0 0 0 0 0
0 0 0 0 0 0 0 0 0
0 0 0 0 0 0 0 0 0
0 0 0 0 0 0 0 0 0
0 0 0 0 0 0 0 0 0
0 0 0 0 0 0 0 0 0
0 0 0 0 0 0 0 0 0
0 0 0 0 0 0 0 0 0
0 0 0 0 0 0 0 0 0
0 0 0 0 0 0 0 0 0
0 0 0 0 0 0 0 0 0
0 0 0 0 0 0 0 0 0
0 0 0 0 0 0 0 0 0
0 0 0 0 0 0 0 0 0
0 0 0 0 0 0 0 0 0
0 0 0 0 0 0 0 0 0
0 0 0 0 0 0 0 0 0
0 0 0 0 0 0 0 0 0
0 0 0 0 0 0 0 0 0
0 0 0 0 0 0 0 0 0
0 0 0 0 0 0 0 0 0
0 0 0 0 0 0 0 0 0
0 0 0 0 0 0 0 0 0
0 0 0 0 0 0 0 0 0
0 0 0 0 0 0 0 0 0
0 0 0 0 0 0 0 0 0
0 0 0 0 0 0 0 0 0
0 0 0 0 0 0 0 0 0
0 0 0 0 0 0 0 0 0
0 0 0 0 0 0 0 0 0
0 0 0 0 0 0 0 0 0
0 0 0 0 0 0 0 0 0
0 0 0 0 0 0 0 0 0
0 0 0 0 0 0 0 0 0
0 0 0 0 0 0 0 0 0
0 0 0 0 0 0 0 0 0
0 0 0 0 0 0 0 0 0
0 0 0 0 0 0 0 0 0
0 0 0 0 0 0 0 0 0
0 0 0 0 0 0 0 0 0
0 0 0 0 0 0 0 0 0
0 0 0 0 0 0 0 0 0
0 0 0 0 0 0 0 0 0
0 0 0 0 0 0 0 0 0
0 0 0 0 0 0 0 0 0
0 0 0 0 0 0 0 0 0
0 0 0 0 0 0 0 0 0
0 0 0 0 0 0 0 0 0
0 0 0 0 0 0 0 0 0
0 0 0 0 0 0 0 0 0
0 0 0 0 0 0 0 0 0
0 0 0 0 0 0 0 0 0
0 0 0 0 0 0 0 0 0
0 0 0 0 0 0 0 0 0
0 0 0 0 0 0 0 0 0
0 0 0 0 0 0 0 0 0
0 0 0 0 0 0 0 0 0
0 0 0 0 0 0 0 0 0
0 0 0 0 0 0 0 0 0
0 0 0 0 0 0 0 0 0
0 0 0 0 0 0 0 0 0
0 0 0 0 0 0 0 0 0
0 0 0 0 0 0 0 0 0
0 0 0 0 0 0 0 0 0
0 0 0 0 0 0 0 0 0
0 0 0 0 0 0 0 0 0
0 0 0 0 0 0 0 0 0
0 0 0 0 0 0 0 0 0
0 0 0 0 0 0 0 0 0
0 0 0 0 0 0 0 0 0
0 0 0 0 0 0 0 0 0
0 0 0 0 0 0 0 0 0
0 0 0 0 0 0 0 0 0
0 0 0 0 0 0 0 0 0
0 0 0 0 0 0 0 0 0
0 0 0 0 0 0 0 0 0
0 0 0 0 0 0 0 0 0
0 0 0 0 0 0 0 0 0
0 0 0 0 0 0 0 0 0
0 0 0 0 0 0 0 0 0
0 0 0 0 0 0 0 0 0
0 0 0 0 0 0 0 0 0
0 0 0 0 0 0 0 0 0
0 0 0 0 0 0 0 0 0
0 0 0 0 0 0 0 0 0
0 0 0 0 0 0 0 0 0
0 0 0 0 0 0 0 0 0
0 0 0 0 0 0 0 0 0
0 0 0 0 0 0 0 0 0
0 0 0 0 0 0 0 0 0
0 0 0 0 0 0 0 0 0
0 0 0 0 0 0 0 0 0
0 0 0 0 0 0 0 0 0
0 0 0 0 0 0 0 0 0
0 0 0 0 0 0 0 0 0
0 0 0 0 0 0 0 0 0
0 0 0 0 0 0 0 0 0
0 0 0 0 0 0 0 0 0
0 0 0 0 0 0 0 0 0
0 0 0 0 0 0 0 0 0
0 0 0 0 0 0 0 0 0
0 0 0 0 0 0 0 0 0
0 0 0 0 0 0 0 0 0
0 0 0 0 0 0 0 0 0
0 0 0 0 0 0 0 0 0
0 0 0 0 0 0 0 0 0
0 0 0 0 0 0 0 0 0
0 0 0 0 0 0 0 0 0
0 0 0 0 0 0 0 0 0
0 0 0 0 0 0 0 0 0
0 0 0 0 0 0 0 0 0
0 0 0 0 0 0 0 0 0
0 0 0 0 0 0 0 0 0
0 0 0 0 0 0 0 0 0
0 0 0 0 0 0 0 0 0
0 0 0 0 0 0 0 0 0
0 0 0 0 0 0 0 0 0
0 0 0 0 0 0 0 0 0
0 0 0 0 0 0 0 0 0
0 0 0 0 0 0 0 0 0
0 0 0 0 0 0 0 0 0
0 0 0 0 0 0 0 0 0
0 0 0 0 0 0 0 0 0
0 0 0 0 0 0 0 0 0
0 0 0 0 0 0 0 0 0
0 0 0 0 0 0 0 0 0
0 0 0 0 0 0 0 0 0
0 0 0 0 0 0 0 0 0
0 0 0 0 0 0 0 0 0
0 0 0 0 0 0 0 0 0
0 0 0 0 0 0 0 0 0
0 0 0 0 0 0 0 0 0
0 0 0 0 0 0 0 0 0
0 0 0 0 0 0 0 0 0
0 0 0 0 0 0 0 0 0
0 0 0 0 0 0 0 0 0
0 0 0 0 0 0 0 0 0
0 0 0 0 0 0 0 0 0
0 0 0 0 0 0 0 0 0
0 0 0 0 0 0 0 0 0
0 0 0 0 0 0 0 0 0
0 0 0 0 0 0 0 0 0
0 0 0 0 0 0 0 0 0
0 0 0 0 0 0 0 0 0
0 0 0 0 0 0 0 0 0
0 0 0 0 0 0 0 0 0
0 0 0 0 0 0 0 0 0
0 0 0 0 0 0 0 0 0
0 0 0 0 0 0 0 0 0
0 0 0 0 0 0 0 0 0
0 0 0 0 0 0 0 0 0
0 0 0 0 0 0 0 0 0
0 0 0 0 0 0 0 0 0
0 0 0 0 0 0 0 0 0
0 0 0 0 0 0 0 0 0
0 0 0 0 0 0 0 0 0
0 0 0 0 0 0 0 0 0
0 0 0 0 0 0 0 0 0
0 0 0 0 0 0 0 0 0
0 0 0 0 0 0 0 0 0
0 0 0 0 0 0 0 0 0
0 0 0 0 0 0 0 0 0
0 0 0 0 0 0 0 0 0
0 0 0 0 0 0 0 0 0
0 0 0 0 0 0 0 0 0
0 0 0 0 0 0 0 0 0
0 0 0 0 0 0 0 0 0
0 0 0 0 0 0 0 0 0
0 0 0 0 0 0 0 0 0
0 0 0 0 0 0 0 0 0
0 0 0 0 0 0 0 0 0
0 0 0 0 0 0 0 0 0
0 0 0 0 0 0 0 0 0
0 0 0 0 0 0 0 0 0
0 0 0 0 0 0 0 0 0
0 0 0 0 0 0 0 0 0
0 0 0 0 0 0 0 0 0
0 0 0 0 0 0 0 0 0
0 0 0 0 0 0 0 0 0
0 0 0 0 0 0 0 0 0
0 0 0 0 0 0 0 0 0
0 0 0 0 0 0 0 0 0
0 0 0 0 0 0 0 0 0
0 0 0 0 0 0 0 0 0
0 0 0 0 0 0 0 0 0
0 0 0 0 0 0 0 0 0
0 0 0 0 0 0 0 0 0
0 0 0 0 0 0 0 0 0
0 0 0 0 0 0 0 0 0
0 0 0 0 0 0 0 0 0
0 0 0 0 0 0 0 0 0
0 0 0 0 0 0 0 0 0
0 0 0 0 0 0 0 0 0
0 0 0 0 0 0 0 0 0
0 0 0 0 0 0 0 0 0
0 0 0 0 0 0 0 0 0
0 0 0 0 0 0 0 0 0
0 0 0 0 0 0 0 0 0
0 0 0 0 0 0 0 0 0
0 0 0 0 0 0 0 0 0
0 0 0 0 0 0 0 0 0
0 0 0 0 0 0 0 0 0
0 0 0 0 0 0 0 0 0
0 0 0 0 0 0 0 0 0
0 0 0 0 0 0 0 0 0
0 0 0 0 0 0 0 0 0
0 0 0 0 0 0 0 0 0
0 0 0 0 0 0 0 0 0
0 0 0 0 0 0 0 0 0
0 0 0 0 0 0 0 0 0
0 0 0 0 0 0 0 0 0
0 0 0 0 0 0 0 0 0
0 0 0 0 0 0 0 0 0
0 0 0 0 0 0 0 0 0
0 0 0 0 0 0 0 0 0
0 0 0 0 0 0 0 0 0
0 0 0 0 0 0 0 0 0
0 0 0 0 0 0 0 0 0
0 0 0 0 0 0 0 0 0
0 0 0 0 0 0 0 0 0
0 0 0 0 0 0 0 0 0
0 0 0 0 0 0 0 0 0
0 0 0 0 0 0 0 0 0
0 0 0 0 0 0 0 0 0
0 0 0 0 0 0 0 0 0
0 0 0 0 0 0 0 0 0
0 0 0 0 0 0 0 0 0
0 0 0 0 0 0 0 0 0
0 0 0 0 0 0 0 0 0
0 0 0 0 0 0 0 0 0
0 0 0 0 0 0 0 0 0
0 0 0 0 0 0 0 0 0
0 0 0 0 0 0 0 0 0
0 0 0 0 0 0 0 0 0
0 0 0 0 0 0 0 0 0
0 0 0 0 0 0 0 0 0
0 0 0 0 0 0 0 0 0
0 0 0 0 0 0 0 0 0
0 0 0 0 0 0 0 0 0
0 0 0 0 0 0 0 0 0
0 0 0 0 0 0 0 0 0
0 0 0 0 0 0 0 0 0
0 0 0 0 0 0 0 0 0
0 0 0 0 0 0 0 0 0
0 0 0 0 0 0 0 0 0
0 0 0 0 0 0 0 0 0
0 0 0 0 0 0 0 0 0
0 0 0 0 0 0 0 0 0
0 0 0 0 0 0 0 0 0
0 0 0 0 0 0 0 0 0
0 0 0 0 0 0 0 0 0
0 0 0 0 0 0 0 0 0
0 0 0 0 0 0 0 0 0
0 0 0 0 0 0 0 0 0
0 0 0 0 0 0 0 0 0
0 0 0 0 0 0 0 0 0
0 0 0 0 0 0 0 0 0
0 0 0 0 0 0 0 0 0
0 0 0 0 0 0 0 0 0
0 0 0 0 0 0 0 0 0
0 0 0 0 0 0 0 0 0
0 0 0 0 0 0 0 0 0
0 0 0 0 0 0 0 0 0
0 0 0 0 0 0 0 0 0
0 0 0 0 0 0 0 0 0
0 0 0 0 0 0 0 0 0
0 0 0 0 0 0 0 0 0
0 0 0 0 0 0 0 0 0
0 0 0 0 0 0 0 0 0
0 0 0 0 0 0 0 0 0
0 0 0 0 0 0 0 0 0
0 0 0 0 0 0 0 0 0
0 0 0 0 0 0 0 0 0
0 0 0 0 0 0 0 0 0
0 0 0 0 0 0 0 0 0
0 0 0 0 0 0 0 0 0
0 0 0 0 0 0 0 0 0
0 0 0 0 0 0 0 0 0
0 0 0 0 0 0 0 0 0
0 0 0 0 0 0 0 0 0
0 0 0 0 0 0 0 0 0
0 0 0 0 0 0 0 0 0
0 0 0 0 0 0 0 0 0
0 0 0 0 0 0 0 0 0
0 0 0 0 0 0 0 0 0
0 0 0 0 0 0 0 0 0
0 0 0 0 0 0 0 0 0
0 0 0 0 0 0 0 0 0
0 0 0 0 0 0 0 0 0
0 0 0 0 0 0 0 0 0
0 0 0 0 0 0 0 0 0
0 0 0 0 0 0 0 0 0
0 0 0 0 0 0 0 0 0
0 0 0 0 0 0 0 0 0
0 0 0 0 0 0 0 0 0
0 0 0 0 0 0 0 0 0
0 0 0 0 0 0 0 0 0
0 0 0 0 0 0 0 0 0
0 0 0 0 0 0 0 0 0
0 0 0 0 0 0 0 0 0
0 0 0 0 0 0 0 0 0
0 0 0 0 0 0 0 0 0
0 0 0 0 0 0 0 0 0
0 0 0 0 0 0 0 0 0
0 0 0 0 0 0 0 0 0
0 0 0 0 0 0 0 0 0
0 0 0 0 0 0 0 0 0
0 0 0 0 0 0 0 0 0
0 0 0 0 0 0 0 0 0
0 0 0 0 0 0 0 0 0
0 0 0 0 0 0 0 0 0
0 0 0 0 0 0 0 0 0
0 0 0 0 0 0 0 0 0
0 0 0 0 0 0 0 0 0
0 0 0 0 0 0 0 0 0
0 0 0 0 0 0 0 0 0
0 0 0 0 0 0 0 0 0
0 0 0 0 0 0 0 0 0
0 0 0 0 0 0 0 0 0
0 0 0 0 0 0 0 0 0
0 0 0 0 0 0 0 0 0
0 0 0 0 0 0 0 0 0
0 0 0 0 0 0 0 0 0
0 0 0 0 0 0 0 0 0
0 0 0 0 0 0 0 0 0
0 0 0 0 0 0 0 0 0
0 0 0 0 0 0 0 0 0
0 0 0 0 0 0 0 0 0
0 0 0 0 0 0 0 0 0
0 0 0 0 0 0 0 0 0
0 0 0 0 0 0 0 0 0
0 0 0 0 0 0 0 0 0
0 0 0 0 0 0 0 0 0
0 0 0 0 0 0 0 0 0
0 0 0 0 0 0 0 0 0
0 0 0 0 0 0 0 0 0
0 0 0 0 0 0 0 0 0
0 0 0 0 0 0 0 0 0
0 0 0 0 0 0 0 0 0
0 0 0 0 0 0 0 0 0
0 0 0 0 0 0 0 0 0
0 0 0 0 0 0 0 0 0
0 0 0 0 0 0 0 0 0
0 0 0 0 0 0 0 0 0
0 0 0 0 0 0 0 0 0
0 0 0 0 0 0 0 0 0
0 0 0 0 0 0 0 0 0
0 0 0 0 0 0 0 0 0
0 0 0 0 0 0 0 0 0
0 0 0 0 0 0 0 0 0
0 0 0 0 0 0 0 0 0
0 0 0 0 0 0 0 0 0
0 0 0 0 0 0 0 0 0
0 0 0 0 0 0 0 0 0
0 0 0 0 0 0 0 0 0
0 0 0 0 0 0 0 0 0
0 0 0 0 0 0 0 0 0
0 0 0 0 0 0 0 0 0
0 0 0 0 0 0 0 0 0
0 0 0 0 0 0 0 0 0
0 0 0 0 0 0 0 0 0
0 0 0 0 0 0 0 0 0
0 0 0 0 0 0 0 0 0
0 0 0 0 0 0 0 0 0
0 0 0 0 0 0 0 0 0
0 0 0 0 0 0 0 0 0
0 0 0 0 0 0 0 0 0
0 0 0 0 0 0 0 0 0
0 0 0 0 0 0 0 0 0
0 0 0 0 0 0 0 0 0
0 0 0 0 0 0 0 0 0
0 0 0 0 0 0 0 0 0
0 0 0 0 0 0 0 0 0
0 0 0 0 0 0 0 0 0
0 0 0 0 0 0 0 0 0
0 0 0 0 0 0 0 0 0
0 0 0 0 0 0 0 0 0
0 0 0 0 0 0 0 0 0
0 0 0 0 0 0 0 0 0
0 0 0 0 0 0 0 0 0
0 0 0 0 0 0 0 0 0
0 0 0 0 0 0 0 0 0
0 0 0 0 0 0 0 0 0
0 0 0 0 0 0 0 0 0
0 0 0 0 0 0 0 0 0
0 0 0 0 0 0 0 0 0
0 0 0 0 0 0 0 0 0
0 0 0 0 0 0 0 0 0
0 0 0 0 0 0 0 0 0
0 0 0 0 0 0 0 0 0
0 0 0 0 0 0 0 0 0
0 0 0 0 0 0 0 0 0
0 0 0 0 0 0 0 0 0
0 0 0 0 0 0 0 0 0
0 0 0 0 0 0 0 0 0
0 0 0 0 0 0 0 0 0
0 0 0 0 0 0 0 0 0
0 0 0 0 0 0 0 0 0
0 0 0 0 0 0 0 0 0
0 0 0 0 0 0 0 0 0
0 0 0 0 0 0 0 0 0
0 0 0 0 0 0 0 0 0
0 0 0 0 0 0 0 0 0
0 0 0 0 0 0 0 0 0
0 0 0 0 0 0 0 0 0
0.11239 0.117547 0.113086 0.118213 0.11239 0.117547 0.113086 0.118213 0
0.121494 0.127121 0.12214 0.127741 0.121494 0.127121 0.12214 0.127741 0
0.131352 0.137288 0.131979 0.137961 0.131352 0.137288 0.131979 0.137961 0
0.141695 0.147799 0.142297 0.148161 0.141695 0.147799 0.142297 0.148161 0
0.152543 0.159399 0.152782 0.159541 0.152543 0.159399 0.152782 0.159541 0
0.0869482 0.0912341 0.0881097 0.0921449 0.0869482 0.0912341 0.0881097 0.0921449 0
0.0945037 0.0991407 0.0952903 0.099839 0.0945037 0.0991407 0.0952903 0.099839 0
0.102642 0.107562 0.103304 0.10821 0.102642 0.107562 0.103304 0.10821 0
0.111317 0.116649 0.111915 0.117125 0.111317 0.116649 0.111915 0.117125 0
0.120703 0.126447 0.121106 0.126769 0.120703 0.126447 0.121106 0.126769 0
0.13076 0.136802 0.131021 0.136974 0.13076 0.136802 0.131021 0.136974 0
0.141337 0.147685 0.141435 0.147668 0.141337 0.147685 0.141435 0.147668 0
0.152527 0.159406 0.152472 0.159362 0.152527 0.159406 0.152472 0.159362 0
0.0772347 0.0814899 0.078765 0.0828998 0.0772347 0.0814899 0.078765 0.0828998 0
0.0847335 0.0893338 0.0860378 0.090477 0.0847335 0.0893338 0.0860378 0.090477 0
0.0928032 0.0976757 0.0938339 0.0985577 0.0928032 0.0976757 0.0938339 0.0985577 0
0.101344 0.106488 0.102114 0.107098 0.101344 0.106488 0.102114 0.107098 0
0.110393 0.115915 0.110907 0.116323 0.110393 0.115915 0.110907 0.116323 0
0.120094 0.12599 0.120431 0.126237 0.120094 0.12599 0.120431 0.126237 0
0.130421 0.136633 0.130599 0.13671 0.130421 0.136633 0.130599 0.13671 0
0.141299 0.147833 0.141299 0.147728 0.141299 0.147833 0.141299 0.147728 0
0.152748 0.159642 0.152599 0.15948 0.152748 0.159642 0.152599 0.15948 0
0.0672463 0.0714597 0.0688 0.072998 0.0672463 0.0714597 0.0688 0.072998 0
0.0746836 0.0792697 0.0761375 0.0805166 0.0746836 0.0792697 0.0761375 0.0805166 0
0.0827231 0.0875668 0.0838452 0.0885524 0.0827231 0.0875668 0.0838452 0.0885524 0
0.0912075 0.0963061 0.0920973 0.0970703 0.0912075 0.0963061 0.0920973 0.0970703 0
0.100142 0.105521 0.100814 0.106063 0.100142 0.105521 0.100814 0.106063 0
0.109585 0.115305 0.110037 0.11564 0.109585 0.115305 0.110037 0.11564 0
0.119619 0.125686 0.119875 0.125841 0.119619 0.125686 0.119875 0.125841 0
0.130244 0.13663 0.130325 0.13661 0.130244 0.13663 0.130325 0.13661 0
0.141422 0.148128 0.14133 0.147938 0.141422 0.148128 0.14133 0.147938 0
0.153136 0.160112 0.15289 0.15981 0.153136 0.160112 0.15289 0.15981 0
0.0648905 0.0692525 0.0661957 0.0704556 0.0648905 0.0692525 0.0661957 0.0704556 0
0.072619 0.0774421 0.0737408 0.0784445 0.072619 0.0774421 0.0737408 0.0784445 0
0.081057 0.0861059 0.0819742 0.0869095 0.081057 0.0861059 0.0819742 0.0869095 0
0.0898929 0.0951872 0.090615 0.0957995 0.0898929 0.0951872 0.090615 0.0957995 0
0.0991681 0.104748 0.0996994 0.105167 0.0991681 0.104748 0.0996994 0.105167 0
0.108953 0.114863 0.109292 0.115095 0.108953 0.114863 0.109292 0.115095 0
0.119313 0.12556 0.119467 0.125609 0.119313 0.12556 0.119467 0.125609 0
0.130248 0.136808 0.130222 0.136682 0.130248 0.136808 0.130222 0.136682 0
0.141726 0.148601 0.141527 0.148304 0.141726 0.148601 0.141527 0.148304 0
0.153722 0.160836 0.153358 0.160386 0.153722 0.160836 0.153358 0.160386 0
0.0629475 0.0675102 0.0640182 0.0684617 0.0629475 0.0675102 0.0640182 0.0684617 0
0.0710204 0.0760361 0.0718886 0.0767954 0.0710204 0.0760361 0.0718886 0.0767954 0
0.0797821 0.0849973 0.0804683 0.085592 0.0797821 0.0849973 0.0804683 0.085592 0
0.0889037 0.0943588 0.0894327 0.0947994 0.0889037 0.0943588 0.0894327 0.0947994 0
0.0984598 0.104208 0.0988341 0.104489 0.0984598 0.104208 0.0988341 0.104489 0
0.10854 0.114628 0.10875 0.114736 0.10854 0.114628 0.10875 0.114736 0
0.119211 0.125642 0.119242 0.125567 0.119211 0.125642 0.119242 0.125567 0
0.130461 0.137195 0.13031 0.136944 0.130461 0.137195 0.13031 0.136944 0
0.142231 0.14926 0.141913 0.148855 0.142231 0.14926 0.141913 0.148855 0
0.154501 0.161792 0.154026 0.161212 0.154501 0.161792 0.154026 0.161212 0
0.0613834 0.0662296 0.0622385 0.0669107 0.0613834 0.0662296 0.0622385 0.0669107 0
0.0699 0.0750745 0.0704866 0.0755737 0.0699 0.0750745 0.0704866 0.0755737 0
0.0789279 0.0842786 0.079368 0.084644 0.0789279 0.0842786 0.079368 0.084644 0
0.0882775 0.0938513 0.0885928 0.0941034 0.0882775 0.0938513 0.0885928 0.0941034 0
0.0980446 0.103927 0.0982468 0.104056 0.0980446 0.103927 0.0982468 0.104056 0
0.10837 0.114627 0.108437 0.114597 0.10837 0.114627 0.108437 0.114597 0
0.119341 0.125964 0.119235 0.125747 0.119341 0.125964 0.119235 0.125747 0
0.13092 0.13784 0.130622 0.137433 0.13092 0.13784 0.130622 0.137433 0
0.142983 0.150115 0.142516 0.149596 0.142983 0.150115 0.142516 0.149596 0
0.155466 0.162951 0.154885 0.162256 0.155466 0.162951 0.154885 0.162256 0
0.0602716 0.0654026 0.060854 0.0658238 0.0602716 0.0654026 0.060854 0.0658238 0
0.0692368 0.0745787 0.0695638 0.0748067 0.0692368 0.0745787 0.0695638 0.0748067 0
0.0785303 0.0839833 0.0787023 0.0841004 0.0785303 0.0839833 0.0787023 0.0841004 0
0.0880467 0.0936952 0.0881301 0.0937408 0.0880467 0.0936952 0.0881301 0.0937408 0
0.0979522 0.103934 0.0979644 0.103893 0.0979522 0.103934 0.0979644 0.103893 0
0.108471 0.114886 0.108378 0.114702 0.108471 0.114886 0.108378 0.114702 0
0.119733 0.126563 0.119472 0.12618 0.119733 0.126563 0.119472 0.12618 0
0.131676 0.138818 0.131201 0.13821 0.131676 0.138818 0.131201 0.13821 0
0.144055 0.151222 0.143393 0.150547 0.144055 0.151222 0.143393 0.150547 0
0.0595483 0.0649196 0.0599223 0.065161 0.0595483 0.0649196 0.0599223 0.065161 0
0.0689205 0.0744798 0.0690649 0.074491 0.0689205 0.0744798 0.0690649 0.074491 0
0.0785888 0.0842553 0.0784989 0.084022 0.0785888 0.0842553 0.0784989 0.084022 0
0.0884331 0.0941812 0.088124 0.0938082 0.0884331 0.0941812 0.088124 0.0938082 0
0.0984677 0.104432 0.0980819 0.104074 0.0984677 0.104432 0.0980819 0.104074 0
0.108945 0.115312 0.10862 0.115048 0.108945 0.115312 0.10862 0.115048 0
0.120158 0.12703 0.119916 0.126792 0.120158 0.12703 0.119916 0.126792 0
0.132236 0.139588 0.131955 0.139188 0.132236 0.139588 0.131955 0.139188 0
0 0 0 0 0 0 0 0 0
0 0 0 0 0 0 0 0 0
0 0 0 0 0 0 0 0 0
0 0 0 0 0 0 0 0 0
0 0 0 0 0 0 0 0 0
0 0 0 0 0 0 0 0 0
0 0 0 0 0 0 0 0 0
0 0 0 0 0 0 0 0 0
0 0 0 0 0 0 0 0 0
0 0 0 0 0 0 0 0 0
0 0 0 0 0 0 0 0 0
0 0 0 0 0 0 0 0 0
0 0 0 0 0 0 0 0 0
0 0 0 0 0 0 0 0 0
0 0 0 0 0 0 0 0 0
0 0 0 0 0 0 0 0 0
0 0 0 0 0 0 0 0 0
0 0 0 0 0 0 0 0 0
0 0 0 0 0 0 0 0 0
0 0 0 0 0 0 0 0 0
0 0 0 0 0 0 0 0 0
0 0 0 0 0 0 0 0 0
0 0 0 0 0 0 0 0 0
0 0 0 0 0 0 0 0 0
0 0 0 0 0 0 0 0 0
0 0 0 0 0 0 0 0 0
0 0 0 0 0 0 0 0 0
0 0 0 0 0 0 0 0 0
0 0 0 0 0 0 0 0 0
0 0 0 0 0 0 0 0 0
0 0 0 0 0 0 0 0 0
0 0 0 0 0 0 0 0 0
0 0 0 0 0 0 0 0 0
0 0 0 0 0 0 0 0 0
0 0 0 0 0 0 0 0 0
0 0 0 0 0 0 0 0 0
0 0 0 0 0 0 0 0 0
0 0 0 0 0 0 0 0 0
0 0 0 0 0 0 0 0 0
0 0 0 0 0 0 0 0 0
0 0 0 0 0 0 0 0 0
0 0 0 0 0 0 0 0 0
0 0 0 0 0 0 0 0 0
0 0 0 0 0 0 0 0 0
0 0 0 0 0 0 0 0 0
0 0 0 0 0 0 0 0 0
0 0 0 0 0 0 0 0 0
0 0 0 0 0 0 0 0 0
0 0 0 0 0 0 0 0 0
0 0 0 0 0 0 0 0 0
0 0 0 0 0 0 0 0 0
0 0 0 0 0 0 0 0 0
0 0 0 0 0 0 0 0 0
0 0 0 0 0 0 0 0 0
0 0 0 0 0 0 0 0 0
0 0 0 0 0 0 0 0 0
0 0 0 0 0 0 0 0 0
0 0 0 0 0 0 0 0 0
0 0 0 0 0 0 0 0 0
0 0 0 0 0 0 0 0 0
0 0 0 0 0 0 0 0 0
0 0 0 0 0 0 0 0 0
0 0 0 0 0 0 0 0 0
0 0 0 0 0 0 0 0 0
0 0 0 0 0 0 0 0 0
0 0 0 0 0 0 0 0 0
0 0 0 0 0 0 0 0 0
0 0 0 0 0 0 0 0 0
0 0 0 0 0 0 0 0 0
0 0 0 0 0 0 0 0 0
0 0 0 0 0 0 0 0 0
0 0 0 0 0 0 0 0 0
0 0 0 0 0 0 0 0 0
0 0 0 0 0 0 0 0 0
0 0 0 0 0 0 0 0 0
0 0 0 0 0 0 0 0 0
0 0 0 0 0 0 0 0 0
0 0 0 0 0 0 0 0 0
0 0 0 0 0 0 0 0 0
0 0 0 0 0 0 0 0 0
0 0 0 0 0 0 0 0 0
0 0 0 0 0 0 0 0 0
0 0 0 0 0 0 0 0 0
0 0 0 0 0 0 0 0 0
0 0 0 0 0 0 0 0 0
0 0 0 0 0 0 0 0 0
0 0 0 0 0 0 0 0 0
0 0 0 0 0 0 0 0 0
0 0 0 0 0 0 0 0 0
0 0 0 0 0 0 0 0 0
0 0 0 0 0 0 0 0 0
0 0 0 0 0 0 0 0 0
0 0 0 0 0 0 0 0 0
0 0 0 0 0 0 0 0 0
0 0 0 0 0 0 0 0 0
0 0 0 0 0 0 0 0 0
0 0 0 0 0 0 0 0 0
0 0 0 0 0 0 0 0 0
0 0 0 0 0 0 0 0 0
0 0 0 0 0 0 0 0 0
0 0 0 0 0 0 0 0 0
0 0 0 0 0 0 0 0 0
0 0 0 0 0 0 0 0 0
0 0 0 0 0 0 0 0 0
0 0 0 0 0 0 0 0 0
0 0 0 0 0 0 0 0 0
0 0 0 0 0 0 0 0 0
0 0 0 0 0 0 0 0 0
0 0 0 0 0 0 0 0 0
0 0 0 0 0 0 0 0 0
0 0 0 0 0 0 0 0 0
0 0 0 0 0 0 0 0 0
0 0 0 0 0 0 0 0 0
0 0 0 0 0 0 0 0 0
0 0 0 0 0 0 0 0 0
0 0 0 0 0 0 0 0 0
0 0 0 0 0 0 0 0 0
0 0 0 0 0 0 0 0 0
0 0 0 0 0 0 0 0 0
0 0 0 0 0 0 0 0 0
0 0 0 0 0 0 0 0 0
0 0 0 0 0 0 0 0 0
0 0 0 0 0 0 0 0 0
0 0 0 0 0 0 0 0 0
0 0 0 0 0 0 0 0 0
0 0 0 0 0 0 0 0 0
0 0 0 0 0 0 0 0 0
0 0 0 0 0 0 0 0 0
0 0 0 0 0 0 0 0 0
0 0 0 0 0 0 0 0 0
0 0 0 0 0 0 0 0 0
0 0 0 0 0 0 0 0 0
0 0 0 0 0 0 0 0 0
0 0 0 0 0 0 0 0 0
0 0 0 0 0 0 0 0 0
0 0 0 0 0 0 0 0 0
0 0 0 0 0 0 0 0 0
0 0 0 0 0 0 0 0 0
0 0 0 0 0 0 0 0 0
0 0 0 0 0 0 0 0 0
0 0 0 0 0 0 0 0 0
0 0 0 0 0 0 0 0 0
0 0 0 0 0 0 0 0 0
0 0 0 0 0 0 0 0 0
0 0 0 0 0 0 0 0 0
0 0 0 0 0 0 0 0 0
0 0 0 0 0 0 0 0 0
0 0 0 0 0 0 0 0 0
0 0 0 0 0 0 0 0 0
0 0 0 0 0 0 0 0 0
0 0 0 0 0 0 0 0 0
0 0 0 0 0 0 0 0 0
0 0 0 0 0 0 0 0 0
0 0 0 0 0 0 0 0 0
0 0 0 0 0 0 0 0 0
0 0 0 0 0 0 0 0 0
0 0 0 0 0 0 0 0 0
0 0 0 0 0 0 0 0 0
0 0 0 0 0 0 0 0 0
0 0 0 0 0 0 0 0 0
0 0 0 0 0 0 0 0 0
0 0 0 0 0 0 0 0 0
0 0 0 0 0 0 0 0 0
0 0 0 0 0 0 0 0 0
0 0 0 0 0 0 0 0 0
0 0 0 0 0 0 0 0 0
0 0 0 0 0 0 0 0 0
0 0 0 0 0 0 0 0 0
0 0 0 0 0 0 0 0 0
0 0 0 0 0 0 0 0 0
0 0 0 0 0 0 0 0 0
0 0 0 0 0 0 0 0 0
0 0 0 0 0 0 0 0 0
0 0 0 0 0 0 0 0 0
0 0 0 0 0 0 0 0 0
0 0 0 0 0 0 0 0 0
0 0 0 0 0 0 0 0 0
0 0 0 0 0 0 0 0 0
0 0 0 0 0 0 0 0 0
0 0 0 0 0 0 0 0 0
0 0 0 0 0 0 0 0 0
0 0 0 0 0 0 0 0 0
0 0 0 0 0 0 0 0 0
0 0 0 0 0 0 0 0 0
0 0 0 0 0 0 0 0 0
0 0 0 0 0 0 0 0 0
0 0 0 0 0 0 0 0 0
0 0 0 0 0 0 0 0 0
0 0 0 0 0 0 0 0 0
0 0 0 0 0 0 0 0 0
0 0 0 0 0 0 0 0 0
0 0 0 0 0 0 0 0 0
0 0 0 0 0 0 0 0 0
0 0 0 0 0 0 0 0 0
0 0 0 0 0 0 0 0 0
0 0 0 0 0 0 0 0 0
0 0 0 0 0 0 0 0 0
0 0 0 0 0 0 0 0 0
0 0 0 0 0 0 0 0 0
0 0 0 0 0 0 0 0 0
0 0 0 0 0 0 0 0 0
0 0 0 0 0 0 0 0 0
0 0 0 0 0 0 0 0 0
0 0 0 0 0 0 0 0 0
0 0 0 0 0 0 0 0 0
0 0 0 0 0 0 0 0 0
0 0 0 0 0 0 0 0 0
0 0 0 0 0 0 0 0 0
0 0 0 0 0 0 0 0 0
0 0 0 0 0 0 0 0 0
0 0 0 0 0 0 0 0 0
0 0 0 0 0 0 0 0 0
0 0 0 0 0 0 0 0 0
0 0 0 0 0 0 0 0 0
0 0 0 0 0 0 0 0 0
0 0 0 0 0 0 0 0 0
0 0 0 0 0 0 0 0 0
0 0 0 0 0 0 0 0 0
0 0 0 0 0 0 0 0 0
0 0 0 0 0 0 0 0 0
0 0 0 0 0 0 0 0 0
0 0 0 0 0 0 0 0 0
0 0 0 0 0 0 0 0 0
0 0 0 0 0 0 0 0 0
0 0 0 0 0 0 0 0 0
0 0 0 0 0 0 0 0 0
0 0 0 0 0 0 0 0 0
0 0 0 0 0 0 0 0 0
0 0 0 0 0 0 0 0 0
0 0 0 0 0 0 0 0 0
0 0 0 0 0 0 0 0 0
0 0 0 0 0 0 0 0 0
0 0 0 0 0 0 0 0 0
0 0 0 0 0 0 0 0 0
0 0 0 0 0 0 0 0 0
0 0 0 0 0 0 0 0 0
0 0 0 0 0 0 0 0 0
0 0 0 0 0 0 0 0 0
0 0 0 0 0 0 0 0 0
0 0 0 0 0 0 0 0 0
0 0 0 0 0 0 0 0 0
0 0 0 0 0 0 0 0 0
0 0 0 0 0 0 0 0 0
0 0 0 0 0 0 0 0 0
0 0 0 0 0 0 0 0 0
0 0 0 0 0 0 0 0 0
0 0 0 0 0 0 0 0 0
0 0 0 0 0 0 0 0 0
0 0 0 0 0 0 0 0 0
0 0 0 0 0 0 0 0 0
0 0 0 0 0 0 0 0 0
0 0 0 0 0 0 0 0 0
0 0 0 0 0 0 0 0 0
0 0 0 0 0 0 0 0 0
0 0 0 0 0 0 0 0 0
0 0 0 0 0 0 0 0 0
0 0 0 0 0 0 0 0 0
0 0 0 0 0 0 0 0 0
0 0 0 0 0 0 0 0 0
0 0 0 0 0 0 0 0 0
0 0 0 0 0 0 0 0 0
0 0 0 0 0 0 0 0 0
0 0 0 0 0 0 0 0 0
0 0 0 0 0 0 0 0 0
0 0 0 0 0 0 0 0 0
0 0 0 0 0 0 0 0 0
0 0 0 0 0 0 0 0 0
0 0 0 0 0 0 0 0 0
0 0 0 0 0 0 0 0 0
0 0 0 0 0 0 0 0 0
0 0 0 0 0 0 0 0 0
0 0 0 0 0 0 0 0 0
0 0 0 0 0 0 0 0 0
0 0 0 0 0 0 0 0 0
0 0 0 0 0 0 0 0 0
0 0 0 0 0 0 0 0 0
0 0 0 0 0 0 0 0 0
0 0 0 0 0 0 0 0 0
0 0 0 0 0 0 0 0 0
0 0 0 0 0 0 0 0 0
0 0 0 0 0 0 0 0 0
0 0 0 0 0 0 0 0 0
0 0 0 0 0 0 0 0 0
0 0 0 0 0 0 0 0 0
0 0 0 0 0 0 0 0 0
0 0 0 0 0 0 0 0 0
0 0 0 0 0 0 0 0 0
0 0 0 0 0 0 0 0 0
0 0 0 0 0 0 0 0 0
0 0 0 0 0 0 0 0 0
0 0 0 0 0 0 0 0 0
0 0 0 0 0 0 0 0 0
0 0 0 0 0 0 0 0 0
0 0 0 0 0 0 0 0 0
0 0 0 0 0 0 0 0 0
0 0 0 0 0 0 0 0 0
0 0 0 0 0 0 0 0 0
0 0 0 0 0 0 0 0 0
0 0 0 0 0 0 0 0 0
0 0 0 0 0 0 0 0 0
0 0 0 0 0 0 0 0 0
0 0 0 0 0 0 0 0 0
0 0 0 0 0 0 0 0 0
0 0 0 0 0 0 0 0 0
0 0 0 0 0 0 0 0 0
0 0 0 0 0 0 0 0 0
0 0 0 0 0 0 0 0 0
0 0 0 0 0 0 0 0 0
0 0 0 0 0 0 0 0 0
0 0 0 0 0 0 0 0 0
0 0 0 0 0 0 0 0 0
0 0 0 0 0 0 0 0 0
0 0 0 0 0 0 0 0 0
0 0 0 0 0 0 0 0 0
0 0 0 0 0 0 0 0 0
0 0 0 0 0 0 0 0 0
0 0 0 0 0 0 0 0 0
0 0 0 0 0 0 0 0 0
0 0 0 0 0 0 0 0 0
0 0 0 0 0 0 0 0 0
0 0 0 0 0 0 0 0 0
0 0 0 0 0 0 0 0 0
0 0 0 0 0 0 0 0 0
0 0 0 0 0 0 0 0 0
0 0 0 0 0 0 0 0 0
0 0 0 0 0 0 0 0 0
0 0 0 0 0 0 0 0 0
0 0 0 0 0 0 0 0 0
0 0 0 0 0 0 0 0 0
0 0 0 0 0 0 0 0 0
0 0 0 0 0 0 0 0 0
0 0 0 0 0 0 0 0 0
0 0 0 0 0 0 0 0 0
0 0 0 0 0 0 0 0 0
0 0 0 0 0 0 0 0 0
0 0 0 0 0 0 0 0 0
0 0 0 0 0 0 0 0 0
0 0 0 0 0 0 0 0 0
0 0 0 0 0 0 0 0 0
0 0 0 0 0 0 0 0 0
0 0 0 0 0 0 0 0 0
0 0 0 0 0 0 0 0 0
0 0 0 0 0 0 0 0 0
0 0 0 0 0 0 0 0 0
0 0 0 0 0 0 0 0 0
0 0 0 0 0 0 0 0 0
0 0 0 0 0 0 0 0 0
0 0 0 0 0 0 0 0 0
0 0 0 0 0 0 0 0 0
0 0 0 0 0 0 0 0 0
0 0 0 0 0 0 0 0 0
0 0 0 0 0 0 0 0 0
0 0 0 0 0 0 0 0 0
0 0 0 0 0 0 0 0 0
0 0 0 0 0 0 0 0 0
0 0 0 0 0 0 0 0 0
0 0 0 0 0 0 0 0 0
0 0 0 0 0 0 0 0 0
0 0 0 0 0 0 0 0 0
0 0 0 0 0 0 0 0 0
0 0 0 0 0 0 0 0 0
0 0 0 0 0 0 0 0 0
0 0 0 0 0 0 0 0 0
0 0 0 0 0 0 0 0 0
0 0 0 0 0 0 0 0 0
0 0 0 0 0 0 0 0 0
0 0 0 0 0 0 0 0 0
0 0 0 0 0 0 0 0 0
0 0 0 0 0 0 0 0 0
0 0 0 0 0 0 0 0 0
0 0 0 0 0 0 0 0 0
0 0 0 0 0 0 0 0 0
0 0 0 0 0 0 0 0 0
0 0 0 0 0 0 0 0 0
0 0 0 0 0 0 0 0 0
0 0 0 0 0 0 0 0 0
0 0 0 0 0 0 0 0 0
0 0 0 0 0 0 0 0 0
0 0 0 0 0 0 0 0 0
0 0 0 0 0 0 0 0 0
0 0 0 0 0 0 0 0 0
0 0 0 0 0 0 0 0 0
0 0 0 0 0 0 0 0 0
0 0 0 0 0 0 0 0 0
0 0 0 0 0 0 0 0 0
0 0 0 0 0 0 0 0 0
0 0 0 0 0 0 0 0 0
0 0 0 0 0 0 0 0 0
0 0 0 0 0 0 0 0 0
0 0 0 0 0 0 0 0 0
0 0 0 0 0 0 0 0 0
0 0 0 0 0 0 0 0 0
0 0 0 0 0 0 0 0 0
0 0 0 0 0 0 0 0 0
0 0 0 0 0 0 0 0 0
0 0 0 0 0 0 0 0 0
0 0 0 0 0 0 0 0 0
0 0 0 0 0 0 0 0 0
0 0 0 0 0 0 0 0 0
0 0 0 0 0 0 0 0 0
0 0 0 0 0 0 0 0 0
0 0 0 0 0 0 0 0 0
0 0 0 0 0 0 0 0 0
0 0 0 0 0 0 0 0 0
0 0 0 0 0 0 0 0 0
0 0 0 0 0 0 0 0 0
0 0 0 0 0 0 0 0 0
0 0 0 0 0 0 0 0 0
0 0 0 0 0 0 0 0 0
0 0 0 0 0 0 0 0 0
0 0 0 0 0 0 0 0 0
0 0 0 0 0 0 0 0 0
0 0 0 0 0 0 0 0 0
0 0 0 0 0 0 0 0 0
0 0 0 0 0 0 0 0 0
0 0 0 0 0 0 0 0 0
0 0 0 0 0 0 0 0 0
0 0 0 0 0 0 0 0 0
0 0 0 0 0 0 0 0 0
0 0 0 0 0 0 0 0 0
0 0 0 0 0 0 0 0 0
0 0 0 0 0 0 0 0 0
0 0 0 0 0 0 0 0 0
0 0 0 0 0 0 0 0 0
0 0 0 0 0 0 0 0 0
0 0 0 0 0 0 0 0 0
0 0 0 0 0 0 0 0 0
0 0 0 0 0 0 0 0 0
0 0 0 0 0 0 0 0 0
0 0 0 0 0 0 0 0 0
0 0 0 0 0 0 0 0 0
0 0 0 0 0 0 0 0 0
0 0 0 0 0 0 0 0 0
0 0 0 0 0 0 0 0 0
0 0 0 0 0 0 0 0 0
0 0 0 0 0 0 0 0 0
0 0 0 0 0 0 0 0 0
0 0 0 0 0 0 0 0 0
0 0 0 0 0 0 0 0 0
0 0 0 0 0 0 0 0 0
0 0 0 0 0 0 0 0 0
0 0 0 0 0 0 0 0 0
0 0 0 0 0 0 0 0 0
0 0 0 0 0 0 0 0 0
0 0 0 0 0 0 0 0 0
0 0 0 0 0 0 0 0 0
0 0 0 0 0 0 0 0 0
0 0 0 0 0 0 0 0 0
0 0 0 0 0 0 0 0 0
0 0 0 0 0 0 0 0 0
0 0 0 0 0 0 0 0 0
0 0 0 0 0 0 0 0 0
0 0 0 0 0 0 0 0 0
0 0 0 0 0 0 0 0 0
0 0 0 0 0 0 0 0 0
0 0 0 0 0 0 0 0 0
0 0 0 0 0 0 0 0 0
0 0 0 0 0 0 0 0 0
0 0 0 0 0 0 0 0 0
0 0 0 0 0 0 0 0 0
0 0 0 0 0 0 0 0 0
0 0 0 0 0 0 0 0 0
0 0 0 0 0 0 0 0 0
0 0 0 0 0 0 0 0 0
0 0 0 0 0 0 0 0 0
0 0 0 0 0 0 0 0 0
0 0 0 0 0 0 0 0 0
0 0 0 0 0 0 0 0 0
0 0 0 0 0 0 0 0 0
0 0 0 0 0 0 0 0 0
0 0 0 0 0 0 0 0 0
0 0 0 0 0 0 0 0 0
0 0 0 0 0 0 0 0 0
0 0 0 0 0 0 0 0 0
0 0 0 0 0 0 0 0 0
0 0 0 0 0 0 0 0 0
0 0 0 0 0 0 0 0 0
0 0 0 0 0 0 0 0 0
0 0 0 0 0 0 0 0 0
0 0 0 0 0 0 0 0 0
0 0 0 0 0 0 0 0 0
0 0 0 0 0 0 0 0 0
0 0 0 0 0 0 0 0 0
0 0 0 0 0 0 0 0 0
0 0 0 0 0 0 0 0 0
0 0 0 0 0 0 0 0 0
0 0 0 0 0 0 0 0 0
0 0 0 0 0 0 0 0 0
0 0 0 0 0 0 0 0 0
0 0 0 0 0 0 0 0 0
0 0 0 0 0 0 0 0 0
0 0 0 0 0 0 0 0 0
0 0 0 0 0 0 0 0 0
0 0 0 0 0 0 0 0 0
0 0 0 0 0 0 0 0 0
0 0 0 0 0 0 0 0 0
0 0 0 0 0 0 0 0 0
0 0 0 0 0 0 0 0 0
0 0 0 0 0 0 0 0 0
0 0 0 0 0 0 0 0 0
0 0 0 0 0 0 0 0 0
0 0 0 0 0 0 0 0 0
0 0 0 0 0 0 0 0 0
0 0 0 0 0 0 0 0 0
0 0 0 0 0 0 0 0 0
0 0 0 0 0 0 0 0 0
0 0 0 0 0 0 0 0 0
0 0 0 0 0 0 0 0 0
0 0 0 0 0 0 0 0 0
0 0 0 0 0 0 0 0 0
0 0 0 0 0 0 0 0 0
0 0 0 0 0 0 0 0 0
0 0 0 0 0 0 0 0 0
0 0 0 0 0 0 0 0 0
0 0 0 0 0 0 0 0 0
0 0 0 0 0 0 0 0 0
0 0 0 0 0 0 0 0 0
0 0 0 0 0 0 0 0 0
0 0 0 0 0 0 0 0 0
0 0 0 0 0 0 0 0 0
0 0 0 0 0 0 0 0 0
0 0 0 0 0 0 0 0 0
0 0 0 0 0 0 0 0 0
0 0 0 0 0 0 0 0 0
0 0 0 0 0 0 0 0 0
0 0 0 0 0 0 0 0 0
0 0 0 0 0 0 0 0 0
0 0 0 0 0 0 0 0 0
0 0 0 0 0 0 0 0 0
0 0 0 0 0 0 0 0 0
0 0 0 0 0 0 0 0 0
0 0 0 0 0 0 0 0 0
0 0 0 0 0 0 0 0 0
0 0 0 0 0 0 0 0 0
0 0 0 0 0 0 0 0 0
0 0 0 0 0 0 0 0 0
0 0 0 0 0 0 0 0 0
0 0 0 0 0 0 0 0 0
0 0 0 0 0 0 0 0 0
0 0 0 0 0 0 0 0 0
0 0 0 0 0 0 0 0 0
0 0 0 0 0 0 0 0 0
0 0 0 0 0 0 0 0 0
0 0 0 0 0 0 0 0 0
0 0 0 0 0 0 0 0 0
0 0 0 0 0 0 0 0 0
0 0 0 0 0 0 0 0 0
0 0 0 0 0 0 0 0 0
0 0 0 0 0 0 0 0 0
0 0 0 0 0 0 0 0 0
0 0 0 0 0 0 0 0 0
0 0 0 0 0 0 0 0 0
0 0 0 0 0 0 0 0 0
0.0616981 0.0646318 0.0621177 0.0647623 0.0616981 0.0646318 0.0621177 0.0647623 0
0.066767 0.0696608 0.0668082 0.0697489 0.066767 0.0696608 0.0668082 0.0697489 0
0.0719583 0.0753403 0.07201 0.0752457 0.0719583 0.0753403 0.07201 0.0752457 0
0.0778073 0.0811652 0.077619 0.0808675 0.0778073 0.0811652 0.077619 0.0808675 0
0.0836426 0.0870532 0.0833571 0.0869101 0.0836426 0.0870532 0.0833571 0.0869101 0
0.0473988 0.0499388 0.0476886 0.0500859 0.0473988 0.0499388 0.0476886 0.0500859 0
0.0518953 0.0546939 0.0519724 0.0547248 0.0518953 0.0546939 0.0519724 0.0547248 0
0.056732 0.059501 0.0567298 0.0594558 0.056732 0.059501 0.0567298 0.0594558 0
0.0615484 0.0643724 0.0615458 0.0645303 0.0615484 0.0643724 0.0615458 0.0645303 0
0.0665019 0.0694926 0.0666889 0.0695961 0.0665019 0.0694926 0.0666889 0.0695961 0
0.0718282 0.0752176 0.0719127 0.0753341 0.0718282 0.0752176 0.0719127 0.0753341 0
0.0777303 0.0812058 0.0778372 0.0812544 0.0777303 0.0812058 0.0778372 0.0812544 0
0.0837646 0.08728 0.0837505 0.0871527 0.0837646 0.08728 0.0837505 0.0871527 0
0.0425985 0.0448267 0.0432086 0.0453647 0.0425985 0.0448267 0.0432086 0.0453647 0
0.0466038 0.0492245 0.0471072 0.049709 0.0466038 0.0492245 0.0471072 0.049709 0
0.0512232 0.054059 0.0516962 0.054517 0.0512232 0.054059 0.0516962 0.054517 0
0.0561497 0.0590246 0.0565776 0.0593858 0.0561497 0.0590246 0.0565776 0.0593858 0
0.0611411 0.0640472 0.0614396 0.0642416 0.0611411 0.0640472 0.0614396 0.0642416 0
0.0662537 0.0693739 0.0663837 0.0694315 0.0662537 0.0693739 0.0663837 0.0694315 0
0.0717659 0.0751807 0.0717874 0.0751754 0.0717659 0.0751807 0.0717874 0.0751754 0
0.0777325 0.0812895 0.0777013 0.0812143 0.0777325 0.0812895 0.0777013 0.0812143 0
0.0839363 0.0876102 0.0838136 0.0874019 0.0839363 0.0876102 0.0838136 0.0874019 0
0.0376832 0.0398556 0.0385854 0.040576 0.0376832 0.0398556 0.0385854 0.040576 0
0.0415409 0.0439597 0.0421503 0.0444504 0.0415409 0.0439597 0.0421503 0.0444504 0
0.0458315 0.0485219 0.0462622 0.0489056 0.0458315 0.0485219 0.0462622 0.0489056 0
0.0505561 0.0534207 0.0509165 0.0537643 0.0505561 0.0534207 0.0509165 0.0537643 0
0.0555556 0.0585226 0.0558749 0.0587925 0.0555556 0.0585226 0.0558749 0.0587925 0
0.0607281 0.0637853 0.0609496 0.063924 0.0607281 0.0637853 0.0609496 0.063924 0
0.0660923 0.0693368 0.0661745 0.0693473 0.0660923 0.0693368 0.0661745 0.0693473 0
0.0717998 0.0752843 0.0717681 0.0752089 0.0717998 0.0752843 0.0717681 0.0752089 0
0.0778928 0.0815351 0.0777829 0.0813747 0.0778928 0.0815351 0.0777829 0.0813747 0
0.0842557 0.0880458 0.084054 0.0877819 0.0842557 0.0880458 0.084054 0.0877819 0
0.03661 0.0389436 0.0371521 0.0394177 0.03661 0.0389436 0.0371521 0.0394177 0
0.040738 0.0432961 0.0411621 0.0436495 0.040738 0.0432961 0.0411621 0.0436495 0
0.0452378 0.0479809 0.045556 0.0482732 0.0452378 0.0479809 0.045556 0.0482732 0
0.0500497 0.0529566 0.0503229 0.0532034 0.0500497 0.0529566 0.0503229 0.0532034 0
0.0551354 0.0581801 0.0553566 0.0583577 0.0551354 0.0581801 0.0553566 0.0583577 0
0.0604594 0.0636406 0.0605958 0.0637084 0.0604594 0.0636406 0.0605958 0.0637084 0
0.0660362 0.0693993 0.0660542 0.0693496 0.0660362 0.0693993 0.0660542 0.0693496 0
0.0719393 0.0755157 0.0718446 0.0753657 0.0719393 0.0755157 0.0718446 0.0753657 0
0.0781973 0.0819476 0.0780031 0.081688 0.0781973 0.0819476 0.0780031 0.081688 0
0.0847314 0.088586 0.0844365 0.0882604 0.0847314 0.088586 0.0844365 0.0882604 0
0.0357132 0.0382531 0.036223 0.0386305 0.0357132 0.0382531 0.036223 0.0386305 0
0.040155 0.0428051 0.0404672 0.0430689 0.040155 0.0428051 0.0404672 0.0430689 0
0.0448008 0.0476001 0.0450345 0.0477998 0.0448008 0.0476001 0.0450345 0.0477998 0
0.0497043 0.0526525 0.0498832 0.0528083 0.0497043 0.0526525 0.0498832 0.0528083 0
0.0548711 0.0579834 0.0550046 0.0580791 0.0548711 0.0579834 0.0550046 0.0580791 0
0.0603269 0.0636164 0.0603865 0.0636151 0.0603269 0.0636164 0.0603865 0.0636151 0
0.0660933 0.0695707 0.0660458 0.0694577 0.0660933 0.0695707 0.0660458 0.0694577 0
0.0721869 0.0758576 0.0720301 0.0756467 0.0721869 0.0758576 0.0720301 0.0756467 0
0.0786163 0.0824839 0.0783608 0.0821604 0.0786163 0.0824839 0.0783608 0.0821604 0
0.0853336 0.089251 0.0849713 0.0888511 0.0853336 0.089251 0.0849713 0.0888511 0
0.0349553 0.0376964 0.0353733 0.0380016 0.0349553 0.0376964 0.0353733 0.0380016 0
0.0397107 0.0424681 0.0399509 0.0426433 0.0397107 0.0424681 0.0399509 0.0426433 0
0.0445209 0.0473703 0.0446625 0.0474844 0.0445209 0.0473703 0.0446625 0.0474844 0
0.0495033 0.0524805 0.0496019 0.0525641 0.0495033 0.0524805 0.0496019 0.0525641 0
0.0547296 0.0578965 0.0547968 0.0579338 0.0547296 0.0578965 0.0547968 0.0579338 0
0.0602987 0.0636945 0.0603026 0.0636369 0.0602987 0.0636945 0.0603026 0.0636369 0
0.0662536 0.0698496 0.0661481 0.0696748 0.0662536 0.0698496 0.0661481 0.0696748 0
0.0725469 0.0763209 0.0723244 0.0760374 0.0725469 0.0763209 0.0723244 0.0760374 0
0.0791011 0.0829237 0.0788135 0.0826863 0.0791011 0.0829237 0.0788135 0.0826863 0
0.0858516 0.0900295 0.0855675 0.089566 0.0858516 0.0900295 0.0855675 0.089566 0
0.0343622 0.0372956 0.0346835 0.0375068 0.0343622 0.0372956 0.0346835 0.0375068 0
0.0394194 0.0422856 0.039568 0.0423718 0.0394194 0.0422856 0.039568 0.0423718 0
0.0443936 0.0472858 0.0444484 0.0473168 0.0443936 0.0472858 0.0444484 0.0473168 0
0.049438 0.0524254 0.049459 0.0524429 0.049438 0.0524254 0.049459 0.0524429 0
0.0546934 0.057902 0.0547014 0.0578873 0.0546934 0.057902 0.0547014 0.0578873 0
0.0603605 0.0638687 0.0603135 0.0637559 0.0603605 0.0638687 0.0603135 0.0637559 0
0.0665186 0.0702507 0.0663521 0.0700032 0.0665186 0.0702507 0.0663521 0.0700032 0
0.0730604 0.077006 0.0727433 0.0765796 0.0730604 0.077006 0.0727433 0.0765796 0
0.0798689 0.0837459 0.0793832 0.0832074 0.0798689 0.0837459 0.0793832 0.0832074 0
0.033758 0.0369495 0.034113 0.0371452 0.033758 0.0369495 0.034113 0.0371452 0
0.0392569 0.0423684 0.0393347 0.0422825 0.0392569 0.0423684 0.0393347 0.0422825 0
0.0446072 0.0476118 0.0444335 0.0473617 0.0446072 0.0476118 0.0444335 0.0473617 0
0.0498138 0.0528251 0.0495298 0.0525247 0.0498138 0.0528251 0.0495298 0.0525247 0
0.0550911 0.0582708 0.0547951 0.0580028 0.0550911 0.0582708 0.0547951 0.0580028 0
0.0607072 0.0641843 0.0604647 0.0639829 0.0607072 0.0641843 0.0604647 0.0639829 0
0.0668412 0.0706239 0.0666495 0.0704172 0.0668412 0.0706239 0.0666495 0.0704172 0
0.0735029 0.0775875 0.0732644 0.0772766 0.0735029 0.0775875 0.0732644 0.0772766 0
0 0 0 0 0 0 0 0 0
0 0 0 0 0 0 0 0 0
0 0 0 0 0 0 0 0 0
0 0 0 0 0 0 0 0 0
0 0 0 0 0 0 0 0 0
0 0 0 0 0 0 0 0 0
0 0 0 0 0 0 0 0 0
0 0 0 0 0 0 0 0 0
0 0 0 0 0 0 0 0 0
0 0 0 0 0 0 0 0 0
0 0 0 0 0 0 0 0 0
0 0 0 0 0 0 0 0 0
0 0 0 0 0 0 0 0 0
0 0 0 0 0 0 0 0 0
0 0 0 0 0 0 0 0 0
0 0 0 0 0 0 0 0 0
0 0 0 0 0 0 0 0 0
0 0 0 0 0 0 0 0 0
0 0 0 0 0 0 0 0 0
0 0 0 0 0 0 0 0 0
0 0 0 0 0 0 0 0 0
0 0 0 0 0 0 0 0 0
0 0 0 0 0 0 0 0 0
0 0 0 0 0 0 0 0 0
0 0 0 0 0 0 0 0 0
0 0 0 0 0 0 0 0 0
0 0 0 0 0 0 0 0 0
0 0 0 0 0 0 0 0 0
0 0 0 0 0 0 0 0 0
0 0 0 0 0 0 0 0 0
0 0 0 0 0 0 0 0 0
0 0 0 0 0 0 0 0 0
0 0 0 0 0 0 0 0 0
0 0 0 0 0 0 0 0 0
0 0 0 0 0 0 0 0 0
0 0 0 0 0 0 0 0 0
0 0 0 0 0 0 0 0 0
0 0 0 0 0 0 0 0 0
0 0 0 0 0 0 0 0 0
0 0 0 0 0 0 0 0 0
0 0 0 0 0 0 0 0 0
0 0 0 0 0 0 0 0 0
0 0 0 0 0 0 0 0 0
0 0 0 0 0 0 0 0 0
0 0 0 0 0 0 0 0 0
0 0 0 0 0 0 0 0 0
0 0 0 0 0 0 0 0 0
0 0 0 0 0 0 0 0 0
0 0 0 0 0 0 0 0 0
0 0 0 0 0 0 0 0 0
0 0 0 0 0 0 0 0 0
0 0 0 0 0 0 0 0 0
0 0 0 0 0 0 0 0 0
0 0 0 0 0 0 0 0 0
0 0 0 0 0 0 0 0 0
0 0 0 0 0 0 0 0 0
0 0 0 0 0 0 0 0 0
0 0 0 0 0 0 0 0 0
0 0 0 0 0 0 0 0 0
0 0 0 0 0 0 0 0 0
0 0 0 0 0 0 0 0 0
0 0 0 0 0 0 0 0 0
0 0 0 0 0 0 0 0 0
0 0 0 0 0 0 0 0 0
0 0 0 0 0 0 0 0 0
0 0 0 0 0 0 0 0 0
0 0 0 0 0 0 0 0 0
0 0 0 0 0 0 0 0 0
0 0 0 0 0 0 0 0 0
0 0 0 0 0 0 0 0 0
0 0 0 0 0 0 0 0 0
0 0 0 0 0 0 0 0 0
0 0 0 0 0 0 0 0 0
0 0 0 0 0 0 0 0 0
0 0 0 0 0 0 0 0 0
0 0 0 0 0 0 0 0 0
0 0 0 0 0 0 0 0 0
0 0 0 0 0 0 0 0 0
0 0 0 0 0 0 0 0 0
0.0537602 0.0563548 0.0539439 0.0562643 0.0537602 0.0563548 0.0539439 0.0562643 0
0.0582166 0.0607025 0.0580155 0.0604757 0.0582166 0.0607025 0.0580155 0.0604757 0
0.0625485 0.0651061 0.0623382 0.0649653 0.0625485 0.0651061 0.0623382 0.0649653 0
0.0669528 0.069441 0.0668148 0.0692425 0.0669528 0.069441 0.0668148 0.0692425 0
0.0713967 0.0742495 0.0711251 0.073838 0.0713967 0.0742495 0.0711251 0.073838 0
0.0419859 0.0441493 0.0423437 0.0443146 0.0419859 0.0441493 0.0423437 0.0443146 0
0.045764 0.0480081 0.0458176 0.0479521 0.045764 0.0480081 0.0458176 0.0479521 0
0.0496926 0.0520455 0.0495855 0.0519071 0.0496926 0.0520455 0.0495855 0.0519071 0
0.0538342 0.0563647 0.0537292 0.0563834 0.0538342 0.0563647 0.0537292 0.0563834 0
0.0582291 0.0607896 0.0582763 0.0607883 0.0582291 0.0607896 0.0582763 0.0607883 0
0.0626935 0.0653342 0.0626457 0.0652087 0.0626935 0.0653342 0.0626457 0.0652087 0
0.0672836 0.0699686 0.0670827 0.0696392 0.0672836 0.0699686 0.0670827 0.0696392 0
0.0720278 0.074968 0.0716413 0.0745533 0.0720278 0.074968 0.0716413 0.0745533 0
0.037254 0.0394883 0.0379482 0.0400662 0.037254 0.0394883 0.0379482 0.0400662 0
0.0411511 0.0434629 0.0416652 0.0439223 0.0411511 0.0434629 0.0416652 0.0439223 0
0.0451926 0.0476045 0.0455986 0.0479168 0.0451926 0.0476045 0.0455986 0.0479168 0
0.0494038 0.0519044 0.0496457 0.0520464 0.0494038 0.0519044 0.0496457 0.0520464 0
0.0537661 0.0563492 0.053845 0.0563546 0.0537661 0.0563492 0.053845 0.0563546 0
0.0582742 0.0609493 0.058227 0.0608316 0.0582742 0.0609493 0.058227 0.0608316 0
0.0629454 0.0657234 0.0627727 0.0654709 0.0629454 0.0657234 0.0627727 0.0654709 0
0.0677882 0.0706511 0.0674714 0.0702384 0.0677882 0.0706511 0.0674714 0.0702384 0
0.0727986 0.0758026 0.0723367 0.0753019 0.0727986 0.0758026 0.0723367 0.0753019 0
0.0324736 0.0346529 0.0330825 0.0352001 0.0324736 0.0346529 0.0330825 0.0352001 0
0.0363112 0.0386548 0.0368162 0.0391103 0.0363112 0.0386548 0.0368162 0.0391103 0
0.0404066 0.042849 0.0408134 0.0431738 0.0404066 0.042849 0.0408134 0.0431738 0
0.0446756 0.0472217 0.0449436 0.0474166 0.0446756 0.0472217 0.0449436 0.0474166 0
0.0491202 0.0517593 0.0492614 0.0518259 0.0491202 0.0517593 0.0492614 0.0518259 0
0.0537202 0.0564368 0.0537313 0.05637 0.0537202 0.0564368 0.0537313 0.05637 0
0.0584586 0.0612646 0.0583351 0.0610643 0.0584586 0.0612646 0.0583351 0.0610643 0
0.0633591 0.0662751 0.0631015 0.0659378 0.0633591 0.0662751 0.0631015 0.0659378 0
0.0684453 0.0714584 0.068048 0.0709768 0.0684453 0.0714584 0.068048 0.0709768 0
0.0737034 0.076824 0.0731639 0.0762104 0.0737034 0.076824 0.0731639 0.0762104 0
0.0316922 0.0339295 0.0320947 0.0343083 0.0316922 0.0339295 0.0320947 0.0343083 0
0.035651 0.0381067 0.0359962 0.0383841 0.035651 0.0381067 0.0359962 0.0383841 0
0.0399387 0.0424874 0.0401709 0.042664 0.0399387 0.0424874 0.0401709 0.042664 0
0.044391 0.047042 0.0445264 0.04712 0.044391 0.047042 0.0445264 0.04712 0
0.0490207 0.0517746 0.0490544 0.0517442 0.0490207 0.0517746 0.0490544 0.0517442 0
0.0538246 0.0566706 0.0537439 0.0565162 0.0538246 0.0566706 0.0537439 0.0565162 0
0.0587888 0.0617296 0.058579 0.0614418 0.0587888 0.0617296 0.058579 0.0614418 0
0.0639208 0.0669663 0.0635776 0.0665495 0.0639208 0.0669663 0.0635776 0.0665495 0
0.0692372 0.0723962 0.0687628 0.0718374 0.0692372 0.0723962 0.0687628 0.0718374 0
0.0747408 0.0779872 0.0741248 0.0772993 0.0747408 0.0779872 0.0741248 0.0772993 0
0.0311805 0.0335263 0.0314467 0.0337197 0.0311805 0.0335263 0.0314467 0.0337197 0
0.035321 0.0378685 0.0354699 0.0379683 0.035321 0.0378685 0.0354699 0.0379683 0
0.0397618 0.0423863 0.0398287 0.0424123 0.0397618 0.0423863 0.0398287 0.0424123 0
0.0443458 0.0470742 0.0443418 0.0470289 0.0443458 0.0470742 0.0443418 0.0470289 0
0.0491153 0.0519627 0.0490361 0.0518321 0.0491153 0.0519627 0.0490361 0.0518321 0
0.0540906 0.0570564 0.0539164 0.0568142 0.0540906 0.0570564 0.0539164 0.0568142 0
0.0592668 0.0623398 0.058972 0.0619692 0.0592668 0.0623398 0.058972 0.0619692 0
0.0646238 0.067791 0.0642001 0.0672979 0.0646238 0.067791 0.0642001 0.0672979 0
0.0701496 0.0734264 0.0696077 0.0728207 0.0701496 0.0734264 0.0696077 0.0728207 0
0.0758675 0.0792602 0.0752065 0.078512 0.0758675 0.0792602 0.0752065 0.078512 0
0.0308405 0.0334157 0.0310162 0.0334452 0.0308405 0.0334157 0.0310162 0.0334452 0
0.0353143 0.0379216 0.0352801 0.0378563 0.0353143 0.0379216 0.0352801 0.0378563 0
0.0398553 0.0425307 0.039769 0.0424178 0.0398553 0.0425307 0.039769 0.0424178 0
0.0445257 0.0473007 0.0443948 0.0471466 0.0445257 0.0473007 0.0443948 0.0471466 0
0.0493842 0.0523014 0.049208 0.0520877 0.0493842 0.0523014 0.049208 0.0520877 0
0.0544967 0.0575772 0.0542452 0.0572598 0.0544967 0.0575772 0.0542452 0.0572598 0
0.0598792 0.0630882 0.0595087 0.0626385 0.0598792 0.0630882 0.0595087 0.0626385 0
0.0654688 0.068764 0.0649627 0.068183 0.0654688 0.068764 0.0649627 0.068183 0
0.0711943 0.0745407 0.0705744 0.0738883 0.0711943 0.0745407 0.0705744 0.0738883 0
0.0770698 0.0806324 0.0763674 0.0798271 0.0770698 0.0806324 0.0763674 0.0798271 0
0.0307693 0.0335501 0.0307742 0.0334441 0.0307693 0.0335501 0.0307742 0.0334441 0
0.0355494 0.03823 0.0353867 0.038022 0.0355494 0.03823 0.0353867 0.038022 0
0.0402017 0.0429077 0.0399715 0.042662 0.0402017 0.0429077 0.0399715 0.042662 0
0.0449207 0.0477144 0.0446665 0.0474526 0.0449207 0.0477144 0.0446665 0.0474526 0
0.0498225 0.0527881 0.0495484 0.0524882 0.0498225 0.0527881 0.0495484 0.0524882 0
0.0550413 0.0582318 0.054709 0.0578363 0.0550413 0.0582318 0.054709 0.0578363 0
0.0606297 0.0639914 0.0601782 0.0634494 0.0606297 0.0639914 0.0601782 0.0634494 0
0.0665098 0.0700302 0.0658825 0.0692594 0.0665098 0.0700302 0.0658825 0.0692594 0
0.0725766 0.0760139 0.0717311 0.0751089 0.0725766 0.0760139 0.0717311 0.0751089 0
0.0308241 0.0338394 0.0307841 0.0336565 0.0308241 0.0338394 0.0307841 0.0336565 0
0.0360037 0.0389009 0.0357146 0.0384652 0.0360037 0.0389009 0.0357146 0.0384652 0
0.0409881 0.0437933 0.0404732 0.0432089 0.0409881 0.0437933 0.0404732 0.0432089 0
0.0458449 0.0486453 0.0452339 0.0480309 0.0458449 0.0486453 0.0452339 0.0480309 0
0.0507417 0.0536688 0.0501391 0.0531016 0.0507417 0.0536688 0.0501391 0.0531016 0
0.0558952 0.0590515 0.0553567 0.0585556 0.0558952 0.0590515 0.0553567 0.0585556 0
0.0614553 0.0648682 0.0609705 0.0643705 0.0614553 0.0648682 0.0609705 0.0643705 0
0.0674602 0.071132 0.0669311 0.0705295 0.0674602 0.071132 0.0669311 0.0705295 0
0 0 0 0 0 0 0 0 0
0 0 0 0 0 0 0 0 0
0 0 0 0 0 0 0 0 0
0 0 0 0 0 0 0 0 0
0 0 0 0 0 0 0 0 0
0 0 0 0 0 0 0 0 0
0 0 0 0 0 0 0 0 0
0 0 0 0 0 0 0 0 0
0 0 0 0 0 0 0 0 0
0 0 0 0 0 0 0 0 0
0 0 0 0 0 0 0 0 0
0 0 0 0 0 0 0 0 0
0 0 0 0 0 0 0 0 0
0 0 0 0 0 0 0 0 0
0 0 0 0 0 0 0 0 0
0 0 0 0 0 0 0 0 0
0 0 0 0 0 0 0 0 0
0 0 0 0 0 0 0 0 0
0 0 0 0 0 0 0 0 0
0 0 0 0 0 0 0 0 0
0 0 0 0 0 0 0 0 0
0 0 0 0 0 0 0 0 0
0 0 0 0 0 0 0 0 0
0 0 0 0 0 0 0 0 0
0 0 0 0 0 0 0 0 0
0 0 0 0 0 0 0 0 0
0 0 0 0 0 0 0 0 0
0 0 0 0 0 0 0 0 0
0 0 0 0 0 0 0 0 0
0 0 0 0 0 0 0 0 0
0 0 0 0 0 0 0 0 0
0 0 0 0 0 0 0 0 0
0 0 0 0 0 0 0 0 0
0 0 0 0 0 0 0 0 0
0 0 0 0 0 0 0 0 0
0 0 0 0 0 0 0 0 0
0 0 0 0 0 0 0 0 0
0 0 0 0 0 0 0 0 0
0 0 0 0 0 0 0 0 0
0 0 0 0 0 0 0 0 0
0 0 0 0 0 0 0 0 0
0 0 0 0 0 0 0 0 0
0 0 0 0 0 0 0 0 0
0 0 0 0 0 0 0 0 0
0 0 0 0 0 0 0 0 0
0 0 0 0 0 0 0 0 0
0 0 0 0 0 0 0 0 0
0 0 0 0 0 0 0 0 0
0 0 0 0 0 0 0 0 0
0 0 0 0 0 0 0 0 0
0 0 0 0 0 0 0 0 0
0 0 0 0 0 0 0 0 0
0 0 0 0 0 0 0 0 0
0 0 0 0 0 0 0 0 0
0 0 0 0 0 0 0 0 0
0 0 0 0 0 0 0 0 0
0 0 0 0 0 0 0 0 0
0 0 0 0 0 0 0 0 0
0 0 0 0 0 0 0 0 0
0 0 0 0 0 0 0 0 0
0 0 0 0 0 0 0 0 0
0 0 0 0 0 0 0 0 0
0 0 0 0 0 0 0 0 0
0 0 0 0 0 0 0 0 0
0 0 0 0 0 0 0 0 0
0 0 0 0 0 0 0 0 0
0 0 0 0 0 0 0 0 0
0 0 0 0 0 0 0 0 0
0 0 0 0 0 0 0 0 0
0 0 0 0 0 0 0 0 0
0 0 0 0 0 0 0 0 0
0 0 0 0 0 0 0 0 0
0 0 0 0 0 0 0 0 0
0 0 0 0 0 0 0 0 0
0 0 0 0 0 0 0 0 0
0 0 0 0 0 0 0 0 0
0 0 0 0 0 0 0 0 0
0 0 0 0 0 0 0 0 0
0 0 0 0 0 0 0 0 0
0 0 0 0 0 0 0 0 0
0 0 0 0 0 0 0 0 0
0 0 0 0 0 0 0 0 0
0 0 0 0 0 0 0 0 0
0 0 0 0 0 0 0 0 0
0 0 0 0 0 0 0 0 0
0 0 0 0 0 0 0 0 0
0 0 0 0 0 0 0 0 0
0 0 0 0 0 0 0 0 0
0 0 0 0 0 0 0 0 0
0 0 0 0 0 0 0 0 0
0 0 0 0 0 0 0 0 0
0 0 0 0 0 0 0 0 0
0 0 0 0 0 0 0 0 0
0 0 0 0 0 0 0 0 0
0 0 0 0 0 0 0 0 0
0 0 0 0 0 0 0 0 0
0 0 0 0 0 0 0 0 0
0 0 0 0 0 0 0 0 0
0 0 0 0 0 0 0 0 0
0 0 0 0 0 0 0 0 0
0 0 0 0 0 0 0 0 0
0 0 0 0 0 0 0 0 0
0 0 0 0 0 0 0 0 0
0 0 0 0 0 0 0 0 0
0 0 0 0 0 0 0 0 0
0 0 0 0 0 0 0 0 0
0 0 0 0 0 0 0 0 0
0 0 0 0 0 0 0 0 0
0 0 0 0 0 0 0 0 0
0 0 0 0 0 0 0 0 0
0 0 0 0 0 0 0 0 0
0 0 0 0 0 0 0 0 0
0 0 0 0 0 0 0 0 0
0 0 0 0 0 0 0 0 0
0 0 0 0 0 0 0 0 0
0 0 0 0 0 0 0 0 0
0 0 0 0 0 0 0 0 0
0 0 0 0 0 0 0 0 0
0 0 0 0 0 0 0 0 0
0 0 0 0 0 0 0 0 0
0 0 0 0 0 0 0 0 0
0 0 0 0 0 0 0 0 0
0 0 0 0 0 0 0 0 0
0 0 0 0 0 0 0 0 0
0 0 0 0 0 0 0 0 0
0 0 0 0 0 0 0 0 0
0 0 0 0 0 0 0 0 0
0 0 0 0 0 0 0 0 0
0 0 0 0 0 0 0 0 0
0 0 0 0 0 0 0 0 0
0 0 0 0 0 0 0 0 0
0 0 0 0 0 0 0 0 0
0 0 0 0 0 0 0 0 0
0 0 0 0 0 0 0 0 0
0 0 0 0 0 0 0 0 0
0 0 0 0 0 0 0 0 0
0 0 0 0 0 0 0 0 0
0 0 0 0 0 0 0 0 0
0 0 0 0 0 0 0 0 0
0 0 0 0 0 0 0 0 0
0 0 0 0 0 0 0 0 0
0 0 0 0 0 0 0 0 0
0 0 0 0 0 0 0 0 0
0 0 0 0 0 0 0 0 0
0 0 0 0 0 0 0 0 0
0 0 0 0 0 0 0 0 0
0 0 0 0 0 0 0 0 0
0 0 0 0 0 0 0 0 0
0 0 0 0 0 0 0 0 0
0 0 0 0 0 0 0 0 0
0 0 0 0 0 0 0 0 0
0 0 0 0 0 0 0 0 0
0 0 0 0 0 0 0 0 0
0 0 0 0 0 0 0 0 0
0 0 0 0 0 0 0 0 0
0 0 0 0 0 0 0 0 0
0 0 0 0 0 0 0 0 0
0 0 0 0 0 0 0 0 0
0 0 0 0 0 0 0 0 0
0 0 0 0 0 0 0 0 0
0 0 0 0 0 0 0 0 0
0 0 0 0 0 0 0 0 0
0 0 0 0 0 0 0 0 0
0 0 0 0 0 0 0 0 0
0 0 0 0 0 0 0 0 0
0 0 0 0 0 0 0 0 0
0 0 0 0 0 0 0 0 0
0 0 0 0 0 0 0 0 0
0 0 0 0 0 0 0 0 0
0 0 0 0 0 0 0 0 0
0 0 0 0 0 0 0 0 0
0 0 0 0 0 0 0 0 0
0 0 0 0 0 0 0 0 0
0 0 0 0 0 0 0 0 0
0 0 0 0 0 0 0 0 0
0 0 0 0 0 0 0 0 0
0 0 0 0 0 0 0 0 0
0 0 0 0 0 0 0 0 0
0 0 0 0 0 0 0 0 0
0 0 0 0 0 0 0 0 0
0 0 0 0 0 0 0 0 0
0 0 0 0 0 0 0 0 0
0 0 0 0 0 0 0 0 0
0 0 0 0 0 0 0 0 0
0 0 0 0 0 0 0 0 0
0 0 0 0 0 0 0 0 0
0 0 0 0 0 0 0 0 0
0 0 0 0 0 0 0 0 0
0 0 0 0 0 0 0 0 0
0 0 0 0 0 0 0 0 0
0 0 0 0 0 0 0 0 0
0 0 0 0 0 0 0 0 0
0 0 0 0 0 0 0 0 0
0 0 0 0 0 0 0 0 0
0 0 0 0 0 0 0 0 0
0 0 0 0 0 0 0 0 0
0 0 0 0 0 0 0 0 0
0 0 0 0 0 0 0 0 0
0 0 0 0 0 0 0 0 0
0 0 0 0 0 0 0 0 0
0 0 0 0 0 0 0 0 0
0 0 0 0 0 0 0 0 0
0 0 0 0 0 0 0 0 0
0 0 0 0 0 0 0 0 0
0 0 0 0 0 0 0 0 0
0 0 0 0 0 0 0 0 0
0 0 0 0 0 0 0 0 0
0 0 0 0 0 0 0 0 0
0 0 0 0 0 0 0 0 0
0 0 0 0 0 0 0 0 0
0 0 0 0 0 0 0 0 0
0 0 0 0 0 0 0 0 0
0 0 0 0 0 0 0 0 0
0 0 0 0 0 0 0 0 0
0 0 0 0 0 0 0 0 0
0 0 0 0 0 0 0 0 0
0 0 0 0 0 0 0 0 0
0 0 0 0 0 0 0 0 0
0 0 0 0 0 0 0 0 0
0 0 0 0 0 0 0 0 0
0 0 0 0 0 0 0 0 0
0 0 0 0 0 0 0 0 0
0 0 0 0 0 0 0 0 0
0 0 0 0 0 0 0 0 0
0 0 0 0 0 0 0 0 0
0 0 0 0 0 0 0 0 0
0 0 0 0 0 0 0 0 0
0 0 0 0 0 0 0 0 0
0 0 0 0 0 0 0 0 0
0 0 0 0 0 0 0 0 0
0 0 0 0 0 0 0 0 0
0 0 0 0 0 0 0 0 0
0 0 0 0 0 0 0 0 0
0 0 0 0 0 0 0 0 0
0 0 0 0 0 0 0 0 0
0 0 0 0 0 0 0 0 0
0 0 0 0 0 0 0 0 0
0 0 0 0 0 0 0 0 0
0 0 0 0 0 0 0 0 0
0 0 0 0 0 0 0 0 0
0 0 0 0 0 0 0 0 0
0 0 0 0 0 0 0 0 0
0 0 0 0 0 0 0 0 0
0 0 0 0 0 0 0 0 0
0 0 0 0 0 0 0 0 0
0 0 0 0 0 0 0 0 0
0 0 0 0 0 0 0 0 0
0 0 0 0 0 0 0 0 0
0 0 0 0 0 0 0 0 0
0 0 0 0 0 0 0 0 0
0 0 0 0 0 0 0 0 0
0 0 0 0 0 0 0 0 0
0 0 0 0 0 0 0 0 0
0 0 0 0 0 0 0 0 0
0 0 0 0 0 0 0 0 0
0 0 0 0 0 0 0 0 0
0 0 0 0 0 0 0 0 0
0 0 0 0 0 0 0 0 0
0 0 0 0 0 0 0 0 0
0 0 0 0 0 0 0 0 0
0 0 0 0 0 0 0 0 0
0 0 0 0 0 0 0 0 0
0 0 0 0 0 0 0 0 0
0 0 0 0 0 0 0 0 0
0 0 0 0 0 0 0 0 0
0 0 0 0 0 0 0 0 0
0 0 0 0 0 0 0 0 0
0 0 0 0 0 0 0 0 0
0 0 0 0 0 0 0 0 0
0 0 0 0 0 0 0 0 0
0 0 0 0 0 0 0 0 0
0 0 0 0 0 0 0 0 0
0 0 0 0 0 0 0 0 0
0 0 0 0 0 0 0 0 0
0 0 0 0 0 0 0 0 0
0 0 0 0 0 0 0 0 0
0 0 0 0 0 0 0 0 0
0 0 0 0 0 0 0 0 0
0 0 0 0 0 0 0 0 0
0 0 0 0 0 0 0 0 0
0 0 0 0 0 0 0 0 0
0 0 0 0 0 0 0 0 0
0 0 0 0 0 0 0 0 0
0 0 0 0 0 0 0 0 0
0 0 0 0 0 0 0 0 0
0 0 0 0 0 0 0 0 0
0 0 0 0 0 0 0 0 0
0 0 0 0 0 0 0 0 0
0 0 0 0 0 0 0 0 0
0 0 0 0 0 0 0 0 0
0 0 0 0 0 0 0 0 0
0 0 0 0 0 0 0 0 0
0 0 0 0 0 0 0 0 0
0 0 0 0 0 0 0 0 0
0 0 0 0 0 0 0 0 0
0 0 0 0 0 0 0 0 0
0 0 0 0 0 0 0 0 0
0 0 0 0 0 0 0 0 0
0 0 0 0 0 0 0 0 0
0 0 0 0 0 0 0 0 0
0 0 0 0 0 0 0 0 0
0 0 0 0 0 0 0 0 0
0 0 0 0 0 0 0 0 0
0 0 0 0 0 0 0 0 0
0 0 0 0 0 0 0 0 0
0 0 0 0 0 0 0 0 0
0 0 0 0 0 0 0 0 0
0 0 0 0 0 0 0 0 0
0 0 0 0 0 0 0 0 0
0 0 0 0 0 0 0 0 0
0 0 0 0 0 0 0 0 0
0 0 0 0 0 0 0 0 0
0 0 0 0 0 0 0 0 0
0 0 0 0 0 0 0 0 0
0 0 0 0 0 0 0 0 0
0 0 0 0 0 0 0 0 0
0 0 0 0 0 0 0 0 0
0 0 0 0 0 0 0 0 0
0 0 0 0 0 0 0 0 0
0 0 0 0 0 0 0 0 0
0 0 0 0 0 0 0 0 0
0 0 0 0 0 0 0 0 0
0 0 0 0 0 0 0 0 0
0 0 0 0 0 0 0 0 0
0 0 0 0 0 0 0 0 0
0 0 0 0 0 0 0 0 0
0 0 0 0 0 0 0 0 0
0 0 0 0 0 0 0 0 0
0 0 0 0 0 0 0 0 0
0 0 0 0 0 0 0 0 0
0 0 0 0 0 0 0 0 0
0 0 0 0 0 0 0 0 0
0 0 0 0 0 0 0 0 0
0 0 0 0 0 0 0 0 0
0 0 0 0 0 0 0 0 0
0 0 0 0 0 0 0 0 0
0 0 0 0 0 0 0 0 0
0 0 0 0 0 0 0 0 0
0 0 0 0 0 0 0 0 0
0 0 0 0 0 0 0 0 0
0 0 0 0 0 0 0 0 0
0 0 0 0 0 0 0 0 0
0 0 0 0 0 0 0 0 0
0 0 0 0 0 0 0 0 0
0 0 0 0 0 0 0 0 0
0 0 0 0 0 0 0 0 0
0 0 0 0 0 0 0 0 0
0 0 0 0 0 0 0 0 0
0 0 0 0 0 0 0 0 0
0 0 0 0 0 0 0 0 0
0 0 0 0 0 0 0 0 0
0 0 0 0 0 0 0 0 0
0 0 0 0 0 0 0 0 0
0 0 0 0 0 0 0 0 0
0 0 0 0 0 0 0 0 0
0 0 0 0 0 0 0 0 0
0 0 0 0 0 0 0 0 0
0 0 0 0 0 0 0 0 0
0 0 0 0 0 0 0 0 0
0 0 0 0 0 0 0 0 0
0 0 0 0 0 0 0 0 0
0 0 0 0 0 0 0 0 0
0 0 0 0 0 0 0 0 0
0 0 0 0 0 0 0 0 0
0 0 0 0 0 0 0 0 0
0 0 0 0 0 0 0 0 0
0 0 0 0 0 0 0 0 0
0 0 0 0 0 0 0 0 0
0 0 0 0 0 0 0 0 0
0 0 0 0 0 0 0 0 0
0 0 0 0 0 0 0 0 0
0 0 0 0 0 0 0 0 0
0 0 0 0 0 0 0 0 0
0 0 0 0 0 0 0 0 0
0 0 0 0 0 0 0 0 0
0 0 0 0 0 0 0 0 0
0 0 0 0 0 0 0 0 0
0 0 0 0 0 0 0 0 0
0 0 0 0 0 0 0 0 0
0 0 0 0 0 0 0 0 0
0 0 0 0 0 0 0 0 0
0 0 0 0 0 0 0 0 0
0 0 0 0 0 0 0 0 0
0 0 0 0 0 0 0 0 0
0 0 0 0 0 0 0 0 0
0 0 0 0 0 0 0 0 0
0 0 0 0 0 0 0 0 0
0 0 0 0 0 0 0 0 0
0 0 0 0 0 0 0 0 0
0 0 0 0 0 0 0 0 0
0 0 0 0 0 0 0 0 0
0 0 0 0 0 0 0 0 0
0 0 0 0 0 0 0 0 0
0 0 0 0 0 0 0 0 0
0 0 0 0 0 0 0 0 0
SCALARS tauN double 9
LOOKUP_TABLE default
0 0 0 0 0 0 0 0 0
0 0 0 0 0 0 0 0 0
0 0 0 0 0 0 0 0 0
0 0 0 0 0 0 0 0 0
0 0 0 0 0 0 0 0 0
0 0 0 0 0 0 0 0 0
0 0 0 0 0 0 0 0 0
0 0 0 0 0 0 0 0 0
0 0 0 0 0 0 0 0 0
0 0 0 0 0 0 0 0 0
0 0 0 0 0 0 0 0 0
0 0 0 0 0 0 0 0 0
0 0 0 0 0 0 0 0 0
0 0 0 0 0 0 0 0 0
0 0 0 0 0 0 0 0 0
0 0 0 0 0 0 0 0 0
0 0 0 0 0 0 0 0 0
0 0 0 0 0 0 0 0 0
0 0 0 0 0 0 0 0 0
0 0 0 0 0 0 0 0 0
0 0 0 0 0 0 0 0 0
0 0 0 0 0 0 0 0 0
0 0 0 0 0 0 0 0 0
0 0 0 0 0 0 0 0 0
0 0 0 0 0 0 0 0 0
0 0 0 0 0 0 0 0 0
0 0 0 0 0 0 0 0 0
0 0 0 0 0 0 0 0 0
0 0 0 0 0 0 0 0 0
0 0 0 0 0 0 0 0 0
0 0 0 0 0 0 0 0 0
0 0 0 0 0 0 0 0 0
0 0 0 0 0 0 0 0 0
0 0 0 0 0 0 0 0 0
0 0 0 0 0 0 0 0 0
0 0 0 0 0 0 0 0 0
0 0 0 0 0 0 0 0 0
0 0 0 0 0 0 0 0 0
0 0 0 0 0 0 0 0 0
0 0 0 0 0 0 0 0 0
0 0 0 0 0 0 0 0 0
0 0 0 0 0 0 0 0 0
0 0 0 0 0 0 0 0 0
0 0 0 0 0 0 0 0 0
0 0 0 0 0 0 0 0 0
0 0 0 0 0 0 0 0 0
0 0 0 0 0 0 0 0 0
0 0 0 0 0 0 0 0 0
0 0 0 0 0 0 0 0 0
0 0 0 0 0 0 0 0 0
0 0 0 0 0 0 0 0 0
0 0 0 0 0 0 0 0 0
0 0 0 0 0 0 0 0 0
0 0 0 0 0 0 0 0 0
0 0 0 0 0 0 0 0 0
0 0 0 0 0 0 0 0 0
0 0 0 0 0 0 0 0 0
0 0 0 0 0 0 0 0 0
0 0 0 0 0 0 0 0 0
0 0 0 0 0 0 0 0 0
0 0 0 0 0 0 0 0 0
0 0 0 0 0 0 0 0 0
0 0 0 0 0 0 0 0 0
0 0 0 0 0 0 0 0 0
0 0 0 0 0 0 0 0 0
0 0 0 0 0 0 0 0 0
0 0 0 0 0 0 0 0 0
0 0 0 0 0 0 0 0 0
0 0 0 0 0 0 0 0 0
0 0 0 0 0 0 0 0 0
0 0 0 0 0 0 0 0 0
0 0 0 0 0 0 0 0 0
0 0 0 0 0 0 0 0 0
0 0 0 0 0 0 0 0 0
0 0 0 0 0 0 0 0 0
0 0 0 0 0 0 0 0 0
0 0 0 0 0 0 0 0 0
0 0 0 0 0 0 0 0 0
0 0 0 0 0 0 0 0 0
0 0 0 0 0 0 0 0 0
0 0 0 0 0 0 0 0 0
0 0 0 0 0 0 0 0 0
0 0 0 0 0 0 0 0 0
0 0 0 0 0 0 0 0 0
0 0 0 0 0 0 0 0 0
0 0 0 0 0 0 0 0 0
0 0 0 0 0 0 0 0 0
0 0 0 0 0 0 0 0 0
0 0 0 0 0 0 0 0 0
0 0 0 0 0 0 0 0 0
0 0 0 0 0 0 0 0 0
0 0 0 0 0 0 0 0 0
0 0 0 0 0 0 0 0 0
0 0 0 0 0 0 0 0 0
0 0 0 0 0 0 0 0 0
0 0 0 0 0 0 0 0 0
0 0 0 0 0 0 0 0 0
0 0 0 0 0 0 0 0 0
0 0 0 0 0 0 0 0 0
0 0 0 0 0 0 0 0 0
0 0 0 0 0 0 0 0 0
0 0 0 0 0 0 0 0 0
0 0 0 0 0 0 0 0 0
0 0 0 0 0 0 0 0 0
0 0 0 0 0 0 0 0 0
0 0 0 0 0 0 0 0 0
0 0 0 0 0 0 0 0 0
0 0 0 0 0 0 0 0 0
0 0 0 0 0 0 0 0 0
0 0 0 0 0 0 0 0 0
0 0 0 0 0 0 0 0 0
0 0 0 0 0 0 0 0 0
0 0 0 0 0 0 0 0 0
0 0 0 0 0 0 0 0 0
0 0 0 0 0 0 0 0 0
0 0 0 0 0 0 0 0 0
0 0 0 0 0 0 0 0 0
0 0 0 0 0 0 0 0 0
0 0 0 0 0 0 0 0 0
0 0 0 0 0 0 0 0 0
0 0 0 0 0 0 0 0 0
0 0 0 0 0 0 0 0 0
0 0 0 0 0 0 0 0 0
0 0 0 0 0 0 0 0 0
0 0 0 0 0 0 0 0 0
0 0 0 0 0 0 0 0 0
0 0 0 0 0 0 0 0 0
0 0 0 0 0 0 0 0 0
0 0 0 0 0 0 0 0 0
0 0 0 0 0 0 0 0 0
0 0 0 0 0 0 0 0 0
0 0 0 0 0 0 0 0 0
0 0 0 0 0 0 0 0 0
0 0 0 0 0 0 0 0 0
0 0 0 0 0 0 0 0 0
0 0 0 0 0 0 0 0 0
0 0 0 0 0 0 0 0 0
0 0 0 0 0 0 0 0 0
0 0 0 0 0 0 0 0 0
0 0 0 0 0 0 0 0 0
0 0 0 0 0 0 0 0 0
0 0 0 0 0 0 0 0 0
0 0 0 0 0 0 0 0 0
0 0 0 0 0 0 0 0 0
0 0 0 0 0 0 0 0 0
0 0 0 0 0 0 0 0 0
0 0 0 0 0 0 0 0 0
0 0 0 0 0 0 0 0 0
0 0 0 0 0 0 0 0 0
0 0 0 0 0 0 0 0 0
0 0 0 0 0 0 0 0 0
0 0 0 0 0 0 0 0 0
0 0 0 0 0 0 0 0 0
0 0 0 0 0 0 0 0 0
0 0 0 0 0 0 0 0 0
0 0 0 0 0 0 0 0 0
0 0 0 0 0 0 0 0 0
0 0 0 0 0 0 0 0 0
0.00208997 0.00220493 0.00218775 0.00224352 0.00208997 0.00220493 0.00218775 0.00224352 0
0.00228154 0.0023778 0.00227648 0.00231267 0.00228154 0.0023778 0.00227648 0.00231267 0
0.0024305 0.00248028 0.00236172 0.00246159 0.0024305 0.00248028 0.00236172 0.00246159 0
0.00254875 0.00268826 0.00257695 0.00279446 0.00254875 0.00268826 0.00257695 0.00279446 0
0.00279407 0.00294607 0.00290608 0.00299586 0.00279407 0.00294607 0.00290608 0.00299586 0
0.00186588 0.00192006 0.00193419 0.00197585 0.00186588 0.00192006 0.00193419 0.00197585 0
0.00191682 0.00185538 0.00197406 0.00192906 0.00191682 0.00185538 0.00197406 0.00192906 0
0.00184836 0.0018924 0.00192606 0.00196459 0.00184836 0.0018924 0.00192606 0.00196459 0
0.00196021 0.00210337 0.00202865 0.00216702 0.00196021 0.00210337 0.00202865 0.00216702 0
0.00219755 0.00231377 0.00226 0.00237769 0.00219755 0.00231377 0.00226 0.00237769 0
0.00237461 0.00242686 0.00243352 0.00247052 0.00237461 0.00242686 0.00243352 0.00247052 0
0.0024853 0.00259513 0.0025237 0.00263433 0.0024853 0.00259513 0.0025237 0.00263433 0
0.00266777 0.00275901 0.00272966 0.00288202 0.00266777 0.00275901 0.00272966 0.00288202 0
0.00172194 0.00177377 0.00175311 0.00179651 0.00172194 0.00177377 0.00175311 0.00179651 0
0.00179815 0.00181444 0.0018292 0.00187656 0.00179815 0.00181444 0.0018292 0.00187656 0
0.00180646 0.00177005 0.00187165 0.00181249 0.00180646 0.00177005 0.00187165 0.00181249 0
0.00177342 0.0018209 0.00180716 0.00185357 0.00177342 0.0018209 0.00180716 0.00185357 0
0.00188335 0.00200855 0.00192093 0.00206054 0.00188335 0.00200855 0.00192093 0.00206054 0
0.00209517 0.00220888 0.00215299 0.00226813 0.00209517 0.00220888 0.00215299 0.00226813 0
0.00227518 0.00234506 0.00233175 0.00239278 0.00227518 0.00234506 0.00233175 0.00239278 0
0.00240306 0.00249427 0.00245248 0.00255708 0.00240306 0.00249427 0.00245248 0.00255708 0
0.00256233 0.00265986 0.00262238 0.0026989 0.00256233 0.00265986 0.00262238 0.0026989 0
0.00144068 0.00150286 0.00151587 0.00161146 0.00144068 0.00150286 0.00151587 0.00161146 0
0.00155217 0.0016261 0.0016679 0.0017279 0.00155217 0.0016261 0.0016679 0.0017279 0
0.00165825 0.00167377 0.00175212 0.00175986 0.00165825 0.00167377 0.00175212 0.00175986 0
0.00167889 0.00167915 0.00175455 0.00173404 0.00167889 0.00167915 0.00175455 0.00173404 0
0.00169657 0.00174592 0.00174348 0.00179174 0.00169657 0.00174592 0.00174348 0.00179174 0
0.00180112 0.00190479 0.00185091 0.00196646 0.00180112 0.00190479 0.00185091 0.00196646 0
0.00198085 0.00208741 0.00204866 0.00216004 0.00198085 0.00208741 0.00204866 0.00216004 0
0.00215437 0.00223336 0.00222721 0.00230188 0.00215437 0.00223336 0.00222721 0.00230188 0
0.00229212 0.00237647 0.0023596 0.00244536 0.00229212 0.00237647 0.0023596 0.00244536 0
0.00244901 0.00256585 0.00251532 0.00262363 0.00244901 0.00256585 0.00251532 0.00262363 0
0.00131203 0.00132697 0.0013859 0.00142646 0.00131203 0.00132697 0.0013859 0.00142646 0
0.00136656 0.00146127 0.00147123 0.00155445 0.00136656 0.00146127 0.00147123 0.00155445 0
0.00150591 0.0015349 0.00159206 0.00161326 0.00150591 0.0015349 0.00159206 0.00161326 0
0.00155218 0.00157231 0.0016244 0.00163553 0.00155218 0.00157231 0.0016244 0.00163553 0
0.00159706 0.00164668 0.00165704 0.00170674 0.00159706 0.00164668 0.00165704 0.00170674 0
0.00169744 0.00178885 0.00175966 0.00185684 0.00169744 0.00178885 0.00175966 0.00185684 0
0.00185867 0.0019606 0.00192956 0.00203356 0.00185867 0.0019606 0.00192956 0.00203356 0
0.0020272 0.00211003 0.00210034 0.00218149 0.0020272 0.00211003 0.00210034 0.00218149 0
0.00216719 0.00224353 0.00224007 0.00232188 0.00216719 0.00224353 0.00224007 0.00232188 0
0.00231562 0.00243947 0.00239495 0.00251593 0.00231562 0.00243947 0.00239495 0.00251593 0
0.00119296 0.00120026 0.00126017 0.00126619 0.00119296 0.00120026 0.00126017 0.00126619 0
0.00123542 0.00132572 0.00130319 0.00139977 0.00123542 0.00132572 0.00130319 0.00139977 0
0.00137247 0.00141166 0.00144685 0.00148065 0.00137247 0.00141166 0.00144685 0.00148065 0
0.00143359 0.00145634 0.00150079 0.00152402 0.00143359 0.00145634 0.00150079 0.00152402 0
0.00148139 0.00152933 0.0015497 0.00159884 0.00148139 0.00152933 0.0015497 0.00159884 0
0.00157735 0.00166306 0.00164826 0.00173657 0.00157735 0.00166306 0.00164826 0.00173657 0
0.00172993 0.00182965 0.0018048 0.00190556 0.00172993 0.00182965 0.0018048 0.00190556 0
0.00189737 0.00198565 0.00197239 0.0020571 0.00189737 0.00198565 0.00197239 0.0020571 0
0.00203994 0.00210321 0.00211308 0.00218443 0.00203994 0.00210321 0.00211308 0.00218443 0
0.00217059 0.00229482 0.00225496 0.00237966 0.00217059 0.00229482 0.00225496 0.00237966 0
0.00107162 0.0010884 0.00114228 0.00115245 0.00107162 0.0010884 0.00114228 0.00115245 0
0.00112815 0.00122163 0.00118833 0.00127779 0.00112815 0.00122163 0.00118833 0.00127779 0
0.00126729 0.00130044 0.00132414 0.00136315 0.00126729 0.00130044 0.00132414 0.00136315 0
0.00131821 0.00133572 0.00138442 0.00140562 0.00131821 0.00133572 0.00138442 0.00140562 0
0.00135767 0.00140247 0.00142965 0.00147642 0.00135767 0.00140247 0.00142965 0.00147642 0
0.0014475 0.00152832 0.00152322 0.00160691 0.0014475 0.00152832 0.00152322 0.00160691 0
0.00159264 0.00169043 0.00167271 0.00177162 0.00159264 0.00169043 0.00167271 0.00177162 0
0.00175769 0.0018468 0.00183943 0.00192885 0.00175769 0.0018468 0.00183943 0.00192885 0
0.00190687 0.00198528 0.00198421 0.00204935 0.00190687 0.00198528 0.00198421 0.00204935 0
0.00204084 0.00211783 0.00211268 0.00222411 0.00204084 0.00211783 0.00211268 0.00222411 0
0.000935407 0.000997268 0.00101603 0.00104665 0.000935407 0.000997268 0.00101603 0.00104665 0
0.00105357 0.00114724 0.00109186 0.00118646 0.00105357 0.00114724 0.00109186 0.00118646 0
0.00118609 0.00120052 0.00123009 0.00125664 0.00118609 0.00120052 0.00123009 0.00125664 0
0.00120758 0.00121466 0.00127058 0.0012843 0.00120758 0.00121466 0.00127058 0.0012843 0
0.00123159 0.00127327 0.00130432 0.00134775 0.00123159 0.00127327 0.00130432 0.00134775 0
0.00131482 0.00138942 0.00139134 0.00146971 0.00131482 0.00138942 0.00139134 0.00146971 0
0.00144944 0.00154187 0.00153246 0.00162849 0.00144944 0.00154187 0.00153246 0.00162849 0
0.00159708 0.0016588 0.00169235 0.00177401 0.00159708 0.0016588 0.00169235 0.00177401 0
0.00170234 0.00176319 0.00183089 0.00190814 0.00170234 0.00176319 0.00183089 0.00190814 0
0.000812799 0.000855427 0.000880804 0.000945871 0.000812799 0.000855427 0.000880804 0.000945871 0
0.000887753 0.000935229 0.000998702 0.00107973 0.000887753 0.000935229 0.000998702 0.00107973 0
0.000954981 0.000963527 0.00111217 0.00112176 0.000954981 0.000963527 0.00111217 0.00112176 0
0.000986103 0.00104156 0.00113112 0.00114937 0.000986103 0.00104156 0.00113112 0.00114937 0
0.001089 0.00116573 0.00117363 0.00122421 0.001089 0.00116573 0.00117363 0.00122421 0
0.0012185 0.00128881 0.0012682 0.00134062 0.0012185 0.00128881 0.0012682 0.00134062 0
0.00133477 0.00139319 0.00139613 0.00147846 0.00133477 0.00139319 0.00139613 0.00147846 0
0.0014274 0.00146593 0.00152569 0.00157583 0.0014274 0.00146593 0.00152569 0.00157583 0
0 0 0 0 0 0 0 0 0
0 0 0 0 0 0 0 0 0
0 0 0 0 0 0 0 0 0
0 0 0 0 0 0 0 0 0
0 0 0 0 0 0 0 0 0
0 0 0 0 0 0 0 0 0
0 0 0 0 0 0 0 0 0
0 0 0 0 0 0 0 0 0
0 0 0 0 0 0 0 0 0
0 0 0 0 0 0 0 0 0
0 0 0 0 0 0 0 0 0
0 0 0 0 0 0 0 0 0
0 0 0 0 0 0 0 0 0
0 0 0 0 0 0 0 0 0
0 0 0 0 0 0 0 0 0
0 0 0 0 0 0 0 0 0
0 0 0 0 0 0 0 0 0
0 0 0 0 0 0 0 0 0
0 0 0 0 0 0 0 0 0
0 0 0 0 0 0 0 0 0
0 0 0 0 0 0 0 0 0
0 0 0 0 0 0 0 0 0
0 0 0 0 0 0 0 0 0
0 0 0 0 0 0 0 0 0
0 0 0 0 0 0 0 0 0
0 0 0 0 0 0 0 0 0
0 0 0 0 0 0 0 0 0
0 0 0 0 0 0 0 0 0
0 0 0 0 0 0 0 0 0
0 0 0 0 0 0 0 0 0
0 0 0 0 0 0 0 0 0
0 0 0 0 0 0 0 0 0
0 0 0 0 0 0 0 0 0
0 0 0 0 0 0 0 0 0
0 0 0 0 0 0 0 0 0
0 0 0 0 0 0 0 0 0
0 0 0 0 0 0 0 0 0
0 0 0 0 0 0 0 0 0
0 0 0 0 0 0 0 0 0
0 0 0 0 0 0 0 0 0
0 0 0 0 0 0 0 0 0
0 0 0 0 0 0 0 0 0
0 0 0 0 0 0 0 0 0
0 0 0 0 0 0 0 0 0
0 0 0 0 0 0 0 0 0
0 0 0 0 0 0 0 0 0
0 0 0 0 0 0 0 0 0
0 0 0 0 0 0 0 0 0
0 0 0 0 0 0 0 0 0
0 0 0 0 0 0 0 0 0
0 0 0 0 0 0 0 0 0
0 0 0 0 0 0 0 0 0
0 0 0 0 0 0 0 0 0
0 0 0 0 0 0 0 0 0
0 0 0 0 0 0 0 0 0
0 0 0 0 0 0 0 0 0
0 0 0 0 0 0 0 0 0
0 0 0 0 0 0 0 0 0
0 0 0 0 0 0 0 0 0
0 0 0 0 0 0 0 0 0
0 0 0 0 0 0 0 0 0
0 0 0 0 0 0 0 0 0
0 0 0 0 0 0 0 0 0
0 0 0 0 0 0 0 0 0
0 0 0 0 0 0 0 0 0
0 0 0 0 0 0 0 0 0
0 0 0 0 0 0 0 0 0
0 0 0 0 0 0 0 0 0
0 0 0 0 0 0 0 0 0
0 0 0 0 0 0 0 0 0
0 0 0 0 0 0 0 0 0
0 0 0 0 0 0 0 0 0
0 0 0 0 0 0 0 0 0
0 0 0 0 0 0 0 0 0
0 0 0 0 0 0 0 0 0
0 0 0 0 0 0 0 0 0
0 0 0 0 0 0 0 0 0
0 0 0 0 0 0 0 0 0
0 0 0 0 0 0 0 0 0
0 0 0 0 0 0 0 0 0
0 0 0 0 0 0 0 0 0
0 0 0 0 0 0 0 0 0
0 0 0 0 0 0 0 0 0
0 0 0 0 0 0 0 0 0
0 0 0 0 0 0 0 0 0
0 0 0 0 0 0 0 0 0
0 0 0 0 0 0 0 0 0
0 0 0 0 0 0 0 0 0
0 0 0 0 0 0 0 0 0
0 0 0 0 0 0 0 0 0
0 0 0 0 0 0 0 0 0
0 0 0 0 0 0 0 0 0
0 0 0 0 0 0 0 0 0
0 0 0 0 0 0 0 0 0
0 0 0 0 0 0 0 0 0
0 0 0 0 0 0 0 0 0
0 0 0 0 0 0 0 0 0
0 0 0 0 0 0 0 0 0
0 0 0 0 0 0 0 0 0
0 0 0 0 0 0 0 0 0
0 0 0 0 0 0 0 0 0
0 0 0 0 0 0 0 0 0
0 0 0 0 0 0 0 0 0
0 0 0 0 0 0 0 0 0
0 0 0 0 0 0 0 0 0
0 0 0 0 0 0 0 0 0
0 0 0 0 0 0 0 0 0
0 0 0 0 0 0 0 0 0
0 0 0 0 0 0 0 0 0
0 0 0 0 0 0 0 0 0
0 0 0 0 0 0 0 0 0
0 0 0 0 0 0 0 0 0
0 0 0 0 0 0 0 0 0
0 0 0 0 0 0 0 0 0
0 0 0 0 0 0 0 0 0
0 0 0 0 0 0 0 0 0
0 0 0 0 0 0 0 0 0
0 0 0 0 0 0 0 0 0
0 0 0 0 0 0 0 0 0
0 0 0 0 0 0 0 0 0
0 0 0 0 0 0 0 0 0
0 0 0 0 0 0 0 0 0
0 0 0 0 0 0 0 0 0
0 0 0 0 0 0 0 0 0
0 0 0 0 0 0 0 0 0
0 0 0 0 0 0 0 0 0
0 0 0 0 0 0 0 0 0
0 0 0 0 0 0 0 0 0
0 0 0 0 0 0 0 0 0
0 0 0 0 0 0 0 0 0
0 0 0 0 0 0 0 0 0
0 0 0 0 0 0 0 0 0
0 0 0 0 0 0 0 0 0
0 0 0 0 0 0 0 0 0
0 0 0 0 0 0 0 0 0
0 0 0 0 0 0 0 0 0
0 0 0 0 0 0 0 0 0
0 0 0 0 0 0 0 0 0
0 0 0 0 0 0 0 0 0
0 0 0 0 0 0 0 0 0
0 0 0 0 0 0 0 0 0
0 0 0 0 0 0 0 0 0
0 0 0 0 0 0 0 0 0
0 0 0 0 0 0 0 0 0
0 0 0 0 0 0 0 0 0
0 0 0 0 0 0 0 0 0
0 0 0 0 0 0 0 0 0
0 0 0 0 0 0 0 0 0
0 0 0 0 0 0 0 0 0
0 0 0 0 0 0 0 0 0
0 0 0 0 0 0 0 0 0
0 0 0 0 0 0 0 0 0
0 0 0 0 0 0 0 0 0
0 0 0 0 0 0 0 0 0
0 0 0 0 0 0 0 0 0
0 0 0 0 0 0 0 0 0
0 0 0 0 0 0 0 0 0
0 0 0 0 0 0 0 0 0
0 0 0 0 0 0 0 0 0
0 0 0 0 0 0 0 0 0
0 0 0 0 0 0 0 0 0
0 0 0 0 0 0 0 0 0
0 0 0 0 0 0 0 0 0
0 0 0 0 0 0 0 0 0
0 0 0 0 0 0 0 0 0
0 0 0 0 0 0 0 0 0
0 0 0 0 0 0 0 0 0
0 0 0 0 0 0 0 0 0
0 0 0 0 0 0 0 0 0
0 0 0 0 0 0 0 0 0
0 0 0 0 0 0 0 0 0
0 0 0 0 0 0 0 0 0
0 0 0 0 0 0 0 0 0
0 0 0 0 0 0 0 0 0
0 0 0 0 0 0 0 0 0
0 0 0 0 0 0 0 0 0
0 0 0 0 0 0 0 0 0
0 0 0 0 0 0 0 0 0
0 0 0 0 0 0 0 0 0
0 0 0 0 0 0 0 0 0
0 0 0 0 0 0 0 0 0
0 0 0 0 0 0 0 0 0
0 0 0 0 0 0 0 0 0
0 0 0 0 0 0 0 0 0
0 0 0 0 0 0 0 0 0
0 0 0 0 0 0 0 0 0
0 0 0 0 0 0 0 0 0
0 0 0 0 0 0 0 0 0
0 0 0 0 0 0 0 0 0
0 0 0 0 0 0 0 0 0
0 0 0 0 0 0 0 0 0
0 0 0 0 0 0 0 0 0
0 0 0 0 0 0 0 0 0
0 0 0 0 0 0 0 0 0
0 0 0 0 0 0 0 0 0
0 0 0 0 0 0 0 0 0
0 0 0 0 0 0 0 0 0
0 0 0 0 0 0 0 0 0
0 0 0 0 0 0 0 0 0
0 0 0 0 0 0 0 0 0
0 0 0 0 0 0 0 0 0
0 0 0 0 0 0 0 0 0
0 0 0 0 0 0 0 0 0
0 0 0 0 0 0 0 0 0
0 0 0 0 0 0 0 0 0
0 0 0 0 0 0 0 0 0
0 0 0 0 0 0 0 0 0
0 0 0 0 0 0 0 0 0
0 0 0 0 0 0 0 0 0
0 0 0 0 0 0 0 0 0
0 0 0 0 0 0 0 0 0
0 0 0 0 0 0 0 0 0
0 0 0 0 0 0 0 0 0
0 0 0 0 0 0 0 0 0
0 0 0 0 0 0 0 0 0
0 0 0 0 0 0 0 0 0
0 0 0 0 0 0 0 0 0
0 0 0 0 0 0 0 0 0
0 0 0 0 0 0 0 0 0
0 0 0 0 0 0 0 0 0
0 0 0 0 0 0 0 0 0
0 0 0 0 0 0 0 0 0
0 0 0 0 0 0 0 0 0
0 0 0 0 0 0 0 0 0
0 0 0 0 0 0 0 0 0
0 0 0 0 0 0 0 0 0
0 0 0 0 0 0 0 0 0
0 0 0 0 0 0 0 0 0
0 0 0 0 0 0 0 0 0
0 0 0 0 0 0 0 0 0
0 0 0 0 0 0 0 0 0
0 0 0 0 0 0 0 0 0
0 0 0 0 0 0 0 0 0
0 0 0 0 0 0 0 0 0
0 0 0 0 0 0 0 0 0
0 0 0 0 0 0 0 0 0
0 0 0 0 0 0 0 0 0
0 0 0 0 0 0 0 0 0
0 0 0 0 0 0 0 0 0
0 0 0 0 0 0 0 0 0
0 0 0 0 0 0 0 0 0
0 0 0 0 0 0 0 0 0
0 0 0 0 0 0 0 0 0
0 0 0 0 0 0 0 0 0
0 0 0 0 0 0 0 0 0
0 0 0 0 0 0 0 0 0
0 0 0 0 0 0 0 0 0
0 0 0 0 0 0 0 0 0
0 0 0 0 0 0 0 0 0
0 0 0 0 0 0 0 0 0
0 0 0 0 0 0 0 0 0
0 0 0 0 0 0 0 0 0
0 0 0 0 0 0 0 0 0
0 0 0 0 0 0 0 0 0
0 0 0 0 0 0 0 0 0
0 0 0 0 0 0 0 0 0
0 0 0 0 0 0 0 0 0
0 0 0 0 0 0 0 0 0
0 0 0 0 0 0 0 0 0
0 0 0 0 0 0 0 0 0
0 0 0 0 0 0 0 0 0
0 0 0 0 0 0 0 0 0
0 0 0 0 0 0 0 0 0
0 0 0 0 0 0 0 0 0
0 0 0 0 0 0 0 0 0
0 0 0 0 0 0 0 0 0
0 0 0 0 0 0 0 0 0
0 0 0 0 0 0 0 0 0
0 0 0 0 0 0 0 0 0
0 0 0 0 0 0 0 0 0
0 0 0 0 0 0 0 0 0
0 0 0 0 0 0 0 0 0
0 0 0 0 0 0 0 0 0
0 0 0 0 0 0 0 0 0
0 0 0 0 0 0 0 0 0
0 0 0 0 0 0 0 0 0
0 0 0 0 0 0 0 0 0
0 0 0 0 0 0 0 0 0
0 0 0 0 0 0 0 0 0
0 0 0 0 0 0 0 0 0
0 0 0 0 0 0 0 0 0
0 0 0 0 0 0 0 0 0
0 0 0 0 0 0 0 0 0
0 0 0 0 0 0 0 0 0
0 0 0 0 0 0 0 0 0
0 0 0 0 0 0 0 0 0
0 0 0 0 0 0 0 0 0
0 0 0 0 0 0 0 0 0
0 0 0 0 0 0 0 0 0
0 0 0 0 0 0 0 0 0
0 0 0 0 0 0 0 0 0
0 0 0 0 0 0 0 0 0
0 0 0 0 0 0 0 0 0
0 0 0 0 0 0 0 0 0
0 0 0 0 0 0 0 0 0
0 0 0 0 0 0 0 0 0
0 0 0 0 0 0 0 0 0
0 0 0 0 0 0 0 0 0
0 0 0 0 0 0 0 0 0
0 0 0 0 0 0 0 0 0
0 0 0 0 0 0 0 0 0
0 0 0 0 0 0 0 0 0
0 0 0 0 0 0 0 0 0
0 0 0 0 0 0 0 0 0
0 0 0 0 0 0 0 0 0
0 0 0 0 0 0 0 0 0
0 0 0 0 0 0 0 0 0
0 0 0 0 0 0 0 0 0
0 0 0 0 0 0 0 0 0
0 0 0 0 0 0 0 0 0
0 0 0 0 0 0 0 0 0
0 0 0 0 0 0 0 0 0
0 0 0 0 0 0 0 0 0
0 0 0 0 0 0 0 0 0
0 0 0 0 0 0 0 0 0
0 0 0 0 0 0 0 0 0
0 0 0 0 0 0 0 0 0
0 0 0 0 0 0 0 0 0
0 0 0 0 0 0 0 0 0
0 0 0 0 0 0 0 0 0
0 0 0 0 0 0 0 0 0
0 0 0 0 0 0 0 0 0
0 0 0 0 0 0 0 0 0
0 0 0 0 0 0 0 0 0
0 0 0 0 0 0 0 0 0
0 0 0 0 0 0 0 0 0
0 0 0 0 0 0 0 0 0
0 0 0 0 0 0 0 0 0
0 0 0 0 0 0 0 0 0
0 0 0 0 0 0 0 0 0
0 0 0 0 0 0 0 0 0
0 0 0 0 0 0 0 0 0
0 0 0 0 0 0 0 0 0
0 0 0 0 0 0 0 0 0
0 0 0 0 0 0 0 0 0
0 0 0 0 0 0 0 0 0
0 0 0 0 0 0 0 0 0
0 0 0 0 0 0 0 0 0
0 0 0 0 0 0 0 0 0
0 0 0 0 0 0 0 0 0
0 0 0 0 0 0 0 0 0
0 0 0 0 0 0 0 0 0
0 0 0 0 0 0 0 0 0
0 0 0 0 0 0 0 0 0
0 0 0 0 0 0 0 0 0
0 0 0 0 0 0 0 0 0
0 0 0 0 0 0 0 0 0
0 0 0 0 0 0 0 0 0
0 0 0 0 0 0 0 0 0
0 0 0 0 0 0 0 0 0
0 0 0 0 0 0 0 0 0
0 0 0 0 0 0 0 0 0
0 0 0 0 0 0 0 0 0
0 0 0 0 0 0 0 0 0
0 0 0 0 0 0 0 0 0
0 0 0 0 0 0 0 0 0
0 0 0 0 0 0 0 0 0
0 0 0 0 0 0 0 0 0
0 0 0 0 0 0 0 0 0
0 0 0 0 0 0 0 0 0
0 0 0 0 0 0 0 0 0
0 0 0 0 0 0 0 0 0
0 0 0 0 0 0 0 0 0
0 0 0 0 0 0 0 0 0
0 0 0 0 0 0 0 0 0
0 0 0 0 0 0 0 0 0
0 0 0 0 0 0 0 0 0
0 0 0 0 0 0 0 0 0
0 0 0 0 0 0 0 0 0
0 0 0 0 0 0 0 0 0
0 0 0 0 0 0 0 0 0
0 0 0 0 0 0 0 0 0
0 0 0 0 0 0 0 0 0
0 0 0 0 0 0 0 0 0
0 0 0 0 0 0 0 0 0
0 0 0 0 0 0 0 0 0
0 0 0 0 0 0 0 0 0
0 0 0 0 0 0 0 0 0
0 0 0 0 0 0 0 0 0
0 0 0 0 0 0 0 0 0
0 0 0 0 0 0 0 0 0
0 0 0 0 0 0 0 0 0
0 0 0 0 0 0 0 0 0
0 0 0 0 0 0 0 0 0
0 0 0 0 0 0 0 0 0
0 0 0 0 0 0 0 0 0
0 0 0 0 0 0 0 0 0
0 0 0 0 0 0 0 0 0
0 0 0 0 0 0 0 0 0
0 0 0 0 0 0 0 0 0
0 0 0 0 0 0 0 0 0
0 0 0 0 0 0 0 0 0
0 0 0 0 0 0 0 0 0
0 0 0 0 0 0 0 0 0
0 0 0 0 0 0 0 0 0
0 0 0 0 0 0 0 0 0
0 0 0 0 0 0 0 0 0
0 0 0 0 0 0 0 0 0
0 0 0 0 0 0 0 0 0
0 0 0 0 0 0 0 0 0
0 0 0 0 0 0 0 0 0
0 0 0 0 0 0 0 0 0
0 0 0 0 0 0 0 0 0
0 0 0 0 0 0 0 0 0
0 0 0 0 0 0 0 0 0
0 0 0 0 0 0 0 0 0
0 0 0 0 0 0 0 0 0
0 0 0 0 0 0 0 0 0
0 0 0 0 0 0 0 0 0
0 0 0 0 0 0 0 0 0
0 0 0 0 0 0 0 0 0
0 0 0 0 0 0 0 0 0
0 0 0 0 0 0 0 0 0
0 0 0 0 0 0 0 0 0
0 0 0 0 0 0 0 0 0
0 0 0 0 0 0 0 0 0
0 0 0 0 0 0 0 0 0
0 0 0 0 0 0 0 0 0
0 0 0 0 0 0 0 0 0
0 0 0 0 0 0 0 0 0
0 0 0 0 0 0 0 0 0
0 0 0 0 0 0 0 0 0
0 0 0 0 0 0 0 0 0
0 0 0 0 0 0 0 0 0
0 0 0 0 0 0 0 0 0
0 0 0 0 0 0 0 0 0
0 0 0 0 0 0 0 0 0
0 0 0 0 0 0 0 0 0
0 0 0 0 0 0 0 0 0
0 0 0 0 0 0 0 0 0
0 0 0 0 0 0 0 0 0
0 0 0 0 0 0 0 0 0
0 0 0 0 0 0 0 0 0
0 0 0 0 0 0 0 0 0
0 0 0 0 0 0 0 0 0
0 0 0 0 0 0 0 0 0
0 0 0 0 0 0 0 0 0
0 0 0 0 0 0 0 0 0
0 0 0 0 0 0 0 0 0
0 0 0 0 0 0 0 0 0
0 0 0 0 0 0 0 0 0
0 0 0 0 0 0 0 0 0
0 0 0 0 0 0 0 0 0
0 0 0 0 0 0 0 0 0
0 0 0 0 0 0 0 0 0
0 0 0 0 0 0 0 0 0
0 0 0 0 0 0 0 0 0
0 0 0 0 0 0 0 0 0
0 0 0 0 0 0 0 0 0
0 0 0 0 0 0 0 0 0
0 0 0 0 0 0 0 0 0
0 0 0 0 0 0 0 0 0
0 0 0 0 0 0 0 0 0
0 0 0 0 0 0 0 0 0
0 0 0 0 0 0 0 0 0
0 0 0 0 0 0 0 0 0
0 0 0 0 0 0 0 0 0
0 0 0 0 0 0 0 0 0
0 0 0 0 0 0 0 0 0
0 0 0 0 0 0 0 0 0
0 0 0 0 0 0 0 0 0
0 0 0 0 0 0 0 0 0
0 0 0 0 0 0 0 0 0
0 0 0 0 0 0 0 0 0
0 0 0 0 0 0 0 0 0
0 0 0 0 0 0 0 0 0
0 0 0 0 0 0 0 0 0
0 0 0 0 0 0 0 0 0
0 0 0 0 0 0 0 0 0
0 0 0 0 0 0 0 0 0
0 0 0 0 0 0 0 0 0
0 0 0 0 0 0 0 0 0
0 0 0 0 0 0 0 0 0
0 0 0 0 0 0 0 0 0
0 0 0 0 0 0 0 0 0
0 0 0 0 0 0 0 0 0
0 0 0 0 0 0 0 0 0
0 0 0 0 0 0 0 0 0
0 0 0 0 0 0 0 0 0
0 0 0 0 0 0 0 0 0
0 0 0 0 0 0 0 0 0
0 0 0 0 0 0 0 0 0
0 0 0 0 0 0 0 0 0
0 0 0 0 0 0 0 0 0
0 0 0 0 0 0 0 0 0
0 0 0 0 0 0 0 0 0
0 0 0 0 0 0 0 0 0
0 0 0 0 0 0 0 0 0
0 0 0 0 0 0 0 0 0
0 0 0 0 0 0 0 0 0
0 0 0 0 0 0 0 0 0
0 0 0 0 0 0 0 0 0
0 0 0 0 0 0 0 0 0
0 0 0 0 0 0 0 0 0
0 0 0 0 0 0 0 0 0
0 0 0 0 0 0 0 0 0
0 0 0 0 0 0 0 0 0
0 0 0 0 0 0 0 0 0
0 0 0 0 0 0 0 0 0
0 0 0 0 0 0 0 0 0
0 0 0 0 0 0 0 0 0
0 0 0 0 0 0 0 0 0
0 0 0 0 0 0 0 0 0
0 0 0 0 0 0 0 0 0
0 0 0 0 0 0 0 0 0
0 0 0 0 0 0 0 0 0
0 0 0 0 0 0 0 0 0
0 0 0 0 0 0 0 0 0
0 0 0 0 0 0 0 0 0
0 0 0 0 0 0 0 0 0
0 0 0 0 0 0 0 0 0
0 0 0 0 0 0 0 0 0
0 0 0 0 0 0 0 0 0
0 0 0 0 0 0 0 0 0
0 0 0 0 0 0 0 0 0
0 0 0 0 0 0 0 0 0
0 0 0 0 0 0 0 0 0
0 0 0 0 0 0 0 0 0
0 0 0 0 0 0 0 0 0
0 0 0 0 0 0 0 0 0
0 0 0 0 0 0 0 0 0
0 0 0 0 0 0 0 0 0
0 0 0 0 0 0 0 0 0
0 0 0 0 0 0 0 0 0
0 0 0 0 0 0 0 0 0
0 0 0 0 0 0 0 0 0
0 0 0 0 0 0 0 0 0
0 0 0 0 0 0 0 0 0
0 0 0 0 0 0 0 0 0
0 0 0 0 0 0 0 0 0
0 0 0 0 0 0 0 0 0
0 0 0 0 0 0 0 0 0
0 0 0 0 0 0 0 0 0
0 0 0 0 0 0 0 0 0
0 0 0 0 0 0 0 0 0
0 0 0 0 0 0 0 0 0
0 0 0 0 0 0 0 0 0
0 0 0 0 0 0 0 0 0
0 0 0 0 0 0 0 0 0
0 0 0 0 0 0 0 0 0
0 0 0 0 0 0 0 0 0
0 0 0 0 0 0 0 0 0
0 0 0 0 0 0 0 0 0
0 0 0 0 0 0 0 0 0
0 0 0 0 0 0 0 0 0
0 0 0 0 0 0 0 0 0
0 0 0 0 0 0 0 0 0
0 0 0 0 0 0 0 0 0
0 0 0 0 0 0 0 0 0
0 0 0 0 0 0 0 0 0
0 0 0 0 0 0 0 0 0
0 0 0 0 0 0 0 0 0
0 0 0 0 0 0 0 0 0
0 0 0 0 0 0 0 0 0
0 0 0 0 0 0 0 0 0
0 0 0 0 0 0 0 0 0
0 0 0 0 0 0 0 0 0
0 0 0 0 0 0 0 0 0
0 0 0 0 0 0 0 0 0
0 0 0 0 0 0 0 0 0
0 0 0 0 0 0 0 0 0
0 0 0 0 0 0 0 0 0
0 0 0 0 0 0 0 0 0
0 0 0 0 0 0 0 0 0
0 0 0 0 0 0 0 0 0
0 0 0 0 0 0 0 0 0
0 0 0 0 0 0 0 0 0
0 0 0 0 0 0 0 0 0
0 0 0 0 0 0 0 0 0
0 0 0 0 0 0 0 0 0
0 0 0 0 0 0 0 0 0
0 0 0 0 0 0 0 0 0
0 0 0 0 0 0 0 0 0
0 0 0 0 0 0 0 0 0
0 0 0 0 0 0 0 0 0
0 0 0 0 0 0 0 0 0
0 0 0 0 0 0 0 0 0
0 0 0 0 0 0 0 0 0
0 0 0 0 0 0 0 0 0
0 0 0 0 0 0 0 0 0
0 0 0 0 0 0 0 0 0
0 0 0 0 0 0 0 0 0
0 0 0 0 0 0 0 0 0
0 0 0 0 0 0 0 0 0
0 0 0 0 0 0 0 0 0
0 0 0 0 0 0 0 0 0
0 0 0 0 0 0 0 0 0
0 0 0 0 0 0 0 0 0
0 0 0 0 0 0 0 0 0
0 0 0 0 0 0 0 0 0
0 0 0 0 0 0 0 0 0
0 0 0 0 0 0 0 0 0
0 0 0 0 0 0 0 0 0
0 0 0 0 0 0 0 0 0
0 0 0 0 0 0 0 0 0
0 0 0 0 0 0 0 0 0
0 0 0 0 0 0 0 0 0
0 0 0 0 0 0 0 0 0
0 0 0 0 0 0 0 0 0
0 0 0 0 0 0 0 0 0
0 0 0 0 0 0 0 0 0
0 0 0 0 0 0 0 0 0
0 0 0 0 0 0 0 0 0
0 0 0 0 0 0 0 0 0
0 0 0 0 0 0 0 0 0
0 0 0 0 0 0 0 0 0
0 0 0 0 0 0 0 0 0
0 0 0 0 0 0 0 0 0
0 0 0 0 0 0 0 0 0
0 0 0 0 0 0 0 0 0
0 0 0 0 0 0 0 0 0
0 0 0 0 0 0 0 0 0
0 0 0 0 0 0 0 0 0
0 0 0 0 0 0 0 0 0
0 0 0 0 0 0 0 0 0
0 0 0 0 0 0 0 0 0
0 0 0 0 0 0 0 0 0
0 0 0 0 0 0 0 0 0
0 0 0 0 0 0 0 0 0
0 0 0 0 0 0 0 0 0
0 0 0 0 0 0 0 0 0
0 0 0 0 0 0 0 0 0
0 0 0 0 0 0 0 0 0
0 0 0 0 0 0 0 0 0
0 0 0 0 0 0 0 0 0
0 0 0 0 0 0 0 0 0
0 0 0 0 0 0 0 0 0
0 0 0 0 0 0 0 0 0
0 0 0 0 0 0 0 0 0
0 0 0 0 0 0 0 0 0
0 0 0 0 0 0 0 0 0
0 0 0 0 0 0 0 0 0
0 0 0 0 0 0 0 0 0
0 0 0 0 0 0 0 0 0
0 0 0 0 0 0 0 0 0
0 0 0 0 0 0 0 0 0
0 0 0 0 0 0 0 0 0
0 0 0 0 0 0 0 0 0
0 0 0 0 0 0 0 0 0
0 0 0 0 0 0 0 0 0
0 0 0 0 0 0 0 0 0
0 0 0 0 0 0 0 0 0
0 0 0 0 0 0 0 0 0
0 0 0 0 0 0 0 0 0
0 0 0 0 0 0 0 0 0
0 0 0 0 0 0 0 0 0
0 0 0 0 0 0 0 0 0
0 0 0 0 0 0 0 0 0
0 0 0 0 0 0 0 0 0
0 0 0 0 0 0 0 0 0
0 0 0 0 0 0 0 0 0
0 0 0 0 0 0 0 0 0
0 0 0 0 0 0 0 0 0
0 0 0 0 0 0 0 0 0
0 0 0 0 0 0 0 0 0
0 0 0 0 0 0 0 0 0
0 0 0 0 0 0 0 0 0
0 0 0 0 0 0 0 0 0
0 0 0 0 0 0 0 0 0
0 0 0 0 0 0 0 0 0
0 0 0 0 0 0 0 0 0
0 0 0 0 0 0 0 0 0
0 0 0 0 0 0 0 0 0
0 0 0 0 0 0 0 0 0
0 0 0 0 0 0 0 0 0
0 0 0 0 0 0 0 0 0
0 0 0 0 0 0 0 0 0
0 0 0 0 0 0 0 0 0
0 0 0 0 0 0 0 0 0
0 0 0 0 0 0 0 0 0
0 0 0 0 0 0 0 0 0
0 0 0 0 0 0 0 0 0
0 0 0 0 0 0 0 0 0
0 0 0 0 0 0 0 0 0
0 0 0 0 0 0 0 0 0
0 0 0 0 0 0 0 0 0
0 0 0 0 0 0 0 0 0
0 0 0 0 0 0 0 0 0
0 0 0 0 0 0 0 0 0
0 0 0 0 0 0 0 0 0
0 0 0 0 0 0 0 0 0
0 0 0 0 0 0 0 0 0
0 0 0 0 0 0 0 0 0
0 0 0 0 0 0 0 0 0
0 0 0 0 0 0 0 0 0
0 0 0 0 0 0 0 0 0
0 0 0 0 0 0 0 0 0
0 0 0 0 0 0 0 0 0
0 0 0 0 0 0 0 0 0
0 0 0 0 0 0 0 0 0
0 0 0 0 0 0 0 0 0
0 0 0 0 0 0 0 0 0
0 0 0 0 0 0 0 0 0
0 0 0 0 0 0 0 0 0
0 0 0 0 0 0 0 0 0
0 0 0 0 0 0 0 0 0
0 0 0 0 0 0 0 0 0
0 0 0 0 0 0 0 0 0
0 0 0 0 0 0 0 0 0
0 0 0 0 0 0 0 0 0
0 0 0 0 0 0 0 0 0
0 0 0 0 0 0 0 0 0
0 0 0 0 0 0 0 0 0
0 0 0 0 0 0 0 0 0
0 0 0 0 0 0 0 0 0
0 0 0 0 0 0 0 0 0
0 0 0 0 0 0 0 0 0
0 0 0 0 0 0 0 0 0
0 0 0 0 0 0 0 0 0
0 0 0 0 0 0 0 0 0
0 0 0 0 0 0 0 0 0
0.0030554 0.00305715 0.00324898 0.00328846 0.0030554 0.00305715 0.00324898 0.00328846 0
0.00315567 0.00342671 0.00337633 0.00358045 0.00315567 0.00342671 0.00337633 0.00358045 0
0.00361739 0.00387124 0.00373551 0.00395883 0.00361739 0.00387124 0.00373551 0.00395883 0
0.00403913 0.00424814 0.0041417 0.00442209 0.00403913 0.00424814 0.0041417 0.00442209 0
0.00443046 0.00472405 0.00462907 0.00491855 0.00443046 0.00472405 0.00462907 0.00491855 0
0.00280264 0.00293868 0.00289071 0.00294413 0.00280264 0.00293868 0.00289071 0.00294413 0
0.00297854 0.00295429 0.00296824 0.00298356 0.00297854 0.00295429 0.00296824 0.00298356 0
0.00292592 0.0028759 0.00298084 0.00296126 0.00292592 0.0028759 0.00298084 0.00296126 0
0.00287885 0.00294052 0.00295562 0.00296328 0.00287885 0.00294052 0.00295562 0.00296328 0
0.00305187 0.00329833 0.00306804 0.00335039 0.00305187 0.00329833 0.00306804 0.00335039 0
0.0034738 0.00371094 0.00354649 0.00380401 0.0034738 0.00371094 0.00354649 0.00380401 0
0.00386948 0.00407003 0.00396531 0.00415289 0.00386948 0.00407003 0.00396531 0.00415289 0
0.00422332 0.00444645 0.00432075 0.00459651 0.00422332 0.00444645 0.00432075 0.00459651 0
0.00239862 0.00252777 0.00250494 0.00262856 0.00239862 0.00252777 0.00250494 0.00262856 0
0.00261014 0.00270877 0.00272705 0.00287519 0.00261014 0.00270877 0.00272705 0.00287519 0
0.00274295 0.00274076 0.00291771 0.00288874 0.00274295 0.00274076 0.00291771 0.00288874 0
0.00273244 0.00271537 0.00285882 0.00280945 0.00273244 0.00271537 0.00285882 0.00280945 0
0.00274199 0.00283562 0.002821 0.00290566 0.00274199 0.00283562 0.002821 0.00290566 0
0.00294611 0.0031585 0.0030185 0.00324618 0.00294611 0.0031585 0.0030185 0.00324618 0
0.00331189 0.00352307 0.00341015 0.00363483 0.00331189 0.00352307 0.00341015 0.00363483 0
0.00366685 0.00385337 0.00378863 0.00398885 0.00366685 0.00385337 0.00378863 0.00398885 0
0.00399607 0.00420464 0.00413534 0.00434041 0.00399607 0.00420464 0.00413534 0.00434041 0
0.0019481 0.00199429 0.00209063 0.00219376 0.0019481 0.00199429 0.00209063 0.00219376 0
0.00206582 0.00221763 0.00228062 0.0024173 0.00206582 0.00221763 0.00228062 0.0024173 0
0.00230322 0.00238818 0.00249618 0.00257786 0.00230322 0.00238818 0.00249618 0.00257786 0
0.00242941 0.00246041 0.00261164 0.00262549 0.00242941 0.00246041 0.00261164 0.00262549 0
0.00248113 0.00251041 0.0026307 0.00263467 0.00248113 0.00251041 0.0026307 0.00263467 0
0.00255947 0.00266831 0.0026713 0.00277137 0.00255947 0.00266831 0.0026713 0.00277137 0
0.00277457 0.00296046 0.00288005 0.00308121 0.00277457 0.00296046 0.00288005 0.00308121 0
0.0030963 0.00328636 0.00322701 0.00342887 0.0030963 0.00328636 0.00322701 0.00342887 0
0.00341816 0.0035934 0.00356671 0.00374649 0.00341816 0.0035934 0.00356671 0.00374649 0
0.00373724 0.00396056 0.00388842 0.00410183 0.00373724 0.00396056 0.00388842 0.00410183 0
0.00170834 0.00170567 0.00184539 0.0018632 0.00170834 0.00170567 0.00184539 0.0018632 0
0.00175793 0.00190611 0.00192544 0.0020803 0.00175793 0.00190611 0.00192544 0.0020803 0
0.00199007 0.00207434 0.00216721 0.00225284 0.00199007 0.00207434 0.00216721 0.00225284 0
0.00212287 0.00217468 0.00229799 0.00233913 0.00212287 0.00217468 0.00229799 0.00233913 0
0.00221332 0.00227097 0.00236877 0.00241239 0.00221332 0.00227097 0.00236877 0.00241239 0
0.00233259 0.00244757 0.00246811 0.00258091 0.00233259 0.00244757 0.00246811 0.00258091 0
0.00254889 0.00271542 0.00268514 0.00286172 0.00254889 0.00271542 0.00268514 0.00286172 0
0.00283808 0.00301179 0.00299131 0.00317379 0.00283808 0.00301179 0.00299131 0.00317379 0
0.0031323 0.00329339 0.00330089 0.00347107 0.0031323 0.00329339 0.00330089 0.00347107 0
0.00343273 0.00365825 0.00361416 0.00384068 0.00343273 0.00365825 0.00361416 0.00384068 0
0.00148083 0.00148255 0.00161038 0.00160337 0.00148083 0.00148255 0.00161038 0.00160337 0
0.00152507 0.00164237 0.00165032 0.00178841 0.00152507 0.00164237 0.00165032 0.00178841 0
0.00171191 0.00178784 0.00186768 0.00194933 0.00171191 0.00178784 0.00186768 0.00194933 0
0.00183507 0.00189185 0.00199838 0.00205435 0.00183507 0.00189185 0.00199838 0.00205435 0
0.0019372 0.00200843 0.00209716 0.00216218 0.0019372 0.00200843 0.00209716 0.00216218 0
0.0020747 0.00218907 0.00222658 0.00234195 0.0020747 0.00218907 0.00222658 0.00234195 0
0.00228408 0.00243427 0.00244075 0.00260017 0.00228408 0.00243427 0.00244075 0.00260017 0
0.00254632 0.00270766 0.00271808 0.00288608 0.00254632 0.00270766 0.00271808 0.00288608 0
0.00281937 0.0029691 0.00300242 0.00315798 0.00281937 0.0029691 0.00300242 0.00315798 0
0.00310372 0.0033281 0.00329499 0.0035199 0.00310372 0.0033281 0.00329499 0.0035199 0
0.0012534 0.00128812 0.0013849 0.00139778 0.0012534 0.00128812 0.0013849 0.00139778 0
0.00133178 0.00141933 0.00143939 0.00154312 0.00133178 0.00141933 0.00143939 0.00154312 0
0.00147043 0.0015259 0.00160508 0.00167397 0.00147043 0.0015259 0.00160508 0.00167397 0
0.0015632 0.00161348 0.00171802 0.00177324 0.0015632 0.00161348 0.00171802 0.00177324 0
0.00165714 0.00173045 0.00181879 0.00189221 0.00165714 0.00173045 0.00181879 0.00189221 0
0.00179496 0.00190268 0.00195847 0.00207075 0.00179496 0.00190268 0.00195847 0.00207075 0
0.00198869 0.00212122 0.00216229 0.00230524 0.00198869 0.00212122 0.00216229 0.00230524 0
0.00222186 0.00237001 0.00241261 0.00256859 0.00222186 0.00237001 0.00241261 0.00256859 0
0.00247774 0.00263014 0.00267794 0.00282678 0.00247774 0.00263014 0.00267794 0.00282678 0
0.00275668 0.00295667 0.00295854 0.00317619 0.00275668 0.00295667 0.00295854 0.00317619 0
0.00101961 0.00110221 0.00115526 0.00120863 0.00101961 0.00110221 0.00115526 0.00120863 0
0.00115329 0.00121338 0.0012548 0.00133063 0.00115329 0.00121338 0.0012548 0.00133063 0
0.00124599 0.0012786 0.00137384 0.00141957 0.00124599 0.0012786 0.00137384 0.00141957 0
0.00130296 0.00134094 0.00145156 0.00149719 0.00130296 0.00134094 0.00145156 0.00149719 0
0.00137889 0.00144908 0.00153878 0.00161119 0.00137889 0.00144908 0.00153878 0.00161119 0
0.00150791 0.00160341 0.00167367 0.00177685 0.00150791 0.00160341 0.00167367 0.00177685 0
0.00167578 0.0017835 0.00185769 0.00198075 0.00167578 0.0017835 0.00185769 0.00198075 0
0.00185787 0.00195934 0.0020725 0.002206 0.00185787 0.00195934 0.0020725 0.002206 0
0.00204044 0.00216708 0.00230612 0.00245254 0.00204044 0.00216708 0.00230612 0.00245254 0
0.000730696 0.000786679 0.00090559 0.000988861 0.000730696 0.000786679 0.00090559 0.000988861 0
0.000801624 0.000789707 0.00103155 0.0010681 0.000801624 0.000789707 0.00103155 0.0010681 0
0.000789218 0.000803524 0.00108899 0.00111315 0.000789218 0.000803524 0.00108899 0.00111315 0
0.00083837 0.000923485 0.00113824 0.00118677 0.00083837 0.000923485 0.00113824 0.00118677 0
0.000996501 0.00111559 0.00123311 0.00131578 0.000996501 0.00111559 0.00123311 0.00131578 0
0.00119977 0.00131589 0.00138038 0.00147932 0.00119977 0.00131589 0.00138038 0.00147932 0
0.00139166 0.00148827 0.00155029 0.00165089 0.00139166 0.00148827 0.00155029 0.00165089 0
0.00154353 0.00160416 0.00171543 0.00179733 0.00154353 0.00160416 0.00171543 0.00179733 0
0 0 0 0 0 0 0 0 0
0 0 0 0 0 0 0 0 0
0 0 0 0 0 0 0 0 0
0 0 0 0 0 0 0 0 0
0 0 0 0 0 0 0 0 0
0 0 0 0 0 0 0 0 0
0 0 0 0 0 0 0 0 0
0 0 0 0 0 0 0 0 0
0 0 0 0 0 0 0 0 0
0 0 0 0 0 0 0 0 0
0 0 0 0 0 0 0 0 0
0 0 0 0 0 0 0 0 0
0 0 0 0 0 0 0 0 0
0 0 0 0 0 0 0 0 0
0 0 0 0 0 0 0 0 0
0 0 0 0 0 0 0 0 0
0 0 0 0 0 0 0 0 0
0 0 0 0 0 0 0 0 0
0 0 0 0 0 0 0 0 0
0 0 0 0 0 0 0 0 0
0 0 0 0 0 0 0 0 0
0 0 0 0 0 0 0 0 0
0 0 0 0 0 0 0 0 0
0 0 0 0 0 0 0 0 0
0 0 0 0 0 0 0 0 0
0 0 0 0 0 0 0 0 0
0 0 0 0 0 0 0 0 0
0 0 0 0 0 0 0 0 0
0 0 0 0 0 0 0 0 0
0 0 0 0 0 0 0 0 0
0 0 0 0 0 0 0 0 0
0 0 0 0 0 0 0 0 0
0 0 0 0 0 0 0 0 0
0 0 0 0 0 0 0 0 0
0 0 0 0 0 0 0 0 0
0 0 0 0 0 0 0 0 0
0 0 0 0 0 0 0 0 0
0 0 0 0 0 0 0 0 0
0 0 0 0 0 0 0 0 0
0 0 0 0 0 0 0 0 0
0 0 0 0 0 0 0 0 0
0 0 0 0 0 0 0 0 0
0 0 0 0 0 0 0 0 0
0 0 0 0 0 0 0 0 0
0 0 0 0 0 0 0 0 0
0 0 0 0 0 0 0 0 0
0 0 0 0 0 0 0 0 0
0 0 0 0 0 0 0 0 0
0 0 0 0 0 0 0 0 0
0 0 0 0 0 0 0 0 0
0 0 0 0 0 0 0 0 0
0 0 0 0 0 0 0 0 0
0 0 0 0 0 0 0 0 0
0 0 0 0 0 0 0 0 0
0 0 0 0 0 0 0 0 0
0 0 0 0 0 0 0 0 0
0 0 0 0 0 0 0 0 0
0 0 0 0 0 0 0 0 0
0 0 0 0 0 0 0 0 0
0 0 0 0 0 0 0 0 0
0 0 0 0 0 0 0 0 0
0 0 0 0 0 0 0 0 0
0 0 0 0 0 0 0 0 0
0 0 0 0 0 0 0 0 0
0 0 0 0 0 0 0 0 0
0 0 0 0 0 0 0 0 0
0 0 0 0 0 0 0 0 0
0 0 0 0 0 0 0 0 0
0 0 0 0 0 0 0 0 0
0 0 0 0 0 0 0 0 0
0 0 0 0 0 0 0 0 0
0 0 0 0 0 0 0 0 0
0 0 0 0 0 0 0 0 0
0 0 0 0 0 0 0 0 0
0 0 0 0 0 0 0 0 0
0 0 0 0 0 0 0 0 0
0 0 0 0 0 0 0 0 0
0 0 0 0 0 0 0 0 0
0 0 0 0 0 0 0 0 0
0 0 0 0 0 0 0 0 0
0 0 0 0 0 0 0 0 0
0 0 0 0 0 0 0 0 0
0 0 0 0 0 0 0 0 0
0 0 0 0 0 0 0 0 0
0 0 0 0 0 0 0 0 0
0 0 0 0 0 0 0 0 0
0 0 0 0 0 0 0 0 0
0 0 0 0 0 0 0 0 0
0 0 0 0 0 0 0 0 0
0 0 0 0 0 0 0 0 0
0 0 0 0 0 0 0 0 0
0 0 0 0 0 0 0 0 0
0 0 0 0 0 0 0 0 0
0 0 0 0 0 0 0 0 0
0 0 0 0 0 0 0 0 0
0 0 0 0 0 0 0 0 0
0 0 0 0 0 0 0 0 0
0 0 0 0 0 0 0 0 0
0 0 0 0 0 0 0 0 0
0 0 0 0 0 0 0 0 0
0 0 0 0 0 0 0 0 0
0 0 0 0 0 0 0 0 0
0 0 0 0 0 0 0 0 0
0 0 0 0 0 0 0 0 0
0 0 0 0 0 0 0 0 0
0 0 0 0 0 0 0 0 0
0 0 0 0 0 0 0 0 0
0 0 0 0 0 0 0 0 0
0 0 0 0 0 0 0 0 0
0 0 0 0 0 0 0 0 0
0 0 0 0 0 0 0 0 0
0 0 0 0 0 0 0 0 0
0 0 0 0 0 0 0 0 0
0 0 0 0 0 0 0 0 0
0 0 0 0 0 0 0 0 0
0 0 0 0 0 0 0 0 0
0 0 0 0 0 0 0 0 0
0 0 0 0 0 0 0 0 0
0 0 0 0 0 0 0 0 0
0 0 0 0 0 0 0 0 0
0 0 0 0 0 0 0 0 0
0 0 0 0 0 0 0 0 0
0 0 0 0 0 0 0 0 0
0 0 0 0 0 0 0 0 0
0 0 0 0 0 0 0 0 0
0 0 0 0 0 0 0 0 0
0 0 0 0 0 0 0 0 0
0 0 0 0 0 0 0 0 0
0 0 0 0 0 0 0 0 0
0 0 0 0 0 0 0 0 0
0 0 0 0 0 0 0 0 0
0 0 0 0 0 0 0 0 0
0 0 0 0 0 0 0 0 0
0 0 0 0 0 0 0 0 0
0 0 0 0 0 0 0 0 0
0 0 0 0 0 0 0 0 0
0 0 0 0 0 0 0 0 0
0 0 0 0 0 0 0 0 0
0 0 0 0 0 0 0 0 0
0 0 0 0 0 0 0 0 0
0 0 0 0 0 0 0 0 0
0 0 0 0 0 0 0 0 0
0 0 0 0 0 0 0 0 0
0 0 0 0 0 0 0 0 0
0 0 0 0 0 0 0 0 0
0 0 0 0 0 0 0 0 0
0 0 0 0 0 0 0 0 0
0 0 0 0 0 0 0 0 0
0 0 0 0 0 0 0 0 0
0 0 0 0 0 0 0 0 0
0 0 0 0 0 0 0 0 0
0 0 0 0 0 0 0 0 0
0 0 0 0 0 0 0 0 0
0 0 0 0 0 0 0 0 0
0 0 0 0 0 0 0 0 0
0 0 0 0 0 0 0 0 0
0 0 0 0 0 0 0 0 0
0 0 0 0 0 0 0 0 0
0 0 0 0 0 0 0 0 0
0 0 0 0 0 0 0 0 0
0 0 0 0 0 0 0 0 0
0 0 0 0 0 0 0 0 0
0 0 0 0 0 0 0 0 0
0 0 0 0 0 0 0 0 0
0 0 0 0 0 0 0 0 0
0 0 0 0 0 0 0 0 0
0 0 0 0 0 0 0 0 0
0 0 0 0 0 0 0 0 0
0 0 0 0 0 0 0 0 0
0 0 0 0 0 0 0 0 0
0 0 0 0 0 0 0 0 0
0 0 0 0 0 0 0 0 0
0 0 0 0 0 0 0 0 0
0 0 0 0 0 0 0 0 0
0 0 0 0 0 0 0 0 0
0 0 0 0 0 0 0 0 0
0 0 0 0 0 0 0 0 0
0 0 0 0 0 0 0 0 0
0 0 0 0 0 0 0 0 0
0 0 0 0 0 0 0 0 0
0 0 0 0 0 0 0 0 0
0 0 0 0 0 0 0 0 0
0 0 0 0 0 0 0 0 0
0 0 0 0 0 0 0 0 0
0 0 0 0 0 0 0 0 0
0 0 0 0 0 0 0 0 0
0 0 0 0 0 0 0 0 0
0 0 0 0 0 0 0 0 0
0 0 0 0 0 0 0 0 0
0 0 0 0 0 0 0 0 0
0 0 0 0 0 0 0 0 0
0 0 0 0 0 0 0 0 0
0 0 0 0 0 0 0 0 0
0 0 0 0 0 0 0 0 0
0 0 0 0 0 0 0 0 0
0 0 0 0 0 0 0 0 0
0 0 0 0 0 0 0 0 0
0 0 0 0 0 0 0 0 0
0 0 0 0 0 0 0 0 0
0 0 0 0 0 0 0 0 0
0 0 0 0 0 0 0 0 0
0 0 0 0 0 0 0 0 0
0 0 0 0 0 0 0 0 0
0 0 0 0 0 0 0 0 0
0 0 0 0 0 0 0 0 0
0 0 0 0 0 0 0 0 0
0 0 0 0 0 0 0 0 0
0 0 0 0 0 0 0 0 0
0 0 0 0 0 0 0 0 0
0 0 0 0 0 0 0 0 0
0 0 0 0 0 0 0 0 0
0 0 0 0 0 0 0 0 0
0 0 0 0 0 0 0 0 0
0 0 0 0 0 0 0 0 0
0 0 0 0 0 0 0 0 0
0 0 0 0 0 0 0 0 0
0 0 0 0 0 0 0 0 0
0 0 0 0 0 0 0 0 0
0 0 0 0 0 0 0 0 0
0 0 0 0 0 0 0 0 0
0 0 0 0 0 0 0 0 0
0 0 0 0 0 0 0 0 0
0 0 0 0 0 0 0 0 0
0 0 0 0 0 0 0 0 0
0 0 0 0 0 0 0 0 0
0 0 0 0 0 0 0 0 0
0 0 0 0 0 0 0 0 0
0 0 0 0 0 0 0 0 0
0 0 0 0 0 0 0 0 0
0 0 0 0 0 0 0 0 0
0 0 0 0 0 0 0 0 0
0 0 0 0 0 0 0 0 0
0 0 0 0 0 0 0 0 0
0 0 0 0 0 0 0 0 0
0 0 0 0 0 0 0 0 0
0 0 0 0 0 0 0 0 0
0 0 0 0 0 0 0 0 0
0 0 0 0 0 0 0 0 0
0 0 0 0 0 0 0 0 0
0 0 0 0 0 0 0 0 0
0 0 0 0 0 0 0 0 0
0 0 0 0 0 0 0 0 0
0 0 0 0 0 0 0 0 0
0 0 0 0 0 0 0 0 0
0 0 0 0 0 0 0 0 0
0 0 0 0 0 0 0 0 0
0 0 0 0 0 0 0 0 0
0 0 0 0 0 0 0 0 0
0 0 0 0 0 0 0 0 0
0 0 0 0 0 0 0 0 0
0 0 0 0 0 0 0 0 0
0 0 0 0 0 0 0 0 0
0 0 0 0 0 0 0 0 0
0 0 0 0 0 0 0 0 0
0 0 0 0 0 0 0 0 0
0 0 0 0 0 0 0 0 0
0 0 0 0 0 0 0 0 0
0 0 0 0 0 0 0 0 0
0 0 0 0 0 0 0 0 0
0 0 0 0 0 0 0 0 0
0 0 0 0 0 0 0 0 0
0 0 0 0 0 0 0 0 0
0 0 0 0 0 0 0 0 0
0 0 0 0 0 0 0 0 0
0 0 0 0 0 0 0 0 0
0 0 0 0 0 0 0 0 0
0 0 0 0 0 0 0 0 0
0 0 0 0 0 0 0 0 0
0 0 0 0 0 0 0 0 0
0 0 0 0 0 0 0 0 0
0 0 0 0 0 0 0 0 0
0 0 0 0 0 0 0 0 0
0 0 0 0 0 0 0 0 0
0 0 0 0 0 0 0 0 0
0 0 0 0 0 0 0 0 0
0 0 0 0 0 0 0 0 0
0 0 0 0 0 0 0 0 0
0 0 0 0 0 0 0 0 0
0 0 0 0 0 0 0 0 0
0 0 0 0 0 0 0 0 0
0 0 0 0 0 0 0 0 0
0 0 0 0 0 0 0 0 0
0 0 0 0 0 0 0 0 0
0 0 0 0 0 0 0 0 0
0 0 0 0 0 0 0 0 0
0 0 0 0 0 0 0 0 0
0 0 0 0 0 0 0 0 0
0 0 0 0 0 0 0 0 0
0 0 0 0 0 0 0 0 0
0 0 0 0 0 0 0 0 0
0 0 0 0 0 0 0 0 0
0 0 0 0 0 0 0 0 0
0 0 0 0 0 0 0 0 0
0 0 0 0 0 0 0 0 0
0 0 0 0 0 0 0 0 0
0 0 0 0 0 0 0 0 0
0 0 0 0 0 0 0 0 0
0 0 0 0 0 0 0 0 0
0 0 0 0 0 0 0 0 0
0 0 0 0 0 0 0 0 0
0 0 0 0 0 0 0 0 0
0 0 0 0 0 0 0 0 0
0 0 0 0 0 0 0 0 0
0 0 0 0 0 0 0 0 0
0 0 0 0 0 0 0 0 0
0 0 0 0 0 0 0 0 0
0 0 0 0 0 0 0 0 0
0 0 0 0 0 0 0 0 0
0 0 0 0 0 0 0 0 0
0 0 0 0 0 0 0 0 0
0 0 0 0 0 0 0 0 0
0 0 0 0 0 0 0 0 0
0 0 0 0 0 0 0 0 0
0 0 0 0 0 0 0 0 0
0 0 0 0 0 0 0 0 0
0 0 0 0 0 0 0 0 0
0 0 0 0 0 0 0 0 0
0 0 0 0 0 0 0 0 0
0 0 0 0 0 0 0 0 0
0 0 0 0 0 0 0 0 0
0 0 0 0 0 0 0 0 0
0 0 0 0 0 0 0 0 0
0 0 0 0 0 0 0 0 0
0 0 0 0 0 0 0 0 0
0 0 0 0 0 0 0 0 0
0 0 0 0 0 0 0 0 0
0 0 0 0 0 0 0 0 0
0 0 0 0 0 0 0 0 0
0 0 0 0 0 0 0 0 0
0 0 0 0 0 0 0 0 0
0 0 0 0 0 0 0 0 0
0 0 0 0 0 0 0 0 0
0 0 0 0 0 0 0 0 0
0 0 0 0 0 0 0 0 0
0 0 0 0 0 0 0 0 0
0 0 0 0 0 0 0 0 0
0 0 0 0 0 0 0 0 0
0 0 0 0 0 0 0 0 0
0 0 0 0 0 0 0 0 0
0 0 0 0 0 0 0 0 0
0 0 0 0 0 0 0 0 0
0 0 0 0 0 0 0 0 0
0 0 0 0 0 0 0 0 0
0 0 0 0 0 0 0 0 0
0 0 0 0 0 0 0 0 0
0 0 0 0 0 0 0 0 0
0 0 0 0 0 0 0 0 0
0 0 0 0 0 0 0 0 0
0 0 0 0 0 0 0 0 0
0 0 0 0 0 0 0 0 0
0 0 0 0 0 0 0 0 0
0 0 0 0 0 0 0 0 0
0 0 0 0 0 0 0 0 0
0 0 0 0 0 0 0 0 0
0 0 0 0 0 0 0 0 0
0 0 0 0 0 0 0 0 0
0 0 0 0 0 0 0 0 0
0 0 0 0 0 0 0 0 0
0 0 0 0 0 0 0 0 0
0 0 0 0 0 0 0 0 0
0 0 0 0 0 0 0 0 0
0 0 0 0 0 0 0 0 0
0 0 0 0 0 0 0 0 0
0 0 0 0 0 0 0 0 0
0 0 0 0 0 0 0 0 0
0 0 0 0 0 0 0 0 0
0 0 0 0 0 0 0 0 0
0 0 0 0 0 0 0 0 0
0 0 0 0 0 0 0 0 0
0 0 0 0 0 0 0 0 0
0 0 0 0 0 0 0 0 0
0 0 0 0 0 0 0 0 0
0 0 0 0 0 0 0 0 0
0 0 0 0 0 0 0 0 0
0 0 0 0 0 0 0 0 0
0 0 0 0 0 0 0 0 0
0 0 0 0 0 0 0 0 0
0 0 0 0 0 0 0 0 0
0 0 0 0 0 0 0 0 0
0 0 0 0 0 0 0 0 0
0 0 0 0 0 0 0 0 0
0 0 0 0 0 0 0 0 0
0 0 0 0 0 0 0 0 0
0 0 0 0 0 0 0 0 0
0 0 0 0 0 0 0 0 0
0 0 0 0 0 0 0 0 0
0 0 0 0 0 0 0 0 0
0 0 0 0 0 0 0 0 0
0 0 0 0 0 0 0 0 0
0 0 0 0 0 0 0 0 0
0 0 0 0 0 0 0 0 0
0 0 0 0 0 0 0 0 0
0 0 0 0 0 0 0 0 0
0 0 0 0 0 0 0 0 0
0 0 0 0 0 0 0 0 0
0 0 0 0 0 0 0 0 0
0 0 0 0 0 0 0 0 0
0 0 0 0 0 0 0 0 0
0 0 0 0 0 0 0 0 0
0 0 0 0 0 0 0 0 0
0 0 0 0 0 0 0 0 0
0 0 0 0 0 0 0 0 0
0 0 0 0 0 0 0 0 0
0 0 0 0 0 0 0 0 0
0 0 0 0 0 0 0 0 0
0 0 0 0 0 0 0 0 0
0 0 0 0 0 0 0 0 0
0 0 0 0 0 0 0 0 0
0 0 0 0 0 0 0 0 0
0 0 0 0 0 0 0 0 0
0 0 0 0 0 0 0 0 0
0 0 0 0 0 0 0 0 0
0 0 0 0 0 0 0 0 0
0 0 0 0 0 0 0 0 0
0 0 0 0 0 0 0 0 0
0 0 0 0 0 0 0 0 0
0 0 0 0 0 0 0 0 0
0 0 0 0 0 0 0 0 0
0 0 0 0 0 0 0 0 0
0 0 0 0 0 0 0 0 0
0 0 0 0 0 0 0 0 0
0 0 0 0 0 0 0 0 0
0 0 0 0 0 0 0 0 0
0 0 0 0 0 0 0 0 0
0 0 0 0 0 0 0 0 0
0 0 0 0 0 0 0 0 0
0 0 0 0 0 0 0 0 0
0 0 0 0 0 0 0 0 0
0 0 0 0 0 0 0 0 0
0 0 0 0 0 0 0 0 0
0 0 0 0 0 0 0 0 0
0 0 0 0 0 0 0 0 0
0 0 0 0 0 0 0 0 0
0 0 0 0 0 0 0 0 0
0 0 0 0 0 0 0 0 0
0 0 0 0 0 0 0 0 0
0 0 0 0 0 0 0 0 0
0 0 0 0 0 0 0 0 0
0 0 0 0 0 0 0 0 0
0 0 0 0 0 0 0 0 0
0 0 0 0 0 0 0 0 0
0 0 0 0 0 0 0 0 0
0 0 0 0 0 0 0 0 0
0 0 0 0 0 0 0 0 0
0 0 0 0 0 0 0 0 0
0 0 0 0 0 0 0 0 0
0 0 0 0 0 0 0 0 0
0 0 0 0 0 0 0 0 0
0 0 0 0 0 0 0 0 0
0 0 0 0 0 0 0 0 0
0 0 0 0 0 0 0 0 0
0 0 0 0 0 0 0 0 0
0 0 0 0 0 0 0 0 0
0 0 0 0 0 0 0 0 0
0 0 0 0 0 0 0 0 0
0 0 0 0 0 0 0 0 0
0 0 0 0 0 0 0 0 0
0 0 0 0 0 0 0 0 0
0 0 0 0 0 0 0 0 0
0 0 0 0 0 0 0 0 0
0 0 0 0 0 0 0 0 0
0 0 0 0 0 0 0 0 0
0 0 0 0 0 0 0 0 0
0 0 0 0 0 0 0 0 0
0 0 0 0 0 0 0 0 0
0 0 0 0 0 0 0 0 0
0 0 0 0 0 0 0 0 0
0 0 0 0 0 0 0 0 0
0 0 0 0 0 0 0 0 0
0 0 0 0 0 0 0 0 0
0 0 0 0 0 0 0 0 0
0 0 0 0 0 0 0 0 0
0 0 0 0 0 0 0 0 0
0 0 0 0 0 0 0 0 0
0 0 0 0 0 0 0 0 0
0 0 0 0 0 0 0 0 0
0 0 0 0 0 0 0 0 0
0 0 0 0 0 0 0 0 0
0 0 0 0 0 0 0 0 0
0 0 0 0 0 0 0 0 0
0 0 0 0 0 0 0 0 0
0 0 0 0 0 0 0 0 0
0 0 0 0 0 0 0 0 0
0 0 0 0 0 0 0 0 0
0 0 0 0 0 0 0 0 0
0 0 0 0 0 0 0 0 0
0 0 0 0 0 0 0 0 0
0 0 0 0 0 0 0 0 0
0 0 0 0 0 0 0 0 0
0 0 0 0 0 0 0 0 0
0 0 0 0 0 0 0 0 0
0 0 0 0 0 0 0 0 0
0 0 0 0 0 0 0 0 0
0 0 0 0 0 0 0 0 0
0 0 0 0 0 0 0 0 0
0 0 0 0 0 0 0 0 0
0 0 0 0 0 0 0 0 0
0 0 0 0 0 0 0 0 0
0 0 0 0 0 0 0 0 0
0 0 0 0 0 0 0 0 0
0 0 0 0 0 0 0 0 0
0 0 0 0 0 0 0 0 0
0 0 0 0 0 0 0 0 0
0 0 0 0 0 0 0 0 0
0 0 0 0 0 0 0 0 0
0 0 0 0 0 0 0 0 0
0 0 0 0 0 0 0 0 0
0 0 0 0 0 0 0 0 0
0 0 0 0 0 0 0 0 0
0 0 0 0 0 0 0 0 0
0 0 0 0 0 0 0 0 0
0 0 0 0 0 0 0 0 0
0 0 0 0 0 0 0 0 0
0 0 0 0 0 0 0 0 0
0 0 0 0 0 0 0 0 0
0 0 0 0 0 0 0 0 0
0 0 0 0 0 0 0 0 0
0 0 0 0 0 0 0 0 0
0 0 0 0 0 0 0 0 0
0 0 0 0 0 0 0 0 0
0 0 0 0 0 0 0 0 0
0 0 0 0 0 0 0 0 0
0 0 0 0 0 0 0 0 0
0 0 0 0 0 0 0 0 0
0 0 0 0 0 0 0 0 0
0 0 0 0 0 0 0 0 0
0 0 0 0 0 0 0 0 0
0 0 0 0 0 0 0 0 0
0 0 0 0 0 0 0 0 0
0 0 0 0 0 0 0 0 0
0 0 0 0 0 0 0 0 0
0 0 0 0 0 0 0 0 0
0 0 0 0 0 0 0 0 0
0 0 0 0 0 0 0 0 0
0 0 0 0 0 0 0 0 0
0 0 0 0 0 0 0 0 0
0 0 0 0 0 0 0 0 0
0 0 0 0 0 0 0 0 0
0 0 0 0 0 0 0 0 0
0 0 0 0 0 0 0 0 0
0 0 0 0 0 0 0 0 0
0 0 0 0 0 0 0 0 0
0 0 0 0 0 0 0 0 0
0 0 0 0 0 0 0 0 0
0 0 0 0 0 0 0 0 0
0 0 0 0 0 0 0 0 0
0 0 0 0 0 0 0 0 0
0 0 0 0 0 0 0 0 0
0 0 0 0 0 0 0 0 0
0 0 0 0 0 0 0 0 0
0 0 0 0 0 0 0 0 0
0 0 0 0 0 0 0 0 0
0 0 0 0 0 0 0 0 0
0.0018167 0.00184934 0.00194583 0.0019693 0.0018167 0.00184934 0.00194583 0.0019693 0
0.0018866 0.00195779 0.00198969 0.00202386 0.0018866 0.00195779 0.00198969 0.00202386 0
0.00205419 0.00224856 0.00209541 0.0022588 0.00205419 0.00224856 0.00209541 0.0022588 0
0.00238944 0.00258227 0.0024105 0.00266379 0.00238944 0.00258227 0.0024105 0.00266379 0
0.0026833 0.00276895 0.00279655 0.00290835 0.0026833 0.00276895 0.00279655 0.00290835 0
0.00140904 0.00153247 0.00146412 0.00154121 0.00140904 0.00153247 0.00146412 0.00154121 0
0.00159112 0.0016295 0.00158984 0.00164713 0.00159112 0.0016295 0.00158984 0.00164713 0
0.00165254 0.00167887 0.00168244 0.00172333 0.00165254 0.00167887 0.00168244 0.00172333 0
0.00170131 0.00173823 0.00175086 0.00178708 0.00170131 0.00173823 0.00175086 0.00178708 0
0.0017882 0.00188993 0.00183224 0.00192151 0.0017882 0.00188993 0.00183224 0.00192151 0
0.00198476 0.0021444 0.00202413 0.00221747 0.00198476 0.0021444 0.00202413 0.00221747 0
0.00225443 0.00239789 0.00234715 0.00251054 0.00225443 0.00239789 0.00234715 0.00251054 0
0.00248498 0.00258215 0.00259929 0.002681 0.00248498 0.00258215 0.00259929 0.002681 0
0.00125434 0.00129308 0.00126386 0.00131196 0.00125434 0.00129308 0.00126386 0.00131196 0
0.00133548 0.00141407 0.00137436 0.00149817 0.00133548 0.00141407 0.00137436 0.00149817 0
0.00145586 0.00149314 0.00155498 0.00158798 0.00145586 0.00149314 0.00155498 0.00158798 0
0.00151712 0.00154725 0.00160796 0.00163139 0.00151712 0.00154725 0.00160796 0.00163139 0
0.00157825 0.00163488 0.00165473 0.0016971 0.00157825 0.00163488 0.00165473 0.0016971 0
0.00169314 0.00179796 0.00175055 0.00185644 0.00169314 0.00179796 0.00175055 0.00185644 0
0.00188351 0.00201487 0.00194666 0.00208968 0.00188351 0.00201487 0.00194666 0.00208968 0
0.0021054 0.00222402 0.00218919 0.00232062 0.0021054 0.00222402 0.00218919 0.00232062 0
0.00231029 0.00243021 0.00240702 0.0025144 0.00231029 0.00243021 0.00240702 0.0025144 0
0.0010091 0.00105136 0.00109985 0.00116751 0.0010091 0.00105136 0.00109985 0.00116751 0
0.00108829 0.00114832 0.00120712 0.00124905 0.00108829 0.00114832 0.00120712 0.00124905 0
0.00119174 0.0012519 0.00128635 0.00134786 0.00119174 0.0012519 0.00128635 0.00134786 0
0.00128893 0.00133171 0.00138433 0.00142421 0.00128893 0.00133171 0.00138433 0.00142421 0
0.00136217 0.00140458 0.00145097 0.00148618 0.00136217 0.00140458 0.00145097 0.00148618 0
0.00144405 0.00151167 0.00152147 0.00158485 0.00144405 0.00151167 0.00152147 0.00158485 0
0.00157182 0.00167095 0.00164488 0.00174787 0.00157182 0.00167095 0.00164488 0.00174787 0
0.00174918 0.00186638 0.00183018 0.0019546 0.00174918 0.00186638 0.00183018 0.0019546 0
0.00194711 0.00205331 0.00204007 0.0021519 0.00194711 0.00205331 0.00204007 0.0021519 0
0.00214487 0.00229186 0.00223952 0.00237004 0.00214487 0.00229186 0.00223952 0.00237004 0
0.000924685 0.000900379 0.00096202 0.000979622 0.000924685 0.000900379 0.00096202 0.000979622 0
0.000918785 0.000994847 0.00101085 0.00108002 0.000918785 0.000994847 0.00101085 0.00108002 0
0.00104064 0.00109136 0.00112569 0.00118295 0.00104064 0.00109136 0.00112569 0.00118295 0
0.00112629 0.00117288 0.00121954 0.00126411 0.00112629 0.00117288 0.00121954 0.00126411 0
0.00120713 0.0012562 0.00129654 0.00134266 0.00120713 0.0012562 0.00129654 0.00134266 0
0.0012989 0.00136879 0.00138409 0.00145344 0.0012989 0.00136879 0.00138409 0.00145344 0
0.0014277 0.0015213 0.00151326 0.00160985 0.0014277 0.0015213 0.00151326 0.00160985 0
0.00159516 0.00170615 0.00168579 0.00179937 0.00159516 0.00170615 0.00168579 0.00179937 0
0.00178259 0.00188345 0.00187766 0.00198089 0.00178259 0.00188345 0.00187766 0.00198089 0
0.00197091 0.00211223 0.00207238 0.00222224 0.00197091 0.00211223 0.00207238 0.00222224 0
0.000812819 0.000793015 0.000884557 0.000850215 0.000812819 0.000793015 0.000884557 0.000850215 0
0.000804751 0.000858177 0.000863381 0.000935214 0.000804751 0.000858177 0.000863381 0.000935214 0
0.000894056 0.000940428 0.000978364 0.00102616 0.000894056 0.000940428 0.000978364 0.00102616 0
0.000972856 0.00101708 0.00105995 0.00110643 0.000972856 0.00101708 0.00105995 0.00110643 0
0.001051 0.00110168 0.00114105 0.00119134 0.001051 0.00110168 0.00114105 0.00119134 0
0.00114384 0.00121079 0.0012342 0.00130344 0.00114384 0.00121079 0.0012342 0.00130344 0
0.00126615 0.00135316 0.00136112 0.00145213 0.00126615 0.00135316 0.00136112 0.00145213 0
0.00142463 0.00153584 0.00152477 0.0016351 0.00142463 0.00153584 0.00152477 0.0016351 0
0.00161204 0.00171219 0.00171095 0.00181097 0.00161204 0.00171219 0.00171095 0.00181097 0
0.00179628 0.00192929 0.00189642 0.0020332 0.00179628 0.00192929 0.00189642 0.0020332 0
0.000690923 0.000687815 0.000760786 0.000749338 0.000690923 0.000687815 0.000760786 0.000749338 0
0.000701004 0.000741786 0.000761065 0.000806158 0.000701004 0.000741786 0.000761065 0.000806158 0
0.000768269 0.000801713 0.000837554 0.000880067 0.000768269 0.000801713 0.000837554 0.000880067 0
0.000827704 0.000867376 0.000910387 0.00095277 0.000827704 0.000867376 0.000910387 0.00095277 0
0.000898082 0.000944652 0.000985622 0.00103529 0.000898082 0.000944652 0.000985622 0.00103529 0
0.00098264 0.00104246 0.00107612 0.00114053 0.00098264 0.00104246 0.00107612 0.00114053 0
0.00109255 0.00117243 0.00119383 0.00127783 0.00109255 0.00117243 0.00119383 0.00127783 0
0.00124095 0.00135142 0.00134818 0.00145941 0.00124095 0.00135142 0.00134818 0.00145941 0
0.00142454 0.00151725 0.00153484 0.00163301 0.00142454 0.00151725 0.00153484 0.00163301 0
0.00159725 0.00172673 0.00171561 0.00184664 0.00159725 0.00172673 0.00171561 0.00184664 0
0.000563009 0.000588931 0.000637782 0.000644675 0.000563009 0.000588931 0.000637782 0.000644675 0
0.00060433 0.000622204 0.000658832 0.000692308 0.00060433 0.000622204 0.000658832 0.000692308 0
0.000635147 0.0006546 0.000713831 0.000741082 0.000635147 0.0006546 0.000713831 0.000741082 0
0.000672518 0.000704225 0.000763733 0.000800529 0.000672518 0.000704225 0.000763733 0.000800529 0
0.000729345 0.000768724 0.000829145 0.00087294 0.000729345 0.000768724 0.000829145 0.00087294 0
0.000799811 0.000848089 0.000908297 0.000963775 0.000799811 0.000848089 0.000908297 0.000963775 0
0.000889963 0.000959097 0.00101078 0.00108666 0.000889963 0.000959097 0.00101078 0.00108666 0
0.00101166 0.00108942 0.0011504 0.00125187 0.00101166 0.00108942 0.0011504 0.00125187 0
0.00115451 0.00125816 0.0013222 0.00141636 0.00115451 0.00125816 0.0013222 0.00141636 0
0.000413908 0.000465584 0.000502879 0.000540787 0.000413908 0.000465584 0.000502879 0.000540787 0
0.000472319 0.000440836 0.000554185 0.00055464 0.000472319 0.000440836 0.000554185 0.00055464 0
0.000430593 0.000436156 0.000559057 0.000572685 0.000430593 0.000436156 0.000559057 0.000572685 0
0.00045682 0.000510041 0.000590053 0.000626148 0.00045682 0.000510041 0.000590053 0.000626148 0
0.000550534 0.000610533 0.000654431 0.000698136 0.000550534 0.000610533 0.000654431 0.000698136 0
0.000653779 0.000714787 0.000731316 0.000781058 0.000653779 0.000714787 0.000731316 0.000781058 0
0.000761278 0.000830426 0.000822774 0.000890085 0.000761278 0.000830426 0.000822774 0.000890085 0
0.000873009 0.000923642 0.00093695 0.00100106 0.000873009 0.000923642 0.00093695 0.00100106 0
0 0 0 0 0 0 0 0 0
0 0 0 0 0 0 0 0 0
0 0 0 0 0 0 0 0 0
0 0 0 0 0 0 0 0 0
0 0 0 0 0 0 0 0 0
0 0 0 0 0 0 0 0 0
0 0 0 0 0 0 0 0 0
0 0 0 0 0 0 0 0 0
0 0 0 0 0 0 0 0 0
0 0 0 0 0 0 0 0 0
0 0 0 0 0 0 0 0 0
0 0 0 0 0 0 0 0 0
0 0 0 0 0 0 0 0 0
0 0 0 0 0 0 0 0 0
0 0 0 0 0 0 0 0 0
0 0 0 0 0 0 0 0 0
0 0 0 0 0 0 0 0 0
0 0 0 0 0 0 0 0 0
0 0 0 0 0 0 0 0 0
0 0 0 0 0 0 0 0 0
0 0 0 0 0 0 0 0 0
0 0 0 0 0 0 0 0 0
0 0 0 0 0 0 0 0 0
0 0 0 0 0 0 0 0 0
0 0 0 0 0 0 0 0 0
0 0 0 0 0 0 0 0 0
0 0 0 0 0 0 0 0 0
0 0 0 0 0 0 0 0 0
0 0 0 0 0 0 0 0 0
0 0 0 0 0 0 0 0 0
0 0 0 0 0 0 0 0 0
0 0 0 0 0 0 0 0 0
0 0 0 0 0 0 0 0 0
0 0 0 0 0 0 0 0 0
0 0 0 0 0 0 0 0 0
0 0 0 0 0 0 0 0 0
0 0 0 0 0 0 0 0 0
0 0 0 0 0 0 0 0 0
0 0 0 0 0 0 0 0 0
0 0 0 0 0 0 0 0 0
0 0 0 0 0 0 0 0 0
0 0 0 0 0 0 0 0 0
0 0 0 0 0 0 0 0 0
0 0 0 0 0 0 0 0 0
0 0 0 0 0 0 0 0 0
0 0 0 0 0 0 0 0 0
0 0 0 0 0 0 0 0 0
0 0 0 0 0 0 0 0 0
0 0 0 0 0 0 0 0 0
0 0 0 0 0 0 0 0 0
0 0 0 0 0 0 0 0 0
0 0 0 0 0 0 0 0 0
0 0 0 0 0 0 0 0 0
0 0 0 0 0 0 0 0 0
0 0 0 0 0 0 0 0 0
0 0 0 0 0 0 0 0 0
0 0 0 0 0 0 0 0 0
0 0 0 0 0 0 0 0 0
0 0 0 0 0 0 0 0 0
0 0 0 0 0 0 0 0 0
0 0 0 0 0 0 0 0 0
0 0 0 0 0 0 0 0 0
0 0 0 0 0 0 0 0 0
0 0 0 0 0 0 0 0 0
0 0 0 0 0 0 0 0 0
0 0 0 0 0 0 0 0 0
0 0 0 0 0 0 0 0 0
0 0 0 0 0 0 0 0 0
0 0 0 0 0 0 0 0 0
0 0 0 0 0 0 0 0 0
0 0 0 0 0 0 0 0 0
0 0 0 0 0 0 0 0 0
0 0 0 0 0 0 0 0 0
0 0 0 0 0 0 0 0 0
0 0 0 0 0 0 0 0 0
0 0 0 0 0 0 0 0 0
0 0 0 0 0 0 0 0 0
0 0 0 0 0 0 0 0 0
0 0 0 0 0 0 0 0 0
0.00122079 0.00124619 0.00133711 0.00134455 0.00122079 0.00124619 0.00133711 0.00134455 0
0.00127898 0.00134509 0.00135332 0.00137173 0.00127898 0.00134509 0.00135332 0.00137173 0
0.00141478 0.00154118 0.00141743 0.0015259 0.00141478 0.00154118 0.00141743 0.0015259 0
0.00162085 0.00171437 0.00162803 0.00180079 0.00162085 0.00171437 0.00162803 0.00180079 0
0.00176386 0.00180796 0.00187867 0.00192103 0.00176386 0.00180796 0.00187867 0.00192103 0
0.00103488 0.00113283 0.00110022 0.0011639 0.00103488 0.00113283 0.00110022 0.0011639 0
0.00116256 0.00114737 0.00118042 0.00116337 0.00116256 0.00114737 0.00118042 0.00116337 0
0.00113085 0.00110264 0.00115447 0.00114886 0.00113085 0.00110264 0.00115447 0.00114886 0
0.00109828 0.00111648 0.00115649 0.00118475 0.00109828 0.00111648 0.00115649 0.00118475 0
0.00115447 0.00124212 0.00122534 0.00130999 0.00115447 0.00124212 0.00122534 0.00130999 0
0.00131137 0.00141516 0.00138597 0.0015111 0.00131137 0.00141516 0.00138597 0.0015111 0
0.00147184 0.00152534 0.00157856 0.0016401 0.00147184 0.00152534 0.00157856 0.0016401 0
0.0015624 0.00161274 0.00167861 0.00172483 0.0015624 0.00161274 0.00167861 0.00172483 0
0.000797399 0.000865634 0.00085354 0.000923631 0.000797399 0.000865634 0.00085354 0.000923631 0
0.000911755 0.000970965 0.00098418 0.00108092 0.000911755 0.000970965 0.00098418 0.00108092 0
0.000992303 0.000993005 0.00111192 0.00110147 0.000992303 0.000993005 0.00111192 0.00110147 0
0.000987491 0.000973552 0.00108584 0.00105538 0.000987491 0.000973552 0.00108584 0.00105538 0
0.000977875 0.00100565 0.00105011 0.00106816 0.000977875 0.00100565 0.00105011 0.00106816 0
0.00104379 0.00112241 0.00110546 0.00119149 0.00104379 0.00112241 0.00110546 0.00119149 0
0.00117927 0.00125836 0.00125558 0.00134702 0.00117927 0.00125836 0.00125558 0.00134702 0
0.00130356 0.00135054 0.00139771 0.00144728 0.00130356 0.00135054 0.00139771 0.00144728 0
0.00138393 0.00143094 0.00148294 0.00153347 0.00138393 0.00143094 0.00148294 0.00153347 0
0.000560865 0.000593454 0.000656632 0.000697889 0.000560865 0.000593454 0.000656632 0.000697889 0
0.000628144 0.000691673 0.000736837 0.000803302 0.000628144 0.000691673 0.000736837 0.000803302 0
0.000729992 0.00077268 0.000843449 0.000888163 0.000729992 0.00077268 0.000843449 0.000888163 0
0.000793327 0.000808785 0.000906701 0.00091433 0.000793327 0.000808785 0.000906701 0.00091433 0
0.00081642 0.000823765 0.000915028 0.000911204 0.00081642 0.000823765 0.000915028 0.000911204 0
0.000838812 0.000874724 0.000920946 0.000953488 0.000838812 0.000874724 0.000920946 0.000953488 0
0.000910985 0.000976492 0.00099132 0.00106443 0.000910985 0.000976492 0.00099132 0.00106443 0
0.00102426 0.00109181 0.00111688 0.00118956 0.00102426 0.00109181 0.00111688 0.00118956 0
0.00113209 0.00117734 0.00123194 0.00127774 0.00113209 0.00117734 0.00123194 0.00127774 0
0.00122012 0.00129471 0.00131301 0.00136644 0.00122012 0.00129471 0.00131301 0.00136644 0
0.000448709 0.000423453 0.000505012 0.000519767 0.000448709 0.000423453 0.000505012 0.000519767 0
0.00043914 0.000508684 0.000548208 0.00061255 0.00043914 0.000508684 0.000548208 0.00061255 0
0.000546717 0.000582714 0.000650283 0.000690621 0.000546717 0.000582714 0.000650283 0.000690621 0
0.000604198 0.000628735 0.000712038 0.00073201 0.000604198 0.000628735 0.000712038 0.00073201 0
0.000644427 0.000664816 0.000743642 0.000757459 0.000644427 0.000664816 0.000743642 0.000757459 0
0.000685403 0.000723536 0.000775389 0.000812782 0.000685403 0.000723536 0.000775389 0.000812782 0
0.000757295 0.000813889 0.000847926 0.000908989 0.000757295 0.000813889 0.000847926 0.000908989 0
0.000857028 0.000921006 0.000954234 0.00101944 0.000857028 0.000921006 0.000954234 0.00101944 0
0.000959393 0.00100322 0.00105861 0.00110331 0.000959393 0.00100322 0.00105861 0.00110331 0
0.0010477 0.00112855 0.00114853 0.00123045 0.0010477 0.00112855 0.00114853 0.00123045 0
0.000350729 0.000297588 0.000407226 0.000363766 0.000350729 0.000297588 0.000407226 0.000363766 0
0.000296214 0.000347113 0.000371449 0.000437377 0.000296214 0.000347113 0.000371449 0.000437377 0
0.000376875 0.000409015 0.000473258 0.000507045 0.000376875 0.000409015 0.000473258 0.000507045 0
0.000429622 0.000455728 0.000528293 0.000554459 0.000429622 0.000455728 0.000528293 0.000554459 0
0.000474228 0.000500836 0.00057197 0.00059577 0.000474228 0.000500836 0.00057197 0.00059577 0
0.000522802 0.000558609 0.000617417 0.000655108 0.000522802 0.000558609 0.000617417 0.000655108 0
0.000588556 0.000637204 0.00068745 0.000740699 0.000588556 0.000637204 0.00068745 0.000740699 0
0.000677984 0.000743623 0.000782614 0.000846691 0.000677984 0.000743623 0.000782614 0.000846691 0
0.000785459 0.000837227 0.00088576 0.000931463 0.000785459 0.000837227 0.00088576 0.000931463 0
0.00088405 0.000963542 0.000976343 0.00105652 0.00088405 0.000963542 0.000976343 0.00105652 0
0.000236247 0.00019255 0.000304774 0.000251558 0.000236247 0.00019255 0.000304774 0.000251558 0
0.000186273 0.000214417 0.000246428 0.000287189 0.000186273 0.000214417 0.000246428 0.000287189 0
0.000231176 0.000250637 0.000311812 0.0003401 0.000231176 0.000250637 0.000311812 0.0003401 0
0.000266054 0.000290758 0.000359128 0.000384827 0.000266054 0.000290758 0.000359128 0.000384827 0
0.00030874 0.000335443 0.000403433 0.000430803 0.00030874 0.000335443 0.000403433 0.000430803 0
0.000354938 0.000384022 0.000452171 0.000485656 0.000354938 0.000384022 0.000452171 0.000485656 0
0.000407802 0.000446466 0.000513284 0.000558006 0.000407802 0.000446466 0.000513284 0.000558006 0
0.000483279 0.000548225 0.000597392 0.000663245 0.000483279 0.000548225 0.000597392 0.000663245 0
0.000595019 0.00066121 0.000707121 0.000764359 0.000595019 0.00066121 0.000707121 0.000764359 0
0.000708334 0.000774416 0.000811752 0.000887447 0.000708334 0.000774416 0.000811752 0.000887447 0
0.000109958 0.000104094 0.000183907 0.000152886 0.000109958 0.000104094 0.000183907 0.000152886 0
9.97338e-05 9.53598e-05 0.000146801 0.000162839 9.97338e-05 9.53598e-05 0.000146801 0.000162839 0
9.54291e-05 0.000101901 0.000173003 0.000186606 9.54291e-05 0.000101901 0.000173003 0.000186606 0
0.000111137 0.000132041 0.000199382 0.000222788 0.000111137 0.000132041 0.000199382 0.000222788 0
0.000146619 0.00016793 0.000239671 0.000264736 0.000146619 0.00016793 0.000239671 0.000264736 0
0.000181196 0.000198771 0.000282039 0.000306844 0.000181196 0.000198771 0.000282039 0.000306844 0
0.000213326 0.000238435 0.000327097 0.000360488 0.000213326 0.000238435 0.000327097 0.000360488 0
0.000260226 0.000297833 0.000392565 0.000449925 0.000260226 0.000297833 0.000392565 0.000449925 0
0.000336749 0.000408921 0.000495367 0.000565541 0.000336749 0.000408921 0.000495367 0.000565541 0
-2.86003e-05 -9.0895e-06 5.28819e-05 6.05458e-05 -2.86003e-05 -9.0895e-06 5.28819e-05 6.05458e-05 0
-2.47747e-05 -8.53965e-05 5.36007e-05 2.86737e-05 -2.47747e-05 -8.53965e-05 5.36007e-05 2.86737e-05 0
-0.000118491 -0.000146283 1.71375e-05 1.25057e-05 -0.000118491 -0.000146283 1.71375e-05 1.25057e-05 0
-0.000145958 -0.000115018 1.83883e-05 4.12976e-05 -0.000145958 -0.000115018 1.83883e-05 4.12976e-05 0
-9.05182e-05 -5.20111e-05 5.78977e-05 8.27967e-05 -9.05182e-05 -5.20111e-05 5.78977e-05 8.27967e-05 0
-2.6049e-05 9.1471e-06 9.83618e-05 0.000118705 -2.6049e-05 9.1471e-06 9.83618e-05 0.000118705 0
3.12578e-05 5.95169e-05 0.000133737 0.000157453 3.12578e-05 5.95169e-05 0.000133737 0.000157453 0
7.77466e-05 0.000102635 0.000175504 0.000204392 7.77466e-05 0.000102635 0.000175504 0.000204392 0
0 0 0 0 0 0 0 0 0
0 0 0 0 0 0 0 0 0
0 0 0 0 0 0 0 0 0
0 0 0 0 0 0 0 0 0
0 0 0 0 0 0 0 0 0
0 0 0 0 0 0 0 0 0
0 0 0 0 0 0 0 0 0
0 0 0 0 0 0 0 0 0
0 0 0 0 0 0 0 0 0
0 0 0 0 0 0 0 0 0
0 0 0 0 0 0 0 0 0
0 0 0 0 0 0 0 0 0
0 0 0 0 0 0 0 0 0
0 0 0 0 0 0 0 0 0
0 0 0 0 0 0 0 0 0
0 0 0 0 0 0 0 0 0
0 0 0 0 0 0 0 0 0
0 0 0 0 0 0 0 0 0
0 0 0 0 0 0 0 0 0
0 0 0 0 0 0 0 0 0
0 0 0 0 0 0 0 0 0
0 0 0 0 0 0 0 0 0
0 0 0 0 0 0 0 0 0
0 0 0 0 0 0 0 0 0
0 0 0 0 0 0 0 0 0
0 0 0 0 0 0 0 0 0
0 0 0 0 0 0 0 0 0
0 0 0 0 0 0 0 0 0
0 0 0 0 0 0 0 0 0
0 0 0 0 0 0 0 0 0
0 0 0 0 0 0 0 0 0
0 0 0 0 0 0 0 0 0
0 0 0 0 0 0 0 0 0
0 0 0 0 0 0 0 0 0
0 0 0 0 0 0 0 0 0
0 0 0 0 0 0 0 0 0
0 0 0 0 0 0 0 0 0
0 0 0 0 0 0 0 0 0
0 0 0 0 0 0 0 0 0
0 0 0 0 0 0 0 0 0
0 0 0 0 0 0 0 0 0
0 0 0 0 0 0 0 0 0
0 0 0 0 0 0 0 0 0
0 0 0 0 0 0 0 0 0
0 0 0 0 0 0 0 0 0
0 0 0 0 0 0 0 0 0
0 0 0 0 0 0 0 0 0
0 0 0 0 0 0 0 0 0
0 0 0 0 0 0 0 0 0
0 0 0 0 0 0 0 0 0
0 0 0 0 0 0 0 0 0
0 0 0 0 0 0 0 0 0
0 0 0 0 0 0 0 0 0
0 0 0 0 0 0 0 0 0
0 0 0 0 0 0 0 0 0
0 0 0 0 0 0 0 0 0
0 0 0 0 0 0 0 0 0
0 0 0 0 0 0 0 0 0
0 0 0 0 0 0 0 0 0
0 0 0 0 0 0 0 0 0
0 0 0 0 0 0 0 0 0
0 0 0 0 0 0 0 0 0
0 0 0 0 0 0 0 0 0
0 0 0 0 0 0 0 0 0
0 0 0 0 0 0 0 0 0
0 0 0 0 0 0 0 0 0
0 0 0 0 0 0 0 0 0
0 0 0 0 0 0 0 0 0
0 0 0 0 0 0 0 0 0
0 0 0 0 0 0 0 0 0
0 0 0 0 0 0 0 0 0
0 0 0 0 0 0 0 0 0
0 0 0 0 0 0 0 0 0
0 0 0 0 0 0 0 0 0
0 0 0 0 0 0 0 0 0
0 0 0 0 0 0 0 0 0
0 0 0 0 0 0 0 0 0
0 0 0 0 0 0 0 0 0
0 0 0 0 0 0 0 0 0
0 0 0 0 0 0 0 0 0
0 0 0 0 0 0 0 0 0
0 0 0 0 0 0 0 0 0
0 0 0 0 0 0 0 0 0
0 0 0 0 0 0 0 0 0
0 0 0 0 0 0 0 0 0
0 0 0 0 0 0 0 0 0
0 0 0 0 0 0 0 0 0
0 0 0 0 0 0 0 0 0
0 0 0 0 0 0 0 0 0
0 0 0 0 0 0 0 0 0
0 0 0 0 0 0 0 0 0
0 0 0 0 0 0 0 0 0
0 0 0 0 0 0 0 0 0
0 0 0 0 0 0 0 0 0
0 0 0 0 0 0 0 0 0
0 0 0 0 0 0 0 0 0
0 0 0 0 0 0 0 0 0
0 0 0 0 0 0 0 0 0
0 0 0 0 0 0 0 0 0
0 0 0 0 0 0 0 0 0
0 0 0 0 0 0 0 0 0
0 0 0 0 0 0 0 0 0
0 0 0 0 0 0 0 0 0
0 0 0 0 0 0 0 0 0
0 0 0 0 0 0 0 0 0
0 0 0 0 0 0 0 0 0
0 0 0 0 0 0 0 0 0
0 0 0 0 0 0 0 0 0
0 0 0 0 0 0 0 0 0
0 0 0 0 0 0 0 0 0
0 0 0 0 0 0 0 0 0
0 0 0 0 0 0 0 0 0
0 0 0 0 0 0 0 0 0
0 0 0 0 0 0 0 0 0
0 0 0 0 0 0 0 0 0
0 0 0 0 0 0 0 0 0
0 0 0 0 0 0 0 0 0
0 0 0 0 0 0 0 0 0
0 0 0 0 0 0 0 0 0
0 0 0 0 0 0 0 0 0
0 0 0 0 0 0 0 0 0
0 0 0 0 0 0 0 0 0
0 0 0 0 0 0 0 0 0
0 0 0 0 0 0 0 0 0
0 0 0 0 0 0 0 0 0
0 0 0 0 0 0 0 0 0
0 0 0 0 0 0 0 0 0
0 0 0 0 0 0 0 0 0
0 0 0 0 0 0 0 0 0
0 0 0 0 0 0 0 0 0
0 0 0 0 0 0 0 0 0
0 0 0 0 0 0 0 0 0
0 0 0 0 0 0 0 0 0
0 0 0 0 0 0 0 0 0
0 0 0 0 0 0 0 0 0
0 0 0 0 0 0 0 0 0
0 0 0 0 0 0 0 0 0
0 0 0 0 0 0 0 0 0
0 0 0 0 0 0 0 0 0
0 0 0 0 0 0 0 0 0
0 0 0 0 0 0 0 0 0
0 0 0 0 0 0 0 0 0
0 0 0 0 0 0 0 0 0
0 0 0 0 0 0 0 0 0
0 0 0 0 0 0 0 0 0
0 0 0 0 0 0 0 0 0
0 0 0 0 0 0 0 0 0
0 0 0 0 0 0 0 0 0
0 0 0 0 0 0 0 0 0
0 0 0 0 0 0 0 0 0
0 0 0 0 0 0 0 0 0
0 0 0 0 0 0 0 0 0
0 0 0 0 0 0 0 0 0
0 0 0 0 0 0 0 0 0
0 0 0 0 0 0 0 0 0
0 0 0 0 0 0 0 0 0
0 0 0 0 0 0 0 0 0
0 0 0 0 0 0 0 0 0
0 0 0 0 0 0 0 0 0
0 0 0 0 0 0 0 0 0
0 0 0 0 0 0 0 0 0
0 0 0 0 0 0 0 0 0
0 0 0 0 0 0 0 0 0
0 0 0 0 0 0 0 0 0
0 0 0 0 0 0 0 0 0
0 0 0 0 0 0 0 0 0
0 0 0 0 0 0 0 0 0
0 0 0 0 0 0 0 0 0
0 0 0 0 0 0 0 0 0
0 0 0 0 0 0 0 0 0
0 0 0 0 0 0 0 0 0
0 0 0 0 0 0 0 0 0
0 0 0 0 0 0 0 0 0
0 0 0 0 0 0 0 0 0
0 0 0 0 0 0 0 0 0
0 0 0 0 0 0 0 0 0
0 0 0 0 0 0 0 0 0
0 0 0 0 0 0 0 0 0
0 0 0 0 0 0 0 0 0
0 0 0 0 0 0 0 0 0
0 0 0 0 0 0 0 0 0
0 0 0 0 0 0 0 0 0
0 0 0 0 0 0 0 0 0
0 0 0 0 0 0 0 0 0
0 0 0 0 0 0 0 0 0
0 0 0 0 0 0 0 0 0
0 0 0 0 0 0 0 0 0
0 0 0 0 0 0 0 0 0
0 0 0 0 0 0 0 0 0
0 0 0 0 0 0 0 0 0
0 0 0 0 0 0 0 0 0
0 0 0 0 0 0 0 0 0
0 0 0 0 0 0 0 0 0
0 0 0 0 0 0 0 0 0
0 0 0 0 0 0 0 0 0
0 0 0 0 0 0 0 0 0
0 0 0 0 0 0 0 0 0
0 0 0 0 0 0 0 0 0
0 0 0 0 0 0 0 0 0
0 0 0 0 0 0 0 0 0
0 0 0 0 0 0 0 0 0
0 0 0 0 0 0 0 0 0
0 0 0 0 0 0 0 0 0
0 0 0 0 0 0 0 0 0
0 0 0 0 0 0 0 0 0
0 0 0 0 0 0 0 0 0
0 0 0 0 0 0 0 0 0
0 0 0 0 0 0 0 0 0
0 0 0 0 0 0 0 0 0
0 0 0 0 0 0 0 0 0
0 0 0 0 0 0 0 0 0
0 0 0 0 0 0 0 0 0
0 0 0 0 0 0 0 0 0
0 0 0 0 0 0 0 0 0
0 0 0 0 0 0 0 0 0
0 0 0 0 0 0 0 0 0
0 0 0 0 0 0 0 0 0
0 0 0 0 0 0 0 0 0
0 0 0 0 0 0 0 0 0
0 0 0 0 0 0 0 0 0
0 0 0 0 0 0 0 0 0
0 0 0 0 0 0 0 0 0
0 0 0 0 0 0 0 0 0
0 0 0 0 0 0 0 0 0
0 0 0 0 0 0 0 0 0
0 0 0 0 0 0 0 0 0
0 0 0 0 0 0 0 0 0
0 0 0 0 0 0 0 0 0
0 0 0 0 0 0 0 0 0
0 0 0 0 0 0 0 0 0
0 0 0 0 0 0 0 0 0
0 0 0 0 0 0 0 0 0
0 0 0 0 0 0 0 0 0
0 0 0 0 0 0 0 0 0
0 0 0 0 0 0 0 0 0
0 0 0 0 0 0 0 0 0
0 0 0 0 0 0 0 0 0
0 0 0 0 0 0 0 0 0
0 0 0 0 0 0 0 0 0
0 0 0 0 0 0 0 0 0
0 0 0 0 0 0 0 0 0
0 0 0 0 0 0 0 0 0
0 0 0 0 0 0 0 0 0
0 0 0 0 0 0 0 0 0
0 0 0 0 0 0 0 0 0
0 0 0 0 0 0 0 0 0
0 0 0 0 0 0 0 0 0
0 0 0 0 0 0 0 0 0
0 0 0 0 0 0 0 0 0
0 0 0 0 0 0 0 0 0
0 0 0 0 0 0 0 0 0
0 0 0 0 0 0 0 0 0
0 0 0 0 0 0 0 0 0
0 0 0 0 0 0 0 0 0
0 0 0 0 0 0 0 0 0
0 0 0 0 0 0 0 0 0
0 0 0 0 0 0 0 0 0
0 0 0 0 0 0 0 0 0
0 0 0 0 0 0 0 0 0
0 0 0 0 0 0 0 0 0
0 0 0 0 0 0 0 0 0
0 0 0 0 0 0 0 0 0
0 0 0 0 0 0 0 0 0
0 0 0 0 0 0 0 0 0
0 0 0 0 0 0 0 0 0
0 0 0 0 0 0 0 0 0
0 0 0 0 0 0 0 0 0
0 0 0 0 0 0 0 0 0
0 0 0 0 0 0 0 0 0
0 0 0 0 0 0 0 0 0
0 0 0 0 0 0 0 0 0
0 0 0 0 0 0 0 0 0
0 0 0 0 0 0 0 0 0
0 0 0 0 0 0 0 0 0
0 0 0 0 0 0 0 0 0
0 0 0 0 0 0 0 0 0
0 0 0 0 0 0 0 0 0
0 0 0 0 0 0 0 0 0
0 0 0 0 0 0 0 0 0
0 0 0 0 0 0 0 0 0
0 0 0 0 0 0 0 0 0
0 0 0 0 0 0 0 0 0
0 0 0 0 0 0 0 0 0
0 0 0 0 0 0 0 0 0
0 0 0 0 0 0 0 0 0
0 0 0 0 0 0 0 0 0
0 0 0 0 0 0 0 0 0
0 0 0 0 0 0 0 0 0
0 0 0 0 0 0 0 0 0
0 0 0 0 0 0 0 0 0
0 0 0 0 0 0 0 0 0
0 0 0 0 0 0 0 0 0
0 0 0 0 0 0 0 0 0
0 0 0 0 0 0 0 0 0
0 0 0 0 0 0 0 0 0
0 0 0 0 0 0 0 0 0
0 0 0 0 0 0 0 0 0
0 0 0 0 0 0 0 0 0
0 0 0 0 0 0 0 0 0
0 0 0 0 0 0 0 0 0
0 0 0 0 0 0 0 0 0
0 0 0 0 0 0 0 0 0
0 0 0 0 0 0 0 0 0
0 0 0 0 0 0 0 0 0
0 0 0 0 0 0 0 0 0
0 0 0 0 0 0 0 0 0
0 0 0 0 0 0 0 0 0
0 0 0 0 0 0 0 0 0
0 0 0 0 0 0 0 0 0
0 0 0 0 0 0 0 0 0
0 0 0 0 0 0 0 0 0
0 0 0 0 0 0 0 0 0
0 0 0 0 0 0 0 0 0
0 0 0 0 0 0 0 0 0
0 0 0 0 0 0 0 0 0
0 0 0 0 0 0 0 0 0
0 0 0 0 0 0 0 0 0
0 0 0 0 0 0 0 0 0
0 0 0 0 0 0 0 0 0
0 0 0 0 0 0 0 0 0
0 0 0 0 0 0 0 0 0
0 0 0 0 0 0 0 0 0
0 0 0 0 0 0 0 0 0
0 0 0 0 0 0 0 0 0
0 0 0 0 0 0 0 0 0
0 0 0 0 0 0 0 0 0
0 0 0 0 0 0 0 0 0
0 0 0 0 0 0 0 0 0
0 0 0 0 0 0 0 0 0
0 0 0 0 0 0 0 0 0
0 0 0 0 0 0 0 0 0
0 0 0 0 0 0 0 0 0
0 0 0 0 0 0 0 0 0
0 0 0 0 0 0 0 0 0
0 0 0 0 0 0 0 0 0
0 0 0 0 0 0 0 0 0
0 0 0 0 0 0 0 0 0
0 0 0 0 0 0 0 0 0
0 0 0 0 0 0 0 0 0
0 0 0 0 0 0 0 0 0
0 0 0 0 0 0 0 0 0
0 0 0 0 0 0 0 0 0
0 0 0 0 0 0 0 0 0
0 0 0 0 0 0 0 0 0
0 0 0 0 0 0 0 0 0
0 0 0 0 0 0 0 0 0
0 0 0 0 0 0 0 0 0
0 0 0 0 0 0 0 0 0
0 0 0 0 0 0 0 0 0
0 0 0 0 0 0 0 0 0
0 0 0 0 0 0 0 0 0
0 0 0 0 0 0 0 0 0
0 0 0 0 0 0 0 0 0
0 0 0 0 0 0 0 0 0
0 0 0 0 0 0 0 0 0
0 0 0 0 0 0 0 0 0
0 0 0 0 0 0 0 0 0
0 0 0 0 0 0 0 0 0
0 0 0 0 0 0 0 0 0
0 0 0 0 0 0 0 0 0
0 0 0 0 0 0 0 0 0
0 0 0 0 0 0 0 0 0
0 0 0 0 0 0 0 0 0
0 0 0 0 0 0 0 0 0
0 0 0 0 0 0 0 0 0
0 0 0 0 0 0 0 0 0
0 0 0 0 0 0 0 0 0
0 0 0 0 0 0 0 0 0
0 0 0 0 0 0 0 0 0
0 0 0 0 0 0 0 0 0
0 0 0 0 0 0 0 0 0
0 0 0 0 0 0 0 0 0
0 0 0 0 0 0 0 0 0
0 0 0 0 0 0 0 0 0
0 0 0 0 0 0 0 0 0
0 0 0 0 0 0 0 0 0
0 0 0 0 0 0 0 0 0
0 0 0 0 0 0 0 0 0
0 0 0 0 0 0 0 0 0
0 0 0 0 0 0 0 0 0
0 0 0 0 0 0 0 0 0
0 0 0 0 0 0 0 0 0
0 0 0 0 0 0 0 0 0
0 0 0 0 0 0 0 0 0
0 0 0 0 0 0 0 0 0
0 0 0 0 0 0 0 0 0
0 0 0 0 0 0 0 0 0
0 0 0 0 0 0 0 0 0
0 0 0 0 0 0 0 0 0
0 0 0 0 0 0 0 0 0
0 0 0 0 0 0 0 0 0
0 0 0 0 0 0 0 0 0
0 0 0 0 0 0 0 0 0
0 0 0 0 0 0 0 0 0
0 0 0 0 0 0 0 0 0
SCALARS tauS double 9
LOOKUP_TABLE default
0 0 0 0 0 0 0 0 0
0 0 0 0 0 0 0 0 0
0 0 0 0 0 0 0 0 0
0 0 0 0 0 0 0 0 0
0 0 0 0 0 0 0 0 0
0 0 0 0 0 0 0 0 0
0 0 0 0 0 0 0 0 0
0 0 0 0 0 0 0 0 0
0 0 0 0 0 0 0 0 0
0 0 0 0 0 0 0 0 0
0 0 0 0 0 0 0 0 0
0 0 0 0 0 0 0 0 0
0 0 0 0 0 0 0 0 0
0 0 0 0 0 0 0 0 0
0 0 0 0 0 0 0 0 0
0 0 0 0 0 0 0 0 0
0 0 0 0 0 0 0 0 0
0 0 0 0 0 0 0 0 0
0 0 0 0 0 0 0 0 0
0 0 0 0 0 0 0 0 0
0 0 0 0 0 0 0 0 0
0 0 0 0 0 0 0 0 0
0 0 0 0 0 0 0 0 0
0 0 0 0 0 0 0 0 0
0 0 0 0 0 0 0 0 0
0 0 0 0 0 0 0 0 0
0 0 0 0 0 0 0 0 0
0 0 0 0 0 0 0 0 0
0 0 0 0 0 0 0 0 0
0 0 0 0 0 0 0 0 0
0 0 0 0 0 0 0 0 0
0 0 0 0 0 0 0 0 0
0 0 0 0 0 0 0 0 0
0 0 0 0 0 0 0 0 0
0 0 0 0 0 0 0 0 0
0 0 0 0 0 0 0 0 0
0 0 0 0 0 0 0 0 0
0 0 0 0 0 0 0 0 0
0 0 0 0 0 0 0 0 0
0 0 0 0 0 0 0 0 0
0 0 0 0 0 0 0 0 0
0 0 0 0 0 0 0 0 0
0 0 0 0 0 0 0 0 0
0 0 0 0 0 0 0 0 0
0 0 0 0 0 0 0 0 0
0 0 0 0 0 0 0 0 0
0 0 0 0 0 0 0 0 0
0 0 0 0 0 0 0 0 0
0 0 0 0 0 0 0 0 0
0 0 0 0 0 0 0 0 0
0 0 0 0 0 0 0 0 0
0 0 0 0 0 0 0 0 0
0 0 0 0 0 0 0 0 0
0 0 0 0 0 0 0 0 0
0 0 0 0 0 0 0 0 0
0 0 0 0 0 0 0 0 0
0 0 0 0 0 0 0 0 0
0 0 0 0 0 0 0 0 0
0 0 0 0 0 0 0 0 0
0 0 0 0 0 0 0 0 0
0 0 0 0 0 0 0 0 0
0 0 0 0 0 0 0 0 0
0 0 0 0 0 0 0 0 0
0 0 0 0 0 0 0 0 0
0 0 0 0 0 0 0 0 0
0 0 0 0 0 0 0 0 0
0 0 0 0 0 0 0 0 0
0 0 0 0 0 0 0 0 0
0 0 0 0 0 0 0 0 0
0 0 0 0 0 0 0 0 0
0 0 0 0 0 0 0 0 0
0 0 0 0 0 0 0 0 0
0 0 0 0 0 0 0 0 0
0 0 0 0 0 0 0 0 0
0 0 0 0 0 0 0 0 0
0 0 0 0 0 0 0 0 0
0 0 0 0 0 0 0 0 0
0 0 0 0 0 0 0 0 0
0 0 0 0 0 0 0 0 0
0 0 0 0 0 0 0 0 0
0 0 0 0 0 0 0 0 0
0 0 0 0 0 0 0 0 0
0 0 0 0 0 0 0 0 0
0 0 0 0 0 0 0 0 0
0 0 0 0 0 0 0 0 0
0 0 0 0 0 0 0 0 0
0 0 0 0 0 0 0 0 0
0 0 0 0 0 0 0 0 0
0 0 0 0 0 0 0 0 0
0 0 0 0 0 0 0 0 0
0 0 0 0 0 0 0 0 0
0 0 0 0 0 0 0 0 0
0 0 0 0 0 0 0 0 0
0 0 0 0 0 0 0 0 0
0 0 0 0 0 0 0 0 0
0 0 0 0 0 0 0 0 0
0 0 0 0 0 0 0 0 0
0 0 0 0 0 0 0 0 0
0 0 0 0 0 0 0 0 0
0 0 0 0 0 0 0 0 0
0 0 0 0 0 0 0 0 0
0 0 0 0 0 0 0 0 0
0 0 0 0 0 0 0 0 0
0 0 0 0 0 0 0 0 0
0 0 0 0 0 0 0 0 0
0 0 0 0 0 0 0 0 0
0 0 0 0 0 0 0 0 0
0 0 0 0 0 0 0 0 0
0 0 0 0 0 0 0 0 0
0 0 0 0 0 0 0 0 0
0 0 0 0 0 0 0 0 0
0 0 0 0 0 0 0 0 0
0 0 0 0 0 0 0 0 0
0 0 0 0 0 0 0 0 0
0 0 0 0 0 0 0 0 0
0 0 0 0 0 0 0 0 0
0 0 0 0 0 0 0 0 0
0 0 0 0 0 0 0 0 0
0 0 0 0 0 0 0 0 0
0 0 0 0 0 0 0 0 0
0 0 0 0 0 0 0 0 0
0 0 0 0 0 0 0 0 0
0 0 0 0 0 0 0 0 0
0 0 0 0 0 0 0 0 0
0 0 0 0 0 0 0 0 0
0 0 0 0 0 0 0 0 0
0 0 0 0 0 0 0 0 0
0 0 0 0 0 0 0 0 0
0 0 0 0 0 0 0 0 0
0 0 0 0 0 0 0 0 0
0 0 0 0 0 0 0 0 0
0 0 0 0 0 0 0 0 0
0 0 0 0 0 0 0 0 0
0 0 0 0 0 0 0 0 0
0 0 0 0 0 0 0 0 0
0 0 0 0 0 0 0 0 0
0 0 0 0 0 0 0 0 0
0 0 0 0 0 0 0 0 0
0 0 0 0 0 0 0 0 0
0 0 0 0 0 0 0 0 0
0 0 0 0 0 0 0 0 0
0 0 0 0 0 0 0 0 0
0 0 0 0 0 0 0 0 0
0 0 0 0 0 0 0 0 0
0 0 0 0 0 0 0 0 0
0 0 0 0 0 0 0 0 0
0 0 0 0 0 0 0 0 0
0 0 0 0 0 0 0 0 0
0 0 0 0 0 0 0 0 0
0 0 0 0 0 0 0 0 0
0 0 0 0 0 0 0 0 0
0 0 0 0 0 0 0 0 0
0 0 0 0 0 0 0 0 0
0 0 0 0 0 0 0 0 0
0 0 0 0 0 0 0 0 0
0 0 0 0 0 0 0 0 0
0 0 0 0 0 0 0 0 0
0 0 0 0 0 0 0 0 0
0.0411258 0.0425936 0.040015 0.0416651 0.0411258 0.0425936 0.040015 0.0416651 0
0.0439041 0.0460168 0.0430683 0.045252 0.0439041 0.0460168 0.0430683 0.045252 0
0.0476898 0.050148 0.0468853 0.0491639 0.0476898 0.050148 0.0468853 0.0491639 0
0.0520331 0.054725 0.0509624 0.0535971 0.0520331 0.054725 0.0509624 0.0535971 0
0.0566937 0.0593801 0.0554517 0.0578835 0.0566937 0.0593801 0.0554517 0.0578835 0
0.0310904 0.0333677 0.0302719 0.032566 0.0310904 0.0333677 0.0302719 0.032566 0
0.0350531 0.0373804 0.0342755 0.036652 0.0350531 0.0373804 0.0342755 0.036652 0
0.0390418 0.0412534 0.0383201 0.0405012 0.0390418 0.0412534 0.0383201 0.0405012 0
0.0427895 0.0447748 0.0418696 0.0434272 0.0427895 0.0447748 0.0418696 0.0434272 0
0.046323 0.0485675 0.0447766 0.0469056 0.046323 0.0485675 0.0447766 0.0469056 0
0.0503109 0.0528294 0.0486081 0.0511306 0.0503109 0.0528294 0.0486081 0.0511306 0
0.0547437 0.0574549 0.0530468 0.0557592 0.0547437 0.0574549 0.0530468 0.0557592 0
0.0594732 0.0622759 0.0577718 0.0605575 0.0594732 0.0622759 0.0577718 0.0605575 0
0.028651 0.0309554 0.0278775 0.0300838 0.028651 0.0309554 0.0278775 0.0300838 0
0.0326435 0.0349511 0.0317262 0.0340071 0.0326435 0.0349511 0.0317262 0.0340071 0
0.0366566 0.0390084 0.0356914 0.0380121 0.0366566 0.0390084 0.0356914 0.0380121 0
0.0407226 0.0430541 0.0396858 0.0419378 0.0407226 0.0430541 0.0396858 0.0419378 0
0.0447605 0.0470911 0.0435645 0.0457569 0.0447605 0.0470911 0.0435645 0.0457569 0
0.0488368 0.0512754 0.0474113 0.0497388 0.0488368 0.0512754 0.0474113 0.0497388 0
0.0531149 0.0557017 0.0515189 0.0540547 0.0531149 0.0557017 0.0515189 0.0540547 0
0.0576455 0.0603693 0.0559763 0.0586906 0.0576455 0.0603693 0.0559763 0.0586906 0
0.0623991 0.0652209 0.0607136 0.0635259 0.0623991 0.0652209 0.0607136 0.0635259 0
0.0261613 0.0283524 0.0254209 0.0275771 0.0261613 0.0283524 0.0254209 0.0275771 0
0.0300266 0.0324093 0.0292271 0.0315787 0.0300266 0.0324093 0.0292271 0.0315787 0
0.0341516 0.0365289 0.0332936 0.0356271 0.0341516 0.0365289 0.0332936 0.0356271 0
0.0382892 0.0407213 0.037353 0.0397346 0.0382892 0.0407213 0.037353 0.0397346 0
0.0425158 0.0449862 0.0414812 0.0438712 0.0425158 0.0449862 0.0414812 0.0438712 0
0.0468157 0.0493435 0.045632 0.0480525 0.0468157 0.0493435 0.045632 0.0480525 0
0.0512239 0.0538335 0.0498588 0.052373 0.0512239 0.0538335 0.0498588 0.052373 0
0.0557752 0.0584701 0.0542557 0.0568852 0.0557752 0.0584701 0.0542557 0.0568852 0
0.0604781 0.0632688 0.0588522 0.0615964 0.0604781 0.0632688 0.0588522 0.0615964 0
0.0653315 0.0681757 0.0636369 0.0664672 0.0653315 0.0681757 0.0636369 0.0664672 0
0.0271343 0.0294947 0.0266206 0.0288665 0.0271343 0.0294947 0.0266206 0.0288665 0
0.0312652 0.033742 0.0305729 0.0329892 0.0312652 0.033742 0.0305729 0.0329892 0
0.0355577 0.0380417 0.0347585 0.0371761 0.0355577 0.0380417 0.0347585 0.0371761 0
0.0398787 0.0424134 0.0389663 0.0414394 0.0398787 0.0424134 0.0389663 0.0414394 0
0.044295 0.0469007 0.04327 0.0457983 0.044295 0.0469007 0.04327 0.0457983 0
0.0488403 0.0515336 0.0476757 0.0502766 0.0488403 0.0515336 0.0476757 0.0502766 0
0.0535333 0.0563035 0.0522088 0.0548871 0.0535333 0.0563035 0.0522088 0.0548871 0
0.0583504 0.0611725 0.0568727 0.0596193 0.0583504 0.0611725 0.0568727 0.0596193 0
0.0632601 0.0661415 0.0616596 0.0644871 0.0632601 0.0661415 0.0616596 0.0644871 0
0.0682646 0.0711834 0.0665719 0.0694399 0.0682646 0.0711834 0.0665719 0.0694399 0
0.02807 0.030573 0.0275229 0.0299522 0.02807 0.030573 0.0275229 0.0299522 0
0.0324383 0.0350314 0.0317653 0.0342894 0.0324383 0.0350314 0.0317653 0.0342894 0
0.0369293 0.0395212 0.0361396 0.0386703 0.0369293 0.0395212 0.0361396 0.0386703 0
0.0414357 0.0440742 0.0405406 0.0431197 0.0414357 0.0440742 0.0405406 0.0431197 0
0.046041 0.0487757 0.0450377 0.0476988 0.046041 0.0487757 0.0450377 0.0476988 0
0.0508212 0.0536749 0.0496834 0.0524445 0.0508212 0.0536749 0.0496834 0.0524445 0
0.0557949 0.0587333 0.0544945 0.0573344 0.0557949 0.0587333 0.0544945 0.0573344 0
0.0608917 0.0638502 0.0594277 0.0623065 0.0608917 0.0638502 0.0594277 0.0623065 0
0.0660206 0.0689917 0.064429 0.0673489 0.0660206 0.0689917 0.064429 0.0673489 0
0.0711867 0.0742121 0.0695015 0.0724625 0.0711867 0.0742121 0.0695015 0.0724625 0
0.0290797 0.031677 0.0284873 0.0310354 0.0290797 0.031677 0.0284873 0.0310354 0
0.0336224 0.0363399 0.0329361 0.0355811 0.0336224 0.0363399 0.0329361 0.0355811 0
0.0383172 0.0410017 0.037513 0.0401461 0.0383172 0.0410017 0.037513 0.0401461 0
0.0429804 0.045702 0.0420897 0.0447664 0.0429804 0.045702 0.0420897 0.0447664 0
0.0477426 0.0505959 0.046766 0.0495522 0.0477426 0.0505959 0.046766 0.0495522 0
0.0527467 0.0557694 0.0516422 0.0545661 0.0527467 0.0557694 0.0516422 0.0545661 0
0.0580201 0.0611466 0.0567399 0.0597551 0.0580201 0.0611466 0.0567399 0.0597551 0
0.0634355 0.0665622 0.0619659 0.0649908 0.0634355 0.0665622 0.0619659 0.0649908 0
0.0688282 0.0718924 0.0671997 0.0702095 0.0688282 0.0718924 0.0671997 0.0702095 0
0.0741473 0.0772434 0.0724319 0.0754935 0.0741473 0.0772434 0.0724319 0.0754935 0
0.030093 0.0328252 0.0295101 0.0321568 0.030093 0.0328252 0.0295101 0.0321568 0
0.0348676 0.0377153 0.0341401 0.036912 0.0348676 0.0377153 0.0341401 0.036912 0
0.0397655 0.0425191 0.0389209 0.0416377 0.0397655 0.0425191 0.0389209 0.0416377 0
0.044541 0.0473116 0.0436375 0.0463842 0.044541 0.0473116 0.0436375 0.0463842 0
0.0494085 0.0523669 0.0484508 0.0513503 0.0494085 0.0523669 0.0484508 0.0513503 0
0.0546215 0.0578229 0.0535452 0.0566423 0.0546215 0.0578229 0.0535452 0.0566423 0
0.0602179 0.06356 0.0589524 0.0621664 0.0602179 0.06356 0.0589524 0.0621664 0
0.0659913 0.0692916 0.0645144 0.0677149 0.0659913 0.0692916 0.0645144 0.0677149 0
0.0716295 0.0747161 0.0700155 0.0731003 0.0716295 0.0747161 0.0700155 0.0731003 0
0.0311446 0.0338895 0.0305311 0.0332896 0.0311446 0.0338895 0.0305311 0.0332896 0
0.0359669 0.0388976 0.0353572 0.0382475 0.0359669 0.0388976 0.0353572 0.0382475 0
0.0410532 0.0440115 0.040337 0.0431553 0.0410532 0.0440115 0.040337 0.0431553 0
0.0461767 0.0491337 0.0452216 0.0480485 0.0461767 0.0491337 0.0452216 0.0480485 0
0.0513164 0.0543229 0.0501765 0.0531636 0.0513164 0.0543229 0.0501765 0.0531636 0
0.0565785 0.0597345 0.0554345 0.0586517 0.0565785 0.0597345 0.0554345 0.0586517 0
0.0621191 0.0654779 0.0610667 0.0644475 0.0621191 0.0654779 0.0610667 0.0644475 0
0.067982 0.0714648 0.0669207 0.0702967 0.067982 0.0714648 0.0669207 0.0702967 0
0 0 0 0 0 0 0 0 0
0 0 0 0 0 0 0 0 0
0 0 0 0 0 0 0 0 0
0 0 0 0 0 0 0 0 0
0 0 0 0 0 0 0 0 0
0 0 0 0 0 0 0 0 0
0 0 0 0 0 0 0 0 0
0 0 0 0 0 0 0 0 0
0 0 0 0 0 0 0 0 0
0 0 0 0 0 0 0 0 0
0 0 0 0 0 0 0 0 0
0 0 0 0 0 0 0 0 0
0 0 0 0 0 0 0 0 0
0 0 0 0 0 0 0 0 0
0 0 0 0 0 0 0 0 0
0 0 0 0 0 0 0 0 0
0 0 0 0 0 0 0 0 0
0 0 0 0 0 0 0 0 0
0 0 0 0 0 0 0 0 0
0 0 0 0 0 0 0 0 0
0 0 0 0 0 0 0 0 0
0 0 0 0 0 0 0 0 0
0 0 0 0 0 0 0 0 0
0 0 0 0 0 0 0 0 0
0 0 0 0 0 0 0 0 0
0 0 0 0 0 0 0 0 0
0 0 0 0 0 0 0 0 0
0 0 0 0 0 0 0 0 0
0 0 0 0 0 0 0 0 0
0 0 0 0 0 0 0 0 0
0 0 0 0 0 0 0 0 0
0 0 0 0 0 0 0 0 0
0 0 0 0 0 0 0 0 0
0 0 0 0 0 0 0 0 0
0 0 0 0 0 0 0 0 0
0 0 0 0 0 0 0 0 0
0 0 0 0 0 0 0 0 0
0 0 0 0 0 0 0 0 0
0 0 0 0 0 0 0 0 0
0 0 0 0 0 0 0 0 0
0 0 0 0 0 0 0 0 0
0 0 0 0 0 0 0 0 0
0 0 0 0 0 0 0 0 0
0 0 0 0 0 0 0 0 0
0 0 0 0 0 0 0 0 0
0 0 0 0 0 0 0 0 0
0 0 0 0 0 0 0 0 0
0 0 0 0 0 0 0 0 0
0 0 0 0 0 0 0 0 0
0 0 0 0 0 0 0 0 0
0 0 0 0 0 0 0 0 0
0 0 0 0 0 0 0 0 0
0 0 0 0 0 0 0 0 0
0 0 0 0 0 0 0 0 0
0 0 0 0 0 0 0 0 0
0 0 0 0 0 0 0 0 0
0 0 0 0 0 0 0 0 0
0 0 0 0 0 0 0 0 0
0 0 0 0 0 0 0 0 0
0 0 0 0 0 0 0 0 0
0 0 0 0 0 0 0 0 0
0 0 0 0 0 0 0 0 0
0 0 0 0 0 0 0 0 0
0 0 0 0 0 0 0 0 0
0 0 0 0 0 0 0 0 0
0 0 0 0 0 0 0 0 0
0 0 0 0 0 0 0 0 0
0 0 0 0 0 0 0 0 0
0 0 0 0 0 0 0 0 0
0 0 0 0 0 0 0 0 0
0 0 0 0 0 0 0 0 0
0 0 0 0 0 0 0 0 0
0 0 0 0 0 0 0 0 0
0 0 0 0 0 0 0 0 0
0 0 0 0 0 0 0 0 0
0 0 0 0 0 0 0 0 0
0 0 0 0 0 0 0 0 0
0 0 0 0 0 0 0 0 0
0 0 0 0 0 0 0 0 0
0 0 0 0 0 0 0 0 0
0 0 0 0 0 0 0 0 0
0 0 0 0 0 0 0 0 0
0 0 0 0 0 0 0 0 0
0 0 0 0 0 0 0 0 0
0 0 0 0 0 0 0 0 0
0 0 0 0 0 0 0 0 0
0 0 0 0 0 0 0 0 0
0 0 0 0 0 0 0 0 0
0 0 0 0 0 0 0 0 0
0 0 0 0 0 0 0 0 0
0 0 0 0 0 0 0 0 0
0 0 0 0 0 0 0 0 0
0 0 0 0 0 0 0 0 0
0 0 0 0 0 0 0 0 0
0 0 0 0 0 0 0 0 0
0 0 0 0 0 0 0 0 0
0 0 0 0 0 0 0 0 0
0 0 0 0 0 0 0 0 0
0 0 0 0 0 0 0 0 0
0 0 0 0 0 0 0 0 0
0 0 0 0 0 0 0 0 0
0 0 0 0 0 0 0 0 0
0 0 0 0 0 0 0 0 0
0 0 0 0 0 0 0 0 0
0 0 0 0 0 0 0 0 0
0 0 0 0 0 0 0 0 0
0 0 0 0 0 0 0 0 0
0 0 0 0 0 0 0 0 0
0 0 0 0 0 0 0 0 0
0 0 0 0 0 0 0 0 0
0 0 0 0 0 0 0 0 0
0 0 0 0 0 0 0 0 0
0 0 0 0 0 0 0 0 0
0 0 0 0 0 0 0 0 0
0 0 0 0 0 0 0 0 0
0 0 0 0 0 0 0 0 0
0 0 0 0 0 0 0 0 0
0 0 0 0 0 0 0 0 0
0 0 0 0 0 0 0 0 0
0 0 0 0 0 0 0 0 0
0 0 0 0 0 0 0 0 0
0 0 0 0 0 0 0 0 0
0 0 0 0 0 0 0 0 0
0 0 0 0 0 0 0 0 0
0 0 0 0 0 0 0 0 0
0 0 0 0 0 0 0 0 0
0 0 0 0 0 0 0 0 0
0 0 0 0 0 0 0 0 0
0 0 0 0 0 0 0 0 0
0 0 0 0 0 0 0 0 0
0 0 0 0 0 0 0 0 0
0 0 0 0 0 0 0 0 0
0 0 0 0 0 0 0 0 0
0 0 0 0 0 0 0 0 0
0 0 0 0 0 0 0 0 0
0 0 0 0 0 0 0 0 0
0 0 0 0 0 0 0 0 0
0 0 0 0 0 0 0 0 0
0 0 0 0 0 0 0 0 0
0 0 0 0 0 0 0 0 0
0 0 0 0 0 0 0 0 0
0 0 0 0 0 0 0 0 0
0 0 0 0 0 0 0 0 0
0 0 0 0 0 0 0 0 0
0 0 0 0 0 0 0 0 0
0 0 0 0 0 0 0 0 0
0 0 0 0 0 0 0 0 0
0 0 0 0 0 0 0 0 0
0 0 0 0 0 0 0 0 0
0 0 0 0 0 0 0 0 0
0 0 0 0 0 0 0 0 0
0 0 0 0 0 0 0 0 0
0 0 0 0 0 0 0 0 0
0 0 0 0 0 0 0 0 0
0 0 0 0 0 0 0 0 0
0 0 0 0 0 0 0 0 0
0 0 0 0 0 0 0 0 0
0 0 0 0 0 0 0 0 0
0 0 0 0 0 0 0 0 0
0 0 0 0 0 0 0 0 0
0 0 0 0 0 0 0 0 0
0 0 0 0 0 0 0 0 0
0 0 0 0 0 0 0 0 0
0 0 0 0 0 0 0 0 0
0 0 0 0 0 0 0 0 0
0 0 0 0 0 0 0 0 0
0 0 0 0 0 0 0 0 0
0 0 0 0 0 0 0 0 0
0 0 0 0 0 0 0 0 0
0 0 0 0 0 0 0 0 0
0 0 0 0 0 0 0 0 0
0 0 0 0 0 0 0 0 0
0 0 0 0 0 0 0 0 0
0 0 0 0 0 0 0 0 0
0 0 0 0 0 0 0 0 0
0 0 0 0 0 0 0 0 0
0 0 0 0 0 0 0 0 0
0 0 0 0 0 0 0 0 0
0 0 0 0 0 0 0 0 0
0 0 0 0 0 0 0 0 0
0 0 0 0 0 0 0 0 0
0 0 0 0 0 0 0 0 0
0 0 0 0 0 0 0 0 0
0 0 0 0 0 0 0 0 0
0 0 0 0 0 0 0 0 0
0 0 0 0 0 0 0 0 0
0 0 0 0 0 0 0 0 0
0 0 0 0 0 0 0 0 0
0 0 0 0 0 0 0 0 0
0 0 0 0 0 0 0 0 0
0 0 0 0 0 0 0 0 0
0 0 0 0 0 0 0 0 0
0 0 0 0 0 0 0 0 0
0 0 0 0 0 0 0 0 0
0 0 0 0 0 0 0 0 0
0 0 0 0 0 0 0 0 0
0 0 0 0 0 0 0 0 0
0 0 0 0 0 0 0 0 0
0 0 0 0 0 0 0 0 0
0 0 0 0 0 0 0 0 0
0 0 0 0 0 0 0 0 0
0 0 0 0 0 0 0 0 0
0 0 0 0 0 0 0 0 0
0 0 0 0 0 0 0 0 0
0 0 0 0 0 0 0 0 0
0 0 0 0 0 0 0 0 0
0 0 0 0 0 0 0 0 0
0 0 0 0 0 0 0 0 0
0 0 0 0 0 0 0 0 0
0 0 0 0 0 0 0 0 0
0 0 0 0 0 0 0 0 0
0 0 0 0 0 0 0 0 0
0 0 0 0 0 0 0 0 0
0 0 0 0 0 0 0 0 0
0 0 0 0 0 0 0 0 0
0 0 0 0 0 0 0 0 0
0 0 0 0 0 0 0 0 0
0 0 0 0 0 0 0 0 0
0 0 0 0 0 0 0 0 0
0 0 0 0 0 0 0 0 0
0 0 0 0 0 0 0 0 0
0 0 0 0 0 0 0 0 0
0 0 0 0 0 0 0 0 0
0 0 0 0 0 0 0 0 0
0 0 0 0 0 0 0 0 0
0 0 0 0 0 0 0 0 0
0 0 0 0 0 0 0 0 0
0 0 0 0 0 0 0 0 0
0 0 0 0 0 0 0 0 0
0 0 0 0 0 0 0 0 0
0 0 0 0 0 0 0 0 0
0 0 0 0 0 0 0 0 0
0 0 0 0 0 0 0 0 0
0 0 0 0 0 0 0 0 0
0 0 0 0 0 0 0 0 0
0 0 0 0 0 0 0 0 0
0 0 0 0 0 0 0 0 0
0 0 0 0 0 0 0 0 0
0 0 0 0 0 0 0 0 0
0 0 0 0 0 0 0 0 0
0 0 0 0 0 0 0 0 0
0 0 0 0 0 0 0 0 0
0 0 0 0 0 0 0 0 0
0 0 0 0 0 0 0 0 0
0 0 0 0 0 0 0 0 0
0 0 0 0 0 0 0 0 0
0 0 0 0 0 0 0 0 0
0 0 0 0 0 0 0 0 0
0 0 0 0 0 0 0 0 0
0 0 0 0 0 0 0 0 0
0 0 0 0 0 0 0 0 0
0 0 0 0 0 0 0 0 0
0 0 0 0 0 0 0 0 0
0 0 0 0 0 0 0 0 0
0 0 0 0 0 0 0 0 0
0 0 0 0 0 0 0 0 0
0 0 0 0 0 0 0 0 0
0 0 0 0 0 0 0 0 0
0 0 0 0 0 0 0 0 0
0 0 0 0 0 0 0 0 0
0 0 0 0 0 0 0 0 0
0 0 0 0 0 0 0 0 0
0 0 0 0 0 0 0 0 0
0 0 0 0 0 0 0 0 0
0 0 0 0 0 0 0 0 0
0 0 0 0 0 0 0 0 0
0 0 0 0 0 0 0 0 0
0 0 0 0 0 0 0 0 0
0 0 0 0 0 0 0 0 0
0 0 0 0 0 0 0 0 0
0 0 0 0 0 0 0 0 0
0 0 0 0 0 0 0 0 0
0 0 0 0 0 0 0 0 0
0 0 0 0 0 0 0 0 0
0 0 0 0 0 0 0 0 0
0 0 0 0 0 0 0 0 0
0 0 0 0 0 0 0 0 0
0 0 0 0 0 0 0 0 0
0 0 0 0 0 0 0 0 0
0 0 0 0 0 0 0 0 0
0 0 0 0 0 0 0 0 0
0 0 0 0 0 0 0 0 0
0 0 0 0 0 0 0 0 0
0 0 0 0 0 0 0 0 0
0 0 0 0 0 0 0 0 0
0 0 0 0 0 0 0 0 0
0 0 0 0 0 0 0 0 0
0 0 0 0 0 0 0 0 0
0 0 0 0 0 0 0 0 0
0 0 0 0 0 0 0 0 0
0 0 0 0 0 0 0 0 0
0 0 0 0 0 0 0 0 0
0 0 0 0 0 0 0 0 0
0 0 0 0 0 0 0 0 0
0 0 0 0 0 0 0 0 0
0 0 0 0 0 0 0 0 0
0 0 0 0 0 0 0 0 0
0 0 0 0 0 0 0 0 0
0 0 0 0 0 0 0 0 0
0 0 0 0 0 0 0 0 0
0 0 0 0 0 0 0 0 0
0 0 0 0 0 0 0 0 0
0 0 0 0 0 0 0 0 0
0 0 0 0 0 0 0 0 0
0 0 0 0 0 0 0 0 0
0 0 0 0 0 0 0 0 0
0 0 0 0 0 0 0 0 0
0 0 0 0 0 0 0 0 0
0 0 0 0 0 0 0 0 0
0 0 0 0 0 0 0 0 0
0 0 0 0 0 0 0 0 0
0 0 0 0 0 0 0 0 0
0 0 0 0 0 0 0 0 0
0 0 0 0 0 0 0 0 0
0 0 0 0 0 0 0 0 0
0 0 0 0 0 0 0 0 0
0 0 0 0 0 0 0 0 0
0 0 0 0 0 0 0 0 0
0 0 0 0 0 0 0 0 0
0 0 0 0 0 0 0 0 0
0 0 0 0 0 0 0 0 0
0 0 0 0 0 0 0 0 0
0 0 0 0 0 0 0 0 0
0 0 0 0 0 0 0 0 0
0 0 0 0 0 0 0 0 0
0 0 0 0 0 0 0 0 0
0 0 0 0 0 0 0 0 0
0 0 0 0 0 0 0 0 0
0 0 0 0 0 0 0 0 0
0 0 0 0 0 0 0 0 0
0 0 0 0 0 0 0 0 0
0 0 0 0 0 0 0 0 0
0 0 0 0 0 0 0 0 0
0 0 0 0 0 0 0 0 0
0 0 0 0 0 0 0 0 0
0 0 0 0 0 0 0 0 0
0 0 0 0 0 0 0 0 0
0 0 0 0 0 0 0 0 0
0 0 0 0 0 0 0 0 0
0 0 0 0 0 0 0 0 0
0 0 0 0 0 0 0 0 0
0 0 0 0 0 0 0 0 0
0 0 0 0 0 0 0 0 0
0 0 0 0 0 0 0 0 0
0 0 0 0 0 0 0 0 0
0 0 0 0 0 0 0 0 0
0 0 0 0 0 0 0 0 0
0 0 0 0 0 0 0 0 0
0 0 0 0 0 0 0 0 0
0 0 0 0 0 0 0 0 0
0 0 0 0 0 0 0 0 0
0 0 0 0 0 0 0 0 0
0 0 0 0 0 0 0 0 0
0 0 0 0 0 0 0 0 0
0 0 0 0 0 0 0 0 0
0 0 0 0 0 0 0 0 0
0 0 0 0 0 0 0 0 0
0 0 0 0 0 0 0 0 0
0 0 0 0 0 0 0 0 0
0 0 0 0 0 0 0 0 0
0 0 0 0 0 0 0 0 0
0 0 0 0 0 0 0 0 0
0 0 0 0 0 0 0 0 0
0 0 0 0 0 0 0 0 0
0 0 0 0 0 0 0 0 0
0 0 0 0 0 0 0 0 0
0 0 0 0 0 0 0 0 0
0 0 0 0 0 0 0 0 0
0 0 0 0 0 0 0 0 0
0 0 0 0 0 0 0 0 0
0 0 0 0 0 0 0 0 0
0 0 0 0 0 0 0 0 0
0 0 0 0 0 0 0 0 0
0 0 0 0 0 0 0 0 0
0 0 0 0 0 0 0 0 0
0 0 0 0 0 0 0 0 0
0 0 0 0 0 0 0 0 0
0 0 0 0 0 0 0 0 0
0 0 0 0 0 0 0 0 0
0 0 0 0 0 0 0 0 0
0 0 0 0 0 0 0 0 0
0 0 0 0 0 0 0 0 0
0 0 0 0 0 0 0 0 0
0 0 0 0 0 0 0 0 0
0 0 0 0 0 0 0 0 0
0 0 0 0 0 0 0 0 0
0 0 0 0 0 0 0 0 0
0 0 0 0 0 0 0 0 0
0 0 0 0 0 0 0 0 0
0 0 0 0 0 0 0 0 0
0 0 0 0 0 0 0 0 0
0 0 0 0 0 0 0 0 0
0 0 0 0 0 0 0 0 0
0 0 0 0 0 0 0 0 0
0 0 0 0 0 0 0 0 0
0 0 0 0 0 0 0 0 0
0 0 0 0 0 0 0 0 0
0 0 0 0 0 0 0 0 0
0 0 0 0 0 0 0 0 0
0 0 0 0 0 0 0 0 0
0 0 0 0 0 0 0 0 0
0 0 0 0 0 0 0 0 0
0 0 0 0 0 0 0 0 0
0 0 0 0 0 0 0 0 0
0 0 0 0 0 0 0 0 0
0 0 0 0 0 0 0 0 0
0 0 0 0 0 0 0 0 0
0 0 0 0 0 0 0 0 0
0 0 0 0 0 0 0 0 0
0 0 0 0 0 0 0 0 0
0 0 0 0 0 0 0 0 0
0 0 0 0 0 0 0 0 0
0 0 0 0 0 0 0 0 0
0 0 0 0 0 0 0 0 0
0 0 0 0 0 0 0 0 0
0 0 0 0 0 0 0 0 0
0 0 0 0 0 0 0 0 0
0 0 0 0 0 0 0 0 0
0 0 0 0 0 0 0 0 0
0 0 0 0 0 0 0 0 0
0 0 0 0 0 0 0 0 0
0 0 0 0 0 0 0 0 0
0 0 0 0 0 0 0 0 0
0 0 0 0 0 0 0 0 0
0 0 0 0 0 0 0 0 0
0 0 0 0 0 0 0 0 0
0 0 0 0 0 0 0 0 0
0 0 0 0 0 0 0 0 0
0 0 0 0 0 0 0 0 0
0 0 0 0 0 0 0 0 0
0 0 0 0 0 0 0 0 0
0 0 0 0 0 0 0 0 0
0 0 0 0 0 0 0 0 0
0 0 0 0 0 0 0 0 0
0 0 0 0 0 0 0 0 0
0 0 0 0 0 0 0 0 0
0 0 0 0 0 0 0 0 0
0 0 0 0 0 0 0 0 0
0 0 0 0 0 0 0 0 0
0 0 0 0 0 0 0 0 0
0 0 0 0 0 0 0 0 0
0 0 0 0 0 0 0 0 0
0 0 0 0 0 0 0 0 0
0 0 0 0 0 0 0 0 0
0 0 0 0 0 0 0 0 0
0 0 0 0 0 0 0 0 0
0 0 0 0 0 0 0 0 0
0 0 0 0 0 0 0 0 0
0 0 0 0 0 0 0 0 0
0 0 0 0 0 0 0 0 0
0 0 0 0 0 0 0 0 0
0 0 0 0 0 0 0 0 0
0 0 0 0 0 0 0 0 0
0 0 0 0 0 0 0 0 0
0 0 0 0 0 0 0 0 0
0 0 0 0 0 0 0 0 0
0 0 0 0 0 0 0 0 0
0 0 0 0 0 0 0 0 0
0 0 0 0 0 0 0 0 0
0 0 0 0 0 0 0 0 0
0 0 0 0 0 0 0 0 0
0 0 0 0 0 0 0 0 0
0 0 0 0 0 0 0 0 0
0 0 0 0 0 0 0 0 0
0 0 0 0 0 0 0 0 0
0 0 0 0 0 0 0 0 0
0 0 0 0 0 0 0 0 0
0 0 0 0 0 0 0 0 0
0 0 0 0 0 0 0 0 0
0 0 0 0 0 0 0 0 0
0 0 0 0 0 0 0 0 0
0 0 0 0 0 0 0 0 0
0 0 0 0 0 0 0 0 0
0 0 0 0 0 0 0 0 0
0 0 0 0 0 0 0 0 0
0 0 0 0 0 0 0 0 0
0 0 0 0 0 0 0 0 0
0 0 0 0 0 0 0 0 0
0 0 0 0 0 0 0 0 0
0 0 0 0 0 0 0 0 0
0 0 0 0 0 0 0 0 0
0 0 0 0 0 0 0 0 0
0 0 0 0 0 0 0 0 0
0 0 0 0 0 0 0 0 0
0 0 0 0 0 0 0 0 0
0 0 0 0 0 0 0 0 0
0 0 0 0 0 0 0 0 0
0 0 0 0 0 0 0 0 0
0 0 0 0 0 0 0 0 0
0 0 0 0 0 0 0 0 0
0 0 0 0 0 0 0 0 0
0 0 0 0 0 0 0 0 0
0 0 0 0 0 0 0 0 0
0 0 0 0 0 0 0 0 0
0 0 0 0 0 0 0 0 0
0 0 0 0 0 0 0 0 0
0 0 0 0 0 0 0 0 0
0 0 0 0 0 0 0 0 0
0 0 0 0 0 0 0 0 0
0 0 0 0 0 0 0 0 0
0 0 0 0 0 0 0 0 0
0 0 0 0 0 0 0 0 0
0 0 0 0 0 0 0 0 0
0 0 0 0 0 0 0 0 0
0 0 0 0 0 0 0 0 0
0 0 0 0 0 0 0 0 0
0 0 0 0 0 0 0 0 0
0 0 0 0 0 0 0 0 0
0 0 0 0 0 0 0 0 0
0 0 0 0 0 0 0 0 0
0 0 0 0 0 0 0 0 0
0 0 0 0 0 0 0 0 0
0 0 0 0 0 0 0 0 0
0 0 0 0 0 0 0 0 0
0 0 0 0 0 0 0 0 0
0 0 0 0 0 0 0 0 0
0 0 0 0 0 0 0 0 0
0 0 0 0 0 0 0 0 0
0 0 0 0 0 0 0 0 0
0 0 0 0 0 0 0 0 0
0 0 0 0 0 0 0 0 0
0 0 0 0 0 0 0 0 0
0 0 0 0 0 0 0 0 0
0 0 0 0 0 0 0 0 0
0 0 0 0 0 0 0 0 0
0 0 0 0 0 0 0 0 0
0 0 0 0 0 0 0 0 0
0 0 0 0 0 0 0 0 0
0 0 0 0 0 0 0 0 0
0 0 0 0 0 0 0 0 0
0 0 0 0 0 0 0 0 0
0 0 0 0 0 0 0 0 0
0 0 0 0 0 0 0 0 0
0 0 0 0 0 0 0 0 0
0 0 0 0 0 0 0 0 0
0 0 0 0 0 0 0 0 0
0 0 0 0 0 0 0 0 0
0 0 0 0 0 0 0 0 0
0 0 0 0 0 0 0 0 0
0 0 0 0 0 0 0 0 0
0 0 0 0 0 0 0 0 0
0 0 0 0 0 0 0 0 0
0 0 0 0 0 0 0 0 0
0 0 0 0 0 0 0 0 0
0 0 0 0 0 0 0 0 0
0 0 0 0 0 0 0 0 0
0 0 0 0 0 0 0 0 0
0 0 0 0 0 0 0 0 0
0 0 0 0 0 0 0 0 0
0 0 0 0 0 0 0 0 0
0 0 0 0 0 0 0 0 0
0 0 0 0 0 0 0 0 0
0 0 0 0 0 0 0 0 0
0 0 0 0 0 0 0 0 0
0 0 0 0 0 0 0 0 0
0 0 0 0 0 0 0 0 0
0 0 0 0 0 0 0 0 0
0 0 0 0 0 0 0 0 0
0 0 0 0 0 0 0 0 0
0 0 0 0 0 0 0 0 0
0 0 0 0 0 0 0 0 0
0 0 0 0 0 0 0 0 0
0 0 0 0 0 0 0 0 0
0 0 0 0 0 0 0 0 0
0 0 0 0 0 0 0 0 0
0 0 0 0 0 0 0 0 0
0 0 0 0 0 0 0 0 0
0 0 0 0 0 0 0 0 0
0 0 0 0 0 0 0 0 0
0 0 0 0 0 0 0 0 0
0 0 0 0 0 0 0 0 0
0 0 0 0 0 0 0 0 0
0 0 0 0 0 0 0 0 0
0 0 0 0 0 0 0 0 0
0 0 0 0 0 0 0 0 0
0 0 0 0 0 0 0 0 0
0 0 0 0 0 0 0 0 0
0 0 0 0 0 0 0 0 0
0 0 0 0 0 0 0 0 0
0 0 0 0 0 0 0 0 0
0 0 0 0 0 0 0 0 0
0 0 0 0 0 0 0 0 0
0 0 0 0 0 0 0 0 0
0 0 0 0 0 0 0 0 0
0 0 0 0 0 0 0 0 0
0 0 0 0 0 0 0 0 0
0 0 0 0 0 0 0 0 0
0 0 0 0 0 0 0 0 0
0 0 0 0 0 0 0 0 0
0 0 0 0 0 0 0 0 0
0 0 0 0 0 0 0 0 0
0 0 0 0 0 0 0 0 0
0 0 0 0 0 0 0 0 0
0 0 0 0 0 0 0 0 0
0 0 0 0 0 0 0 0 0
0 0 0 0 0 0 0 0 0
0 0 0 0 0 0 0 0 0
0 0 0 0 0 0 0 0 0
0 0 0 0 0 0 0 0 0
0 0 0 0 0 0 0 0 0
0 0 0 0 0 0 0 0 0
0 0 0 0 0 0 0 0 0
0 0 0 0 0 0 0 0 0
0 0 0 0 0 0 0 0 0
0 0 0 0 0 0 0 0 0
0 0 0 0 0 0 0 0 0
0 0 0 0 0 0 0 0 0
0 0 0 0 0 0 0 0 0
0 0 0 0 0 0 0 0 0
0 0 0 0 0 0 0 0 0
0 0 0 0 0 0 0 0 0
0 0 0 0 0 0 0 0 0
0 0 0 0 0 0 0 0 0
0 0 0 0 0 0 0 0 0
0 0 0 0 0 0 0 0 0
0 0 0 0 0 0 0 0 0
0 0 0 0 0 0 0 0 0
0 0 0 0 0 0 0 0 0
0 0 0 0 0 0 0 0 0
0 0 0 0 0 0 0 0 0
0 0 0 0 0 0 0 0 0
0 0 0 0 0 0 0 0 0
0 0 0 0 0 0 0 0 0
0 0 0 0 0 0 0 0 0
0 0 0 0 0 0 0 0 0
0 0 0 0 0 0 0 0 0
0 0 0 0 0 0 0 0 0
0 0 0 0 0 0 0 0 0
0 0 0 0 0 0 0 0 0
0 0 0 0 0 0 0 0 0
0 0 0 0 0 0 0 0 0
0 0 0 0 0 0 0 0 0
0 0 0 0 0 0 0 0 0
0 0 0 0 0 0 0 0 0
0 0 0 0 0 0 0 0 0
0 0 0 0 0 0 0 0 0
0 0 0 0 0 0 0 0 0
0 0 0 0 0 0 0 0 0
0 0 0 0 0 0 0 0 0
0 0 0 0 0 0 0 0 0
0 0 0 0 0 0 0 0 0
0 0 0 0 0 0 0 0 0
0 0 0 0 0 0 0 0 0
0 0 0 0 0 0 0 0 0
0 0 0 0 0 0 0 0 0
0 0 0 0 0 0 0 0 0
0 0 0 0 0 0 0 0 0
0 0 0 0 0 0 0 0 0
0 0 0 0 0 0 0 0 0
0 0 0 0 0 0 0 0 0
0 0 0 0 0 0 0 0 0
0 0 0 0 0 0 0 0 0
0 0 0 0 0 0 0 0 0
0 0 0 0 0 0 0 0 0
0 0 0 0 0 0 0 0 0
0 0 0 0 0 0 0 0 0
0 0 0 0 0 0 0 0 0
0 0 0 0 0 0 0 0 0
0 0 0 0 0 0 0 0 0
0 0 0 0 0 0 0 0 0
0 0 0 0 0 0 0 0 0
0 0 0 0 0 0 0 0 0
0 0 0 0 0 0 0 0 0
0 0 0 0 0 0 0 0 0
0 0 0 0 0 0 0 0 0
0 0 0 0 0 0 0 0 0
0 0 0 0 0 0 0 0 0
0 0 0 0 0 0 0 0 0
0 0 0 0 0 0 0 0 0
0 0 0 0 0 0 0 0 0
0 0 0 0 0 0 0 0 0
0 0 0 0 0 0 0 0 0
0 0 0 0 0 0 0 0 0
0 0 0 0 0 0 0 0 0
0 0 0 0 0 0 0 0 0
0 0 0 0 0 0 0 0 0
0 0 0 0 0 0 0 0 0
0 0 0 0 0 0 0 0 0
0 0 0 0 0 0 0 0 0
0 0 0 0 0 0 0 0 0
0 0 0 0 0 0 0 0 0
0 0 0 0 0 0 0 0 0
0 0 0 0 0 0 0 0 0
0 0 0 0 0 0 0 0 0
0 0 0 0 0 0 0 0 0
0 0 0 0 0 0 0 0 0
0 0 0 0 0 0 0 0 0
0 0 0 0 0 0 0 0 0
0 0 0 0 0 0 0 0 0
0 0 0 0 0 0 0 0 0
0 0 0 0 0 0 0 0 0
0 0 0 0 0 0 0 0 0
0 0 0 0 0 0 0 0 0
0 0 0 0 0 0 0 0 0
0 0 0 0 0 0 0 0 0
0 0 0 0 0 0 0 0 0
0 0 0 0 0 0 0 0 0
0 0 0 0 0 0 0 0 0
0 0 0 0 0 0 0 0 0
0 0 0 0 0 0 0 0 0
0 0 0 0 0 0 0 0 0
0 0 0 0 0 0 0 0 0
0 0 0 0 0 0 0 0 0
0 0 0 0 0 0 0 0 0
0 0 0 0 0 0 0 0 0
0 0 0 0 0 0 0 0 0
0 0 0 0 0 0 0 0 0
0 0 0 0 0 0 0 0 0
0 0 0 0 0 0 0 0 0
0 0 0 0 0 0 0 0 0
0 0 0 0 0 0 0 0 0
0.0754457 0.0792091 0.0734748 0.0771789 0.0754457 0.0792091 0.0734748 0.0771789 0
0.0820605 0.0860872 0.0800026 0.0840126 0.0820605 0.0860872 0.0800026 0.0840126 0
0.0891926 0.0936502 0.0871017 0.0915311 0.0891926 0.0936502 0.0871017 0.0915311 0
0.0969127 0.101368 0.0947175 0.0989933 0.0969127 0.101368 0.0947175 0.0989933 0
0.104708 0.109378 0.102164 0.10655 0.104708 0.109378 0.102164 0.10655 0
0.0568745 0.0611328 0.0553544 0.0594662 0.0568745 0.0611328 0.0553544 0.0594662 0
0.0642575 0.068536 0.0625269 0.0667775 0.0642575 0.068536 0.0625269 0.0667775 0
0.0716281 0.0757974 0.0698401 0.0739566 0.0716281 0.0757974 0.0698401 0.0739566 0
0.0788198 0.082908 0.0768785 0.0807448 0.0788198 0.082908 0.0768785 0.0807448 0
0.0859658 0.0902317 0.083659 0.0877543 0.0859658 0.0902317 0.083659 0.0877543 0
0.0934577 0.0980054 0.0908965 0.0953857 0.0934577 0.0980054 0.0908965 0.0953857 0
0.101372 0.10602 0.0986964 0.103252 0.101372 0.10602 0.0986964 0.103252 0
0.109518 0.114426 0.10668 0.111489 0.109518 0.114426 0.10668 0.111489 0
0.0522545 0.0564343 0.0509243 0.0549466 0.0522545 0.0564343 0.0509243 0.0549466 0
0.0595482 0.0638755 0.0579987 0.0623148 0.0595482 0.0638755 0.0579987 0.0623148 0
0.0670698 0.0714695 0.0654753 0.0697938 0.0670698 0.0714695 0.0654753 0.0697938 0
0.0746802 0.0790524 0.0729256 0.0771634 0.0746802 0.0790524 0.0729256 0.0771634 0
0.0822606 0.0866532 0.0802625 0.0844918 0.0822606 0.0866532 0.0802625 0.0844918 0
0.08992 0.0944525 0.0876441 0.0920272 0.08992 0.0944525 0.0876441 0.0920272 0
0.0978377 0.102554 0.0953183 0.0999267 0.0978377 0.102554 0.0953183 0.0999267 0
0.106047 0.110875 0.103342 0.108064 0.106047 0.110875 0.103342 0.108064 0
0.114495 0.119558 0.111613 0.116589 0.114495 0.119558 0.111613 0.116589 0
0.0471906 0.0513991 0.0461015 0.0501703 0.0471906 0.0513991 0.0461015 0.0501703 0
0.0545321 0.0588835 0.0532217 0.0574897 0.0545321 0.0588835 0.0532217 0.0574897 0
0.0621065 0.0665605 0.0606493 0.0650136 0.0621065 0.0665605 0.0606493 0.0650136 0
0.0698518 0.0743897 0.068243 0.0727015 0.0698518 0.0743897 0.068243 0.0727015 0
0.0777309 0.0823212 0.0759684 0.080435 0.0777309 0.0823212 0.0759684 0.080435 0
0.0857092 0.0903751 0.0837206 0.0882302 0.0857092 0.0903751 0.0837206 0.0882302 0
0.0938365 0.0986275 0.0915799 0.0962217 0.0938365 0.0986275 0.0915799 0.0962217 0
0.102184 0.107111 0.0996782 0.104479 0.102184 0.107111 0.0996782 0.104479 0
0.110754 0.115777 0.108034 0.112943 0.110754 0.115777 0.108034 0.112943 0
0.119526 0.124746 0.116616 0.121744 0.119526 0.124746 0.116616 0.121744 0
0.0491484 0.0535273 0.0480074 0.052299 0.0491484 0.0535273 0.0480074 0.052299 0
0.0567814 0.0612929 0.0554864 0.059903 0.0567814 0.0612929 0.0554864 0.059903 0
0.0646278 0.0692275 0.0631729 0.0676901 0.0646278 0.0692275 0.0631729 0.0676901 0
0.0726291 0.0773226 0.0710275 0.0756284 0.0726291 0.0773226 0.0710275 0.0756284 0
0.0807969 0.0855955 0.0790252 0.0837045 0.0807969 0.0855955 0.0790252 0.0837045 0
0.0891528 0.0940733 0.0871653 0.0919413 0.0891528 0.0940733 0.0871653 0.0919413 0
0.0977229 0.102773 0.0954831 0.100384 0.0977229 0.102773 0.0954831 0.100384 0
0.106511 0.111672 0.104016 0.109039 0.106511 0.111672 0.104016 0.109039 0
0.115478 0.120717 0.112749 0.117861 0.115478 0.120717 0.112749 0.117861 0
0.124604 0.129982 0.121667 0.126954 0.124604 0.129982 0.121667 0.126954 0
0.0510867 0.0556278 0.0499738 0.0544196 0.0510867 0.0556278 0.0499738 0.0544196 0
0.0590015 0.0636776 0.0577237 0.0623047 0.0590015 0.0636776 0.0577237 0.0623047 0
0.0671264 0.0718726 0.0656875 0.0703486 0.0671264 0.0718726 0.0656875 0.0703486 0
0.0753854 0.0802365 0.0737972 0.0785578 0.0753854 0.0802365 0.0737972 0.0785578 0
0.0838423 0.0888424 0.0820882 0.0869727 0.0838423 0.0888424 0.0820882 0.0869727 0
0.0925654 0.0977367 0.0906003 0.0956267 0.0925654 0.0977367 0.0906003 0.0956267 0
0.101576 0.106896 0.0993561 0.104519 0.101576 0.106896 0.0993561 0.104519 0
0.110823 0.116234 0.108336 0.1136 0.110823 0.116234 0.108336 0.1136 0
0.120214 0.125675 0.117479 0.122812 0.120214 0.125675 0.117479 0.122812 0
0.129707 0.13526 0.126758 0.132209 0.129707 0.13526 0.126758 0.132209 0
0.052963 0.0576904 0.0518879 0.0565045 0.052963 0.0576904 0.0518879 0.0565045 0
0.0611935 0.0660368 0.0599316 0.064678 0.0611935 0.0660368 0.0599316 0.064678 0
0.0695991 0.0744882 0.0681749 0.0729822 0.0695991 0.0744882 0.0681749 0.0729822 0
0.0781064 0.0831024 0.0765405 0.0814546 0.0781064 0.0831024 0.0765405 0.0814546 0
0.0868319 0.0920253 0.0851138 0.0901967 0.0868319 0.0920253 0.0851138 0.0901967 0
0.0959135 0.101343 0.0939896 0.0992689 0.0959135 0.101343 0.0939896 0.0992689 0
0.105383 0.110991 0.103192 0.10863 0.105383 0.110991 0.103192 0.10863 0
0.115125 0.120811 0.112643 0.118167 0.115125 0.120811 0.112643 0.118167 0
0.124948 0.130562 0.122215 0.127752 0.124948 0.130562 0.122215 0.127752 0
0.134747 0.140566 0.131848 0.1375 0.134747 0.140566 0.131848 0.1375 0
0.0547745 0.0596957 0.0537367 0.0585458 0.0547745 0.0596957 0.0537367 0.0585458 0
0.0633389 0.0683711 0.0621068 0.0670267 0.0633389 0.0683711 0.0621068 0.0670267 0
0.0720509 0.0770723 0.070638 0.0755845 0.0720509 0.0770723 0.070638 0.0755845 0
0.0807843 0.0859045 0.0792439 0.0842951 0.0807843 0.0859045 0.0792439 0.0842951 0
0.0897463 0.0951224 0.0880736 0.0933455 0.0897463 0.0951224 0.0880736 0.0933455 0
0.0991764 0.104876 0.0973037 0.102846 0.0991764 0.104876 0.0973037 0.102846 0
0.109132 0.11506 0.106975 0.112714 0.109132 0.11506 0.106975 0.112714 0
0.119421 0.125408 0.116941 0.122752 0.119421 0.125408 0.116941 0.122752 0
0.12972 0.135513 0.126959 0.132642 0.12972 0.135513 0.126959 0.132642 0
0.0563497 0.0614676 0.0554749 0.0604788 0.0563497 0.0614676 0.0554749 0.0604788 0
0.0652786 0.0705725 0.064189 0.0693214 0.0652786 0.0705725 0.064189 0.0693214 0
0.0744593 0.0797846 0.0730751 0.078198 0.0744593 0.0797846 0.0730751 0.078198 0
0.0836804 0.0889987 0.0819734 0.0871651 0.0836804 0.0889987 0.0819734 0.0871651 0
0.0929376 0.0983804 0.09105 0.0964718 0.0929376 0.0983804 0.09105 0.0964718 0
0.102468 0.108194 0.100561 0.10631 0.102468 0.108194 0.100561 0.10631 0
0.112506 0.118561 0.110615 0.116627 0.112506 0.118561 0.110615 0.116627 0
0.12309 0.12941 0.121069 0.127192 0.12309 0.12941 0.121069 0.127192 0
0 0 0 0 0 0 0 0 0
0 0 0 0 0 0 0 0 0
0 0 0 0 0 0 0 0 0
0 0 0 0 0 0 0 0 0
0 0 0 0 0 0 0 0 0
0 0 0 0 0 0 0 0 0
0 0 0 0 0 0 0 0 0
0 0 0 0 0 0 0 0 0
0 0 0 0 0 0 0 0 0
0 0 0 0 0 0 0 0 0
0 0 0 0 0 0 0 0 0
0 0 0 0 0 0 0 0 0
0 0 0 0 0 0 0 0 0
0 0 0 0 0 0 0 0 0
0 0 0 0 0 0 0 0 0
0 0 0 0 0 0 0 0 0
0 0 0 0 0 0 0 0 0
0 0 0 0 0 0 0 0 0
0 0 0 0 0 0 0 0 0
0 0 0 0 0 0 0 0 0
0 0 0 0 0 0 0 0 0
0 0 0 0 0 0 0 0 0
0 0 0 0 0 0 0 0 0
0 0 0 0 0 0 0 0 0
0 0 0 0 0 0 0 0 0
0 0 0 0 0 0 0 0 0
0 0 0 0 0 0 0 0 0
0 0 0 0 0 0 0 0 0
0 0 0 0 0 0 0 0 0
0 0 0 0 0 0 0 0 0
0 0 0 0 0 0 0 0 0
0 0 0 0 0 0 0 0 0
0 0 0 0 0 0 0 0 0
0 0 0 0 0 0 0 0 0
0 0 0 0 0 0 0 0 0
0 0 0 0 0 0 0 0 0
0 0 0 0 0 0 0 0 0
0 0 0 0 0 0 0 0 0
0 0 0 0 0 0 0 0 0
0 0 0 0 0 0 0 0 0
0 0 0 0 0 0 0 0 0
0 0 0 0 0 0 0 0 0
0 0 0 0 0 0 0 0 0
0 0 0 0 0 0 0 0 0
0 0 0 0 0 0 0 0 0
0 0 0 0 0 0 0 0 0
0 0 0 0 0 0 0 0 0
0 0 0 0 0 0 0 0 0
0 0 0 0 0 0 0 0 0
0 0 0 0 0 0 0 0 0
0 0 0 0 0 0 0 0 0
0 0 0 0 0 0 0 0 0
0 0 0 0 0 0 0 0 0
0 0 0 0 0 0 0 0 0
0 0 0 0 0 0 0 0 0
0 0 0 0 0 0 0 0 0
0 0 0 0 0 0 0 0 0
0 0 0 0 0 0 0 0 0
0 0 0 0 0 0 0 0 0
0 0 0 0 0 0 0 0 0
0 0 0 0 0 0 0 0 0
0 0 0 0 0 0 0 0 0
0 0 0 0 0 0 0 0 0
0 0 0 0 0 0 0 0 0
0 0 0 0 0 0 0 0 0
0 0 0 0 0 0 0 0 0
0 0 0 0 0 0 0 0 0
0 0 0 0 0 0 0 0 0
0 0 0 0 0 0 0 0 0
0 0 0 0 0 0 0 0 0
0 0 0 0 0 0 0 0 0
0 0 0 0 0 0 0 0 0
0 0 0 0 0 0 0 0 0
0 0 0 0 0 0 0 0 0
0 0 0 0 0 0 0 0 0
0 0 0 0 0 0 0 0 0
0 0 0 0 0 0 0 0 0
0 0 0 0 0 0 0 0 0
0 0 0 0 0 0 0 0 0
0 0 0 0 0 0 0 0 0
0 0 0 0 0 0 0 0 0
0 0 0 0 0 0 0 0 0
0 0 0 0 0 0 0 0 0
0 0 0 0 0 0 0 0 0
0 0 0 0 0 0 0 0 0
0 0 0 0 0 0 0 0 0
0 0 0 0 0 0 0 0 0
0 0 0 0 0 0 0 0 0
0 0 0 0 0 0 0 0 0
0 0 0 0 0 0 0 0 0
0 0 0 0 0 0 0 0 0
0 0 0 0 0 0 0 0 0
0 0 0 0 0 0 0 0 0
0 0 0 0 0 0 0 0 0
0 0 0 0 0 0 0 0 0
0 0 0 0 0 0 0 0 0
0 0 0 0 0 0 0 0 0
0 0 0 0 0 0 0 0 0
0 0 0 0 0 0 0 0 0
0 0 0 0 0 0 0 0 0
0 0 0 0 0 0 0 0 0
0 0 0 0 0 0 0 0 0
0 0 0 0 0 0 0 0 0
0 0 0 0 0 0 0 0 0
0 0 0 0 0 0 0 0 0
0 0 0 0 0 0 0 0 0
0 0 0 0 0 0 0 0 0
0 0 0 0 0 0 0 0 0
0 0 0 0 0 0 0 0 0
0 0 0 0 0 0 0 0 0
0 0 0 0 0 0 0 0 0
0 0 0 0 0 0 0 0 0
0 0 0 0 0 0 0 0 0
0 0 0 0 0 0 0 0 0
0 0 0 0 0 0 0 0 0
0 0 0 0 0 0 0 0 0
0 0 0 0 0 0 0 0 0
0 0 0 0 0 0 0 0 0
0 0 0 0 0 0 0 0 0
0 0 0 0 0 0 0 0 0
0 0 0 0 0 0 0 0 0
0 0 0 0 0 0 0 0 0
0 0 0 0 0 0 0 0 0
0 0 0 0 0 0 0 0 0
0 0 0 0 0 0 0 0 0
0 0 0 0 0 0 0 0 0
0 0 0 0 0 0 0 0 0
0 0 0 0 0 0 0 0 0
0 0 0 0 0 0 0 0 0
0 0 0 0 0 0 0 0 0
0 0 0 0 0 0 0 0 0
0 0 0 0 0 0 0 0 0
0 0 0 0 0 0 0 0 0
0 0 0 0 0 0 0 0 0
0 0 0 0 0 0 0 0 0
0 0 0 0 0 0 0 0 0
0 0 0 0 0 0 0 0 0
0 0 0 0 0 0 0 0 0
0 0 0 0 0 0 0 0 0
0 0 0 0 0 0 0 0 0
0 0 0 0 0 0 0 0 0
0 0 0 0 0 0 0 0 0
0 0 0 0 0 0 0 0 0
0 0 0 0 0 0 0 0 0
0 0 0 0 0 0 0 0 0
0 0 0 0 0 0 0 0 0
0 0 0 0 0 0 0 0 0
0 0 0 0 0 0 0 0 0
0 0 0 0 0 0 0 0 0
0 0 0 0 0 0 0 0 0
0 0 0 0 0 0 0 0 0
0 0 0 0 0 0 0 0 0
0 0 0 0 0 0 0 0 0
0 0 0 0 0 0 0 0 0
0 0 0 0 0 0 0 0 0
0 0 0 0 0 0 0 0 0
0 0 0 0 0 0 0 0 0
0 0 0 0 0 0 0 0 0
0 0 0 0 0 0 0 0 0
0 0 0 0 0 0 0 0 0
0 0 0 0 0 0 0 0 0
0 0 0 0 0 0 0 0 0
0 0 0 0 0 0 0 0 0
0 0 0 0 0 0 0 0 0
0 0 0 0 0 0 0 0 0
0 0 0 0 0 0 0 0 0
0 0 0 0 0 0 0 0 0
0 0 0 0 0 0 0 0 0
0 0 0 0 0 0 0 0 0
0 0 0 0 0 0 0 0 0
0 0 0 0 0 0 0 0 0
0 0 0 0 0 0 0 0 0
0 0 0 0 0 0 0 0 0
0 0 0 0 0 0 0 0 0
0 0 0 0 0 0 0 0 0
0 0 0 0 0 0 0 0 0
0 0 0 0 0 0 0 0 0
0 0 0 0 0 0 0 0 0
0 0 0 0 0 0 0 0 0
0 0 0 0 0 0 0 0 0
0 0 0 0 0 0 0 0 0
0 0 0 0 0 0 0 0 0
0 0 0 0 0 0 0 0 0
0 0 0 0 0 0 0 0 0
0 0 0 0 0 0 0 0 0
0 0 0 0 0 0 0 0 0
0 0 0 0 0 0 0 0 0
0 0 0 0 0 0 0 0 0
0 0 0 0 0 0 0 0 0
0 0 0 0 0 0 0 0 0
0 0 0 0 0 0 0 0 0
0 0 0 0 0 0 0 0 0
0 0 0 0 0 0 0 0 0
0 0 0 0 0 0 0 0 0
0 0 0 0 0 0 0 0 0
0 0 0 0 0 0 0 0 0
0 0 0 0 0 0 0 0 0
0 0 0 0 0 0 0 0 0
0 0 0 0 0 0 0 0 0
0 0 0 0 0 0 0 0 0
0 0 0 0 0 0 0 0 0
0 0 0 0 0 0 0 0 0
0 0 0 0 0 0 0 0 0
0 0 0 0 0 0 0 0 0
0 0 0 0 0 0 0 0 0
0 0 0 0 0 0 0 0 0
0 0 0 0 0 0 0 0 0
0 0 0 0 0 0 0 0 0
0 0 0 0 0 0 0 0 0
0 0 0 0 0 0 0 0 0
0 0 0 0 0 0 0 0 0
0 0 0 0 0 0 0 0 0
0 0 0 0 0 0 0 0 0
0 0 0 0 0 0 0 0 0
0 0 0 0 0 0 0 0 0
0 0 0 0 0 0 0 0 0
0 0 0 0 0 0 0 0 0
0 0 0 0 0 0 0 0 0
0 0 0 0 0 0 0 0 0
0 0 0 0 0 0 0 0 0
0 0 0 0 0 0 0 0 0
0 0 0 0 0 0 0 0 0
0 0 0 0 0 0 0 0 0
0 0 0 0 0 0 0 0 0
0 0 0 0 0 0 0 0 0
0 0 0 0 0 0 0 0 0
0 0 0 0 0 0 0 0 0
0 0 0 0 0 0 0 0 0
0 0 0 0 0 0 0 0 0
0 0 0 0 0 0 0 0 0
0 0 0 0 0 0 0 0 0
0 0 0 0 0 0 0 0 0
0 0 0 0 0 0 0 0 0
0 0 0 0 0 0 0 0 0
0 0 0 0 0 0 0 0 0
0 0 0 0 0 0 0 0 0
0 0 0 0 0 0 0 0 0
0 0 0 0 0 0 0 0 0
0 0 0 0 0 0 0 0 0
0 0 0 0 0 0 0 0 0
0 0 0 0 0 0 0 0 0
0 0 0 0 0 0 0 0 0
0 0 0 0 0 0 0 0 0
0 0 0 0 0 0 0 0 0
0 0 0 0 0 0 0 0 0
0 0 0 0 0 0 0 0 0
0 0 0 0 0 0 0 0 0
0 0 0 0 0 0 0 0 0
0 0 0 0 0 0 0 0 0
0 0 0 0 0 0 0 0 0
0 0 0 0 0 0 0 0 0
0 0 0 0 0 0 0 0 0
0 0 0 0 0 0 0 0 0
0 0 0 0 0 0 0 0 0
0 0 0 0 0 0 0 0 0
0 0 0 0 0 0 0 0 0
0 0 0 0 0 0 0 0 0
0 0 0 0 0 0 0 0 0
0 0 0 0 0 0 0 0 0
0 0 0 0 0 0 0 0 0
0 0 0 0 0 0 0 0 0
0 0 0 0 0 0 0 0 0
0 0 0 0 0 0 0 0 0
0 0 0 0 0 0 0 0 0
0 0 0 0 0 0 0 0 0
0 0 0 0 0 0 0 0 0
0 0 0 0 0 0 0 0 0
0 0 0 0 0 0 0 0 0
0 0 0 0 0 0 0 0 0
0 0 0 0 0 0 0 0 0
0 0 0 0 0 0 0 0 0
0 0 0 0 0 0 0 0 0
0 0 0 0 0 0 0 0 0
0 0 0 0 0 0 0 0 0
0 0 0 0 0 0 0 0 0
0 0 0 0 0 0 0 0 0
0 0 0 0 0 0 0 0 0
0 0 0 0 0 0 0 0 0
0 0 0 0 0 0 0 0 0
0 0 0 0 0 0 0 0 0
0 0 0 0 0 0 0 0 0
0 0 0 0 0 0 0 0 0
0 0 0 0 0 0 0 0 0
0 0 0 0 0 0 0 0 0
0 0 0 0 0 0 0 0 0
0 0 0 0 0 0 0 0 0
0 0 0 0 0 0 0 0 0
0 0 0 0 0 0 0 0 0
0 0 0 0 0 0 0 0 0
0 0 0 0 0 0 0 0 0
0 0 0 0 0 0 0 0 0
0 0 0 0 0 0 0 0 0
0 0 0 0 0 0 0 0 0
0 0 0 0 0 0 0 0 0
0 0 0 0 0 0 0 0 0
0 0 0 0 0 0 0 0 0
0 0 0 0 0 0 0 0 0
0 0 0 0 0 0 0 0 0
0 0 0 0 0 0 0 0 0
0 0 0 0 0 0 0 0 0
0 0 0 0 0 0 0 0 0
0 0 0 0 0 0 0 0 0
0 0 0 0 0 0 0 0 0
0 0 0 0 0 0 0 0 0
0 0 0 0 0 0 0 0 0
0 0 0 0 0 0 0 0 0
0 0 0 0 0 0 0 0 0
0 0 0 0 0 0 0 0 0
0 0 0 0 0 0 0 0 0
0 0 0 0 0 0 0 0 0
0 0 0 0 0 0 0 0 0
0 0 0 0 0 0 0 0 0
0 0 0 0 0 0 0 0 0
0 0 0 0 0 0 0 0 0
0 0 0 0 0 0 0 0 0
0 0 0 0 0 0 0 0 0
0 0 0 0 0 0 0 0 0
0 0 0 0 0 0 0 0 0
0 0 0 0 0 0 0 0 0
0 0 0 0 0 0 0 0 0
0 0 0 0 0 0 0 0 0
0 0 0 0 0 0 0 0 0
0 0 0 0 0 0 0 0 0
0 0 0 0 0 0 0 0 0
0 0 0 0 0 0 0 0 0
0 0 0 0 0 0 0 0 0
0 0 0 0 0 0 0 0 0
0 0 0 0 0 0 0 0 0
0 0 0 0 0 0 0 0 0
0 0 0 0 0 0 0 0 0
0 0 0 0 0 0 0 0 0
0 0 0 0 0 0 0 0 0
0 0 0 0 0 0 0 0 0
0 0 0 0 0 0 0 0 0
0 0 0 0 0 0 0 0 0
0 0 0 0 0 0 0 0 0
0 0 0 0 0 0 0 0 0
0 0 0 0 0 0 0 0 0
0 0 0 0 0 0 0 0 0
0 0 0 0 0 0 0 0 0
0 0 0 0 0 0 0 0 0
0 0 0 0 0 0 0 0 0
0 0 0 0 0 0 0 0 0
0 0 0 0 0 0 0 0 0
0 0 0 0 0 0 0 0 0
0 0 0 0 0 0 0 0 0
0 0 0 0 0 0 0 0 0
0 0 0 0 0 0 0 0 0
0 0 0 0 0 0 0 0 0
0 0 0 0 0 0 0 0 0
0 0 0 0 0 0 0 0 0
0 0 0 0 0 0 0 0 0
0 0 0 0 0 0 0 0 0
0 0 0 0 0 0 0 0 0
0 0 0 0 0 0 0 0 0
0 0 0 0 0 0 0 0 0
0 0 0 0 0 0 0 0 0
0 0 0 0 0 0 0 0 0
0 0 0 0 0 0 0 0 0
0 0 0 0 0 0 0 0 0
0 0 0 0 0 0 0 0 0
0 0 0 0 0 0 0 0 0
0 0 0 0 0 0 0 0 0
0 0 0 0 0 0 0 0 0
0 0 0 0 0 0 0 0 0
0 0 0 0 0 0 0 0 0
0 0 0 0 0 0 0 0 0
0 0 0 0 0 0 0 0 0
0 0 0 0 0 0 0 0 0
0 0 0 0 0 0 0 0 0
0 0 0 0 0 0 0 0 0
0 0 0 0 0 0 0 0 0
0 0 0 0 0 0 0 0 0
0 0 0 0 0 0 0 0 0
0 0 0 0 0 0 0 0 0
0 0 0 0 0 0 0 0 0
0 0 0 0 0 0 0 0 0
0 0 0 0 0 0 0 0 0
0 0 0 0 0 0 0 0 0
0 0 0 0 0 0 0 0 0
0 0 0 0 0 0 0 0 0
0 0 0 0 0 0 0 0 0
0 0 0 0 0 0 0 0 0
0 0 0 0 0 0 0 0 0
0 0 0 0 0 0 0 0 0
0 0 0 0 0 0 0 0 0
0 0 0 0 0 0 0 0 0
0 0 0 0 0 0 0 0 0
0 0 0 0 0 0 0 0 0
0 0 0 0 0 0 0 0 0
0 0 0 0 0 0 0 0 0
0 0 0 0 0 0 0 0 0
0 0 0 0 0 0 0 0 0
0 0 0 0 0 0 0 0 0
0 0 0 0 0 0 0 0 0
0 0 0 0 0 0 0 0 0
0 0 0 0 0 0 0 0 0
0 0 0 0 0 0 0 0 0
0 0 0 0 0 0 0 0 0
0 0 0 0 0 0 0 0 0
0 0 0 0 0 0 0 0 0
0 0 0 0 0 0 0 0 0
0 0 0 0 0 0 0 0 0
0 0 0 0 0 0 0 0 0
0 0 0 0 0 0 0 0 0
0 0 0 0 0 0 0 0 0
0 0 0 0 0 0 0 0 0
0 0 0 0 0 0 0 0 0
0 0 0 0 0 0 0 0 0
0 0 0 0 0 0 0 0 0
0 0 0 0 0 0 0 0 0
0 0 0 0 0 0 0 0 0
0 0 0 0 0 0 0 0 0
0 0 0 0 0 0 0 0 0
0 0 0 0 0 0 0 0 0
0 0 0 0 0 0 0 0 0
0 0 0 0 0 0 0 0 0
0 0 0 0 0 0 0 0 0
0 0 0 0 0 0 0 0 0
0 0 0 0 0 0 0 0 0
0 0 0 0 0 0 0 0 0
0 0 0 0 0 0 0 0 0
0 0 0 0 0 0 0 0 0
0 0 0 0 0 0 0 0 0
0 0 0 0 0 0 0 0 0
0 0 0 0 0 0 0 0 0
0 0 0 0 0 0 0 0 0
0 0 0 0 0 0 0 0 0
0 0 0 0 0 0 0 0 0
0 0 0 0 0 0 0 0 0
0 0 0 0 0 0 0 0 0
0 0 0 0 0 0 0 0 0
0 0 0 0 0 0 0 0 0
0 0 0 0 0 0 0 0 0
0 0 0 0 0 0 0 0 0
0 0 0 0 0 0 0 0 0
0 0 0 0 0 0 0 0 0
0 0 0 0 0 0 0 0 0
0 0 0 0 0 0 0 0 0
0 0 0 0 0 0 0 0 0
0 0 0 0 0 0 0 0 0
0 0 0 0 0 0 0 0 0
0 0 0 0 0 0 0 0 0
0 0 0 0 0 0 0 0 0
0 0 0 0 0 0 0 0 0
0 0 0 0 0 0 0 0 0
0 0 0 0 0 0 0 0 0
0 0 0 0 0 0 0 0 0
0 0 0 0 0 0 0 0 0
0 0 0 0 0 0 0 0 0
0 0 0 0 0 0 0 0 0
0 0 0 0 0 0 0 0 0
0 0 0 0 0 0 0 0 0
0 0 0 0 0 0 0 0 0
0 0 0 0 0 0 0 0 0
0 0 0 0 0 0 0 0 0
0 0 0 0 0 0 0 0 0
0 0 0 0 0 0 0 0 0
0 0 0 0 0 0 0 0 0
0 0 0 0 0 0 0 0 0
0 0 0 0 0 0 0 0 0
0 0 0 0 0 0 0 0 0
0 0 0 0 0 0 0 0 0
0 0 0 0 0 0 0 0 0
0 0 0 0 0 0 0 0 0
0 0 0 0 0 0 0 0 0
0 0 0 0 0 0 0 0 0
0 0 0 0 0 0 0 0 0
0 0 0 0 0 0 0 0 0
0 0 0 0 0 0 0 0 0
0 0 0 0 0 0 0 0 0
0 0 0 0 0 0 0 0 0
0 0 0 0 0 0 0 0 0
0 0 0 0 0 0 0 0 0
0 0 0 0 0 0 0 0 0
0 0 0 0 0 0 0 0 0
0 0 0 0 0 0 0 0 0
0 0 0 0 0 0 0 0 0
0 0 0 0 0 0 0 0 0
0 0 0 0 0 0 0 0 0
0 0 0 0 0 0 0 0 0
0 0 0 0 0 0 0 0 0
0 0 0 0 0 0 0 0 0
0 0 0 0 0 0 0 0 0
0 0 0 0 0 0 0 0 0
0 0 0 0 0 0 0 0 0
0 0 0 0 0 0 0 0 0
0 0 0 0 0 0 0 0 0
0 0 0 0 0 0 0 0 0
0 0 0 0 0 0 0 0 0
0 0 0 0 0 0 0 0 0
0 0 0 0 0 0 0 0 0
0 0 0 0 0 0 0 0 0
0 0 0 0 0 0 0 0 0
0 0 0 0 0 0 0 0 0
0 0 0 0 0 0 0 0 0
0 0 0 0 0 0 0 0 0
0 0 0 0 0 0 0 0 0
0 0 0 0 0 0 0 0 0
0 0 0 0 0 0 0 0 0
0 0 0 0 0 0 0 0 0
0 0 0 0 0 0 0 0 0
0 0 0 0 0 0 0 0 0
0 0 0 0 0 0 0 0 0
0 0 0 0 0 0 0 0 0
0 0 0 0 0 0 0 0 0
0 0 0 0 0 0 0 0 0
0 0 0 0 0 0 0 0 0
0 0 0 0 0 0 0 0 0
0 0 0 0 0 0 0 0 0
0 0 0 0 0 0 0 0 0
0 0 0 0 0 0 0 0 0
0 0 0 0 0 0 0 0 0
0 0 0 0 0 0 0 0 0
0 0 0 0 0 0 0 0 0
0 0 0 0 0 0 0 0 0
0 0 0 0 0 0 0 0 0
0 0 0 0 0 0 0 0 0
0 0 0 0 0 0 0 0 0
0 0 0 0 0 0 0 0 0
0 0 0 0 0 0 0 0 0
0 0 0 0 0 0 0 0 0
0 0 0 0 0 0 0 0 0
0 0 0 0 0 0 0 0 0
0 0 0 0 0 0 0 0 0
0 0 0 0 0 0 0 0 0
0 0 0 0 0 0 0 0 0
0 0 0 0 0 0 0 0 0
0 0 0 0 0 0 0 0 0
0 0 0 0 0 0 0 0 0
0 0 0 0 0 0 0 0 0
0 0 0 0 0 0 0 0 0
0 0 0 0 0 0 0 0 0
0 0 0 0 0 0 0 0 0
0 0 0 0 0 0 0 0 0
0 0 0 0 0 0 0 0 0
0 0 0 0 0 0 0 0 0
0 0 0 0 0 0 0 0 0
0 0 0 0 0 0 0 0 0
0 0 0 0 0 0 0 0 0
0 0 0 0 0 0 0 0 0
0 0 0 0 0 0 0 0 0
0 0 0 0 0 0 0 0 0
0 0 0 0 0 0 0 0 0
0 0 0 0 0 0 0 0 0
0 0 0 0 0 0 0 0 0
0 0 0 0 0 0 0 0 0
0 0 0 0 0 0 0 0 0
0 0 0 0 0 0 0 0 0
0 0 0 0 0 0 0 0 0
0 0 0 0 0 0 0 0 0
0 0 0 0 0 0 0 0 0
0 0 0 0 0 0 0 0 0
0.0409067 0.0434728 0.039805 0.0420694 0.0409067 0.0434728 0.039805 0.0420694 0
0.0452142 0.0474058 0.0437013 0.0458953 0.0452142 0.0474058 0.0437013 0.0458953 0
0.0490348 0.0512936 0.0475081 0.0497203 0.0490348 0.0512936 0.0475081 0.0497203 0
0.0529501 0.0552165 0.0513599 0.0536272 0.0529501 0.0552165 0.0513599 0.0536272 0
0.0569198 0.0593064 0.0553043 0.0576189 0.0569198 0.0593064 0.0553043 0.0576189 0
0.0306687 0.0330665 0.0296327 0.0318575 0.0306687 0.0330665 0.0296327 0.0318575 0
0.034817 0.0372017 0.033527 0.0358634 0.034817 0.0372017 0.033527 0.0358634 0
0.0389455 0.041325 0.0375876 0.0399616 0.0389455 0.041325 0.0375876 0.0399616 0
0.0430808 0.0454981 0.0417848 0.0443919 0.0430808 0.0454981 0.0417848 0.0443919 0
0.0472266 0.0495317 0.0461592 0.0483806 0.0472266 0.0495317 0.0461592 0.0483806 0
0.0512406 0.053604 0.0500353 0.0523347 0.0512406 0.053604 0.0500353 0.0523347 0
0.0553454 0.0577393 0.0540184 0.0563188 0.0553454 0.0577393 0.0540184 0.0563188 0
0.0595503 0.0621038 0.0580579 0.0605086 0.0595503 0.0621038 0.0580579 0.0605086 0
0.0282718 0.0305335 0.0275026 0.0296769 0.0282718 0.0305335 0.0275026 0.0296769 0
0.0322436 0.0346541 0.0313685 0.0338162 0.0322436 0.0346541 0.0313685 0.0338162 0
0.036436 0.0388939 0.0355968 0.038014 0.036436 0.0388939 0.0355968 0.038014 0
0.0406982 0.0431697 0.0397793 0.0421849 0.0406982 0.0431697 0.0397793 0.0421849 0
0.0449695 0.0474151 0.0439344 0.0463085 0.0449695 0.0474151 0.0439344 0.0463085 0
0.0492034 0.0516435 0.0480427 0.0504064 0.0492034 0.0516435 0.0480427 0.0504064 0
0.0534492 0.0559423 0.0521557 0.0545711 0.0534492 0.0559423 0.0521557 0.0545711 0
0.0577845 0.0603241 0.0563549 0.058813 0.0577845 0.0603241 0.0563549 0.058813 0
0.0622408 0.0649375 0.0606715 0.063291 0.0622408 0.0649375 0.0606715 0.063291 0
0.0254235 0.0278256 0.0248795 0.0271489 0.0254235 0.0278256 0.0248795 0.0271489 0
0.0295676 0.0319249 0.0288254 0.0311361 0.0295676 0.0319249 0.0288254 0.0311361 0
0.0336881 0.0361482 0.0328654 0.0352792 0.0336881 0.0361482 0.0328654 0.0352792 0
0.0379713 0.0404919 0.0370726 0.0395581 0.0379713 0.0404919 0.0370726 0.0395581 0
0.0423533 0.0449184 0.0413882 0.0439024 0.0423533 0.0449184 0.0413882 0.0439024 0
0.0467981 0.0493684 0.0457371 0.0482354 0.0467981 0.0493684 0.0457371 0.0482354 0
0.0512545 0.053837 0.0500644 0.0525631 0.0512545 0.053837 0.0500644 0.0525631 0
0.0557466 0.0583813 0.0544118 0.0569637 0.0557466 0.0583813 0.0544118 0.0569637 0
0.060325 0.0630006 0.0588487 0.0614466 0.060325 0.0630006 0.0588487 0.0614466 0
0.0650131 0.0678353 0.0634046 0.0661557 0.0650131 0.0678353 0.0634046 0.0661557 0
0.0266567 0.0291145 0.0258999 0.0283525 0.0266567 0.0291145 0.0258999 0.0283525 0
0.0309093 0.0333552 0.0301262 0.0325197 0.0309093 0.0333552 0.0301262 0.0325197 0
0.0351712 0.0376867 0.0343062 0.0367936 0.0351712 0.0376867 0.0343062 0.0367936 0
0.0395541 0.0421402 0.0386365 0.041184 0.0395541 0.0421402 0.0386365 0.041184 0
0.0440584 0.0467128 0.0430691 0.0456717 0.0440584 0.0467128 0.0430691 0.0456717 0
0.0486711 0.0513666 0.0475845 0.0502078 0.0486711 0.0513666 0.0475845 0.0502078 0
0.0533523 0.0560815 0.0521358 0.0547801 0.0533523 0.0560815 0.0521358 0.0547801 0
0.0580983 0.0608787 0.0567348 0.0594307 0.0580983 0.0608787 0.0567348 0.0594307 0
0.0629295 0.0657518 0.0614188 0.0641546 0.0629295 0.0657518 0.0614188 0.0641546 0
0.0678569 0.0707858 0.0662065 0.0690764 0.0678569 0.0707858 0.0662065 0.0690764 0
0.0279034 0.0304378 0.0271937 0.0296734 0.0279034 0.0304378 0.0271937 0.0296734 0
0.0322877 0.0348072 0.0314887 0.0339683 0.0322877 0.0348072 0.0314887 0.0339683 0
0.0366706 0.0392422 0.0358049 0.0383431 0.0366706 0.0392422 0.0358049 0.0383431 0
0.0411532 0.0438025 0.0402287 0.0428421 0.0411532 0.0438025 0.0402287 0.0428421 0
0.0457767 0.0485208 0.0447841 0.0474765 0.0457767 0.0485208 0.0447841 0.0474765 0
0.0505586 0.0533819 0.0494683 0.0522174 0.0505586 0.0533819 0.0494683 0.0522174 0
0.0554688 0.0583473 0.0542457 0.0570377 0.0554688 0.0583473 0.0542457 0.0570377 0
0.0604718 0.0633975 0.0590999 0.061942 0.0604718 0.0633975 0.0590999 0.061942 0
0.0655538 0.068519 0.0640379 0.0669217 0.0655538 0.068519 0.0640379 0.0669217 0
0.0707158 0.0737521 0.0690656 0.072039 0.0707158 0.0737521 0.0690656 0.072039 0
0.0290558 0.0317286 0.0284026 0.0309887 0.0290558 0.0317286 0.0284026 0.0309887 0
0.0336551 0.0362456 0.0328683 0.0354176 0.0336551 0.0362456 0.0328683 0.0354176 0
0.0381547 0.0407798 0.0373005 0.0398953 0.0381547 0.0407798 0.0373005 0.0398953 0
0.0427303 0.045434 0.0418237 0.0444973 0.0427303 0.045434 0.0418237 0.0444973 0
0.0474599 0.0502908 0.0464939 0.0492751 0.0474599 0.0502908 0.0464939 0.0492751 0
0.0524107 0.0553713 0.0513473 0.0542272 0.0524107 0.0553713 0.0513473 0.0542272 0
0.0575677 0.0606076 0.0563593 0.0593042 0.0575677 0.0606076 0.0563593 0.0593042 0
0.0628476 0.0659273 0.0614763 0.0644657 0.0628476 0.0659273 0.0614763 0.0644657 0
0.0681657 0.0712011 0.0666602 0.069666 0.0681657 0.0712011 0.0666602 0.069666 0
0.0734978 0.076737 0.0719038 0.0750114 0.0734978 0.076737 0.0719038 0.0750114 0
0.0301372 0.0329516 0.0295207 0.0322547 0.0301372 0.0329516 0.0295207 0.0322547 0
0.0349617 0.0376391 0.0342162 0.0368411 0.0349617 0.0376391 0.0342162 0.0368411 0
0.0395976 0.0422709 0.0387704 0.0414166 0.0395976 0.0422709 0.0387704 0.0414166 0
0.0442546 0.0470009 0.0433819 0.0461051 0.0442546 0.0470009 0.0433819 0.0461051 0
0.0490735 0.0519898 0.0481513 0.0510184 0.0490735 0.0519898 0.0481513 0.0510184 0
0.0541962 0.0573078 0.0531743 0.056197 0.0541962 0.0573078 0.0531743 0.056197 0
0.0596256 0.0628464 0.0584432 0.0615571 0.0596256 0.0628464 0.0584432 0.0615571 0
0.0652344 0.0685379 0.0638549 0.0670188 0.0652344 0.0685379 0.0638549 0.0670188 0
0.0709088 0.0740827 0.0693044 0.0723849 0.0709088 0.0740827 0.0693044 0.0723849 0
0.0309832 0.0340152 0.0305292 0.0334235 0.0309832 0.0340152 0.0305292 0.0334235 0
0.036198 0.0391295 0.0354929 0.0382524 0.036198 0.0391295 0.0354929 0.0382524 0
0.0412319 0.044044 0.0402573 0.0429751 0.0412319 0.044044 0.0402573 0.0429751 0
0.0460979 0.048897 0.0449825 0.0477492 0.0460979 0.048897 0.0449825 0.0477492 0
0.0509872 0.0538984 0.0498336 0.0527617 0.0509872 0.0538984 0.0498336 0.0527617 0
0.0561013 0.0592085 0.0549807 0.058115 0.0561013 0.0592085 0.0549807 0.058115 0
0.0615563 0.0648633 0.06046 0.0637325 0.0615563 0.0648633 0.06046 0.0637325 0
0.0673532 0.0708486 0.066172 0.0695644 0.0673532 0.0708486 0.066172 0.0695644 0
0 0 0 0 0 0 0 0 0
0 0 0 0 0 0 0 0 0
0 0 0 0 0 0 0 0 0
0 0 0 0 0 0 0 0 0
0 0 0 0 0 0 0 0 0
0 0 0 0 0 0 0 0 0
0 0 0 0 0 0 0 0 0
0 0 0 0 0 0 0 0 0
0 0 0 0 0 0 0 0 0
0 0 0 0 0 0 0 0 0
0 0 0 0 0 0 0 0 0
0 0 0 0 0 0 0 0 0
0 0 0 0 0 0 0 0 0
0 0 0 0 0 0 0 0 0
0 0 0 0 0 0 0 0 0
0 0 0 0 0 0 0 0 0
0 0 0 0 0 0 0 0 0
0 0 0 0 0 0 0 0 0
0 0 0 0 0 0 0 0 0
0 0 0 0 0 0 0 0 0
0 0 0 0 0 0 0 0 0
0 0 0 0 0 0 0 0 0
0 0 0 0 0 0 0 0 0
0 0 0 0 0 0 0 0 0
0 0 0 0 0 0 0 0 0
0 0 0 0 0 0 0 0 0
0 0 0 0 0 0 0 0 0
0 0 0 0 0 0 0 0 0
0 0 0 0 0 0 0 0 0
0 0 0 0 0 0 0 0 0
0 0 0 0 0 0 0 0 0
0 0 0 0 0 0 0 0 0
0 0 0 0 0 0 0 0 0
0 0 0 0 0 0 0 0 0
0 0 0 0 0 0 0 0 0
0 0 0 0 0 0 0 0 0
0 0 0 0 0 0 0 0 0
0 0 0 0 0 0 0 0 0
0 0 0 0 0 0 0 0 0
0 0 0 0 0 0 0 0 0
0 0 0 0 0 0 0 0 0
0 0 0 0 0 0 0 0 0
0 0 0 0 0 0 0 0 0
0 0 0 0 0 0 0 0 0
0 0 0 0 0 0 0 0 0
0 0 0 0 0 0 0 0 0
0 0 0 0 0 0 0 0 0
0 0 0 0 0 0 0 0 0
0 0 0 0 0 0 0 0 0
0 0 0 0 0 0 0 0 0
0 0 0 0 0 0 0 0 0
0 0 0 0 0 0 0 0 0
0 0 0 0 0 0 0 0 0
0 0 0 0 0 0 0 0 0
0 0 0 0 0 0 0 0 0
0 0 0 0 0 0 0 0 0
0 0 0 0 0 0 0 0 0
0 0 0 0 0 0 0 0 0
0 0 0 0 0 0 0 0 0
0 0 0 0 0 0 0 0 0
0 0 0 0 0 0 0 0 0
0 0 0 0 0 0 0 0 0
0 0 0 0 0 0 0 0 0
0 0 0 0 0 0 0 0 0
0 0 0 0 0 0 0 0 0
0 0 0 0 0 0 0 0 0
0 0 0 0 0 0 0 0 0
0 0 0 0 0 0 0 0 0
0 0 0 0 0 0 0 0 0
0 0 0 0 0 0 0 0 0
0 0 0 0 0 0 0 0 0
0 0 0 0 0 0 0 0 0
0 0 0 0 0 0 0 0 0
0 0 0 0 0 0 0 0 0
0 0 0 0 0 0 0 0 0
0 0 0 0 0 0 0 0 0
0 0 0 0 0 0 0 0 0
0 0 0 0 0 0 0 0 0
0 0 0 0 0 0 0 0 0
0.0398662 0.0423449 0.0388258 0.0410126 0.0398662 0.0423449 0.0388258 0.0410126 0
0.0440364 0.0461787 0.0425933 0.0447251 0.0440364 0.0461787 0.0425933 0.0447251 0
0.047777 0.0500011 0.0463026 0.0484805 0.047777 0.0500011 0.0463026 0.0484805 0
0.0516239 0.053833 0.0500838 0.0522863 0.0516239 0.053833 0.0500838 0.0522863 0
0.0554871 0.0577968 0.0539108 0.0561462 0.0554871 0.0577968 0.0539108 0.0561462 0
0.0299121 0.0322404 0.0288842 0.0310476 0.0299121 0.0322404 0.0288842 0.0310476 0
0.0339464 0.0362792 0.0326776 0.0349677 0.0339464 0.0362792 0.0326776 0.0349677 0
0.0379764 0.0402804 0.0366477 0.0389475 0.0379764 0.0402804 0.0366477 0.0389475 0
0.0419778 0.0443112 0.040711 0.0432291 0.0419778 0.0443112 0.040711 0.0432291 0
0.0459868 0.048231 0.0449459 0.0471184 0.0459868 0.048231 0.0449459 0.0471184 0
0.049901 0.0522193 0.0487414 0.0510033 0.049901 0.0522193 0.0487414 0.0510033 0
0.0539239 0.0562627 0.0526532 0.0548988 0.0539239 0.0562627 0.0526532 0.0548988 0
0.0580219 0.060489 0.056589 0.0589608 0.0580219 0.060489 0.056589 0.0589608 0
0.0276079 0.0297838 0.0268645 0.0289598 0.0276079 0.0297838 0.0268645 0.0289598 0
0.0314378 0.0337809 0.0305966 0.032973 0.0314378 0.0337809 0.0305966 0.032973 0
0.0355159 0.0379129 0.0347072 0.0370687 0.0355159 0.0379129 0.0347072 0.0370687 0
0.0396664 0.0420601 0.0387855 0.0411147 0.0396664 0.0420601 0.0387855 0.0411147 0
0.0438016 0.0461658 0.0428062 0.0450984 0.0438016 0.0461658 0.0428062 0.0450984 0
0.0478993 0.050271 0.0467784 0.049076 0.0478993 0.050271 0.0467784 0.049076 0
0.0520299 0.0544636 0.0507824 0.0531468 0.0520299 0.0544636 0.0507824 0.0531468 0
0.0562609 0.0587375 0.0548909 0.0572916 0.0562609 0.0587375 0.0548909 0.0572916 0
0.0606013 0.0632165 0.0590973 0.0616297 0.0606013 0.0632165 0.0590973 0.0616297 0
0.0249002 0.0271802 0.0244056 0.026543 0.0249002 0.0271802 0.0244056 0.026543 0
0.0288507 0.0311349 0.0281403 0.0303668 0.0288507 0.0311349 0.0281403 0.0303668 0
0.0328453 0.0352341 0.0320406 0.034387 0.0328453 0.0352341 0.0320406 0.034387 0
0.0370052 0.039455 0.0361319 0.0385526 0.0370052 0.039455 0.0361319 0.0385526 0
0.0412611 0.043746 0.04033 0.0427654 0.0412611 0.043746 0.04033 0.0427654 0
0.0455661 0.0480539 0.0445414 0.046958 0.0455661 0.0480539 0.0445414 0.046958 0
0.0498822 0.0523895 0.0487312 0.0511591 0.0498822 0.0523895 0.0487312 0.0511591 0
0.0542461 0.0568111 0.0529583 0.0554458 0.0542461 0.0568111 0.0529583 0.0554458 0
0.0587039 0.06131 0.0572829 0.0598146 0.0587039 0.06131 0.0572829 0.0598146 0
0.0632661 0.0660042 0.0617187 0.064389 0.0632661 0.0660042 0.0617187 0.064389 0
0.0260851 0.0284421 0.0253504 0.0276892 0.0260851 0.0284421 0.0253504 0.0276892 0
0.0301708 0.032537 0.029395 0.0317166 0.0301708 0.032537 0.029395 0.0317166 0
0.0342957 0.0367345 0.0334498 0.0358633 0.0342957 0.0367345 0.0334498 0.0358633 0
0.0385448 0.041052 0.0376519 0.0401249 0.0385448 0.041052 0.0376519 0.0401249 0
0.0429103 0.0454803 0.0419527 0.0444736 0.0429103 0.0454803 0.0419527 0.0444736 0
0.047376 0.0499853 0.0463259 0.0488653 0.047376 0.0499853 0.0463259 0.0488653 0
0.0519095 0.054557 0.0507341 0.0533002 0.0519095 0.054557 0.0507341 0.0533002 0
0.0565155 0.0592187 0.0551995 0.0578223 0.0565155 0.0592187 0.0551995 0.0578223 0
0.0612138 0.0639613 0.0597575 0.0624214 0.0612138 0.0639613 0.0597575 0.0624214 0
0.066006 0.0688446 0.0644152 0.0671984 0.066006 0.0688446 0.0644152 0.0671984 0
0.0273027 0.029741 0.0266084 0.028992 0.0273027 0.029741 0.0266084 0.028992 0
0.0315251 0.033961 0.0307417 0.0331385 0.0315251 0.033961 0.0307417 0.0331385 0
0.0357635 0.0382522 0.0349158 0.0373747 0.0357635 0.0382522 0.0349158 0.0373747 0
0.0401019 0.0426666 0.0392014 0.0417332 0.0401019 0.0426666 0.0392014 0.0417332 0
0.0445769 0.0472313 0.0436137 0.0462194 0.0445769 0.0472313 0.0436137 0.0462194 0
0.0492028 0.0519348 0.0481471 0.050808 0.0492028 0.0519348 0.0481471 0.050808 0
0.053956 0.0567463 0.052773 0.0554806 0.053956 0.0567463 0.052773 0.0554806 0
0.058808 0.0616504 0.0574826 0.0602446 0.058808 0.0616504 0.0574826 0.0602446 0
0.0637477 0.0666354 0.0622832 0.0650907 0.0637477 0.0666354 0.0622832 0.0650907 0
0.0687667 0.0717017 0.0671722 0.0700516 0.0687667 0.0717017 0.0671722 0.0700516 0
0.0284207 0.030999 0.0277884 0.0302789 0.0284207 0.030999 0.0277884 0.0302789 0
0.0328597 0.0353648 0.0320927 0.0345577 0.0328597 0.0353648 0.0320927 0.0345577 0
0.037211 0.0397497 0.0363787 0.0388888 0.037211 0.0397497 0.0363787 0.0388888 0
0.0416357 0.0442497 0.0407543 0.0433411 0.0416357 0.0442497 0.0407543 0.0433411 0
0.0462079 0.0489438 0.0452722 0.0479615 0.0462079 0.0489438 0.0452722 0.0479615 0
0.0509937 0.0538583 0.0499658 0.0527523 0.0509937 0.0538583 0.0499658 0.0527523 0
0.0559846 0.0589293 0.0548168 0.0576705 0.0559846 0.0589293 0.0548168 0.0576705 0
0.0611013 0.0640907 0.0597778 0.0626811 0.0611013 0.0640907 0.0597778 0.0626811 0
0.0662583 0.069191 0.0648131 0.0677343 0.0662583 0.069191 0.0648131 0.0677343 0
0.0714204 0.0745785 0.0699053 0.072915 0.0714204 0.0745785 0.0699053 0.072915 0
0.0294708 0.0321859 0.0288716 0.0315101 0.0294708 0.0321859 0.0288716 0.0315101 0
0.0341295 0.0367246 0.0334055 0.0359456 0.0341295 0.0367246 0.0334055 0.0359456 0
0.0386211 0.0412076 0.037812 0.0403712 0.0386211 0.0412076 0.037812 0.0403712 0
0.0431254 0.0457786 0.0422712 0.044903 0.0431254 0.0457786 0.0422712 0.044903 0
0.0477803 0.0505959 0.0468801 0.0496498 0.0477803 0.0505959 0.0468801 0.0496498 0
0.0527278 0.0557368 0.051734 0.0546582 0.0527278 0.0557368 0.051734 0.0546582 0
0.0579811 0.0611034 0.0568327 0.0598493 0.0579811 0.0611034 0.0568327 0.0598493 0
0.0634148 0.0666075 0.0620761 0.065143 0.0634148 0.0666075 0.0620761 0.065143 0
0.0688979 0.0719628 0.0673531 0.0703243 0.0688979 0.0719628 0.0673531 0.0703243 0
0.0302854 0.0332227 0.0298497 0.0326448 0.0302854 0.0332227 0.0298497 0.0326448 0
0.0353349 0.0381683 0.0346465 0.0373202 0.0353349 0.0381683 0.0346465 0.0373202 0
0.0402036 0.0429308 0.039262 0.0418935 0.0402036 0.0429308 0.039262 0.0418935 0
0.044917 0.0476164 0.0438345 0.0465058 0.044917 0.0476164 0.0438345 0.0465058 0
0.0496335 0.0524452 0.0485182 0.051345 0.0496335 0.0524452 0.0485182 0.051345 0
0.0545749 0.0575819 0.0534892 0.0565204 0.0545749 0.0575819 0.0534892 0.0565204 0
0.0598553 0.0630593 0.0587911 0.0619637 0.0598553 0.0630593 0.0587911 0.0619637 0
0.0654672 0.0688417 0.0643236 0.0675987 0.0654672 0.0688417 0.0643236 0.0675987 0
0 0 0 0 0 0 0 0 0
0 0 0 0 0 0 0 0 0
0 0 0 0 0 0 0 0 0
0 0 0 0 0 0 0 0 0
0 0 0 0 0 0 0 0 0
0 0 0 0 0 0 0 0 0
0 0 0 0 0 0 0 0 0
0 0 0 0 0 0 0 0 0
0 0 0 0 0 0 0 0 0
0 0 0 0 0 0 0 0 0
0 0 0 0 0 0 0 0 0
0 0 0 0 0 0 0 0 0
0 0 0 0 0 0 0 0 0
0 0 0 0 0 0 0 0 0
0 0 0 0 0 0 0 0 0
0 0 0 0 0 0 0 0 0
0 0 0 0 0 0 0 0 0
0 0 0 0 0 0 0 0 0
0 0 0 0 0 0 0 0 0
0 0 0 0 0 0 0 0 0
0 0 0 0 0 0 0 0 0
0 0 0 0 0 0 0 0 0
0 0 0 0 0 0 0 0 0
0 0 0 0 0 0 0 0 0
0 0 0 0 0 0 0 0 0
0 0 0 0 0 0 0 0 0
0 0 0 0 0 0 0 0 0
0 0 0 0 0 0 0 0 0
0 0 0 0 0 0 0 0 0
0 0 0 0 0 0 0 0 0
0 0 0 0 0 0 0 0 0
0 0 0 0 0 0 0 0 0
0 0 0 0 0 0 0 0 0
0 0 0 0 0 0 0 0 0
0 0 0 0 0 0 0 0 0
0 0 0 0 0 0 0 0 0
0 0 0 0 0 0 0 0 0
0 0 0 0 0 0 0 0 0
0 0 0 0 0 0 0 0 0
0 0 0 0 0 0 0 0 0
0 0 0 0 0 0 0 0 0
0 0 0 0 0 0 0 0 0
0 0 0 0 0 0 0 0 0
0 0 0 0 0 0 0 0 0
0 0 0 0 0 0 0 0 0
0 0 0 0 0 0 0 0 0
0 0 0 0 0 0 0 0 0
0 0 0 0 0 0 0 0 0
0 0 0 0 0 0 0 0 0
0 0 0 0 0 0 0 0 0
0 0 0 0 0 0 0 0 0
0 0 0 0 0 0 0 0 0
0 0 0 0 0 0 0 0 0
0 0 0 0 0 0 0 0 0
0 0 0 0 0 0 0 0 0
0 0 0 0 0 0 0 0 0
0 0 0 0 0 0 0 0 0
0 0 0 0 0 0 0 0 0
0 0 0 0 0 0 0 0 0
0 0 0 0 0 0 0 0 0
0 0 0 0 0 0 0 0 0
0 0 0 0 0 0 0 0 0
0 0 0 0 0 0 0 0 0
0 0 0 0 0 0 0 0 0
0 0 0 0 0 0 0 0 0
0 0 0 0 0 0 0 0 0
0 0 0 0 0 0 0 0 0
0 0 0 0 0 0 0 0 0
0 0 0 0 0 0 0 0 0
0 0 0 0 0 0 0 0 0
0 0 0 0 0 0 0 0 0
0 0 0 0 0 0 0 0 0
0 0 0 0 0 0 0 0 0
0 0 0 0 0 0 0 0 0
0 0 0 0 0 0 0 0 0
0 0 0 0 0 0 0 0 0
0 0 0 0 0 0 0 0 0
0 0 0 0 0 0 0 0 0
0 0 0 0 0 0 0 0 0
0 0 0 0 0 0 0 0 0
0 0 0 0 0 0 0 0 0
0 0 0 0 0 0 0 0 0
0 0 0 0 0 0 0 0 0
0 0 0 0 0 0 0 0 0
0 0 0 0 0 0 0 0 0
0 0 0 0 0 0 0 0 0
0 0 0 0 0 0 0 0 0
0 0 0 0 0 0 0 0 0
0 0 0 0 0 0 0 0 0
0 0 0 0 0 0 0 0 0
0 0 0 0 0 0 0 0 0
0 0 0 0 0 0 0 0 0
0 0 0 0 0 0 0 0 0
0 0 0 0 0 0 0 0 0
0 0 0 0 0 0 0 0 0
0 0 0 0 0 0 0 0 0
0 0 0 0 0 0 0 0 0
0 0 0 0 0 0 0 0 0
0 0 0 0 0 0 0 0 0
0 0 0 0 0 0 0 0 0
0 0 0 0 0 0 0 0 0
0 0 0 0 0 0 0 0 0
0 0 0 0 0 0 0 0 0
0 0 0 0 0 0 0 0 0
0 0 0 0 0 0 0 0 0
0 0 0 0 0 0 0 0 0
0 0 0 0 0 0 0 0 0
0 0 0 0 0 0 0 0 0
0 0 0 0 0 0 0 0 0
0 0 0 0 0 0 0 0 0
0 0 0 0 0 0 0 0 0
0 0 0 0 0 0 0 0 0
0 0 0 0 0 0 0 0 0
0 0 0 0 0 0 0 0 0
0 0 0 0 0 0 0 0 0
0 0 0 0 0 0 0 0 0
0 0 0 0 0 0 0 0 0
0 0 0 0 0 0 0 0 0
0 0 0 0 0 0 0 0 0
0 0 0 0 0 0 0 0 0
0 0 0 0 0 0 0 0 0
0 0 0 0 0 0 0 0 0
0 0 0 0 0 0 0 0 0
0 0 0 0 0 0 0 0 0
0 0 0 0 0 0 0 0 0
0 0 0 0 0 0 0 0 0
0 0 0 0 0 0 0 0 0
0 0 0 0 0 0 0 0 0
0 0 0 0 0 0 0 0 0
0 0 0 0 0 0 0 0 0
0 0 0 0 0 0 0 0 0
0 0 0 0 0 0 0 0 0
0 0 0 0 0 0 0 0 0
0 0 0 0 0 0 0 0 0
0 0 0 0 0 0 0 0 0
0 0 0 0 0 0 0 0 0
0 0 0 0 0 0 0 0 0
0 0 0 0 0 0 0 0 0
0 0 0 0 0 0 0 0 0
0 0 0 0 0 0 0 0 0
0 0 0 0 0 0 0 0 0
0 0 0 0 0 0 0 0 0
0 0 0 0 0 0 0 0 0
0 0 0 0 0 0 0 0 0
0 0 0 0 0 0 0 0 0
0 0 0 0 0 0 0 0 0
0 0 0 0 0 0 0 0 0
0 0 0 0 0 0 0 0 0
0 0 0 0 0 0 0 0 0
0 0 0 0 0 0 0 0 0
0 0 0 0 0 0 0 0 0
0 0 0 0 0 0 0 0 0
0 0 0 0 0 0 0 0 0
0 0 0 0 0 0 0 0 0
0 0 0 0 0 0 0 0 0
0 0 0 0 0 0 0 0 0
0 0 0 0 0 0 0 0 0
0 0 0 0 0 0 0 0 0
0 0 0 0 0 0 0 0 0
0 0 0 0 0 0 0 0 0
0 0 0 0 0 0 0 0 0
0 0 0 0 0 0 0 0 0
0 0 0 0 0 0 0 0 0
0 0 0 0 0 0 0 0 0
0 0 0 0 0 0 0 0 0
0 0 0 0 0 0 0 0 0
0 0 0 0 0 0 0 0 0
0 0 0 0 0 0 0 0 0
0 0 0 0 0 0 0 0 0
0 0 0 0 0 0 0 0 0
0 0 0 0 0 0 0 0 0
0 0 0 0 0 0 0 0 0
0 0 0 0 0 0 0 0 0
0 0 0 0 0 0 0 0 0
0 0 0 0 0 0 0 0 0
0 0 0 0 0 0 0 0 0
0 0 0 0 0 0 0 0 0
0 0 0 0 0 0 0 0 0
0 0 0 0 0 0 0 0 0
0 0 0 0 0 0 0 0 0
0 0 0 0 0 0 0 0 0
0 0 0 0 0 0 0 0 0
0 0 0 0 0 0 0 0 0
0 0 0 0 0 0 0 0 0
0 0 0 0 0 0 0 0 0
0 0 0 0 0 0 0 0 0
0 0 0 0 0 0 0 0 0
0 0 0 0 0 0 0 0 0
0 0 0 0 0 0 0 0 0
0 0 0 0 0 0 0 0 0
0 0 0 0 0 0 0 0 0
0 0 0 0 0 0 0 0 0
0 0 0 0 0 0 0 0 0
0 0 0 0 0 0 0 0 0
0 0 0 0 0 0 0 0 0
0 0 0 0 0 0 0 0 0
0 0 0 0 0 0 0 0 0
0 0 0 0 0 0 0 0 0
0 0 0 0 0 0 0 0 0
0 0 0 0 0 0 0 0 0
0 0 0 0 0 0 0 0 0
0 0 0 0 0 0 0 0 0
0 0 0 0 0 0 0 0 0
0 0 0 0 0 0 0 0 0
0 0 0 0 0 0 0 0 0
0 0 0 0 0 0 0 0 0
0 0 0 0 0 0 0 0 0
0 0 0 0 0 0 0 0 0
0 0 0 0 0 0 0 0 0
0 0 0 0 0 0 0 0 0
0 0 0 0 0 0 0 0 0
0 0 0 0 0 0 0 0 0
0 0 0 0 0 0 0 0 0
0 0 0 0 0 0 0 0 0
0 0 0 0 0 0 0 0 0
0 0 0 0 0 0 0 0 0
0 0 0 0 0 0 0 0 0
0 0 0 0 0 0 0 0 0
0 0 0 0 0 0 0 0 0
0 0 0 0 0 0 0 0 0
0 0 0 0 0 0 0 0 0
0 0 0 0 0 0 0 0 0
0 0 0 0 0 0 0 0 0
0 0 0 0 0 0 0 0 0
0 0 0 0 0 0 0 0 0
0 0 0 0 0 0 0 0 0
0 0 0 0 0 0 0 0 0
0 0 0 0 0 0 0 0 0
0 0 0 0 0 0 0 0 0
0 0 0 0 0 0 0 0 0
0 0 0 0 0 0 0 0 0
0 0 0 0 0 0 0 0 0
0 0 0 0 0 0 0 0 0
0 0 0 0 0 0 0 0 0
0 0 0 0 0 0 0 0 0
0 0 0 0 0 0 0 0 0
0 0 0 0 0 0 0 0 0
0 0 0 0 0 0 0 0 0
0 0 0 0 0 0 0 0 0
0 0 0 0 0 0 0 0 0
0 0 0 0 0 0 0 0 0
0 0 0 0 0 0 0 0 0
0 0 0 0 0 0 0 0 0
0 0 0 0 0 0 0 0 0
0 0 0 0 0 0 0 0 0
0 0 0 0 0 0 0 0 0
0 0 0 0 0 0 0 0 0
0 0 0 0 0 0 0 0 0
0 0 0 0 0 0 0 0 0
0 0 0 0 0 0 0 0 0
0 0 0 0 0 0 0 0 0
0 0 0 0 0 0 0 0 0
0 0 0 0 0 0 0 0 0
0 0 0 0 0 0 0 0 0
0 0 0 0 0 0 0 0 0
0 0 0 0 0 0 0 0 0
0 0 0 0 0 0 0 0 0
0 0 0 0 0 0 0 0 0
0 0 0 0 0 0 0 0 0
0 0 0 0 0 0 0 0 0
0 0 0 0 0 0 0 0 0
0 0 0 0 0 0 0 0 0
0 0 0 0 0 0 0 0 0
0 0 0 0 0 0 0 0 0
0 0 0 0 0 0 0 0 0
0 0 0 0 0 0 0 0 0
0 0 0 0 0 0 0 0 0
0 0 0 0 0 0 0 0 0
0 0 0 0 0 0 0 0 0
0 0 0 0 0 0 0 0 0
0 0 0 0 0 0 0 0 0
0 0 0 0 0 0 0 0 0
0 0 0 0 0 0 0 0 0
0 0 0 0 0 0 0 0 0
0 0 0 0 0 0 0 0 0
0 0 0 0 0 0 0 0 0
0 0 0 0 0 0 0 0 0
0 0 0 0 0 0 0 0 0
0 0 0 0 0 0 0 0 0
0 0 0 0 0 0 0 0 0
0 0 0 0 0 0 0 0 0
0 0 0 0 0 0 0 0 0
0 0 0 0 0 0 0 0 0
0 0 0 0 0 0 0 0 0
0 0 0 0 0 0 0 0 0
0 0 0 0 0 0 0 0 0
0 0 0 0 0 0 0 0 0
0 0 0 0 0 0 0 0 0
0 0 0 0 0 0 0 0 0
0 0 0 0 0 0 0 0 0
0 0 0 0 0 0 0 0 0
0 0 0 0 0 0 0 0 0
0 0 0 0 0 0 0 0 0
0 0 0 0 0 0 0 0 0
0 0 0 0 0 0 0 0 0
0 0 0 0 0 0 0 0 0
0 0 0 0 0 0 0 0 0
0 0 0 0 0 0 0 0 0
0 0 0 0 0 0 0 0 0
0 0 0 0 0 0 0 0 0
0 0 0 0 0 0 0 0 0
0 0 0 0 0 0 0 0 0
0 0 0 0 0 0 0 0 0
0 0 0 0 0 0 0 0 0
0 0 0 0 0 0 0 0 0
0 0 0 0 0 0 0 0 0
0 0 0 0 0 0 0 0 0
0 0 0 0 0 0 0 0 0
0 0 0 0 0 0 0 0 0
0 0 0 0 0 0 0 0 0
0 0 0 0 0 0 0 0 0
0 0 0 0 0 0 0 0 0
0 0 0 0 0 0 0 0 0
0 0 0 0 0 0 0 0 0
0 0 0 0 0 0 0 0 0
0 0 0 0 0 0 0 0 0
0 0 0 0 0 0 0 0 0
0 0 0 0 0 0 0 0 0
0 0 0 0 0 0 0 0 0
0 0 0 0 0 0 0 0 0
0 0 0 0 0 0 0 0 0
0 0 0 0 0 0 0 0 0
0 0 0 0 0 0 0 0 0
0 0 0 0 0 0 0 0 0
0 0 0 0 0 0 0 0 0
0 0 0 0 0 0 0 0 0
0 0 0 0 0 0 0 0 0
0 0 0 0 0 0 0 0 0
0 0 0 0 0 0 0 0 0
0 0 0 0 0 0 0 0 0
0 0 0 0 0 0 0 0 0
0 0 0 0 0 0 0 0 0
0 0 0 0 0 0 0 0 0
0 0 0 0 0 0 0 0 0
0 0 0 0 0 0 0 0 0
0 0 0 0 0 0 0 0 0
0 0 0 0 0 0 0 0 0
0 0 0 0 0 0 0 0 0
0 0 0 0 0 0 0 0 0
0 0 0 0 0 0 0 0 0
0 0 0 0 0 0 0 0 0
0 0 0 0 0 0 0 0 0
0 0 0 0 0 0 0 0 0
0 0 0 0 0 0 0 0 0
0 0 0 0 0 0 0 0 0
0 0 0 0 0 0 0 0 0
0 0 0 0 0 0 0 0 0
0 0 0 0 0 0 0 0 0
0 0 0 0 0 0 0 0 0
0 0 0 0 0 0 0 0 0
0 0 0 0 0 0 0 0 0
0 0 0 0 0 0 0 0 0
0 0 0 0 0 0 0 0 0
0 0 0 0 0 0 0 0 0
0 0 0 0 0 0 0 0 0
0 0 0 0 0 0 0 0 0
0 0 0 0 0 0 0 0 0
0 0 0 0 0 0 0 0 0
0 0 0 0 0 0 0 0 0
0 0 0 0 0 0 0 0 0
0 0 0 0 0 0 0 0 0
0 0 0 0 0 0 0 0 0
0 0 0 0 0 0 0 0 0
0 0 0 0 0 0 0 0 0
0 0 0 0 0 0 0 0 0
0 0 0 0 0 0 0 0 0
0 0 0 0 0 0 0 0 0
0 0 0 0 0 0 0 0 0
0 0 0 0 0 0 0 0 0
0 0 0 0 0 0 0 0 0
0 0 0 0 0 0 0 0 0
0 0 0 0 0 0 0 0 0
0 0 0 0 0 0 0 0 0
0 0 0 0 0 0 0 0 0
0 0 0 0 0 0 0 0 0
0 0 0 0 0 0 0 0 0
0 0 0 0 0 0 0 0 0
0 0 0 0 0 0 0 0 0
0 0 0 0 0 0 0 0 0
0 0 0 0 0 0 0 0 0
0 0 0 0 0 0 0 0 0
0 0 0 0 0 0 0 0 0
0 0 0 0 0 0 0 0 0
0 0 0 0 0 0 0 0 0
0 0 0 0 0 0 0 0 0
0 0 0 0 0 0 0 0 0
0 0 0 0 0 0 0 0 0
0 0 0 0 0 0 0 0 0
0 0 0 0 0 0 0 0 0
0 0 0 0 0 0 0 0 0
0 0 0 0 0 0 0 0 0
0 0 0 0 0 0 0 0 0
0 0 0 0 0 0 0 0 0
0 0 0 0 0 0 0 0 0
0 0 0 0 0 0 0 0 0
SCALARS tauT double 9
LOOKUP_TABLE default
0 0 0 0 0 0 0 0 0
0 0 0 0 0 0 0 0 0
0 0 0 0 0 0 0 0 0
0 0 0 0 0 0 0 0 0
0 0 0 0 0 0 0 0 0
0 0 0 0 0 0 0 0 0
0 0 0 0 0 0 0 0 0
0 0 0 0 0 0 0 0 0
0 0 0 0 0 0 0 0 0
0 0 0 0 0 0 0 0 0
0 0 0 0 0 0 0 0 0
0 0 0 0 0 0 0 0 0
0 0 0 0 0 0 0 0 0
0 0 0 0 0 0 0 0 0
0 0 0 0 0 0 0 0 0
0 0 0 0 0 0 0 0 0
0 0 0 0 0 0 0 0 0
0 0 0 0 0 0 0 0 0
0 0 0 0 0 0 0 0 0
0 0 0 0 0 0 0 0 0
0 0 0 0 0 0 0 0 0
0 0 0 0 0 0 0 0 0
0 0 0 0 0 0 0 0 0
0 0 0 0 0 0 0 0 0
0 0 0 0 0 0 0 0 0
0 0 0 0 0 0 0 0 0
0 0 0 0 0 0 0 0 0
0 0 0 0 0 0 0 0 0
0 0 0 0 0 0 0 0 0
0 0 0 0 0 0 0 0 0
0 0 0 0 0 0 0 0 0
0 0 0 0 0 0 0 0 0
0 0 0 0 0 0 0 0 0
0 0 0 0 0 0 0 0 0
0 0 0 0 0 0 0 0 0
0 0 0 0 0 0 0 0 0
0 0 0 0 0 0 0 0 0
0 0 0 0 0 0 0 0 0
0 0 0 0 0 0 0 0 0
0 0 0 0 0 0 0 0 0
0 0 0 0 0 0 0 0 0
0 0 0 0 0 0 0 0 0
0 0 0 0 0 0 0 0 0
0 0 0 0 0 0 0 0 0
0 0 0 0 0 0 0 0 0
0 0 0 0 0 0 0 0 0
0 0 0 0 0 0 0 0 0
0 0 0 0 0 0 0 0 0
0 0 0 0 0 0 0 0 0
0 0 0 0 0 0 0 0 0
0 0 0 0 0 0 0 0 0
0 0 0 0 0 0 0 0 0
0 0 0 0 0 0 0 0 0
0 0 0 0 0 0 0 0 0
0 0 0 0 0 0 0 0 0
0 0 0 0 0 0 0 0 0
0 0 0 0 0 0 0 0 0
0 0 0 0 0 0 0 0 0
0 0 0 0 0 0 0 0 0
0 0 0 0 0 0 0 0 0
0 0 0 0 0 0 0 0 0
0 0 0 0 0 0 0 0 0
0 0 0 0 0 0 0 0 0
0 0 0 0 0 0 0 0 0
0 0 0 0 0 0 0 0 0
0 0 0 0 0 0 0 0 0
0 0 0 0 0 0 0 0 0
0 0 0 0 0 0 0 0 0
0 0 0 0 0 0 0 0 0
0 0 0 0 0 0 0 0 0
0 0 0 0 0 0 0 0 0
0 0 0 0 0 0 0 0 0
0 0 0 0 0 0 0 0 0
0 0 0 0 0 0 0 0 0
0 0 0 0 0 0 0 0 0
0 0 0 0 0 0 0 0 0
0 0 0 0 0 0 0 0 0
0 0 0 0 0 0 0 0 0
0 0 0 0 0 0 0 0 0
0 0 0 0 0 0 0 0 0
0 0 0 0 0 0 0 0 0
0 0 0 0 0 0 0 0 0
0 0 0 0 0 0 0 0 0
0 0 0 0 0 0 0 0 0
0 0 0 0 0 0 0 0 0
0 0 0 0 0 0 0 0 0
0 0 0 0 0 0 0 0 0
0 0 0 0 0 0 0 0 0
0 0 0 0 0 0 0 0 0
0 0 0 0 0 0 0 0 0
0 0 0 0 0 0 0 0 0
0 0 0 0 0 0 0 0 0
0 0 0 0 0 0 0 0 0
0 0 0 0 0 0 0 0 0
0 0 0 0 0 0 0 0 0
0 0 0 0 0 0 0 0 0
0 0 0 0 0 0 0 0 0
0 0 0 0 0 0 0 0 0
0 0 0 0 0 0 0 0 0
0 0 0 0 0 0 0 0 0
0 0 0 0 0 0 0 0 0
0 0 0 0 0 0 0 0 0
0 0 0 0 0 0 0 0 0
0 0 0 0 0 0 0 0 0
0 0 0 0 0 0 0 0 0
0 0 0 0 0 0 0 0 0
0 0 0 0 0 0 0 0 0
0 0 0 0 0 0 0 0 0
0 0 0 0 0 0 0 0 0
0 0 0 0 0 0 0 0 0
0 0 0 0 0 0 0 0 0
0 0 0 0 0 0 0 0 0
0 0 0 0 0 0 0 0 0
0 0 0 0 0 0 0 0 0
0 0 0 0 0 0 0 0 0
0 0 0 0 0 0 0 0 0
0 0 0 0 0 0 0 0 0
0 0 0 0 0 0 0 0 0
0 0 0 0 0 0 0 0 0
0 0 0 0 0 0 0 0 0
0 0 0 0 0 0 0 0 0
0 0 0 0 0 0 0 0 0
0 0 0 0 0 0 0 0 0
0 0 0 0 0 0 0 0 0
0 0 0 0 0 0 0 0 0
0 0 0 0 0 0 0 0 0
0 0 0 0 0 0 0 0 0
0 0 0 0 0 0 0 0 0
0 0 0 0 0 0 0 0 0
0 0 0 0 0 0 0 0 0
0 0 0 0 0 0 0 0 0
0 0 0 0 0 0 0 0 0
0 0 0 0 0 0 0 0 0
0 0 0 0 0 0 0 0 0
0 0 0 0 0 0 0 0 0
0 0 0 0 0 0 0 0 0
0 0 0 0 0 0 0 0 0
0 0 0 0 0 0 0 0 0
0 0 0 0 0 0 0 0 0
0 0 0 0 0 0 0 0 0
0 0 0 0 0 0 0 0 0
0 0 0 0 0 0 0 0 0
0 0 0 0 0 0 0 0 0
0 0 0 0 0 0 0 0 0
0 0 0 0 0 0 0 0 0
0 0 0 0 0 0 0 0 0
0 0 0 0 0 0 0 0 0
0 0 0 0 0 0 0 0 0
0 0 0 0 0 0 0 0 0
0 0 0 0 0 0 0 0 0
0 0 0 0 0 0 0 0 0
0 0 0 0 0 0 0 0 0
0 0 0 0 0 0 0 0 0
0 0 0 0 0 0 0 0 0
0 0 0 0 0 0 0 0 0
0 0 0 0 0 0 0 0 0
0 0 0 0 0 0 0 0 0
0 0 0 0 0 0 0 0 0
0.0464868 0.0487324 0.0478344 0.0500263 0.0464868 0.0487324 0.0478344 0.0500263 0
0.0502547 0.0521679 0.0515588 0.0535538 0.0502547 0.0521679 0.0515588 0.0535538 0
0.0536008 0.0556024 0.0550034 0.0569687 0.0536008 0.0556024 0.0550034 0.0569687 0
0.0573385 0.0600801 0.0586683 0.0613464 0.0573385 0.0600801 0.0586683 0.0613464 0
0.0621282 0.0649825 0.0634046 0.0663495 0.0621282 0.0649825 0.0634046 0.0663495 0
0.0368488 0.0375654 0.0381513 0.0389211 0.0368488 0.0375654 0.0381513 0.0389211 0
0.0383153 0.0396475 0.0396699 0.0409458 0.0383153 0.0396475 0.0396699 0.0409458 0
0.0408058 0.042638 0.0421005 0.0439791 0.0408058 0.042638 0.0421005 0.0439791 0
0.0440777 0.0461786 0.0454798 0.0477011 0.0440777 0.0461786 0.0454798 0.0477011 0
0.0476702 0.0496442 0.0492124 0.05112 0.0476702 0.0496442 0.0492124 0.05112 0
0.0511336 0.0532287 0.0525636 0.0545999 0.0511336 0.0532287 0.0525636 0.0545999 0
0.0549607 0.0575978 0.0563447 0.0590752 0.0549607 0.0575978 0.0563447 0.0590752 0
0.0595964 0.0624196 0.0611074 0.063929 0.0595964 0.0624196 0.0611074 0.063929 0
0.0324723 0.0333014 0.034022 0.0350627 0.0324723 0.0333014 0.034022 0.0350627 0
0.0339831 0.0350162 0.0357317 0.0365188 0.0339831 0.0350162 0.0357317 0.0365188 0
0.0358937 0.0372578 0.0373032 0.038659 0.0358937 0.0372578 0.0373032 0.038659 0
0.0384006 0.0401586 0.0398141 0.041614 0.0384006 0.0401586 0.0398141 0.041614 0
0.0415287 0.0435137 0.0430186 0.0450562 0.0415287 0.0435137 0.0430186 0.0450562 0
0.0449787 0.0469957 0.0465354 0.0485388 0.0449787 0.0469957 0.0465354 0.0485388 0
0.0485295 0.0507027 0.0500523 0.052184 0.0485295 0.0507027 0.0500523 0.052184 0
0.0524362 0.054999 0.053913 0.0565052 0.0524362 0.054999 0.053913 0.0565052 0
0.0569143 0.0595841 0.0584724 0.061255 0.0569143 0.0595841 0.0584724 0.061255 0
0.0278013 0.028792 0.0293542 0.0305344 0.0278013 0.028792 0.0293542 0.0305344 0
0.0295138 0.0304953 0.0312641 0.0320773 0.0295138 0.0304953 0.0312641 0.0320773 0
0.0312694 0.0324025 0.0327871 0.033913 0.0312694 0.0324025 0.0327871 0.033913 0
0.0333234 0.0347058 0.034827 0.0361982 0.0333234 0.0347058 0.034827 0.0361982 0
0.0358319 0.0375259 0.0373332 0.0390628 0.0358319 0.0375259 0.0373332 0.0390628 0
0.0388475 0.0407641 0.0404107 0.0423633 0.0388475 0.0407641 0.0404107 0.0423633 0
0.0422077 0.044235 0.0438187 0.0458421 0.0422077 0.044235 0.0438187 0.0458421 0
0.0457836 0.047987 0.0473853 0.0495777 0.0457836 0.047987 0.0473853 0.0495777 0
0.0497215 0.0522569 0.0513126 0.0538602 0.0497215 0.0522569 0.0513126 0.0538602 0
0.0541333 0.0567243 0.0557511 0.0583696 0.0541333 0.0567243 0.0557511 0.0583696 0
0.0249708 0.0259484 0.0266266 0.0275629 0.0249708 0.0259484 0.0266266 0.0275629 0
0.0266851 0.0277202 0.0282867 0.0293276 0.0266851 0.0277202 0.0282867 0.0293276 0
0.0285232 0.0296821 0.0301266 0.0312686 0.0285232 0.0296821 0.0301266 0.0312686 0
0.030612 0.0319934 0.0321936 0.0335787 0.030612 0.0319934 0.0321936 0.0335787 0
0.0331036 0.0347553 0.0346982 0.0363713 0.0331036 0.0347553 0.0346982 0.0363713 0
0.0360432 0.03791 0.0376769 0.0395704 0.0360432 0.03791 0.0376769 0.0395704 0
0.039332 0.0413501 0.0410051 0.043031 0.039332 0.0413501 0.0410051 0.043031 0
0.0428952 0.0450981 0.04458 0.0467862 0.0428952 0.0450981 0.04458 0.0467862 0
0.0468228 0.049332 0.048518 0.0510431 0.0468228 0.049332 0.048518 0.0510431 0
0.0512063 0.0538179 0.052915 0.0555041 0.0512063 0.0538179 0.052915 0.0555041 0
0.0221504 0.0230864 0.0237712 0.0247487 0.0221504 0.0230864 0.0237712 0.0247487 0
0.0238158 0.0248726 0.0254869 0.0265262 0.0238158 0.0248726 0.0254869 0.0265262 0
0.0256813 0.0268339 0.0273318 0.0284936 0.0256813 0.0268339 0.0273318 0.0284936 0
0.027758 0.0291302 0.0294231 0.030801 0.027758 0.0291302 0.0294231 0.030801 0
0.030226 0.0318472 0.0319049 0.0335427 0.030226 0.0318472 0.0319049 0.0335427 0
0.0331092 0.0349356 0.0348189 0.0366677 0.0331092 0.0349356 0.0348189 0.0366677 0
0.0363353 0.0383328 0.0380803 0.0400908 0.0363353 0.0383328 0.0380803 0.0400908 0
0.0398645 0.0420517 0.0416312 0.043829 0.0398645 0.0420517 0.0416312 0.043829 0
0.0437486 0.0461974 0.0455444 0.0480331 0.0437486 0.0461974 0.0455444 0.0480331 0
0.0480778 0.0507663 0.0499096 0.0525478 0.0480778 0.0507663 0.0499096 0.0525478 0
0.0192932 0.020229 0.0209503 0.0218751 0.0192932 0.020229 0.0209503 0.0218751 0
0.0209428 0.0219569 0.022598 0.023648 0.0209428 0.0219569 0.022598 0.023648 0
0.0227412 0.0238698 0.024451 0.0255946 0.0227412 0.0238698 0.024451 0.0255946 0
0.0247792 0.0261353 0.0265134 0.0278797 0.0247792 0.0261353 0.0265134 0.0278797 0
0.0272159 0.0288119 0.0289691 0.0305792 0.0272159 0.0288119 0.0289691 0.0305792 0
0.0300493 0.0318338 0.0318308 0.0336399 0.0300493 0.0318338 0.0318308 0.0336399 0
0.0332062 0.0351711 0.0350288 0.0370141 0.0332062 0.0351711 0.0350288 0.0370141 0
0.0366861 0.0388602 0.038539 0.0407198 0.0366861 0.0388602 0.038539 0.0407198 0
0.0405517 0.0429989 0.0424103 0.0448479 0.0405517 0.0429989 0.0424103 0.0448479 0
0.0448545 0.0474769 0.0467227 0.0494069 0.0448545 0.0474769 0.0467227 0.0494069 0
0.0163989 0.0173714 0.0180734 0.019022 0.0163989 0.0173714 0.0180734 0.019022 0
0.0180668 0.0189942 0.0197284 0.0207096 0.0180668 0.0189942 0.0197284 0.0207096 0
0.0197262 0.0207986 0.0214749 0.0225843 0.0197262 0.0207986 0.0214749 0.0225843 0
0.0216814 0.0230208 0.0234842 0.024833 0.0216814 0.0230208 0.0234842 0.024833 0
0.0240856 0.0256552 0.0259069 0.0274921 0.0240856 0.0256552 0.0259069 0.0274921 0
0.0268634 0.0285949 0.0287179 0.0304816 0.0268634 0.0285949 0.0287179 0.0304816 0
0.0299303 0.0318473 0.0318396 0.0337862 0.0299303 0.0318473 0.0318396 0.0337862 0
0.0332878 0.0353065 0.0352785 0.0374091 0.0332878 0.0353065 0.0352785 0.0374091 0
0.0369323 0.0393554 0.0390833 0.0415266 0.0369323 0.0393554 0.0390833 0.0415266 0
0.0135725 0.0144935 0.0151926 0.0161577 0.0135725 0.0144935 0.0151926 0.0161577 0
0.0151152 0.0158926 0.0168304 0.0177032 0.0151152 0.0158926 0.0168304 0.0177032 0
0.0165674 0.0176335 0.0184109 0.0194717 0.0165674 0.0176335 0.0184109 0.0194717 0
0.0185243 0.0198916 0.020352 0.0216964 0.0185243 0.0198916 0.020352 0.0216964 0
0.0209596 0.02251 0.0227596 0.0243198 0.0209596 0.02251 0.0227596 0.0243198 0
0.0236806 0.0253281 0.0255132 0.0272135 0.0236806 0.0253281 0.0255132 0.0272135 0
0.0265886 0.028385 0.0285228 0.0303995 0.0265886 0.028385 0.0285228 0.0303995 0
0.0297684 0.0317514 0.0318108 0.0337899 0.0297684 0.0317514 0.0318108 0.0337899 0
0 0 0 0 0 0 0 0 0
0 0 0 0 0 0 0 0 0
0 0 0 0 0 0 0 0 0
0 0 0 0 0 0 0 0 0
0 0 0 0 0 0 0 0 0
0 0 0 0 0 0 0 0 0
0 0 0 0 0 0 0 0 0
0 0 0 0 0 0 0 0 0
0 0 0 0 0 0 0 0 0
0 0 0 0 0 0 0 0 0
0 0 0 0 0 0 0 0 0
0 0 0 0 0 0 0 0 0
0 0 0 0 0 0 0 0 0
0 0 0 0 0 0 0 0 0
0 0 0 0 0 0 0 0 0
0 0 0 0 0 0 0 0 0
0 0 0 0 0 0 0 0 0
0 0 0 0 0 0 0 0 0
0 0 0 0 0 0 0 0 0
0 0 0 0 0 0 0 0 0
0 0 0 0 0 0 0 0 0
0 0 0 0 0 0 0 0 0
0 0 0 0 0 0 0 0 0
0 0 0 0 0 0 0 0 0
0 0 0 0 0 0 0 0 0
0 0 0 0 0 0 0 0 0
0 0 0 0 0 0 0 0 0
0 0 0 0 0 0 0 0 0
0 0 0 0 0 0 0 0 0
0 0 0 0 0 0 0 0 0
0 0 0 0 0 0 0 0 0
0 0 0 0 0 0 0 0 0
0 0 0 0 0 0 0 0 0
0 0 0 0 0 0 0 0 0
0 0 0 0 0 0 0 0 0
0 0 0 0 0 0 0 0 0
0 0 0 0 0 0 0 0 0
0 0 0 0 0 0 0 0 0
0 0 0 0 0 0 0 0 0
0 0 0 0 0 0 0 0 0
0 0 0 0 0 0 0 0 0
0 0 0 0 0 0 0 0 0
0 0 0 0 0 0 0 0 0
0 0 0 0 0 0 0 0 0
0 0 0 0 0 0 0 0 0
0 0 0 0 0 0 0 0 0
0 0 0 0 0 0 0 0 0
0 0 0 0 0 0 0 0 0
0 0 0 0 0 0 0 0 0
0 0 0 0 0 0 0 0 0
0 0 0 0 0 0 0 0 0
0 0 0 0 0 0 0 0 0
0 0 0 0 0 0 0 0 0
0 0 0 0 0 0 0 0 0
0 0 0 0 0 0 0 0 0
0 0 0 0 0 0 0 0 0
0 0 0 0 0 0 0 0 0
0 0 0 0 0 0 0 0 0
0 0 0 0 0 0 0 0 0
0 0 0 0 0 0 0 0 0
0 0 0 0 0 0 0 0 0
0 0 0 0 0 0 0 0 0
0 0 0 0 0 0 0 0 0
0 0 0 0 0 0 0 0 0
0 0 0 0 0 0 0 0 0
0 0 0 0 0 0 0 0 0
0 0 0 0 0 0 0 0 0
0 0 0 0 0 0 0 0 0
0 0 0 0 0 0 0 0 0
0 0 0 0 0 0 0 0 0
0 0 0 0 0 0 0 0 0
0 0 0 0 0 0 0 0 0
0 0 0 0 0 0 0 0 0
0 0 0 0 0 0 0 0 0
0 0 0 0 0 0 0 0 0
0 0 0 0 0 0 0 0 0
0 0 0 0 0 0 0 0 0
0 0 0 0 0 0 0 0 0
0 0 0 0 0 0 0 0 0
0 0 0 0 0 0 0 0 0
0 0 0 0 0 0 0 0 0
0 0 0 0 0 0 0 0 0
0 0 0 0 0 0 0 0 0
0 0 0 0 0 0 0 0 0
0 0 0 0 0 0 0 0 0
0 0 0 0 0 0 0 0 0
0 0 0 0 0 0 0 0 0
0 0 0 0 0 0 0 0 0
0 0 0 0 0 0 0 0 0
0 0 0 0 0 0 0 0 0
0 0 0 0 0 0 0 0 0
0 0 0 0 0 0 0 0 0
0 0 0 0 0 0 0 0 0
0 0 0 0 0 0 0 0 0
0 0 0 0 0 0 0 0 0
0 0 0 0 0 0 0 0 0
0 0 0 0 0 0 0 0 0
0 0 0 0 0 0 0 0 0
0 0 0 0 0 0 0 0 0
0 0 0 0 0 0 0 0 0
0 0 0 0 0 0 0 0 0
0 0 0 0 0 0 0 0 0
0 0 0 0 0 0 0 0 0
0 0 0 0 0 0 0 0 0
0 0 0 0 0 0 0 0 0
0 0 0 0 0 0 0 0 0
0 0 0 0 0 0 0 0 0
0 0 0 0 0 0 0 0 0
0 0 0 0 0 0 0 0 0
0 0 0 0 0 0 0 0 0
0 0 0 0 0 0 0 0 0
0 0 0 0 0 0 0 0 0
0 0 0 0 0 0 0 0 0
0 0 0 0 0 0 0 0 0
0 0 0 0 0 0 0 0 0
0 0 0 0 0 0 0 0 0
0 0 0 0 0 0 0 0 0
0 0 0 0 0 0 0 0 0
0 0 0 0 0 0 0 0 0
0 0 0 0 0 0 0 0 0
0 0 0 0 0 0 0 0 0
0 0 0 0 0 0 0 0 0
0 0 0 0 0 0 0 0 0
0 0 0 0 0 0 0 0 0
0 0 0 0 0 0 0 0 0
0 0 0 0 0 0 0 0 0
0 0 0 0 0 0 0 0 0
0 0 0 0 0 0 0 0 0
0 0 0 0 0 0 0 0 0
0 0 0 0 0 0 0 0 0
0 0 0 0 0 0 0 0 0
0 0 0 0 0 0 0 0 0
0 0 0 0 0 0 0 0 0
0 0 0 0 0 0 0 0 0
0 0 0 0 0 0 0 0 0
0 0 0 0 0 0 0 0 0
0 0 0 0 0 0 0 0 0
0 0 0 0 0 0 0 0 0
0 0 0 0 0 0 0 0 0
0 0 0 0 0 0 0 0 0
0 0 0 0 0 0 0 0 0
0 0 0 0 0 0 0 0 0
0 0 0 0 0 0 0 0 0
0 0 0 0 0 0 0 0 0
0 0 0 0 0 0 0 0 0
0 0 0 0 0 0 0 0 0
0 0 0 0 0 0 0 0 0
0 0 0 0 0 0 0 0 0
0 0 0 0 0 0 0 0 0
0 0 0 0 0 0 0 0 0
0 0 0 0 0 0 0 0 0
0 0 0 0 0 0 0 0 0
0 0 0 0 0 0 0 0 0
0 0 0 0 0 0 0 0 0
0 0 0 0 0 0 0 0 0
0 0 0 0 0 0 0 0 0
0 0 0 0 0 0 0 0 0
0 0 0 0 0 0 0 0 0
0 0 0 0 0 0 0 0 0
0 0 0 0 0 0 0 0 0
0 0 0 0 0 0 0 0 0
0 0 0 0 0 0 0 0 0
0 0 0 0 0 0 0 0 0
0 0 0 0 0 0 0 0 0
0 0 0 0 0 0 0 0 0
0 0 0 0 0 0 0 0 0
0 0 0 0 0 0 0 0 0
0 0 0 0 0 0 0 0 0
0 0 0 0 0 0 0 0 0
0 0 0 0 0 0 0 0 0
0 0 0 0 0 0 0 0 0
0 0 0 0 0 0 0 0 0
0 0 0 0 0 0 0 0 0
0 0 0 0 0 0 0 0 0
0 0 0 0 0 0 0 0 0
0 0 0 0 0 0 0 0 0
0 0 0 0 0 0 0 0 0
0 0 0 0 0 0 0 0 0
0 0 0 0 0 0 0 0 0
0 0 0 0 0 0 0 0 0
0 0 0 0 0 0 0 0 0
0 0 0 0 0 0 0 0 0
0 0 0 0 0 0 0 0 0
0 0 0 0 0 0 0 0 0
0 0 0 0 0 0 0 0 0
0 0 0 0 0 0 0 0 0
0 0 0 0 0 0 0 0 0
0 0 0 0 0 0 0 0 0
0 0 0 0 0 0 0 0 0
0 0 0 0 0 0 0 0 0
0 0 0 0 0 0 0 0 0
0 0 0 0 0 0 0 0 0
0 0 0 0 0 0 0 0 0
0 0 0 0 0 0 0 0 0
0 0 0 0 0 0 0 0 0
0 0 0 0 0 0 0 0 0
0 0 0 0 0 0 0 0 0
0 0 0 0 0 0 0 0 0
0 0 0 0 0 0 0 0 0
0 0 0 0 0 0 0 0 0
0 0 0 0 0 0 0 0 0
0 0 0 0 0 0 0 0 0
0 0 0 0 0 0 0 0 0
0 0 0 0 0 0 0 0 0
0 0 0 0 0 0 0 0 0
0 0 0 0 0 0 0 0 0
0 0 0 0 0 0 0 0 0
0 0 0 0 0 0 0 0 0
0 0 0 0 0 0 0 0 0
0 0 0 0 0 0 0 0 0
0 0 0 0 0 0 0 0 0
0 0 0 0 0 0 0 0 0
0 0 0 0 0 0 0 0 0
0 0 0 0 0 0 0 0 0
0 0 0 0 0 0 0 0 0
0 0 0 0 0 0 0 0 0
0 0 0 0 0 0 0 0 0
0 0 0 0 0 0 0 0 0
0 0 0 0 0 0 0 0 0
0 0 0 0 0 0 0 0 0
0 0 0 0 0 0 0 0 0
0 0 0 0 0 0 0 0 0
0 0 0 0 0 0 0 0 0
0 0 0 0 0 0 0 0 0
0 0 0 0 0 0 0 0 0
0 0 0 0 0 0 0 0 0
0 0 0 0 0 0 0 0 0
0 0 0 0 0 0 0 0 0
0 0 0 0 0 0 0 0 0
0 0 0 0 0 0 0 0 0
0 0 0 0 0 0 0 0 0
0 0 0 0 0 0 0 0 0
0 0 0 0 0 0 0 0 0
0 0 0 0 0 0 0 0 0
0 0 0 0 0 0 0 0 0
0 0 0 0 0 0 0 0 0
0 0 0 0 0 0 0 0 0
0 0 0 0 0 0 0 0 0
0 0 0 0 0 0 0 0 0
0 0 0 0 0 0 0 0 0
0 0 0 0 0 0 0 0 0
0 0 0 0 0 0 0 0 0
0 0 0 0 0 0 0 0 0
0 0 0 0 0 0 0 0 0
0 0 0 0 0 0 0 0 0
0 0 0 0 0 0 0 0 0
0 0 0 0 0 0 0 0 0
0 0 0 0 0 0 0 0 0
0 0 0 0 0 0 0 0 0
0 0 0 0 0 0 0 0 0
0 0 0 0 0 0 0 0 0
0 0 0 0 0 0 0 0 0
0 0 0 0 0 0 0 0 0
0 0 0 0 0 0 0 0 0
0 0 0 0 0 0 0 0 0
0 0 0 0 0 0 0 0 0
0 0 0 0 0 0 0 0 0
0 0 0 0 0 0 0 0 0
0 0 0 0 0 0 0 0 0
0 0 0 0 0 0 0 0 0
0 0 0 0 0 0 0 0 0
0 0 0 0 0 0 0 0 0
0 0 0 0 0 0 0 0 0
0 0 0 0 0 0 0 0 0
0 0 0 0 0 0 0 0 0
0 0 0 0 0 0 0 0 0
0 0 0 0 0 0 0 0 0
0 0 0 0 0 0 0 0 0
0 0 0 0 0 0 0 0 0
0 0 0 0 0 0 0 0 0
0 0 0 0 0 0 0 0 0
0 0 0 0 0 0 0 0 0
0 0 0 0 0 0 0 0 0
0 0 0 0 0 0 0 0 0
0 0 0 0 0 0 0 0 0
0 0 0 0 0 0 0 0 0
0 0 0 0 0 0 0 0 0
0 0 0 0 0 0 0 0 0
0 0 0 0 0 0 0 0 0
0 0 0 0 0 0 0 0 0
0 0 0 0 0 0 0 0 0
0 0 0 0 0 0 0 0 0
0 0 0 0 0 0 0 0 0
0 0 0 0 0 0 0 0 0
0 0 0 0 0 0 0 0 0
0 0 0 0 0 0 0 0 0
0 0 0 0 0 0 0 0 0
0 0 0 0 0 0 0 0 0
0 0 0 0 0 0 0 0 0
0 0 0 0 0 0 0 0 0
0 0 0 0 0 0 0 0 0
0 0 0 0 0 0 0 0 0
0 0 0 0 0 0 0 0 0
0 0 0 0 0 0 0 0 0
0 0 0 0 0 0 0 0 0
0 0 0 0 0 0 0 0 0
0 0 0 0 0 0 0 0 0
0 0 0 0 0 0 0 0 0
0 0 0 0 0 0 0 0 0
0 0 0 0 0 0 0 0 0
0 0 0 0 0 0 0 0 0
0 0 0 0 0 0 0 0 0
0 0 0 0 0 0 0 0 0
0 0 0 0 0 0 0 0 0
0 0 0 0 0 0 0 0 0
0 0 0 0 0 0 0 0 0
0 0 0 0 0 0 0 0 0
0 0 0 0 0 0 0 0 0
0 0 0 0 0 0 0 0 0
0 0 0 0 0 0 0 0 0
0 0 0 0 0 0 0 0 0
0 0 0 0 0 0 0 0 0
0 0 0 0 0 0 0 0 0
0 0 0 0 0 0 0 0 0
0 0 0 0 0 0 0 0 0
0 0 0 0 0 0 0 0 0
0 0 0 0 0 0 0 0 0
0 0 0 0 0 0 0 0 0
0 0 0 0 0 0 0 0 0
0 0 0 0 0 0 0 0 0
0 0 0 0 0 0 0 0 0
0 0 0 0 0 0 0 0 0
0 0 0 0 0 0 0 0 0
0 0 0 0 0 0 0 0 0
0 0 0 0 0 0 0 0 0
0 0 0 0 0 0 0 0 0
0 0 0 0 0 0 0 0 0
0 0 0 0 0 0 0 0 0
0 0 0 0 0 0 0 0 0
0 0 0 0 0 0 0 0 0
0 0 0 0 0 0 0 0 0
0 0 0 0 0 0 0 0 0
0 0 0 0 0 0 0 0 0
0 0 0 0 0 0 0 0 0
0 0 0 0 0 0 0 0 0
0 0 0 0 0 0 0 0 0
0 0 0 0 0 0 0 0 0
0 0 0 0 0 0 0 0 0
0 0 0 0 0 0 0 0 0
0 0 0 0 0 0 0 0 0
0 0 0 0 0 0 0 0 0
0 0 0 0 0 0 0 0 0
0 0 0 0 0 0 0 0 0
0 0 0 0 0 0 0 0 0
0 0 0 0 0 0 0 0 0
0 0 0 0 0 0 0 0 0
0 0 0 0 0 0 0 0 0
0 0 0 0 0 0 0 0 0
0 0 0 0 0 0 0 0 0
0 0 0 0 0 0 0 0 0
0 0 0 0 0 0 0 0 0
0 0 0 0 0 0 0 0 0
0 0 0 0 0 0 0 0 0
0 0 0 0 0 0 0 0 0
0 0 0 0 0 0 0 0 0
0 0 0 0 0 0 0 0 0
0 0 0 0 0 0 0 0 0
0 0 0 0 0 0 0 0 0
0 0 0 0 0 0 0 0 0
0 0 0 0 0 0 0 0 0
0 0 0 0 0 0 0 0 0
0 0 0 0 0 0 0 0 0
0 0 0 0 0 0 0 0 0
0 0 0 0 0 0 0 0 0
0 0 0 0 0 0 0 0 0
0 0 0 0 0 0 0 0 0
0 0 0 0 0 0 0 0 0
0 0 0 0 0 0 0 0 0
0 0 0 0 0 0 0 0 0
0 0 0 0 0 0 0 0 0
0 0 0 0 0 0 0 0 0
0 0 0 0 0 0 0 0 0
0 0 0 0 0 0 0 0 0
0 0 0 0 0 0 0 0 0
0 0 0 0 0 0 0 0 0
0 0 0 0 0 0 0 0 0
0 0 0 0 0 0 0 0 0
0 0 0 0 0 0 0 0 0
0 0 0 0 0 0 0 0 0
0 0 0 0 0 0 0 0 0
0 0 0 0 0 0 0 0 0
0 0 0 0 0 0 0 0 0
0 0 0 0 0 0 0 0 0
0 0 0 0 0 0 0 0 0
0 0 0 0 0 0 0 0 0
0 0 0 0 0 0 0 0 0
0 0 0 0 0 0 0 0 0
0 0 0 0 0 0 0 0 0
0 0 0 0 0 0 0 0 0
0 0 0 0 0 0 0 0 0
0 0 0 0 0 0 0 0 0
0 0 0 0 0 0 0 0 0
0 0 0 0 0 0 0 0 0
0 0 0 0 0 0 0 0 0
0 0 0 0 0 0 0 0 0
0 0 0 0 0 0 0 0 0
0 0 0 0 0 0 0 0 0
0 0 0 0 0 0 0 0 0
0 0 0 0 0 0 0 0 0
0 0 0 0 0 0 0 0 0
0 0 0 0 0 0 0 0 0
0 0 0 0 0 0 0 0 0
0 0 0 0 0 0 0 0 0
0 0 0 0 0 0 0 0 0
0 0 0 0 0 0 0 0 0
0 0 0 0 0 0 0 0 0
0 0 0 0 0 0 0 0 0
0 0 0 0 0 0 0 0 0
0 0 0 0 0 0 0 0 0
0 0 0 0 0 0 0 0 0
0 0 0 0 0 0 0 0 0
0 0 0 0 0 0 0 0 0
0 0 0 0 0 0 0 0 0
0 0 0 0 0 0 0 0 0
0 0 0 0 0 0 0 0 0
0 0 0 0 0 0 0 0 0
0 0 0 0 0 0 0 0 0
0 0 0 0 0 0 0 0 0
0 0 0 0 0 0 0 0 0
0 0 0 0 0 0 0 0 0
0 0 0 0 0 0 0 0 0
0 0 0 0 0 0 0 0 0
0 0 0 0 0 0 0 0 0
0 0 0 0 0 0 0 0 0
0 0 0 0 0 0 0 0 0
0 0 0 0 0 0 0 0 0
0 0 0 0 0 0 0 0 0
0 0 0 0 0 0 0 0 0
0 0 0 0 0 0 0 0 0
0 0 0 0 0 0 0 0 0
0 0 0 0 0 0 0 0 0
0 0 0 0 0 0 0 0 0
0 0 0 0 0 0 0 0 0
0 0 0 0 0 0 0 0 0
0 0 0 0 0 0 0 0 0
0 0 0 0 0 0 0 0 0
0 0 0 0 0 0 0 0 0
0 0 0 0 0 0 0 0 0
0 0 0 0 0 0 0 0 0
0 0 0 0 0 0 0 0 0
0 0 0 0 0 0 0 0 0
0 0 0 0 0 0 0 0 0
0 0 0 0 0 0 0 0 0
0 0 0 0 0 0 0 0 0
0 0 0 0 0 0 0 0 0
0 0 0 0 0 0 0 0 0
0 0 0 0 0 0 0 0 0
0 0 0 0 0 0 0 0 0
0 0 0 0 0 0 0 0 0
0 0 0 0 0 0 0 0 0
0 0 0 0 0 0 0 0 0
0 0 0 0 0 0 0 0 0
0 0 0 0 0 0 0 0 0
0 0 0 0 0 0 0 0 0
0 0 0 0 0 0 0 0 0
0 0 0 0 0 0 0 0 0
0 0 0 0 0 0 0 0 0
0 0 0 0 0 0 0 0 0
0 0 0 0 0 0 0 0 0
0 0 0 0 0 0 0 0 0
0 0 0 0 0 0 0 0 0
0 0 0 0 0 0 0 0 0
0 0 0 0 0 0 0 0 0
0 0 0 0 0 0 0 0 0
0 0 0 0 0 0 0 0 0
0 0 0 0 0 0 0 0 0
0 0 0 0 0 0 0 0 0
0 0 0 0 0 0 0 0 0
0 0 0 0 0 0 0 0 0
0 0 0 0 0 0 0 0 0
0 0 0 0 0 0 0 0 0
0 0 0 0 0 0 0 0 0
0 0 0 0 0 0 0 0 0
0 0 0 0 0 0 0 0 0
0 0 0 0 0 0 0 0 0
0 0 0 0 0 0 0 0 0
0 0 0 0 0 0 0 0 0
0 0 0 0 0 0 0 0 0
0 0 0 0 0 0 0 0 0
0 0 0 0 0 0 0 0 0
0 0 0 0 0 0 0 0 0
0 0 0 0 0 0 0 0 0
0 0 0 0 0 0 0 0 0
0 0 0 0 0 0 0 0 0
0 0 0 0 0 0 0 0 0
0 0 0 0 0 0 0 0 0
0 0 0 0 0 0 0 0 0
0 0 0 0 0 0 0 0 0
0 0 0 0 0 0 0 0 0
0 0 0 0 0 0 0 0 0
0 0 0 0 0 0 0 0 0
0 0 0 0 0 0 0 0 0
0 0 0 0 0 0 0 0 0
0 0 0 0 0 0 0 0 0
0 0 0 0 0 0 0 0 0
0 0 0 0 0 0 0 0 0
0 0 0 0 0 0 0 0 0
0 0 0 0 0 0 0 0 0
0 0 0 0 0 0 0 0 0
0 0 0 0 0 0 0 0 0
0 0 0 0 0 0 0 0 0
0 0 0 0 0 0 0 0 0
0 0 0 0 0 0 0 0 0
0 0 0 0 0 0 0 0 0
0 0 0 0 0 0 0 0 0
0 0 0 0 0 0 0 0 0
0 0 0 0 0 0 0 0 0
0 0 0 0 0 0 0 0 0
0 0 0 0 0 0 0 0 0
0 0 0 0 0 0 0 0 0
0 0 0 0 0 0 0 0 0
0 0 0 0 0 0 0 0 0
0 0 0 0 0 0 0 0 0
0 0 0 0 0 0 0 0 0
0 0 0 0 0 0 0 0 0
0 0 0 0 0 0 0 0 0
0 0 0 0 0 0 0 0 0
0 0 0 0 0 0 0 0 0
0 0 0 0 0 0 0 0 0
0 0 0 0 0 0 0 0 0
0 0 0 0 0 0 0 0 0
0 0 0 0 0 0 0 0 0
0 0 0 0 0 0 0 0 0
0 0 0 0 0 0 0 0 0
0 0 0 0 0 0 0 0 0
0 0 0 0 0 0 0 0 0
0 0 0 0 0 0 0 0 0
0 0 0 0 0 0 0 0 0
0 0 0 0 0 0 0 0 0
0 0 0 0 0 0 0 0 0
0 0 0 0 0 0 0 0 0
0 0 0 0 0 0 0 0 0
0 0 0 0 0 0 0 0 0
0 0 0 0 0 0 0 0 0
0 0 0 0 0 0 0 0 0
0 0 0 0 0 0 0 0 0
0 0 0 0 0 0 0 0 0
0 0 0 0 0 0 0 0 0
0 0 0 0 0 0 0 0 0
0 0 0 0 0 0 0 0 0
0 0 0 0 0 0 0 0 0
0 0 0 0 0 0 0 0 0
0 0 0 0 0 0 0 0 0
0 0 0 0 0 0 0 0 0
0 0 0 0 0 0 0 0 0
0 0 0 0 0 0 0 0 0
0 0 0 0 0 0 0 0 0
0 0 0 0 0 0 0 0 0
0 0 0 0 0 0 0 0 0
0 0 0 0 0 0 0 0 0
0 0 0 0 0 0 0 0 0
0 0 0 0 0 0 0 0 0
0 0 0 0 0 0 0 0 0
0 0 0 0 0 0 0 0 0
0 0 0 0 0 0 0 0 0
0 0 0 0 0 0 0 0 0
0 0 0 0 0 0 0 0 0
0 0 0 0 0 0 0 0 0
0 0 0 0 0 0 0 0 0
0 0 0 0 0 0 0 0 0
0 0 0 0 0 0 0 0 0
0 0 0 0 0 0 0 0 0
0 0 0 0 0 0 0 0 0
0 0 0 0 0 0 0 0 0
0 0 0 0 0 0 0 0 0
0 0 0 0 0 0 0 0 0
0 0 0 0 0 0 0 0 0
0 0 0 0 0 0 0 0 0
0 0 0 0 0 0 0 0 0
0 0 0 0 0 0 0 0 0
0 0 0 0 0 0 0 0 0
0 0 0 0 0 0 0 0 0
0 0 0 0 0 0 0 0 0
0 0 0 0 0 0 0 0 0
0 0 0 0 0 0 0 0 0
0 0 0 0 0 0 0 0 0
0 0 0 0 0 0 0 0 0
0 0 0 0 0 0 0 0 0
0 0 0 0 0 0 0 0 0
0 0 0 0 0 0 0 0 0
0 0 0 0 0 0 0 0 0
0 0 0 0 0 0 0 0 0
0 0 0 0 0 0 0 0 0
0 0 0 0 0 0 0 0 0
0 0 0 0 0 0 0 0 0
0 0 0 0 0 0 0 0 0
0 0 0 0 0 0 0 0 0
0 0 0 0 0 0 0 0 0
0 0 0 0 0 0 0 0 0
0 0 0 0 0 0 0 0 0
0 0 0 0 0 0 0 0 0
0 0 0 0 0 0 0 0 0
0 0 0 0 0 0 0 0 0
0 0 0 0 0 0 0 0 0
0 0 0 0 0 0 0 0 0
0 0 0 0 0 0 0 0 0
0 0 0 0 0 0 0 0 0
0 0 0 0 0 0 0 0 0
0 0 0 0 0 0 0 0 0
0 0 0 0 0 0 0 0 0
0 0 0 0 0 0 0 0 0
0 0 0 0 0 0 0 0 0
0 0 0 0 0 0 0 0 0
0 0 0 0 0 0 0 0 0
0 0 0 0 0 0 0 0 0
0 0 0 0 0 0 0 0 0
0 0 0 0 0 0 0 0 0
0 0 0 0 0 0 0 0 0
0 0 0 0 0 0 0 0 0
0 0 0 0 0 0 0 0 0
0 0 0 0 0 0 0 0 0
0 0 0 0 0 0 0 0 0
0 0 0 0 0 0 0 0 0
0 0 0 0 0 0 0 0 0
0 0 0 0 0 0 0 0 0
0 0 0 0 0 0 0 0 0
0 0 0 0 0 0 0 0 0
0 0 0 0 0 0 0 0 0
0 0 0 0 0 0 0 0 0
0 0 0 0 0 0 0 0 0
0 0 0 0 0 0 0 0 0
0 0 0 0 0 0 0 0 0
0 0 0 0 0 0 0 0 0
0 0 0 0 0 0 0 0 0
0 0 0 0 0 0 0 0 0
0 0 0 0 0 0 0 0 0
0 0 0 0 0 0 0 0 0
0 0 0 0 0 0 0 0 0
0 0 0 0 0 0 0 0 0
0 0 0 0 0 0 0 0 0
0 0 0 0 0 0 0 0 0
0 0 0 0 0 0 0 0 0
0 0 0 0 0 0 0 0 0
0 0 0 0 0 0 0 0 0
0 0 0 0 0 0 0 0 0
0 0 0 0 0 0 0 0 0
0 0 0 0 0 0 0 0 0
0 0 0 0 0 0 0 0 0
0 0 0 0 0 0 0 0 0
0 0 0 0 0 0 0 0 0
0 0 0 0 0 0 0 0 0
0 0 0 0 0 0 0 0 0
0 0 0 0 0 0 0 0 0
0 0 0 0 0 0 0 0 0
0 0 0 0 0 0 0 0 0
0 0 0 0 0 0 0 0 0
0 0 0 0 0 0 0 0 0
0 0 0 0 0 0 0 0 0
0 0 0 0 0 0 0 0 0
0 0 0 0 0 0 0 0 0
0 0 0 0 0 0 0 0 0
0 0 0 0 0 0 0 0 0
0 0 0 0 0 0 0 0 0
0 0 0 0 0 0 0 0 0
0 0 0 0 0 0 0 0 0
0 0 0 0 0 0 0 0 0
0 0 0 0 0 0 0 0 0
0 0 0 0 0 0 0 0 0
0 0 0 0 0 0 0 0 0
0 0 0 0 0 0 0 0 0
0 0 0 0 0 0 0 0 0
0 0 0 0 0 0 0 0 0
0 0 0 0 0 0 0 0 0
0 0 0 0 0 0 0 0 0
0 0 0 0 0 0 0 0 0
0 0 0 0 0 0 0 0 0
0 0 0 0 0 0 0 0 0
0 0 0 0 0 0 0 0 0
0 0 0 0 0 0 0 0 0
0 0 0 0 0 0 0 0 0
0 0 0 0 0 0 0 0 0
0 0 0 0 0 0 0 0 0
0 0 0 0 0 0 0 0 0
0 0 0 0 0 0 0 0 0
0 0 0 0 0 0 0 0 0
0 0 0 0 0 0 0 0 0
0 0 0 0 0 0 0 0 0
0 0 0 0 0 0 0 0 0
0 0 0 0 0 0 0 0 0
0 0 0 0 0 0 0 0 0
0 0 0 0 0 0 0 0 0
0 0 0 0 0 0 0 0 0
0 0 0 0 0 0 0 0 0
0 0 0 0 0 0 0 0 0
0 0 0 0 0 0 0 0 0
0 0 0 0 0 0 0 0 0
0 0 0 0 0 0 0 0 0
0 0 0 0 0 0 0 0 0
0 0 0 0 0 0 0 0 0
0 0 0 0 0 0 0 0 0
0 0 0 0 0 0 0 0 0
0 0 0 0 0 0 0 0 0
0 0 0 0 0 0 0 0 0
0 0 0 0 0 0 0 0 0
0 0 0 0 0 0 0 0 0
0 0 0 0 0 0 0 0 0
0 0 0 0 0 0 0 0 0
0 0 0 0 0 0 0 0 0
0 0 0 0 0 0 0 0 0
0 0 0 0 0 0 0 0 0
0 0 0 0 0 0 0 0 0
0 0 0 0 0 0 0 0 0
0 0 0 0 0 0 0 0 0
0 0 0 0 0 0 0 0 0
0 0 0 0 0 0 0 0 0
0 0 0 0 0 0 0 0 0
0 0 0 0 0 0 0 0 0
0 0 0 0 0 0 0 0 0
0 0 0 0 0 0 0 0 0
0 0 0 0 0 0 0 0 0
0 0 0 0 0 0 0 0 0
0.083303 0.0868511 0.0859641 0.0895423 0.083303 0.0868511 0.0859641 0.0895423 0
0.0895926 0.0935343 0.0922921 0.0962265 0.0895926 0.0935343 0.0922921 0.0962265 0
0.0964268 0.100388 0.0991558 0.103224 0.0964268 0.100388 0.0991558 0.103224 0
0.103371 0.10756 0.106193 0.110237 0.103371 0.10756 0.106193 0.110237 0
0.11093 0.115951 0.1136 0.118745 0.11093 0.115951 0.1136 0.118745 0
0.0657668 0.0677233 0.0685507 0.0703879 0.0657668 0.0677233 0.0685507 0.0703879 0
0.0692959 0.0716358 0.071907 0.0742199 0.0692959 0.0716358 0.071907 0.0742199 0
0.0735173 0.0763178 0.0761185 0.0789926 0.0735173 0.0763178 0.0761185 0.0789926 0
0.0786058 0.0820564 0.0813308 0.0848447 0.0786058 0.0820564 0.0813308 0.0848447 0
0.0847298 0.0885831 0.0875657 0.0914856 0.0847298 0.0885831 0.0875657 0.0914856 0
0.0914543 0.0954453 0.0943625 0.0983025 0.0914543 0.0954453 0.0943625 0.0983025 0
0.0984889 0.102813 0.101305 0.10557 0.0984889 0.102813 0.101305 0.10557 0
0.106161 0.110983 0.108936 0.11387 0.106161 0.110983 0.108936 0.11387 0
0.0568741 0.0587857 0.0600887 0.0620745 0.0568741 0.0587857 0.0600887 0.0620745 0
0.0602808 0.0624536 0.0635505 0.0655968 0.0602808 0.0624536 0.0635505 0.0655968 0
0.064141 0.0665782 0.0672146 0.0695877 0.064141 0.0665782 0.0672146 0.0695877 0
0.068509 0.0713466 0.0714778 0.0742684 0.068509 0.0713466 0.0714778 0.0742684 0
0.0736192 0.0769903 0.0765389 0.0799512 0.0736192 0.0769903 0.0765389 0.0799512 0
0.0796056 0.0833794 0.0825962 0.0864103 0.0796056 0.0833794 0.0825962 0.0864103 0
0.0862409 0.0902849 0.0892774 0.0932963 0.0862409 0.0902849 0.0892774 0.0932963 0
0.0933771 0.0977813 0.0963638 0.100725 0.0933771 0.0977813 0.0963638 0.100725 0
0.101107 0.10579 0.104062 0.108817 0.101107 0.10579 0.104062 0.108817 0
0.0479073 0.049645 0.0510695 0.053025 0.0479073 0.049645 0.0510695 0.053025 0
0.0510283 0.05307 0.054446 0.0563725 0.0510283 0.05307 0.054446 0.0563725 0
0.0546434 0.0569003 0.0578937 0.0601229 0.0546434 0.0569003 0.0578937 0.0601229 0
0.0586476 0.061164 0.061845 0.0643205 0.0586476 0.061164 0.061845 0.0643205 0
0.0631382 0.066015 0.0662738 0.0691344 0.0631382 0.066015 0.0662738 0.0691344 0
0.0682842 0.0716068 0.0714067 0.0747538 0.0682842 0.0716068 0.0714067 0.0747538 0
0.0741855 0.0779081 0.0773512 0.0811005 0.0741855 0.0779081 0.0773512 0.0811005 0
0.0807584 0.084823 0.0839575 0.0880137 0.0807584 0.084823 0.0839575 0.0880137 0
0.0879422 0.0923994 0.0911198 0.0955494 0.0879422 0.0923994 0.0911198 0.0955494 0
0.0957297 0.100371 0.0988737 0.103526 0.0957297 0.100371 0.0988737 0.103526 0
0.04237 0.0439401 0.0455759 0.0472103 0.04237 0.0439401 0.0455759 0.0472103 0
0.0452701 0.0473335 0.0485692 0.0506475 0.0452701 0.0473335 0.0485692 0.0506475 0
0.0489233 0.0512033 0.0522393 0.0545098 0.0489233 0.0512033 0.0522393 0.0545098 0
0.0529694 0.0555141 0.0562688 0.0588037 0.0529694 0.0555141 0.0562688 0.0588037 0
0.0574992 0.0603779 0.0607864 0.0636681 0.0574992 0.0603779 0.0607864 0.0636681 0
0.0626308 0.0659071 0.0659321 0.0692356 0.0626308 0.0659071 0.0659321 0.0692356 0
0.0684529 0.0721319 0.0718005 0.0755042 0.0684529 0.0721319 0.0718005 0.0755042 0
0.0749664 0.079031 0.0783484 0.0824153 0.0749664 0.079031 0.0783484 0.0824153 0
0.082164 0.0866587 0.0855416 0.0900162 0.082164 0.0866587 0.0855416 0.0900162 0
0.0900244 0.094725 0.0933576 0.0980119 0.0900244 0.094725 0.0933576 0.0980119 0
0.0367769 0.0382515 0.0400119 0.0415392 0.0367769 0.0382515 0.0400119 0.0415392 0
0.0395313 0.0415529 0.0428479 0.0448961 0.0395313 0.0415529 0.0428479 0.0448961 0
0.0431188 0.0453748 0.046479 0.0487551 0.0431188 0.0453748 0.046479 0.0487551 0
0.0471265 0.0496557 0.0505191 0.0530622 0.0471265 0.0496557 0.0505191 0.0530622 0
0.0516218 0.0544636 0.0550429 0.0579108 0.0516218 0.0544636 0.0550429 0.0579108 0
0.0566798 0.0598929 0.060151 0.0634029 0.0566798 0.0598929 0.060151 0.0634029 0
0.062397 0.0660254 0.0659325 0.0695913 0.062397 0.0660254 0.0659325 0.0695913 0
0.0688355 0.0728843 0.0724165 0.0764763 0.0688355 0.0728843 0.0724165 0.0764763 0
0.0760165 0.0805247 0.0796108 0.0841145 0.0760165 0.0805247 0.0796108 0.0841145 0
0.0839438 0.0887772 0.087501 0.0922495 0.0839438 0.0887772 0.087501 0.0922495 0
0.0310298 0.0325295 0.0343698 0.0358369 0.0310298 0.0325295 0.0343698 0.0358369 0
0.0337841 0.0357116 0.0371021 0.0390914 0.0337841 0.0357116 0.0371021 0.0390914 0
0.0372233 0.0394256 0.0406382 0.0428744 0.0372233 0.0394256 0.0406382 0.0428744 0
0.0411377 0.0436126 0.0446121 0.047123 0.0411377 0.0436126 0.0446121 0.047123 0
0.0455298 0.0482925 0.049072 0.0518856 0.0455298 0.0482925 0.049072 0.0518856 0
0.0504448 0.0535621 0.0540783 0.0572552 0.0504448 0.0535621 0.0540783 0.0572552 0
0.0560058 0.0595648 0.0597363 0.0633379 0.0560058 0.0595648 0.0597363 0.0633379 0
0.0623412 0.0663673 0.0661349 0.0701747 0.0623412 0.0663673 0.0661349 0.0701747 0
0.0695131 0.0740814 0.0733098 0.0778353 0.0695131 0.0740814 0.0733098 0.0778353 0
0.0775421 0.0824286 0.0812743 0.0861446 0.0775421 0.0824286 0.0812743 0.0861446 0
0.0251479 0.0267194 0.0285584 0.030086 0.0251479 0.0267194 0.0285584 0.030086 0
0.027963 0.0297888 0.0313347 0.0332184 0.027963 0.0297888 0.0313347 0.0332184 0
0.0312357 0.0333626 0.0347033 0.0368763 0.0312357 0.0333626 0.0347033 0.0368763 0
0.035016 0.0374061 0.0385657 0.0410082 0.035016 0.0374061 0.0385657 0.0410082 0
0.0392457 0.0418813 0.0428961 0.0456111 0.0392457 0.0418813 0.0428961 0.0456111 0
0.0439326 0.0469012 0.0477255 0.0507869 0.0439326 0.0469012 0.0477255 0.0507869 0
0.049256 0.0527206 0.0531967 0.056719 0.049256 0.0527206 0.0531967 0.056719 0
0.0554726 0.0595266 0.0594833 0.0635131 0.0554726 0.0595266 0.0594833 0.0635131 0
0.0626462 0.0671152 0.0666547 0.0712079 0.0626462 0.0671152 0.0666547 0.0712079 0
0.0192539 0.0208876 0.0226543 0.0242542 0.0192539 0.0208876 0.0226543 0.0242542 0
0.0221076 0.0238069 0.0254901 0.0272664 0.0221076 0.0238069 0.0254901 0.0272664 0
0.0251396 0.0270809 0.0286725 0.0307373 0.0251396 0.0270809 0.0286725 0.0307373 0
0.0286007 0.0308112 0.0323452 0.0346731 0.0286007 0.0308112 0.0323452 0.0346731 0
0.0325347 0.0350324 0.0364686 0.0390459 0.0325347 0.0350324 0.0364686 0.0390459 0
0.0370022 0.0398859 0.0410585 0.0439794 0.0370022 0.0398859 0.0410585 0.0439794 0
0.0421916 0.0456069 0.0463063 0.0497421 0.0421916 0.0456069 0.0463063 0.0497421 0
0.0483222 0.0523252 0.052481 0.0565277 0.0483222 0.0523252 0.052481 0.0565277 0
0 0 0 0 0 0 0 0 0
0 0 0 0 0 0 0 0 0
0 0 0 0 0 0 0 0 0
0 0 0 0 0 0 0 0 0
0 0 0 0 0 0 0 0 0
0 0 0 0 0 0 0 0 0
0 0 0 0 0 0 0 0 0
0 0 0 0 0 0 0 0 0
0 0 0 0 0 0 0 0 0
0 0 0 0 0 0 0 0 0
0 0 0 0 0 0 0 0 0
0 0 0 0 0 0 0 0 0
0 0 0 0 0 0 0 0 0
0 0 0 0 0 0 0 0 0
0 0 0 0 0 0 0 0 0
0 0 0 0 0 0 0 0 0
0 0 0 0 0 0 0 0 0
0 0 0 0 0 0 0 0 0
0 0 0 0 0 0 0 0 0
0 0 0 0 0 0 0 0 0
0 0 0 0 0 0 0 0 0
0 0 0 0 0 0 0 0 0
0 0 0 0 0 0 0 0 0
0 0 0 0 0 0 0 0 0
0 0 0 0 0 0 0 0 0
0 0 0 0 0 0 0 0 0
0 0 0 0 0 0 0 0 0
0 0 0 0 0 0 0 0 0
0 0 0 0 0 0 0 0 0
0 0 0 0 0 0 0 0 0
0 0 0 0 0 0 0 0 0
0 0 0 0 0 0 0 0 0
0 0 0 0 0 0 0 0 0
0 0 0 0 0 0 0 0 0
0 0 0 0 0 0 0 0 0
0 0 0 0 0 0 0 0 0
0 0 0 0 0 0 0 0 0
0 0 0 0 0 0 0 0 0
0 0 0 0 0 0 0 0 0
0 0 0 0 0 0 0 0 0
0 0 0 0 0 0 0 0 0
0 0 0 0 0 0 0 0 0
0 0 0 0 0 0 0 0 0
0 0 0 0 0 0 0 0 0
0 0 0 0 0 0 0 0 0
0 0 0 0 0 0 0 0 0
0 0 0 0 0 0 0 0 0
0 0 0 0 0 0 0 0 0
0 0 0 0 0 0 0 0 0
0 0 0 0 0 0 0 0 0
0 0 0 0 0 0 0 0 0
0 0 0 0 0 0 0 0 0
0 0 0 0 0 0 0 0 0
0 0 0 0 0 0 0 0 0
0 0 0 0 0 0 0 0 0
0 0 0 0 0 0 0 0 0
0 0 0 0 0 0 0 0 0
0 0 0 0 0 0 0 0 0
0 0 0 0 0 0 0 0 0
0 0 0 0 0 0 0 0 0
0 0 0 0 0 0 0 0 0
0 0 0 0 0 0 0 0 0
0 0 0 0 0 0 0 0 0
0 0 0 0 0 0 0 0 0
0 0 0 0 0 0 0 0 0
0 0 0 0 0 0 0 0 0
0 0 0 0 0 0 0 0 0
0 0 0 0 0 0 0 0 0
0 0 0 0 0 0 0 0 0
0 0 0 0 0 0 0 0 0
0 0 0 0 0 0 0 0 0
0 0 0 0 0 0 0 0 0
0 0 0 0 0 0 0 0 0
0 0 0 0 0 0 0 0 0
0 0 0 0 0 0 0 0 0
0 0 0 0 0 0 0 0 0
0 0 0 0 0 0 0 0 0
0 0 0 0 0 0 0 0 0
0 0 0 0 0 0 0 0 0
0 0 0 0 0 0 0 0 0
0 0 0 0 0 0 0 0 0
0 0 0 0 0 0 0 0 0
0 0 0 0 0 0 0 0 0
0 0 0 0 0 0 0 0 0
0 0 0 0 0 0 0 0 0
0 0 0 0 0 0 0 0 0
0 0 0 0 0 0 0 0 0
0 0 0 0 0 0 0 0 0
0 0 0 0 0 0 0 0 0
0 0 0 0 0 0 0 0 0
0 0 0 0 0 0 0 0 0
0 0 0 0 0 0 0 0 0
0 0 0 0 0 0 0 0 0
0 0 0 0 0 0 0 0 0
0 0 0 0 0 0 0 0 0
0 0 0 0 0 0 0 0 0
0 0 0 0 0 0 0 0 0
0 0 0 0 0 0 0 0 0
0 0 0 0 0 0 0 0 0
0 0 0 0 0 0 0 0 0
0 0 0 0 0 0 0 0 0
0 0 0 0 0 0 0 0 0
0 0 0 0 0 0 0 0 0
0 0 0 0 0 0 0 0 0
0 0 0 0 0 0 0 0 0
0 0 0 0 0 0 0 0 0
0 0 0 0 0 0 0 0 0
0 0 0 0 0 0 0 0 0
0 0 0 0 0 0 0 0 0
0 0 0 0 0 0 0 0 0
0 0 0 0 0 0 0 0 0
0 0 0 0 0 0 0 0 0
0 0 0 0 0 0 0 0 0
0 0 0 0 0 0 0 0 0
0 0 0 0 0 0 0 0 0
0 0 0 0 0 0 0 0 0
0 0 0 0 0 0 0 0 0
0 0 0 0 0 0 0 0 0
0 0 0 0 0 0 0 0 0
0 0 0 0 0 0 0 0 0
0 0 0 0 0 0 0 0 0
0 0 0 0 0 0 0 0 0
0 0 0 0 0 0 0 0 0
0 0 0 0 0 0 0 0 0
0 0 0 0 0 0 0 0 0
0 0 0 0 0 0 0 0 0
0 0 0 0 0 0 0 0 0
0 0 0 0 0 0 0 0 0
0 0 0 0 0 0 0 0 0
0 0 0 0 0 0 0 0 0
0 0 0 0 0 0 0 0 0
0 0 0 0 0 0 0 0 0
0 0 0 0 0 0 0 0 0
0 0 0 0 0 0 0 0 0
0 0 0 0 0 0 0 0 0
0 0 0 0 0 0 0 0 0
0 0 0 0 0 0 0 0 0
0 0 0 0 0 0 0 0 0
0 0 0 0 0 0 0 0 0
0 0 0 0 0 0 0 0 0
0 0 0 0 0 0 0 0 0
0 0 0 0 0 0 0 0 0
0 0 0 0 0 0 0 0 0
0 0 0 0 0 0 0 0 0
0 0 0 0 0 0 0 0 0
0 0 0 0 0 0 0 0 0
0 0 0 0 0 0 0 0 0
0 0 0 0 0 0 0 0 0
0 0 0 0 0 0 0 0 0
0 0 0 0 0 0 0 0 0
0 0 0 0 0 0 0 0 0
0 0 0 0 0 0 0 0 0
0 0 0 0 0 0 0 0 0
0 0 0 0 0 0 0 0 0
0 0 0 0 0 0 0 0 0
0 0 0 0 0 0 0 0 0
0 0 0 0 0 0 0 0 0
0 0 0 0 0 0 0 0 0
0 0 0 0 0 0 0 0 0
0 0 0 0 0 0 0 0 0
0 0 0 0 0 0 0 0 0
0 0 0 0 0 0 0 0 0
0 0 0 0 0 0 0 0 0
0 0 0 0 0 0 0 0 0
0 0 0 0 0 0 0 0 0
0 0 0 0 0 0 0 0 0
0 0 0 0 0 0 0 0 0
0 0 0 0 0 0 0 0 0
0 0 0 0 0 0 0 0 0
0 0 0 0 0 0 0 0 0
0 0 0 0 0 0 0 0 0
0 0 0 0 0 0 0 0 0
0 0 0 0 0 0 0 0 0
0 0 0 0 0 0 0 0 0
0 0 0 0 0 0 0 0 0
0 0 0 0 0 0 0 0 0
0 0 0 0 0 0 0 0 0
0 0 0 0 0 0 0 0 0
0 0 0 0 0 0 0 0 0
0 0 0 0 0 0 0 0 0
0 0 0 0 0 0 0 0 0
0 0 0 0 0 0 0 0 0
0 0 0 0 0 0 0 0 0
0 0 0 0 0 0 0 0 0
0 0 0 0 0 0 0 0 0
0 0 0 0 0 0 0 0 0
0 0 0 0 0 0 0 0 0
0 0 0 0 0 0 0 0 0
0 0 0 0 0 0 0 0 0
0 0 0 0 0 0 0 0 0
0 0 0 0 0 0 0 0 0
0 0 0 0 0 0 0 0 0
0 0 0 0 0 0 0 0 0
0 0 0 0 0 0 0 0 0
0 0 0 0 0 0 0 0 0
0 0 0 0 0 0 0 0 0
0 0 0 0 0 0 0 0 0
0 0 0 0 0 0 0 0 0
0 0 0 0 0 0 0 0 0
0 0 0 0 0 0 0 0 0
0 0 0 0 0 0 0 0 0
0 0 0 0 0 0 0 0 0
0 0 0 0 0 0 0 0 0
0 0 0 0 0 0 0 0 0
0 0 0 0 0 0 0 0 0
0 0 0 0 0 0 0 0 0
0 0 0 0 0 0 0 0 0
0 0 0 0 0 0 0 0 0
0 0 0 0 0 0 0 0 0
0 0 0 0 0 0 0 0 0
0 0 0 0 0 0 0 0 0
0 0 0 0 0 0 0 0 0
0 0 0 0 0 0 0 0 0
0 0 0 0 0 0 0 0 0
0 0 0 0 0 0 0 0 0
0 0 0 0 0 0 0 0 0
0 0 0 0 0 0 0 0 0
0 0 0 0 0 0 0 0 0
0 0 0 0 0 0 0 0 0
0 0 0 0 0 0 0 0 0
0 0 0 0 0 0 0 0 0
0 0 0 0 0 0 0 0 0
0 0 0 0 0 0 0 0 0
0 0 0 0 0 0 0 0 0
0 0 0 0 0 0 0 0 0
0 0 0 0 0 0 0 0 0
0 0 0 0 0 0 0 0 0
0 0 0 0 0 0 0 0 0
0 0 0 0 0 0 0 0 0
0 0 0 0 0 0 0 0 0
0 0 0 0 0 0 0 0 0
0 0 0 0 0 0 0 0 0
0 0 0 0 0 0 0 0 0
0 0 0 0 0 0 0 0 0
0 0 0 0 0 0 0 0 0
0 0 0 0 0 0 0 0 0
0 0 0 0 0 0 0 0 0
0 0 0 0 0 0 0 0 0
0 0 0 0 0 0 0 0 0
0 0 0 0 0 0 0 0 0
0 0 0 0 0 0 0 0 0
0 0 0 0 0 0 0 0 0
0 0 0 0 0 0 0 0 0
0 0 0 0 0 0 0 0 0
0 0 0 0 0 0 0 0 0
0 0 0 0 0 0 0 0 0
0 0 0 0 0 0 0 0 0
0 0 0 0 0 0 0 0 0
0 0 0 0 0 0 0 0 0
0 0 0 0 0 0 0 0 0
0 0 0 0 0 0 0 0 0
0 0 0 0 0 0 0 0 0
0 0 0 0 0 0 0 0 0
0 0 0 0 0 0 0 0 0
0 0 0 0 0 0 0 0 0
0 0 0 0 0 0 0 0 0
0 0 0 0 0 0 0 0 0
0 0 0 0 0 0 0 0 0
0 0 0 0 0 0 0 0 0
0 0 0 0 0 0 0 0 0
0 0 0 0 0 0 0 0 0
0 0 0 0 0 0 0 0 0
0 0 0 0 0 0 0 0 0
0 0 0 0 0 0 0 0 0
0 0 0 0 0 0 0 0 0
0 0 0 0 0 0 0 0 0
0 0 0 0 0 0 0 0 0
0 0 0 0 0 0 0 0 0
0 0 0 0 0 0 0 0 0
0 0 0 0 0 0 0 0 0
0 0 0 0 0 0 0 0 0
0 0 0 0 0 0 0 0 0
0 0 0 0 0 0 0 0 0
0 0 0 0 0 0 0 0 0
0 0 0 0 0 0 0 0 0
0 0 0 0 0 0 0 0 0
0 0 0 0 0 0 0 0 0
0 0 0 0 0 0 0 0 0
0 0 0 0 0 0 0 0 0
0 0 0 0 0 0 0 0 0
0 0 0 0 0 0 0 0 0
0 0 0 0 0 0 0 0 0
0 0 0 0 0 0 0 0 0
0 0 0 0 0 0 0 0 0
0 0 0 0 0 0 0 0 0
0 0 0 0 0 0 0 0 0
0 0 0 0 0 0 0 0 0
0 0 0 0 0 0 0 0 0
0 0 0 0 0 0 0 0 0
0 0 0 0 0 0 0 0 0
0 0 0 0 0 0 0 0 0
0 0 0 0 0 0 0 0 0
0 0 0 0 0 0 0 0 0
0 0 0 0 0 0 0 0 0
0 0 0 0 0 0 0 0 0
0 0 0 0 0 0 0 0 0
0 0 0 0 0 0 0 0 0
0 0 0 0 0 0 0 0 0
0 0 0 0 0 0 0 0 0
0 0 0 0 0 0 0 0 0
0 0 0 0 0 0 0 0 0
0 0 0 0 0 0 0 0 0
0 0 0 0 0 0 0 0 0
0 0 0 0 0 0 0 0 0
0 0 0 0 0 0 0 0 0
0 0 0 0 0 0 0 0 0
0 0 0 0 0 0 0 0 0
0 0 0 0 0 0 0 0 0
0 0 0 0 0 0 0 0 0
0 0 0 0 0 0 0 0 0
0 0 0 0 0 0 0 0 0
0 0 0 0 0 0 0 0 0
0 0 0 0 0 0 0 0 0
0 0 0 0 0 0 0 0 0
0 0 0 0 0 0 0 0 0
0 0 0 0 0 0 0 0 0
0 0 0 0 0 0 0 0 0
0 0 0 0 0 0 0 0 0
0 0 0 0 0 0 0 0 0
0 0 0 0 0 0 0 0 0
0 0 0 0 0 0 0 0 0
0 0 0 0 0 0 0 0 0
0 0 0 0 0 0 0 0 0
0 0 0 0 0 0 0 0 0
0 0 0 0 0 0 0 0 0
0 0 0 0 0 0 0 0 0
0 0 0 0 0 0 0 0 0
0 0 0 0 0 0 0 0 0
0 0 0 0 0 0 0 0 0
0 0 0 0 0 0 0 0 0
0 0 0 0 0 0 0 0 0
0 0 0 0 0 0 0 0 0
0 0 0 0 0 0 0 0 0
0 0 0 0 0 0 0 0 0
0 0 0 0 0 0 0 0 0
0 0 0 0 0 0 0 0 0
0 0 0 0 0 0 0 0 0
0 0 0 0 0 0 0 0 0
0 0 0 0 0 0 0 0 0
0 0 0 0 0 0 0 0 0
0 0 0 0 0 0 0 0 0
0 0 0 0 0 0 0 0 0
0 0 0 0 0 0 0 0 0
0 0 0 0 0 0 0 0 0
0 0 0 0 0 0 0 0 0
0 0 0 0 0 0 0 0 0
0 0 0 0 0 0 0 0 0
0 0 0 0 0 0 0 0 0
0 0 0 0 0 0 0 0 0
0 0 0 0 0 0 0 0 0
0 0 0 0 0 0 0 0 0
0 0 0 0 0 0 0 0 0
0 0 0 0 0 0 0 0 0
0 0 0 0 0 0 0 0 0
0 0 0 0 0 0 0 0 0
0 0 0 0 0 0 0 0 0
0 0 0 0 0 0 0 0 0
0 0 0 0 0 0 0 0 0
0 0 0 0 0 0 0 0 0
0 0 0 0 0 0 0 0 0
0 0 0 0 0 0 0 0 0
0 0 0 0 0 0 0 0 0
0 0 0 0 0 0 0 0 0
0 0 0 0 0 0 0 0 0
0 0 0 0 0 0 0 0 0
0 0 0 0 0 0 0 0 0
0 0 0 0 0 0 0 0 0
0 0 0 0 0 0 0 0 0
0 0 0 0 0 0 0 0 0
0 0 0 0 0 0 0 0 0
0 0 0 0 0 0 0 0 0
0 0 0 0 0 0 0 0 0
0 0 0 0 0 0 0 0 0
0 0 0 0 0 0 0 0 0
0 0 0 0 0 0 0 0 0
0 0 0 0 0 0 0 0 0
0 0 0 0 0 0 0 0 0
0 0 0 0 0 0 0 0 0
0 0 0 0 0 0 0 0 0
0 0 0 0 0 0 0 0 0
0 0 0 0 0 0 0 0 0
0 0 0 0 0 0 0 0 0
0 0 0 0 0 0 0 0 0
0 0 0 0 0 0 0 0 0
0 0 0 0 0 0 0 0 0
0 0 0 0 0 0 0 0 0
0 0 0 0 0 0 0 0 0
0 0 0 0 0 0 0 0 0
0 0 0 0 0 0 0 0 0
0 0 0 0 0 0 0 0 0
0 0 0 0 0 0 0 0 0
0 0 0 0 0 0 0 0 0
0 0 0 0 0 0 0 0 0
0 0 0 0 0 0 0 0 0
0 0 0 0 0 0 0 0 0
0 0 0 0 0 0 0 0 0
0 0 0 0 0 0 0 0 0
0 0 0 0 0 0 0 0 0
0 0 0 0 0 0 0 0 0
0 0 0 0 0 0 0 0 0
0 0 0 0 0 0 0 0 0
0 0 0 0 0 0 0 0 0
0 0 0 0 0 0 0 0 0
0 0 0 0 0 0 0 0 0
0 0 0 0 0 0 0 0 0
0 0 0 0 0 0 0 0 0
0 0 0 0 0 0 0 0 0
0 0 0 0 0 0 0 0 0
0 0 0 0 0 0 0 0 0
0 0 0 0 0 0 0 0 0
0 0 0 0 0 0 0 0 0
0 0 0 0 0 0 0 0 0
0 0 0 0 0 0 0 0 0
0 0 0 0 0 0 0 0 0
0 0 0 0 0 0 0 0 0
0 0 0 0 0 0 0 0 0
0 0 0 0 0 0 0 0 0
0 0 0 0 0 0 0 0 0
0 0 0 0 0 0 0 0 0
0 0 0 0 0 0 0 0 0
0 0 0 0 0 0 0 0 0
0 0 0 0 0 0 0 0 0
0 0 0 0 0 0 0 0 0
0 0 0 0 0 0 0 0 0
0 0 0 0 0 0 0 0 0
0 0 0 0 0 0 0 0 0
0 0 0 0 0 0 0 0 0
0 0 0 0 0 0 0 0 0
0 0 0 0 0 0 0 0 0
0 0 0 0 0 0 0 0 0
0 0 0 0 0 0 0 0 0
0 0 0 0 0 0 0 0 0
0 0 0 0 0 0 0 0 0
0 0 0 0 0 0 0 0 0
0 0 0 0 0 0 0 0 0
0 0 0 0 0 0 0 0 0
0 0 0 0 0 0 0 0 0
0 0 0 0 0 0 0 0 0
0 0 0 0 0 0 0 0 0
0 0 0 0 0 0 0 0 0
0 0 0 0 0 0 0 0 0
0 0 0 0 0 0 0 0 0
0 0 0 0 0 0 0 0 0
0 0 0 0 0 0 0 0 0
0 0 0 0 0 0 0 0 0
0 0 0 0 0 0 0 0 0
0 0 0 0 0 0 0 0 0
0 0 0 0 0 0 0 0 0
0 0 0 0 0 0 0 0 0
0 0 0 0 0 0 0 0 0
0 0 0 0 0 0 0 0 0
0 0 0 0 0 0 0 0 0
0 0 0 0 0 0 0 0 0
0 0 0 0 0 0 0 0 0
0 0 0 0 0 0 0 0 0
0 0 0 0 0 0 0 0 0
0 0 0 0 0 0 0 0 0
0 0 0 0 0 0 0 0 0
0 0 0 0 0 0 0 0 0
0 0 0 0 0 0 0 0 0
0 0 0 0 0 0 0 0 0
0 0 0 0 0 0 0 0 0
0 0 0 0 0 0 0 0 0
0 0 0 0 0 0 0 0 0
0 0 0 0 0 0 0 0 0
0 0 0 0 0 0 0 0 0
0 0 0 0 0 0 0 0 0
0 0 0 0 0 0 0 0 0
0 0 0 0 0 0 0 0 0
0 0 0 0 0 0 0 0 0
0 0 0 0 0 0 0 0 0
0 0 0 0 0 0 0 0 0
0 0 0 0 0 0 0 0 0
0 0 0 0 0 0 0 0 0
0 0 0 0 0 0 0 0 0
0 0 0 0 0 0 0 0 0
0 0 0 0 0 0 0 0 0
0 0 0 0 0 0 0 0 0
0 0 0 0 0 0 0 0 0
0 0 0 0 0 0 0 0 0
0 0 0 0 0 0 0 0 0
0 0 0 0 0 0 0 0 0
0 0 0 0 0 0 0 0 0
0 0 0 0 0 0 0 0 0
0 0 0 0 0 0 0 0 0
0 0 0 0 0 0 0 0 0
0 0 0 0 0 0 0 0 0
0 0 0 0 0 0 0 0 0
0 0 0 0 0 0 0 0 0
0 0 0 0 0 0 0 0 0
0 0 0 0 0 0 0 0 0
0 0 0 0 0 0 0 0 0
0 0 0 0 0 0 0 0 0
0 0 0 0 0 0 0 0 0
0 0 0 0 0 0 0 0 0
0 0 0 0 0 0 0 0 0
0 0 0 0 0 0 0 0 0
0 0 0 0 0 0 0 0 0
0 0 0 0 0 0 0 0 0
0 0 0 0 0 0 0 0 0
0 0 0 0 0 0 0 0 0
0 0 0 0 0 0 0 0 0
0 0 0 0 0 0 0 0 0
0 0 0 0 0 0 0 0 0
0 0 0 0 0 0 0 0 0
0 0 0 0 0 0 0 0 0
0 0 0 0 0 0 0 0 0
0 0 0 0 0 0 0 0 0
0 0 0 0 0 0 0 0 0
0 0 0 0 0 0 0 0 0
0 0 0 0 0 0 0 0 0
0 0 0 0 0 0 0 0 0
0 0 0 0 0 0 0 0 0
0 0 0 0 0 0 0 0 0
0 0 0 0 0 0 0 0 0
0 0 0 0 0 0 0 0 0
0 0 0 0 0 0 0 0 0
0 0 0 0 0 0 0 0 0
0 0 0 0 0 0 0 0 0
0 0 0 0 0 0 0 0 0
0 0 0 0 0 0 0 0 0
0 0 0 0 0 0 0 0 0
0 0 0 0 0 0 0 0 0
0 0 0 0 0 0 0 0 0
0 0 0 0 0 0 0 0 0
0 0 0 0 0 0 0 0 0
0 0 0 0 0 0 0 0 0
0 0 0 0 0 0 0 0 0
0 0 0 0 0 0 0 0 0
0 0 0 0 0 0 0 0 0
0 0 0 0 0 0 0 0 0
0 0 0 0 0 0 0 0 0
0 0 0 0 0 0 0 0 0
0 0 0 0 0 0 0 0 0
0 0 0 0 0 0 0 0 0
0 0 0 0 0 0 0 0 0
0 0 0 0 0 0 0 0 0
0 0 0 0 0 0 0 0 0
0 0 0 0 0 0 0 0 0
0 0 0 0 0 0 0 0 0
0 0 0 0 0 0 0 0 0
0 0 0 0 0 0 0 0 0
0 0 0 0 0 0 0 0 0
0 0 0 0 0 0 0 0 0
0 0 0 0 0 0 0 0 0
0 0 0 0 0 0 0 0 0
0 0 0 0 0 0 0 0 0
0 0 0 0 0 0 0 0 0
0 0 0 0 0 0 0 0 0
0 0 0 0 0 0 0 0 0
0 0 0 0 0 0 0 0 0
0 0 0 0 0 0 0 0 0
0 0 0 0 0 0 0 0 0
0.0461876 0.0478266 0.0476883 0.0492374 0.0461876 0.0478266 0.0476883 0.0492374 0
0.0491275 0.0510423 0.0505325 0.0525217 0.0491275 0.0510423 0.0505325 0.0525217 0
0.0526648 0.0551826 0.0541149 0.0564784 0.0526648 0.0551826 0.0541149 0.0564784 0
0.0570111 0.0594889 0.0581968 0.0605283 0.0570111 0.0594889 0.0581968 0.0605283 0
0.0612881 0.0637261 0.0623685 0.0650647 0.0612881 0.0637261 0.0623685 0.0650647 0
0.0361397 0.037423 0.0373644 0.0386484 0.0361397 0.037423 0.0373644 0.0386484 0
0.0384824 0.0400932 0.0397124 0.0413354 0.0384824 0.0400932 0.0397124 0.0413354 0
0.0412525 0.042809 0.0424905 0.0440234 0.0412525 0.042809 0.0424905 0.0440234 0
0.0439574 0.0455382 0.0451876 0.0468351 0.0439574 0.0455382 0.0451876 0.0468351 0
0.0468204 0.0487425 0.0481325 0.0500294 0.0468204 0.0487425 0.0481325 0.0500294 0
0.0503358 0.0527665 0.0516518 0.0541877 0.0503358 0.0527665 0.0516518 0.0541877 0
0.0545793 0.0571012 0.0560414 0.0585702 0.0545793 0.0571012 0.0560414 0.0585702 0
0.0589091 0.0613263 0.0603608 0.062724 0.0589091 0.0613263 0.0603608 0.062724 0
0.0318644 0.0328199 0.0333255 0.034311 0.0318644 0.0328199 0.0333255 0.034311 0
0.0336491 0.0349592 0.035144 0.0364343 0.0336491 0.0349592 0.035144 0.0364343 0
0.0360032 0.0375452 0.0374883 0.0390773 0.0360032 0.0375452 0.0374883 0.0390773 0
0.0386839 0.0402528 0.0402323 0.0417984 0.0386839 0.0402528 0.0402323 0.0417984 0
0.0414244 0.0430564 0.0429487 0.0445253 0.0414244 0.0430564 0.0429487 0.0445253 0
0.0443686 0.0463214 0.0458115 0.0477486 0.0443686 0.0463214 0.0458115 0.0477486 0
0.0478908 0.0502254 0.0493276 0.0517044 0.0478908 0.0502254 0.0493276 0.0517044 0
0.0519932 0.0544884 0.0534942 0.0560071 0.0519932 0.0544884 0.0534942 0.0560071 0
0.056315 0.0588105 0.0578246 0.0602772 0.056315 0.0588105 0.0578246 0.0602772 0
0.0278149 0.0285342 0.0294932 0.0301554 0.0278149 0.0285342 0.0294932 0.0301554 0
0.0291788 0.0302202 0.030753 0.0317235 0.0291788 0.0302202 0.030753 0.0317235 0
0.0310748 0.0323679 0.0325585 0.0338693 0.0310748 0.0323679 0.0325585 0.0338693 0
0.0333782 0.034845 0.0349016 0.0364109 0.0333782 0.034845 0.0349016 0.0364109 0
0.035953 0.0375131 0.037537 0.0391042 0.035953 0.0375131 0.037537 0.0391042 0
0.038702 0.0403897 0.0402861 0.0419479 0.038702 0.0403897 0.0402861 0.0419479 0
0.0417273 0.043694 0.0432738 0.0452346 0.0417273 0.043694 0.0432738 0.0452346 0
0.0452496 0.0475327 0.0467977 0.0491072 0.0452496 0.0475327 0.0467977 0.0491072 0
0.0492767 0.0517581 0.0508627 0.0533494 0.0492767 0.0517581 0.0508627 0.0533494 0
0.053594 0.0561286 0.055181 0.0576983 0.053594 0.0561286 0.055181 0.0576983 0
0.0250941 0.0258641 0.026636 0.0273842 0.0250941 0.0258641 0.026636 0.0273842 0
0.0265367 0.0276041 0.0280488 0.0291161 0.0265367 0.0276041 0.0280488 0.0291161 0
0.0284507 0.0296964 0.0299738 0.0312495 0.0284507 0.0296964 0.0299738 0.0312495 0
0.0306668 0.0320719 0.0322432 0.0336821 0.0306668 0.0320719 0.0322432 0.0336821 0
0.0331478 0.034682 0.0347766 0.0363278 0.0331478 0.034682 0.0347766 0.0363278 0
0.0358672 0.0375712 0.0375176 0.0392165 0.0358672 0.0375712 0.0375176 0.0392165 0
0.0389143 0.0408795 0.0405587 0.0425266 0.0389143 0.0408795 0.0405587 0.0425266 0
0.0424247 0.0446811 0.0440774 0.0463463 0.0424247 0.0446811 0.0440774 0.0463463 0
0.0464186 0.0489092 0.0480854 0.0505678 0.0464186 0.0489092 0.0480854 0.0505678 0
0.0507429 0.0532621 0.0524043 0.0549394 0.0507429 0.0532621 0.0524043 0.0549394 0
0.0222897 0.0231698 0.0239293 0.0247347 0.0222897 0.0231698 0.0239293 0.0247347 0
0.0238732 0.0249146 0.0254176 0.026478 0.0238732 0.0249146 0.0254176 0.026478 0
0.0257367 0.026941 0.0273151 0.0285417 0.0257367 0.026941 0.0273151 0.0285417 0
0.0278735 0.0292169 0.0294956 0.0308751 0.0278735 0.0292169 0.0294956 0.0308751 0
0.0302545 0.031746 0.0319358 0.0334539 0.0302545 0.031746 0.0319358 0.0334539 0
0.0329114 0.0346037 0.0346326 0.0363348 0.0329114 0.0346037 0.0346326 0.0363348 0
0.0359379 0.0378903 0.0376757 0.0396367 0.0359379 0.0378903 0.0376757 0.0396367 0
0.0394222 0.0416548 0.0411769 0.0434235 0.0394222 0.0416548 0.0411769 0.0434235 0
0.0433962 0.0459211 0.0451616 0.0476636 0.0433962 0.0459211 0.0451616 0.0476636 0
0.047761 0.050263 0.0494982 0.0520085 0.047761 0.050263 0.0494982 0.0520085 0
0.0194329 0.0203547 0.0210846 0.0219959 0.0194329 0.0203547 0.0210846 0.0219959 0
0.0210778 0.0221314 0.02271 0.0237497 0.0210778 0.0221314 0.02271 0.0237497 0
0.022942 0.024103 0.0245646 0.0257513 0.022942 0.024103 0.0245646 0.0257513 0
0.0249939 0.0262669 0.026667 0.0279817 0.0249939 0.0262669 0.026667 0.0279817 0
0.027256 0.0286852 0.0290002 0.0304678 0.027256 0.0286852 0.0290002 0.0304678 0
0.0298171 0.0314803 0.0316207 0.0333025 0.0298171 0.0314803 0.0316207 0.0333025 0
0.0327948 0.0347229 0.0346296 0.0365732 0.0327948 0.0347229 0.0346296 0.0365732 0
0.0362385 0.0384509 0.0380985 0.0403219 0.0362385 0.0384509 0.0380985 0.0403219 0
0.0401302 0.0425058 0.0420475 0.0445385 0.0401302 0.0425058 0.0420475 0.0445385 0
0.0443685 0.0470823 0.0463859 0.0489424 0.0443685 0.0470823 0.0463859 0.0489424 0
0.016508 0.0174687 0.0182063 0.0191414 0.016508 0.0174687 0.0182063 0.0191414 0
0.0182091 0.019271 0.0198715 0.020931 0.0182091 0.019271 0.0198715 0.020931 0
0.0200704 0.0211925 0.0217375 0.0228811 0.0200704 0.0211925 0.0217375 0.0228811 0
0.0220374 0.0232237 0.0237531 0.0249916 0.0220374 0.0232237 0.0237531 0.0249916 0
0.0241486 0.0254893 0.0259556 0.0273508 0.0241486 0.0254893 0.0259556 0.0273508 0
0.0265739 0.0281963 0.0284644 0.0301116 0.0265739 0.0281963 0.0284644 0.0301116 0
0.0294875 0.0313925 0.0314165 0.0333342 0.0294875 0.0313925 0.0314165 0.0333342 0
0.0328982 0.0351067 0.0348445 0.0370529 0.0328982 0.0351067 0.0348445 0.0370529 0
0.0367558 0.0390529 0.0387117 0.0410353 0.0367558 0.0390529 0.0387117 0.0410353 0
0.013403 0.0144302 0.0152207 0.0162061 0.013403 0.0144302 0.0152207 0.0162061 0
0.0151922 0.0162468 0.016955 0.0180155 0.0151922 0.0162468 0.016955 0.0180155 0
0.0170215 0.0180835 0.0188064 0.0199066 0.0170215 0.0180835 0.0188064 0.0199066 0
0.0188787 0.0199891 0.0207309 0.0218829 0.0188787 0.0199891 0.0207309 0.0218829 0
0.0208647 0.0221461 0.0227841 0.0240943 0.0208647 0.0221461 0.0227841 0.0240943 0
0.023195 0.0247787 0.0251615 0.0267669 0.023195 0.0247787 0.0251615 0.0267669 0
0.0260494 0.0279371 0.0280489 0.0299458 0.0260494 0.0279371 0.0280489 0.0299458 0
0.0294317 0.0316274 0.0314473 0.0336523 0.0294317 0.0316274 0.0314473 0.0336523 0
0 0 0 0 0 0 0 0 0
0 0 0 0 0 0 0 0 0
0 0 0 0 0 0 0 0 0
0 0 0 0 0 0 0 0 0
0 0 0 0 0 0 0 0 0
0 0 0 0 0 0 0 0 0
0 0 0 0 0 0 0 0 0
0 0 0 0 0 0 0 0 0
0 0 0 0 0 0 0 0 0
0 0 0 0 0 0 0 0 0
0 0 0 0 0 0 0 0 0
0 0 0 0 0 0 0 0 0
0 0 0 0 0 0 0 0 0
0 0 0 0 0 0 0 0 0
0 0 0 0 0 0 0 0 0
0 0 0 0 0 0 0 0 0
0 0 0 0 0 0 0 0 0
0 0 0 0 0 0 0 0 0
0 0 0 0 0 0 0 0 0
0 0 0 0 0 0 0 0 0
0 0 0 0 0 0 0 0 0
0 0 0 0 0 0 0 0 0
0 0 0 0 0 0 0 0 0
0 0 0 0 0 0 0 0 0
0 0 0 0 0 0 0 0 0
0 0 0 0 0 0 0 0 0
0 0 0 0 0 0 0 0 0
0 0 0 0 0 0 0 0 0
0 0 0 0 0 0 0 0 0
0 0 0 0 0 0 0 0 0
0 0 0 0 0 0 0 0 0
0 0 0 0 0 0 0 0 0
0 0 0 0 0 0 0 0 0
0 0 0 0 0 0 0 0 0
0 0 0 0 0 0 0 0 0
0 0 0 0 0 0 0 0 0
0 0 0 0 0 0 0 0 0
0 0 0 0 0 0 0 0 0
0 0 0 0 0 0 0 0 0
0 0 0 0 0 0 0 0 0
0 0 0 0 0 0 0 0 0
0 0 0 0 0 0 0 0 0
0 0 0 0 0 0 0 0 0
0 0 0 0 0 0 0 0 0
0 0 0 0 0 0 0 0 0
0 0 0 0 0 0 0 0 0
0 0 0 0 0 0 0 0 0
0 0 0 0 0 0 0 0 0
0 0 0 0 0 0 0 0 0
0 0 0 0 0 0 0 0 0
0 0 0 0 0 0 0 0 0
0 0 0 0 0 0 0 0 0
0 0 0 0 0 0 0 0 0
0 0 0 0 0 0 0 0 0
0 0 0 0 0 0 0 0 0
0 0 0 0 0 0 0 0 0
0 0 0 0 0 0 0 0 0
0 0 0 0 0 0 0 0 0
0 0 0 0 0 0 0 0 0
0 0 0 0 0 0 0 0 0
0 0 0 0 0 0 0 0 0
0 0 0 0 0 0 0 0 0
0 0 0 0 0 0 0 0 0
0 0 0 0 0 0 0 0 0
0 0 0 0 0 0 0 0 0
0 0 0 0 0 0 0 0 0
0 0 0 0 0 0 0 0 0
0 0 0 0 0 0 0 0 0
0 0 0 0 0 0 0 0 0
0 0 0 0 0 0 0 0 0
0 0 0 0 0 0 0 0 0
0 0 0 0 0 0 0 0 0
0 0 0 0 0 0 0 0 0
0 0 0 0 0 0 0 0 0
0 0 0 0 0 0 0 0 0
0 0 0 0 0 0 0 0 0
0 0 0 0 0 0 0 0 0
0 0 0 0 0 0 0 0 0
0 0 0 0 0 0 0 0 0
0.0360672 0.0371856 0.0374499 0.038518 0.0360672 0.0371856 0.0374499 0.038518 0
0.0380785 0.0393995 0.0393905 0.0407059 0.0380785 0.0393995 0.0393905 0.0407059 0
0.0403693 0.0416975 0.0417388 0.0432451 0.0403693 0.0416975 0.0417388 0.0432451 0
0.042634 0.0438641 0.0442247 0.0453946 0.042634 0.0438641 0.0442247 0.0453946 0
0.0449295 0.0466103 0.046394 0.0479547 0.0449295 0.0466103 0.046394 0.0479547 0
0.0294632 0.0301616 0.0309627 0.0316201 0.0294632 0.0301616 0.0309627 0.0316201 0
0.0306918 0.0314419 0.0321159 0.0328126 0.0306918 0.0314419 0.0321159 0.0328126 0
0.0320491 0.0329578 0.0334016 0.0343139 0.0320491 0.0329578 0.0334016 0.0343139 0
0.0337044 0.0348353 0.0350633 0.0361985 0.0337044 0.0348353 0.0350633 0.0361985 0
0.0357189 0.0370021 0.0370944 0.0384068 0.0357189 0.0370021 0.0370944 0.0384068 0
0.0379522 0.0392646 0.0393543 0.0406306 0.0379522 0.0392646 0.0393543 0.0406306 0
0.0402405 0.0415945 0.041566 0.0428455 0.0402405 0.0415945 0.041566 0.0428455 0
0.0426786 0.0442864 0.0439336 0.0456269 0.0426786 0.0442864 0.0439336 0.0456269 0
0.0250133 0.0259278 0.0268022 0.0276881 0.0250133 0.0259278 0.0268022 0.0276881 0
0.0265532 0.0273472 0.0282814 0.0290164 0.0265532 0.0273472 0.0282814 0.0290164 0
0.0279463 0.0287889 0.0295743 0.0303634 0.0279463 0.0287889 0.0295743 0.0303634 0
0.0294501 0.030414 0.03099 0.0319126 0.0294501 0.030414 0.03099 0.0319126 0
0.0311804 0.0323102 0.0326637 0.0337931 0.0311804 0.0323102 0.0326637 0.0337931 0
0.0331896 0.0344623 0.0346723 0.0359448 0.0331896 0.0344623 0.0346723 0.0359448 0
0.0354262 0.036787 0.0368992 0.0382343 0.0354262 0.036787 0.0368992 0.0382343 0
0.0378147 0.0392618 0.0392349 0.0406338 0.0378147 0.0392618 0.0392349 0.0406338 0
0.0403375 0.0418295 0.0417146 0.0432684 0.0403375 0.0418295 0.0417146 0.0432684 0
0.020845 0.0214956 0.0223342 0.0231196 0.020845 0.0214956 0.0223342 0.0231196 0
0.0220485 0.0229087 0.0237394 0.024647 0.0220485 0.0229087 0.0237394 0.024647 0
0.0235346 0.0243843 0.0252811 0.0261057 0.0235346 0.0243843 0.0252811 0.0261057 0
0.0250305 0.025946 0.0267285 0.0276049 0.0250305 0.025946 0.0267285 0.0276049 0
0.0266517 0.0276644 0.0282874 0.0292754 0.0266517 0.0276644 0.0282874 0.0292754 0
0.0284534 0.0295963 0.0300519 0.0311853 0.0284534 0.0295963 0.0300519 0.0311853 0
0.0304823 0.03176 0.0320665 0.0333405 0.0304823 0.03176 0.0320665 0.0333405 0
0.0327375 0.0341304 0.0343106 0.0356869 0.0327375 0.0341304 0.0343106 0.0356869 0
0.0351939 0.0367068 0.0367315 0.038209 0.0351939 0.0367068 0.0367315 0.038209 0
0.03781 0.0393113 0.0392908 0.0407687 0.03781 0.0393113 0.0392908 0.0407687 0
0.0179989 0.0185003 0.0196832 0.0202576 0.0179989 0.0185003 0.0196832 0.0202576 0
0.0189926 0.0198359 0.0207764 0.0216193 0.0189926 0.0198359 0.0207764 0.0216193 0
0.0204672 0.0213484 0.0222445 0.0231093 0.0204672 0.0213484 0.0222445 0.0231093 0
0.0220195 0.0229715 0.0237684 0.0247041 0.0220195 0.0229715 0.0237684 0.0247041 0
0.0237009 0.0247417 0.0254225 0.0264492 0.0237009 0.0247417 0.0254225 0.0264492 0
0.025546 0.0267025 0.0272456 0.0283947 0.025546 0.0267025 0.0272456 0.0283947 0
0.0275959 0.0288804 0.029284 0.0305645 0.0275959 0.0288804 0.029284 0.0305645 0
0.0298641 0.0312671 0.0315456 0.0329456 0.0298641 0.0312671 0.0315456 0.0329456 0
0.0323523 0.0339142 0.0340201 0.0355555 0.0323523 0.0339142 0.0340201 0.0355555 0
0.0350628 0.036639 0.0366766 0.0382042 0.0350628 0.036639 0.0366766 0.0382042 0
0.0150594 0.0154753 0.0167597 0.0172187 0.0150594 0.0154753 0.0167597 0.0172187 0
0.0159292 0.0167533 0.0176935 0.0185318 0.0159292 0.0167533 0.0176935 0.0185318 0
0.0173774 0.0182583 0.0191628 0.0200483 0.0173774 0.0182583 0.0191628 0.0200483 0
0.0189311 0.0198882 0.020723 0.0216807 0.0189311 0.0198882 0.020723 0.0216807 0
0.0206205 0.021664 0.0224139 0.0234592 0.0206205 0.021664 0.0224139 0.0234592 0
0.0224695 0.0236265 0.0242659 0.0254244 0.0224695 0.0236265 0.0242659 0.0254244 0
0.0245214 0.0258091 0.0263194 0.0276058 0.0245214 0.0258091 0.0263194 0.0276058 0
0.026793 0.0281932 0.0285902 0.0299932 0.026793 0.0281932 0.0285902 0.0299932 0
0.0292779 0.0308409 0.0310811 0.0326504 0.0292779 0.0308409 0.0310811 0.0326504 0
0.032047 0.0337792 0.0338218 0.0354528 0.032047 0.0337792 0.0338218 0.0354528 0
0.0119749 0.0124769 0.0137771 0.0142045 0.0119749 0.0124769 0.0137771 0.0142045 0
0.0129361 0.0136884 0.0146542 0.0154552 0.0129361 0.0136884 0.0146542 0.0154552 0
0.0142754 0.0151267 0.0160675 0.0169392 0.0142754 0.0151267 0.0160675 0.0169392 0
0.0157799 0.0167129 0.0176062 0.0185567 0.0157799 0.0167129 0.0176062 0.0185567 0
0.0174251 0.0184375 0.0192834 0.020318 0.0174251 0.0184375 0.0192834 0.020318 0
0.0192232 0.0203572 0.0211179 0.0222683 0.0192232 0.0203572 0.0211179 0.0222683 0
0.0212424 0.0225267 0.0231605 0.0244477 0.0212424 0.0225267 0.0231605 0.0244477 0
0.0235114 0.0249171 0.0254316 0.0268326 0.0235114 0.0249171 0.0254316 0.0268326 0
0.0260473 0.0277293 0.0279285 0.0295218 0.0260473 0.0277293 0.0279285 0.0295218 0
0.0289635 0.0306534 0.0307447 0.0324926 0.0289635 0.0306534 0.0307447 0.0324926 0
0.00884438 0.00947007 0.010653 0.011208 0.00884438 0.00947007 0.010653 0.011208 0
0.0099466 0.0106227 0.0116744 0.0123932 0.0099466 0.0106227 0.0116744 0.0123932 0
0.0111618 0.0119585 0.0129606 0.0137918 0.0111618 0.0119585 0.0129606 0.0137918 0
0.0125724 0.013453 0.0144307 0.015345 0.0125724 0.013453 0.0144307 0.015345 0
0.0141181 0.0150545 0.0160407 0.0170267 0.0141181 0.0150545 0.0160407 0.0170267 0
0.0157899 0.0168624 0.0177951 0.0189083 0.0157899 0.0168624 0.0177951 0.0189083 0
0.0177246 0.0190073 0.0197854 0.0210685 0.0177246 0.0190073 0.0197854 0.0210685 0
0.0200527 0.021626 0.0220696 0.0235215 0.0200527 0.021626 0.0220696 0.0235215 0
0.0228133 0.0244841 0.0246761 0.0263789 0.0228133 0.0244841 0.0246761 0.0263789 0
0.00573787 0.0064311 0.00752714 0.00818982 0.00573787 0.0064311 0.00752714 0.00818982 0
0.00690715 0.00751442 0.00866893 0.00931511 0.00690715 0.00751442 0.00866893 0.00931511 0
0.00798109 0.00864869 0.00982722 0.01058 0.00798109 0.00864869 0.00982722 0.01058 0
0.00917692 0.00995234 0.0111643 0.0120077 0.00917692 0.00995234 0.0111643 0.0120077 0
0.0105466 0.0113947 0.0126456 0.013545 0.0105466 0.0113947 0.0126456 0.013545 0
0.0120768 0.0130921 0.0142572 0.0153035 0.0120768 0.0130921 0.0142572 0.0153035 0
0.0139321 0.0152118 0.0161557 0.0174375 0.0139321 0.0152118 0.0161557 0.0174375 0
0.0162764 0.0179049 0.0184999 0.0201204 0.0162764 0.0179049 0.0184999 0.0201204 0
0 0 0 0 0 0 0 0 0
0 0 0 0 0 0 0 0 0
0 0 0 0 0 0 0 0 0
0 0 0 0 0 0 0 0 0
0 0 0 0 0 0 0 0 0
0 0 0 0 0 0 0 0 0
0 0 0 0 0 0 0 0 0
0 0 0 0 0 0 0 0 0
0 0 0 0 0 0 0 0 0
0 0 0 0 0 0 0 0 0
0 0 0 0 0 0 0 0 0
0 0 0 0 0 0 0 0 0
0 0 0 0 0 0 0 0 0
0 0 0 0 0 0 0 0 0
0 0 0 0 0 0 0 0 0
0 0 0 0 0 0 0 0 0
0 0 0 0 0 0 0 0 0
0 0 0 0 0 0 0 0 0
0 0 0 0 0 0 0 0 0
0 0 0 0 0 0 0 0 0
0 0 0 0 0 0 0 0 0
0 0 0 0 0 0 0 0 0
0 0 0 0 0 0 0 0 0
0 0 0 0 0 0 0 0 0
0 0 0 0 0 0 0 0 0
0 0 0 0 0 0 0 0 0
0 0 0 0 0 0 0 0 0
0 0 0 0 0 0 0 0 0
0 0 0 0 0 0 0 0 0
0 0 0 0 0 0 0 0 0
0 0 0 0 0 0 0 0 0
0 0 0 0 0 0 0 0 0
0 0 0 0 0 0 0 0 0
0 0 0 0 0 0 0 0 0
0 0 0 0 0 0 0 0 0
0 0 0 0 0 0 0 0 0
0 0 0 0 0 0 0 0 0
0 0 0 0 0 0 0 0 0
0 0 0 0 0 0 0 0 0
0 0 0 0 0 0 0 0 0
0 0 0 0 0 0 0 0 0
0 0 0 0 0 0 0 0 0
0 0 0 0 0 0 0 0 0
0 0 0 0 0 0 0 0 0
0 0 0 0 0 0 0 0 0
0 0 0 0 0 0 0 0 0
0 0 0 0 0 0 0 0 0
0 0 0 0 0 0 0 0 0
0 0 0 0 0 0 0 0 0
0 0 0 0 0 0 0 0 0
0 0 0 0 0 0 0 0 0
0 0 0 0 0 0 0 0 0
0 0 0 0 0 0 0 0 0
0 0 0 0 0 0 0 0 0
0 0 0 0 0 0 0 0 0
0 0 0 0 0 0 0 0 0
0 0 0 0 0 0 0 0 0
0 0 0 0 0 0 0 0 0
0 0 0 0 0 0 0 0 0
0 0 0 0 0 0 0 0 0
0 0 0 0 0 0 0 0 0
0 0 0 0 0 0 0 0 0
0 0 0 0 0 0 0 0 0
0 0 0 0 0 0 0 0 0
0 0 0 0 0 0 0 0 0
0 0 0 0 0 0 0 0 0
0 0 0 0 0 0 0 0 0
0 0 0 0 0 0 0 0 0
0 0 0 0 0 0 0 0 0
0 0 0 0 0 0 0 0 0
0 0 0 0 0 0 0 0 0
0 0 0 0 0 0 0 0 0
0 0 0 0 0 0 0 0 0
0 0 0 0 0 0 0 0 0
0 0 0 0 0 0 0 0 0
0 0 0 0 0 0 0 0 0
0 0 0 0 0 0 0 0 0
0 0 0 0 0 0 0 0 0
0 0 0 0 0 0 0 0 0
0 0 0 0 0 0 0 0 0
0 0 0 0 0 0 0 0 0
0 0 0 0 0 0 0 0 0
0 0 0 0 0 0 0 0 0
0 0 0 0 0 0 0 0 0
0 0 0 0 0 0 0 0 0
0 0 0 0 0 0 0 0 0
0 0 0 0 0 0 0 0 0
0 0 0 0 0 0 0 0 0
0 0 0 0 0 0 0 0 0
0 0 0 0 0 0 0 0 0
0 0 0 0 0 0 0 0 0
0 0 0 0 0 0 0 0 0
0 0 0 0 0 0 0 0 0
0 0 0 0 0 0 0 0 0
0 0 0 0 0 0 0 0 0
0 0 0 0 0 0 0 0 0
0 0 0 0 0 0 0 0 0
0 0 0 0 0 0 0 0 0
0 0 0 0 0 0 0 0 0
0 0 0 0 0 0 0 0 0
0 0 0 0 0 0 0 0 0
0 0 0 0 0 0 0 0 0
0 0 0 0 0 0 0 0 0
0 0 0 0 0 0 0 0 0
0 0 0 0 0 0 0 0 0
0 0 0 0 0 0 0 0 0
0 0 0 0 0 0 0 0 0
0 0 0 0 0 0 0 0 0
0 0 0 0 0 0 0 0 0
0 0 0 0 0 0 0 0 0
0 0 0 0 0 0 0 0 0
0 0 0 0 0 0 0 0 0
0 0 0 0 0 0 0 0 0
0 0 0 0 0 0 0 0 0
0 0 0 0 0 0 0 0 0
0 0 0 0 0 0 0 0 0
0 0 0 0 0 0 0 0 0
0 0 0 0 0 0 0 0 0
0 0 0 0 0 0 0 0 0
0 0 0 0 0 0 0 0 0
0 0 0 0 0 0 0 0 0
0 0 0 0 0 0 0 0 0
0 0 0 0 0 0 0 0 0
0 0 0 0 0 0 0 0 0
0 0 0 0 0 0 0 0 0
0 0 0 0 0 0 0 0 0
0 0 0 0 0 0 0 0 0
0 0 0 0 0 0 0 0 0
0 0 0 0 0 0 0 0 0
0 0 0 0 0 0 0 0 0
0 0 0 0 0 0 0 0 0
0 0 0 0 0 0 0 0 0
0 0 0 0 0 0 0 0 0
0 0 0 0 0 0 0 0 0
0 0 0 0 0 0 0 0 0
0 0 0 0 0 0 0 0 0
0 0 0 0 0 0 0 0 0
0 0 0 0 0 0 0 0 0
0 0 0 0 0 0 0 0 0
0 0 0 0 0 0 0 0 0
0 0 0 0 0 0 0 0 0
0 0 0 0 0 0 0 0 0
0 0 0 0 0 0 0 0 0
0 0 0 0 0 0 0 0 0
0 0 0 0 0 0 0 0 0
0 0 0 0 0 0 0 0 0
0 0 0 0 0 0 0 0 0
0 0 0 0 0 0 0 0 0
0 0 0 0 0 0 0 0 0
0 0 0 0 0 0 0 0 0
0 0 0 0 0 0 0 0 0
0 0 0 0 0 0 0 0 0
0 0 0 0 0 0 0 0 0
0 0 0 0 0 0 0 0 0
0 0 0 0 0 0 0 0 0
0 0 0 0 0 0 0 0 0
0 0 0 0 0 0 0 0 0
0 0 0 0 0 0 0 0 0
0 0 0 0 0 0 0 0 0
0 0 0 0 0 0 0 0 0
0 0 0 0 0 0 0 0 0
0 0 0 0 0 0 0 0 0
0 0 0 0 0 0 0 0 0
0 0 0 0 0 0 0 0 0
0 0 0 0 0 0 0 0 0
0 0 0 0 0 0 0 0 0
0 0 0 0 0 0 0 0 0
0 0 0 0 0 0 0 0 0
0 0 0 0 0 0 0 0 0
0 0 0 0 0 0 0 0 0
0 0 0 0 0 0 0 0 0
0 0 0 0 0 0 0 0 0
0 0 0 0 0 0 0 0 0
0 0 0 0 0 0 0 0 0
0 0 0 0 0 0 0 0 0
0 0 0 0 0 0 0 0 0
0 0 0 0 0 0 0 0 0
0 0 0 0 0 0 0 0 0
0 0 0 0 0 0 0 0 0
0 0 0 0 0 0 0 0 0
0 0 0 0 0 0 0 0 0
0 0 0 0 0 0 0 0 0
0 0 0 0 0 0 0 0 0
0 0 0 0 0 0 0 0 0
0 0 0 0 0 0 0 0 0
0 0 0 0 0 0 0 0 0
0 0 0 0 0 0 0 0 0
0 0 0 0 0 0 0 0 0
0 0 0 0 0 0 0 0 0
0 0 0 0 0 0 0 0 0
0 0 0 0 0 0 0 0 0
0 0 0 0 0 0 0 0 0
0 0 0 0 0 0 0 0 0
0 0 0 0 0 0 0 0 0
0 0 0 0 0 0 0 0 0
0 0 0 0 0 0 0 0 0
0 0 0 0 0 0 0 0 0
0 0 0 0 0 0 0 0 0
0 0 0 0 0 0 0 0 0
0 0 0 0 0 0 0 0 0
0 0 0 0 0 0 0 0 0
0 0 0 0 0 0 0 0 0
0 0 0 0 0 0 0 0 0
0 0 0 0 0 0 0 0 0
0 0 0 0 0 0 0 0 0
0 0 0 0 0 0 0 0 0
0 0 0 0 0 0 0 0 0
0 0 0 0 0 0 0 0 0
0 0 0 0 0 0 0 0 0
0 0 0 0 0 0 0 0 0
0 0 0 0 0 0 0 0 0
0 0 0 0 0 0 0 0 0
0 0 0 0 0 0 0 0 0
0 0 0 0 0 0 0 0 0
0 0 0 0 0 0 0 0 0
0 0 0 0 0 0 0 0 0
0 0 0 0 0 0 0 0 0
0 0 0 0 0 0 0 0 0
0 0 0 0 0 0 0 0 0
0 0 0 0 0 0 0 0 0
0 0 0 0 0 0 0 0 0
0 0 0 0 0 0 0 0 0
0 0 0 0 0 0 0 0 0
0 0 0 0 0 0 0 0 0
0 0 0 0 0 0 0 0 0
0 0 0 0 0 0 0 0 0
0 0 0 0 0 0 0 0 0
0 0 0 0 0 0 0 0 0
0 0 0 0 0 0 0 0 0
0 0 0 0 0 0 0 0 0
0 0 0 0 0 0 0 0 0
0 0 0 0 0 0 0 0 0
0 0 0 0 0 0 0 0 0
0 0 0 0 0 0 0 0 0
0 0 0 0 0 0 0 0 0
0 0 0 0 0 0 0 0 0
0 0 0 0 0 0 0 0 0
0 0 0 0 0 0 0 0 0
0 0 0 0 0 0 0 0 0
0 0 0 0 0 0 0 0 0
0 0 0 0 0 0 0 0 0
0 0 0 0 0 0 0 0 0
0 0 0 0 0 0 0 0 0
0 0 0 0 0 0 0 0 0
0 0 0 0 0 0 0 0 0
0 0 0 0 0 0 0 0 0
0 0 0 0 0 0 0 0 0
0 0 0 0 0 0 0 0 0
0 0 0 0 0 0 0 0 0
0 0 0 0 0 0 0 0 0
0 0 0 0 0 0 0 0 0
0 0 0 0 0 0 0 0 0
0 0 0 0 0 0 0 0 0
0 0 0 0 0 0 0 0 0
0 0 0 0 0 0 0 0 0
0 0 0 0 0 0 0 0 0
0 0 0 0 0 0 0 0 0
0 0 0 0 0 0 0 0 0
0 0 0 0 0 0 0 0 0
0 0 0 0 0 0 0 0 0
0 0 0 0 0 0 0 0 0
0 0 0 0 0 0 0 0 0
0 0 0 0 0 0 0 0 0
0 0 0 0 0 0 0 0 0
0 0 0 0 0 0 0 0 0
0 0 0 0 0 0 0 0 0
0 0 0 0 0 0 0 0 0
0 0 0 0 0 0 0 0 0
0 0 0 0 0 0 0 0 0
0 0 0 0 0 0 0 0 0
0 0 0 0 0 0 0 0 0
0 0 0 0 0 0 0 0 0
0 0 0 0 0 0 0 0 0
0 0 0 0 0 0 0 0 0
0 0 0 0 0 0 0 0 0
0 0 0 0 0 0 0 0 0
0 0 0 0 0 0 0 0 0
0 0 0 0 0 0 0 0 0
0 0 0 0 0 0 0 0 0
0 0 0 0 0 0 0 0 0
0 0 0 0 0 0 0 0 0
0 0 0 0 0 0 0 0 0
0 0 0 0 0 0 0 0 0
0 0 0 0 0 0 0 0 0
0 0 0 0 0 0 0 0 0
0 0 0 0 0 0 0 0 0
0 0 0 0 0 0 0 0 0
0 0 0 0 0 0 0 0 0
0 0 0 0 0 0 0 0 0
0 0 0 0 0 0 0 0 0
0 0 0 0 0 0 0 0 0
0 0 0 0 0 0 0 0 0
0 0 0 0 0 0 0 0 0
0 0 0 0 0 0 0 0 0
0 0 0 0 0 0 0 0 0
0 0 0 0 0 0 0 0 0
0 0 0 0 0 0 0 0 0
0 0 0 0 0 0 0 0 0
0 0 0 0 0 0 0 0 0
0 0 0 0 0 0 0 0 0
0 0 0 0 0 0 0 0 0
0 0 0 0 0 0 0 0 0
0 0 0 0 0 0 0 0 0
0 0 0 0 0 0 0 0 0
0 0 0 0 0 0 0 0 0
0 0 0 0 0 0 0 0 0
0 0 0 0 0 0 0 0 0
0 0 0 0 0 0 0 0 0
0 0 0 0 0 0 0 0 0
0 0 0 0 0 0 0 0 0
0 0 0 0 0 0 0 0 0
0 0 0 0 0 0 0 0 0
0 0 0 0 0 0 0 0 0
0 0 0 0 0 0 0 0 0
0 0 0 0 0 0 0 0 0
0 0 0 0 0 0 0 0 0
0 0 0 0 0 0 0 0 0
0 0 0 0 0 0 0 0 0
0 0 0 0 0 0 0 0 0
0 0 0 0 0 0 0 0 0
0 0 0 0 0 0 0 0 0
0 0 0 0 0 0 0 0 0
0 0 0 0 0 0 0 0 0
0 0 0 0 0 0 0 0 0
0 0 0 0 0 0 0 0 0
0 0 0 0 0 0 0 0 0
0 0 0 0 0 0 0 0 0
0 0 0 0 0 0 0 0 0
0 0 0 0 0 0 0 0 0
0 0 0 0 0 0 0 0 0
0 0 0 0 0 0 0 0 0
0 0 0 0 0 0 0 0 0
0 0 0 0 0 0 0 0 0
0 0 0 0 0 0 0 0 0
0 0 0 0 0 0 0 0 0
0 0 0 0 0 0 0 0 0
0 0 0 0 0 0 0 0 0
0 0 0 0 0 0 0 0 0
0 0 0 0 0 0 0 0 0
0 0 0 0 0 0 0 0 0
0 0 0 0 0 0 0 0 0
0 0 0 0 0 0 0 0 0
0 0 0 0 0 0 0 0 0
0 0 0 0 0 0 0 0 0
0 0 0 0 0 0 0 0 0
0 0 0 0 0 0 0 0 0
0 0 0 0 0 0 0 0 0
0 0 0 0 0 0 0 0 0
0 0 0 0 0 0 0 0 0
0 0 0 0 0 0 0 0 0
0 0 0 0 0 0 0 0 0
0 0 0 0 0 0 0 0 0
0 0 0 0 0 0 0 0 0
0 0 0 0 0 0 0 0 0
0 0 0 0 0 0 0 0 0
0 0 0 0 0 0 0 0 0
0 0 0 0 0 0 0 0 0
0 0 0 0 0 0 0 0 0
0 0 0 0 0 0 0 0 0
0 0 0 0 0 0 0 0 0
0 0 0 0 0 0 0 0 0
0 0 0 0 0 0 0 0 0
0 0 0 0 0 0 0 0 0
0 0 0 0 0 0 0 0 0
0 0 0 0 0 0 0 0 0
0 0 0 0 0 0 0 0 0
0 0 0 0 0 0 0 0 0
0 0 0 0 0 0 0 0 0
0 0 0 0 0 0 0 0 0
0 0 0 0 0 0 0 0 0
0 0 0 0 0 0 0 0 0
0 0 0 0 0 0 0 0 0
0 0 0 0 0 0 0 0 0
0 0 0 0 0 0 0 0 0
0 0 0 0 0 0 0 0 0
0 0 0 0 0 0 0 0 0
0 0 0 0 0 0 0 0 0
0 0 0 0 0 0 0 0 0
0 0 0 0 0 0 0 0 0
0 0 0 0 0 0 0 0 0
0 0 0 0 0 0 0 0 0
0 0 0 0 0 0 0 0 0
0 0 0 0 0 0 0 0 0
0 0 0 0 0 0 0 0 0
0 0 0 0 0 0 0 0 0
0 0 0 0 0 0 0 0 0
0 0 0 0 0 0 0 0 0
0 0 0 0 0 0 0 0 0
0 0 0 0 0 0 0 0 0
0 0 0 0 0 0 0 0 0
0 0 0 0 0 0 0 0 0
0 0 0 0 0 0 0 0 0
0 0 0 0 0 0 0 0 0
0 0 0 0 0 0 0 0 0
0 0 0 0 0 0 0 0 0
SCALARS F_CZ double 9
LOOKUP_TABLE default
0 0 0 0 0 0 0 0 0
0 0 0 0 0 0 0 0 0
0 0 0 0 0 0 0 0 0
0 0 0 0 0 0 0 0 0
0 0 0 0 0 0 0 0 0
0 0 0 0 0 0 0 0 0
0 0 0 0 0 0 0 0 0
0 0 0 0 0 0 0 0 0
0 0 0 0 0 0 0 0 0
0 0 0 0 0 0 0 0 0
0 0 0 0 0 0 0 0 0
0 0 0 0 0 0 0 0 0
0 0 0 0 0 0 0 0 0
0 0 0 0 0 0 0 0 0
0 0 0 0 0 0 0 0 0
0 0 0 0 0 0 0 0 0
0 0 0 0 0 0 0 0 0
0 0 0 0 0 0 0 0 0
0 0 0 0 0 0 0 0 0
0 0 0 0 0 0 0 0 0
0 0 0 0 0 0 0 0 0
0 0 0 0 0 0 0 0 0
0 0 0 0 0 0 0 0 0
0 0 0 0 0 0 0 0 0
0 0 0 0 0 0 0 0 0
0 0 0 0 0 0 0 0 0
0 0 0 0 0 0 0 0 0
0 0 0 0 0 0 0 0 0
0 0 0 0 0 0 0 0 0
0 0 0 0 0 0 0 0 0
0 0 0 0 0 0 0 0 0
0 0 0 0 0 0 0 0 0
0 0 0 0 0 0 0 0 0
0 0 0 0 0 0 0 0 0
0 0 0 0 0 0 0 0 0
0 0 0 0 0 0 0 0 0
0 0 0 0 0 0 0 0 0
0 0 0 0 0 0 0 0 0
0 0 0 0 0 0 0 0 0
0 0 0 0 0 0 0 0 0
0 0 0 0 0 0 0 0 0
0 0 0 0 0 0 0 0 0
0 0 0 0 0 0 0 0 0
0 0 0 0 0 0 0 0 0
0 0 0 0 0 0 0 0 0
0 0 0 0 0 0 0 0 0
0 0 0 0 0 0 0 0 0
0 0 0 0 0 0 0 0 0
0 0 0 0 0 0 0 0 0
0 0 0 0 0 0 0 0 0
0 0 0 0 0 0 0 0 0
0 0 0 0 0 0 0 0 0
0 0 0 0 0 0 0 0 0
0 0 0 0 0 0 0 0 0
0 0 0 0 0 0 0 0 0
0 0 0 0 0 0 0 0 0
0 0 0 0 0 0 0 0 0
0 0 0 0 0 0 0 0 0
0 0 0 0 0 0 0 0 0
0 0 0 0 0 0 0 0 0
0 0 0 0 0 0 0 0 0
0 0 0 0 0 0 0 0 0
0 0 0 0 0 0 0 0 0
0 0 0 0 0 0 0 0 0
0 0 0 0 0 0 0 0 0
0 0 0 0 0 0 0 0 0
0 0 0 0 0 0 0 0 0
0 0 0 0 0 0 0 0 0
0 0 0 0 0 0 0 0 0
0 0 0 0 0 0 0 0 0
0 0 0 0 0 0 0 0 0
0 0 0 0 0 0 0 0 0
0 0 0 0 0 0 0 0 0
0 0 0 0 0 0 0 0 0
0 0 0 0 0 0 0 0 0
0 0 0 0 0 0 0 0 0
0 0 0 0 0 0 0 0 0
0 0 0 0 0 0 0 0 0
0 0 0 0 0 0 0 0 0
0 0 0 0 0 0 0 0 0
0 0 0 0 0 0 0 0 0
0 0 0 0 0 0 0 0 0
0 0 0 0 0 0 0 0 0
0 0 0 0 0 0 0 0 0
0 0 0 0 0 0 0 0 0
0 0 0 0 0 0 0 0 0
0 0 0 0 0 0 0 0 0
0 0 0 0 0 0 0 0 0
0 0 0 0 0 0 0 0 0
0 0 0 0 0 0 0 0 0
0 0 0 0 0 0 0 0 0
0 0 0 0 0 0 0 0 0
0 0 0 0 0 0 0 0 0
0 0 0 0 0 0 0 0 0
0 0 0 0 0 0 0 0 0
0 0 0 0 0 0 0 0 0
0 0 0 0 0 0 0 0 0
0 0 0 0 0 0 0 0 0
0 0 0 0 0 0 0 0 0
0 0 0 0 0 0 0 0 0
0 0 0 0 0 0 0 0 0
0 0 0 0 0 0 0 0 0
0 0 0 0 0 0 0 0 0
0 0 0 0 0 0 0 0 0
0 0 0 0 0 0 0 0 0
0 0 0 0 0 0 0 0 0
0 0 0 0 0 0 0 0 0
0 0 0 0 0 0 0 0 0
0 0 0 0 0 0 0 0 0
0 0 0 0 0 0 0 0 0
0 0 0 0 0 0 0 0 0
0 0 0 0 0 0 0 0 0
0 0 0 0 0 0 0 0 0
0 0 0 0 0 0 0 0 0
0 0 0 0 0 0 0 0 0
0 0 0 0 0 0 0 0 0
0 0 0 0 0 0 0 0 0
0 0 0 0 0 0 0 0 0
0 0 0 0 0 0 0 0 0
0 0 0 0 0 0 0 0 0
0 0 0 0 0 0 0 0 0
0 0 0 0 0 0 0 0 0
0 0 0 0 0 0 0 0 0
0 0 0 0 0 0 0 0 0
0 0 0 0 0 0 0 0 0
0 0 0 0 0 0 0 0 0
0 0 0 0 0 0 0 0 0
0 0 0 0 0 0 0 0 0
0 0 0 0 0 0 0 0 0
0 0 0 0 0 0 0 0 0
0 0 0 0 0 0 0 0 0
0 0 0 0 0 0 0 0 0
0 0 0 0 0 0 0 0 0
0 0 0 0 0 0 0 0 0
0 0 0 0 0 0 0 0 0
0 0 0 0 0 0 0 0 0
0 0 0 0 0 0 0 0 0
0 0 0 0 0 0 0 0 0
0 0 0 0 0 0 0 0 0
0 0 0 0 0 0 0 0 0
0 0 0 0 0 0 0 0 0
0 0 0 0 0 0 0 0 0
0 0 0 0 0 0 0 0 0
0 0 0 0 0 0 0 0 0
0 0 0 0 0 0 0 0 0
0 0 0 0 0 0 0 0 0
0 0 0 0 0 0 0 0 0
0 0 0 0 0 0 0 0 0
0 0 0 0 0 0 0 0 0
0 0 0 0 0 0 0 0 0
0 0 0 0 0 0 0 0 0
0 0 0 0 0 0 0 0 0
0 0 0 0 0 0 0 0 0
0 0 0 0 0 0 0 0 0
0 0 0 0 0 0 0 0 0
0 0 0 0 0 0 0 0 0
0 0 0 0 0 0 0 0 0
0 0 0 0 0 0 0 0 0
0.000648288 0.00067453 0.000644731 0.00067249 0.000648288 0.00067453 0.000644731 0.00067249 0
0.000695409 0.000726207 0.00069429 0.000726106 0.000695409 0.000726207 0.00069429 0.000726106 0
0.000750167 0.00078484 0.0007497 0.000782348 0.000750167 0.00078484 0.0007497 0.000782348 0
0.000812503 0.000853383 0.00080894 0.000848927 0.000812503 0.000853383 0.00080894 0.000848927 0
0.000883506 0.000924919 0.000877968 0.000917319 0.000883506 0.000924919 0.000877968 0.000917319 0
0.000499314 0.000525318 0.000498715 0.000524772 0.000499314 0.000525318 0.000498715 0.000524772 0
0.000545857 0.000575847 0.000545314 0.000575274 0.000545857 0.000575847 0.000545314 0.000575274 0
0.000598375 0.000629864 0.000597744 0.000629078 0.000598375 0.000629864 0.000597744 0.000629078 0
0.000652585 0.000683163 0.000650407 0.000677346 0.000652585 0.000683163 0.000650407 0.000677346 0
0.000706276 0.000738851 0.000698556 0.000729557 0.000706276 0.000738851 0.000698556 0.000729557 0
0.00076393 0.000799874 0.00075392 0.000789493 0.00076393 0.000799874 0.00075392 0.000789493 0
0.000827889 0.000868473 0.000817541 0.000858578 0.000827889 0.000868473 0.000817541 0.000858578 0
0.000898853 0.000941267 0.000889065 0.000931319 0.000898853 0.000941267 0.000889065 0.000931319 0
0.000452239 0.000479363 0.000453097 0.000479961 0.000452239 0.000479363 0.000453097 0.000479961 0
0.000499768 0.000528323 0.000499552 0.000526248 0.000499768 0.000528323 0.000499552 0.000526248 0
0.00055006 0.00058084 0.000547113 0.000577315 0.00055006 0.00058084 0.000547113 0.000577315 0
0.000604024 0.000636544 0.00060003 0.000631835 0.000604024 0.000636544 0.00060003 0.000631835 0
0.000660749 0.000694353 0.000655335 0.000687725 0.000660749 0.000694353 0.000655335 0.000687725 0
0.000719421 0.000754305 0.000711882 0.000745494 0.000719421 0.000754305 0.000711882 0.000745494 0
0.000780667 0.000817806 0.000771105 0.000807464 0.000780667 0.000817806 0.000771105 0.000807464 0
0.000846173 0.00088653 0.000835563 0.000875969 0.000846173 0.00088653 0.000835563 0.000875969 0
0.000916631 0.000958511 0.000906244 0.000948551 0.000916631 0.000958511 0.000906244 0.000948551 0
0.000403359 0.000430474 0.000404111 0.000431509 0.000403359 0.000430474 0.000404111 0.000431509 0
0.000451145 0.000480514 0.000451694 0.000479533 0.000451145 0.000480514 0.000451694 0.000479533 0
0.000502345 0.000532572 0.000500545 0.000530023 0.000502345 0.000532572 0.000500545 0.000530023 0
0.000555373 0.000587408 0.000552272 0.000583542 0.000555373 0.000587408 0.000552272 0.000583542 0
0.000611535 0.000645395 0.000607104 0.000640175 0.000611535 0.000645395 0.000607104 0.000640175 0
0.000670768 0.000706224 0.000664885 0.000699314 0.000670768 0.000706224 0.000664885 0.000699314 0
0.000732676 0.000769488 0.000724999 0.000760741 0.000732676 0.000769488 0.000724999 0.000760741 0
0.000797041 0.000835506 0.000787623 0.000825323 0.000797041 0.000835506 0.000787623 0.000825323 0
0.000864554 0.000905454 0.000853942 0.000894432 0.000864554 0.000905454 0.000853942 0.000894432 0
0.0009357 0.000977433 0.000924526 0.000966256 0.0009357 0.000977433 0.000924526 0.000966256 0
0.000399699 0.000429055 0.00040219 0.000429845 0.000399699 0.000429055 0.00040219 0.000429845 0
0.000451205 0.000482347 0.00045104 0.000481275 0.000451205 0.000482347 0.00045104 0.000481275 0
0.000505423 0.000537296 0.000503651 0.00053452 0.000505423 0.000537296 0.000503651 0.00053452 0
0.000561197 0.000594602 0.000557764 0.000590369 0.000561197 0.000594602 0.000557764 0.000590369 0
0.000619751 0.000655043 0.000614922 0.000649377 0.000619751 0.000655043 0.000614922 0.000649377 0
0.000681547 0.000718663 0.000675233 0.000711411 0.000681547 0.000718663 0.000675233 0.000711411 0
0.000746362 0.00078492 0.000738404 0.00077597 0.000746362 0.00078492 0.000738404 0.00077597 0
0.000813615 0.000853454 0.000804009 0.000843045 0.000813615 0.000853454 0.000804009 0.000843045 0
0.000883292 0.000924978 0.000872419 0.000913639 0.000883292 0.000924978 0.000872419 0.000913639 0
0.000955804 0.000998337 0.000944082 0.000986031 0.000955804 0.000998337 0.000944082 0.000986031 0
0.000397492 0.000428733 0.00039844 0.000428754 0.000397492 0.000428733 0.00039844 0.000428754 0
0.000452233 0.000485166 0.000451522 0.000483388 0.000452233 0.000485166 0.000451522 0.000483388 0
0.000509439 0.000542801 0.000506973 0.000539512 0.000509439 0.000542801 0.000506973 0.000539512 0
0.000567728 0.000602449 0.000563865 0.000597836 0.000567728 0.000602449 0.000563865 0.000597836 0
0.000628598 0.000665311 0.000623414 0.000659312 0.000628598 0.000665311 0.000623414 0.000659312 0
0.000692949 0.000731744 0.000686295 0.000724113 0.000692949 0.000731744 0.000686295 0.000724113 0
0.000760716 0.000801075 0.000752342 0.000791648 0.000760716 0.000801075 0.000752342 0.000791648 0
0.000830944 0.000872195 0.000820833 0.000861265 0.000830944 0.000872195 0.000820833 0.000861265 0
0.000902782 0.000945106 0.000891428 0.000933408 0.000902782 0.000945106 0.000891428 0.000933408 0
0.000976646 0.0010205 0.000964528 0.00100757 0.000976646 0.0010205 0.000964528 0.00100757 0
0.000397792 0.000430545 0.000397311 0.000429215 0.000397792 0.000430545 0.000397311 0.000429215 0
0.00045518 0.000489719 0.000453216 0.00048686 0.00045518 0.000489719 0.000453216 0.00048686 0
0.000515023 0.000549598 0.000511593 0.000545501 0.000515023 0.000549598 0.000511593 0.000545501 0
0.00057534 0.000611081 0.0005708 0.000605997 0.00057534 0.000611081 0.0005708 0.000605997 0
0.000638083 0.000676111 0.000632528 0.000669813 0.000638083 0.000676111 0.000632528 0.000669813 0
0.000704886 0.000745475 0.000697932 0.000737469 0.000704886 0.000745475 0.000697932 0.000737469 0
0.000775836 0.000818196 0.000767012 0.000808188 0.000775836 0.000818196 0.000767012 0.000808188 0
0.000849449 0.000892477 0.000838612 0.000880557 0.000849449 0.000892477 0.000838612 0.000880557 0
0.000924037 0.000967244 0.00091152 0.000954177 0.000924037 0.000967244 0.00091152 0.000954177 0
0.000999233 0.00104343 0.000985948 0.0010301 0.000999233 0.00104343 0.000985948 0.0010301 0
0.000399914 0.000434688 0.00039849 0.000432012 0.000399914 0.000434688 0.00039849 0.000432012 0
0.000460617 0.000496688 0.000457163 0.000492351 0.000460617 0.000496688 0.000457163 0.000492351 0
0.000522846 0.000558223 0.000518037 0.000553004 0.000522846 0.000558223 0.000518037 0.000553004 0
0.000584465 0.000620773 0.000578998 0.000615039 0.000584465 0.000620773 0.000578998 0.000615039 0
0.000648397 0.000687557 0.000642334 0.000680866 0.000648397 0.000687557 0.000642334 0.000680866 0
0.000717439 0.000759917 0.000710114 0.00075149 0.000717439 0.000759917 0.000710114 0.00075149 0
0.000791811 0.000836468 0.00078248 0.000825772 0.000791811 0.000836468 0.00078248 0.000825772 0
0.000869083 0.000913537 0.000857609 0.000901303 0.000869083 0.000913537 0.000857609 0.000901303 0
0.000945589 0.000988728 0.000933151 0.000976488 0.000945589 0.000988728 0.000933151 0.000976488 0
0.00040457 0.000439548 0.00040155 0.000436712 0.00040457 0.000439548 0.00040155 0.000436712 0
0.000465849 0.000502739 0.000462948 0.000499472 0.000465849 0.000502739 0.000462948 0.000499472 0
0.000530117 0.00056801 0.000526082 0.000562244 0.000530117 0.00056801 0.000526082 0.000562244 0
0.000596 0.000634577 0.00058902 0.000626007 0.000596 0.000634577 0.00058902 0.000626007 0
0.000663192 0.000702799 0.000653985 0.000693436 0.000663192 0.000702799 0.000653985 0.000693436 0
0.000732536 0.000774174 0.000723451 0.000766005 0.000732536 0.000774174 0.000723451 0.000766005 0
0.000805677 0.000850106 0.000798037 0.000843 0.000805677 0.000850106 0.000798037 0.000843 0
0.000883343 0.000929723 0.000875995 0.000921178 0.000883343 0.000929723 0.000875995 0.000921178 0
0 0 0 0 0 0 0 0 0
0 0 0 0 0 0 0 0 0
0 0 0 0 0 0 0 0 0
0 0 0 0 0 0 0 0 0
0 0 0 0 0 0 0 0 0
0 0 0 0 0 0 0 0 0
0 0 0 0 0 0 0 0 0
0 0 0 0 0 0 0 0 0
0 0 0 0 0 0 0 0 0
0 0 0 0 0 0 0 0 0
0 0 0 0 0 0 0 0 0
0 0 0 0 0 0 0 0 0
0 0 0 0 0 0 0 0 0
0 0 0 0 0 0 0 0 0
0 0 0 0 0 0 0 0 0
0 0 0 0 0 0 0 0 0
0 0 0 0 0 0 0 0 0
0 0 0 0 0 0 0 0 0
0 0 0 0 0 0 0 0 0
0 0 0 0 0 0 0 0 0
0 0 0 0 0 0 0 0 0
0 0 0 0 0 0 0 0 0
0 0 0 0 0 0 0 0 0
0 0 0 0 0 0 0 0 0
0 0 0 0 0 0 0 0 0
0 0 0 0 0 0 0 0 0
0 0 0 0 0 0 0 0 0
0 0 0 0 0 0 0 0 0
0 0 0 0 0 0 0 0 0
0 0 0 0 0 0 0 0 0
0 0 0 0 0 0 0 0 0
0 0 0 0 0 0 0 0 0
0 0 0 0 0 0 0 0 0
0 0 0 0 0 0 0 0 0
0 0 0 0 0 0 0 0 0
0 0 0 0 0 0 0 0 0
0 0 0 0 0 0 0 0 0
0 0 0 0 0 0 0 0 0
0 0 0 0 0 0 0 0 0
0 0 0 0 0 0 0 0 0
0 0 0 0 0 0 0 0 0
0 0 0 0 0 0 0 0 0
0 0 0 0 0 0 0 0 0
0 0 0 0 0 0 0 0 0
0 0 0 0 0 0 0 0 0
0 0 0 0 0 0 0 0 0
0 0 0 0 0 0 0 0 0
0 0 0 0 0 0 0 0 0
0 0 0 0 0 0 0 0 0
0 0 0 0 0 0 0 0 0
0 0 0 0 0 0 0 0 0
0 0 0 0 0 0 0 0 0
0 0 0 0 0 0 0 0 0
0 0 0 0 0 0 0 0 0
0 0 0 0 0 0 0 0 0
0 0 0 0 0 0 0 0 0
0 0 0 0 0 0 0 0 0
0 0 0 0 0 0 0 0 0
0 0 0 0 0 0 0 0 0
0 0 0 0 0 0 0 0 0
0 0 0 0 0 0 0 0 0
0 0 0 0 0 0 0 0 0
0 0 0 0 0 0 0 0 0
0 0 0 0 0 0 0 0 0
0 0 0 0 0 0 0 0 0
0 0 0 0 0 0 0 0 0
0 0 0 0 0 0 0 0 0
0 0 0 0 0 0 0 0 0
0 0 0 0 0 0 0 0 0
0 0 0 0 0 0 0 0 0
0 0 0 0 0 0 0 0 0
0 0 0 0 0 0 0 0 0
0 0 0 0 0 0 0 0 0
0 0 0 0 0 0 0 0 0
0 0 0 0 0 0 0 0 0
0 0 0 0 0 0 0 0 0
0 0 0 0 0 0 0 0 0
0 0 0 0 0 0 0 0 0
0 0 0 0 0 0 0 0 0
0 0 0 0 0 0 0 0 0
0 0 0 0 0 0 0 0 0
0 0 0 0 0 0 0 0 0
0 0 0 0 0 0 0 0 0
0 0 0 0 0 0 0 0 0
0 0 0 0 0 0 0 0 0
0 0 0 0 0 0 0 0 0
0 0 0 0 0 0 0 0 0
0 0 0 0 0 0 0 0 0
0 0 0 0 0 0 0 0 0
0 0 0 0 0 0 0 0 0
0 0 0 0 0 0 0 0 0
0 0 0 0 0 0 0 0 0
0 0 0 0 0 0 0 0 0
0 0 0 0 0 0 0 0 0
0 0 0 0 0 0 0 0 0
0 0 0 0 0 0 0 0 0
0 0 0 0 0 0 0 0 0
0 0 0 0 0 0 0 0 0
0 0 0 0 0 0 0 0 0
0 0 0 0 0 0 0 0 0
0 0 0 0 0 0 0 0 0
0 0 0 0 0 0 0 0 0
0 0 0 0 0 0 0 0 0
0 0 0 0 0 0 0 0 0
0 0 0 0 0 0 0 0 0
0 0 0 0 0 0 0 0 0
0 0 0 0 0 0 0 0 0
0 0 0 0 0 0 0 0 0
0 0 0 0 0 0 0 0 0
0 0 0 0 0 0 0 0 0
0 0 0 0 0 0 0 0 0
0 0 0 0 0 0 0 0 0
0 0 0 0 0 0 0 0 0
0 0 0 0 0 0 0 0 0
0 0 0 0 0 0 0 0 0
0 0 0 0 0 0 0 0 0
0 0 0 0 0 0 0 0 0
0 0 0 0 0 0 0 0 0
0 0 0 0 0 0 0 0 0
0 0 0 0 0 0 0 0 0
0 0 0 0 0 0 0 0 0
0 0 0 0 0 0 0 0 0
0 0 0 0 0 0 0 0 0
0 0 0 0 0 0 0 0 0
0 0 0 0 0 0 0 0 0
0 0 0 0 0 0 0 0 0
0 0 0 0 0 0 0 0 0
0 0 0 0 0 0 0 0 0
0 0 0 0 0 0 0 0 0
0 0 0 0 0 0 0 0 0
0 0 0 0 0 0 0 0 0
0 0 0 0 0 0 0 0 0
0 0 0 0 0 0 0 0 0
0 0 0 0 0 0 0 0 0
0 0 0 0 0 0 0 0 0
0 0 0 0 0 0 0 0 0
0 0 0 0 0 0 0 0 0
0 0 0 0 0 0 0 0 0
0 0 0 0 0 0 0 0 0
0 0 0 0 0 0 0 0 0
0 0 0 0 0 0 0 0 0
0 0 0 0 0 0 0 0 0
0 0 0 0 0 0 0 0 0
0 0 0 0 0 0 0 0 0
0 0 0 0 0 0 0 0 0
0 0 0 0 0 0 0 0 0
0 0 0 0 0 0 0 0 0
0 0 0 0 0 0 0 0 0
0 0 0 0 0 0 0 0 0
0 0 0 0 0 0 0 0 0
0 0 0 0 0 0 0 0 0
0 0 0 0 0 0 0 0 0
0 0 0 0 0 0 0 0 0
0 0 0 0 0 0 0 0 0
0 0 0 0 0 0 0 0 0
0 0 0 0 0 0 0 0 0
0 0 0 0 0 0 0 0 0
0 0 0 0 0 0 0 0 0
0 0 0 0 0 0 0 0 0
0 0 0 0 0 0 0 0 0
0 0 0 0 0 0 0 0 0
0 0 0 0 0 0 0 0 0
0 0 0 0 0 0 0 0 0
0 0 0 0 0 0 0 0 0
0 0 0 0 0 0 0 0 0
0 0 0 0 0 0 0 0 0
0 0 0 0 0 0 0 0 0
0 0 0 0 0 0 0 0 0
0 0 0 0 0 0 0 0 0
0 0 0 0 0 0 0 0 0
0 0 0 0 0 0 0 0 0
0 0 0 0 0 0 0 0 0
0 0 0 0 0 0 0 0 0
0 0 0 0 0 0 0 0 0
0 0 0 0 0 0 0 0 0
0 0 0 0 0 0 0 0 0
0 0 0 0 0 0 0 0 0
0 0 0 0 0 0 0 0 0
0 0 0 0 0 0 0 0 0
0 0 0 0 0 0 0 0 0
0 0 0 0 0 0 0 0 0
0 0 0 0 0 0 0 0 0
0 0 0 0 0 0 0 0 0
0 0 0 0 0 0 0 0 0
0 0 0 0 0 0 0 0 0
0 0 0 0 0 0 0 0 0
0 0 0 0 0 0 0 0 0
0 0 0 0 0 0 0 0 0
0 0 0 0 0 0 0 0 0
0 0 0 0 0 0 0 0 0
0 0 0 0 0 0 0 0 0
0 0 0 0 0 0 0 0 0
0 0 0 0 0 0 0 0 0
0 0 0 0 0 0 0 0 0
0 0 0 0 0 0 0 0 0
0 0 0 0 0 0 0 0 0
0 0 0 0 0 0 0 0 0
0 0 0 0 0 0 0 0 0
0 0 0 0 0 0 0 0 0
0 0 0 0 0 0 0 0 0
0 0 0 0 0 0 0 0 0
0 0 0 0 0 0 0 0 0
0 0 0 0 0 0 0 0 0
0 0 0 0 0 0 0 0 0
0 0 0 0 0 0 0 0 0
0 0 0 0 0 0 0 0 0
0 0 0 0 0 0 0 0 0
0 0 0 0 0 0 0 0 0
0 0 0 0 0 0 0 0 0
0 0 0 0 0 0 0 0 0
0 0 0 0 0 0 0 0 0
0 0 0 0 0 0 0 0 0
0 0 0 0 0 0 0 0 0
0 0 0 0 0 0 0 0 0
0 0 0 0 0 0 0 0 0
0 0 0 0 0 0 0 0 0
0 0 0 0 0 0 0 0 0
0 0 0 0 0 0 0 0 0
0 0 0 0 0 0 0 0 0
0 0 0 0 0 0 0 0 0
0 0 0 0 0 0 0 0 0
0 0 0 0 0 0 0 0 0
0 0 0 0 0 0 0 0 0
0 0 0 0 0 0 0 0 0
0 0 0 0 0 0 0 0 0
0 0 0 0 0 0 0 0 0
0 0 0 0 0 0 0 0 0
0 0 0 0 0 0 0 0 0
0 0 0 0 0 0 0 0 0
0 0 0 0 0 0 0 0 0
0 0 0 0 0 0 0 0 0
0 0 0 0 0 0 0 0 0
0 0 0 0 0 0 0 0 0
0 0 0 0 0 0 0 0 0
0 0 0 0 0 0 0 0 0
0 0 0 0 0 0 0 0 0
0 0 0 0 0 0 0 0 0
0 0 0 0 0 0 0 0 0
0 0 0 0 0 0 0 0 0
0 0 0 0 0 0 0 0 0
0 0 0 0 0 0 0 0 0
0 0 0 0 0 0 0 0 0
0 0 0 0 0 0 0 0 0
0 0 0 0 0 0 0 0 0
0 0 0 0 0 0 0 0 0
0 0 0 0 0 0 0 0 0
0 0 0 0 0 0 0 0 0
0 0 0 0 0 0 0 0 0
0 0 0 0 0 0 0 0 0
0 0 0 0 0 0 0 0 0
0 0 0 0 0 0 0 0 0
0 0 0 0 0 0 0 0 0
0 0 0 0 0 0 0 0 0
0 0 0 0 0 0 0 0 0
0 0 0 0 0 0 0 0 0
0 0 0 0 0 0 0 0 0
0 0 0 0 0 0 0 0 0
0 0 0 0 0 0 0 0 0
0 0 0 0 0 0 0 0 0
0 0 0 0 0 0 0 0 0
0 0 0 0 0 0 0 0 0
0 0 0 0 0 0 0 0 0
0 0 0 0 0 0 0 0 0
0 0 0 0 0 0 0 0 0
0 0 0 0 0 0 0 0 0
0 0 0 0 0 0 0 0 0
0 0 0 0 0 0 0 0 0
0 0 0 0 0 0 0 0 0
0 0 0 0 0 0 0 0 0
0 0 0 0 0 0 0 0 0
0 0 0 0 0 0 0 0 0
0 0 0 0 0 0 0 0 0
0 0 0 0 0 0 0 0 0
0 0 0 0 0 0 0 0 0
0 0 0 0 0 0 0 0 0
0 0 0 0 0 0 0 0 0
0 0 0 0 0 0 0 0 0
0 0 0 0 0 0 0 0 0
0 0 0 0 0 0 0 0 0
0 0 0 0 0 0 0 0 0
0 0 0 0 0 0 0 0 0
0 0 0 0 0 0 0 0 0
0 0 0 0 0 0 0 0 0
0 0 0 0 0 0 0 0 0
0 0 0 0 0 0 0 0 0
0 0 0 0 0 0 0 0 0
0 0 0 0 0 0 0 0 0
0 0 0 0 0 0 0 0 0
0 0 0 0 0 0 0 0 0
0 0 0 0 0 0 0 0 0
0 0 0 0 0 0 0 0 0
0 0 0 0 0 0 0 0 0
0 0 0 0 0 0 0 0 0
0 0 0 0 0 0 0 0 0
0 0 0 0 0 0 0 0 0
0 0 0 0 0 0 0 0 0
0 0 0 0 0 0 0 0 0
0 0 0 0 0 0 0 0 0
0 0 0 0 0 0 0 0 0
0 0 0 0 0 0 0 0 0
0 0 0 0 0 0 0 0 0
0 0 0 0 0 0 0 0 0
0 0 0 0 0 0 0 0 0
0 0 0 0 0 0 0 0 0
0 0 0 0 0 0 0 0 0
0 0 0 0 0 0 0 0 0
0 0 0 0 0 0 0 0 0
0 0 0 0 0 0 0 0 0
0 0 0 0 0 0 0 0 0
0 0 0 0 0 0 0 0 0
0 0 0 0 0 0 0 0 0
0 0 0 0 0 0 0 0 0
0 0 0 0 0 0 0 0 0
0 0 0 0 0 0 0 0 0
0 0 0 0 0 0 0 0 0
0 0 0 0 0 0 0 0 0
0 0 0 0 0 0 0 0 0
0 0 0 0 0 0 0 0 0
0 0 0 0 0 0 0 0 0
0 0 0 0 0 0 0 0 0
0 0 0 0 0 0 0 0 0
0 0 0 0 0 0 0 0 0
0 0 0 0 0 0 0 0 0
0 0 0 0 0 0 0 0 0
0 0 0 0 0 0 0 0 0
0 0 0 0 0 0 0 0 0
0 0 0 0 0 0 0 0 0
0 0 0 0 0 0 0 0 0
0 0 0 0 0 0 0 0 0
0 0 0 0 0 0 0 0 0
0 0 0 0 0 0 0 0 0
0 0 0 0 0 0 0 0 0
0 0 0 0 0 0 0 0 0
0 0 0 0 0 0 0 0 0
0 0 0 0 0 0 0 0 0
0 0 0 0 0 0 0 0 0
0 0 0 0 0 0 0 0 0
0 0 0 0 0 0 0 0 0
0 0 0 0 0 0 0 0 0
0 0 0 0 0 0 0 0 0
0 0 0 0 0 0 0 0 0
0 0 0 0 0 0 0 0 0
0 0 0 0 0 0 0 0 0
0 0 0 0 0 0 0 0 0
0 0 0 0 0 0 0 0 0
0 0 0 0 0 0 0 0 0
0 0 0 0 0 0 0 0 0
0 0 0 0 0 0 0 0 0
0 0 0 0 0 0 0 0 0
0 0 0 0 0 0 0 0 0
0 0 0 0 0 0 0 0 0
0 0 0 0 0 0 0 0 0
0 0 0 0 0 0 0 0 0
0 0 0 0 0 0 0 0 0
0 0 0 0 0 0 0 0 0
0 0 0 0 0 0 0 0 0
0 0 0 0 0 0 0 0 0
0 0 0 0 0 0 0 0 0
0 0 0 0 0 0 0 0 0
0 0 0 0 0 0 0 0 0
0 0 0 0 0 0 0 0 0
0 0 0 0 0 0 0 0 0
0 0 0 0 0 0 0 0 0
0 0 0 0 0 0 0 0 0
0 0 0 0 0 0 0 0 0
0 0 0 0 0 0 0 0 0
0 0 0 0 0 0 0 0 0
0 0 0 0 0 0 0 0 0
0 0 0 0 0 0 0 0 0
0 0 0 0 0 0 0 0 0
0 0 0 0 0 0 0 0 0
0 0 0 0 0 0 0 0 0
0 0 0 0 0 0 0 0 0
0 0 0 0 0 0 0 0 0
0 0 0 0 0 0 0 0 0
0 0 0 0 0 0 0 0 0
0 0 0 0 0 0 0 0 0
0 0 0 0 0 0 0 0 0
0 0 0 0 0 0 0 0 0
0 0 0 0 0 0 0 0 0
0 0 0 0 0 0 0 0 0
0 0 0 0 0 0 0 0 0
0 0 0 0 0 0 0 0 0
0 0 0 0 0 0 0 0 0
0 0 0 0 0 0 0 0 0
0 0 0 0 0 0 0 0 0
0 0 0 0 0 0 0 0 0
0 0 0 0 0 0 0 0 0
0 0 0 0 0 0 0 0 0
0 0 0 0 0 0 0 0 0
0 0 0 0 0 0 0 0 0
0 0 0 0 0 0 0 0 0
0 0 0 0 0 0 0 0 0
0 0 0 0 0 0 0 0 0
0 0 0 0 0 0 0 0 0
0 0 0 0 0 0 0 0 0
0 0 0 0 0 0 0 0 0
0 0 0 0 0 0 0 0 0
0 0 0 0 0 0 0 0 0
0 0 0 0 0 0 0 0 0
0 0 0 0 0 0 0 0 0
0 0 0 0 0 0 0 0 0
0 0 0 0 0 0 0 0 0
0 0 0 0 0 0 0 0 0
0 0 0 0 0 0 0 0 0
0 0 0 0 0 0 0 0 0
0 0 0 0 0 0 0 0 0
0 0 0 0 0 0 0 0 0
0 0 0 0 0 0 0 0 0
0 0 0 0 0 0 0 0 0
0 0 0 0 0 0 0 0 0
0 0 0 0 0 0 0 0 0
0 0 0 0 0 0 0 0 0
0 0 0 0 0 0 0 0 0
0 0 0 0 0 0 0 0 0
0 0 0 0 0 0 0 0 0
0 0 0 0 0 0 0 0 0
0 0 0 0 0 0 0 0 0
0 0 0 0 0 0 0 0 0
0 0 0 0 0 0 0 0 0
0 0 0 0 0 0 0 0 0
0 0 0 0 0 0 0 0 0
0 0 0 0 0 0 0 0 0
0 0 0 0 0 0 0 0 0
0 0 0 0 0 0 0 0 0
0 0 0 0 0 0 0 0 0
0 0 0 0 0 0 0 0 0
0 0 0 0 0 0 0 0 0
0 0 0 0 0 0 0 0 0
0 0 0 0 0 0 0 0 0
0 0 0 0 0 0 0 0 0
0 0 0 0 0 0 0 0 0
0 0 0 0 0 0 0 0 0
0 0 0 0 0 0 0 0 0
0 0 0 0 0 0 0 0 0
0 0 0 0 0 0 0 0 0
0 0 0 0 0 0 0 0 0
0 0 0 0 0 0 0 0 0
0 0 0 0 0 0 0 0 0
0 0 0 0 0 0 0 0 0
0 0 0 0 0 0 0 0 0
0 0 0 0 0 0 0 0 0
0 0 0 0 0 0 0 0 0
0 0 0 0 0 0 0 0 0
0 0 0 0 0 0 0 0 0
0 0 0 0 0 0 0 0 0
0 0 0 0 0 0 0 0 0
0 0 0 0 0 0 0 0 0
0 0 0 0 0 0 0 0 0
0 0 0 0 0 0 0 0 0
0 0 0 0 0 0 0 0 0
0 0 0 0 0 0 0 0 0
0 0 0 0 0 0 0 0 0
0 0 0 0 0 0 0 0 0
0 0 0 0 0 0 0 0 0
0 0 0 0 0 0 0 0 0
0 0 0 0 0 0 0 0 0
0 0 0 0 0 0 0 0 0
0 0 0 0 0 0 0 0 0
0 0 0 0 0 0 0 0 0
0 0 0 0 0 0 0 0 0
0 0 0 0 0 0 0 0 0
0 0 0 0 0 0 0 0 0
0 0 0 0 0 0 0 0 0
0 0 0 0 0 0 0 0 0
0 0 0 0 0 0 0 0 0
0 0 0 0 0 0 0 0 0
0 0 0 0 0 0 0 0 0
0 0 0 0 0 0 0 0 0
0 0 0 0 0 0 0 0 0
0 0 0 0 0 0 0 0 0
0 0 0 0 0 0 0 0 0
0 0 0 0 0 0 0 0 0
0 0 0 0 0 0 0 0 0
0 0 0 0 0 0 0 0 0
0 0 0 0 0 0 0 0 0
0 0 0 0 0 0 0 0 0
0 0 0 0 0 0 0 0 0
0 0 0 0 0 0 0 0 0
0 0 0 0 0 0 0 0 0
0 0 0 0 0 0 0 0 0
0 0 0 0 0 0 0 0 0
0 0 0 0 0 0 0 0 0
0 0 0 0 0 0 0 0 0
0 0 0 0 0 0 0 0 0
0 0 0 0 0 0 0 0 0
0 0 0 0 0 0 0 0 0
0 0 0 0 0 0 0 0 0
0 0 0 0 0 0 0 0 0
0 0 0 0 0 0 0 0 0
0 0 0 0 0 0 0 0 0
0 0 0 0 0 0 0 0 0
0 0 0 0 0 0 0 0 0
0 0 0 0 0 0 0 0 0
0 0 0 0 0 0 0 0 0
0 0 0 0 0 0 0 0 0
0 0 0 0 0 0 0 0 0
0 0 0 0 0 0 0 0 0
0 0 0 0 0 0 0 0 0
0 0 0 0 0 0 0 0 0
0 0 0 0 0 0 0 0 0
0 0 0 0 0 0 0 0 0
0 0 0 0 0 0 0 0 0
0 0 0 0 0 0 0 0 0
0 0 0 0 0 0 0 0 0
0 0 0 0 0 0 0 0 0
0 0 0 0 0 0 0 0 0
0 0 0 0 0 0 0 0 0
0 0 0 0 0 0 0 0 0
0 0 0 0 0 0 0 0 0
0 0 0 0 0 0 0 0 0
0 0 0 0 0 0 0 0 0
0 0 0 0 0 0 0 0 0
0 0 0 0 0 0 0 0 0
0 0 0 0 0 0 0 0 0
0 0 0 0 0 0 0 0 0
0 0 0 0 0 0 0 0 0
0 0 0 0 0 0 0 0 0
0 0 0 0 0 0 0 0 0
0 0 0 0 0 0 0 0 0
0 0 0 0 0 0 0 0 0
0 0 0 0 0 0 0 0 0
0 0 0 0 0 0 0 0 0
0 0 0 0 0 0 0 0 0
0 0 0 0 0 0 0 0 0
0 0 0 0 0 0 0 0 0
0 0 0 0 0 0 0 0 0
0 0 0 0 0 0 0 0 0
0 0 0 0 0 0 0 0 0
0 0 0 0 0 0 0 0 0
0 0 0 0 0 0 0 0 0
0 0 0 0 0 0 0 0 0
0 0 0 0 0 0 0 0 0
0 0 0 0 0 0 0 0 0
0 0 0 0 0 0 0 0 0
0 0 0 0 0 0 0 0 0
0 0 0 0 0 0 0 0 0
0 0 0 0 0 0 0 0 0
0 0 0 0 0 0 0 0 0
0 0 0 0 0 0 0 0 0
0 0 0 0 0 0 0 0 0
0 0 0 0 0 0 0 0 0
0 0 0 0 0 0 0 0 0
0 0 0 0 0 0 0 0 0
0 0 0 0 0 0 0 0 0
0 0 0 0 0 0 0 0 0
0 0 0 0 0 0 0 0 0
0 0 0 0 0 0 0 0 0
0 0 0 0 0 0 0 0 0
0 0 0 0 0 0 0 0 0
0 0 0 0 0 0 0 0 0
0 0 0 0 0 0 0 0 0
0 0 0 0 0 0 0 0 0
0 0 0 0 0 0 0 0 0
0 0 0 0 0 0 0 0 0
0 0 0 0 0 0 0 0 0
0 0 0 0 0 0 0 0 0
0 0 0 0 0 0 0 0 0
0 0 0 0 0 0 0 0 0
0 0 0 0 0 0 0 0 0
0 0 0 0 0 0 0 0 0
0 0 0 0 0 0 0 0 0
0 0 0 0 0 0 0 0 0
0 0 0 0 0 0 0 0 0
0 0 0 0 0 0 0 0 0
0 0 0 0 0 0 0 0 0
0 0 0 0 0 0 0 0 0
0 0 0 0 0 0 0 0 0
0 0 0 0 0 0 0 0 0
0 0 0 0 0 0 0 0 0
0 0 0 0 0 0 0 0 0
0 0 0 0 0 0 0 0 0
0 0 0 0 0 0 0 0 0
0 0 0 0 0 0 0 0 0
0 0 0 0 0 0 0 0 0
0 0 0 0 0 0 0 0 0
0 0 0 0 0 0 0 0 0
0 0 0 0 0 0 0 0 0
0 0 0 0 0 0 0 0 0
0 0 0 0 0 0 0 0 0
0 0 0 0 0 0 0 0 0
0 0 0 0 0 0 0 0 0
0 0 0 0 0 0 0 0 0
0 0 0 0 0 0 0 0 0
0 0 0 0 0 0 0 0 0
0 0 0 0 0 0 0 0 0
0 0 0 0 0 0 0 0 0
0 0 0 0 0 0 0 0 0
0 0 0 0 0 0 0 0 0
0 0 0 0 0 0 0 0 0
0 0 0 0 0 0 0 0 0
0 0 0 0 0 0 0 0 0
0 0 0 0 0 0 0 0 0
0 0 0 0 0 0 0 0 0
0 0 0 0 0 0 0 0 0
0 0 0 0 0 0 0 0 0
0 0 0 0 0 0 0 0 0
0 0 0 0 0 0 0 0 0
0 0 0 0 0 0 0 0 0
0 0 0 0 0 0 0 0 0
0 0 0 0 0 0 0 0 0
0 0 0 0 0 0 0 0 0
0 0 0 0 0 0 0 0 0
0 0 0 0 0 0 0 0 0
0 0 0 0 0 0 0 0 0
0 0 0 0 0 0 0 0 0
0 0 0 0 0 0 0 0 0
0 0 0 0 0 0 0 0 0
0 0 0 0 0 0 0 0 0
0 0 0 0 0 0 0 0 0
0 0 0 0 0 0 0 0 0
0 0 0 0 0 0 0 0 0
0 0 0 0 0 0 0 0 0
0 0 0 0 0 0 0 0 0
0 0 0 0 0 0 0 0 0
0 0 0 0 0 0 0 0 0
0 0 0 0 0 0 0 0 0
0 0 0 0 0 0 0 0 0
0 0 0 0 0 0 0 0 0
0 0 0 0 0 0 0 0 0
0 0 0 0 0 0 0 0 0
0 0 0 0 0 0 0 0 0
0 0 0 0 0 0 0 0 0
0 0 0 0 0 0 0 0 0
0 0 0 0 0 0 0 0 0
0 0 0 0 0 0 0 0 0
0 0 0 0 0 0 0 0 0
0 0 0 0 0 0 0 0 0
0 0 0 0 0 0 0 0 0
0 0 0 0 0 0 0 0 0
0 0 0 0 0 0 0 0 0
0 0 0 0 0 0 0 0 0
0 0 0 0 0 0 0 0 0
0 0 0 0 0 0 0 0 0
0 0 0 0 0 0 0 0 0
0 0 0 0 0 0 0 0 0
0 0 0 0 0 0 0 0 0
0 0 0 0 0 0 0 0 0
0 0 0 0 0 0 0 0 0
0 0 0 0 0 0 0 0 0
0 0 0 0 0 0 0 0 0
0 0 0 0 0 0 0 0 0
0 0 0 0 0 0 0 0 0
0 0 0 0 0 0 0 0 0
0 0 0 0 0 0 0 0 0
0 0 0 0 0 0 0 0 0
0 0 0 0 0 0 0 0 0
0 0 0 0 0 0 0 0 0
0 0 0 0 0 0 0 0 0
0 0 0 0 0 0 0 0 0
0 0 0 0 0 0 0 0 0
0 0 0 0 0 0 0 0 0
0 0 0 0 0 0 0 0 0
0 0 0 0 0 0 0 0 0
0 0 0 0 0 0 0 0 0
0 0 0 0 0 0 0 0 0
0 0 0 0 0 0 0 0 0
0 0 0 0 0 0 0 0 0
0 0 0 0 0 0 0 0 0
0 0 0 0 0 0 0 0 0
0 0 0 0 0 0 0 0 0
0 0 0 0 0 0 0 0 0
0 0 0 0 0 0 0 0 0
0 0 0 0 0 0 0 0 0
0 0 0 0 0 0 0 0 0
0 0 0 0 0 0 0 0 0
0 0 0 0 0 0 0 0 0
0 0 0 0 0 0 0 0 0
0 0 0 0 0 0 0 0 0
0 0 0 0 0 0 0 0 0
0 0 0 0 0 0 0 0 0
0 0 0 0 0 0 0 0 0
0 0 0 0 0 0 0 0 0
0 0 0 0 0 0 0 0 0
0 0 0 0 0 0 0 0 0
0 0 0 0 0 0 0 0 0
0 0 0 0 0 0 0 0 0
0 0 0 0 0 0 0 0 0
0 0 0 0 0 0 0 0 0
0 0 0 0 0 0 0 0 0
0 0 0 0 0 0 0 0 0
0 0 0 0 0 0 0 0 0
0 0 0 0 0 0 0 0 0
0 0 0 0 0 0 0 0 0
0 0 0 0 0 0 0 0 0
0 0 0 0 0 0 0 0 0
0 0 0 0 0 0 0 0 0
0 0 0 0 0 0 0 0 0
0 0 0 0 0 0 0 0 0
0 0 0 0 0 0 0 0 0
0 0 0 0 0 0 0 0 0
0 0 0 0 0 0 0 0 0
0 0 0 0 0 0 0 0 0
0 0 0 0 0 0 0 0 0
0 0 0 0 0 0 0 0 0
0 0 0 0 0 0 0 0 0
0 0 0 0 0 0 0 0 0
0 0 0 0 0 0 0 0 0
0 0 0 0 0 0 0 0 0
0 0 0 0 0 0 0 0 0
0 0 0 0 0 0 0 0 0
0 0 0 0 0 0 0 0 0
0 0 0 0 0 0 0 0 0
0 0 0 0 0 0 0 0 0
0 0 0 0 0 0 0 0 0
0 0 0 0 0 0 0 0 0
0 0 0 0 0 0 0 0 0
0 0 0 0 0 0 0 0 0
0 0 0 0 0 0 0 0 0
0 0 0 0 0 0 0 0 0
0 0 0 0 0 0 0 0 0
0.00117866 0.00123427 0.00117341 0.00122848 0.00117866 0.00123427 0.00117341 0.00122848 0
0.00127672 0.00133708 0.00127062 0.00133066 0.00127672 0.00133708 0.00127062 0.00133066 0
0.00138289 0.00144767 0.00137639 0.00144129 0.00138289 0.00144767 0.00137639 0.00144129 0
0.00149551 0.00156144 0.00148822 0.00155154 0.00149551 0.00156144 0.00148822 0.00155154 0
0.00161204 0.00168434 0.00160039 0.00167053 0.00161204 0.00168434 0.00160039 0.00167053 0
0.000904299 0.000956413 0.000904845 0.000954203 0.000904299 0.000956413 0.000904845 0.000954203 0
0.00099556 0.0010503 0.00099202 0.00104588 0.00099556 0.0010503 0.00099202 0.00104588 0
0.00109093 0.00114711 0.00108603 0.00114176 0.00109093 0.00114711 0.00108603 0.00114176 0
0.00118915 0.00124778 0.00118288 0.00123943 0.00118915 0.00124778 0.00118288 0.00123943 0
0.00129211 0.00135458 0.00128245 0.00134346 0.00129211 0.00135458 0.00128245 0.00134346 0
0.00140162 0.00146767 0.00138961 0.00145471 0.00140162 0.00146767 0.00138961 0.00145471 0
0.00151698 0.00158564 0.0015032 0.00157056 0.00151698 0.00158564 0.0015032 0.00157056 0
0.00163775 0.00171146 0.00162203 0.0016953 0.00163775 0.00171146 0.00162203 0.0016953 0
0.000812247 0.000863888 0.000816116 0.000865893 0.000812247 0.000863888 0.000816116 0.000865893 0
0.000902919 0.000957852 0.000903739 0.000957363 0.000902919 0.000957852 0.000903739 0.000957363 0
0.000998923 0.00105615 0.000997387 0.00105303 0.000998923 0.00105615 0.000997387 0.00105303 0
0.00109869 0.00115763 0.0010943 0.00115135 0.00109869 0.00115763 0.0010943 0.00115135 0
0.00120179 0.00126344 0.00119421 0.00125421 0.00120179 0.00126344 0.00119421 0.00125421 0
0.0013098 0.00137478 0.00129943 0.00136298 0.0013098 0.00137478 0.00129943 0.00136298 0
0.00142351 0.00149164 0.00141071 0.00147756 0.00142351 0.00149164 0.00141071 0.00147756 0
0.00154254 0.00161345 0.00152751 0.00159713 0.00154254 0.00161345 0.00152751 0.00159713 0
0.00166673 0.00174138 0.00164973 0.0017238 0.00166673 0.00174138 0.00164973 0.0017238 0
0.000716155 0.00076779 0.000721182 0.000771792 0.000716155 0.00076779 0.000721182 0.000771792 0
0.000806898 0.000862024 0.000809756 0.000862859 0.000806898 0.000862024 0.000809756 0.000862859 0
0.000903258 0.000960738 0.000902802 0.000958754 0.000903258 0.000960738 0.000902802 0.000958754 0
0.00100363 0.00106331 0.00100059 0.00105889 0.00100363 0.00106331 0.00100059 0.00105889 0
0.0011078 0.00116966 0.0011023 0.00116253 0.0011078 0.00116966 0.0011023 0.00116253 0
0.00121593 0.0012805 0.0012076 0.00127048 0.00121593 0.0012805 0.0012076 0.00127048 0
0.00132888 0.00139648 0.00131769 0.00138376 0.00132888 0.00139648 0.00131769 0.00138376 0
0.00144702 0.0015175 0.00143324 0.00150234 0.00144702 0.0015175 0.00143324 0.00150234 0
0.00157006 0.0016432 0.00155394 0.00162579 0.00157006 0.0016432 0.00155394 0.00162579 0
0.00169782 0.00177388 0.00167961 0.00175479 0.00169782 0.00177388 0.00167961 0.00175479 0
0.000710929 0.000764788 0.000713395 0.000765925 0.000710929 0.000764788 0.000713395 0.000765925 0
0.000805698 0.000863499 0.000805826 0.000862198 0.000805698 0.000863499 0.000805826 0.000862198 0
0.000906559 0.000966367 0.000904262 0.000962776 0.000906559 0.000966367 0.000904262 0.000962776 0
0.00101095 0.00107291 0.00100641 0.00106706 0.00101095 0.00107291 0.00100641 0.00106706 0
0.00111918 0.00118362 0.00111232 0.0011753 0.00111918 0.00118362 0.00111232 0.0011753 0
0.00123185 0.00129917 0.00122243 0.00128818 0.00123185 0.00129917 0.00122243 0.00128818 0
0.00134953 0.00141981 0.00133741 0.00140613 0.00134953 0.00141981 0.00133741 0.00140613 0
0.00147223 0.00154519 0.00145746 0.00152897 0.00147223 0.00154519 0.00145746 0.00152897 0
0.00159951 0.00167497 0.00158227 0.00165638 0.00159951 0.00167497 0.00158227 0.00165638 0
0.00173109 0.00180894 0.00171161 0.00178839 0.00173109 0.00180894 0.00171161 0.00178839 0
0.000709255 0.000765587 0.000709819 0.0007647 0.000709255 0.000765587 0.000709819 0.0007647 0
0.000808248 0.000868377 0.00080635 0.000865157 0.000808248 0.000868377 0.00080635 0.000865157 0
0.000913026 0.000974854 0.000908909 0.000969603 0.000913026 0.000974854 0.000908909 0.000969603 0
0.00102091 0.0010849 0.00101483 0.00107769 0.00102091 0.0010849 0.00101483 0.00107769 0
0.00113276 0.00119952 0.00112466 0.00119011 0.00113276 0.00119952 0.00112466 0.00119011 0
0.00124956 0.00131952 0.00123912 0.00130756 0.00124956 0.00131952 0.00123912 0.00130756 0
0.00137186 0.00144491 0.00135876 0.00143019 0.00137186 0.00144491 0.00135876 0.00143019 0
0.00149929 0.00157482 0.00148344 0.00155747 0.00149929 0.00157482 0.00148344 0.00155747 0
0.0016309 0.00170861 0.00161254 0.00168896 0.0016309 0.00170861 0.00161254 0.00168896 0
0.00176633 0.0018463 0.00174574 0.00182446 0.00176633 0.0018463 0.00174574 0.00182446 0
0.000710421 0.000769826 0.000709408 0.000766964 0.000710421 0.000769826 0.000709408 0.000766964 0
0.000814358 0.000876567 0.0008104 0.000871437 0.000814358 0.000876567 0.0008104 0.000871437 0
0.000922618 0.000986207 0.000916701 0.000979304 0.000922618 0.000986207 0.000916701 0.000979304 0
0.00103351 0.00109915 0.00102592 0.00109065 0.00103351 0.00109915 0.00102592 0.00109065 0
0.00114836 0.00121715 0.00113911 0.00120676 0.00114836 0.00121715 0.00113911 0.00120676 0
0.0012689 0.00134149 0.00125754 0.00132861 0.0012689 0.00134149 0.00125754 0.00132861 0
0.00139587 0.00147186 0.0013818 0.00145607 0.00139587 0.00147186 0.0013818 0.00145607 0
0.00152834 0.00160668 0.00151132 0.001588 0.00152834 0.00160668 0.00151132 0.001588 0
0.00166435 0.00174359 0.00164478 0.00172326 0.00166435 0.00174359 0.00164478 0.00172326 0
0.00180288 0.00188562 0.00178164 0.00186269 0.00180288 0.00188562 0.00178164 0.00186269 0
0.000714622 0.000777077 0.000711815 0.000772536 0.000714622 0.000777077 0.000711815 0.000772536 0
0.000823532 0.000887978 0.000817879 0.000881001 0.000823532 0.000887978 0.000817879 0.000881001 0
0.000935381 0.00100044 0.000927626 0.000991872 0.000935381 0.00100044 0.000927626 0.000991872 0
0.00104873 0.00111561 0.00103962 0.00110584 0.00104873 0.00111561 0.00103962 0.00110584 0
0.0011659 0.00123644 0.00115554 0.0012251 0.0011659 0.00123644 0.00115554 0.0012251 0
0.0012898 0.00136504 0.00127754 0.00135125 0.0012898 0.00136504 0.00127754 0.00135125 0
0.00142157 0.0015008 0.00140652 0.00148384 0.00142157 0.0015008 0.00140652 0.00148384 0
0.00155963 0.00164116 0.00154128 0.00162093 0.00155963 0.00164116 0.00154128 0.00162093 0
0.00170046 0.00178095 0.00167926 0.00175904 0.00170046 0.00178095 0.00167926 0.00175904 0
0.000720126 0.000785305 0.000716864 0.000780512 0.000720126 0.000785305 0.000716864 0.000780512 0
0.000833843 0.000901274 0.00082782 0.000893417 0.000833843 0.000901274 0.00082782 0.000893417 0
0.000950948 0.00101923 0.000941631 0.00100776 0.000950948 0.00101923 0.000941631 0.00100776 0
0.00106938 0.00113812 0.00105668 0.00112423 0.00106938 0.00113812 0.00105668 0.00112423 0
0.00118921 0.00126006 0.0011749 0.00124579 0.00118921 0.00126006 0.0011749 0.00124579 0
0.00131348 0.00138858 0.00129941 0.00137504 0.00131348 0.00138858 0.00129941 0.00137504 0
0.00144544 0.0015257 0.001432 0.00151203 0.00144544 0.0015257 0.001432 0.00151203 0
0.00158613 0.00167099 0.00157166 0.00165459 0.00158613 0.00167099 0.00157166 0.00165459 0
0 0 0 0 0 0 0 0 0
0 0 0 0 0 0 0 0 0
0 0 0 0 0 0 0 0 0
0 0 0 0 0 0 0 0 0
0 0 0 0 0 0 0 0 0
0 0 0 0 0 0 0 0 0
0 0 0 0 0 0 0 0 0
0 0 0 0 0 0 0 0 0
0 0 0 0 0 0 0 0 0
0 0 0 0 0 0 0 0 0
0 0 0 0 0 0 0 0 0
0 0 0 0 0 0 0 0 0
0 0 0 0 0 0 0 0 0
0 0 0 0 0 0 0 0 0
0 0 0 0 0 0 0 0 0
0 0 0 0 0 0 0 0 0
0 0 0 0 0 0 0 0 0
0 0 0 0 0 0 0 0 0
0 0 0 0 0 0 0 0 0
0 0 0 0 0 0 0 0 0
0 0 0 0 0 0 0 0 0
0 0 0 0 0 0 0 0 0
0 0 0 0 0 0 0 0 0
0 0 0 0 0 0 0 0 0
0 0 0 0 0 0 0 0 0
0 0 0 0 0 0 0 0 0
0 0 0 0 0 0 0 0 0
0 0 0 0 0 0 0 0 0
0 0 0 0 0 0 0 0 0
0 0 0 0 0 0 0 0 0
0 0 0 0 0 0 0 0 0
0 0 0 0 0 0 0 0 0
0 0 0 0 0 0 0 0 0
0 0 0 0 0 0 0 0 0
0 0 0 0 0 0 0 0 0
0 0 0 0 0 0 0 0 0
0 0 0 0 0 0 0 0 0
0 0 0 0 0 0 0 0 0
0 0 0 0 0 0 0 0 0
0 0 0 0 0 0 0 0 0
0 0 0 0 0 0 0 0 0
0 0 0 0 0 0 0 0 0
0 0 0 0 0 0 0 0 0
0 0 0 0 0 0 0 0 0
0 0 0 0 0 0 0 0 0
0 0 0 0 0 0 0 0 0
0 0 0 0 0 0 0 0 0
0 0 0 0 0 0 0 0 0
0 0 0 0 0 0 0 0 0
0 0 0 0 0 0 0 0 0
0 0 0 0 0 0 0 0 0
0 0 0 0 0 0 0 0 0
0 0 0 0 0 0 0 0 0
0 0 0 0 0 0 0 0 0
0 0 0 0 0 0 0 0 0
0 0 0 0 0 0 0 0 0
0 0 0 0 0 0 0 0 0
0 0 0 0 0 0 0 0 0
0 0 0 0 0 0 0 0 0
0 0 0 0 0 0 0 0 0
0 0 0 0 0 0 0 0 0
0 0 0 0 0 0 0 0 0
0 0 0 0 0 0 0 0 0
0 0 0 0 0 0 0 0 0
0 0 0 0 0 0 0 0 0
0 0 0 0 0 0 0 0 0
0 0 0 0 0 0 0 0 0
0 0 0 0 0 0 0 0 0
0 0 0 0 0 0 0 0 0
0 0 0 0 0 0 0 0 0
0 0 0 0 0 0 0 0 0
0 0 0 0 0 0 0 0 0
0 0 0 0 0 0 0 0 0
0 0 0 0 0 0 0 0 0
0 0 0 0 0 0 0 0 0
0 0 0 0 0 0 0 0 0
0 0 0 0 0 0 0 0 0
0 0 0 0 0 0 0 0 0
0 0 0 0 0 0 0 0 0
0 0 0 0 0 0 0 0 0
0 0 0 0 0 0 0 0 0
0 0 0 0 0 0 0 0 0
0 0 0 0 0 0 0 0 0
0 0 0 0 0 0 0 0 0
0 0 0 0 0 0 0 0 0
0 0 0 0 0 0 0 0 0
0 0 0 0 0 0 0 0 0
0 0 0 0 0 0 0 0 0
0 0 0 0 0 0 0 0 0
0 0 0 0 0 0 0 0 0
0 0 0 0 0 0 0 0 0
0 0 0 0 0 0 0 0 0
0 0 0 0 0 0 0 0 0
0 0 0 0 0 0 0 0 0
0 0 0 0 0 0 0 0 0
0 0 0 0 0 0 0 0 0
0 0 0 0 0 0 0 0 0
0 0 0 0 0 0 0 0 0
0 0 0 0 0 0 0 0 0
0 0 0 0 0 0 0 0 0
0 0 0 0 0 0 0 0 0
0 0 0 0 0 0 0 0 0
0 0 0 0 0 0 0 0 0
0 0 0 0 0 0 0 0 0
0 0 0 0 0 0 0 0 0
0 0 0 0 0 0 0 0 0
0 0 0 0 0 0 0 0 0
0 0 0 0 0 0 0 0 0
0 0 0 0 0 0 0 0 0
0 0 0 0 0 0 0 0 0
0 0 0 0 0 0 0 0 0
0 0 0 0 0 0 0 0 0
0 0 0 0 0 0 0 0 0
0 0 0 0 0 0 0 0 0
0 0 0 0 0 0 0 0 0
0 0 0 0 0 0 0 0 0
0 0 0 0 0 0 0 0 0
0 0 0 0 0 0 0 0 0
0 0 0 0 0 0 0 0 0
0 0 0 0 0 0 0 0 0
0 0 0 0 0 0 0 0 0
0 0 0 0 0 0 0 0 0
0 0 0 0 0 0 0 0 0
0 0 0 0 0 0 0 0 0
0 0 0 0 0 0 0 0 0
0 0 0 0 0 0 0 0 0
0 0 0 0 0 0 0 0 0
0 0 0 0 0 0 0 0 0
0 0 0 0 0 0 0 0 0
0 0 0 0 0 0 0 0 0
0 0 0 0 0 0 0 0 0
0 0 0 0 0 0 0 0 0
0 0 0 0 0 0 0 0 0
0 0 0 0 0 0 0 0 0
0 0 0 0 0 0 0 0 0
0 0 0 0 0 0 0 0 0
0 0 0 0 0 0 0 0 0
0 0 0 0 0 0 0 0 0
0 0 0 0 0 0 0 0 0
0 0 0 0 0 0 0 0 0
0 0 0 0 0 0 0 0 0
0 0 0 0 0 0 0 0 0
0 0 0 0 0 0 0 0 0
0 0 0 0 0 0 0 0 0
0 0 0 0 0 0 0 0 0
0 0 0 0 0 0 0 0 0
0 0 0 0 0 0 0 0 0
0 0 0 0 0 0 0 0 0
0 0 0 0 0 0 0 0 0
0 0 0 0 0 0 0 0 0
0 0 0 0 0 0 0 0 0
0 0 0 0 0 0 0 0 0
0 0 0 0 0 0 0 0 0
0 0 0 0 0 0 0 0 0
0 0 0 0 0 0 0 0 0
0 0 0 0 0 0 0 0 0
0 0 0 0 0 0 0 0 0
0 0 0 0 0 0 0 0 0
0 0 0 0 0 0 0 0 0
0 0 0 0 0 0 0 0 0
0 0 0 0 0 0 0 0 0
0 0 0 0 0 0 0 0 0
0 0 0 0 0 0 0 0 0
0 0 0 0 0 0 0 0 0
0 0 0 0 0 0 0 0 0
0 0 0 0 0 0 0 0 0
0 0 0 0 0 0 0 0 0
0 0 0 0 0 0 0 0 0
0 0 0 0 0 0 0 0 0
0 0 0 0 0 0 0 0 0
0 0 0 0 0 0 0 0 0
0 0 0 0 0 0 0 0 0
0 0 0 0 0 0 0 0 0
0 0 0 0 0 0 0 0 0
0 0 0 0 0 0 0 0 0
0 0 0 0 0 0 0 0 0
0 0 0 0 0 0 0 0 0
0 0 0 0 0 0 0 0 0
0 0 0 0 0 0 0 0 0
0 0 0 0 0 0 0 0 0
0 0 0 0 0 0 0 0 0
0 0 0 0 0 0 0 0 0
0 0 0 0 0 0 0 0 0
0 0 0 0 0 0 0 0 0
0 0 0 0 0 0 0 0 0
0 0 0 0 0 0 0 0 0
0 0 0 0 0 0 0 0 0
0 0 0 0 0 0 0 0 0
0 0 0 0 0 0 0 0 0
0 0 0 0 0 0 0 0 0
0 0 0 0 0 0 0 0 0
0 0 0 0 0 0 0 0 0
0 0 0 0 0 0 0 0 0
0 0 0 0 0 0 0 0 0
0 0 0 0 0 0 0 0 0
0 0 0 0 0 0 0 0 0
0 0 0 0 0 0 0 0 0
0 0 0 0 0 0 0 0 0
0 0 0 0 0 0 0 0 0
0 0 0 0 0 0 0 0 0
0 0 0 0 0 0 0 0 0
0 0 0 0 0 0 0 0 0
0 0 0 0 0 0 0 0 0
0 0 0 0 0 0 0 0 0
0 0 0 0 0 0 0 0 0
0 0 0 0 0 0 0 0 0
0 0 0 0 0 0 0 0 0
0 0 0 0 0 0 0 0 0
0 0 0 0 0 0 0 0 0
0 0 0 0 0 0 0 0 0
0 0 0 0 0 0 0 0 0
0 0 0 0 0 0 0 0 0
0 0 0 0 0 0 0 0 0
0 0 0 0 0 0 0 0 0
0 0 0 0 0 0 0 0 0
0 0 0 0 0 0 0 0 0
0 0 0 0 0 0 0 0 0
0 0 0 0 0 0 0 0 0
0 0 0 0 0 0 0 0 0
0 0 0 0 0 0 0 0 0
0 0 0 0 0 0 0 0 0
0 0 0 0 0 0 0 0 0
0 0 0 0 0 0 0 0 0
0 0 0 0 0 0 0 0 0
0 0 0 0 0 0 0 0 0
0 0 0 0 0 0 0 0 0
0 0 0 0 0 0 0 0 0
0 0 0 0 0 0 0 0 0
0 0 0 0 0 0 0 0 0
0 0 0 0 0 0 0 0 0
0 0 0 0 0 0 0 0 0
0 0 0 0 0 0 0 0 0
0 0 0 0 0 0 0 0 0
0 0 0 0 0 0 0 0 0
0 0 0 0 0 0 0 0 0
0 0 0 0 0 0 0 0 0
0 0 0 0 0 0 0 0 0
0 0 0 0 0 0 0 0 0
0 0 0 0 0 0 0 0 0
0 0 0 0 0 0 0 0 0
0 0 0 0 0 0 0 0 0
0 0 0 0 0 0 0 0 0
0 0 0 0 0 0 0 0 0
0 0 0 0 0 0 0 0 0
0 0 0 0 0 0 0 0 0
0 0 0 0 0 0 0 0 0
0 0 0 0 0 0 0 0 0
0 0 0 0 0 0 0 0 0
0 0 0 0 0 0 0 0 0
0 0 0 0 0 0 0 0 0
0 0 0 0 0 0 0 0 0
0 0 0 0 0 0 0 0 0
0 0 0 0 0 0 0 0 0
0 0 0 0 0 0 0 0 0
0 0 0 0 0 0 0 0 0
0 0 0 0 0 0 0 0 0
0 0 0 0 0 0 0 0 0
0 0 0 0 0 0 0 0 0
0 0 0 0 0 0 0 0 0
0 0 0 0 0 0 0 0 0
0 0 0 0 0 0 0 0 0
0 0 0 0 0 0 0 0 0
0 0 0 0 0 0 0 0 0
0 0 0 0 0 0 0 0 0
0 0 0 0 0 0 0 0 0
0 0 0 0 0 0 0 0 0
0 0 0 0 0 0 0 0 0
0 0 0 0 0 0 0 0 0
0 0 0 0 0 0 0 0 0
0 0 0 0 0 0 0 0 0
0 0 0 0 0 0 0 0 0
0 0 0 0 0 0 0 0 0
0 0 0 0 0 0 0 0 0
0 0 0 0 0 0 0 0 0
0 0 0 0 0 0 0 0 0
0 0 0 0 0 0 0 0 0
0 0 0 0 0 0 0 0 0
0 0 0 0 0 0 0 0 0
0 0 0 0 0 0 0 0 0
0 0 0 0 0 0 0 0 0
0 0 0 0 0 0 0 0 0
0 0 0 0 0 0 0 0 0
0 0 0 0 0 0 0 0 0
0 0 0 0 0 0 0 0 0
0 0 0 0 0 0 0 0 0
0 0 0 0 0 0 0 0 0
0 0 0 0 0 0 0 0 0
0 0 0 0 0 0 0 0 0
0 0 0 0 0 0 0 0 0
0 0 0 0 0 0 0 0 0
0 0 0 0 0 0 0 0 0
0 0 0 0 0 0 0 0 0
0 0 0 0 0 0 0 0 0
0 0 0 0 0 0 0 0 0
0 0 0 0 0 0 0 0 0
0 0 0 0 0 0 0 0 0
0 0 0 0 0 0 0 0 0
0 0 0 0 0 0 0 0 0
0 0 0 0 0 0 0 0 0
0 0 0 0 0 0 0 0 0
0 0 0 0 0 0 0 0 0
0 0 0 0 0 0 0 0 0
0 0 0 0 0 0 0 0 0
0 0 0 0 0 0 0 0 0
0 0 0 0 0 0 0 0 0
0 0 0 0 0 0 0 0 0
0 0 0 0 0 0 0 0 0
0 0 0 0 0 0 0 0 0
0 0 0 0 0 0 0 0 0
0 0 0 0 0 0 0 0 0
0 0 0 0 0 0 0 0 0
0 0 0 0 0 0 0 0 0
0 0 0 0 0 0 0 0 0
0 0 0 0 0 0 0 0 0
0 0 0 0 0 0 0 0 0
0 0 0 0 0 0 0 0 0
0 0 0 0 0 0 0 0 0
0 0 0 0 0 0 0 0 0
0 0 0 0 0 0 0 0 0
0 0 0 0 0 0 0 0 0
0 0 0 0 0 0 0 0 0
0 0 0 0 0 0 0 0 0
0 0 0 0 0 0 0 0 0
0 0 0 0 0 0 0 0 0
0 0 0 0 0 0 0 0 0
0 0 0 0 0 0 0 0 0
0 0 0 0 0 0 0 0 0
0 0 0 0 0 0 0 0 0
0 0 0 0 0 0 0 0 0
0 0 0 0 0 0 0 0 0
0 0 0 0 0 0 0 0 0
0 0 0 0 0 0 0 0 0
0 0 0 0 0 0 0 0 0
0 0 0 0 0 0 0 0 0
0 0 0 0 0 0 0 0 0
0 0 0 0 0 0 0 0 0
0 0 0 0 0 0 0 0 0
0 0 0 0 0 0 0 0 0
0 0 0 0 0 0 0 0 0
0 0 0 0 0 0 0 0 0
0 0 0 0 0 0 0 0 0
0 0 0 0 0 0 0 0 0
0 0 0 0 0 0 0 0 0
0 0 0 0 0 0 0 0 0
0 0 0 0 0 0 0 0 0
0 0 0 0 0 0 0 0 0
0 0 0 0 0 0 0 0 0
0 0 0 0 0 0 0 0 0
0 0 0 0 0 0 0 0 0
0 0 0 0 0 0 0 0 0
0 0 0 0 0 0 0 0 0
0 0 0 0 0 0 0 0 0
0 0 0 0 0 0 0 0 0
0 0 0 0 0 0 0 0 0
0 0 0 0 0 0 0 0 0
0 0 0 0 0 0 0 0 0
0 0 0 0 0 0 0 0 0
0 0 0 0 0 0 0 0 0
0 0 0 0 0 0 0 0 0
0 0 0 0 0 0 0 0 0
0 0 0 0 0 0 0 0 0
0 0 0 0 0 0 0 0 0
0 0 0 0 0 0 0 0 0
0 0 0 0 0 0 0 0 0
0 0 0 0 0 0 0 0 0
0 0 0 0 0 0 0 0 0
0 0 0 0 0 0 0 0 0
0 0 0 0 0 0 0 0 0
0 0 0 0 0 0 0 0 0
0 0 0 0 0 0 0 0 0
0 0 0 0 0 0 0 0 0
0 0 0 0 0 0 0 0 0
0 0 0 0 0 0 0 0 0
0 0 0 0 0 0 0 0 0
0 0 0 0 0 0 0 0 0
0 0 0 0 0 0 0 0 0
0 0 0 0 0 0 0 0 0
0 0 0 0 0 0 0 0 0
0 0 0 0 0 0 0 0 0
0 0 0 0 0 0 0 0 0
0 0 0 0 0 0 0 0 0
0 0 0 0 0 0 0 0 0
0 0 0 0 0 0 0 0 0
0 0 0 0 0 0 0 0 0
0 0 0 0 0 0 0 0 0
0 0 0 0 0 0 0 0 0
0 0 0 0 0 0 0 0 0
0 0 0 0 0 0 0 0 0
0 0 0 0 0 0 0 0 0
0 0 0 0 0 0 0 0 0
0 0 0 0 0 0 0 0 0
0 0 0 0 0 0 0 0 0
0 0 0 0 0 0 0 0 0
0 0 0 0 0 0 0 0 0
0 0 0 0 0 0 0 0 0
0 0 0 0 0 0 0 0 0
0 0 0 0 0 0 0 0 0
0 0 0 0 0 0 0 0 0
0 0 0 0 0 0 0 0 0
0 0 0 0 0 0 0 0 0
0 0 0 0 0 0 0 0 0
0 0 0 0 0 0 0 0 0
0 0 0 0 0 0 0 0 0
0 0 0 0 0 0 0 0 0
0 0 0 0 0 0 0 0 0
0 0 0 0 0 0 0 0 0
0 0 0 0 0 0 0 0 0
0 0 0 0 0 0 0 0 0
0 0 0 0 0 0 0 0 0
0 0 0 0 0 0 0 0 0
0 0 0 0 0 0 0 0 0
0 0 0 0 0 0 0 0 0
0 0 0 0 0 0 0 0 0
0 0 0 0 0 0 0 0 0
0 0 0 0 0 0 0 0 0
0 0 0 0 0 0 0 0 0
0 0 0 0 0 0 0 0 0
0 0 0 0 0 0 0 0 0
0 0 0 0 0 0 0 0 0
0 0 0 0 0 0 0 0 0
0 0 0 0 0 0 0 0 0
0 0 0 0 0 0 0 0 0
0 0 0 0 0 0 0 0 0
0 0 0 0 0 0 0 0 0
0 0 0 0 0 0 0 0 0
0 0 0 0 0 0 0 0 0
0 0 0 0 0 0 0 0 0
0 0 0 0 0 0 0 0 0
0 0 0 0 0 0 0 0 0
0 0 0 0 0 0 0 0 0
0 0 0 0 0 0 0 0 0
0 0 0 0 0 0 0 0 0
0 0 0 0 0 0 0 0 0
0 0 0 0 0 0 0 0 0
0 0 0 0 0 0 0 0 0
0 0 0 0 0 0 0 0 0
0 0 0 0 0 0 0 0 0
0 0 0 0 0 0 0 0 0
0 0 0 0 0 0 0 0 0
0 0 0 0 0 0 0 0 0
0 0 0 0 0 0 0 0 0
0 0 0 0 0 0 0 0 0
0 0 0 0 0 0 0 0 0
0 0 0 0 0 0 0 0 0
0 0 0 0 0 0 0 0 0
0 0 0 0 0 0 0 0 0
0 0 0 0 0 0 0 0 0
0 0 0 0 0 0 0 0 0
0 0 0 0 0 0 0 0 0
0 0 0 0 0 0 0 0 0
0 0 0 0 0 0 0 0 0
0 0 0 0 0 0 0 0 0
0 0 0 0 0 0 0 0 0
0 0 0 0 0 0 0 0 0
0 0 0 0 0 0 0 0 0
0 0 0 0 0 0 0 0 0
0 0 0 0 0 0 0 0 0
0 0 0 0 0 0 0 0 0
0 0 0 0 0 0 0 0 0
0 0 0 0 0 0 0 0 0
0 0 0 0 0 0 0 0 0
0 0 0 0 0 0 0 0 0
0 0 0 0 0 0 0 0 0
0 0 0 0 0 0 0 0 0
0 0 0 0 0 0 0 0 0
0 0 0 0 0 0 0 0 0
0 0 0 0 0 0 0 0 0
0 0 0 0 0 0 0 0 0
0 0 0 0 0 0 0 0 0
0 0 0 0 0 0 0 0 0
0 0 0 0 0 0 0 0 0
0 0 0 0 0 0 0 0 0
0 0 0 0 0 0 0 0 0
0 0 0 0 0 0 0 0 0
0 0 0 0 0 0 0 0 0
0 0 0 0 0 0 0 0 0
0 0 0 0 0 0 0 0 0
0 0 0 0 0 0 0 0 0
0 0 0 0 0 0 0 0 0
0 0 0 0 0 0 0 0 0
0 0 0 0 0 0 0 0 0
0 0 0 0 0 0 0 0 0
0 0 0 0 0 0 0 0 0
0 0 0 0 0 0 0 0 0
0 0 0 0 0 0 0 0 0
0 0 0 0 0 0 0 0 0
0 0 0 0 0 0 0 0 0
0 0 0 0 0 0 0 0 0
0 0 0 0 0 0 0 0 0
0 0 0 0 0 0 0 0 0
0 0 0 0 0 0 0 0 0
0 0 0 0 0 0 0 0 0
0 0 0 0 0 0 0 0 0
0 0 0 0 0 0 0 0 0
0 0 0 0 0 0 0 0 0
0 0 0 0 0 0 0 0 0
0 0 0 0 0 0 0 0 0
0 0 0 0 0 0 0 0 0
0 0 0 0 0 0 0 0 0
0 0 0 0 0 0 0 0 0
0 0 0 0 0 0 0 0 0
0 0 0 0 0 0 0 0 0
0 0 0 0 0 0 0 0 0
0 0 0 0 0 0 0 0 0
0 0 0 0 0 0 0 0 0
0 0 0 0 0 0 0 0 0
0 0 0 0 0 0 0 0 0
0 0 0 0 0 0 0 0 0
0 0 0 0 0 0 0 0 0
0 0 0 0 0 0 0 0 0
0 0 0 0 0 0 0 0 0
0 0 0 0 0 0 0 0 0
0 0 0 0 0 0 0 0 0
0 0 0 0 0 0 0 0 0
0 0 0 0 0 0 0 0 0
0 0 0 0 0 0 0 0 0
0 0 0 0 0 0 0 0 0
0 0 0 0 0 0 0 0 0
0 0 0 0 0 0 0 0 0
0 0 0 0 0 0 0 0 0
0 0 0 0 0 0 0 0 0
0 0 0 0 0 0 0 0 0
0 0 0 0 0 0 0 0 0
0 0 0 0 0 0 0 0 0
0 0 0 0 0 0 0 0 0
0 0 0 0 0 0 0 0 0
0 0 0 0 0 0 0 0 0
0 0 0 0 0 0 0 0 0
0 0 0 0 0 0 0 0 0
0 0 0 0 0 0 0 0 0
0 0 0 0 0 0 0 0 0
0 0 0 0 0 0 0 0 0
0 0 0 0 0 0 0 0 0
0 0 0 0 0 0 0 0 0
0 0 0 0 0 0 0 0 0
0 0 0 0 0 0 0 0 0
0 0 0 0 0 0 0 0 0
0 0 0 0 0 0 0 0 0
0 0 0 0 0 0 0 0 0
0 0 0 0 0 0 0 0 0
0 0 0 0 0 0 0 0 0
0 0 0 0 0 0 0 0 0
0 0 0 0 0 0 0 0 0
0 0 0 0 0 0 0 0 0
0 0 0 0 0 0 0 0 0
0 0 0 0 0 0 0 0 0
0 0 0 0 0 0 0 0 0
0 0 0 0 0 0 0 0 0
0 0 0 0 0 0 0 0 0
0 0 0 0 0 0 0 0 0
0 0 0 0 0 0 0 0 0
0 0 0 0 0 0 0 0 0
0 0 0 0 0 0 0 0 0
0.000644442 0.0006783 0.000641802 0.000672 0.000644442 0.0006783 0.000641802 0.000672 0
0.000702301 0.000733957 0.000694763 0.000726714 0.000702301 0.000733957 0.000694763 0.000726714 0
0.000758522 0.000793973 0.00075092 0.000785093 0.000758522 0.000793973 0.00075092 0.000785093 0
0.00081988 0.000855205 0.000810262 0.000844856 0.00081988 0.000855205 0.000810262 0.000844856 0
0.000881414 0.00091769 0.000871026 0.000907928 0.000881414 0.00091769 0.000871026 0.000907928 0
0.000491194 0.000521417 0.000488061 0.000516275 0.000491194 0.000521417 0.000488061 0.000516275 0
0.000544213 0.000576204 0.000538096 0.000569452 0.000544213 0.000576204 0.000538096 0.000569452 0
0.000599551 0.000631342 0.000592423 0.000623832 0.000599551 0.000631342 0.000592423 0.000623832 0
0.000654842 0.000687248 0.000647945 0.00068242 0.000654842 0.000687248 0.000647945 0.00068242 0
0.00071119 0.000744167 0.000706746 0.000738677 0.00071119 0.000744167 0.000706746 0.000738677 0
0.00076943 0.000805468 0.000763518 0.00079945 0.00076943 0.000805468 0.000763518 0.00079945 0
0.000832124 0.000868909 0.000825742 0.000861641 0.000832124 0.000868909 0.000825742 0.000861641 0
0.000896248 0.000934154 0.000888163 0.000924725 0.000896248 0.000934154 0.000888163 0.000924725 0
0.000445093 0.000472462 0.000445454 0.00047176 0.000445093 0.000472462 0.000445454 0.00047176 0
0.000493841 0.000524818 0.000492739 0.000523722 0.000493841 0.000524818 0.000492739 0.000523722 0
0.000548151 0.000580883 0.000546929 0.000579285 0.000548151 0.000580883 0.000546929 0.000579285 0
0.00060498 0.000638076 0.00060293 0.000635167 0.00060498 0.000638076 0.00060293 0.000635167 0
0.000662341 0.00069553 0.000658701 0.000690753 0.000662341 0.00069553 0.000658701 0.000690753 0
0.000720356 0.000754976 0.000714827 0.000748525 0.000720356 0.000754976 0.000714827 0.000748525 0
0.000781157 0.000818061 0.000774148 0.00081045 0.000781157 0.000818061 0.000774148 0.00081045 0
0.00084552 0.000883636 0.000837419 0.000874799 0.00084552 0.000883636 0.000837419 0.000874799 0
0.000912148 0.000951926 0.000902672 0.000941441 0.000912148 0.000951926 0.000902672 0.000941441 0
0.000395854 0.000423639 0.000399399 0.000425091 0.000395854 0.000423639 0.000399399 0.000425091 0
0.000444604 0.000473968 0.000444858 0.000473061 0.000444604 0.000473968 0.000444858 0.000473061 0
0.000496379 0.000528201 0.000494824 0.000526016 0.000496379 0.000528201 0.000494824 0.000526016 0
0.000552064 0.000585414 0.000549522 0.000582521 0.000552064 0.000585414 0.000549522 0.000582521 0
0.00061018 0.00064448 0.00060692 0.000640569 0.00061018 0.00064448 0.00060692 0.000640569 0
0.000669829 0.000704774 0.000665321 0.000699283 0.000669829 0.000704774 0.000665321 0.000699283 0
0.000730842 0.000767107 0.000724642 0.00075995 0.000730842 0.000767107 0.000724642 0.00075995 0
0.000794347 0.000832502 0.000786564 0.000823966 0.000794347 0.000832502 0.000786564 0.000823966 0
0.0008609 0.000900331 0.000851809 0.000890475 0.0008609 0.000900331 0.000851809 0.000890475 0
0.000929867 0.00097113 0.000919433 0.00095988 0.000929867 0.00097113 0.000919433 0.00095988 0
0.000395095 0.000424468 0.000394691 0.000423475 0.000395095 0.000424468 0.000394691 0.000423475 0
0.000446571 0.000477489 0.000445067 0.000475152 0.000446571 0.000477489 0.000445067 0.000475152 0
0.000500735 0.0005333 0.000497959 0.00053015 0.000500735 0.0005333 0.000497959 0.00053015 0
0.000557693 0.000591755 0.000554251 0.000587887 0.000557693 0.000591755 0.000554251 0.000587887 0
0.000617172 0.000652542 0.000612925 0.000647686 0.000617172 0.000652542 0.000612925 0.000647686 0
0.000678854 0.000715364 0.000673453 0.000709079 0.000678854 0.000715364 0.000673453 0.000709079 0
0.0007426 0.000780497 0.00073565 0.000772608 0.0007426 0.000780497 0.00073565 0.000772608 0
0.000808858 0.000848446 0.000800317 0.00083906 0.000808858 0.000848446 0.000800317 0.00083906 0
0.000877929 0.000918894 0.000867898 0.000907945 0.000877929 0.000918894 0.000867898 0.000907945 0
0.000949365 0.000991647 0.000937887 0.00097964 0.000949365 0.000991647 0.000937887 0.00097964 0
0.000396095 0.000427425 0.000395466 0.000425524 0.000396095 0.000427425 0.000395466 0.000425524 0
0.000450632 0.000482656 0.000448061 0.000479498 0.000450632 0.000482656 0.000448061 0.000479498 0
0.000506578 0.00053989 0.000503043 0.000535909 0.000506578 0.00053989 0.000503043 0.000535909 0
0.000564802 0.000599542 0.000560519 0.000594877 0.000564802 0.000599542 0.000560519 0.000594877 0
0.00062557 0.000661934 0.00062056 0.000656359 0.00062557 0.000661934 0.00062056 0.000656359 0
0.000689146 0.000727123 0.000683058 0.000720197 0.000689146 0.000727123 0.000683058 0.000720197 0
0.000755487 0.000795002 0.000747913 0.000786495 0.000755487 0.000795002 0.000747913 0.000786495 0
0.000824485 0.000865527 0.000815332 0.000855537 0.000824485 0.000865527 0.000815332 0.000855537 0
0.000896117 0.000938656 0.000885489 0.000927123 0.000896117 0.000938656 0.000885489 0.000927123 0
0.000970076 0.00101337 0.000957992 0.00100069 0.000970076 0.00101337 0.000957992 0.00100069 0
0.000397888 0.000431436 0.00039675 0.000429006 0.000397888 0.000431436 0.00039675 0.000429006 0
0.000455876 0.000489062 0.000452722 0.000485218 0.000455876 0.000489062 0.000452722 0.000485218 0
0.000513652 0.000547636 0.000509422 0.000543033 0.000513652 0.000547636 0.000509422 0.000543033 0
0.000572989 0.000608263 0.000568144 0.000603129 0.000572989 0.000608263 0.000568144 0.000603129 0
0.00063481 0.00067206 0.000629389 0.000666141 0.00063481 0.00067206 0.000629389 0.000666141 0
0.000700147 0.000739633 0.000693725 0.00073233 0.000700147 0.000739633 0.000693725 0.00073233 0
0.000769179 0.000810414 0.000761184 0.000801409 0.000769179 0.000810414 0.000761184 0.000801409 0
0.000841101 0.000883709 0.000831388 0.000873074 0.000841101 0.000883709 0.000831388 0.000873074 0
0.000914912 0.000957557 0.000903996 0.0009468 0.000914912 0.000957557 0.000903996 0.0009468 0
0.000990055 0.0010362 0.000978658 0.00102289 0.000990055 0.0010362 0.000978658 0.00102289 0
0.000400647 0.000436334 0.000398933 0.000433403 0.000400647 0.000436334 0.000398933 0.000433403 0
0.000462003 0.000496427 0.000458366 0.000492067 0.000462003 0.000496427 0.000458366 0.000492067 0
0.000521681 0.000556245 0.000516938 0.000551179 0.000521681 0.000556245 0.000516938 0.000551179 0
0.000581931 0.000617542 0.000576685 0.000612127 0.000581931 0.000617542 0.000576685 0.000612127 0
0.000644501 0.000682543 0.00063886 0.000676455 0.000644501 0.000682543 0.00063886 0.000676455 0
0.000711517 0.000752633 0.000704914 0.000745073 0.000711517 0.000752633 0.000704914 0.000745073 0
0.000783488 0.000826675 0.000775154 0.000817183 0.000783488 0.000826675 0.000775154 0.000817183 0
0.000858961 0.000903992 0.000848488 0.000891992 0.000858961 0.000903992 0.000848488 0.000891992 0
0.000936509 0.00098032 0.000923623 0.000966542 0.000936509 0.00098032 0.000923623 0.000966542 0
0.000402138 0.000440807 0.000401504 0.000438315 0.000402138 0.000440807 0.000401504 0.000438315 0
0.0004687 0.000506234 0.000464767 0.000500213 0.0004687 0.000506234 0.000464767 0.000500213 0
0.000533199 0.000569331 0.000526023 0.000561091 0.000533199 0.000569331 0.000526023 0.000561091 0
0.000595769 0.000631866 0.000587026 0.000622814 0.000595769 0.000631866 0.000587026 0.000622814 0
0.000658927 0.000696762 0.000649864 0.000687976 0.000658927 0.000696762 0.000649864 0.000687976 0
0.000725577 0.000766469 0.000717049 0.000758366 0.000725577 0.000766469 0.000717049 0.000758366 0
0.000797548 0.000841574 0.000789492 0.000833217 0.000797548 0.000841574 0.000789492 0.000833217 0
0.000874911 0.000921975 0.000866049 0.000912035 0.000874911 0.000921975 0.000866049 0.000912035 0
0 0 0 0 0 0 0 0 0
0 0 0 0 0 0 0 0 0
0 0 0 0 0 0 0 0 0
0 0 0 0 0 0 0 0 0
0 0 0 0 0 0 0 0 0
0 0 0 0 0 0 0 0 0
0 0 0 0 0 0 0 0 0
0 0 0 0 0 0 0 0 0
0 0 0 0 0 0 0 0 0
0 0 0 0 0 0 0 0 0
0 0 0 0 0 0 0 0 0
0 0 0 0 0 0 0 0 0
0 0 0 0 0 0 0 0 0
0 0 0 0 0 0 0 0 0
0 0 0 0 0 0 0 0 0
0 0 0 0 0 0 0 0 0
0 0 0 0 0 0 0 0 0
0 0 0 0 0 0 0 0 0
0 0 0 0 0 0 0 0 0
0 0 0 0 0 0 0 0 0
0 0 0 0 0 0 0 0 0
0 0 0 0 0 0 0 0 0
0 0 0 0 0 0 0 0 0
0 0 0 0 0 0 0 0 0
0 0 0 0 0 0 0 0 0
0 0 0 0 0 0 0 0 0
0 0 0 0 0 0 0 0 0
0 0 0 0 0 0 0 0 0
0 0 0 0 0 0 0 0 0
0 0 0 0 0 0 0 0 0
0 0 0 0 0 0 0 0 0
0 0 0 0 0 0 0 0 0
0 0 0 0 0 0 0 0 0
0 0 0 0 0 0 0 0 0
0 0 0 0 0 0 0 0 0
0 0 0 0 0 0 0 0 0
0 0 0 0 0 0 0 0 0
0 0 0 0 0 0 0 0 0
0 0 0 0 0 0 0 0 0
0 0 0 0 0 0 0 0 0
0 0 0 0 0 0 0 0 0
0 0 0 0 0 0 0 0 0
0 0 0 0 0 0 0 0 0
0 0 0 0 0 0 0 0 0
0 0 0 0 0 0 0 0 0
0 0 0 0 0 0 0 0 0
0 0 0 0 0 0 0 0 0
0 0 0 0 0 0 0 0 0
0 0 0 0 0 0 0 0 0
0 0 0 0 0 0 0 0 0
0 0 0 0 0 0 0 0 0
0 0 0 0 0 0 0 0 0
0 0 0 0 0 0 0 0 0
0 0 0 0 0 0 0 0 0
0 0 0 0 0 0 0 0 0
0 0 0 0 0 0 0 0 0
0 0 0 0 0 0 0 0 0
0 0 0 0 0 0 0 0 0
0 0 0 0 0 0 0 0 0
0 0 0 0 0 0 0 0 0
0 0 0 0 0 0 0 0 0
0 0 0 0 0 0 0 0 0
0 0 0 0 0 0 0 0 0
0 0 0 0 0 0 0 0 0
0 0 0 0 0 0 0 0 0
0 0 0 0 0 0 0 0 0
0 0 0 0 0 0 0 0 0
0 0 0 0 0 0 0 0 0
0 0 0 0 0 0 0 0 0
0 0 0 0 0 0 0 0 0
0 0 0 0 0 0 0 0 0
0 0 0 0 0 0 0 0 0
0 0 0 0 0 0 0 0 0
0 0 0 0 0 0 0 0 0
0 0 0 0 0 0 0 0 0
0 0 0 0 0 0 0 0 0
0 0 0 0 0 0 0 0 0
0 0 0 0 0 0 0 0 0
0 0 0 0 0 0 0 0 0
0.000584136 0.000615424 0.000579669 0.000607425 0.000584136 0.000615424 0.000579669 0.000607425 0
0.000637402 0.000666104 0.000628003 0.000656429 0.000637402 0.000666104 0.000628003 0.000656429 0
0.00068747 0.000717142 0.000677763 0.000707608 0.00068747 0.000717142 0.000677763 0.000707608 0
0.000738662 0.000767787 0.000729024 0.000757707 0.000738662 0.000767787 0.000729024 0.000757707 0
0.000790202 0.000822299 0.000779464 0.000810197 0.000790202 0.000822299 0.000779464 0.000810197 0
0.000449494 0.000476985 0.000446465 0.000471619 0.000449494 0.000476985 0.000446465 0.000471619 0
0.000497351 0.000525462 0.000490728 0.000517771 0.000497351 0.000525462 0.000490728 0.000517771 0
0.000546282 0.000575008 0.000538101 0.000566542 0.000546282 0.000575008 0.000538101 0.000566542 0
0.000596554 0.000626663 0.000588652 0.000620598 0.000596554 0.000626663 0.000588652 0.000620598 0
0.000648605 0.000678425 0.000642948 0.000672017 0.000648605 0.000678425 0.000642948 0.000672017 0
0.000700609 0.000731395 0.000693613 0.000723552 0.000700609 0.000731395 0.000693613 0.000723552 0
0.000754078 0.000785261 0.000745415 0.000775205 0.000754078 0.000785261 0.000745415 0.000775205 0
0.000808975 0.000842573 0.000798137 0.000830987 0.000808975 0.000842573 0.000798137 0.000830987 0
0.000404672 0.000431863 0.000405311 0.000431189 0.000404672 0.000431863 0.000405311 0.000431189 0
0.000452314 0.000481021 0.000451059 0.000479522 0.000452314 0.000481021 0.000451059 0.000479522 0
0.000502408 0.000532115 0.000500504 0.000529327 0.000502408 0.000532115 0.000500504 0.000529327 0
0.000554086 0.000584378 0.000550586 0.000579806 0.000554086 0.000584378 0.000550586 0.000579806 0
0.000606703 0.000637381 0.000601403 0.000631156 0.000606703 0.000637381 0.000601403 0.000631156 0
0.000660083 0.000691418 0.000653188 0.000683618 0.000660083 0.000691418 0.000653188 0.000683618 0
0.000714736 0.000747105 0.000706264 0.0007377 0.000714736 0.000747105 0.000706264 0.0007377 0
0.000771092 0.000804255 0.000760952 0.000793039 0.000771092 0.000804255 0.000760952 0.000793039 0
0.000829167 0.000864065 0.000817284 0.000851433 0.000829167 0.000864065 0.000817284 0.000851433 0
0.000357412 0.000384887 0.000358725 0.000384908 0.000357412 0.000384887 0.000358725 0.000384908 0
0.00040545 0.000434088 0.000404724 0.000432649 0.00040545 0.000434088 0.000404724 0.000432649 0
0.000455522 0.000485442 0.000453513 0.000482602 0.000455522 0.000485442 0.000453513 0.000482602 0
0.000507732 0.000538696 0.000504337 0.000534617 0.000507732 0.000538696 0.000504337 0.000534617 0
0.000561666 0.000593447 0.000557047 0.000588026 0.000561666 0.000593447 0.000557047 0.000588026 0
0.000616908 0.000649212 0.000610851 0.000642214 0.000616908 0.000649212 0.000610851 0.000642214 0
0.000673117 0.000706116 0.000665418 0.000697442 0.000673117 0.000706116 0.000665418 0.000697442 0
0.000730657 0.000764704 0.000721268 0.000754336 0.000730657 0.000764704 0.000721268 0.000754336 0
0.000789943 0.000824849 0.000778855 0.000812774 0.000789943 0.000824849 0.000778855 0.000812774 0
0.000850946 0.000887342 0.000838184 0.00087369 0.000850946 0.000887342 0.000838184 0.00087369 0
0.000359167 0.000387587 0.000357486 0.00038558 0.000359167 0.000387587 0.000357486 0.00038558 0
0.000408969 0.000438886 0.000406573 0.000435754 0.000408969 0.000438886 0.000406573 0.000435754 0
0.000461169 0.000492122 0.000457571 0.000487991 0.000461169 0.000492122 0.000457571 0.000487991 0
0.000515174 0.000547196 0.000510633 0.000542062 0.000515174 0.000547196 0.000510633 0.000542062 0
0.000571018 0.000604073 0.000565405 0.000597742 0.000571018 0.000604073 0.000565405 0.000597742 0
0.000628575 0.000662454 0.000621652 0.000654631 0.000628575 0.000662454 0.000621652 0.000654631 0
0.00068756 0.000722272 0.000679046 0.000712765 0.00068756 0.000722272 0.000679046 0.000712765 0
0.000748047 0.000783757 0.000737829 0.000772583 0.000748047 0.000783757 0.000737829 0.000772583 0
0.000810256 0.000846944 0.000798352 0.000833999 0.000810256 0.000846944 0.000798352 0.000833999 0
0.00087421 0.000912013 0.000860595 0.000897608 0.00087421 0.000912013 0.000860595 0.000897608 0
0.00036325 0.000392937 0.000360716 0.000389565 0.00036325 0.000392937 0.000360716 0.000389565 0
0.000415159 0.000446113 0.000411277 0.000441668 0.000415159 0.000446113 0.000411277 0.000441668 0
0.00046907 0.000500831 0.000464254 0.000495564 0.00046907 0.000500831 0.000464254 0.000495564 0
0.000524492 0.000557371 0.000518888 0.000551297 0.000524492 0.000557371 0.000518888 0.000551297 0
0.000581915 0.00061609 0.00057544 0.000608987 0.000581915 0.00061609 0.00057544 0.000608987 0
0.000641554 0.000676945 0.000633904 0.000668429 0.000641554 0.000676945 0.000633904 0.000668429 0
0.000703229 0.000739648 0.000694037 0.000729471 0.000703229 0.000739648 0.000694037 0.000729471 0
0.000766641 0.000803969 0.000755764 0.000792163 0.000766641 0.000803969 0.000755764 0.000792163 0
0.000831645 0.000869931 0.000819173 0.000856566 0.000831645 0.000869931 0.000819173 0.000856566 0
0.000898329 0.000937631 0.000884316 0.000922737 0.000898329 0.000937631 0.000884316 0.000922737 0
0.000368091 0.000400119 0.000365221 0.000395774 0.000368091 0.000400119 0.000365221 0.000395774 0
0.000423481 0.00045525 0.000418441 0.00044976 0.000423481 0.00045525 0.000418441 0.00044976 0
0.000478737 0.000511133 0.000472957 0.000505007 0.000478737 0.000511133 0.000472957 0.000505007 0
0.000535246 0.000568726 0.000528878 0.000562043 0.000535246 0.000568726 0.000528878 0.000562043 0
0.000593835 0.000628955 0.000586845 0.000621439 0.000593835 0.000628955 0.000586845 0.000621439 0
0.000655327 0.000692257 0.000647292 0.000683326 0.000655327 0.000692257 0.000647292 0.000683326 0
0.000719764 0.000757985 0.000710119 0.000747284 0.000719764 0.000757985 0.000710119 0.000747284 0
0.000786261 0.000825293 0.000774809 0.000812844 0.000786261 0.000825293 0.000774809 0.000812844 0
0.000853846 0.000892832 0.000840937 0.000879658 0.000853846 0.000892832 0.000840937 0.000879658 0
0.00092238 0.000964115 0.000908536 0.000948713 0.00092238 0.000964115 0.000908536 0.000948713 0
0.000374343 0.000408506 0.000370541 0.000403537 0.000374343 0.000408506 0.000370541 0.000403537 0
0.000433014 0.000465804 0.000427393 0.000459555 0.000433014 0.000465804 0.000427393 0.000459555 0
0.000489843 0.000522731 0.000483268 0.000515886 0.000489843 0.000522731 0.000483268 0.000515886 0
0.000547155 0.000580998 0.000540146 0.000573807 0.000547155 0.000580998 0.000540146 0.000573807 0
0.000606533 0.000642453 0.000599111 0.000634584 0.000606533 0.000642453 0.000599111 0.000634584 0
0.000669698 0.000708213 0.000661327 0.00069892 0.000669698 0.000708213 0.000661327 0.00069892 0
0.000737049 0.000777322 0.000726974 0.000766028 0.000737049 0.000777322 0.000726974 0.000766028 0
0.000807315 0.000848996 0.000794969 0.000834986 0.000807315 0.000848996 0.000794969 0.000834986 0
0.000879025 0.000919392 0.000864056 0.000903472 0.000879025 0.000919392 0.000864056 0.000903472 0
0.000379941 0.000416943 0.000376875 0.000412104 0.000379941 0.000416943 0.000376875 0.000412104 0
0.000443528 0.000479154 0.00043734 0.000471056 0.000443528 0.000479154 0.00043734 0.000471056 0
0.000504782 0.000539171 0.000495605 0.00052896 0.000504782 0.000539171 0.000495605 0.00052896 0
0.000564268 0.000598446 0.000553605 0.000587583 0.000564268 0.000598446 0.000553605 0.000587583 0
0.000624008 0.000659669 0.000613187 0.00064916 0.000624008 0.000659669 0.000613187 0.00064916 0
0.000686737 0.00072503 0.000676494 0.0007152 0.000686737 0.00072503 0.000676494 0.0007152 0
0.000754086 0.000795185 0.000744308 0.000785131 0.000754086 0.000795185 0.000744308 0.000785131 0
0.000826235 0.000869985 0.000815687 0.000858362 0.000826235 0.000869985 0.000815687 0.000858362 0
0 0 0 0 0 0 0 0 0
0 0 0 0 0 0 0 0 0
0 0 0 0 0 0 0 0 0
0 0 0 0 0 0 0 0 0
0 0 0 0 0 0 0 0 0
0 0 0 0 0 0 0 0 0
0 0 0 0 0 0 0 0 0
0 0 0 0 0 0 0 0 0
0 0 0 0 0 0 0 0 0
0 0 0 0 0 0 0 0 0
0 0 0 0 0 0 0 0 0
0 0 0 0 0 0 0 0 0
0 0 0 0 0 0 0 0 0
0 0 0 0 0 0 0 0 0
0 0 0 0 0 0 0 0 0
0 0 0 0 0 0 0 0 0
0 0 0 0 0 0 0 0 0
0 0 0 0 0 0 0 0 0
0 0 0 0 0 0 0 0 0
0 0 0 0 0 0 0 0 0
0 0 0 0 0 0 0 0 0
0 0 0 0 0 0 0 0 0
0 0 0 0 0 0 0 0 0
0 0 0 0 0 0 0 0 0
0 0 0 0 0 0 0 0 0
0 0 0 0 0 0 0 0 0
0 0 0 0 0 0 0 0 0
0 0 0 0 0 0 0 0 0
0 0 0 0 0 0 0 0 0
0 0 0 0 0 0 0 0 0
0 0 0 0 0 0 0 0 0
0 0 0 0 0 0 0 0 0
0 0 0 0 0 0 0 0 0
0 0 0 0 0 0 0 0 0
0 0 0 0 0 0 0 0 0
0 0 0 0 0 0 0 0 0
0 0 0 0 0 0 0 0 0
0 0 0 0 0 0 0 0 0
0 0 0 0 0 0 0 0 0
0 0 0 0 0 0 0 0 0
0 0 0 0 0 0 0 0 0
0 0 0 0 0 0 0 0 0
0 0 0 0 0 0 0 0 0
0 0 0 0 0 0 0 0 0
0 0 0 0 0 0 0 0 0
0 0 0 0 0 0 0 0 0
0 0 0 0 0 0 0 0 0
0 0 0 0 0 0 0 0 0
0 0 0 0 0 0 0 0 0
0 0 0 0 0 0 0 0 0
0 0 0 0 0 0 0 0 0
0 0 0 0 0 0 0 0 0
0 0 0 0 0 0 0 0 0
0 0 0 0 0 0 0 0 0
0 0 0 0 0 0 0 0 0
0 0 0 0 0 0 0 0 0
0 0 0 0 0 0 0 0 0
0 0 0 0 0 0 0 0 0
0 0 0 0 0 0 0 0 0
0 0 0 0 0 0 0 0 0
0 0 0 0 0 0 0 0 0
0 0 0 0 0 0 0 0 0
0 0 0 0 0 0 0 0 0
0 0 0 0 0 0 0 0 0
0 0 0 0 0 0 0 0 0
0 0 0 0 0 0 0 0 0
0 0 0 0 0 0 0 0 0
0 0 0 0 0 0 0 0 0
0 0 0 0 0 0 0 0 0
0 0 0 0 0 0 0 0 0
0 0 0 0 0 0 0 0 0
0 0 0 0 0 0 0 0 0
0 0 0 0 0 0 0 0 0
0 0 0 0 0 0 0 0 0
0 0 0 0 0 0 0 0 0
0 0 0 0 0 0 0 0 0
0 0 0 0 0 0 0 0 0
0 0 0 0 0 0 0 0 0
0 0 0 0 0 0 0 0 0
0 0 0 0 0 0 0 0 0
0 0 0 0 0 0 0 0 0
0 0 0 0 0 0 0 0 0
0 0 0 0 0 0 0 0 0
0 0 0 0 0 0 0 0 0
0 0 0 0 0 0 0 0 0
0 0 0 0 0 0 0 0 0
0 0 0 0 0 0 0 0 0
0 0 0 0 0 0 0 0 0
0 0 0 0 0 0 0 0 0
0 0 0 0 0 0 0 0 0
0 0 0 0 0 0 0 0 0
0 0 0 0 0 0 0 0 0
0 0 0 0 0 0 0 0 0
0 0 0 0 0 0 0 0 0
0 0 0 0 0 0 0 0 0
0 0 0 0 0 0 0 0 0
0 0 0 0 0 0 0 0 0
0 0 0 0 0 0 0 0 0
0 0 0 0 0 0 0 0 0
0 0 0 0 0 0 0 0 0
0 0 0 0 0 0 0 0 0
0 0 0 0 0 0 0 0 0
0 0 0 0 0 0 0 0 0
0 0 0 0 0 0 0 0 0
0 0 0 0 0 0 0 0 0
0 0 0 0 0 0 0 0 0
0 0 0 0 0 0 0 0 0
0 0 0 0 0 0 0 0 0
0 0 0 0 0 0 0 0 0
0 0 0 0 0 0 0 0 0
0 0 0 0 0 0 0 0 0
0 0 0 0 0 0 0 0 0
0 0 0 0 0 0 0 0 0
0 0 0 0 0 0 0 0 0
0 0 0 0 0 0 0 0 0
0 0 0 0 0 0 0 0 0
0 0 0 0 0 0 0 0 0
0 0 0 0 0 0 0 0 0
0 0 0 0 0 0 0 0 0
0 0 0 0 0 0 0 0 0
0 0 0 0 0 0 0 0 0
0 0 0 0 0 0 0 0 0
0 0 0 0 0 0 0 0 0
0 0 0 0 0 0 0 0 0
0 0 0 0 0 0 0 0 0
0 0 0 0 0 0 0 0 0
0 0 0 0 0 0 0 0 0
0 0 0 0 0 0 0 0 0
0 0 0 0 0 0 0 0 0
0 0 0 0 0 0 0 0 0
0 0 0 0 0 0 0 0 0
0 0 0 0 0 0 0 0 0
0 0 0 0 0 0 0 0 0
0 0 0 0 0 0 0 0 0
0 0 0 0 0 0 0 0 0
0 0 0 0 0 0 0 0 0
0 0 0 0 0 0 0 0 0
0 0 0 0 0 0 0 0 0
0 0 0 0 0 0 0 0 0
0 0 0 0 0 0 0 0 0
0 0 0 0 0 0 0 0 0
0 0 0 0 0 0 0 0 0
0 0 0 0 0 0 0 0 0
0 0 0 0 0 0 0 0 0
0 0 0 0 0 0 0 0 0
0 0 0 0 0 0 0 0 0
0 0 0 0 0 0 0 0 0
0 0 0 0 0 0 0 0 0
0 0 0 0 0 0 0 0 0
0 0 0 0 0 0 0 0 0
0 0 0 0 0 0 0 0 0
0 0 0 0 0 0 0 0 0
0 0 0 0 0 0 0 0 0
0 0 0 0 0 0 0 0 0
0 0 0 0 0 0 0 0 0
0 0 0 0 0 0 0 0 0
0 0 0 0 0 0 0 0 0
0 0 0 0 0 0 0 0 0
0 0 0 0 0 0 0 0 0
0 0 0 0 0 0 0 0 0
0 0 0 0 0 0 0 0 0
0 0 0 0 0 0 0 0 0
0 0 0 0 0 0 0 0 0
0 0 0 0 0 0 0 0 0
0 0 0 0 0 0 0 0 0
0 0 0 0 0 0 0 0 0
0 0 0 0 0 0 0 0 0
0 0 0 0 0 0 0 0 0
0 0 0 0 0 0 0 0 0
0 0 0 0 0 0 0 0 0
0 0 0 0 0 0 0 0 0
0 0 0 0 0 0 0 0 0
0 0 0 0 0 0 0 0 0
0 0 0 0 0 0 0 0 0
0 0 0 0 0 0 0 0 0
0 0 0 0 0 0 0 0 0
0 0 0 0 0 0 0 0 0
0 0 0 0 0 0 0 0 0
0 0 0 0 0 0 0 0 0
0 0 0 0 0 0 0 0 0
0 0 0 0 0 0 0 0 0
0 0 0 0 0 0 0 0 0
0 0 0 0 0 0 0 0 0
0 0 0 0 0 0 0 0 0
0 0 0 0 0 0 0 0 0
0 0 0 0 0 0 0 0 0
0 0 0 0 0 0 0 0 0
0 0 0 0 0 0 0 0 0
0 0 0 0 0 0 0 0 0
0 0 0 0 0 0 0 0 0
0 0 0 0 0 0 0 0 0
0 0 0 0 0 0 0 0 0
0 0 0 0 0 0 0 0 0
0 0 0 0 0 0 0 0 0
0 0 0 0 0 0 0 0 0
0 0 0 0 0 0 0 0 0
0 0 0 0 0 0 0 0 0
0 0 0 0 0 0 0 0 0
0 0 0 0 0 0 0 0 0
0 0 0 0 0 0 0 0 0
0 0 0 0 0 0 0 0 0
0 0 0 0 0 0 0 0 0
0 0 0 0 0 0 0 0 0
0 0 0 0 0 0 0 0 0
0 0 0 0 0 0 0 0 0
0 0 0 0 0 0 0 0 0
0 0 0 0 0 0 0 0 0
0 0 0 0 0 0 0 0 0
0 0 0 0 0 0 0 0 0
0 0 0 0 0 0 0 0 0
0 0 0 0 0 0 0 0 0
0 0 0 0 0 0 0 0 0
0 0 0 0 0 0 0 0 0
0 0 0 0 0 0 0 0 0
0 0 0 0 0 0 0 0 0
0 0 0 0 0 0 0 0 0
0 0 0 0 0 0 0 0 0
0 0 0 0 0 0 0 0 0
0 0 0 0 0 0 0 0 0
0 0 0 0 0 0 0 0 0
0 0 0 0 0 0 0 0 0
0 0 0 0 0 0 0 0 0
0 0 0 0 0 0 0 0 0
0 0 0 0 0 0 0 0 0
0 0 0 0 0 0 0 0 0
0 0 0 0 0 0 0 0 0
0 0 0 0 0 0 0 0 0
0 0 0 0 0 0 0 0 0
0 0 0 0 0 0 0 0 0
0 0 0 0 0 0 0 0 0
0 0 0 0 0 0 0 0 0
0 0 0 0 0 0 0 0 0
0 0 0 0 0 0 0 0 0
0 0 0 0 0 0 0 0 0
0 0 0 0 0 0 0 0 0
0 0 0 0 0 0 0 0 0
0 0 0 0 0 0 0 0 0
0 0 0 0 0 0 0 0 0
0 0 0 0 0 0 0 0 0
0 0 0 0 0 0 0 0 0
0 0 0 0 0 0 0 0 0
0 0 0 0 0 0 0 0 0
0 0 0 0 0 0 0 0 0
0 0 0 0 0 0 0 0 0
0 0 0 0 0 0 0 0 0
0 0 0 0 0 0 0 0 0
0 0 0 0 0 0 0 0 0
0 0 0 0 0 0 0 0 0
0 0 0 0 0 0 0 0 0
0 0 0 0 0 0 0 0 0
0 0 0 0 0 0 0 0 0
0 0 0 0 0 0 0 0 0
0 0 0 0 0 0 0 0 0
0 0 0 0 0 0 0 0 0
0 0 0 0 0 0 0 0 0
0 0 0 0 0 0 0 0 0
0 0 0 0 0 0 0 0 0
0 0 0 0 0 0 0 0 0
0 0 0 0 0 0 0 0 0
0 0 0 0 0 0 0 0 0
0 0 0 0 0 0 0 0 0
0 0 0 0 0 0 0 0 0
0 0 0 0 0 0 0 0 0
0 0 0 0 0 0 0 0 0
0 0 0 0 0 0 0 0 0
0 0 0 0 0 0 0 0 0
0 0 0 0 0 0 0 0 0
0 0 0 0 0 0 0 0 0
0 0 0 0 0 0 0 0 0
0 0 0 0 0 0 0 0 0
0 0 0 0 0 0 0 0 0
0 0 0 0 0 0 0 0 0
0 0 0 0 0 0 0 0 0
0 0 0 0 0 0 0 0 0
0 0 0 0 0 0 0 0 0
0 0 0 0 0 0 0 0 0
0 0 0 0 0 0 0 0 0
0 0 0 0 0 0 0 0 0
0 0 0 0 0 0 0 0 0
0 0 0 0 0 0 0 0 0
0 0 0 0 0 0 0 0 0
0 0 0 0 0 0 0 0 0
0 0 0 0 0 0 0 0 0
0 0 0 0 0 0 0 0 0
0 0 0 0 0 0 0 0 0
0 0 0 0 0 0 0 0 0
0 0 0 0 0 0 0 0 0
0 0 0 0 0 0 0 0 0
0 0 0 0 0 0 0 0 0
0 0 0 0 0 0 0 0 0
0 0 0 0 0 0 0 0 0
0 0 0 0 0 0 0 0 0
0 0 0 0 0 0 0 0 0
0 0 0 0 0 0 0 0 0
0 0 0 0 0 0 0 0 0
0 0 0 0 0 0 0 0 0
0 0 0 0 0 0 0 0 0
0 0 0 0 0 0 0 0 0
0 0 0 0 0 0 0 0 0
0 0 0 0 0 0 0 0 0
0 0 0 0 0 0 0 0 0
0 0 0 0 0 0 0 0 0
0 0 0 0 0 0 0 0 0
0 0 0 0 0 0 0 0 0
0 0 0 0 0 0 0 0 0
0 0 0 0 0 0 0 0 0
0 0 0 0 0 0 0 0 0
0 0 0 0 0 0 0 0 0
0 0 0 0 0 0 0 0 0
0 0 0 0 0 0 0 0 0
0 0 0 0 0 0 0 0 0
0 0 0 0 0 0 0 0 0
0 0 0 0 0 0 0 0 0
0 0 0 0 0 0 0 0 0
0 0 0 0 0 0 0 0 0
0 0 0 0 0 0 0 0 0
0 0 0 0 0 0 0 0 0
0 0 0 0 0 0 0 0 0
0 0 0 0 0 0 0 0 0
0 0 0 0 0 0 0 0 0
0 0 0 0 0 0 0 0 0
0 0 0 0 0 0 0 0 0
0 0 0 0 0 0 0 0 0
0 0 0 0 0 0 0 0 0
0 0 0 0 0 0 0 0 0
0 0 0 0 0 0 0 0 0
0 0 0 0 0 0 0 0 0
0 0 0 0 0 0 0 0 0
0 0 0 0 0 0 0 0 0
0 0 0 0 0 0 0 0 0
0 0 0 0 0 0 0 0 0
0 0 0 0 0 0 0 0 0
0 0 0 0 0 0 0 0 0
0 0 0 0 0 0 0 0 0
0 0 0 0 0 0 0 0 0
0 0 0 0 0 0 0 0 0
0 0 0 0 0 0 0 0 0
0 0 0 0 0 0 0 0 0
0 0 0 0 0 0 0 0 0
0 0 0 0 0 0 0 0 0
0 0 0 0 0 0 0 0 0
0 0 0 0 0 0 0 0 0
0 0 0 0 0 0 0 0 0
0 0 0 0 0 0 0 0 0
0 0 0 0 0 0 0 0 0
0 0 0 0 0 0 0 0 0
0 0 0 0 0 0 0 0 0
0 0 0 0 0 0 0 0 0
0 0 0 0 0 0 0 0 0
0 0 0 0 0 0 0 0 0
0 0 0 0 0 0 0 0 0
0 0 0 0 0 0 0 0 0
0 0 0 0 0 0 0 0 0
0 0 0 0 0 0 0 0 0
0 0 0 0 0 0 0 0 0
0 0 0 0 0 0 0 0 0
0 0 0 0 0 0 0 0 0
0 0 0 0 0 0 0 0 0
0 0 0 0 0 0 0 0 0
0 0 0 0 0 0 0 0 0
0 0 0 0 0 0 0 0 0
0 0 0 0 0 0 0 0 0
0 0 0 0 0 0 0 0 0
0 0 0 0 0 0 0 0 0
0 0 0 0 0 0 0 0 0
0 0 0 0 0 0 0 0 0
0 0 0 0 0 0 0 0 0
0 0 0 0 0 0 0 0 0
0 0 0 0 0 0 0 0 0
0 0 0 0 0 0 0 0 0
0 0 0 0 0 0 0 0 0
0 0 0 0 0 0 0 0 0
0 0 0 0 0 0 0 0 0
0 0 0 0 0 0 0 0 0
0 0 0 0 0 0 0 0 0
0 0 0 0 0 0 0 0 0
0 0 0 0 0 0 0 0 0
0 0 0 0 0 0 0 0 0
0 0 0 0 0 0 0 0 0
0 0 0 0 0 0 0 0 0
0 0 0 0 0 0 0 0 0
0 0 0 0 0 0 0 0 0
0 0 0 0 0 0 0 0 0
0 0 0 0 0 0 0 0 0
0 0 0 0 0 0 0 0 0
0 0 0 0 0 0 0 0 0
0 0 0 0 0 0 0 0 0
0 0 0 0 0 0 0 0 0
0 0 0 0 0 0 0 0 0
0 0 0 0 0 0 0 0 0
0 0 0 0 0 0 0 0 0
0 0 0 0 0 0 0 0 0
0 0 0 0 0 0 0 0 0
0 0 0 0 0 0 0 0 0
0 0 0 0 0 0 0 0 0
SCALARS F_MT double 1
LOOKUP_TABLE default
0
0
0
0
0
0
0
0
0
0
0
0
0
0
0
0
0
0
0
0
0
0
0
0
0
0
0
0
0
0
0
0
0
0
0
0
0
0
0
0
0
0
0
0
0
0
0
0
0
0
0
0
0
0
0
0
0
0
0
0
0
0
0
0
0
0
0
0
0
0
0
0
0
0
0
0
0
0
0
0
0
0
0
0
0
0
0
0
0
0
0
0
0
0
0
0
0
0
0
0
0
0
0
0
0
0
0
0
0
0
0
0
0
0
0
0
0
0
0
0
0
0
0
0
0
0
0
0
0
0
0
0
0
0
0
0
0
0
0
0
0
0
0
0
0
0
0
0
0
0
0
0
0
0
0
0
0
0
0
0
0
0
0
0
0
0
0
0
0
0
0
0
0
0
0
0
0
0
0
0
0
0
0
0
0
0
0
0
0
0
0
0
0
0
0
0
0
0
0
0
0
0
0
0
0
0
0
0
0
0
0
0
0
0
0
0
0
0
0
0
0
0
0
0
0
0
0
0
0
0
0
0
0
0
0
0
0
0
0
0
0
0
0
0
0
0
0
0
0
0
0
0
0
0
0
0
0
0
0
0
0
0
0
0
0
0
0
0
0
0
0
0
0
0
0
0
0
0
0
0
0
0
0
0
0
0
0
0
0
0
0
0
0
0
0
0
0
0
0
0
0
0
0
0
0
0
0
0
0
0
0
0
0
0
0
0
0
0
0
0
0
0
0
0
0
0
0
0
0
0
0
0
0
0
0
0
0
0
0
0
0
0
0
0
0
0
0
0
0
0
0
0
0
0
0
0
0
0
0
0
0
0
0
0
0
0
0
0
0
0
0
0
0
0
0
0
0
0
0
0
0
0
0
0
0
0
0
0
0
0
0
0
0
0
0
0
0
0
0
0
0
0
0
0
0
0
0
0
0
0
0
0
0
0
0
0
0
0
0
0
0
0
0
0
0
0
0
0
0
0
0
0
0
0
0
0
0
0
0
0
0
0
0
0
0
0
0
0
0
0
0
0
0
0
0
0
0
0
0
0
0
0
0
0
0
0
0
0
0
0
0
0
0
0
1.09714e-06
1.05224e-06
9.84186e-07
9.46548e-07
9.17802e-07
1.342e-06
1.28413e-06
1.22373e-06
1.16773e-06
1.12104e-06
1.0589e-06
1.00338e-06
9.55789e-07
1.45848e-06
1.41899e-06
1.35164e-06
1.29548e-06
1.24278e-06
1.18477e-06
1.11968e-06
1.05734e-06
9.96182e-07
1.59259e-06
1.53736e-06
1.50577e-06
1.44583e-06
1.38368e-06
1.32154e-06
1.25589e-06
1.18578e-06
1.11639e-06
1.04521e-06
1.72063e-06
1.6644e-06
1.60929e-06
1.54599e-06
1.47789e-06
1.40758e-06
1.33457e-06
1.25855e-06
1.18197e-06
1.10297e-06
1.84268e-06
1.77954e-06
1.72045e-06
1.65308e-06
1.57891e-06
1.50111e-06
1.42117e-06
1.33918e-06
1.25569e-06
1.16949e-06
1.97025e-06
1.90176e-06
1.83913e-06
1.76769e-06
1.68738e-06
1.60247e-06
1.51622e-06
1.42879e-06
1.35204e-06
1.25198e-06
2.10077e-06
2.02903e-06
1.96483e-06
1.89015e-06
1.80373e-06
1.71207e-06
1.62045e-06
1.52898e-06
1.44142e-06
2.23159e-06
2.16282e-06
2.0959e-06
2.01584e-06
1.92642e-06
1.83336e-06
1.73715e-06
1.63392e-06
0
0
0
0
0
0
0
0
0
0
0
0
0
0
0
0
0
0
0
0
0
0
0
0
0
0
0
0
0
0
0
0
0
0
0
0
0
0
0
0
0
0
0
0
0
0
0
0
0
0
0
0
0
0
0
0
0
0
0
0
0
0
0
0
0
0
0
0
0
0
0
0
0
0
0
0
0
0
0
0
0
0
0
0
0
0
0
0
0
0
0
0
0
0
0
0
0
0
0
0
0
0
0
0
0
0
0
0
0
0
0
0
0
0
0
0
0
0
0
0
0
0
0
0
0
0
0
0
0
0
0
0
0
0
0
0
0
0
0
0
0
0
0
0
0
0
0
0
0
0
0
0
0
0
0
0
0
0
0
0
0
0
0
0
0
0
0
0
0
0
0
0
0
0
0
0
0
0
0
0
0
0
0
0
0
0
0
0
0
0
0
0
0
0
0
0
0
0
0
0
0
0
0
0
0
0
0
0
0
0
0
0
0
0
0
0
0
0
0
0
0
0
0
0
0
0
0
0
0
0
0
0
0
0
0
0
0
0
0
0
0
0
0
0
0
0
0
0
0
0
0
0
0
0
0
0
0
0
0
0
0
0
0
0
0
0
0
0
0
0
0
0
0
0
0
0
0
0
0
0
0
0
0
0
0
0
0
0
0
0
0
0
0
0
0
0
0
0
0
0
0
0
0
0
0
0
0
0
0
0
0
0
0
0
0
0
0
0
0
0
0
0
0
0
0
0
0
0
0
0
0
0
0
0
0
0
0
0
0
0
0
0
0
0
0
0
0
0
0
0
0
0
0
0
0
0
0
0
0
0
0
0
0
0
0
0
0
0
0
0
0
0
0
0
0
0
0
0
0
0
0
0
0
0
0
0
0
0
0
0
0
0
0
0
0
0
0
0
0
0
0
0
0
0
0
0
0
0
0
0
0
0
0
0
0
0
0
0
0
0
0
0
0
0
0
0
0
0
0
0
0
0
0
0
0
0
0
0
0
0
0
0
0
0
0
0
0
0
0
0
0
0
0
0
0
0
0
0
0
0
0
0
0
0
0
0
0
0
0
0
0
0
0
0
0
0
0
0
0
0
0
0
0
0
0
0
0
0
0
0
0
0
0
0
0
0
0
0
0
0
0
0
0
0
0
0
0
0
0
0
0
0
0
0
0
0
0
0
0
0
0
0
0
0
0
0
0
0
0
0
0
0
0
0
0
0
0
0
0
0
0
0
0
0
0
0
0
0
0
0
0
0
0
0
0
0
0
0
0
0
0
0
0
0
0
0
0
0
0
0
0
0
0
0
0
0
0
0
0
0
0
0
0
0
0
0
0
0
0
0
0
0
0
0
0
0
0
0
0
0
0
0
0
0
0
0
0
0
0
0
0
0
0
0
0
0
0
0
0
0
0
0
0
0
0
0
0
0
0
0
0
0
0
0
0
0
0
0
0
0
0
0
0
0
0
0
0
0
0
0
0
0
0
0
0
0
0
0
0
0
0
0
0
0
0
0
0
0
0
0
0
0
0
0
0
0
0
0
0
0
0
0
0
0
0
0
0
0
0
0
0
0
0
0
0
0
0
0
0
0
0
0
0
0
0
0
0
0
0
0
0
0
0
0
0
0
0
0
0
0
0
0
0
0
0
0
0
0
0
0
0
0
0
0
0
0
0
0
0
0
0
0
0
0
0
0
0
0
0
0
0
0
0
0
0
0
0
0
0
0
0
0
0
0
0
0
0
0
0
0
0
0
0
0
0
0
0
0
0
0
0
0
0
0
0
0
0
0
0
0
0
0
0
0
0
0
0
0
0
0
0
0
0
0
0
0
0
0
0
0
0
0
0
0
0
0
0
0
0
0
0
0
0
0
0
0
0
0
0
0
0
0
0
0
0
0
0
0
0
0
0
0
0
0
0
0
0
0
0
0
0
0
0
0
0
0
0
0
0
0
0
0
0
0
0
0
0
0
0
0
0
0
0
0
0
0
0
0
0
0
0
0
0
0
0
0
0
0
0
0
0
0
0
0
0
0
0
0
0
0
0
0
0
0
0
0
0
0
0
0
0
0
0
0
0
0
0
0
0
0
0
0
0
0
0
0
0
0
0
0
0
0
0
0
0
0
0
0
0
0
0
0
0
0
0
0
0
0
0
0
0
0
0
0
0
0
0
0
0
0
0
0
0
0
0
0
0
0
0
0
0
0
0
0
0
0
0
0
0
0
0
0
0
0
0
0
0
0
0
0
0
0
0
0
0
0
0
0
0
0
0
0
0
0
0
0
0
0
0
0
0
0
0
0
0
0
0
0
0
0
0
0
0
0
0
0
0
0
0
0
0
0
0
0
0
0
0
0
0
0
0
0
0
0
0
0
0
0
0
0
0
0
0
0
0
0
0
0
0
0
0
0
0
0
0
0
0
0
0
0
0
0
0
0
0
0
0
0
0
0
0
0
0
0
0
0
0
0
0
0
0
0
0
0
0
0
0
0
0
0
0
0
0
0
0
0
0
0
0
0
0
0
0
0
0
0
0
0
0
0
0
0
0
0
0
0
0
0
0
0
0
0
0
0
0
0
0
0
0
0
0
0
0
0
0
0
0
0
0
0
0
0
0
0
0
0
0
0
0
0
0
0
0
0
0
0
0
0
0
0
0
0
0
0
0
0
0
0
0
0
0
0
0
0
0
0
0
0
0
0
0
0
0
0
0
0
0
0
0
0
0
0
0
0
0
0
0
0
0
0
0
0
0
0
0
0
0
0
0
0
0
0
0
0
0
0
0
0
0
0
0
0
0
0
0
0
0
0
0
0
0
0
0
0
0
0
0
0
0
0
0
0
0
0
0
0
0
0
0
0
0
0
0
0
0
0
0
0
0
0
0
0
0
0
0
0
0
0
0
0
0
0
0
0
0
0
0
0
0
0
0
0
0
0
0
0
0
0
0
0
0
0
0
0
0
0
0
0
0
0
0
0
0
0
0
0
0
0
0
0
0
0
0
0
0
0
0
0
0
0
0
0
0
0
0
0
0
0
0
0
0
0
0
0
0
0
0
0
0
0
0
0
0
0
0
0
0
0
0
0
0
0
0
0
0
0
0
0
0
0
0
0
0
0
0
0
0
0
0
0
0
0
0
0
0
0
0
0
0
0
0
0
0
0
0
0
0
0
0
0
0
0
0
0
0
0
0
0
0
0
0
0
0
0
0
0
0
0
0
0
0
0
0
0
0
0
0
0
0
0
0
0
0
0
0
0
0
0
0
0
0
0
0
0
0
0
0
0
0
0
0
0
0
0
0
0
0
0
0
0
0
0
0
0
0
0
0
0
0
0
0
0
0
0
0
0
0
0
0
0
0
0
0
0
0
0
0
0
0
0
0
0
0
0
0
0
0
0
0
0
0
0
0
0
0
0
0
0
0
0
0
0
0
0
0
0
0
0
0
0
0
0
0
0
0
0
0
0
0
0
0
0
0
0
0
0
0
0
0
0
0
0
0
0
0
0
0
0
0
0
0
0
0
0
0
0
0
0
0
0
0
0
0
0
0
0
0
0
0
0
0
0
0
0
0
0
0
0
0
0
5.46311e-06
5.50219e-06
5.53268e-06
5.62444e-06
5.71981e-06
5.57957e-06
5.56959e-06
5.55429e-06
5.55428e-06
5.56586e-06
5.56817e-06
5.60397e-06
5.66086e-06
5.68291e-06
5.69056e-06
5.6651e-06
5.6591e-06
5.65531e-06
5.64019e-06
5.62163e-06
5.62165e-06
5.6245e-06
5.82863e-06
5.81015e-06
5.85742e-06
5.82697e-06
5.79479e-06
5.7607e-06
5.72003e-06
5.67674e-06
5.64311e-06
5.60258e-06
6.10857e-06
6.0721e-06
6.03838e-06
5.9914e-06
5.9358e-06
5.87418e-06
5.80708e-06
5.7375e-06
5.67166e-06
5.5971e-06
6.32783e-06
6.27219e-06
6.22356e-06
6.16027e-06
6.08291e-06
5.99553e-06
5.90243e-06
5.80697e-06
5.71131e-06
5.60772e-06
6.5502e-06
6.47504e-06
6.41261e-06
6.33459e-06
6.23691e-06
6.12502e-06
6.00711e-06
5.88758e-06
5.79146e-06
5.64815e-06
6.76871e-06
6.67567e-06
6.6041e-06
6.51488e-06
6.39857e-06
6.2634e-06
6.12252e-06
5.98099e-06
5.85431e-06
6.97658e-06
6.89449e-06
6.80904e-06
6.68751e-06
6.55173e-06
6.41783e-06
6.2753e-06
6.09847e-06
SCALARS F_MC double 1
LOOKUP_TABLE default
-0.000654845
-0.000633649
-0.00061119
-0.000586387
-0.00056077
-0.000700226
-0.000688693
-0.000677396
-0.000662452
-0.000643563
-0.000624468
-0.00060276
-0.000578925
-0.000720575
-0.000708026
-0.000697722
-0.000685089
-0.000670369
-0.000654192
-0.000636872
-0.000617356
-0.000597282
-0.000736807
-0.000727575
-0.000712106
-0.000702833
-0.000692378
-0.000680224
-0.000666505
-0.000651349
-0.000634178
-0.000617419
-0.00073054
-0.000723578
-0.000716666
-0.000709373
-0.000701188
-0.000691591
-0.000680428
-0.000667671
-0.000653052
-0.000638736
-0.000732196
-0.000727139
-0.000722393
-0.000717274
-0.000711484
-0.000704495
-0.000695971
-0.000685775
-0.000673769
-0.000661429
-0.000734503
-0.000731899
-0.000729336
-0.000726497
-0.000723212
-0.000718927
-0.000713161
-0.000705652
-0.000694889
-0.000685445
-0.000737962
-0.00073801
-0.000737624
-0.000737036
-0.000736289
-0.000734837
-0.000732029
-0.000727228
-0.000717245
-0.000742722
-0.000742595
-0.000745006
-0.00074987
-0.00075268
-0.000751546
-0.000749009
-0.000750338
-0.00314103
-0.00312113
-0.00309817
-0.00307251
-0.00304313
-0.00318832
-0.003181
-0.0031726
-0.003159
-0.00314126
-0.00312059
-0.00309706
-0.00307038
-0.00321259
-0.00320451
-0.00319818
-0.0031893
-0.00317711
-0.00316134
-0.00314257
-0.00312062
-0.00309722
-0.00322931
-0.00322651
-0.00321864
-0.00321333
-0.00320597
-0.00319567
-0.0031821
-0.00316538
-0.00314528
-0.00312452
-0.00323621
-0.00323445
-0.0032324
-0.00322885
-0.00322324
-0.00321491
-0.00320349
-0.00318893
-0.00317096
-0.00315203
-0.00324731
-0.0032465
-0.00324638
-0.00324471
-0.00324104
-0.00323475
-0.00322551
-0.0032132
-0.00319759
-0.00317985
-0.00325817
-0.00325892
-0.00326059
-0.00326091
-0.0032593
-0.00325513
-0.00324812
-0.00323817
-0.00322361
-0.00320892
-0.00326883
-0.00327172
-0.00327504
-0.00327737
-0.0032779
-0.00327595
-0.0032713
-0.00326426
-0.00324983
-0.00327961
-0.00328317
-0.00328862
-0.00329499
-0.00329822
-0.00329686
-0.00329279
-0.00329023
0
0
0
0
0
0
0
0
0
0
0
0
0
0
0
0
0
0
0
0
0
0
0
0
0
0
0
0
0
0
0
0
0
0
0
0
0
0
0
0
0
0
0
0
0
0
0
0
0
0
0
0
0
0
0
0
0
0
0
0
0
0
0
0
0
0
0
0
0
0
0
0
0
0
0
0
0
0
0
-0.00103804
-0.00103026
-0.00102175
-0.00100905
-0.000995461
-0.00105149
-0.00104991
-0.00104812
-0.00104305
-0.0010361
-0.00102895
-0.00101957
-0.00100841
-0.00106
-0.00105663
-0.00105571
-0.00105264
-0.00104831
-0.00104322
-0.00103728
-0.00102955
-0.00102157
-0.00106628
-0.00106524
-0.00105902
-0.00105837
-0.00105699
-0.00105458
-0.00105124
-0.00104686
-0.00104087
-0.0010354
-0.00105907
-0.00106001
-0.00106098
-0.00106181
-0.00106214
-0.00106165
-0.00106016
-0.00105754
-0.00105344
-0.00104968
-0.00105876
-0.00106095
-0.00106354
-0.00106596
-0.00106807
-0.00106952
-0.00107
-0.00106927
-0.00106713
-0.00106458
-0.00105846
-0.00106255
-0.00106673
-0.00107077
-0.00107473
-0.00107821
-0.00108074
-0.00108201
-0.00107944
-0.00107984
-0.0010585
-0.00106499
-0.00107065
-0.00107624
-0.00108206
-0.00108767
-0.0010924
-0.00109582
-0.00109479
-0.00106011
-0.00106633
-0.00107389
-0.00108384
-0.0010923
-0.00109758
-0.00110185
-0.00110932
-0.00169596
-0.00168181
-0.00166007
-0.00163571
-0.00161133
-0.00175373
-0.00174543
-0.00173625
-0.00172214
-0.00170622
-0.00168757
-0.00166622
-0.00164279
-0.00178504
-0.00177796
-0.00176903
-0.0017586
-0.00174681
-0.00173268
-0.00171558
-0.00169582
-0.00167462
-0.0018174
-0.00180985
-0.00180062
-0.00179297
-0.00178377
-0.00177295
-0.00175995
-0.00174435
-0.0017261
-0.0017068
-0.00183267
-0.00182795
-0.00182348
-0.00181725
-0.00180932
-0.00179966
-0.00178796
-0.00177386
-0.00175714
-0.00173911
-0.00185395
-0.0018498
-0.00184673
-0.00184189
-0.00183527
-0.0018269
-0.00181663
-0.00180412
-0.00178899
-0.00177171
-0.00187462
-0.00187197
-0.00187031
-0.00186688
-0.00186161
-0.00185464
-0.00184595
-0.00183516
-0.00182074
-0.00180532
-0.00189463
-0.00189429
-0.0018942
-0.00189221
-0.00188829
-0.00188282
-0.00187589
-0.00186698
-0.00185351
-0.00191551
-0.0019154
-0.00191698
-0.00191896
-0.00191753
-0.00191174
-0.0019039
-0.00189775
-0.00323695
-0.00322883
-0.00321768
-0.00320378
-0.00318695
-0.00325879
-0.00325921
-0.00325778
-0.00325167
-0.00324377
-0.00323382
-0.00322223
-0.00320819
-0.00327489
-0.00327254
-0.00327277
-0.00327065
-0.00326657
-0.00326012
-0.00325164
-0.00324123
-0.00322996
-0.00328586
-0.00328695
-0.00328524
-0.00328554
-0.00328462
-0.00328189
-0.00327702
-0.00327008
-0.00326105
-0.00325188
-0.00329123
-0.00329407
-0.00329682
-0.00329857
-0.00329902
-0.00329773
-0.00329445
-0.00328913
-0.00328166
-0.00327379
-0.003301
-0.00330432
-0.00330862
-0.00331187
-0.0033138
-0.00331405
-0.00331239
-0.00330877
-0.00330304
-0.0032958
-0.00331028
-0.00331496
-0.00332067
-0.00332544
-0.00332893
-0.00333078
-0.00333082
-0.00332899
-0.00332313
-0.00331893
-0.00331908
-0.00332599
-0.00333296
-0.00333923
-0.00334432
-0.00334785
-0.00334969
-0.00334987
-0.00334484
-0.00332861
-0.00333628
-0.00334481
-0.00335424
-0.00336146
-0.00336536
-0.00336746
-0.00337029
0
0
0
0
0
0
0
0
0
0
0
0
0
0
0
0
0
0
0
0
0
0
0
0
0
0
0
0
0
0
0
0
0
0
0
0
0
0
0
0
0
0
0
0
0
0
0
0
0
0
0
0
0
0
0
0
0
0
0
0
0
0
0
0
0
0
0
0
0
0
0
0
0
0
0
0
0
0
0
-0.00141574
-0.0014213
-0.00142709
-0.0014254
-0.00142342
-0.00139507
-0.00140454
-0.00141304
-0.00141757
-0.00142054
-0.00142507
-0.00142827
-0.00142946
-0.00139193
-0.00139729
-0.00140647
-0.00141311
-0.00141879
-0.00142412
-0.00142929
-0.00143339
-0.00143704
-0.00138909
-0.00139537
-0.00139856
-0.00140654
-0.0014142
-0.00142122
-0.00142776
-0.00143389
-0.00143905
-0.00144448
-0.00138079
-0.00138916
-0.00139786
-0.00140672
-0.00141545
-0.00142375
-0.00143155
-0.00143878
-0.00144513
-0.00145163
-0.00137841
-0.00138741
-0.00139712
-0.00140695
-0.00141681
-0.00142639
-0.00143548
-0.00144393
-0.00145154
-0.00145863
-0.00137544
-0.00138573
-0.00139639
-0.00140721
-0.00141823
-0.00142913
-0.00143954
-0.00144928
-0.00145506
-0.00146506
-0.00137213
-0.00138427
-0.00139575
-0.00140749
-0.00141969
-0.00143194
-0.00144373
-0.00145478
-0.00146277
-0.00137056
-0.00138226
-0.00139465
-0.0014093
-0.00142324
-0.00143506
-0.0014463
-0.00145968
-0.00170991
-0.00170893
-0.00170131
-0.00169258
-0.00168392
-0.00172611
-0.00172869
-0.001729
-0.00172422
-0.00172019
-0.00171506
-0.00170809
-0.00169994
-0.00174008
-0.00174106
-0.00174063
-0.00173896
-0.00173719
-0.00173464
-0.00173024
-0.00172427
-0.00171758
-0.00175788
-0.00175609
-0.00175437
-0.00175442
-0.00175351
-0.00175209
-0.00174981
-0.00174608
-0.00174089
-0.00173538
-0.00176442
-0.00176592
-0.00176794
-0.00176869
-0.00176844
-0.00176747
-0.00176565
-0.00176257
-0.00175813
-0.00175315
-0.00177821
-0.00177952
-0.0017821
-0.00178347
-0.00178381
-0.00178338
-0.00178214
-0.00177977
-0.00177606
-0.00177106
-0.0017915
-0.00179368
-0.00179681
-0.00179875
-0.00179964
-0.00179981
-0.00179927
-0.00179769
-0.00179348
-0.00178987
-0.00180429
-0.00180825
-0.00181202
-0.00181451
-0.00181591
-0.00181674
-0.00181706
-0.00181658
-0.0018137
-0.00181886
-0.00182246
-0.00182683
-0.00183181
-0.00183473
-0.00183501
-0.00183424
-0.00183407
-0.00333344
-0.00333681
-0.00333516
-0.00333481
-0.00333242
-0.00332785
-0.00333672
-0.00334259
-0.00334463
-0.00334657
-0.0033477
-0.00334833
-0.00334712
-0.00333607
-0.00333953
-0.0033469
-0.00335176
-0.00335599
-0.00335912
-0.00336125
-0.00336266
-0.00336366
-0.00334123
-0.00334623
-0.00335095
-0.00335714
-0.0033629
-0.00336797
-0.00337207
-0.00337522
-0.00337754
-0.00338013
-0.00334496
-0.0033525
-0.00336027
-0.00336755
-0.00337429
-0.00338031
-0.00338544
-0.00338967
-0.00339301
-0.00339635
-0.0033534
-0.00336091
-0.00336979
-0.00337816
-0.00338594
-0.00339298
-0.0033992
-0.00340457
-0.00340905
-0.00341248
-0.00336108
-0.0033697
-0.00337956
-0.00338898
-0.00339782
-0.00340595
-0.00341333
-0.00341992
-0.0034232
-0.00342972
-0.00336804
-0.00337886
-0.00338956
-0.00339998
-0.00340987
-0.00341914
-0.00342777
-0.0034355
-0.00344006
-0.00337628
-0.00338785
-0.0033994
-0.00341191
-0.00342334
-0.00343301
-0.00344193
-0.00345075
-0.000176028
-0.000189198
-0.000197445
-0.000205313
-0.000211276
-0.000139176
-0.000153407
-0.000166619
-0.000174412
-0.000182429
-0.000193249
-0.000201669
-0.000208667
-0.000128554
-0.000140032
-0.000151414
-0.000161065
-0.000170644
-0.000181137
-0.000191525
-0.00020049
-0.000208775
-0.000126565
-0.000133361
-0.000138916
-0.000149418
-0.000159388
-0.000169319
-0.000179678
-0.000189887
-0.000199155
-0.000208218
-0.00011684
-0.000126496
-0.000137135
-0.000147494
-0.000157594
-0.000167737
-0.000178086
-0.00018825
-0.000197716
-0.000206944
-0.000115705
-0.00012499
-0.000135401
-0.000145573
-0.000155705
-0.00016599
-0.000176396
-0.000186585
-0.000196188
-0.000205135
-0.000113824
-0.000123463
-0.000133668
-0.000143625
-0.000153723
-0.000164129
-0.000174634
-0.00018488
-0.000192167
-0.000202256
-0.000111337
-0.000121943
-0.000131944
-0.00014163
-0.000151649
-0.000162196
-0.000172837
-0.000183547
-0.000193129
-0.000111495
-0.000119961
-0.00012952
-0.00014112
-0.000152065
-0.000161296
-0.000170053
-0.000180401
-0.00024534
-0.000261874
-0.000273929
-0.00028566
-0.000295194
-0.000196988
-0.000214143
-0.000230133
-0.000241015
-0.000252305
-0.000266483
-0.000278507
-0.000289156
-0.00018159
-0.000195603
-0.000209826
-0.000222298
-0.000234736
-0.000248188
-0.000261727
-0.000274047
-0.000285751
-0.000175365
-0.000184398
-0.000192447
-0.000205448
-0.000218006
-0.000230603
-0.000243739
-0.00025689
-0.000269287
-0.00028155
-0.00016392
-0.00017564
-0.000188428
-0.000201047
-0.000213505
-0.000226097
-0.000239012
-0.000251899
-0.000264265
-0.000276484
-0.00016092
-0.000172036
-0.000184359
-0.000196553
-0.000208805
-0.000221306
-0.000234045
-0.000246721
-0.000258991
-0.000270724
-0.000157109
-0.000168325
-0.000180195
-0.000191933
-0.00020391
-0.000216284
-0.000228867
-0.00024135
-0.000250954
-0.000263624
-0.000152629
-0.000164534
-0.000175942
-0.00018717
-0.000198824
-0.000211076
-0.000223516
-0.000236212
-0.000248075
-0.000150867
-0.000160424
-0.000170907
-0.000183508
-0.000195834
-0.000206845
-0.000217471
-0.000229342
0
0
0
0
0
0
0
0
0
0
0
0
0
0
0
0
0
0
0
0
0
0
0
0
0
0
0
0
0
0
0
0
0
0
0
0
0
0
0
0
0
0
0
0
0
0
0
0
0
0
0
0
0
0
0
0
0
0
0
0
0
0
0
0
0
0
0
0
0
0
0
0
0
0
0
0
0
0
0
-0.00340446
-0.00341586
-0.00342317
-0.00343273
-0.00344075
-0.0033785
-0.00339316
-0.00340438
-0.0034131
-0.00342285
-0.00343231
-0.00344216
-0.00345114
-0.00338116
-0.00338863
-0.00340136
-0.00341165
-0.00342218
-0.00343249
-0.0034426
-0.00345295
-0.0034635
-0.00338164
-0.00338979
-0.00339905
-0.00340973
-0.00342061
-0.00343159
-0.00344245
-0.00345321
-0.00346411
-0.00347575
-0.00338418
-0.00339518
-0.00340669
-0.00341817
-0.00342971
-0.00344126
-0.00345274
-0.00346418
-0.00347569
-0.00348771
-0.00339148
-0.00340215
-0.00341448
-0.00342673
-0.00343896
-0.00345116
-0.00346333
-0.00347549
-0.00348771
-0.00349951
-0.00339797
-0.00340947
-0.00342247
-0.00343543
-0.00344835
-0.00346125
-0.00347417
-0.00348713
-0.00349757
-0.00351219
-0.00340371
-0.00341709
-0.00343065
-0.00344424
-0.00345782
-0.00347146
-0.00348523
-0.00349879
-0.00351064
-0.00341096
-0.00342485
-0.00343854
-0.00345345
-0.00346823
-0.00348241
-0.00349658
-0.00351035
-0.00172803
-0.00174372
-0.00175403
-0.0017643
-0.00177529
-0.00169225
-0.00170701
-0.00171879
-0.0017277
-0.00173912
-0.00175076
-0.00176199
-0.00177343
-0.00168562
-0.00169605
-0.00170666
-0.0017164
-0.00172719
-0.00173875
-0.00175009
-0.00176143
-0.00177329
-0.0016846
-0.0016905
-0.00169814
-0.00170796
-0.0017177
-0.00172805
-0.00173897
-0.00174998
-0.00176118
-0.00177322
-0.00168133
-0.00169024
-0.00170028
-0.00170989
-0.00171942
-0.00172937
-0.00173979
-0.00175046
-0.0017614
-0.00177306
-0.00168574
-0.00169355
-0.0017032
-0.00171247
-0.00172168
-0.00173123
-0.00174124
-0.00175156
-0.00176218
-0.00177295
-0.00168994
-0.00169765
-0.00170685
-0.0017157
-0.00172449
-0.00173367
-0.00174333
-0.00175334
-0.00176203
-0.00177317
-0.00169394
-0.00170244
-0.00171119
-0.00171955
-0.00172787
-0.00173671
-0.00174613
-0.00175606
-0.00176602
-0.00170045
-0.00170779
-0.00171538
-0.0017243
-0.00173317
-0.00174153
-0.00174986
-0.00175807
-0.00206606
-0.00209027
-0.00211394
-0.00213984
-0.00216197
-0.00198714
-0.00201419
-0.0020394
-0.00206263
-0.00208559
-0.00210998
-0.0021347
-0.00215802
-0.0019649
-0.00198487
-0.00201174
-0.00203541
-0.00205879
-0.00208234
-0.00210659
-0.00213109
-0.00215526
-0.00194607
-0.00196547
-0.00198432
-0.00200726
-0.0020307
-0.00205423
-0.00207798
-0.0021022
-0.00212664
-0.00215131
-0.00193595
-0.0019571
-0.00197903
-0.00200176
-0.00202506
-0.00204865
-0.00207253
-0.00209678
-0.00212125
-0.0021459
-0.00193002
-0.00195074
-0.0019726
-0.00199517
-0.00201838
-0.00204201
-0.00206597
-0.00209025
-0.00211478
-0.00213905
-0.00192256
-0.00194335
-0.00196507
-0.00198749
-0.00201062
-0.00203424
-0.00205823
-0.00208255
-0.00210333
-0.00212987
-0.00191374
-0.00193506
-0.0019565
-0.0019787
-0.00200172
-0.00202529
-0.00204925
-0.00207337
-0.00209651
-0.00190628
-0.00192612
-0.00194616
-0.00196867
-0.0019923
-0.00201587
-0.00203951
-0.00206356
-0.000521228
-0.000549625
-0.000576958
-0.000604513
-0.000629733
-0.000427192
-0.00045509
-0.00048162
-0.000506317
-0.000531968
-0.000559093
-0.000585647
-0.000611387
-0.000392844
-0.00041677
-0.000442542
-0.000466598
-0.000490939
-0.000516247
-0.000542168
-0.000568002
-0.000593723
-0.000368968
-0.000387369
-0.000405721
-0.000428712
-0.000451841
-0.000475384
-0.000499674
-0.000524517
-0.000549519
-0.000574875
-0.000351525
-0.00037144
-0.000392776
-0.000414454
-0.000436493
-0.000459065
-0.00048231
-0.000506091
-0.00053017
-0.000554648
-0.000340993
-0.000359418
-0.000379371
-0.000399696
-0.000420542
-0.000442029
-0.00046418
-0.00048687
-0.000509927
-0.000533155
-0.000329461
-0.000346913
-0.000365472
-0.000384406
-0.000403984
-0.000424308
-0.000445306
-0.000466849
-0.000485773
-0.000508876
-0.000317078
-0.000333969
-0.000351089
-0.00036857
-0.000386823
-0.000405934
-0.000425712
-0.000446235
-0.000467069
-0.000307056
-0.00032082
-0.000335015
-0.000351816
-0.000369914
-0.000388113
-0.000406182
-0.000424547
-0.00349576
-0.0035164
-0.00353591
-0.00355886
-0.00358174
-0.00344357
-0.00346494
-0.003483
-0.00350119
-0.00352153
-0.00354194
-0.00356418
-0.00358733
-0.00343951
-0.0034517
-0.00347139
-0.00348901
-0.00350778
-0.00352734
-0.00354793
-0.00357015
-0.00359386
-0.00343326
-0.00344596
-0.00346064
-0.00347728
-0.00349499
-0.00351372
-0.00353335
-0.00355408
-0.00357632
-0.00360038
-0.00343443
-0.00344973
-0.0034661
-0.00348312
-0.00350101
-0.0035198
-0.00353954
-0.00356042
-0.00358272
-0.00360666
-0.00344003
-0.00345476
-0.00347158
-0.00348895
-0.00350706
-0.00352599
-0.00354589
-0.00356693
-0.00358936
-0.00361277
-0.00344501
-0.00346
-0.00347713
-0.00349479
-0.00351311
-0.00353224
-0.00355235
-0.0035736
-0.00359369
-0.00361913
-0.00344935
-0.00346544
-0.00348274
-0.00350062
-0.00351913
-0.00353848
-0.00355887
-0.00358003
-0.00360157
-0.00345497
-0.00347101
-0.00348756
-0.00350589
-0.00352528
-0.00354531
-0.00356609
-0.00358668
-0.00173999
-0.00176549
-0.00179043
-0.00181727
-0.00184529
-0.00166286
-0.00168605
-0.00170667
-0.00172816
-0.00175235
-0.00177702
-0.00180292
-0.0018304
-0.00164049
-0.00165786
-0.00167749
-0.00169675
-0.00171761
-0.00174006
-0.00176372
-0.00178892
-0.00181596
-0.00162351
-0.00163616
-0.0016512
-0.00166887
-0.00168731
-0.00170707
-0.00172829
-0.00175091
-0.00177518
-0.00180161
-0.00161342
-0.00162787
-0.00164423
-0.00166095
-0.0016784
-0.00169704
-0.00171708
-0.0017386
-0.00176181
-0.00178715
-0.00161021
-0.00162286
-0.00163812
-0.00165375
-0.00167011
-0.0016876
-0.00170647
-0.00172685
-0.00174892
-0.00177273
-0.00160712
-0.00161878
-0.00163284
-0.00164729
-0.00166248
-0.00167881
-0.00169651
-0.00171572
-0.00173475
-0.00175775
-0.00160415
-0.00161553
-0.00162837
-0.00164158
-0.00165554
-0.00167071
-0.00168729
-0.00170528
-0.00172516
-0.00160368
-0.00161322
-0.00162343
-0.0016358
-0.00164965
-0.00166436
-0.00167963
-0.00169504
-0.00243607
-0.00247075
-0.00250689
-0.00254587
-0.00258242
-0.00232533
-0.00236114
-0.00239512
-0.00243011
-0.00246655
-0.00250227
-0.002539
-0.0025753
-0.00229334
-0.00232142
-0.00235815
-0.00239149
-0.00242517
-0.00245934
-0.00249447
-0.00253047
-0.00256669
-0.00226516
-0.00229256
-0.00231979
-0.00235123
-0.00238369
-0.00241677
-0.00245049
-0.00248504
-0.00252042
-0.00255642
-0.00225425
-0.00228267
-0.00231209
-0.00234269
-0.00237433
-0.00240676
-0.00243992
-0.00247389
-0.00250868
-0.00254406
-0.00224644
-0.00227387
-0.00230262
-0.00233244
-0.0023633
-0.00239504
-0.00242758
-0.00246091
-0.00249508
-0.00252959
-0.00223662
-0.0022634
-0.00229141
-0.00232043
-0.00235051
-0.00238151
-0.00241335
-0.00244602
-0.00247553
-0.00251161
-0.00222495
-0.00225137
-0.00227849
-0.00230665
-0.0023359
-0.00236607
-0.00239714
-0.00242853
-0.00246009
-0.00221346
-0.00223759
-0.00226215
-0.0022896
-0.002319
-0.00234914
-0.00237957
-0.00240994
0
0
0
0
0
0
0
0
0
0
0
0
0
0
0
0
0
0
0
0
0
0
0
0
0
0
0
0
0
0
0
0
0
0
0
0
0
0
0
0
0
0
0
0
0
0
0
0
0
0
0
0
0
0
0
0
0
0
0
0
0
0
0
0
0
0
0
0
0
0
0
0
0
0
0
0
0
0
0
-0.000796293
-0.00083567
-0.000877622
-0.000921338
-0.000963539
-0.000655715
-0.000694064
-0.000731275
-0.000770766
-0.00081199
-0.000852442
-0.000893241
-0.000934
-0.000603263
-0.000637244
-0.000674679
-0.000710433
-0.000746864
-0.00078443
-0.000823053
-0.000862385
-0.000902277
-0.000561458
-0.000589585
-0.000618135
-0.000651293
-0.000685154
-0.000719852
-0.000755616
-0.000792436
-0.000830161
-0.00086889
-0.000537987
-0.000566132
-0.00059619
-0.000627111
-0.000658912
-0.000691693
-0.00072556
-0.000760512
-0.000796481
-0.000833538
-0.000519951
-0.000545679
-0.000573427
-0.000602049
-0.000631678
-0.000662399
-0.000694258
-0.00072724
-0.000761294
-0.000796321
-0.00050067
-0.000524387
-0.0005498
-0.000576074
-0.000603443
-0.00063199
-0.000661716
-0.000692609
-0.000721137
-0.00075495
-0.000480322
-0.000502308
-0.000525325
-0.000549193
-0.000574233
-0.000600502
-0.00062795
-0.000656284
-0.000685964
-0.000461323
-0.000479202
-0.000497718
-0.000519469
-0.000543586
-0.000568653
-0.000593726
-0.000618879
0
0
0
0
0
0
0
0
0
0
0
0
0
0
0
0
0
0
0
0
0
0
0
0
0
0
0
0
0
0
0
0
0
0
0
0
0
0
0
0
0
0
0
0
0
0
0
0
0
0
0
0
0
0
0
0
0
0
0
0
0
0
0
0
0
0
0
0
0
0
0
0
0
0
0
0
0
0
0
-0.00358194
-0.00361102
-0.00364194
-0.0036781
-0.00371591
-0.00350489
-0.00353224
-0.00355678
-0.00358422
-0.00361492
-0.00364577
-0.00368002
-0.00371731
-0.00349473
-0.00351118
-0.00353731
-0.0035619
-0.00358851
-0.00361686
-0.00364746
-0.00368118
-0.00371806
-0.00348163
-0.00349893
-0.00351839
-0.0035407
-0.00356489
-0.00359097
-0.00361892
-0.00364918
-0.00368235
-0.00371888
-0.00348162
-0.0035007
-0.00352165
-0.00354393
-0.00356783
-0.00359349
-0.00362105
-0.00365091
-0.00368358
-0.00371946
-0.00348552
-0.00350377
-0.00352482
-0.00354704
-0.00357071
-0.00359601
-0.0036232
-0.00365264
-0.00368484
-0.00371985
-0.00348897
-0.00350693
-0.00352793
-0.00355006
-0.0035735
-0.00359849
-0.00362534
-0.00365439
-0.00368369
-0.00371975
-0.00349188
-0.00351017
-0.003531
-0.00355296
-0.00357614
-0.00360085
-0.00362744
-0.00365554
-0.00368625
-0.00349541
-0.00351318
-0.00353263
-0.00355449
-0.00357822
-0.00360343
-0.00362999
-0.00365695
-0.00174731
-0.00178235
-0.00182095
-0.00186439
-0.00190998
-0.00162935
-0.00166085
-0.00169025
-0.00172409
-0.00176098
-0.00179819
-0.00183835
-0.00188218
-0.00159127
-0.00161522
-0.00164361
-0.00167229
-0.00170325
-0.00173649
-0.00177215
-0.00181095
-0.00185333
-0.0015578
-0.0015774
-0.00159962
-0.00162501
-0.00165205
-0.00168115
-0.00171254
-0.00174654
-0.00178368
-0.00182463
-0.00154125
-0.00156092
-0.00158349
-0.00160719
-0.00163242
-0.00165963
-0.00168914
-0.00172133
-0.00175665
-0.00179582
-0.00153035
-0.00154754
-0.0015683
-0.00159016
-0.0016135
-0.00163876
-0.00166633
-0.00169659
-0.00172997
-0.00176702
-0.00151986
-0.00153517
-0.00155402
-0.00157397
-0.00159534
-0.0016186
-0.00164418
-0.00167242
-0.00170162
-0.00173648
-0.0015098
-0.00152375
-0.00154069
-0.00155865
-0.001578
-0.00159925
-0.00162281
-0.00164852
-0.00167811
-0.00150177
-0.00151323
-0.00152637
-0.00154248
-0.00156114
-0.00158151
-0.00160295
-0.00162526
-0.00281002
-0.00285504
-0.00290306
-0.00295472
-0.00300613
-0.00266779
-0.00271246
-0.00275544
-0.00280169
-0.00285098
-0.00289796
-0.0029469
-0.00299672
-0.00262641
-0.00266243
-0.00270855
-0.0027517
-0.00279566
-0.00284027
-0.00288625
-0.00293391
-0.00298261
-0.00258936
-0.00262442
-0.00265959
-0.00269956
-0.00274114
-0.00278379
-0.00282739
-0.00287228
-0.00291869
-0.00296649
-0.00257762
-0.00261283
-0.00264977
-0.00268831
-0.00272841
-0.00276974
-0.00281218
-0.00285588
-0.00290103
-0.00294768
-0.00256805
-0.00260186
-0.00263752
-0.00267469
-0.00271336
-0.00275334
-0.00279452
-0.00283694
-0.00288072
-0.00292602
-0.00255599
-0.00258854
-0.00262287
-0.00265864
-0.00269587
-0.00273443
-0.00277427
-0.00281535
-0.00285372
-0.00289955
-0.00254164
-0.00257291
-0.00260581
-0.00264011
-0.00267585
-0.0027129
-0.0027513
-0.00278995
-0.00283025
-0.0025259
-0.00255444
-0.00258414
-0.00261716
-0.00265258
-0.00268895
-0.00272559
-0.00276215
-0.00168493
-0.00165538
-0.00161968
-0.00158141
-0.00154196
-0.00178327
-0.00176477
-0.00174609
-0.00172278
-0.00169474
-0.00166275
-0.00162708
-0.00158847
-0.00183282
-0.00181759
-0.00180045
-0.00178121
-0.00175924
-0.00173351
-0.00170382
-0.00167033
-0.00163456
-0.00188015
-0.00186658
-0.00184995
-0.00183472
-0.00181721
-0.00179691
-0.00177319
-0.00174577
-0.00171452
-0.00168133
-0.00190418
-0.00189323
-0.00188231
-0.00186917
-0.0018536
-0.00183523
-0.00181366
-0.00178857
-0.00175963
-0.00172842
-0.00193322
-0.00192359
-0.00191483
-0.00190384
-0.00189035
-0.0018741
-0.00185483
-0.00183219
-0.00180567
-0.00177598
-0.00196156
-0.00195397
-0.00194745
-0.00193873
-0.00192744
-0.00191343
-0.00189664
-0.00187663
-0.00185215
-0.00182484
-0.00198911
-0.00198418
-0.00198014
-0.00197382
-0.00196476
-0.00195314
-0.00193907
-0.00192166
-0.00189744
-0.00201661
-0.0020125
-0.00201109
-0.00200981
-0.00200413
-0.00199286
-0.00197872
-0.00196696
0
0
0
0
0
0
0
0
0
0
0
0
0
0
0
0
0
0
0
0
0
0
0
0
0
0
0
0
0
0
0
0
0
0
0
0
0
0
0
0
0
0
0
0
0
0
0
0
0
0
0
0
0
0
0
0
0
0
0
0
0
0
0
0
0
0
0
0
0
0
0
0
0
0
0
0
0
0
0
SCALARS F_FT double 1
LOOKUP_TABLE default
0
0
0
0
0
0
0
0
0
0
0
0
0
0
0
0
0
0
0
0
0
0
0
0
0
0
0
0
0
0
0
0
0
0
0
0
0
0
0
0
0
0
0
0
0
0
0
0
0
0
0
0
0
0
0
0
0
0
0
0
0
0
0
0
0
0
0
0
0
0
0
0
0
0
0
0
0
0
0
1.27441e-05
1.27809e-05
1.27957e-05
1.28518e-05
1.28876e-05
1.28099e-05
1.28396e-05
1.28581e-05
1.28741e-05
1.28856e-05
1.2874e-05
1.28879e-05
1.29082e-05
1.28997e-05
1.29396e-05
1.29565e-05
1.29874e-05
1.30068e-05
1.29979e-05
1.29732e-05
1.29567e-05
1.29366e-05
1.29885e-05
1.30272e-05
1.3128e-05
1.31382e-05
1.31413e-05
1.3132e-05
1.31032e-05
1.30601e-05
1.30155e-05
1.29596e-05
1.32999e-05
1.33085e-05
1.33188e-05
1.33118e-05
1.32904e-05
1.3254e-05
1.32018e-05
1.31372e-05
1.30656e-05
1.29798e-05
1.35255e-05
1.35088e-05
1.35028e-05
1.34785e-05
1.34339e-05
1.33708e-05
1.32933e-05
1.32056e-05
1.31092e-05
1.29955e-05
1.37459e-05
1.37021e-05
1.36792e-05
1.36384e-05
1.35713e-05
1.3481e-05
1.3377e-05
1.3266e-05
1.31685e-05
1.30231e-05
1.39521e-05
1.38824e-05
1.38451e-05
1.37907e-05
1.37019e-05
1.35837e-05
1.34525e-05
1.33216e-05
1.31907e-05
1.41356e-05
1.40815e-05
1.40216e-05
1.39177e-05
1.37991e-05
1.36852e-05
1.35583e-05
1.33846e-05
0
0
0
0
0
0
0
0
0
0
0
0
0
0
0
0
0
0
0
0
0
0
0
0
0
0
0
0
0
0
0
0
0
0
0
0
0
0
0
0
0
0
0
0
0
0
0
0
0
0
0
0
0
0
0
0
0
0
0
0
0
0
0
0
0
0
0
0
0
0
0
0
0
0
0
0
0
0
0
0
0
0
0
0
0
0
0
0
0
0
0
0
0
0
0
0
0
0
0
0
0
0
0
0
0
0
0
0
0
0
0
0
0
0
0
0
0
0
0
0
0
0
0
0
0
0
0
0
0
0
0
0
0
0
0
0
0
0
0
0
0
0
0
0
0
0
0
0
0
0
0
0
0
0
0
0
0
0
0
0
0
0
0
0
0
0
0
0
0
0
0
0
0
0
0
0
0
0
0
0
0
0
0
0
0
0
0
0
0
0
0
0
0
0
0
0
0
0
0
0
0
0
0
0
0
0
0
0
0
0
0
0
0
0
0
0
0
0
0
0
0
0
0
0
0
0
0
0
0
0
0
0
0
0
0
0
0
6.86434e-06
6.82094e-06
6.77186e-06
6.77434e-06
6.7681e-06
7.0533e-06
7.00969e-06
6.95815e-06
6.92085e-06
6.8918e-06
6.8368e-06
6.80322e-06
6.78005e-06
7.15106e-06
7.1137e-06
7.06318e-06
7.02725e-06
6.98991e-06
6.93818e-06
6.87926e-06
6.83134e-06
6.78809e-06
7.21983e-06
7.19133e-06
7.2e-06
7.15138e-06
7.1018e-06
7.04866e-06
6.98658e-06
6.91973e-06
6.85843e-06
6.79807e-06
7.39231e-06
7.34537e-06
7.29687e-06
7.24056e-06
7.1786e-06
7.11096e-06
7.03692e-06
6.95981e-06
6.88547e-06
6.81077e-06
7.51406e-06
7.45278e-06
7.39649e-06
7.33188e-06
7.25794e-06
7.17612e-06
7.08905e-06
7.00046e-06
6.91369e-06
6.82528e-06
7.63933e-06
7.56349e-06
7.49882e-06
7.42587e-06
7.34003e-06
7.24373e-06
7.1429e-06
7.04233e-06
6.96407e-06
6.85619e-06
7.76394e-06
7.6747e-06
7.60265e-06
7.52255e-06
7.42486e-06
7.31356e-06
7.19853e-06
7.0867e-06
6.9818e-06
7.87536e-06
7.79893e-06
7.716e-06
7.60577e-06
7.49112e-06
7.38608e-06
7.27857e-06
7.14142e-06
0
0
0
0
0
0
0
0
0
0
0
0
0
0
0
0
0
0
0
0
0
0
0
0
0
0
0
0
0
0
0
0
0
0
0
0
0
0
0
0
0
0
0
0
0
0
0
0
0
0
0
0
0
0
0
0
0
0
0
0
0
0
0
0
0
0
0
0
0
0
0
0
0
0
0
0
0
0
0
0
0
0
0
0
0
0
0
0
0
0
0
0
0
0
0
0
0
0
0
0
0
0
0
0
0
0
0
0
0
0
0
0
0
0
0
0
0
0
0
0
0
0
0
0
0
0
0
0
0
0
0
0
0
0
0
0
0
0
0
0
0
0
0
0
0
0
0
0
0
0
0
0
0
0
0
0
0
0
0
0
0
0
0
0
0
0
0
0
0
0
0
0
0
0
0
0
0
0
0
0
0
0
0
0
0
0
0
0
0
0
0
0
0
0
0
0
0
0
0
0
0
0
0
0
0
0
0
0
0
0
0
0
0
0
0
0
0
0
0
0
0
0
0
0
0
0
0
0
0
0
0
0
0
0
0
0
0
3.36499e-06
3.29671e-06
3.24206e-06
3.19566e-06
3.16032e-06
3.60423e-06
3.52786e-06
3.4495e-06
3.39868e-06
3.35297e-06
3.28467e-06
3.2345e-06
3.19392e-06
3.71223e-06
3.63694e-06
3.56567e-06
3.50533e-06
3.44817e-06
3.38379e-06
3.31787e-06
3.26307e-06
3.21587e-06
3.76774e-06
3.71567e-06
3.68089e-06
3.61237e-06
3.54796e-06
3.48514e-06
3.41904e-06
3.35309e-06
3.29478e-06
3.24226e-06
3.86443e-06
3.79973e-06
3.731e-06
3.66219e-06
3.59462e-06
3.52729e-06
3.45864e-06
3.39127e-06
3.32986e-06
3.27337e-06
3.92359e-06
3.85458e-06
3.78562e-06
3.71619e-06
3.64577e-06
3.57437e-06
3.50265e-06
3.43304e-06
3.36878e-06
3.3088e-06
3.98883e-06
3.91509e-06
3.84538e-06
3.77509e-06
3.70188e-06
3.62641e-06
3.55124e-06
3.47901e-06
3.42406e-06
3.35799e-06
4.05903e-06
3.98086e-06
3.91036e-06
3.83945e-06
3.76333e-06
3.68346e-06
3.60469e-06
3.52772e-06
3.45511e-06
4.11967e-06
4.05494e-06
3.98403e-06
3.89926e-06
3.81553e-06
3.74148e-06
3.67091e-06
3.58787e-06
0
0
0
0
0
0
0
0
0
0
0
0
0
0
0
0
0
0
0
0
0
0
0
0
0
0
0
0
0
0
0
0
0
0
0
0
0
0
0
0
0
0
0
0
0
0
0
0
0
0
0
0
0
0
0
0
0
0
0
0
0
0
0
0
0
0
0
0
0
0
0
0
0
0
0
0
0
0
0
0
0
0
0
0
0
0
0
0
0
0
0
0
0
0
0
0
0
0
0
0
0
0
0
0
0
0
0
0
0
0
0
0
0
0
0
0
0
0
0
0
0
0
0
0
0
0
0
0
0
0
0
0
0
0
0
0
0
0
0
0
0
0
0
0
0
0
0
0
0
0
0
0
0
0
0
0
0
0
0
0
0
0
0
0
0
0
0
0
0
0
0
0
0
0
0
0
0
0
0
0
0
0
0
0
0
0
0
0
0
0
0
0
0
0
0
0
0
0
0
0
0
0
0
0
0
0
0
0
0
0
0
0
0
0
0
0
0
0
0
0
0
0
0
0
0
0
0
0
0
0
0
0
0
0
0
0
0
2.22331e-06
2.14406e-06
2.09017e-06
2.05323e-06
2.01322e-06
2.45488e-06
2.38172e-06
2.31427e-06
2.26942e-06
2.21727e-06
2.15724e-06
2.11291e-06
2.07103e-06
2.57e-06
2.48875e-06
2.43113e-06
2.37813e-06
2.32504e-06
2.26624e-06
2.21074e-06
2.16484e-06
2.12308e-06
2.62386e-06
2.5781e-06
2.53712e-06
2.47724e-06
2.4239e-06
2.37149e-06
2.31687e-06
2.26493e-06
2.21952e-06
2.17787e-06
2.69845e-06
2.64117e-06
2.57995e-06
2.52361e-06
2.47165e-06
2.42072e-06
2.36933e-06
2.32043e-06
2.27656e-06
2.23595e-06
2.73491e-06
2.68006e-06
2.6236e-06
2.57114e-06
2.52147e-06
2.47245e-06
2.42377e-06
2.3776e-06
2.33585e-06
2.29721e-06
2.77538e-06
2.7214e-06
2.66917e-06
2.62065e-06
2.57371e-06
2.52669e-06
2.48035e-06
2.43678e-06
2.40121e-06
2.36664e-06
2.81989e-06
2.766e-06
2.7175e-06
2.67297e-06
2.62885e-06
2.58357e-06
2.53927e-06
2.49486e-06
2.44965e-06
2.85425e-06
2.81521e-06
2.77357e-06
2.72457e-06
2.67767e-06
2.63748e-06
2.60195e-06
2.56501e-06
0
0
0
0
0
0
0
0
0
0
0
0
0
0
0
0
0
0
0
0
0
0
0
0
0
0
0
0
0
0
0
0
0
0
0
0
0
0
0
0
0
0
0
0
0
0
0
0
0
0
0
0
0
0
0
0
0
0
0
0
0
0
0
0
0
0
0
0
0
0
0
0
0
0
0
0
0
0
0
0
0
0
0
0
0
0
0
0
0
0
0
0
0
0
0
0
0
0
0
0
0
0
0
0
0
0
0
0
0
0
0
0
0
0
0
0
0
0
0
0
0
0
0
0
0
0
0
0
0
0
0
0
0
0
0
0
0
0
0
0
0
0
0
0
0
0
0
0
0
0
0
0
0
0
0
0
0
0
0
0
0
0
0
0
0
0
0
0
0
0
0
0
0
0
0
0
0
0
0
0
0
0
0
0
0
0
0
0
0
0
0
0
0
0
0
0
0
0
0
0
0
0
0
0
0
0
0
0
0
0
0
0
0
0
0
0
0
0
0
0
0
0
0
0
0
0
0
0
0
0
0
0
0
0
0
0
0
2.64224e-06
2.59593e-06
2.56957e-06
2.56138e-06
2.5336e-06
2.81619e-06
2.78277e-06
2.76103e-06
2.74502e-06
2.71727e-06
2.69079e-06
2.67274e-06
2.64717e-06
2.9382e-06
2.88329e-06
2.87953e-06
2.86602e-06
2.84776e-06
2.82358e-06
2.80254e-06
2.7843e-06
2.76086e-06
3.00586e-06
2.99924e-06
2.98201e-06
2.96354e-06
2.95228e-06
2.93972e-06
2.92389e-06
2.90861e-06
2.89331e-06
2.87261e-06
3.08707e-06
3.0724e-06
3.05119e-06
3.03903e-06
3.03269e-06
3.02644e-06
3.01811e-06
3.00897e-06
2.99853e-06
2.98201e-06
3.12674e-06
3.12223e-06
3.11054e-06
3.10618e-06
3.10647e-06
3.10708e-06
3.10595e-06
3.10333e-06
3.09879e-06
3.08834e-06
3.16132e-06
3.16364e-06
3.16131e-06
3.16548e-06
3.17338e-06
3.18111e-06
3.18707e-06
3.19135e-06
3.1857e-06
3.19355e-06
3.19172e-06
3.19837e-06
3.20482e-06
3.21779e-06
3.23367e-06
3.24827e-06
3.26106e-06
3.26875e-06
3.26361e-06
3.20724e-06
3.22719e-06
3.24762e-06
3.26513e-06
3.28296e-06
3.30252e-06
3.32566e-06
3.35222e-06
0
0
0
0
0
0
0
0
0
0
0
0
0
0
0
0
0
0
0
0
0
0
0
0
0
0
0
0
0
0
0
0
0
0
0
0
0
0
0
0
0
0
0
0
0
0
0
0
0
0
0
0
0
0
0
0
0
0
0
0
0
0
0
0
0
0
0
0
0
0
0
0
0
0
0
0
0
0
0
0
0
0
0
0
0
0
0
0
0
0
0
0
0
0
0
0
0
0
0
0
0
0
0
0
0
0
0
0
0
0
0
0
0
0
0
0
0
0
0
0
0
0
0
0
0
0
0
0
0
0
0
0
0
0
0
0
0
0
0
0
0
0
0
0
0
0
0
0
0
0
0
0
0
0
0
0
0
0
0
0
0
0
0
0
0
0
0
0
0
0
0
0
0
0
0
0
0
0
0
0
0
0
0
0
0
0
0
0
0
0
0
0
0
0
0
0
0
0
0
0
0
0
0
0
0
0
0
0
0
0
0
0
0
0
0
0
0
0
0
0
0
0
0
0
0
0
0
0
0
0
0
0
0
0
0
0
0
0
0
0
0
0
0
0
0
0
0
0
0
0
0
0
0
0
0
0
0
0
0
0
0
0
0
0
0
0
0
0
0
0
0
0
0
0
0
0
0
0
0
0
0
0
0
0
0
0
0
0
0
0
0
0
0
0
0
0
0
0
0
0
0
0
0
0
0
0
0
0
0
0
0
0
0
0
0
0
0
0
0
0
0
0
0
0
0
0
0
0
0
0
0
0
0
0
0
0
0
0
0
0
0
0
0
0
0
0
0
0
0
0
0
0
0
0
0
0
0
0
0
0
0
0
0
0
0
0
0
0
0
0
0
0
0
0
0
0
0
0
0
0
0
0
0
0
0
0
0
0
0
0
0
0
0
0
0
5.36406e-06
5.39973e-06
5.43924e-06
5.48153e-06
5.49455e-06
5.42206e-06
5.46531e-06
5.52473e-06
5.57379e-06
5.62528e-06
5.66431e-06
5.70218e-06
5.71425e-06
5.55539e-06
5.56993e-06
5.66305e-06
5.72836e-06
5.78468e-06
5.83048e-06
5.87277e-06
5.90701e-06
5.91837e-06
5.661e-06
5.72958e-06
5.77349e-06
5.83351e-06
5.90076e-06
5.96373e-06
6.01824e-06
6.06505e-06
6.10039e-06
6.11294e-06
5.79011e-06
5.8588e-06
5.91382e-06
5.98082e-06
6.05383e-06
6.12436e-06
6.18708e-06
6.23979e-06
6.27938e-06
6.29501e-06
5.87386e-06
5.95958e-06
6.02704e-06
6.10374e-06
6.18519e-06
6.26432e-06
6.33561e-06
6.3955e-06
6.44087e-06
6.46271e-06
5.93575e-06
6.03349e-06
6.11386e-06
6.20182e-06
6.29331e-06
6.38174e-06
6.46214e-06
6.53059e-06
6.56355e-06
6.61809e-06
5.97757e-06
6.08279e-06
6.17537e-06
6.27522e-06
6.37735e-06
6.47493e-06
6.56478e-06
6.63784e-06
6.68166e-06
5.98981e-06
6.1042e-06
6.21558e-06
6.326e-06
6.43353e-06
6.5367e-06
6.63846e-06
6.73549e-06
0
0
0
0
0
0
0
0
0
0
0
0
0
0
0
0
0
0
0
0
0
0
0
0
0
0
0
0
0
0
0
0
0
0
0
0
0
0
0
0
0
0
0
0
0
0
0
0
0
0
0
0
0
0
0
0
0
0
0
0
0
0
0
0
0
0
0
0
0
0
0
0
0
0
0
0
0
0
0
0
0
0
0
0
0
0
0
0
0
0
0
0
0
0
0
0
0
0
0
0
0
0
0
0
0
0
0
0
0
0
0
0
0
0
0
0
0
0
0
0
0
0
0
0
0
0
0
0
0
0
0
0
0
0
0
0
0
0
0
0
0
0
0
0
0
0
0
0
0
0
0
0
0
0
0
0
0
0
0
0
0
0
0
0
0
0
0
0
0
0
0
0
0
0
0
0
0
0
0
0
0
0
0
0
0
0
0
0
0
0
0
0
0
0
0
0
0
0
0
0
0
0
0
0
0
0
0
0
0
0
0
0
0
0
0
0
0
0
0
0
0
0
0
0
0
0
0
0
0
0
0
0
0
0
0
0
0
0
0
0
0
0
0
0
0
0
0
0
0
0
0
0
0
0
0
0
0
0
0
0
0
0
0
0
0
0
0
0
0
0
0
0
0
0
0
0
0
0
0
0
0
0
0
0
0
0
0
0
0
0
0
0
0
0
0
0
0
0
0
0
0
0
0
0
0
0
0
0
0
0
0
0
0
0
0
0
SCALARS F_FC double 1
LOOKUP_TABLE default
2.27885e-05
2.20099e-05
2.10885e-05
2.01242e-05
1.91182e-05
2.56897e-05
2.51502e-05
2.45886e-05
2.39299e-05
2.31614e-05
2.22871e-05
2.13403e-05
2.03284e-05
2.71718e-05
2.67488e-05
2.62442e-05
2.56915e-05
2.50619e-05
2.43256e-05
2.34857e-05
2.25605e-05
2.15711e-05
2.86336e-05
2.82425e-05
2.7831e-05
2.73708e-05
2.68446e-05
2.62369e-05
2.55313e-05
2.47257e-05
2.38257e-05
2.28565e-05
2.96111e-05
2.92712e-05
2.89276e-05
2.85122e-05
2.80211e-05
2.74453e-05
2.67754e-05
2.60069e-05
2.51366e-05
2.41847e-05
3.06396e-05
3.03286e-05
3.00359e-05
2.96692e-05
2.92206e-05
2.86839e-05
2.80555e-05
2.73296e-05
2.64953e-05
2.55588e-05
3.16553e-05
3.13898e-05
3.11526e-05
3.08414e-05
3.0441e-05
2.99495e-05
2.93699e-05
2.86949e-05
2.79085e-05
2.70015e-05
3.265e-05
3.24454e-05
3.2275e-05
3.20274e-05
3.1679e-05
3.12389e-05
3.07185e-05
3.00931e-05
2.92985e-05
3.36355e-05
3.34855e-05
3.3382e-05
3.32314e-05
3.29549e-05
3.25431e-05
3.20444e-05
3.15482e-05
0
0
0
0
0
0
0
0
0
0
0
0
0
0
0
0
0
0
0
0
0
0
0
0
0
0
0
0
0
0
0
0
0
0
0
0
0
0
0
0
0
0
0
0
0
0
0
0
0
0
0
0
0
0
0
0
0
0
0
0
0
0
0
0
0
0
0
0
0
0
0
0
0
0
0
0
0
0
0
0
0
0
0
0
0
0
0
0
0
0
0
0
0
0
0
0
0
0
0
0
0
0
0
0
0
0
0
0
0
0
0
0
0
0
0
0
0
0
0
0
0
0
0
0
0
0
0
0
0
0
0
0
0
0
0
0
0
0
0
0
0
0
0
0
0
0
0
0
0
0
0
0
0
0
0
0
0
0
1.96585e-05
1.92181e-05
1.86133e-05
1.79845e-05
1.73431e-05
2.14917e-05
2.11813e-05
2.08474e-05
2.04239e-05
1.9957e-05
1.94075e-05
1.88042e-05
1.81548e-05
2.24274e-05
2.21973e-05
2.18826e-05
2.15427e-05
2.11671e-05
2.07243e-05
2.02022e-05
1.96195e-05
1.89936e-05
2.34002e-05
2.31549e-05
2.29113e-05
2.26345e-05
2.23142e-05
2.19485e-05
2.15216e-05
2.10241e-05
2.04616e-05
1.98574e-05
2.40305e-05
2.38368e-05
2.3647e-05
2.34009e-05
2.3103e-05
2.27542e-05
2.23474e-05
2.18748e-05
2.13338e-05
2.07446e-05
2.47394e-05
2.45579e-05
2.43994e-05
2.41834e-05
2.39102e-05
2.35831e-05
2.32008e-05
2.27559e-05
2.22394e-05
2.16582e-05
2.5442e-05
2.52921e-05
2.51668e-05
2.49825e-05
2.47359e-05
2.44342e-05
2.40811e-05
2.36688e-05
2.31845e-05
2.26219e-05
2.6132e-05
2.60325e-05
2.59469e-05
2.57978e-05
2.55793e-05
2.53064e-05
2.49885e-05
2.46111e-05
2.41314e-05
2.68338e-05
2.67611e-05
2.67139e-05
2.66379e-05
2.64715e-05
2.62069e-05
2.58834e-05
2.55606e-05
4.40174e-06
4.39152e-06
4.40768e-06
4.37979e-06
4.33403e-06
4.25622e-06
4.29863e-06
4.33691e-06
4.35558e-06
4.35898e-06
4.37431e-06
4.37445e-06
4.35727e-06
4.20214e-06
4.21599e-06
4.26866e-06
4.29917e-06
4.3195e-06
4.34012e-06
4.36336e-06
4.37553e-06
4.3856e-06
4.11794e-06
4.16106e-06
4.15727e-06
4.20484e-06
4.25002e-06
4.28953e-06
4.32672e-06
4.36224e-06
4.38865e-06
4.42075e-06
3.98042e-06
4.0354e-06
4.08898e-06
4.14781e-06
4.20783e-06
4.26522e-06
4.31937e-06
4.36961e-06
4.4122e-06
4.46038e-06
3.89147e-06
3.95916e-06
4.02529e-06
4.09659e-06
4.17187e-06
4.2469e-06
4.31842e-06
4.38477e-06
4.44441e-06
4.5058e-06
3.80631e-06
3.88903e-06
3.96681e-06
4.05065e-06
4.14159e-06
4.23462e-06
4.32406e-06
4.40727e-06
4.45905e-06
4.55033e-06
3.72853e-06
3.82723e-06
3.91457e-06
4.00974e-06
4.11647e-06
4.22813e-06
4.33621e-06
4.437e-06
4.50874e-06
3.66467e-06
3.76034e-06
3.86116e-06
3.98602e-06
4.11201e-06
4.22469e-06
4.33501e-06
4.46786e-06
0
0
0
0
0
0
0
0
0
0
0
0
0
0
0
0
0
0
0
0
0
0
0
0
0
0
0
0
0
0
0
0
0
0
0
0
0
0
0
0
0
0
0
0
0
0
0
0
0
0
0
0
0
0
0
0
0
0
0
0
0
0
0
0
0
0
0
0
0
0
0
0
0
0
0
0
0
0
0
0.000103425
0.000103046
0.000102633
0.000102156
0.000101449
0.000104328
0.000104412
0.000104356
0.000104145
0.000103878
0.000103476
0.00010303
0.000102456
0.000105033
0.000104963
0.000105064
0.000105046
0.00010493
0.00010469
0.000104358
0.000103952
0.000103497
0.000105313
0.0001055
0.000105618
0.000105708
0.000105744
0.00010569
0.000105527
0.000105266
0.000104916
0.000104551
0.000105751
0.000105984
0.000106198
0.000106362
0.000106463
0.000106476
0.000106388
0.000106203
0.000105921
0.000105613
0.000106243
0.000106495
0.000106788
0.000107028
0.000107201
0.000107287
0.000107275
0.00010717
0.000106967
0.000106687
0.000106718
0.000107031
0.000107391
0.000107708
0.000107957
0.000108118
0.000108186
0.000108165
0.000107974
0.000107848
0.000107173
0.000107588
0.000108006
0.000108397
0.000108725
0.000108965
0.000109117
0.000109183
0.000109011
0.000107629
0.000108143
0.000108624
0.000109101
0.000109512
0.000109827
0.000110063
0.00011023
1.68957e-05
1.67677e-05
1.64578e-05
1.61256e-05
1.58072e-05
1.77921e-05
1.76945e-05
1.7556e-05
1.73333e-05
1.71283e-05
1.68711e-05
1.65798e-05
1.62633e-05
1.82862e-05
1.82167e-05
1.80683e-05
1.79113e-05
1.77504e-05
1.75608e-05
1.73198e-05
1.70433e-05
1.67436e-05
1.88501e-05
1.87251e-05
1.86239e-05
1.85067e-05
1.83633e-05
1.82037e-05
1.80163e-05
1.77876e-05
1.7523e-05
1.72384e-05
1.91914e-05
1.91231e-05
1.90621e-05
1.89614e-05
1.88298e-05
1.86754e-05
1.8494e-05
1.82768e-05
1.80233e-05
1.77462e-05
1.96396e-05
1.9569e-05
1.9521e-05
1.9434e-05
1.9313e-05
1.91664e-05
1.89941e-05
1.87895e-05
1.85476e-05
1.82698e-05
2.00871e-05
2.00339e-05
1.99993e-05
1.99252e-05
1.98141e-05
1.9677e-05
1.95171e-05
1.93276e-05
1.91011e-05
1.88323e-05
2.05306e-05
2.05132e-05
2.04955e-05
2.04346e-05
2.0333e-05
2.02072e-05
2.0064e-05
1.98954e-05
1.96808e-05
2.09995e-05
2.09902e-05
2.09883e-05
2.09715e-05
2.09005e-05
2.07733e-05
2.06157e-05
2.04492e-05
1.0417e-05
1.05477e-05
1.07181e-05
1.0856e-05
1.09686e-05
9.78371e-06
9.99082e-06
1.0192e-05
1.03579e-05
1.04891e-05
1.06641e-05
1.08321e-05
1.09656e-05
9.58791e-06
9.72629e-06
9.94915e-06
1.01322e-05
1.02984e-05
1.04651e-05
1.06463e-05
1.08215e-05
1.09886e-05
9.37525e-06
9.5455e-06
9.67145e-06
9.86381e-06
1.00586e-05
1.02465e-05
1.04339e-05
1.06269e-05
1.08145e-05
1.10061e-05
9.19961e-06
9.38362e-06
9.57286e-06
9.77482e-06
9.98315e-06
1.01905e-05
1.03972e-05
1.06052e-05
1.08083e-05
1.10162e-05
9.07081e-06
9.2664e-06
9.46788e-06
9.68139e-06
9.90452e-06
1.01304e-05
1.03557e-05
1.05801e-05
1.08003e-05
1.10202e-05
8.93545e-06
9.14611e-06
9.35806e-06
9.58329e-06
9.82184e-06
1.00659e-05
1.03092e-05
1.05506e-05
1.07393e-05
1.10053e-05
8.79778e-06
9.02559e-06
9.24513e-06
9.48054e-06
9.7346e-06
9.99659e-06
1.02573e-05
1.05128e-05
1.07364e-05
8.67789e-06
8.89965e-06
9.1268e-06
9.38931e-06
9.66131e-06
9.92334e-06
1.01863e-05
1.04765e-05
0
0
0
0
0
0
0
0
0
0
0
0
0
0
0
0
0
0
0
0
0
0
0
0
0
0
0
0
0
0
0
0
0
0
0
0
0
0
0
0
0
0
0
0
0
0
0
0
0
0
0
0
0
0
0
0
0
0
0
0
0
0
0
0
0
0
0
0
0
0
0
0
0
0
0
0
0
0
0
0.000104288
0.000104407
0.000104371
0.000104419
0.000104363
0.000104323
0.000104695
0.000104882
0.000104994
0.000105149
0.000105214
0.000105283
0.000105269
0.000104884
0.000104995
0.000105344
0.000105568
0.00010577
0.000105926
0.000106046
0.000106152
0.000106243
0.000105076
0.00010537
0.00010571
0.000105998
0.000106273
0.000106522
0.000106732
0.000106907
0.000107058
0.000107227
0.00010555
0.000105927
0.000106306
0.000106662
0.000106995
0.000107299
0.000107567
0.0001078
0.000108004
0.000108214
0.000106092
0.000106471
0.000106918
0.000107341
0.000107737
0.0001081
0.000108429
0.000108725
0.000108991
0.00010921
0.000106606
0.000107046
0.000107551
0.000108038
0.000108497
0.000108923
0.000109317
0.000109683
0.000109924
0.000110309
0.000107091
0.000107647
0.000108203
0.00010875
0.000109272
0.000109764
0.000110229
0.000110643
0.000110913
0.000107593
0.000108253
0.000108857
0.000109471
0.000110064
0.000110626
0.000111168
0.00011164
0.00010451
0.000104737
0.00010482
0.000105008
0.00010511
0.000104323
0.000104763
0.000105016
0.000105213
0.000105472
0.000105654
0.000105855
0.000105993
0.000104854
0.000105005
0.000105415
0.000105703
0.000105987
0.000106241
0.000106474
0.000106711
0.000106946
0.000105023
0.000105344
0.000105734
0.000106071
0.000106409
0.000106736
0.00010704
0.000107324
0.000107603
0.000107911
0.000105503
0.000105915
0.000106334
0.000106739
0.000107133
0.000107511
0.000107868
0.000108207
0.000108535
0.000108879
0.000106054
0.000106467
0.000106953
0.000107422
0.000107875
0.000108309
0.000108724
0.000109122
0.000109507
0.000109858
0.000106578
0.00010705
0.000107592
0.000108123
0.000108636
0.000109129
0.000109606
0.000110069
0.000110424
0.000110941
0.000107074
0.00010766
0.000108251
0.000108839
0.000109412
0.000109967
0.000110511
0.000111017
0.000111403
0.000107587
0.000108276
0.000108912
0.000109563
0.000110204
0.000110828
0.000111447
0.000112003
0
0
0
0
0
0
0
0
0
0
0
0
0
0
0
0
0
0
0
0
0
0
0
0
0
0
0
0
0
0
0
0
0
0
0
0
0
0
0
0
0
0
0
0
0
0
0
0
0
0
0
0
0
0
0
0
0
0
0
0
0
0
0
0
0
0
0
0
0
0
0
0
0
0
0
0
0
0
0
0
0
0
0
0
0
0
0
0
0
0
0
0
0
0
0
0
0
0
0
0
0
0
0
0
0
0
0
0
0
0
0
0
0
0
0
0
0
0
0
0
0
0
0
0
0
0
0
0
0
0
0
0
0
0
0
0
0
0
0
0
0
0
0
0
0
0
0
0
0
0
0
0
0
0
0
0
0
0
2.14026e-05
2.18647e-05
2.23675e-05
2.29415e-05
2.34061e-05
1.97801e-05
2.03161e-05
2.08446e-05
2.13425e-05
2.18063e-05
2.23257e-05
2.28625e-05
2.33577e-05
1.93042e-05
1.97069e-05
2.02766e-05
2.07816e-05
2.12718e-05
2.17643e-05
2.22851e-05
2.28164e-05
2.33361e-05
1.88523e-05
1.92838e-05
1.9686e-05
2.01732e-05
2.06767e-05
2.11799e-05
2.16889e-05
2.22152e-05
2.27487e-05
2.32847e-05
1.8649e-05
1.90945e-05
1.95542e-05
2.0041e-05
2.05468e-05
2.10603e-05
2.15816e-05
2.21151e-05
2.26551e-05
2.31987e-05
1.84773e-05
1.89262e-05
1.93904e-05
1.98792e-05
2.03892e-05
2.09113e-05
2.14423e-05
2.19836e-05
2.25315e-05
2.30779e-05
1.82754e-05
1.87307e-05
1.91966e-05
1.96877e-05
2.02023e-05
2.07314e-05
2.127e-05
2.18187e-05
2.2294e-05
2.28997e-05
1.80482e-05
1.85115e-05
1.89755e-05
1.94668e-05
1.99855e-05
2.05195e-05
2.10628e-05
2.16102e-05
2.21328e-05
1.78332e-05
1.82738e-05
1.87206e-05
1.92188e-05
1.97469e-05
2.02816e-05
2.08269e-05
2.13957e-05
1.26868e-05
1.29111e-05
1.30662e-05
1.32184e-05
1.34125e-05
1.22525e-05
1.24207e-05
1.25488e-05
1.26553e-05
1.28182e-05
1.2982e-05
1.31513e-05
1.33407e-05
1.21721e-05
1.23035e-05
1.23932e-05
1.24979e-05
1.26296e-05
1.27818e-05
1.29362e-05
1.31015e-05
1.32879e-05
1.21706e-05
1.22157e-05
1.2308e-05
1.24094e-05
1.25113e-05
1.263e-05
1.27651e-05
1.29085e-05
1.30651e-05
1.32464e-05
1.2163e-05
1.22453e-05
1.2351e-05
1.24464e-05
1.25414e-05
1.26478e-05
1.27684e-05
1.29001e-05
1.30459e-05
1.3215e-05
1.22633e-05
1.23245e-05
1.24193e-05
1.25055e-05
1.25907e-05
1.2685e-05
1.27927e-05
1.29128e-05
1.30468e-05
1.3197e-05
1.23745e-05
1.24291e-05
1.25121e-05
1.2587e-05
1.26606e-05
1.27432e-05
1.28394e-05
1.29484e-05
1.30693e-05
1.32015e-05
1.24955e-05
1.25566e-05
1.26283e-05
1.26908e-05
1.27518e-05
1.28236e-05
1.29104e-05
1.30134e-05
1.3139e-05
1.26532e-05
1.27021e-05
1.27541e-05
1.28169e-05
1.28803e-05
1.29439e-05
1.30115e-05
1.30755e-05
0.000105384
0.000106005
0.000106572
0.000107336
0.000108113
0.000104301
0.000104994
0.000105527
0.000106075
0.000106725
0.000107363
0.000108114
0.000108906
0.000104743
0.000105019
0.000105662
0.000106222
0.000106834
0.000107468
0.000108147
0.000108916
0.000109759
0.000104817
0.000105248
0.000105798
0.000106341
0.000106935
0.000107572
0.000108241
0.000108959
0.000109752
0.000110637
0.00010531
0.000105853
0.000106428
0.000107028
0.000107665
0.000108337
0.000109045
0.000109802
0.000110627
0.000111534
0.000105889
0.000106436
0.000107072
0.000107729
0.000108412
0.000109126
0.000109876
0.000110676
0.000111542
0.000112451
0.000106455
0.000107046
0.000107735
0.000108445
0.000109176
0.000109935
0.000110733
0.000111581
0.000112413
0.000113463
0.000107002
0.000107681
0.000108415
0.000109175
0.000109954
0.000110762
0.000111612
0.000112486
0.00011336
0.000107564
0.000108324
0.000109094
0.000109905
0.000110743
0.000111611
0.000112527
0.000113431
0
0
0
0
0
0
0
0
0
0
0
0
0
0
0
0
0
0
0
0
0
0
0
0
0
0
0
0
0
0
0
0
0
0
0
0
0
0
0
0
0
0
0
0
0
0
0
0
0
0
0
0
0
0
0
0
0
0
0
0
0
0
0
0
0
0
0
0
0
0
0
0
0
0
0
0
0
0
0
3.30334e-05
3.38994e-05
3.4822e-05
3.58317e-05
3.67544e-05
3.03356e-05
3.12219e-05
3.21015e-05
3.2994e-05
3.39043e-05
3.48225e-05
3.57769e-05
3.67064e-05
2.95686e-05
3.02724e-05
3.12225e-05
3.20894e-05
3.29587e-05
3.3838e-05
3.47501e-05
3.56876e-05
3.66212e-05
2.88641e-05
2.95928e-05
3.02991e-05
3.11149e-05
3.19647e-05
3.28303e-05
3.37119e-05
3.46189e-05
3.55466e-05
3.64817e-05
2.86486e-05
2.93895e-05
3.01484e-05
3.095e-05
3.17866e-05
3.2646e-05
3.35251e-05
3.44264e-05
3.53476e-05
3.62767e-05
2.84512e-05
2.91847e-05
2.9936e-05
3.07258e-05
3.15509e-05
3.24023e-05
3.32754e-05
3.41701e-05
3.50844e-05
3.60033e-05
2.8197e-05
2.89231e-05
2.96636e-05
3.04415e-05
3.12549e-05
3.20959e-05
3.29601e-05
3.38466e-05
3.46496e-05
3.56298e-05
2.78915e-05
2.86084e-05
2.93338e-05
3.00973e-05
3.08972e-05
3.17241e-05
3.25756e-05
3.34379e-05
3.42909e-05
2.75719e-05
2.82393e-05
2.89183e-05
2.96671e-05
3.04668e-05
3.12912e-05
3.21355e-05
3.29967e-05
1.05058e-05
1.08495e-05
1.12063e-05
1.16063e-05
1.20622e-05
9.4982e-06
9.75744e-06
9.99476e-06
1.02643e-05
1.05813e-05
1.09242e-05
1.13031e-05
1.17358e-05
9.18872e-06
9.38715e-06
9.57677e-06
9.79396e-06
1.00461e-05
1.03343e-05
1.06537e-05
1.10133e-05
1.14267e-05
8.94544e-06
9.06392e-06
9.23116e-06
9.41767e-06
9.61922e-06
9.84866e-06
1.01106e-05
1.0406e-05
1.07425e-05
1.11345e-05
8.81974e-06
8.9491e-06
9.11359e-06
9.28307e-06
9.46618e-06
9.67321e-06
9.91038e-06
1.01816e-05
1.04931e-05
1.08586e-05
8.77816e-06
8.87896e-06
9.02345e-06
9.17357e-06
9.33646e-06
9.52119e-06
9.73457e-06
9.98152e-06
1.02677e-05
1.06018e-05
8.75339e-06
8.83629e-06
8.95995e-06
9.0894e-06
9.23112e-06
9.39388e-06
9.5843e-06
9.80723e-06
1.00642e-05
1.03599e-05
8.74475e-06
8.81915e-06
8.92221e-06
9.03037e-06
9.1507e-06
9.29246e-06
9.46113e-06
9.66209e-06
9.91179e-06
8.77195e-06
8.82799e-06
8.89782e-06
8.98925e-06
9.10047e-06
9.22954e-06
9.37405e-06
9.53172e-06
0
0
0
0
0
0
0
0
0
0
0
0
0
0
0
0
0
0
0
0
0
0
0
0
0
0
0
0
0
0
0
0
0
0
0
0
0
0
0
0
0
0
0
0
0
0
0
0
0
0
0
0
0
0
0
0
0
0
0
0
0
0
0
0
0
0
0
0
0
0
0
0
0
0
0
0
0
0
0
0.000106036
0.000107039
0.000108081
0.000109398
0.000110827
0.000104183
0.000105088
0.000105861
0.000106725
0.000107749
0.000108834
0.000110108
0.000111548
0.000104547
0.00010493
0.000105776
0.000106575
0.000107479
0.000108471
0.00010958
0.000110857
0.000112309
0.000104521
0.000105069
0.000105748
0.000106475
0.000107297
0.000108214
0.000109225
0.000110355
0.000111639
0.000113105
0.000105042
0.000105689
0.000106406
0.000107182
0.000108036
0.000108975
0.000110009
0.000111161
0.000112459
0.000113928
0.000105656
0.000106304
0.000107078
0.000107902
0.000108793
0.000109761
0.000110821
0.000111997
0.000113317
0.00011478
0.000106267
0.000106945
0.000107766
0.000108637
0.000109567
0.000110568
0.00011166
0.000112865
0.000114145
0.000115717
0.000106867
0.000107611
0.000108471
0.000109385
0.000110353
0.000111392
0.000112522
0.000113736
0.000115066
0.000107474
0.000108287
0.000109173
0.000110129
0.000111146
0.000112236
0.000113421
0.000114648
0
0
0
0
0
0
0
0
0
0
0
0
0
0
0
0
0
0
0
0
0
0
0
0
0
0
0
0
0
0
0
0
0
0
0
0
0
0
0
0
0
0
0
0
0
0
0
0
0
0
0
0
0
0
0
0
0
0
0
0
0
0
0
0
0
0
0
0
0
0
0
0
0
0
0
0
0
0
0
0
0
0
0
0
0
0
0
0
0
0
0
0
0
0
0
0
0
0
0
0
0
0
0
0
0
0
0
0
0
0
0
0
0
0
0
0
0
0
0
0
0
0
0
0
0
0
0
0
0
0
0
0
0
0
0
0
0
0
0
0
0
0
0
0
0
0
0
0
0
0
0
0
0
0
0
0
0
0
4.74018e-05
4.87805e-05
5.02409e-05
5.17959e-05
5.33268e-05
4.3356e-05
4.46779e-05
4.60051e-05
4.7402e-05
4.88933e-05
5.03324e-05
5.18306e-05
5.3329e-05
4.22511e-05
4.3339e-05
4.47587e-05
4.60883e-05
4.74409e-05
4.88147e-05
5.0233e-05
5.16977e-05
5.31738e-05
4.12539e-05
4.23508e-05
4.34322e-05
4.46659e-05
4.59577e-05
4.72854e-05
4.86426e-05
5.00385e-05
5.14745e-05
5.29324e-05
4.10343e-05
4.21397e-05
4.32769e-05
4.44784e-05
4.57368e-05
4.70373e-05
4.83722e-05
4.97429e-05
5.11517e-05
5.25839e-05
4.08214e-05
4.1908e-05
4.30207e-05
4.41922e-05
4.5419e-05
4.66904e-05
4.79987e-05
4.93416e-05
5.07198e-05
5.21231e-05
4.05177e-05
4.15798e-05
4.26649e-05
4.38056e-05
4.50001e-05
4.62395e-05
4.75174e-05
4.88299e-05
5.00536e-05
5.15089e-05
4.01303e-05
4.11593e-05
4.22115e-05
4.33185e-05
4.44778e-05
4.56798e-05
4.69229e-05
4.81756e-05
4.94513e-05
3.96774e-05
4.06282e-05
4.16084e-05
4.26824e-05
4.38257e-05
4.50056e-05
4.62109e-05
4.74314e-05
8.41562e-06
8.85245e-06
9.35916e-06
9.96626e-06
1.06466e-05
7.00408e-06
7.3222e-06
7.63422e-06
8.01479e-06
8.44282e-06
8.91304e-06
9.45265e-06
1.00908e-05
6.53035e-06
6.76138e-06
7.01357e-06
7.30602e-06
7.643e-06
8.02635e-06
8.4614e-06
8.96608e-06
9.56093e-06
6.11524e-06
6.28245e-06
6.4931e-06
6.72936e-06
6.9935e-06
7.29559e-06
7.64192e-06
8.0411e-06
8.50694e-06
9.05975e-06
5.9184e-06
6.07035e-06
6.26439e-06
6.47442e-06
6.70912e-06
6.97769e-06
7.28856e-06
7.65122e-06
8.07721e-06
8.5873e-06
5.77883e-06
5.89792e-06
6.06566e-06
6.24849e-06
6.45349e-06
6.68955e-06
6.96591e-06
7.29212e-06
7.6787e-06
8.14435e-06
5.6601e-06
5.7541e-06
5.89564e-06
6.05123e-06
6.22679e-06
6.43136e-06
6.6743e-06
6.96463e-06
7.30522e-06
7.7098e-06
5.56149e-06
5.6367e-06
5.75334e-06
5.88218e-06
6.02907e-06
6.20375e-06
6.41468e-06
6.66928e-06
6.99305e-06
5.49461e-06
5.5488e-06
5.62697e-06
5.73015e-06
5.86102e-06
6.01724e-06
6.19588e-06
6.40243e-06
9.07477e-07
8.55187e-07
8.09563e-07
7.54208e-07
6.95834e-07
9.57655e-07
9.36082e-07
9.13638e-07
8.81335e-07
8.40854e-07
8.04241e-07
7.59976e-07
7.09978e-07
9.66784e-07
9.35106e-07
9.18493e-07
8.92724e-07
8.61431e-07
8.29745e-07
7.98565e-07
7.62045e-07
7.25532e-07
9.55558e-07
9.40441e-07
8.98056e-07
8.84136e-07
8.67805e-07
8.47664e-07
8.25381e-07
8.01545e-07
7.73248e-07
7.48506e-07
8.79004e-07
8.72104e-07
8.63823e-07
8.5724e-07
8.50022e-07
8.40255e-07
8.2766e-07
8.12276e-07
7.9304e-07
7.77325e-07
8.34536e-07
8.36184e-07
8.35786e-07
8.37035e-07
8.38987e-07
8.39435e-07
8.36795e-07
8.30565e-07
8.20726e-07
8.12895e-07
7.95982e-07
8.06901e-07
8.13977e-07
8.23055e-07
8.34373e-07
8.45327e-07
8.531e-07
8.56582e-07
8.49167e-07
8.53613e-07
7.65294e-07
7.8517e-07
7.98761e-07
8.15081e-07
8.35871e-07
8.57883e-07
8.76885e-07
8.91121e-07
8.90478e-07
7.42039e-07
7.60375e-07
7.83342e-07
8.17774e-07
8.50829e-07
8.75017e-07
8.96733e-07
9.30351e-07
0.000102714
0.000101934
0.000101057
0.000100062
9.87895e-05
0.000104425
0.000104251
0.000103959
0.000103447
0.000102782
0.000101949
0.000101002
9.98901e-05
0.000105264
0.000105029
0.000104906
0.000104654
0.000104232
0.000103626
0.000102874
0.000101978
0.000101
0.000105609
0.000105711
0.000105625
0.000105535
0.000105344
0.000105002
0.000104492
0.000103825
0.000102998
0.000102125
0.000106019
0.000106118
0.000106185
0.000106174
0.000106056
0.000105797
0.00010538
0.000104804
0.000104061
0.00010326
0.000106465
0.000106595
0.000106749
0.000106822
0.000106787
0.000106614
0.000106288
0.000105808
0.000105165
0.000104408
0.000106902
0.00010709
0.000107319
0.000107477
0.000107533
0.00010745
0.000107217
0.000106838
0.000106243
0.000105632
0.000107327
0.000107603
0.000107892
0.000108138
0.000108288
0.0001083
0.000108165
0.000107916
0.000107323
0.000107736
0.000108101
0.000108465
0.000108815
0.00010906
0.000109154
0.000109116
0.000109016
SCALARS F_3 double 1
LOOKUP_TABLE default
0.000177336
0.000189259
0.00020459
0.000214858
0.000224424
0.000144733
0.000154381
0.000160093
0.000173318
0.000187909
0.000202119
0.000214613
0.000224941
0.000134298
0.000143595
0.000152154
0.000161108
0.000172327
0.000186029
0.000200004
0.000213327
0.000224137
0.000116898
0.000128461
0.000138221
0.000148496
0.000158726
0.000170382
0.000183689
0.000197641
0.000211634
0.000223437
0.000110802
0.000123346
0.000134001
0.000144772
0.000155826
0.000167793
0.000180966
0.000195066
0.000209768
0.000222823
0.000107841
0.000119063
0.000129566
0.000140814
0.000152459
0.000164649
0.00017784
0.000192261
0.000207765
0.000222073
0.000104125
0.000114055
0.00012466
0.000136527
0.000148661
0.000160977
0.000174288
0.000189196
0.000205613
0.000221343
9.93835e-05
0.00010806
0.000119175
0.000131905
0.000144407
0.000156783
0.000170367
0.000183672
0.00019522
9.48306e-05
0.000102434
0.000114131
0.000127163
0.000139937
0.000152672
0.000166271
0.000185172
0.00044084
0.000468671
0.000503241
0.00053507
0.00056629
0.000358388
0.000385237
0.000407764
0.000435891
0.00046729
0.000502312
0.000537744
0.000571192
0.000331281
0.000355496
0.000380858
0.00040696
0.00043582
0.000468826
0.000504233
0.000540691
0.000575604
0.00029783
0.000322609
0.000348268
0.000376065
0.000404698
0.000435799
0.000470004
0.000506337
0.000544038
0.000580729
0.000286443
0.000314725
0.000342613
0.000371901
0.000402633
0.000435569
0.000471096
0.000508753
0.000548041
0.000586685
0.000279114
0.000307948
0.000337082
0.000368112
0.000400745
0.00043532
0.000472316
0.000511625
0.000552767
0.000593475
0.000271628
0.000300758
0.000331662
0.000364671
0.000399065
0.000435168
0.000473833
0.000515124
0.000558378
0.000601146
0.000264089
0.000293464
0.000326598
0.000361686
0.000397581
0.000435181
0.000475836
0.000515294
0.000554751
0.000258445
0.00028808
0.000323127
0.000360052
0.000397594
0.000436527
0.000477886
0.000524828
0
0
0
0
0
0
0
0
0
0
0
0
0
0
0
0
0
0
0
0
0
0
0
0
0
0
0
0
0
0
0
0
0
0
0
0
0
0
0
0
0
0
0
0
0
0
0
0
0
0
0
0
0
0
0
0
0
0
0
0
0
0
0
0
0
0
0
0
0
0
0
0
0
0
0
0
0
0
0
0.000685716
0.000738321
0.000796234
0.000853767
0.000915979
0.000538716
0.00058298
0.000626907
0.000678475
0.000733223
0.000791779
0.000853932
0.000918341
0.000491686
0.000533033
0.000576719
0.000624588
0.000676302
0.000732622
0.00079253
0.000855947
0.000920397
0.000435722
0.000478408
0.000522244
0.000569956
0.000620151
0.000674004
0.000731912
0.000793298
0.000858095
0.000923474
0.000420255
0.000466736
0.000514084
0.000563669
0.000615944
0.000671687
0.000731216
0.000794201
0.000860535
0.000927494
0.000409844
0.000457289
0.000506432
0.000557867
0.000612006
0.000669504
0.000730755
0.000795518
0.00086347
0.00093231
0.000400111
0.000448568
0.000499524
0.000552696
0.000608442
0.000667581
0.000730729
0.000797564
0.000867521
0.000938236
0.00039112
0.000440885
0.000493749
0.000548441
0.000605425
0.000666051
0.000731293
0.000796341
0.00086229
0.000384926
0.000434949
0.000489484
0.000546272
0.000604981
0.000666372
0.00073155
0.000804195
0.000812233
0.000874449
0.000943048
0.00100706
0.00107536
0.000645223
0.000697057
0.000746649
0.000803539
0.000867658
0.000937679
0.00100787
0.00107909
0.000589465
0.000637703
0.000688811
0.000742432
0.000800634
0.000866392
0.00093687
0.00100937
0.00108206
0.000525052
0.000572668
0.000623884
0.000679447
0.000736616
0.0007979
0.000865017
0.000936626
0.00101119
0.00108596
0.000505128
0.000557775
0.000613152
0.000670948
0.000731019
0.000794843
0.000863617
0.00093685
0.00101362
0.00109079
0.000492457
0.000545923
0.000603084
0.000663129
0.000725706
0.000791734
0.000862375
0.000937635
0.00101681
0.00109652
0.000480024
0.00053441
0.000593617
0.000656009
0.000720783
0.000788769
0.000861474
0.000939163
0.00102064
0.00110302
0.0004677
0.000523284
0.000584941
0.00064975
0.000716372
0.000786071
0.000861082
0.000937311
0.00101461
0.00045782
0.000514331
0.000577991
0.000644804
0.000713382
0.000784762
0.000860982
0.000945395
0.000849967
0.000912646
0.000983377
0.00105435
0.00112808
0.00067237
0.000728228
0.000782365
0.000842884
0.000908477
0.000980936
0.00105717
0.0011342
0.000615115
0.000666329
0.000721217
0.000779783
0.000841958
0.000910171
0.000983899
0.00106162
0.00114005
0.000550207
0.0006004
0.000654623
0.000713844
0.000775616
0.000841241
0.000912002
0.000987552
0.00106705
0.00114729
0.000531246
0.000587417
0.000645979
0.000707606
0.000772284
0.000840896
0.000914218
0.000992007
0.00107365
0.00115604
0.000518538
0.00057698
0.00063817
0.000702395
0.000769783
0.000841123
0.000917098
0.000997477
0.00108155
0.00116638
0.000506746
0.000567382
0.000631439
0.000698298
0.000768179
0.000842083
0.000920876
0.00100421
0.00109103
0.00117851
0.00049619
0.000559111
0.00062617
0.000695543
0.000767593
0.000843895
0.000925722
0.00100791
0.00109132
0.000488952
0.000553248
0.00062287
0.000695263
0.000770029
0.000848172
0.000930953
0.00102173
0.000892982
0.000960223
0.00103429
0.00111371
0.00119765
0.000697598
0.000757448
0.000817848
0.00088591
0.000956154
0.00103204
0.00111591
0.00120275
0.000636025
0.000691473
0.000750702
0.000815856
0.000884695
0.000957725
0.00103616
0.00112086
0.00120793
0.000565943
0.000621663
0.000680154
0.00074394
0.000811687
0.000883551
0.000959729
0.00104069
0.00112688
0.00121494
0.000547559
0.000609111
0.000671939
0.000738257
0.000808595
0.000883285
0.000962427
0.00104601
0.00113408
0.00122375
0.000534448
0.000598868
0.000664844
0.000733777
0.000806607
0.00088403
0.000966132
0.0010525
0.00114266
0.0012344
0.000523079
0.000590344
0.000659408
0.000730732
0.000805835
0.000885916
0.000971105
0.00106051
0.00115354
0.00124754
0.000513905
0.000584264
0.0006562
0.000729484
0.000806484
0.000889108
0.000977541
0.00106584
0.00115586
0.000509156
0.00058047
0.000655088
0.000731883
0.000811773
0.000895785
0.000984357
0.00108115
0.000976305
0.00105273
0.00113867
0.001222
0.0013097
0.000764184
0.000830022
0.000895221
0.000968138
0.00104665
0.00113169
0.0012212
0.00131393
0.000695312
0.000756495
0.000821836
0.000891842
0.00096584
0.00104643
0.00113312
0.00122451
0.00131819
0.000617619
0.00067806
0.000742597
0.000812813
0.000886036
0.00096347
0.00104662
0.00113535
0.0012288
0.0013241
0.00059686
0.000663292
0.000732514
0.000805182
0.000881264
0.000961691
0.00104748
0.00113853
0.00123421
0.00133156
0.000583191
0.00065195
0.000723858
0.000798969
0.000877599
0.000960736
0.00104924
0.00114289
0.00124095
0.00134064
0.000571059
0.00064229
0.000716917
0.000794312
0.00087514
0.000960757
0.00105212
0.00114873
0.00124951
0.00135172
0.000560571
0.000634713
0.000712112
0.000791464
0.000874013
0.000961858
0.00105629
0.00115185
0.00124918
0.000553952
0.000629368
0.000709219
0.00079154
0.00087668
0.000966065
0.00106119
0.00116553
0.00104311
0.00112079
0.00121466
0.00130195
0.00139057
0.000823125
0.000894881
0.00096285
0.00103618
0.00111924
0.0012119
0.00130451
0.00139802
0.000750685
0.000816246
0.000886944
0.000959797
0.00103556
0.00112054
0.00121329
0.00130867
0.00140487
0.000670981
0.000733102
0.000802151
0.000877499
0.000954261
0.00103457
0.00112205
0.00121616
0.00131407
0.00141298
0.000648848
0.000718108
0.00079222
0.000869851
0.000949902
0.00103386
0.00112403
0.00122026
0.00132085
0.00142253
0.000635506
0.000707149
0.000783692
0.000863759
0.000946681
0.00103372
0.00112671
0.00122563
0.00132914
0.00143366
0.000623125
0.000697241
0.000776552
0.000859167
0.000944571
0.00103427
0.00113025
0.00123238
0.00133868
0.00144629
0.00061162
0.000688634
0.000771044
0.000856138
0.000943529
0.0010355
0.00113475
0.00123614
0.00133884
0.000602981
0.000682099
0.000767046
0.00085491
0.00094503
0.00103913
0.00114011
0.00125103
0.00104315
0.00112046
0.00121349
0.00130186
0.00139312
0.000818862
0.000890807
0.000960347
0.00103613
0.00111862
0.00120979
0.00130466
0.00140044
0.000746976
0.000812307
0.00088293
0.000957492
0.00103494
0.00111954
0.00121174
0.0013085
0.00140665
0.00066832
0.000730201
0.000798692
0.000873736
0.000951538
0.00103311
0.00112083
0.00121496
0.00131386
0.00141439
0.000646187
0.000715585
0.000788852
0.0008662
0.000946973
0.00103202
0.0011228
0.00121943
0.00132082
0.0014238
0.00063163
0.000704142
0.000780254
0.000860164
0.000943707
0.00103184
0.00112571
0.00122525
0.00132944
0.00143505
0.000618315
0.000693833
0.000773085
0.000855633
0.000941698
0.00103264
0.00112972
0.00123257
0.00133975
0.00144838
0.000606456
0.000685177
0.000767694
0.000852723
0.000940915
0.00103441
0.00113492
0.00123712
0.00134109
0.000598033
0.000678579
0.000763871
0.000852137
0.000943432
0.00103916
0.00114119
0.00125291
0.00103698
0.00111439
0.00120571
0.00129668
0.00139149
0.000807298
0.000878708
0.000949514
0.00102856
0.00111126
0.0012009
0.00129767
0.00139645
0.00073372
0.000799094
0.000869395
0.000945496
0.00102504
0.00110973
0.00120137
0.00129943
0.00139993
0.000653033
0.000715954
0.000784246
0.000858889
0.000937697
0.00102069
0.00110878
0.00120291
0.00130281
0.00140519
0.000630125
0.000700272
0.000772949
0.000850007
0.000931429
0.00101751
0.0011088
0.00120568
0.00130783
0.00141227
0.000614047
0.000687456
0.0007632
0.000842781
0.000926691
0.00101563
0.00111005
0.00120988
0.00131456
0.00142135
0.000599767
0.000676453
0.000755343
0.000837341
0.000923513
0.00101515
0.00111274
0.00121574
0.00132346
0.00143303
0.000587745
0.00066785
0.000749807
0.000833884
0.000921934
0.00101612
0.00111704
0.00121928
0.00132405
0.000580104
0.000661373
0.000746158
0.000833612
0.000924719
0.0010209
0.00112286
0.00123437
0.00102867
0.00110871
0.00120149
0.00129154
0.00138786
0.000796747
0.000867654
0.000938108
0.00101861
0.00110372
0.00119402
0.00128983
0.00139017
0.00071892
0.000785743
0.00085619
0.00093247
0.00101328
0.00109983
0.00119237
0.00129036
0.00139191
0.000632342
0.000698183
0.000768078
0.00084353
0.000923135
0.00100737
0.00109692
0.001192
0.00129233
0.00139562
0.000608093
0.000680029
0.000754495
0.000832891
0.000915472
0.00100278
0.00109529
0.00119307
0.00129586
0.00140138
0.000591621
0.000666106
0.000743529
0.000824544
0.000909725
0.00099981
0.00109521
0.00119578
0.0013011
0.00140922
0.000578059
0.00065546
0.000735531
0.000818754
0.000906092
0.000998674
0.00109695
0.00120042
0.00130894
0.00141993
0.000567716
0.000648381
0.000730848
0.000815757
0.000904706
0.000999501
0.00110073
0.00120306
0.00130867
0.000562649
0.000643999
0.000728534
0.000816457
0.000908238
0.00100473
0.00110664
0.00121799
0
0
0
0
0
0
0
0
0
0
0
0
0
0
0
0
0
0
0
0
0
0
0
0
0
0
0
0
0
0
0
0
0
0
0
0
0
0
0
0
0
0
0
0
0
0
0
0
0
0
0
0
0
0
0
0
0
0
0
0
0
0
0
0
0
0
0
0
0
0
0
0
0
0
0
0
0
0
0
0.000995074
0.00107354
0.00116204
0.00125105
0.00134818
0.000764387
0.000831855
0.000900664
0.000982092
0.00106551
0.00115173
0.00124604
0.00134645
0.000685917
0.000750242
0.000817494
0.000892308
0.000972728
0.00105714
0.00114653
0.0012428
0.0013438
0.000598642
0.000662903
0.000729967
0.00080205
0.000879721
0.000962706
0.00105008
0.00114245
0.00124086
0.00134309
0.000572594
0.000642459
0.000713438
0.000788575
0.000868858
0.000954353
0.00104457
0.00113975
0.00124038
0.00134444
0.000553513
0.000625892
0.000699896
0.000777575
0.000860122
0.000947998
0.00104091
0.00113876
0.00124161
0.00134793
0.000537962
0.000613324
0.000689848
0.000769482
0.000853864
0.000943941
0.00103945
0.00113988
0.00124588
0.00135478
0.000526544
0.000605095
0.000683729
0.000764656
0.000850352
0.000942457
0.00104052
0.00113959
0.00124284
0.000521582
0.000599885
0.000680447
0.000764286
0.000852648
0.000946268
0.00104454
0.00115212
0.000961003
0.00103658
0.00112018
0.00120857
0.00130582
0.000732689
0.00079735
0.00086484
0.000946544
0.00102731
0.00110916
0.00120222
0.00130198
0.00065651
0.000718015
0.000782007
0.000855304
0.000934714
0.00101626
0.0011021
0.0011964
0.00129622
0.000572052
0.000633466
0.000697023
0.000765394
0.00084069
0.000921769
0.00100637
0.00109554
0.00119156
0.00129213
0.000545167
0.000612027
0.000678804
0.000750082
0.00082745
0.000910484
0.000997852
0.00108993
0.00118786
0.00128977
0.000523478
0.000593053
0.000662923
0.000736671
0.000815981
0.000901047
0.000990969
0.00108565
0.0011855
0.00128931
0.000505086
0.000577641
0.000650062
0.00072568
0.00080665
0.000893707
0.000986011
0.00108306
0.00118612
0.00129229
0.000490775
0.000566346
0.000640758
0.000717566
0.000799791
0.000888767
0.000983316
0.00107899
0.00117952
0.000483083
0.000557809
0.00063398
0.000713697
0.000798609
0.000889051
0.000983542
0.00108748
0.000932785
0.0010049
0.00108857
0.00117261
0.00126198
0.000714975
0.000780955
0.000846718
0.000922988
0.00100028
0.00108139
0.00117057
0.00126337
0.000644432
0.000705344
0.000769824
0.000841199
0.000916092
0.000994141
0.00107782
0.00116819
0.00126216
0.000567255
0.000625827
0.000688582
0.000756874
0.000830179
0.000907588
0.000988819
0.00107513
0.00116719
0.00126252
0.000543747
0.000608619
0.000674908
0.000745469
0.000820746
0.000900527
0.000984613
0.00107353
0.00116759
0.00126466
0.000526786
0.00059435
0.000663266
0.000735874
0.000813016
0.000895016
0.00098174
0.0010732
0.00116941
0.00126862
0.000512283
0.000582733
0.000653998
0.00072832
0.000807071
0.000891131
0.000980373
0.00107432
0.00117351
0.0012753
0.000500608
0.000574116
0.00064739
0.000722968
0.000802942
0.000888904
0.000980663
0.00107331
0.00116964
0.000493605
0.000567113
0.000642244
0.000720708
0.00080349
0.000891095
0.000983368
0.00108489
0.000883799
0.000951535
0.00103224
0.00110841
0.00118774
0.000682663
0.000746692
0.000808048
0.000877792
0.000950499
0.00102784
0.00110959
0.00119323
0.000616815
0.000675917
0.000738584
0.000805827
0.000875011
0.000948219
0.00102724
0.00111079
0.00119652
0.000544646
0.000600836
0.000661867
0.00072846
0.000798171
0.00087065
0.000946983
0.00102824
0.00111385
0.00120165
0.00052439
0.000586997
0.000652
0.000720647
0.000792581
0.000867863
0.0009471
0.00103083
0.00111873
0.00120878
0.000512436
0.000577498
0.00064476
0.000715231
0.000789104
0.000866818
0.000948781
0.00103506
0.00112538
0.00121787
0.000502959
0.000570855
0.000640209
0.00071224
0.000787693
0.000867548
0.000952161
0.00104106
0.00113424
0.00122947
0.000496043
0.000567101
0.000638408
0.00071161
0.000788188
0.000869949
0.000957328
0.00104487
0.00113504
0.000493051
0.000564616
0.000637849
0.000713911
0.000793346
0.000876887
0.000965193
0.00106204
0.000799986
0.000862059
0.000933399
0.0010019
0.00107698
0.000614132
0.000669378
0.000723541
0.000788853
0.000855525
0.000924007
0.000997747
0.00107617
0.000549973
0.000602129
0.000656396
0.000716407
0.000780087
0.000846854
0.000917844
0.000993787
0.00107346
0.000479725
0.000530064
0.000583793
0.000641776
0.000704044
0.000770059
0.000839457
0.000912973
0.000991066
0.00107223
0.00045639
0.000512241
0.000568924
0.000629196
0.000693501
0.000761695
0.000833585
0.000909531
0.000989722
0.00107262
0.000439736
0.000497895
0.000556921
0.000619077
0.000685102
0.000755265
0.000829463
0.000907705
0.000989931
0.00107484
0.000426315
0.000487161
0.00054813
0.000611707
0.000679072
0.000750969
0.000827312
0.00090774
0.000992847
0.00108007
0.000416658
0.000480294
0.000542814
0.000607272
0.000675524
0.00074895
0.000827373
0.000906314
0.00098867
0.000412642
0.000475387
0.000539295
0.000606351
0.000677242
0.000752291
0.000831122
0.000918643
0.000726759
0.000783679
0.000847838
0.000911782
0.000984508
0.000551609
0.00060108
0.000650493
0.000712183
0.000773358
0.000835077
0.000903801
0.000978621
0.000491486
0.000537719
0.000585378
0.000639897
0.000698791
0.000759766
0.000824338
0.000894814
0.000970079
0.000426531
0.000470518
0.000517387
0.000567817
0.000623595
0.000683699
0.000746849
0.000813886
0.000886056
0.000961999
0.000401297
0.000450176
0.000498751
0.000551072
0.000608159
0.000669619
0.000734755
0.000803927
0.000877694
0.00095462
0.000380077
0.000431101
0.000481756
0.000535655
0.000593927
0.000656716
0.000723621
0.000794669
0.000869959
0.000948282
0.00036133
0.000414631
0.000466961
0.000521984
0.000581187
0.000645162
0.000713613
0.000786337
0.000864359
0.000944565
0.000345854
0.000401352
0.000454806
0.000510404
0.000570161
0.000635148
0.000704943
0.000776259
0.000851576
0.000335998
0.000389468
0.000443601
0.000501382
0.000563432
0.000629749
0.000699509
0.000778847
0.000640121
0.000689566
0.000747954
0.000803915
0.000865072
0.00048711
0.000533753
0.000578186
0.000632016
0.000685763
0.000741024
0.000801584
0.000865322
0.000438458
0.000480811
0.000524831
0.000574068
0.000625445
0.000678759
0.000735915
0.000797636
0.000862192
0.000385615
0.000424638
0.000467095
0.000513707
0.000563925
0.000616815
0.000672237
0.000731262
0.000794341
0.00085977
0.000366551
0.00041091
0.000455607
0.000503462
0.000554703
0.000609015
0.000666316
0.000727132
0.000791683
0.000858217
0.000353058
0.000399125
0.000445335
0.000494261
0.000546453
0.000602059
0.000661045
0.000723551
0.000789639
0.000857639
0.000340987
0.000388951
0.000436463
0.000486205
0.000539148
0.000595897
0.000656442
0.000720564
0.000788995
0.000858924
0.000330626
0.000380626
0.000429119
0.000479302
0.000532662
0.0005904
0.0006525
0.000714868
0.000780048
0.000323563
0.00037226
0.000421556
0.000473837
0.00052951
0.000588606
0.000651017
0.000721706
0
0
0
0
0
0
0
0
0
0
0
0
0
0
0
0
0
0
0
0
0
0
0
0
0
0
0
0
0
0
0
0
0
0
0
0
0
0
0
0
0
0
0
0
0
0
0
0
0
0
0
0
0
0
0
0
0
0
0
0
0
0
0
0
0
0
0
0
0
0
0
0
0
0
0
0
0
0
0
0.000523896
0.000562796
0.000611086
0.000653331
0.000697358
0.000404267
0.00044356
0.000478762
0.000521678
0.000565142
0.000609477
0.000656104
0.000703824
0.00036675
0.000403001
0.000440026
0.000480506
0.00052171
0.000564566
0.000610319
0.000658446
0.000707521
0.000324578
0.000358126
0.000394442
0.000434707
0.00047675
0.000520017
0.000564959
0.000612405
0.000662167
0.000712742
0.000311511
0.000350166
0.000389549
0.000431084
0.000474478
0.000519532
0.000566445
0.000615677
0.000667175
0.000719416
0.000305972
0.000345932
0.000386606
0.000429168
0.0004737
0.000520303
0.000569054
0.000620055
0.000673316
0.00072741
0.000301993
0.00034378
0.000385539
0.000428878
0.00047428
0.000522238
0.000572776
0.000625541
0.000681154
0.000737309
0.000299599
0.000343516
0.00038621
0.000429989
0.000475902
0.000525067
0.00057753
0.000628069
0.000680413
0.00029993
0.000343088
0.000386809
0.000432853
0.000481302
0.000532023
0.000585142
0.000644281
0
0
0
0
0
0
0
0
0
0
0
0
0
0
0
0
0
0
0
0
0
0
0
0
0
0
0
0
0
0
0
0
0
0
0
0
0
0
0
0
0
0
0
0
0
0
0
0
0
0
0
0
0
0
0
0
0
0
0
0
0
0
0
0
0
0
0
0
0
0
0
0
0
0
0
0
0
0
0
0.000391176
0.000418697
0.000453343
0.000482172
0.000516172
0.000301211
0.000327036
0.000349662
0.000381541
0.000412916
0.000443751
0.00047686
0.000513886
0.000267056
0.000291768
0.000315628
0.000343231
0.000373265
0.000404453
0.000437174
0.000472416
0.000509809
0.000229614
0.000252459
0.000277242
0.000303682
0.000332823
0.000364119
0.000396864
0.000431441
0.00046833
0.00050652
0.000211801
0.00023874
0.00026491
0.000292972
0.000323417
0.000355986
0.000390296
0.000426517
0.000464833
0.00050416
0.000199016
0.000227101
0.00025472
0.00028398
0.000315455
0.000349176
0.000384887
0.000422545
0.00046214
0.000502816
0.000188721
0.000218506
0.000247097
0.000277091
0.000309281
0.000343933
0.000380824
0.000419766
0.000461803
0.000503971
0.000181803
0.000213233
0.00024234
0.000272595
0.000305105
0.000340426
0.000378329
0.000414952
0.000454003
0.000180056
0.000208899
0.000238442
0.00027069
0.000305251
0.000341648
0.000379547
0.000423835
0.000282142
0.000301727
0.000326938
0.000348025
0.000377457
0.000210519
0.000228565
0.000243909
0.000268206
0.000290256
0.00031193
0.000337049
0.000367438
0.000182223
0.000198406
0.000213488
0.000232122
0.00025368
0.000275864
0.000299244
0.000325864
0.000355329
0.000152725
0.000166259
0.000182039
0.000197699
0.000216651
0.000238178
0.000261123
0.00028588
0.000313352
0.000342367
0.000132962
0.000149826
0.000164584
0.000181138
0.000200427
0.000222193
0.00024589
0.000271617
0.000299686
0.000328764
0.000114099
0.000131462
0.000147039
0.000164184
0.000183755
0.000205822
0.000230096
0.000256521
0.000285079
0.000314686
9.56658e-05
0.000113898
0.00012988
0.000147253
0.000166958
0.000189189
0.000213773
0.000240726
0.000271384
0.00030206
7.85598e-05
9.7745e-05
0.000113572
0.000130815
0.000150379
0.000172461
0.000197008
0.000222986
0.00025052
6.54077e-05
8.1042e-05
9.62304e-05
0.000114632
0.000135299
0.000157659
0.000181665
0.000214265
0.000132337
0.000141056
0.000156091
0.000165237
0.00017857
9.67399e-05
0.000106302
0.00011221
0.000125822
0.000137583
0.000148105
0.000160537
0.000175675
8.54998e-05
9.40412e-05
9.98275e-05
0.000109315
0.000120116
0.000131
0.000142422
0.000155519
0.000169705
7.27553e-05
7.882e-05
8.51551e-05
9.28962e-05
0.000102349
0.000112991
0.000124213
0.000136298
0.000149731
0.000163364
6.09921e-05
7.00778e-05
7.72898e-05
8.54107e-05
9.48822e-05
0.000105531
0.000117069
0.000129583
0.00014323
0.000156717
5.24892e-05
6.16257e-05
6.92006e-05
7.75184e-05
8.70152e-05
9.77119e-05
0.000109462
0.000122252
0.00013608
0.000149794
4.39766e-05
5.33444e-05
6.10195e-05
6.93583e-05
7.88193e-05
8.94966e-05
0.000101319
0.000114295
0.000129657
0.000144076
3.57336e-05
4.54021e-05
5.28554e-05
6.10344e-05
7.03177e-05
8.08122e-05
9.2563e-05
0.000103848
0.00011516
2.95194e-05
3.57274e-05
4.23902e-05
5.16773e-05
6.23113e-05
7.33157e-05
8.47275e-05
0.000102189
0.000365919
0.000390829
0.000419236
0.000441318
0.00046389
0.000299627
0.000319374
0.000334778
0.000358169
0.000385851
0.000414739
0.000440367
0.000463898
0.000276072
0.000294767
0.000313297
0.000331549
0.000354087
0.000381758
0.000410282
0.000437586
0.000462357
0.000244455
0.000264759
0.000284663
0.00030546
0.000326302
0.000349957
0.000377047
0.000405596
0.000434308
0.000461102
0.000232006
0.000254386
0.000275771
0.000297691
0.000320281
0.000344772
0.000371784
0.000400734
0.000430963
0.000459978
0.000224432
0.000245264
0.000266624
0.000289645
0.00031359
0.000338733
0.000365964
0.00039566
0.000427567
0.00045866
0.000215757
0.000234948
0.000256745
0.000281187
0.000306318
0.000331942
0.000359589
0.000390372
0.000423669
0.000456863
0.000205486
0.000222981
0.000245978
0.000272296
0.000298407
0.000324422
0.000352812
0.000381894
0.000410142
0.000195151
0.000212096
0.000236303
0.000263028
0.000289623
0.000316873
0.000346472
0.000381842
0.000532341
0.000569115
0.000612967
0.000658912
0.00070635
0.0004198
0.000455324
0.000489461
0.000529069
0.000569098
0.000613019
0.000662385
0.00071233
0.000385681
0.000418158
0.000452601
0.000490836
0.000530959
0.000573273
0.000618776
0.000668347
0.000718361
0.000344448
0.000378494
0.000412791
0.000450337
0.00049026
0.000532615
0.000577304
0.000624556
0.000674927
0.000725481
0.000334492
0.000372264
0.000409443
0.00044864
0.000490335
0.000534671
0.000581483
0.000630577
0.000682122
0.000733828
0.00032759
0.000367153
0.000406478
0.000447517
0.000490964
0.000537209
0.00058613
0.000637214
0.000690113
0.000743357
0.000321649
0.000362792
0.000404347
0.000447121
0.000492161
0.000540288
0.000591482
0.00064483
0.000699904
0.000754632
0.000317057
0.000359925
0.000403605
0.000447756
0.000494062
0.000544022
0.000597681
0.000649217
0.000701064
0.000315739
0.000358749
0.000404312
0.000451115
0.000499486
0.000550023
0.000603126
0.000662387
SCALARS DeltaMax double 9
LOOKUP_TABLE default
0 0 0 0 0 0 0 0 0
0 0 0 0 0 0 0 0 0
0 0 0 0 0 0 0 0 0
0 0 0 0 0 0 0 0 0
0 0 0 0 0 0 0 0 0
0 0 0 0 0 0 0 0 0
0 0 0 0 0 0 0 0 0
0 0 0 0 0 0 0 0 0
0 0 0 0 0 0 0 0 0
0 0 0 0 0 0 0 0 0
0 0 0 0 0 0 0 0 0
0 0 0 0 0 0 0 0 0
0 0 0 0 0 0 0 0 0
0 0 0 0 0 0 0 0 0
0 0 0 0 0 0 0 0 0
0 0 0 0 0 0 0 0 0
0 0 0 0 0 0 0 0 0
0 0 0 0 0 0 0 0 0
0 0 0 0 0 0 0 0 0
0 0 0 0 0 0 0 0 0
0 0 0 0 0 0 0 0 0
0 0 0 0 0 0 0 0 0
0 0 0 0 0 0 0 0 0
0 0 0 0 0 0 0 0 0
0 0 0 0 0 0 0 0 0
0 0 0 0 0 0 0 0 0
0 0 0 0 0 0 0 0 0
0 0 0 0 0 0 0 0 0
0 0 0 0 0 0 0 0 0
0 0 0 0 0 0 0 0 0
0 0 0 0 0 0 0 0 0
0 0 0 0 0 0 0 0 0
0 0 0 0 0 0 0 0 0
0 0 0 0 0 0 0 0 0
0 0 0 0 0 0 0 0 0
0 0 0 0 0 0 0 0 0
0 0 0 0 0 0 0 0 0
0 0 0 0 0 0 0 0 0
0 0 0 0 0 0 0 0 0
0 0 0 0 0 0 0 0 0
0 0 0 0 0 0 0 0 0
0 0 0 0 0 0 0 0 0
0 0 0 0 0 0 0 0 0
0 0 0 0 0 0 0 0 0
0 0 0 0 0 0 0 0 0
0 0 0 0 0 0 0 0 0
0 0 0 0 0 0 0 0 0
0 0 0 0 0 0 0 0 0
0 0 0 0 0 0 0 0 0
0 0 0 0 0 0 0 0 0
0 0 0 0 0 0 0 0 0
0 0 0 0 0 0 0 0 0
0 0 0 0 0 0 0 0 0
0 0 0 0 0 0 0 0 0
0 0 0 0 0 0 0 0 0
0 0 0 0 0 0 0 0 0
0 0 0 0 0 0 0 0 0
0 0 0 0 0 0 0 0 0
0 0 0 0 0 0 0 0 0
0 0 0 0 0 0 0 0 0
0 0 0 0 0 0 0 0 0
0 0 0 0 0 0 0 0 0
0 0 0 0 0 0 0 0 0
0 0 0 0 0 0 0 0 0
0 0 0 0 0 0 0 0 0
0 0 0 0 0 0 0 0 0
0 0 0 0 0 0 0 0 0
0 0 0 0 0 0 0 0 0
0 0 0 0 0 0 0 0 0
0 0 0 0 0 0 0 0 0
0 0 0 0 0 0 0 0 0
0 0 0 0 0 0 0 0 0
0 0 0 0 0 0 0 0 0
0 0 0 0 0 0 0 0 0
0 0 0 0 0 0 0 0 0
0 0 0 0 0 0 0 0 0
0 0 0 0 0 0 0 0 0
0 0 0 0 0 0 0 0 0
0 0 0 0 0 0 0 0 0
0 0 0 0 0 0 0 0 0
0 0 0 0 0 0 0 0 0
0 0 0 0 0 0 0 0 0
0 0 0 0 0 0 0 0 0
0 0 0 0 0 0 0 0 0
0 0 0 0 0 0 0 0 0
0 0 0 0 0 0 0 0 0
0 0 0 0 0 0 0 0 0
0 0 0 0 0 0 0 0 0
0 0 0 0 0 0 0 0 0
0 0 0 0 0 0 0 0 0
0 0 0 0 0 0 0 0 0
0 0 0 0 0 0 0 0 0
0 0 0 0 0 0 0 0 0
0 0 0 0 0 0 0 0 0
0 0 0 0 0 0 0 0 0
0 0 0 0 0 0 0 0 0
0 0 0 0 0 0 0 0 0
0 0 0 0 0 0 0 0 0
0 0 0 0 0 0 0 0 0
0 0 0 0 0 0 0 0 0
0 0 0 0 0 0 0 0 0
0 0 0 0 0 0 0 0 0
0 0 0 0 0 0 0 0 0
0 0 0 0 0 0 0 0 0
0 0 0 0 0 0 0 0 0
0 0 0 0 0 0 0 0 0
0 0 0 0 0 0 0 0 0
0 0 0 0 0 0 0 0 0
0 0 0 0 0 0 0 0 0
0 0 0 0 0 0 0 0 0
0 0 0 0 0 0 0 0 0
0 0 0 0 0 0 0 0 0
0 0 0 0 0 0 0 0 0
0 0 0 0 0 0 0 0 0
0 0 0 0 0 0 0 0 0
0 0 0 0 0 0 0 0 0
0 0 0 0 0 0 0 0 0
0 0 0 0 0 0 0 0 0
0 0 0 0 0 0 0 0 0
0 0 0 0 0 0 0 0 0
0 0 0 0 0 0 0 0 0
0 0 0 0 0 0 0 0 0
0 0 0 0 0 0 0 0 0
0 0 0 0 0 0 0 0 0
0 0 0 0 0 0 0 0 0
0 0 0 0 0 0 0 0 0
0 0 0 0 0 0 0 0 0
0 0 0 0 0 0 0 0 0
0 0 0 0 0 0 0 0 0
0 0 0 0 0 0 0 0 0
0 0 0 0 0 0 0 0 0
0 0 0 0 0 0 0 0 0
0 0 0 0 0 0 0 0 0
0 0 0 0 0 0 0 0 0
0 0 0 0 0 0 0 0 0
0 0 0 0 0 0 0 0 0
0 0 0 0 0 0 0 0 0
0 0 0 0 0 0 0 0 0
0 0 0 0 0 0 0 0 0
0 0 0 0 0 0 0 0 0
0 0 0 0 0 0 0 0 0
0 0 0 0 0 0 0 0 0
0 0 0 0 0 0 0 0 0
0 0 0 0 0 0 0 0 0
0 0 0 0 0 0 0 0 0
0 0 0 0 0 0 0 0 0
0 0 0 0 0 0 0 0 0
0 0 0 0 0 0 0 0 0
0 0 0 0 0 0 0 0 0
0 0 0 0 0 0 0 0 0
0 0 0 0 0 0 0 0 0
0 0 0 0 0 0 0 0 0
0 0 0 0 0 0 0 0 0
0 0 0 0 0 0 0 0 0
0 0 0 0 0 0 0 0 0
0 0 0 0 0 0 0 0 0
0 0 0 0 0 0 0 0 0
0 0 0 0 0 0 0 0 0
6.33673e-08 7.07647e-08 6.40092e-08 7.00023e-08 6.33673e-08 7.07647e-08 6.40092e-08 7.00023e-08 0
7.49928e-08 7.91178e-08 7.27234e-08 7.41619e-08 7.49928e-08 7.91178e-08 7.27234e-08 7.41619e-08 0
8.15108e-08 8.39086e-08 7.64398e-08 8.11946e-08 8.15108e-08 8.39086e-08 7.64398e-08 8.11946e-08 0
8.47317e-08 8.46016e-08 8.33497e-08 8.4497e-08 8.47317e-08 8.46016e-08 8.33497e-08 8.4497e-08 0
8.59842e-08 8.98866e-08 8.64741e-08 9.07189e-08 8.59842e-08 8.98866e-08 8.64741e-08 9.07189e-08 0
5.20033e-08 5.3515e-08 4.99403e-08 5.18074e-08 5.20033e-08 5.3515e-08 4.99403e-08 5.18074e-08 0
5.42928e-08 5.49306e-08 5.30221e-08 5.49877e-08 5.42928e-08 5.49306e-08 5.30221e-08 5.49877e-08 0
5.65048e-08 5.94443e-08 5.69613e-08 5.98195e-08 5.65048e-08 5.94443e-08 5.69613e-08 5.98195e-08 0
6.26418e-08 6.82134e-08 6.29948e-08 7.02922e-08 6.26418e-08 6.82134e-08 6.29948e-08 7.02922e-08 0
7.19224e-08 7.64862e-08 7.47883e-08 7.97554e-08 7.19224e-08 7.64862e-08 7.47883e-08 7.97554e-08 0
7.91075e-08 8.17039e-08 8.22444e-08 8.40707e-08 7.91075e-08 8.17039e-08 8.22444e-08 8.40707e-08 0
8.30742e-08 8.42287e-08 8.4689e-08 8.45669e-08 8.30742e-08 8.42287e-08 8.4689e-08 8.45669e-08 0
8.62938e-08 9.07982e-08 8.59633e-08 8.99127e-08 8.62938e-08 9.07982e-08 8.59633e-08 8.99127e-08 0
4.81724e-08 5.08535e-08 4.82937e-08 5.11219e-08 4.81724e-08 5.08535e-08 4.82937e-08 5.11219e-08 0
5.24387e-08 5.40322e-08 5.26893e-08 5.4146e-08 5.24387e-08 5.40322e-08 5.26893e-08 5.4146e-08 0
5.49337e-08 5.58103e-08 5.48447e-08 5.53006e-08 5.49337e-08 5.58103e-08 5.48447e-08 5.53006e-08 0
5.70589e-08 5.95649e-08 5.65715e-08 5.95569e-08 5.70589e-08 5.95649e-08 5.65715e-08 5.95569e-08 0
6.19449e-08 6.59272e-08 6.23696e-08 6.70428e-08 6.19449e-08 6.59272e-08 6.23696e-08 6.70428e-08 0
6.88852e-08 7.29839e-08 7.03382e-08 7.46689e-08 6.88852e-08 7.29839e-08 7.03382e-08 7.46689e-08 0
7.56484e-08 7.88313e-08 7.73371e-08 8.02971e-08 7.56484e-08 7.88313e-08 7.73371e-08 8.02971e-08 0
8.08734e-08 8.32721e-08 8.20488e-08 8.38785e-08 8.08734e-08 8.32721e-08 8.20488e-08 8.38785e-08 0
8.58809e-08 9.06198e-08 8.62679e-08 9.09825e-08 8.58809e-08 9.06198e-08 8.62679e-08 9.09825e-08 0
3.82021e-08 4.13683e-08 4.06299e-08 4.45799e-08 3.82021e-08 4.13683e-08 4.06299e-08 4.45799e-08 0
4.42364e-08 4.78401e-08 4.70588e-08 4.99762e-08 4.42364e-08 4.78401e-08 4.70588e-08 4.99762e-08 0
5.00623e-08 5.25412e-08 5.17438e-08 5.36044e-08 5.00623e-08 5.25412e-08 5.17438e-08 5.36044e-08 0
5.40726e-08 5.5767e-08 5.47266e-08 5.59347e-08 5.40726e-08 5.5767e-08 5.47266e-08 5.59347e-08 0
5.72267e-08 5.95038e-08 5.72331e-08 5.95483e-08 5.72267e-08 5.95038e-08 5.72331e-08 5.95483e-08 0
6.15269e-08 6.4772e-08 6.17164e-08 6.53156e-08 6.15269e-08 6.4772e-08 6.17164e-08 6.53156e-08 0
6.73113e-08 7.10031e-08 6.80711e-08 7.19991e-08 6.73113e-08 7.10031e-08 6.80711e-08 7.19991e-08 0
7.36068e-08 7.70297e-08 7.46466e-08 7.79537e-08 7.36068e-08 7.70297e-08 7.46466e-08 7.79537e-08 0
7.94028e-08 8.24633e-08 8.01624e-08 8.28911e-08 7.94028e-08 8.24633e-08 8.01624e-08 8.28911e-08 0
8.52836e-08 8.99415e-08 8.56163e-08 9.03428e-08 8.52836e-08 8.99415e-08 8.56163e-08 9.03428e-08 0
3.6899e-08 3.93067e-08 3.7677e-08 3.99378e-08 3.6899e-08 3.93067e-08 3.7677e-08 3.99378e-08 0
4.11719e-08 4.49891e-08 4.26842e-08 4.65056e-08 4.11719e-08 4.49891e-08 4.26842e-08 4.65056e-08 0
4.75697e-08 5.08081e-08 4.89405e-08 5.17917e-08 4.75697e-08 5.08081e-08 4.89405e-08 5.17917e-08 0
5.28966e-08 5.53577e-08 5.35823e-08 5.56109e-08 5.28966e-08 5.53577e-08 5.35823e-08 5.56109e-08 0
5.71359e-08 5.95237e-08 5.71984e-08 5.94945e-08 5.71359e-08 5.95237e-08 5.71984e-08 5.94945e-08 0
6.14449e-08 6.43039e-08 6.14514e-08 6.44985e-08 6.14449e-08 6.43039e-08 6.14514e-08 6.44985e-08 0
6.65734e-08 6.99147e-08 6.69079e-08 7.04429e-08 6.65734e-08 6.99147e-08 6.69079e-08 7.04429e-08 0
7.24491e-08 7.60287e-08 7.30076e-08 7.64805e-08 7.24491e-08 7.60287e-08 7.30076e-08 7.64805e-08 0
7.87332e-08 8.25432e-08 7.89311e-08 8.22762e-08 7.87332e-08 8.25432e-08 7.89311e-08 8.22762e-08 0
8.53668e-08 8.95294e-08 8.50737e-08 8.97217e-08 8.53668e-08 8.95294e-08 8.50737e-08 8.97217e-08 0
3.57769e-08 3.83292e-08 3.63891e-08 3.88746e-08 3.57769e-08 3.83292e-08 3.63891e-08 3.88746e-08 0
4.02612e-08 4.29838e-08 4.0747e-08 4.39904e-08 4.02612e-08 4.29838e-08 4.0747e-08 4.39904e-08 0
4.56232e-08 4.94087e-08 4.66816e-08 5.01682e-08 4.56232e-08 4.94087e-08 4.66816e-08 5.01682e-08 0
5.19338e-08 5.50421e-08 5.24527e-08 5.52029e-08 5.19338e-08 5.50421e-08 5.24527e-08 5.52029e-08 0
5.71299e-08 5.97207e-08 5.71151e-08 5.95821e-08 5.71299e-08 5.97207e-08 5.71151e-08 5.95821e-08 0
6.16251e-08 6.42369e-08 6.14895e-08 6.42325e-08 6.16251e-08 6.42369e-08 6.14895e-08 6.42325e-08 0
6.66057e-08 7.01595e-08 6.65058e-08 6.99867e-08 6.66057e-08 7.01595e-08 6.65058e-08 6.99867e-08 0
7.28051e-08 7.64796e-08 7.25858e-08 7.62057e-08 7.28051e-08 7.64796e-08 7.25858e-08 7.62057e-08 0
7.92264e-08 8.30571e-08 7.89294e-08 8.27516e-08 7.92264e-08 8.30571e-08 7.89294e-08 8.27516e-08 0
8.59286e-08 8.9944e-08 8.55951e-08 8.95419e-08 8.59286e-08 8.9944e-08 8.55951e-08 8.95419e-08 0
3.49142e-08 3.7601e-08 3.538e-08 3.79874e-08 3.49142e-08 3.7601e-08 3.538e-08 3.79874e-08 0
3.96275e-08 4.24757e-08 3.99608e-08 4.27419e-08 3.96275e-08 4.24757e-08 3.99608e-08 4.27419e-08 0
4.45755e-08 4.8517e-08 4.49452e-08 4.89634e-08 4.45755e-08 4.8517e-08 4.49452e-08 4.89634e-08 0
5.14639e-08 5.51526e-08 5.16658e-08 5.50255e-08 5.14639e-08 5.51526e-08 5.16658e-08 5.50255e-08 0
5.75173e-08 6.02877e-08 5.72348e-08 5.99077e-08 5.75173e-08 6.02877e-08 5.72348e-08 5.99077e-08 0
6.21609e-08 6.45088e-08 6.18035e-08 6.43102e-08 6.21609e-08 6.45088e-08 6.18035e-08 6.43102e-08 0
6.68695e-08 7.05604e-08 6.67026e-08 7.03125e-08 6.68695e-08 7.05604e-08 6.67026e-08 7.03125e-08 0
7.33009e-08 7.70976e-08 7.2996e-08 7.67179e-08 7.33009e-08 7.70976e-08 7.2996e-08 7.67179e-08 0
7.99087e-08 8.37936e-08 7.94882e-08 8.33362e-08 7.99087e-08 8.37936e-08 7.94882e-08 8.33362e-08 0
8.66828e-08 9.06922e-08 8.62198e-08 9.02511e-08 8.66828e-08 9.06922e-08 8.62198e-08 9.02511e-08 0
3.42839e-08 3.71518e-08 3.46197e-08 3.73764e-08 3.42839e-08 3.71518e-08 3.46197e-08 3.73764e-08 0
3.92845e-08 4.22438e-08 3.94455e-08 4.23413e-08 3.92845e-08 4.22438e-08 3.94455e-08 4.23413e-08 0
4.44052e-08 4.81191e-08 4.44693e-08 4.8286e-08 4.44052e-08 4.81191e-08 4.44693e-08 4.8286e-08 0
5.1541e-08 5.58555e-08 5.14255e-08 5.53713e-08 5.1541e-08 5.58555e-08 5.14255e-08 5.53713e-08 0
5.84853e-08 6.13592e-08 5.78495e-08 6.0675e-08 5.84853e-08 6.13592e-08 5.78495e-08 6.0675e-08 0
6.31334e-08 6.51061e-08 6.25165e-08 6.47225e-08 6.31334e-08 6.51061e-08 6.25165e-08 6.47225e-08 0
6.72616e-08 7.1109e-08 6.70186e-08 7.0773e-08 6.72616e-08 7.1109e-08 6.70186e-08 7.0773e-08 0
7.39289e-08 7.77858e-08 7.35496e-08 7.73815e-08 7.39289e-08 7.77858e-08 7.35496e-08 7.73815e-08 0
8.06081e-08 8.44657e-08 8.02062e-08 8.40937e-08 8.06081e-08 8.44657e-08 8.02062e-08 8.40937e-08 0
3.39833e-08 3.68685e-08 3.41137e-08 3.70157e-08 3.39833e-08 3.68685e-08 3.41137e-08 3.70157e-08 0
3.9024e-08 4.20295e-08 3.91714e-08 4.21597e-08 3.9024e-08 4.20295e-08 3.91714e-08 4.21597e-08 0
4.42804e-08 4.81237e-08 4.4354e-08 4.80792e-08 4.42804e-08 4.81237e-08 4.4354e-08 4.80792e-08 0
5.10773e-08 5.48039e-08 5.14518e-08 5.57028e-08 5.10773e-08 5.48039e-08 5.14518e-08 5.57028e-08 0
5.73542e-08 6.06039e-08 5.83496e-08 6.13355e-08 5.73542e-08 6.06039e-08 5.83496e-08 6.13355e-08 0
6.28855e-08 6.58696e-08 6.32272e-08 6.54089e-08 6.28855e-08 6.58696e-08 6.32272e-08 6.54089e-08 0
6.82722e-08 7.18448e-08 6.7414e-08 7.12727e-08 6.82722e-08 7.18448e-08 6.7414e-08 7.12727e-08 0
7.50669e-08 8.02995e-08 7.41123e-08 7.88314e-08 7.50669e-08 8.02995e-08 7.41123e-08 7.88314e-08 0
0 0 0 0 0 0 0 0 0
0 0 0 0 0 0 0 0 0
0 0 0 0 0 0 0 0 0
0 0 0 0 0 0 0 0 0
0 0 0 0 0 0 0 0 0
0 0 0 0 0 0 0 0 0
0 0 0 0 0 0 0 0 0
0 0 0 0 0 0 0 0 0
0 0 0 0 0 0 0 0 0
0 0 0 0 0 0 0 0 0
0 0 0 0 0 0 0 0 0
0 0 0 0 0 0 0 0 0
0 0 0 0 0 0 0 0 0
0 0 0 0 0 0 0 0 0
0 0 0 0 0 0 0 0 0
0 0 0 0 0 0 0 0 0
0 0 0 0 0 0 0 0 0
0 0 0 0 0 0 0 0 0
0 0 0 0 0 0 0 0 0
0 0 0 0 0 0 0 0 0
0 0 0 0 0 0 0 0 0
0 0 0 0 0 0 0 0 0
0 0 0 0 0 0 0 0 0
0 0 0 0 0 0 0 0 0
0 0 0 0 0 0 0 0 0
0 0 0 0 0 0 0 0 0
0 0 0 0 0 0 0 0 0
0 0 0 0 0 0 0 0 0
0 0 0 0 0 0 0 0 0
0 0 0 0 0 0 0 0 0
0 0 0 0 0 0 0 0 0
0 0 0 0 0 0 0 0 0
0 0 0 0 0 0 0 0 0
0 0 0 0 0 0 0 0 0
0 0 0 0 0 0 0 0 0
0 0 0 0 0 0 0 0 0
0 0 0 0 0 0 0 0 0
0 0 0 0 0 0 0 0 0
0 0 0 0 0 0 0 0 0
0 0 0 0 0 0 0 0 0
0 0 0 0 0 0 0 0 0
0 0 0 0 0 0 0 0 0
0 0 0 0 0 0 0 0 0
0 0 0 0 0 0 0 0 0
0 0 0 0 0 0 0 0 0
0 0 0 0 0 0 0 0 0
0 0 0 0 0 0 0 0 0
0 0 0 0 0 0 0 0 0
0 0 0 0 0 0 0 0 0
0 0 0 0 0 0 0 0 0
0 0 0 0 0 0 0 0 0
0 0 0 0 0 0 0 0 0
0 0 0 0 0 0 0 0 0
0 0 0 0 0 0 0 0 0
0 0 0 0 0 0 0 0 0
0 0 0 0 0 0 0 0 0
0 0 0 0 0 0 0 0 0
0 0 0 0 0 0 0 0 0
0 0 0 0 0 0 0 0 0
0 0 0 0 0 0 0 0 0
0 0 0 0 0 0 0 0 0
0 0 0 0 0 0 0 0 0
0 0 0 0 0 0 0 0 0
0 0 0 0 0 0 0 0 0
0 0 0 0 0 0 0 0 0
0 0 0 0 0 0 0 0 0
0 0 0 0 0 0 0 0 0
0 0 0 0 0 0 0 0 0
0 0 0 0 0 0 0 0 0
0 0 0 0 0 0 0 0 0
0 0 0 0 0 0 0 0 0
0 0 0 0 0 0 0 0 0
0 0 0 0 0 0 0 0 0
0 0 0 0 0 0 0 0 0
0 0 0 0 0 0 0 0 0
0 0 0 0 0 0 0 0 0
0 0 0 0 0 0 0 0 0
0 0 0 0 0 0 0 0 0
0 0 0 0 0 0 0 0 0
0 0 0 0 0 0 0 0 0
0 0 0 0 0 0 0 0 0
0 0 0 0 0 0 0 0 0
0 0 0 0 0 0 0 0 0
0 0 0 0 0 0 0 0 0
0 0 0 0 0 0 0 0 0
0 0 0 0 0 0 0 0 0
0 0 0 0 0 0 0 0 0
0 0 0 0 0 0 0 0 0
0 0 0 0 0 0 0 0 0
0 0 0 0 0 0 0 0 0
0 0 0 0 0 0 0 0 0
0 0 0 0 0 0 0 0 0
0 0 0 0 0 0 0 0 0
0 0 0 0 0 0 0 0 0
0 0 0 0 0 0 0 0 0
0 0 0 0 0 0 0 0 0
0 0 0 0 0 0 0 0 0
0 0 0 0 0 0 0 0 0
0 0 0 0 0 0 0 0 0
0 0 0 0 0 0 0 0 0
0 0 0 0 0 0 0 0 0
0 0 0 0 0 0 0 0 0
0 0 0 0 0 0 0 0 0
0 0 0 0 0 0 0 0 0
0 0 0 0 0 0 0 0 0
0 0 0 0 0 0 0 0 0
0 0 0 0 0 0 0 0 0
0 0 0 0 0 0 0 0 0
0 0 0 0 0 0 0 0 0
0 0 0 0 0 0 0 0 0
0 0 0 0 0 0 0 0 0
0 0 0 0 0 0 0 0 0
0 0 0 0 0 0 0 0 0
0 0 0 0 0 0 0 0 0
0 0 0 0 0 0 0 0 0
0 0 0 0 0 0 0 0 0
0 0 0 0 0 0 0 0 0
0 0 0 0 0 0 0 0 0
0 0 0 0 0 0 0 0 0
0 0 0 0 0 0 0 0 0
0 0 0 0 0 0 0 0 0
0 0 0 0 0 0 0 0 0
0 0 0 0 0 0 0 0 0
0 0 0 0 0 0 0 0 0
0 0 0 0 0 0 0 0 0
0 0 0 0 0 0 0 0 0
0 0 0 0 0 0 0 0 0
0 0 0 0 0 0 0 0 0
0 0 0 0 0 0 0 0 0
0 0 0 0 0 0 0 0 0
0 0 0 0 0 0 0 0 0
0 0 0 0 0 0 0 0 0
0 0 0 0 0 0 0 0 0
0 0 0 0 0 0 0 0 0
0 0 0 0 0 0 0 0 0
0 0 0 0 0 0 0 0 0
0 0 0 0 0 0 0 0 0
0 0 0 0 0 0 0 0 0
0 0 0 0 0 0 0 0 0
0 0 0 0 0 0 0 0 0
0 0 0 0 0 0 0 0 0
0 0 0 0 0 0 0 0 0
0 0 0 0 0 0 0 0 0
0 0 0 0 0 0 0 0 0
0 0 0 0 0 0 0 0 0
0 0 0 0 0 0 0 0 0
0 0 0 0 0 0 0 0 0
0 0 0 0 0 0 0 0 0
0 0 0 0 0 0 0 0 0
0 0 0 0 0 0 0 0 0
0 0 0 0 0 0 0 0 0
0 0 0 0 0 0 0 0 0
0 0 0 0 0 0 0 0 0
0 0 0 0 0 0 0 0 0
0 0 0 0 0 0 0 0 0
0 0 0 0 0 0 0 0 0
0 0 0 0 0 0 0 0 0
0 0 0 0 0 0 0 0 0
0 0 0 0 0 0 0 0 0
0 0 0 0 0 0 0 0 0
0 0 0 0 0 0 0 0 0
0 0 0 0 0 0 0 0 0
0 0 0 0 0 0 0 0 0
0 0 0 0 0 0 0 0 0
0 0 0 0 0 0 0 0 0
0 0 0 0 0 0 0 0 0
0 0 0 0 0 0 0 0 0
0 0 0 0 0 0 0 0 0
0 0 0 0 0 0 0 0 0
0 0 0 0 0 0 0 0 0
0 0 0 0 0 0 0 0 0
0 0 0 0 0 0 0 0 0
0 0 0 0 0 0 0 0 0
0 0 0 0 0 0 0 0 0
0 0 0 0 0 0 0 0 0
0 0 0 0 0 0 0 0 0
0 0 0 0 0 0 0 0 0
0 0 0 0 0 0 0 0 0
0 0 0 0 0 0 0 0 0
0 0 0 0 0 0 0 0 0
0 0 0 0 0 0 0 0 0
0 0 0 0 0 0 0 0 0
0 0 0 0 0 0 0 0 0
0 0 0 0 0 0 0 0 0
0 0 0 0 0 0 0 0 0
0 0 0 0 0 0 0 0 0
0 0 0 0 0 0 0 0 0
0 0 0 0 0 0 0 0 0
0 0 0 0 0 0 0 0 0
0 0 0 0 0 0 0 0 0
0 0 0 0 0 0 0 0 0
0 0 0 0 0 0 0 0 0
0 0 0 0 0 0 0 0 0
0 0 0 0 0 0 0 0 0
0 0 0 0 0 0 0 0 0
0 0 0 0 0 0 0 0 0
0 0 0 0 0 0 0 0 0
0 0 0 0 0 0 0 0 0
0 0 0 0 0 0 0 0 0
0 0 0 0 0 0 0 0 0
0 0 0 0 0 0 0 0 0
0 0 0 0 0 0 0 0 0
0 0 0 0 0 0 0 0 0
0 0 0 0 0 0 0 0 0
0 0 0 0 0 0 0 0 0
0 0 0 0 0 0 0 0 0
0 0 0 0 0 0 0 0 0
0 0 0 0 0 0 0 0 0
0 0 0 0 0 0 0 0 0
0 0 0 0 0 0 0 0 0
0 0 0 0 0 0 0 0 0
0 0 0 0 0 0 0 0 0
0 0 0 0 0 0 0 0 0
0 0 0 0 0 0 0 0 0
0 0 0 0 0 0 0 0 0
0 0 0 0 0 0 0 0 0
0 0 0 0 0 0 0 0 0
0 0 0 0 0 0 0 0 0
0 0 0 0 0 0 0 0 0
0 0 0 0 0 0 0 0 0
0 0 0 0 0 0 0 0 0
0 0 0 0 0 0 0 0 0
0 0 0 0 0 0 0 0 0
0 0 0 0 0 0 0 0 0
0 0 0 0 0 0 0 0 0
0 0 0 0 0 0 0 0 0
0 0 0 0 0 0 0 0 0
0 0 0 0 0 0 0 0 0
0 0 0 0 0 0 0 0 0
0 0 0 0 0 0 0 0 0
0 0 0 0 0 0 0 0 0
0 0 0 0 0 0 0 0 0
0 0 0 0 0 0 0 0 0
0 0 0 0 0 0 0 0 0
0 0 0 0 0 0 0 0 0
0 0 0 0 0 0 0 0 0
0 0 0 0 0 0 0 0 0
0 0 0 0 0 0 0 0 0
0 0 0 0 0 0 0 0 0
0 0 0 0 0 0 0 0 0
0 0 0 0 0 0 0 0 0
0 0 0 0 0 0 0 0 0
0 0 0 0 0 0 0 0 0
0 0 0 0 0 0 0 0 0
0 0 0 0 0 0 0 0 0
0 0 0 0 0 0 0 0 0
0 0 0 0 0 0 0 0 0
0 0 0 0 0 0 0 0 0
0 0 0 0 0 0 0 0 0
0 0 0 0 0 0 0 0 0
0 0 0 0 0 0 0 0 0
0 0 0 0 0 0 0 0 0
0 0 0 0 0 0 0 0 0
0 0 0 0 0 0 0 0 0
0 0 0 0 0 0 0 0 0
0 0 0 0 0 0 0 0 0
0 0 0 0 0 0 0 0 0
0 0 0 0 0 0 0 0 0
0 0 0 0 0 0 0 0 0
0 0 0 0 0 0 0 0 0
0 0 0 0 0 0 0 0 0
0 0 0 0 0 0 0 0 0
0 0 0 0 0 0 0 0 0
0 0 0 0 0 0 0 0 0
0 0 0 0 0 0 0 0 0
0 0 0 0 0 0 0 0 0
0 0 0 0 0 0 0 0 0
0 0 0 0 0 0 0 0 0
0 0 0 0 0 0 0 0 0
0 0 0 0 0 0 0 0 0
0 0 0 0 0 0 0 0 0
0 0 0 0 0 0 0 0 0
0 0 0 0 0 0 0 0 0
0 0 0 0 0 0 0 0 0
0 0 0 0 0 0 0 0 0
0 0 0 0 0 0 0 0 0
0 0 0 0 0 0 0 0 0
0 0 0 0 0 0 0 0 0
0 0 0 0 0 0 0 0 0
0 0 0 0 0 0 0 0 0
0 0 0 0 0 0 0 0 0
0 0 0 0 0 0 0 0 0
0 0 0 0 0 0 0 0 0
0 0 0 0 0 0 0 0 0
0 0 0 0 0 0 0 0 0
0 0 0 0 0 0 0 0 0
0 0 0 0 0 0 0 0 0
0 0 0 0 0 0 0 0 0
0 0 0 0 0 0 0 0 0
0 0 0 0 0 0 0 0 0
0 0 0 0 0 0 0 0 0
0 0 0 0 0 0 0 0 0
0 0 0 0 0 0 0 0 0
0 0 0 0 0 0 0 0 0
0 0 0 0 0 0 0 0 0
0 0 0 0 0 0 0 0 0
0 0 0 0 0 0 0 0 0
0 0 0 0 0 0 0 0 0
0 0 0 0 0 0 0 0 0
0 0 0 0 0 0 0 0 0
0 0 0 0 0 0 0 0 0
0 0 0 0 0 0 0 0 0
0 0 0 0 0 0 0 0 0
0 0 0 0 0 0 0 0 0
0 0 0 0 0 0 0 0 0
0 0 0 0 0 0 0 0 0
0 0 0 0 0 0 0 0 0
0 0 0 0 0 0 0 0 0
0 0 0 0 0 0 0 0 0
0 0 0 0 0 0 0 0 0
0 0 0 0 0 0 0 0 0
0 0 0 0 0 0 0 0 0
0 0 0 0 0 0 0 0 0
0 0 0 0 0 0 0 0 0
0 0 0 0 0 0 0 0 0
0 0 0 0 0 0 0 0 0
0 0 0 0 0 0 0 0 0
0 0 0 0 0 0 0 0 0
0 0 0 0 0 0 0 0 0
0 0 0 0 0 0 0 0 0
0 0 0 0 0 0 0 0 0
0 0 0 0 0 0 0 0 0
0 0 0 0 0 0 0 0 0
0 0 0 0 0 0 0 0 0
0 0 0 0 0 0 0 0 0
0 0 0 0 0 0 0 0 0
0 0 0 0 0 0 0 0 0
0 0 0 0 0 0 0 0 0
0 0 0 0 0 0 0 0 0
0 0 0 0 0 0 0 0 0
0 0 0 0 0 0 0 0 0
0 0 0 0 0 0 0 0 0
0 0 0 0 0 0 0 0 0
0 0 0 0 0 0 0 0 0
0 0 0 0 0 0 0 0 0
0 0 0 0 0 0 0 0 0
0 0 0 0 0 0 0 0 0
0 0 0 0 0 0 0 0 0
0 0 0 0 0 0 0 0 0
0 0 0 0 0 0 0 0 0
0 0 0 0 0 0 0 0 0
0 0 0 0 0 0 0 0 0
0 0 0 0 0 0 0 0 0
0 0 0 0 0 0 0 0 0
0 0 0 0 0 0 0 0 0
0 0 0 0 0 0 0 0 0
0 0 0 0 0 0 0 0 0
0 0 0 0 0 0 0 0 0
0 0 0 0 0 0 0 0 0
0 0 0 0 0 0 0 0 0
0 0 0 0 0 0 0 0 0
0 0 0 0 0 0 0 0 0
0 0 0 0 0 0 0 0 0
0 0 0 0 0 0 0 0 0
0 0 0 0 0 0 0 0 0
0 0 0 0 0 0 0 0 0
0 0 0 0 0 0 0 0 0
0 0 0 0 0 0 0 0 0
0 0 0 0 0 0 0 0 0
0 0 0 0 0 0 0 0 0
0 0 0 0 0 0 0 0 0
0 0 0 0 0 0 0 0 0
0 0 0 0 0 0 0 0 0
0 0 0 0 0 0 0 0 0
0 0 0 0 0 0 0 0 0
0 0 0 0 0 0 0 0 0
0 0 0 0 0 0 0 0 0
0 0 0 0 0 0 0 0 0
0 0 0 0 0 0 0 0 0
0 0 0 0 0 0 0 0 0
0 0 0 0 0 0 0 0 0
0 0 0 0 0 0 0 0 0
0 0 0 0 0 0 0 0 0
0 0 0 0 0 0 0 0 0
0 0 0 0 0 0 0 0 0
0 0 0 0 0 0 0 0 0
0 0 0 0 0 0 0 0 0
0 0 0 0 0 0 0 0 0
0 0 0 0 0 0 0 0 0
0 0 0 0 0 0 0 0 0
0 0 0 0 0 0 0 0 0
0 0 0 0 0 0 0 0 0
0 0 0 0 0 0 0 0 0
0 0 0 0 0 0 0 0 0
0 0 0 0 0 0 0 0 0
0 0 0 0 0 0 0 0 0
0 0 0 0 0 0 0 0 0
0 0 0 0 0 0 0 0 0
0 0 0 0 0 0 0 0 0
0 0 0 0 0 0 0 0 0
0 0 0 0 0 0 0 0 0
0 0 0 0 0 0 0 0 0
0 0 0 0 0 0 0 0 0
0 0 0 0 0 0 0 0 0
0 0 0 0 0 0 0 0 0
0 0 0 0 0 0 0 0 0
0 0 0 0 0 0 0 0 0
0 0 0 0 0 0 0 0 0
0 0 0 0 0 0 0 0 0
0 0 0 0 0 0 0 0 0
0 0 0 0 0 0 0 0 0
0 0 0 0 0 0 0 0 0
0 0 0 0 0 0 0 0 0
0 0 0 0 0 0 0 0 0
0 0 0 0 0 0 0 0 0
0 0 0 0 0 0 0 0 0
0 0 0 0 0 0 0 0 0
0 0 0 0 0 0 0 0 0
0 0 0 0 0 0 0 0 0
0 0 0 0 0 0 0 0 0
0 0 0 0 0 0 0 0 0
0 0 0 0 0 0 0 0 0
0 0 0 0 0 0 0 0 0
0 0 0 0 0 0 0 0 0
0 0 0 0 0 0 0 0 0
0 0 0 0 0 0 0 0 0
0 0 0 0 0 0 0 0 0
0 0 0 0 0 0 0 0 0
0 0 0 0 0 0 0 0 0
0 0 0 0 0 0 0 0 0
0 0 0 0 0 0 0 0 0
0 0 0 0 0 0 0 0 0
0 0 0 0 0 0 0 0 0
0 0 0 0 0 0 0 0 0
0 0 0 0 0 0 0 0 0
0 0 0 0 0 0 0 0 0
0 0 0 0 0 0 0 0 0
0 0 0 0 0 0 0 0 0
0 0 0 0 0 0 0 0 0
0 0 0 0 0 0 0 0 0
0 0 0 0 0 0 0 0 0
0 0 0 0 0 0 0 0 0
0 0 0 0 0 0 0 0 0
0 0 0 0 0 0 0 0 0
0 0 0 0 0 0 0 0 0
0 0 0 0 0 0 0 0 0
0 0 0 0 0 0 0 0 0
0 0 0 0 0 0 0 0 0
0 0 0 0 0 0 0 0 0
0 0 0 0 0 0 0 0 0
0 0 0 0 0 0 0 0 0
0 0 0 0 0 0 0 0 0
0 0 0 0 0 0 0 0 0
0 0 0 0 0 0 0 0 0
0 0 0 0 0 0 0 0 0
0 0 0 0 0 0 0 0 0
0 0 0 0 0 0 0 0 0
0 0 0 0 0 0 0 0 0
0 0 0 0 0 0 0 0 0
0 0 0 0 0 0 0 0 0
0 0 0 0 0 0 0 0 0
0 0 0 0 0 0 0 0 0
0 0 0 0 0 0 0 0 0
0 0 0 0 0 0 0 0 0
0 0 0 0 0 0 0 0 0
0 0 0 0 0 0 0 0 0
0 0 0 0 0 0 0 0 0
0 0 0 0 0 0 0 0 0
0 0 0 0 0 0 0 0 0
0 0 0 0 0 0 0 0 0
0 0 0 0 0 0 0 0 0
0 0 0 0 0 0 0 0 0
0 0 0 0 0 0 0 0 0
0 0 0 0 0 0 0 0 0
0 0 0 0 0 0 0 0 0
0 0 0 0 0 0 0 0 0
0 0 0 0 0 0 0 0 0
0 0 0 0 0 0 0 0 0
0 0 0 0 0 0 0 0 0
0 0 0 0 0 0 0 0 0
0 0 0 0 0 0 0 0 0
0 0 0 0 0 0 0 0 0
0 0 0 0 0 0 0 0 0
0 0 0 0 0 0 0 0 0
0 0 0 0 0 0 0 0 0
0 0 0 0 0 0 0 0 0
0 0 0 0 0 0 0 0 0
0 0 0 0 0 0 0 0 0
0 0 0 0 0 0 0 0 0
0 0 0 0 0 0 0 0 0
0 0 0 0 0 0 0 0 0
0 0 0 0 0 0 0 0 0
0 0 0 0 0 0 0 0 0
0 0 0 0 0 0 0 0 0
0 0 0 0 0 0 0 0 0
0 0 0 0 0 0 0 0 0
0 0 0 0 0 0 0 0 0
0 0 0 0 0 0 0 0 0
0 0 0 0 0 0 0 0 0
0 0 0 0 0 0 0 0 0
0 0 0 0 0 0 0 0 0
0 0 0 0 0 0 0 0 0
0 0 0 0 0 0 0 0 0
0 0 0 0 0 0 0 0 0
0 0 0 0 0 0 0 0 0
0 0 0 0 0 0 0 0 0
0 0 0 0 0 0 0 0 0
0 0 0 0 0 0 0 0 0
0 0 0 0 0 0 0 0 0
0 0 0 0 0 0 0 0 0
0 0 0 0 0 0 0 0 0
0 0 0 0 0 0 0 0 0
0 0 0 0 0 0 0 0 0
0 0 0 0 0 0 0 0 0
0 0 0 0 0 0 0 0 0
0 0 0 0 0 0 0 0 0
0 0 0 0 0 0 0 0 0
0 0 0 0 0 0 0 0 0
0 0 0 0 0 0 0 0 0
0 0 0 0 0 0 0 0 0
0 0 0 0 0 0 0 0 0
0 0 0 0 0 0 0 0 0
0 0 0 0 0 0 0 0 0
0 0 0 0 0 0 0 0 0
0 0 0 0 0 0 0 0 0
0 0 0 0 0 0 0 0 0
0 0 0 0 0 0 0 0 0
0 0 0 0 0 0 0 0 0
0 0 0 0 0 0 0 0 0
0 0 0 0 0 0 0 0 0
0 0 0 0 0 0 0 0 0
0 0 0 0 0 0 0 0 0
0 0 0 0 0 0 0 0 0
0 0 0 0 0 0 0 0 0
0 0 0 0 0 0 0 0 0
0 0 0 0 0 0 0 0 0
0 0 0 0 0 0 0 0 0
0 0 0 0 0 0 0 0 0
0 0 0 0 0 0 0 0 0
0 0 0 0 0 0 0 0 0
0 0 0 0 0 0 0 0 0
0 0 0 0 0 0 0 0 0
0 0 0 0 0 0 0 0 0
0 0 0 0 0 0 0 0 0
0 0 0 0 0 0 0 0 0
0 0 0 0 0 0 0 0 0
0 0 0 0 0 0 0 0 0
0 0 0 0 0 0 0 0 0
0 0 0 0 0 0 0 0 0
0 0 0 0 0 0 0 0 0
0 0 0 0 0 0 0 0 0
0 0 0 0 0 0 0 0 0
0 0 0 0 0 0 0 0 0
0 0 0 0 0 0 0 0 0
0 0 0 0 0 0 0 0 0
0 0 0 0 0 0 0 0 0
0 0 0 0 0 0 0 0 0
0 0 0 0 0 0 0 0 0
0 0 0 0 0 0 0 0 0
0 0 0 0 0 0 0 0 0
0 0 0 0 0 0 0 0 0
0 0 0 0 0 0 0 0 0
0 0 0 0 0 0 0 0 0
0 0 0 0 0 0 0 0 0
0 0 0 0 0 0 0 0 0
0 0 0 0 0 0 0 0 0
0 0 0 0 0 0 0 0 0
0 0 0 0 0 0 0 0 0
0 0 0 0 0 0 0 0 0
0 0 0 0 0 0 0 0 0
0 0 0 0 0 0 0 0 0
0 0 0 0 0 0 0 0 0
0 0 0 0 0 0 0 0 0
0 0 0 0 0 0 0 0 0
0 0 0 0 0 0 0 0 0
0 0 0 0 0 0 0 0 0
0 0 0 0 0 0 0 0 0
0 0 0 0 0 0 0 0 0
0 0 0 0 0 0 0 0 0
0 0 0 0 0 0 0 0 0
0 0 0 0 0 0 0 0 0
0 0 0 0 0 0 0 0 0
0 0 0 0 0 0 0 0 0
0 0 0 0 0 0 0 0 0
0 0 0 0 0 0 0 0 0
0 0 0 0 0 0 0 0 0
0 0 0 0 0 0 0 0 0
0 0 0 0 0 0 0 0 0
0 0 0 0 0 0 0 0 0
0 0 0 0 0 0 0 0 0
0 0 0 0 0 0 0 0 0
0 0 0 0 0 0 0 0 0
0 0 0 0 0 0 0 0 0
0 0 0 0 0 0 0 0 0
0 0 0 0 0 0 0 0 0
0 0 0 0 0 0 0 0 0
0 0 0 0 0 0 0 0 0
0 0 0 0 0 0 0 0 0
0 0 0 0 0 0 0 0 0
0 0 0 0 0 0 0 0 0
0 0 0 0 0 0 0 0 0
0 0 0 0 0 0 0 0 0
0 0 0 0 0 0 0 0 0
0 0 0 0 0 0 0 0 0
0 0 0 0 0 0 0 0 0
0 0 0 0 0 0 0 0 0
0 0 0 0 0 0 0 0 0
0 0 0 0 0 0 0 0 0
0 0 0 0 0 0 0 0 0
0 0 0 0 0 0 0 0 0
0 0 0 0 0 0 0 0 0
0 0 0 0 0 0 0 0 0
0 0 0 0 0 0 0 0 0
0 0 0 0 0 0 0 0 0
0 0 0 0 0 0 0 0 0
0 0 0 0 0 0 0 0 0
0 0 0 0 0 0 0 0 0
0 0 0 0 0 0 0 0 0
0 0 0 0 0 0 0 0 0
0 0 0 0 0 0 0 0 0
0 0 0 0 0 0 0 0 0
0 0 0 0 0 0 0 0 0
0 0 0 0 0 0 0 0 0
0 0 0 0 0 0 0 0 0
0 0 0 0 0 0 0 0 0
0 0 0 0 0 0 0 0 0
0 0 0 0 0 0 0 0 0
0 0 0 0 0 0 0 0 0
0 0 0 0 0 0 0 0 0
0 0 0 0 0 0 0 0 0
0 0 0 0 0 0 0 0 0
0 0 0 0 0 0 0 0 0
0 0 0 0 0 0 0 0 0
0 0 0 0 0 0 0 0 0
0 0 0 0 0 0 0 0 0
0 0 0 0 0 0 0 0 0
0 0 0 0 0 0 0 0 0
0 0 0 0 0 0 0 0 0
0 0 0 0 0 0 0 0 0
0 0 0 0 0 0 0 0 0
0 0 0 0 0 0 0 0 0
0 0 0 0 0 0 0 0 0
0 0 0 0 0 0 0 0 0
0 0 0 0 0 0 0 0 0
0 0 0 0 0 0 0 0 0
0 0 0 0 0 0 0 0 0
0 0 0 0 0 0 0 0 0
0 0 0 0 0 0 0 0 0
0 0 0 0 0 0 0 0 0
0 0 0 0 0 0 0 0 0
0 0 0 0 0 0 0 0 0
0 0 0 0 0 0 0 0 0
0 0 0 0 0 0 0 0 0
0 0 0 0 0 0 0 0 0
0 0 0 0 0 0 0 0 0
0 0 0 0 0 0 0 0 0
0 0 0 0 0 0 0 0 0
0 0 0 0 0 0 0 0 0
0 0 0 0 0 0 0 0 0
0 0 0 0 0 0 0 0 0
0 0 0 0 0 0 0 0 0
0 0 0 0 0 0 0 0 0
0 0 0 0 0 0 0 0 0
0 0 0 0 0 0 0 0 0
0 0 0 0 0 0 0 0 0
0 0 0 0 0 0 0 0 0
0 0 0 0 0 0 0 0 0
0 0 0 0 0 0 0 0 0
0 0 0 0 0 0 0 0 0
0 0 0 0 0 0 0 0 0
0 0 0 0 0 0 0 0 0
0 0 0 0 0 0 0 0 0
0 0 0 0 0 0 0 0 0
0 0 0 0 0 0 0 0 0
0 0 0 0 0 0 0 0 0
0 0 0 0 0 0 0 0 0
0 0 0 0 0 0 0 0 0
0 0 0 0 0 0 0 0 0
0 0 0 0 0 0 0 0 0
0 0 0 0 0 0 0 0 0
0 0 0 0 0 0 0 0 0
0 0 0 0 0 0 0 0 0
0 0 0 0 0 0 0 0 0
0 0 0 0 0 0 0 0 0
0 0 0 0 0 0 0 0 0
0 0 0 0 0 0 0 0 0
0 0 0 0 0 0 0 0 0
0 0 0 0 0 0 0 0 0
0 0 0 0 0 0 0 0 0
0 0 0 0 0 0 0 0 0
0 0 0 0 0 0 0 0 0
0 0 0 0 0 0 0 0 0
0 0 0 0 0 0 0 0 0
0 0 0 0 0 0 0 0 0
0 0 0 0 0 0 0 0 0
0 0 0 0 0 0 0 0 0
0 0 0 0 0 0 0 0 0
0 0 0 0 0 0 0 0 0
0 0 0 0 0 0 0 0 0
0 0 0 0 0 0 0 0 0
0 0 0 0 0 0 0 0 0
0 0 0 0 0 0 0 0 0
0 0 0 0 0 0 0 0 0
0 0 0 0 0 0 0 0 0
0 0 0 0 0 0 0 0 0
0 0 0 0 0 0 0 0 0
0 0 0 0 0 0 0 0 0
0 0 0 0 0 0 0 0 0
0 0 0 0 0 0 0 0 0
0 0 0 0 0 0 0 0 0
0 0 0 0 0 0 0 0 0
0 0 0 0 0 0 0 0 0
0 0 0 0 0 0 0 0 0
0 0 0 0 0 0 0 0 0
0 0 0 0 0 0 0 0 0
0 0 0 0 0 0 0 0 0
0 0 0 0 0 0 0 0 0
0 0 0 0 0 0 0 0 0
0 0 0 0 0 0 0 0 0
0 0 0 0 0 0 0 0 0
0 0 0 0 0 0 0 0 0
1.12431e-07 1.17586e-07 1.13132e-07 1.18259e-07 1.12431e-07 1.17586e-07 1.13132e-07 1.18259e-07 0
1.21535e-07 1.276e-07 1.22187e-07 1.28172e-07 1.21535e-07 1.276e-07 1.22187e-07 1.28172e-07 0
1.33224e-07 1.41077e-07 1.33914e-07 1.41932e-07 1.33224e-07 1.41077e-07 1.33914e-07 1.41932e-07 0
1.45971e-07 1.51497e-07 1.46996e-07 1.52802e-07 1.45971e-07 1.51497e-07 1.46996e-07 1.52802e-07 0
1.55784e-07 1.6199e-07 1.56298e-07 1.60102e-07 1.55784e-07 1.6199e-07 1.56298e-07 1.60102e-07 0
8.76395e-08 9.25436e-08 8.81571e-08 9.286e-08 8.76395e-08 9.25436e-08 8.81571e-08 9.286e-08 0
9.5746e-08 9.96074e-08 9.63742e-08 1.00531e-07 9.5746e-08 9.96074e-08 9.63742e-08 1.00531e-07 0
1.02684e-07 1.07601e-07 1.03388e-07 1.08251e-07 1.02684e-07 1.07601e-07 1.03388e-07 1.08251e-07 0
1.11354e-07 1.16686e-07 1.11954e-07 1.17163e-07 1.11354e-07 1.16686e-07 1.11954e-07 1.17163e-07 0
1.20742e-07 1.27024e-07 1.21144e-07 1.27278e-07 1.20742e-07 1.27024e-07 1.21144e-07 1.27278e-07 0
1.32282e-07 1.39608e-07 1.3277e-07 1.40441e-07 1.32282e-07 1.39608e-07 1.3277e-07 1.40441e-07 0
1.44617e-07 1.5098e-07 1.45327e-07 1.51018e-07 1.44617e-07 1.5098e-07 1.45327e-07 1.51018e-07 0
1.55987e-07 1.63302e-07 1.55713e-07 1.62852e-07 1.55987e-07 1.63302e-07 1.55713e-07 1.62852e-07 0
7.72719e-08 8.15291e-08 7.88049e-08 8.31356e-08 7.72719e-08 8.15291e-08 7.88049e-08 8.31356e-08 0
8.50749e-08 9.01805e-08 8.69766e-08 9.18138e-08 8.50749e-08 9.01805e-08 8.69766e-08 9.18138e-08 0
9.36992e-08 9.81978e-08 9.50271e-08 9.89768e-08 9.36992e-08 9.81978e-08 9.50271e-08 9.89768e-08 0
1.0153e-07 1.06522e-07 1.02154e-07 1.07135e-07 1.0153e-07 1.06522e-07 1.02154e-07 1.07135e-07 0
1.10427e-07 1.1595e-07 1.10943e-07 1.16359e-07 1.10427e-07 1.1595e-07 1.10943e-07 1.16359e-07 0
1.2013e-07 1.26497e-07 1.20469e-07 1.26814e-07 1.2013e-07 1.26497e-07 1.20469e-07 1.26814e-07 0
1.31485e-07 1.38518e-07 1.31938e-07 1.39094e-07 1.31485e-07 1.38518e-07 1.31938e-07 1.39094e-07 0
1.43589e-07 1.50411e-07 1.44151e-07 1.50814e-07 1.43589e-07 1.50411e-07 1.44151e-07 1.50814e-07 0
1.55707e-07 1.63353e-07 1.5598e-07 1.63429e-07 1.55707e-07 1.63353e-07 1.5598e-07 1.63429e-07 0
6.72745e-08 7.14875e-08 6.88318e-08 7.30309e-08 6.72745e-08 7.14875e-08 6.88318e-08 7.30309e-08 0
7.47122e-08 7.93007e-08 7.61716e-08 8.05529e-08 7.47122e-08 7.93007e-08 7.61716e-08 8.05529e-08 0
8.27552e-08 8.79451e-08 8.39162e-08 8.91493e-08 8.27552e-08 8.79451e-08 8.39162e-08 8.91493e-08 0
9.18166e-08 9.69355e-08 9.28346e-08 9.76467e-08 9.18166e-08 9.69355e-08 9.28346e-08 9.76467e-08 0
1.00672e-07 1.05758e-07 1.01169e-07 1.06096e-07 1.00672e-07 1.05758e-07 1.01169e-07 1.06096e-07 0
1.09667e-07 1.15336e-07 1.10069e-07 1.15674e-07 1.09667e-07 1.15336e-07 1.10069e-07 1.15674e-07 0
1.19652e-07 1.25934e-07 1.1991e-07 1.2626e-07 1.19652e-07 1.25934e-07 1.1991e-07 1.2626e-07 0
1.30753e-07 1.37607e-07 1.31167e-07 1.38118e-07 1.30753e-07 1.37607e-07 1.31167e-07 1.38118e-07 0
1.42727e-07 1.49861e-07 1.43205e-07 1.50153e-07 1.42727e-07 1.49861e-07 1.43205e-07 1.50153e-07 0
1.55346e-07 1.63203e-07 1.55533e-07 1.63286e-07 1.55346e-07 1.63203e-07 1.55533e-07 1.63286e-07 0
6.4913e-08 6.92735e-08 6.62214e-08 7.04802e-08 6.4913e-08 6.92735e-08 6.62214e-08 7.04802e-08 0
7.26402e-08 7.74655e-08 7.37659e-08 7.84721e-08 7.26402e-08 7.74655e-08 7.37659e-08 7.84721e-08 0
8.10815e-08 8.63687e-08 8.20028e-08 8.72032e-08 8.10815e-08 8.63687e-08 8.20028e-08 8.72032e-08 0
9.04916e-08 9.60474e-08 9.11917e-08 9.65065e-08 9.04916e-08 9.60474e-08 9.11917e-08 9.65065e-08 0
1.00056e-07 1.05446e-07 1.00372e-07 1.05613e-07 1.00056e-07 1.05446e-07 1.00372e-07 1.05613e-07 0
1.09459e-07 1.15031e-07 1.09576e-07 1.15162e-07 1.09459e-07 1.15031e-07 1.09576e-07 1.15162e-07 0
1.1934e-07 1.2559e-07 1.19497e-07 1.25699e-07 1.1934e-07 1.2559e-07 1.19497e-07 1.25699e-07 0
1.30279e-07 1.36841e-07 1.30463e-07 1.37262e-07 1.30279e-07 1.36841e-07 1.30463e-07 1.37262e-07 0
1.41981e-07 1.49288e-07 1.42397e-07 1.49625e-07 1.41981e-07 1.49288e-07 1.42397e-07 1.49625e-07 0
1.54989e-07 1.6327e-07 1.55196e-07 1.63196e-07 1.54989e-07 1.6327e-07 1.55196e-07 1.63196e-07 0
6.29649e-08 6.75265e-08 6.40385e-08 6.84804e-08 6.29649e-08 6.75265e-08 6.40385e-08 6.84804e-08 0
7.10368e-08 7.60538e-08 7.19075e-08 7.68162e-08 7.10368e-08 7.60538e-08 7.19075e-08 7.68162e-08 0
7.98005e-08 8.54195e-08 8.04899e-08 8.58923e-08 7.98005e-08 8.54195e-08 8.04899e-08 8.58923e-08 0
8.97936e-08 9.57122e-08 9.01175e-08 9.58341e-08 8.97936e-08 9.57122e-08 9.01175e-08 9.58341e-08 0
9.99107e-08 1.05459e-07 9.99312e-08 1.05404e-07 9.99107e-08 1.05459e-07 9.99312e-08 1.05404e-07 0
1.09486e-07 1.14938e-07 1.09433e-07 1.1497e-07 1.09486e-07 1.14938e-07 1.09433e-07 1.1497e-07 0
1.19232e-07 1.25666e-07 1.19267e-07 1.25594e-07 1.19232e-07 1.25666e-07 1.19267e-07 1.25594e-07 0
1.30486e-07 1.37222e-07 1.30339e-07 1.36974e-07 1.30486e-07 1.37222e-07 1.30339e-07 1.36974e-07 0
1.42259e-07 1.49289e-07 1.41945e-07 1.49073e-07 1.42259e-07 1.49289e-07 1.41945e-07 1.49073e-07 0
1.54753e-07 1.6338e-07 1.54864e-07 1.63313e-07 1.54753e-07 1.6338e-07 1.54864e-07 1.63313e-07 0
6.13962e-08 6.62421e-08 6.22539e-08 6.69253e-08 6.13962e-08 6.62421e-08 6.22539e-08 6.69253e-08 0
6.99127e-08 7.50879e-08 7.05013e-08 7.55894e-08 6.99127e-08 7.50879e-08 7.05013e-08 7.55894e-08 0
7.89416e-08 8.50328e-08 7.93842e-08 8.51883e-08 7.89416e-08 8.50328e-08 7.93842e-08 8.51883e-08 0
8.97162e-08 9.60079e-08 8.96854e-08 9.57582e-08 8.97162e-08 9.60079e-08 8.96854e-08 9.57582e-08 0
1.00359e-07 1.05954e-07 1.00025e-07 1.05606e-07 1.00359e-07 1.05954e-07 1.00025e-07 1.05606e-07 0
1.0991e-07 1.15122e-07 1.09614e-07 1.14979e-07 1.0991e-07 1.15122e-07 1.09614e-07 1.14979e-07 0
1.19357e-07 1.25982e-07 1.19255e-07 1.25768e-07 1.19357e-07 1.25982e-07 1.19255e-07 1.25768e-07 0
1.30939e-07 1.37861e-07 1.30645e-07 1.37457e-07 1.30939e-07 1.37861e-07 1.30645e-07 1.37457e-07 0
1.43004e-07 1.50138e-07 1.42542e-07 1.49623e-07 1.43004e-07 1.50138e-07 1.42542e-07 1.49623e-07 0
1.5613e-07 1.64065e-07 1.55107e-07 1.63579e-07 1.5613e-07 1.64065e-07 1.55107e-07 1.63579e-07 0
6.02802e-08 6.54119e-08 6.0865e-08 6.58349e-08 6.02802e-08 6.54119e-08 6.0865e-08 6.58349e-08 0
6.92464e-08 7.45885e-08 6.95751e-08 7.48185e-08 6.92464e-08 7.45885e-08 6.95751e-08 7.48185e-08 0
7.85402e-08 8.51208e-08 7.87143e-08 8.50117e-08 7.85402e-08 8.51208e-08 7.87143e-08 8.50117e-08 0
9.02528e-08 9.69609e-08 8.98657e-08 9.63286e-08 9.02528e-08 9.69609e-08 8.98657e-08 9.63286e-08 0
1.01439e-07 1.06965e-07 1.00737e-07 1.06318e-07 1.01439e-07 1.06965e-07 1.00737e-07 1.06318e-07 0
1.10766e-07 1.15613e-07 1.1022e-07 1.15293e-07 1.10766e-07 1.15613e-07 1.1022e-07 1.15293e-07 0
1.19745e-07 1.26576e-07 1.19486e-07 1.26196e-07 1.19745e-07 1.26576e-07 1.19486e-07 1.26196e-07 0
1.31689e-07 1.38832e-07 1.31217e-07 1.38228e-07 1.31689e-07 1.38832e-07 1.31217e-07 1.38228e-07 0
1.44069e-07 1.51626e-07 1.43411e-07 1.50682e-07 1.44069e-07 1.51626e-07 1.43411e-07 1.50682e-07 0
5.95528e-08 6.49244e-08 5.99291e-08 6.51685e-08 5.95528e-08 6.49244e-08 5.99291e-08 6.51685e-08 0
6.89252e-08 7.4484e-08 6.90726e-08 7.44987e-08 6.89252e-08 7.4484e-08 6.90726e-08 7.44987e-08 0
7.85927e-08 8.50641e-08 7.85065e-08 8.51406e-08 7.85927e-08 8.50641e-08 7.85065e-08 8.51406e-08 0
9.02192e-08 9.69219e-08 9.03517e-08 9.71144e-08 9.02192e-08 9.69219e-08 9.03517e-08 9.71144e-08 0
1.01415e-07 1.06991e-07 1.01609e-07 1.07128e-07 1.01415e-07 1.06991e-07 1.01609e-07 1.07128e-07 0
1.11018e-07 1.16439e-07 1.10962e-07 1.15907e-07 1.11018e-07 1.16439e-07 1.10962e-07 1.15907e-07 0
1.20763e-07 1.2715e-07 1.19926e-07 1.26803e-07 1.20763e-07 1.2715e-07 1.19926e-07 1.26803e-07 0
1.32256e-07 1.39821e-07 1.31966e-07 1.392e-07 1.32256e-07 1.39821e-07 1.31966e-07 1.392e-07 0
0 0 0 0 0 0 0 0 0
0 0 0 0 0 0 0 0 0
0 0 0 0 0 0 0 0 0
0 0 0 0 0 0 0 0 0
0 0 0 0 0 0 0 0 0
0 0 0 0 0 0 0 0 0
0 0 0 0 0 0 0 0 0
0 0 0 0 0 0 0 0 0
0 0 0 0 0 0 0 0 0
0 0 0 0 0 0 0 0 0
0 0 0 0 0 0 0 0 0
0 0 0 0 0 0 0 0 0
0 0 0 0 0 0 0 0 0
0 0 0 0 0 0 0 0 0
0 0 0 0 0 0 0 0 0
0 0 0 0 0 0 0 0 0
0 0 0 0 0 0 0 0 0
0 0 0 0 0 0 0 0 0
0 0 0 0 0 0 0 0 0
0 0 0 0 0 0 0 0 0
0 0 0 0 0 0 0 0 0
0 0 0 0 0 0 0 0 0
0 0 0 0 0 0 0 0 0
0 0 0 0 0 0 0 0 0
0 0 0 0 0 0 0 0 0
0 0 0 0 0 0 0 0 0
0 0 0 0 0 0 0 0 0
0 0 0 0 0 0 0 0 0
0 0 0 0 0 0 0 0 0
0 0 0 0 0 0 0 0 0
0 0 0 0 0 0 0 0 0
0 0 0 0 0 0 0 0 0
0 0 0 0 0 0 0 0 0
0 0 0 0 0 0 0 0 0
0 0 0 0 0 0 0 0 0
0 0 0 0 0 0 0 0 0
0 0 0 0 0 0 0 0 0
0 0 0 0 0 0 0 0 0
0 0 0 0 0 0 0 0 0
0 0 0 0 0 0 0 0 0
0 0 0 0 0 0 0 0 0
0 0 0 0 0 0 0 0 0
0 0 0 0 0 0 0 0 0
0 0 0 0 0 0 0 0 0
0 0 0 0 0 0 0 0 0
0 0 0 0 0 0 0 0 0
0 0 0 0 0 0 0 0 0
0 0 0 0 0 0 0 0 0
0 0 0 0 0 0 0 0 0
0 0 0 0 0 0 0 0 0
0 0 0 0 0 0 0 0 0
0 0 0 0 0 0 0 0 0
0 0 0 0 0 0 0 0 0
0 0 0 0 0 0 0 0 0
0 0 0 0 0 0 0 0 0
0 0 0 0 0 0 0 0 0
0 0 0 0 0 0 0 0 0
0 0 0 0 0 0 0 0 0
0 0 0 0 0 0 0 0 0
0 0 0 0 0 0 0 0 0
0 0 0 0 0 0 0 0 0
0 0 0 0 0 0 0 0 0
0 0 0 0 0 0 0 0 0
0 0 0 0 0 0 0 0 0
0 0 0 0 0 0 0 0 0
0 0 0 0 0 0 0 0 0
0 0 0 0 0 0 0 0 0
0 0 0 0 0 0 0 0 0
0 0 0 0 0 0 0 0 0
0 0 0 0 0 0 0 0 0
0 0 0 0 0 0 0 0 0
0 0 0 0 0 0 0 0 0
0 0 0 0 0 0 0 0 0
0 0 0 0 0 0 0 0 0
0 0 0 0 0 0 0 0 0
0 0 0 0 0 0 0 0 0
0 0 0 0 0 0 0 0 0
0 0 0 0 0 0 0 0 0
0 0 0 0 0 0 0 0 0
0 0 0 0 0 0 0 0 0
0 0 0 0 0 0 0 0 0
0 0 0 0 0 0 0 0 0
0 0 0 0 0 0 0 0 0
0 0 0 0 0 0 0 0 0
0 0 0 0 0 0 0 0 0
0 0 0 0 0 0 0 0 0
0 0 0 0 0 0 0 0 0
0 0 0 0 0 0 0 0 0
0 0 0 0 0 0 0 0 0
0 0 0 0 0 0 0 0 0
0 0 0 0 0 0 0 0 0
0 0 0 0 0 0 0 0 0
0 0 0 0 0 0 0 0 0
0 0 0 0 0 0 0 0 0
0 0 0 0 0 0 0 0 0
0 0 0 0 0 0 0 0 0
0 0 0 0 0 0 0 0 0
0 0 0 0 0 0 0 0 0
0 0 0 0 0 0 0 0 0
0 0 0 0 0 0 0 0 0
0 0 0 0 0 0 0 0 0
0 0 0 0 0 0 0 0 0
0 0 0 0 0 0 0 0 0
0 0 0 0 0 0 0 0 0
0 0 0 0 0 0 0 0 0
0 0 0 0 0 0 0 0 0
0 0 0 0 0 0 0 0 0
0 0 0 0 0 0 0 0 0
0 0 0 0 0 0 0 0 0
0 0 0 0 0 0 0 0 0
0 0 0 0 0 0 0 0 0
0 0 0 0 0 0 0 0 0
0 0 0 0 0 0 0 0 0
0 0 0 0 0 0 0 0 0
0 0 0 0 0 0 0 0 0
0 0 0 0 0 0 0 0 0
0 0 0 0 0 0 0 0 0
0 0 0 0 0 0 0 0 0
0 0 0 0 0 0 0 0 0
0 0 0 0 0 0 0 0 0
0 0 0 0 0 0 0 0 0
0 0 0 0 0 0 0 0 0
0 0 0 0 0 0 0 0 0
0 0 0 0 0 0 0 0 0
0 0 0 0 0 0 0 0 0
0 0 0 0 0 0 0 0 0
0 0 0 0 0 0 0 0 0
0 0 0 0 0 0 0 0 0
0 0 0 0 0 0 0 0 0
0 0 0 0 0 0 0 0 0
0 0 0 0 0 0 0 0 0
0 0 0 0 0 0 0 0 0
0 0 0 0 0 0 0 0 0
0 0 0 0 0 0 0 0 0
0 0 0 0 0 0 0 0 0
0 0 0 0 0 0 0 0 0
0 0 0 0 0 0 0 0 0
0 0 0 0 0 0 0 0 0
0 0 0 0 0 0 0 0 0
0 0 0 0 0 0 0 0 0
0 0 0 0 0 0 0 0 0
0 0 0 0 0 0 0 0 0
0 0 0 0 0 0 0 0 0
0 0 0 0 0 0 0 0 0
0 0 0 0 0 0 0 0 0
0 0 0 0 0 0 0 0 0
0 0 0 0 0 0 0 0 0
0 0 0 0 0 0 0 0 0
0 0 0 0 0 0 0 0 0
0 0 0 0 0 0 0 0 0
0 0 0 0 0 0 0 0 0
0 0 0 0 0 0 0 0 0
0 0 0 0 0 0 0 0 0
0 0 0 0 0 0 0 0 0
0 0 0 0 0 0 0 0 0
0 0 0 0 0 0 0 0 0
0 0 0 0 0 0 0 0 0
0 0 0 0 0 0 0 0 0
0 0 0 0 0 0 0 0 0
0 0 0 0 0 0 0 0 0
0 0 0 0 0 0 0 0 0
0 0 0 0 0 0 0 0 0
0 0 0 0 0 0 0 0 0
0 0 0 0 0 0 0 0 0
0 0 0 0 0 0 0 0 0
0 0 0 0 0 0 0 0 0
0 0 0 0 0 0 0 0 0
0 0 0 0 0 0 0 0 0
0 0 0 0 0 0 0 0 0
0 0 0 0 0 0 0 0 0
0 0 0 0 0 0 0 0 0
0 0 0 0 0 0 0 0 0
0 0 0 0 0 0 0 0 0
0 0 0 0 0 0 0 0 0
0 0 0 0 0 0 0 0 0
0 0 0 0 0 0 0 0 0
0 0 0 0 0 0 0 0 0
0 0 0 0 0 0 0 0 0
0 0 0 0 0 0 0 0 0
0 0 0 0 0 0 0 0 0
0 0 0 0 0 0 0 0 0
0 0 0 0 0 0 0 0 0
0 0 0 0 0 0 0 0 0
0 0 0 0 0 0 0 0 0
0 0 0 0 0 0 0 0 0
0 0 0 0 0 0 0 0 0
0 0 0 0 0 0 0 0 0
0 0 0 0 0 0 0 0 0
0 0 0 0 0 0 0 0 0
0 0 0 0 0 0 0 0 0
0 0 0 0 0 0 0 0 0
0 0 0 0 0 0 0 0 0
0 0 0 0 0 0 0 0 0
0 0 0 0 0 0 0 0 0
0 0 0 0 0 0 0 0 0
0 0 0 0 0 0 0 0 0
0 0 0 0 0 0 0 0 0
0 0 0 0 0 0 0 0 0
0 0 0 0 0 0 0 0 0
0 0 0 0 0 0 0 0 0
0 0 0 0 0 0 0 0 0
0 0 0 0 0 0 0 0 0
0 0 0 0 0 0 0 0 0
0 0 0 0 0 0 0 0 0
0 0 0 0 0 0 0 0 0
0 0 0 0 0 0 0 0 0
0 0 0 0 0 0 0 0 0
0 0 0 0 0 0 0 0 0
0 0 0 0 0 0 0 0 0
0 0 0 0 0 0 0 0 0
0 0 0 0 0 0 0 0 0
0 0 0 0 0 0 0 0 0
0 0 0 0 0 0 0 0 0
0 0 0 0 0 0 0 0 0
0 0 0 0 0 0 0 0 0
0 0 0 0 0 0 0 0 0
0 0 0 0 0 0 0 0 0
0 0 0 0 0 0 0 0 0
0 0 0 0 0 0 0 0 0
0 0 0 0 0 0 0 0 0
0 0 0 0 0 0 0 0 0
0 0 0 0 0 0 0 0 0
0 0 0 0 0 0 0 0 0
0 0 0 0 0 0 0 0 0
0 0 0 0 0 0 0 0 0
0 0 0 0 0 0 0 0 0
0 0 0 0 0 0 0 0 0
0 0 0 0 0 0 0 0 0
0 0 0 0 0 0 0 0 0
0 0 0 0 0 0 0 0 0
0 0 0 0 0 0 0 0 0
0 0 0 0 0 0 0 0 0
0 0 0 0 0 0 0 0 0
0 0 0 0 0 0 0 0 0
0 0 0 0 0 0 0 0 0
0 0 0 0 0 0 0 0 0
0 0 0 0 0 0 0 0 0
0 0 0 0 0 0 0 0 0
0 0 0 0 0 0 0 0 0
0 0 0 0 0 0 0 0 0
0 0 0 0 0 0 0 0 0
0 0 0 0 0 0 0 0 0
0 0 0 0 0 0 0 0 0
0 0 0 0 0 0 0 0 0
0 0 0 0 0 0 0 0 0
0 0 0 0 0 0 0 0 0
0 0 0 0 0 0 0 0 0
0 0 0 0 0 0 0 0 0
0 0 0 0 0 0 0 0 0
0 0 0 0 0 0 0 0 0
0 0 0 0 0 0 0 0 0
0 0 0 0 0 0 0 0 0
0 0 0 0 0 0 0 0 0
0 0 0 0 0 0 0 0 0
0 0 0 0 0 0 0 0 0
0 0 0 0 0 0 0 0 0
0 0 0 0 0 0 0 0 0
0 0 0 0 0 0 0 0 0
0 0 0 0 0 0 0 0 0
0 0 0 0 0 0 0 0 0
0 0 0 0 0 0 0 0 0
0 0 0 0 0 0 0 0 0
0 0 0 0 0 0 0 0 0
0 0 0 0 0 0 0 0 0
0 0 0 0 0 0 0 0 0
0 0 0 0 0 0 0 0 0
0 0 0 0 0 0 0 0 0
0 0 0 0 0 0 0 0 0
0 0 0 0 0 0 0 0 0
0 0 0 0 0 0 0 0 0
0 0 0 0 0 0 0 0 0
0 0 0 0 0 0 0 0 0
0 0 0 0 0 0 0 0 0
0 0 0 0 0 0 0 0 0
0 0 0 0 0 0 0 0 0
0 0 0 0 0 0 0 0 0
0 0 0 0 0 0 0 0 0
0 0 0 0 0 0 0 0 0
0 0 0 0 0 0 0 0 0
0 0 0 0 0 0 0 0 0
0 0 0 0 0 0 0 0 0
0 0 0 0 0 0 0 0 0
0 0 0 0 0 0 0 0 0
0 0 0 0 0 0 0 0 0
0 0 0 0 0 0 0 0 0
0 0 0 0 0 0 0 0 0
0 0 0 0 0 0 0 0 0
0 0 0 0 0 0 0 0 0
0 0 0 0 0 0 0 0 0
0 0 0 0 0 0 0 0 0
0 0 0 0 0 0 0 0 0
0 0 0 0 0 0 0 0 0
0 0 0 0 0 0 0 0 0
0 0 0 0 0 0 0 0 0
0 0 0 0 0 0 0 0 0
0 0 0 0 0 0 0 0 0
0 0 0 0 0 0 0 0 0
0 0 0 0 0 0 0 0 0
0 0 0 0 0 0 0 0 0
0 0 0 0 0 0 0 0 0
0 0 0 0 0 0 0 0 0
0 0 0 0 0 0 0 0 0
0 0 0 0 0 0 0 0 0
0 0 0 0 0 0 0 0 0
0 0 0 0 0 0 0 0 0
0 0 0 0 0 0 0 0 0
0 0 0 0 0 0 0 0 0
0 0 0 0 0 0 0 0 0
0 0 0 0 0 0 0 0 0
0 0 0 0 0 0 0 0 0
0 0 0 0 0 0 0 0 0
0 0 0 0 0 0 0 0 0
0 0 0 0 0 0 0 0 0
0 0 0 0 0 0 0 0 0
0 0 0 0 0 0 0 0 0
0 0 0 0 0 0 0 0 0
0 0 0 0 0 0 0 0 0
0 0 0 0 0 0 0 0 0
0 0 0 0 0 0 0 0 0
0 0 0 0 0 0 0 0 0
0 0 0 0 0 0 0 0 0
0 0 0 0 0 0 0 0 0
0 0 0 0 0 0 0 0 0
0 0 0 0 0 0 0 0 0
0 0 0 0 0 0 0 0 0
0 0 0 0 0 0 0 0 0
0 0 0 0 0 0 0 0 0
0 0 0 0 0 0 0 0 0
0 0 0 0 0 0 0 0 0
0 0 0 0 0 0 0 0 0
0 0 0 0 0 0 0 0 0
0 0 0 0 0 0 0 0 0
0 0 0 0 0 0 0 0 0
0 0 0 0 0 0 0 0 0
0 0 0 0 0 0 0 0 0
0 0 0 0 0 0 0 0 0
0 0 0 0 0 0 0 0 0
0 0 0 0 0 0 0 0 0
0 0 0 0 0 0 0 0 0
0 0 0 0 0 0 0 0 0
0 0 0 0 0 0 0 0 0
0 0 0 0 0 0 0 0 0
0 0 0 0 0 0 0 0 0
0 0 0 0 0 0 0 0 0
0 0 0 0 0 0 0 0 0
0 0 0 0 0 0 0 0 0
0 0 0 0 0 0 0 0 0
0 0 0 0 0 0 0 0 0
0 0 0 0 0 0 0 0 0
0 0 0 0 0 0 0 0 0
0 0 0 0 0 0 0 0 0
0 0 0 0 0 0 0 0 0
0 0 0 0 0 0 0 0 0
0 0 0 0 0 0 0 0 0
0 0 0 0 0 0 0 0 0
0 0 0 0 0 0 0 0 0
0 0 0 0 0 0 0 0 0
0 0 0 0 0 0 0 0 0
0 0 0 0 0 0 0 0 0
0 0 0 0 0 0 0 0 0
0 0 0 0 0 0 0 0 0
0 0 0 0 0 0 0 0 0
0 0 0 0 0 0 0 0 0
0 0 0 0 0 0 0 0 0
0 0 0 0 0 0 0 0 0
0 0 0 0 0 0 0 0 0
0 0 0 0 0 0 0 0 0
0 0 0 0 0 0 0 0 0
0 0 0 0 0 0 0 0 0
0 0 0 0 0 0 0 0 0
0 0 0 0 0 0 0 0 0
0 0 0 0 0 0 0 0 0
0 0 0 0 0 0 0 0 0
0 0 0 0 0 0 0 0 0
0 0 0 0 0 0 0 0 0
0 0 0 0 0 0 0 0 0
0 0 0 0 0 0 0 0 0
0 0 0 0 0 0 0 0 0
0 0 0 0 0 0 0 0 0
0 0 0 0 0 0 0 0 0
0 0 0 0 0 0 0 0 0
0 0 0 0 0 0 0 0 0
0 0 0 0 0 0 0 0 0
0 0 0 0 0 0 0 0 0
0 0 0 0 0 0 0 0 0
0 0 0 0 0 0 0 0 0
0 0 0 0 0 0 0 0 0
0 0 0 0 0 0 0 0 0
0 0 0 0 0 0 0 0 0
0 0 0 0 0 0 0 0 0
0 0 0 0 0 0 0 0 0
0 0 0 0 0 0 0 0 0
0 0 0 0 0 0 0 0 0
0 0 0 0 0 0 0 0 0
0 0 0 0 0 0 0 0 0
0 0 0 0 0 0 0 0 0
0 0 0 0 0 0 0 0 0
0 0 0 0 0 0 0 0 0
0 0 0 0 0 0 0 0 0
0 0 0 0 0 0 0 0 0
0 0 0 0 0 0 0 0 0
0 0 0 0 0 0 0 0 0
0 0 0 0 0 0 0 0 0
0 0 0 0 0 0 0 0 0
0 0 0 0 0 0 0 0 0
0 0 0 0 0 0 0 0 0
0 0 0 0 0 0 0 0 0
0 0 0 0 0 0 0 0 0
0 0 0 0 0 0 0 0 0
0 0 0 0 0 0 0 0 0
0 0 0 0 0 0 0 0 0
0 0 0 0 0 0 0 0 0
0 0 0 0 0 0 0 0 0
0 0 0 0 0 0 0 0 0
0 0 0 0 0 0 0 0 0
0 0 0 0 0 0 0 0 0
0 0 0 0 0 0 0 0 0
0 0 0 0 0 0 0 0 0
0 0 0 0 0 0 0 0 0
0 0 0 0 0 0 0 0 0
0 0 0 0 0 0 0 0 0
0 0 0 0 0 0 0 0 0
0 0 0 0 0 0 0 0 0
0 0 0 0 0 0 0 0 0
0 0 0 0 0 0 0 0 0
0 0 0 0 0 0 0 0 0
0 0 0 0 0 0 0 0 0
0 0 0 0 0 0 0 0 0
0 0 0 0 0 0 0 0 0
0 0 0 0 0 0 0 0 0
0 0 0 0 0 0 0 0 0
0 0 0 0 0 0 0 0 0
0 0 0 0 0 0 0 0 0
0 0 0 0 0 0 0 0 0
0 0 0 0 0 0 0 0 0
0 0 0 0 0 0 0 0 0
0 0 0 0 0 0 0 0 0
0 0 0 0 0 0 0 0 0
0 0 0 0 0 0 0 0 0
0 0 0 0 0 0 0 0 0
0 0 0 0 0 0 0 0 0
0 0 0 0 0 0 0 0 0
0 0 0 0 0 0 0 0 0
0 0 0 0 0 0 0 0 0
0 0 0 0 0 0 0 0 0
0 0 0 0 0 0 0 0 0
0 0 0 0 0 0 0 0 0
0 0 0 0 0 0 0 0 0
0 0 0 0 0 0 0 0 0
0 0 0 0 0 0 0 0 0
0 0 0 0 0 0 0 0 0
0 0 0 0 0 0 0 0 0
0 0 0 0 0 0 0 0 0
0 0 0 0 0 0 0 0 0
0 0 0 0 0 0 0 0 0
0 0 0 0 0 0 0 0 0
0 0 0 0 0 0 0 0 0
0 0 0 0 0 0 0 0 0
0 0 0 0 0 0 0 0 0
0 0 0 0 0 0 0 0 0
0 0 0 0 0 0 0 0 0
0 0 0 0 0 0 0 0 0
0 0 0 0 0 0 0 0 0
0 0 0 0 0 0 0 0 0
0 0 0 0 0 0 0 0 0
0 0 0 0 0 0 0 0 0
0 0 0 0 0 0 0 0 0
0 0 0 0 0 0 0 0 0
0 0 0 0 0 0 0 0 0
0 0 0 0 0 0 0 0 0
0 0 0 0 0 0 0 0 0
0 0 0 0 0 0 0 0 0
0 0 0 0 0 0 0 0 0
0 0 0 0 0 0 0 0 0
0 0 0 0 0 0 0 0 0
0 0 0 0 0 0 0 0 0
0 0 0 0 0 0 0 0 0
0 0 0 0 0 0 0 0 0
0 0 0 0 0 0 0 0 0
0 0 0 0 0 0 0 0 0
0 0 0 0 0 0 0 0 0
0 0 0 0 0 0 0 0 0
0 0 0 0 0 0 0 0 0
0 0 0 0 0 0 0 0 0
0 0 0 0 0 0 0 0 0
0 0 0 0 0 0 0 0 0
0 0 0 0 0 0 0 0 0
0 0 0 0 0 0 0 0 0
0 0 0 0 0 0 0 0 0
0 0 0 0 0 0 0 0 0
0 0 0 0 0 0 0 0 0
0 0 0 0 0 0 0 0 0
0 0 0 0 0 0 0 0 0
0 0 0 0 0 0 0 0 0
0 0 0 0 0 0 0 0 0
0 0 0 0 0 0 0 0 0
0 0 0 0 0 0 0 0 0
0 0 0 0 0 0 0 0 0
0 0 0 0 0 0 0 0 0
0 0 0 0 0 0 0 0 0
0 0 0 0 0 0 0 0 0
0 0 0 0 0 0 0 0 0
0 0 0 0 0 0 0 0 0
0 0 0 0 0 0 0 0 0
0 0 0 0 0 0 0 0 0
0 0 0 0 0 0 0 0 0
0 0 0 0 0 0 0 0 0
0 0 0 0 0 0 0 0 0
0 0 0 0 0 0 0 0 0
0 0 0 0 0 0 0 0 0
0 0 0 0 0 0 0 0 0
0 0 0 0 0 0 0 0 0
0 0 0 0 0 0 0 0 0
0 0 0 0 0 0 0 0 0
0 0 0 0 0 0 0 0 0
0 0 0 0 0 0 0 0 0
0 0 0 0 0 0 0 0 0
0 0 0 0 0 0 0 0 0
0 0 0 0 0 0 0 0 0
0 0 0 0 0 0 0 0 0
0 0 0 0 0 0 0 0 0
0 0 0 0 0 0 0 0 0
0 0 0 0 0 0 0 0 0
0 0 0 0 0 0 0 0 0
0 0 0 0 0 0 0 0 0
0 0 0 0 0 0 0 0 0
0 0 0 0 0 0 0 0 0
0 0 0 0 0 0 0 0 0
0 0 0 0 0 0 0 0 0
0 0 0 0 0 0 0 0 0
0 0 0 0 0 0 0 0 0
0 0 0 0 0 0 0 0 0
0 0 0 0 0 0 0 0 0
0 0 0 0 0 0 0 0 0
0 0 0 0 0 0 0 0 0
0 0 0 0 0 0 0 0 0
0 0 0 0 0 0 0 0 0
0 0 0 0 0 0 0 0 0
0 0 0 0 0 0 0 0 0
0 0 0 0 0 0 0 0 0
0 0 0 0 0 0 0 0 0
0 0 0 0 0 0 0 0 0
0 0 0 0 0 0 0 0 0
0 0 0 0 0 0 0 0 0
0 0 0 0 0 0 0 0 0
0 0 0 0 0 0 0 0 0
0 0 0 0 0 0 0 0 0
0 0 0 0 0 0 0 0 0
0 0 0 0 0 0 0 0 0
0 0 0 0 0 0 0 0 0
0 0 0 0 0 0 0 0 0
0 0 0 0 0 0 0 0 0
0 0 0 0 0 0 0 0 0
6.17248e-08 6.46583e-08 6.21482e-08 6.47922e-08 6.17248e-08 6.46583e-08 6.21482e-08 6.47922e-08 0
6.67937e-08 6.96883e-08 6.68378e-08 6.97782e-08 6.67937e-08 6.96883e-08 6.68378e-08 6.97782e-08 0
7.19876e-08 7.53738e-08 7.20405e-08 7.64586e-08 7.19876e-08 7.53738e-08 7.20405e-08 7.64586e-08 0
7.7844e-08 8.13142e-08 7.95704e-08 8.20443e-08 7.7844e-08 8.13142e-08 7.95704e-08 8.20443e-08 0
8.47858e-08 8.85834e-08 8.39439e-08 8.69587e-08 8.47858e-08 8.85834e-08 8.39439e-08 8.69587e-08 0
4.74197e-08 4.99623e-08 4.7711e-08 5.01096e-08 4.74197e-08 4.99623e-08 4.7711e-08 5.01096e-08 0
5.19197e-08 5.47182e-08 5.19967e-08 5.47495e-08 5.19197e-08 5.47182e-08 5.19967e-08 5.47495e-08 0
5.67561e-08 5.95247e-08 5.67547e-08 5.94807e-08 5.67561e-08 5.95247e-08 5.67547e-08 5.94807e-08 0
6.15719e-08 6.43958e-08 6.15707e-08 6.45551e-08 6.15719e-08 6.43958e-08 6.15707e-08 6.45551e-08 0
6.65259e-08 6.95183e-08 6.67141e-08 6.96226e-08 6.65259e-08 6.95183e-08 6.67141e-08 6.96226e-08 0
7.18556e-08 7.52482e-08 7.19412e-08 7.53667e-08 7.18556e-08 7.52482e-08 7.19412e-08 7.53667e-08 0
7.7763e-08 8.12412e-08 7.78726e-08 8.12932e-08 7.7763e-08 8.12412e-08 7.78726e-08 8.12932e-08 0
8.48114e-08 8.97407e-08 8.50064e-08 8.94109e-08 8.48114e-08 8.97407e-08 8.50064e-08 8.94109e-08 0
4.2617e-08 4.48454e-08 4.32271e-08 4.53837e-08 4.2617e-08 4.48454e-08 4.32271e-08 4.53837e-08 0
4.66229e-08 4.92448e-08 4.71272e-08 4.97316e-08 4.66229e-08 4.92448e-08 4.71272e-08 4.97316e-08 0
5.12438e-08 5.40796e-08 5.17196e-08 5.45401e-08 5.12438e-08 5.40796e-08 5.17196e-08 5.45401e-08 0
5.61702e-08 5.90449e-08 5.66004e-08 5.94082e-08 5.61702e-08 5.90449e-08 5.66004e-08 5.94082e-08 0
6.11615e-08 6.40681e-08 6.14619e-08 6.4264e-08 6.11615e-08 6.40681e-08 6.14619e-08 6.4264e-08 0
6.62753e-08 6.93972e-08 6.64067e-08 6.94564e-08 6.62753e-08 6.93972e-08 6.64067e-08 6.94564e-08 0
7.17907e-08 7.52077e-08 7.18138e-08 7.52045e-08 7.17907e-08 7.52077e-08 7.18138e-08 7.52045e-08 0
7.7761e-08 8.18831e-08 7.77322e-08 8.12801e-08 7.7761e-08 8.18831e-08 7.77322e-08 8.12801e-08 0
8.50854e-08 8.9074e-08 8.48337e-08 8.96465e-08 8.50854e-08 8.9074e-08 8.48337e-08 8.96465e-08 0
4.22631e-08 4.20642e-08 3.98196e-08 4.05928e-08 4.22631e-08 4.20642e-08 3.98196e-08 4.05928e-08 0
4.21121e-08 4.39747e-08 4.21676e-08 4.44679e-08 4.21121e-08 4.39747e-08 4.21676e-08 4.44679e-08 0
4.5847e-08 4.85381e-08 4.62801e-08 4.89242e-08 4.5847e-08 4.85381e-08 4.62801e-08 4.89242e-08 0
5.05726e-08 5.34373e-08 5.09354e-08 5.37831e-08 5.05726e-08 5.34373e-08 5.09354e-08 5.37831e-08 0
5.55723e-08 5.85395e-08 5.58938e-08 5.88113e-08 5.55723e-08 5.85395e-08 5.58938e-08 5.88113e-08 0
6.07453e-08 6.38032e-08 6.09686e-08 6.39436e-08 6.07453e-08 6.38032e-08 6.09686e-08 6.39436e-08 0
6.6111e-08 6.93569e-08 6.6195e-08 6.93694e-08 6.6111e-08 6.93569e-08 6.6195e-08 6.93694e-08 0
7.18211e-08 7.53075e-08 7.17915e-08 7.52343e-08 7.18211e-08 7.53075e-08 7.17915e-08 7.52343e-08 0
7.81964e-08 8.26709e-08 7.78097e-08 8.22533e-08 7.81964e-08 8.26709e-08 7.78097e-08 8.22533e-08 0
8.57064e-08 8.95278e-08 8.5318e-08 8.90469e-08 8.57064e-08 8.95278e-08 8.5318e-08 8.90469e-08 0
4.20953e-08 4.30247e-08 4.28921e-08 4.33591e-08 4.20953e-08 4.30247e-08 4.28921e-08 4.33591e-08 0
4.35313e-08 4.39093e-08 4.34853e-08 4.36629e-08 4.35313e-08 4.39093e-08 4.34853e-08 4.36629e-08 0
4.52497e-08 4.79933e-08 4.55699e-08 4.82877e-08 4.52497e-08 4.79933e-08 4.55699e-08 4.82877e-08 0
5.00624e-08 5.29696e-08 5.03377e-08 5.32184e-08 5.00624e-08 5.29696e-08 5.03377e-08 5.32184e-08 0
5.51487e-08 5.81937e-08 5.53718e-08 5.83731e-08 5.51487e-08 5.81937e-08 5.53718e-08 5.83731e-08 0
6.04733e-08 6.36553e-08 6.06116e-08 6.3725e-08 6.04733e-08 6.36553e-08 6.06116e-08 6.3725e-08 0
6.60517e-08 6.9416e-08 6.60715e-08 6.93683e-08 6.60517e-08 6.9416e-08 6.60715e-08 6.93683e-08 0
7.20095e-08 7.58502e-08 7.18644e-08 7.55207e-08 7.20095e-08 7.58502e-08 7.18644e-08 7.55207e-08 0
7.89014e-08 8.33967e-08 7.85451e-08 8.29788e-08 7.89014e-08 8.33967e-08 7.85451e-08 8.29788e-08 0
8.65779e-08 9.07739e-08 8.60451e-08 8.999e-08 8.65779e-08 9.07739e-08 8.60451e-08 8.999e-08 0
4.0388e-08 4.21711e-08 4.14213e-08 4.2705e-08 4.0388e-08 4.21711e-08 4.14213e-08 4.2705e-08 0
4.32681e-08 4.44208e-08 4.3472e-08 4.42084e-08 4.32681e-08 4.44208e-08 4.3472e-08 4.42084e-08 0
4.55484e-08 4.76094e-08 4.50986e-08 4.78108e-08 4.55484e-08 4.76094e-08 4.50986e-08 4.78108e-08 0
4.97138e-08 5.26623e-08 4.98945e-08 5.28199e-08 4.97138e-08 5.26623e-08 4.98945e-08 5.28199e-08 0
5.48812e-08 5.79939e-08 5.50165e-08 5.80913e-08 5.48812e-08 5.79939e-08 5.50165e-08 5.80913e-08 0
6.03377e-08 6.36279e-08 6.03991e-08 6.36284e-08 6.03377e-08 6.36279e-08 6.03991e-08 6.36284e-08 0
6.61054e-08 6.95838e-08 6.60598e-08 6.94729e-08 6.61054e-08 6.95838e-08 6.60598e-08 6.94729e-08 0
7.23738e-08 7.62577e-08 7.21938e-08 7.6049e-08 7.23738e-08 7.62577e-08 7.21938e-08 7.6049e-08 0
7.93192e-08 8.38013e-08 7.91092e-08 8.36154e-08 7.93192e-08 8.38013e-08 7.91092e-08 8.36154e-08 0
8.72157e-08 9.20611e-08 8.68894e-08 9.13279e-08 8.72157e-08 9.20611e-08 8.68894e-08 9.13279e-08 0
3.77742e-08 4.0723e-08 3.94038e-08 4.16363e-08 3.77742e-08 4.0723e-08 3.94038e-08 4.16363e-08 0
4.25321e-08 4.45212e-08 4.30134e-08 4.45014e-08 4.25321e-08 4.45212e-08 4.30134e-08 4.45014e-08 0
4.61431e-08 4.85444e-08 4.58251e-08 4.79165e-08 4.61431e-08 4.85444e-08 4.58251e-08 4.79165e-08 0
5.03431e-08 5.28443e-08 4.96186e-08 5.25727e-08 5.03431e-08 5.28443e-08 4.96186e-08 5.25727e-08 0
5.47761e-08 5.79042e-08 5.48057e-08 5.79431e-08 5.47761e-08 5.79042e-08 5.48057e-08 5.79431e-08 0
6.03067e-08 6.3703e-08 6.03122e-08 6.36471e-08 6.03067e-08 6.3703e-08 6.03122e-08 6.36471e-08 0
6.62626e-08 6.98594e-08 6.61589e-08 6.96865e-08 6.62626e-08 6.98594e-08 6.61589e-08 6.96865e-08 0
7.27e-08 7.66451e-08 7.25111e-08 7.64185e-08 7.27e-08 7.66451e-08 7.25111e-08 7.64185e-08 0
7.98705e-08 8.47406e-08 7.95248e-08 8.41062e-08 7.98705e-08 8.47406e-08 7.95248e-08 8.41062e-08 0
8.82348e-08 9.29088e-08 8.75783e-08 9.24809e-08 8.82348e-08 9.29088e-08 8.75783e-08 9.24809e-08 0
3.51778e-08 3.89142e-08 3.66374e-08 3.99859e-08 3.51778e-08 3.89142e-08 3.66374e-08 3.99859e-08 0
4.13568e-08 4.43071e-08 4.20805e-08 4.44644e-08 4.13568e-08 4.43071e-08 4.20805e-08 4.44644e-08 0
4.65269e-08 4.96085e-08 4.63283e-08 4.8997e-08 4.65269e-08 4.96085e-08 4.63283e-08 4.8997e-08 0
5.1646e-08 5.41233e-08 5.08866e-08 5.33695e-08 5.1646e-08 5.41233e-08 5.08866e-08 5.33695e-08 0
5.58678e-08 5.81577e-08 5.52218e-08 5.78939e-08 5.58678e-08 5.81577e-08 5.52218e-08 5.78939e-08 0
6.03658e-08 6.38744e-08 6.03204e-08 6.37632e-08 6.03658e-08 6.38744e-08 6.03204e-08 6.37632e-08 0
6.65246e-08 7.02572e-08 6.63598e-08 7.00116e-08 6.65246e-08 7.02572e-08 6.63598e-08 7.00116e-08 0
7.30674e-08 7.70137e-08 7.27895e-08 7.66086e-08 7.30674e-08 7.70137e-08 7.27895e-08 7.66086e-08 0
7.98773e-08 8.5156e-08 7.98854e-08 8.50202e-08 7.98773e-08 8.5156e-08 7.98854e-08 8.50202e-08 0
3.37605e-08 3.69524e-08 3.41703e-08 3.77885e-08 3.37605e-08 3.69524e-08 3.41703e-08 3.77885e-08 0
3.92597e-08 4.23707e-08 4.0259e-08 4.34055e-08 3.92597e-08 4.23707e-08 4.0259e-08 4.34055e-08 0
4.46092e-08 4.8182e-08 4.58599e-08 4.93935e-08 4.46092e-08 4.8182e-08 4.58599e-08 4.93935e-08 0
5.10754e-08 5.46302e-08 5.17017e-08 5.44692e-08 5.10754e-08 5.46302e-08 5.17017e-08 5.44692e-08 0
5.67711e-08 5.9065e-08 5.62917e-08 5.85036e-08 5.67711e-08 5.9065e-08 5.62917e-08 5.85036e-08 0
6.07712e-08 6.41883e-08 6.04691e-08 6.39877e-08 6.07712e-08 6.41883e-08 6.04691e-08 6.39877e-08 0
6.68455e-08 7.06288e-08 6.66546e-08 7.04229e-08 6.68455e-08 7.06288e-08 6.66546e-08 7.04229e-08 0
7.35081e-08 7.7593e-08 7.32704e-08 7.72831e-08 7.35081e-08 7.7593e-08 7.32704e-08 7.72831e-08 0
0 0 0 0 0 0 0 0 0
0 0 0 0 0 0 0 0 0
0 0 0 0 0 0 0 0 0
0 0 0 0 0 0 0 0 0
0 0 0 0 0 0 0 0 0
0 0 0 0 0 0 0 0 0
0 0 0 0 0 0 0 0 0
0 0 0 0 0 0 0 0 0
0 0 0 0 0 0 0 0 0
0 0 0 0 0 0 0 0 0
0 0 0 0 0 0 0 0 0
0 0 0 0 0 0 0 0 0
0 0 0 0 0 0 0 0 0
0 0 0 0 0 0 0 0 0
0 0 0 0 0 0 0 0 0
0 0 0 0 0 0 0 0 0
0 0 0 0 0 0 0 0 0
0 0 0 0 0 0 0 0 0
0 0 0 0 0 0 0 0 0
0 0 0 0 0 0 0 0 0
0 0 0 0 0 0 0 0 0
0 0 0 0 0 0 0 0 0
0 0 0 0 0 0 0 0 0
0 0 0 0 0 0 0 0 0
0 0 0 0 0 0 0 0 0
0 0 0 0 0 0 0 0 0
0 0 0 0 0 0 0 0 0
0 0 0 0 0 0 0 0 0
0 0 0 0 0 0 0 0 0
0 0 0 0 0 0 0 0 0
0 0 0 0 0 0 0 0 0
0 0 0 0 0 0 0 0 0
0 0 0 0 0 0 0 0 0
0 0 0 0 0 0 0 0 0
0 0 0 0 0 0 0 0 0
0 0 0 0 0 0 0 0 0
0 0 0 0 0 0 0 0 0
0 0 0 0 0 0 0 0 0
0 0 0 0 0 0 0 0 0
0 0 0 0 0 0 0 0 0
0 0 0 0 0 0 0 0 0
0 0 0 0 0 0 0 0 0
0 0 0 0 0 0 0 0 0
0 0 0 0 0 0 0 0 0
0 0 0 0 0 0 0 0 0
0 0 0 0 0 0 0 0 0
0 0 0 0 0 0 0 0 0
0 0 0 0 0 0 0 0 0
0 0 0 0 0 0 0 0 0
0 0 0 0 0 0 0 0 0
0 0 0 0 0 0 0 0 0
0 0 0 0 0 0 0 0 0
0 0 0 0 0 0 0 0 0
0 0 0 0 0 0 0 0 0
0 0 0 0 0 0 0 0 0
0 0 0 0 0 0 0 0 0
0 0 0 0 0 0 0 0 0
0 0 0 0 0 0 0 0 0
0 0 0 0 0 0 0 0 0
0 0 0 0 0 0 0 0 0
0 0 0 0 0 0 0 0 0
0 0 0 0 0 0 0 0 0
0 0 0 0 0 0 0 0 0
0 0 0 0 0 0 0 0 0
0 0 0 0 0 0 0 0 0
0 0 0 0 0 0 0 0 0
0 0 0 0 0 0 0 0 0
0 0 0 0 0 0 0 0 0
0 0 0 0 0 0 0 0 0
0 0 0 0 0 0 0 0 0
0 0 0 0 0 0 0 0 0
0 0 0 0 0 0 0 0 0
0 0 0 0 0 0 0 0 0
0 0 0 0 0 0 0 0 0
0 0 0 0 0 0 0 0 0
0 0 0 0 0 0 0 0 0
0 0 0 0 0 0 0 0 0
0 0 0 0 0 0 0 0 0
0 0 0 0 0 0 0 0 0
5.3774e-08 5.63686e-08 5.39604e-08 5.62803e-08 5.3774e-08 5.63686e-08 5.39604e-08 5.62803e-08 0
5.82307e-08 6.07174e-08 5.80313e-08 6.04912e-08 5.82307e-08 6.07174e-08 5.80313e-08 6.04912e-08 0
6.25645e-08 6.51243e-08 6.23543e-08 6.58269e-08 6.25645e-08 6.51243e-08 6.23543e-08 6.58269e-08 0
6.77061e-08 7.14718e-08 6.98809e-08 7.32045e-08 6.77061e-08 7.14718e-08 6.98809e-08 7.32045e-08 0
7.35978e-08 7.56467e-08 7.44185e-08 7.4428e-08 7.35978e-08 7.56467e-08 7.44185e-08 7.4428e-08 0
4.19986e-08 4.47304e-08 4.2732e-08 4.65701e-08 4.19986e-08 4.47304e-08 4.2732e-08 4.65701e-08 0
4.64351e-08 4.80218e-08 4.83125e-08 4.93111e-08 4.64351e-08 4.80218e-08 4.83125e-08 4.93111e-08 0
4.97054e-08 5.20571e-08 4.96717e-08 5.19199e-08 4.97054e-08 5.20571e-08 4.96717e-08 5.19199e-08 0
5.38454e-08 5.63758e-08 5.37416e-08 5.63958e-08 5.38454e-08 5.63758e-08 5.37416e-08 5.63958e-08 0
5.82405e-08 6.08023e-08 5.82892e-08 6.08024e-08 5.82405e-08 6.08023e-08 5.82892e-08 6.08024e-08 0
6.27072e-08 6.53495e-08 6.26611e-08 6.52262e-08 6.27072e-08 6.53495e-08 6.26611e-08 6.52262e-08 0
6.72997e-08 7.1181e-08 6.71013e-08 7.09172e-08 6.72997e-08 7.1181e-08 6.71013e-08 7.09172e-08 0
7.41087e-08 7.79904e-08 7.35226e-08 7.66218e-08 7.41087e-08 7.79904e-08 7.35226e-08 7.66218e-08 0
3.72626e-08 3.94978e-08 3.79578e-08 4.00769e-08 3.72626e-08 3.94978e-08 3.79578e-08 4.00769e-08 0
4.11612e-08 4.34737e-08 4.16768e-08 4.39356e-08 4.11612e-08 4.34737e-08 4.16768e-08 4.39356e-08 0
4.52035e-08 4.76149e-08 4.56121e-08 4.79295e-08 4.52035e-08 4.76149e-08 4.56121e-08 4.79295e-08 0
4.94137e-08 5.19135e-08 4.96576e-08 5.20571e-08 4.94137e-08 5.19135e-08 4.96576e-08 5.20571e-08 0
5.3775e-08 5.63581e-08 5.38553e-08 5.63647e-08 5.3775e-08 5.63581e-08 5.38553e-08 5.63647e-08 0
5.82836e-08 6.09596e-08 5.82375e-08 6.08433e-08 5.82836e-08 6.09596e-08 5.82375e-08 6.08433e-08 0
6.29565e-08 6.57355e-08 6.27852e-08 6.54848e-08 6.29565e-08 6.57355e-08 6.27852e-08 6.54848e-08 0
6.78008e-08 7.17668e-08 6.74859e-08 7.14044e-08 6.78008e-08 7.17668e-08 6.74859e-08 7.14044e-08 0
7.48582e-08 7.92368e-08 7.44614e-08 7.869e-08 7.48582e-08 7.92368e-08 7.44614e-08 7.869e-08 0
3.24785e-08 3.46579e-08 3.3089e-08 3.52071e-08 3.24785e-08 3.46579e-08 3.3089e-08 3.52071e-08 0
3.63166e-08 3.8661e-08 3.68236e-08 3.91186e-08 3.63166e-08 3.8661e-08 3.68236e-08 3.91186e-08 0
4.04132e-08 4.2856e-08 4.08221e-08 4.31829e-08 4.04132e-08 4.2856e-08 4.08221e-08 4.31829e-08 0
4.46826e-08 4.72286e-08 4.49527e-08 4.74254e-08 4.46826e-08 4.72286e-08 4.49527e-08 4.74254e-08 0
4.9127e-08 5.17659e-08 4.92699e-08 5.1834e-08 4.9127e-08 5.17659e-08 4.92699e-08 5.1834e-08 0
5.37268e-08 5.64436e-08 5.37392e-08 5.6378e-08 5.37268e-08 5.64436e-08 5.37392e-08 5.6378e-08 0
5.84657e-08 6.12724e-08 5.83436e-08 6.10736e-08 5.84657e-08 6.12724e-08 5.83436e-08 6.10736e-08 0
6.33674e-08 6.62841e-08 6.31114e-08 6.59485e-08 6.33674e-08 6.62841e-08 6.31114e-08 6.59485e-08 0
6.8494e-08 7.25848e-08 6.80592e-08 7.20823e-08 6.8494e-08 7.25848e-08 6.80592e-08 7.20823e-08 0
7.55683e-08 7.96322e-08 7.51479e-08 7.94721e-08 7.55683e-08 7.96322e-08 7.51479e-08 7.94721e-08 0
3.17139e-08 3.39322e-08 3.21401e-08 3.43123e-08 3.17139e-08 3.39322e-08 3.21401e-08 3.43123e-08 0
3.56537e-08 3.81101e-08 3.60003e-08 3.8389e-08 3.56537e-08 3.81101e-08 3.60003e-08 3.8389e-08 0
3.99424e-08 4.24914e-08 4.01762e-08 4.26696e-08 3.99424e-08 4.24914e-08 4.01762e-08 4.26696e-08 0
4.43951e-08 4.70462e-08 4.45321e-08 4.71257e-08 4.43951e-08 4.70462e-08 4.45321e-08 4.71257e-08 0
4.90249e-08 5.17789e-08 4.906e-08 5.17498e-08 4.90249e-08 5.17789e-08 4.906e-08 5.17498e-08 0
5.3829e-08 5.66752e-08 5.37495e-08 5.6522e-08 5.3829e-08 5.66752e-08 5.37495e-08 5.6522e-08 0
5.87937e-08 6.1735e-08 5.85851e-08 6.14486e-08 5.87937e-08 6.1735e-08 5.85851e-08 6.14486e-08 0
6.39266e-08 6.69726e-08 6.35848e-08 6.65573e-08 6.39266e-08 6.69726e-08 6.35848e-08 6.65573e-08 0
6.92439e-08 7.32519e-08 6.882e-08 7.28944e-08 6.92439e-08 7.32519e-08 6.882e-08 7.28944e-08 0
7.62167e-08 8.03054e-08 7.58486e-08 7.98491e-08 7.62167e-08 8.03054e-08 7.58486e-08 7.98491e-08 0
3.12911e-08 3.39637e-08 3.14887e-08 3.3956e-08 3.12911e-08 3.39637e-08 3.14887e-08 3.3956e-08 0
3.57502e-08 3.79703e-08 3.55946e-08 3.79708e-08 3.57502e-08 3.79703e-08 3.55946e-08 3.79708e-08 0
3.97636e-08 4.24163e-08 3.98315e-08 4.24153e-08 3.97636e-08 4.24163e-08 3.98315e-08 4.24153e-08 0
4.44331e-08 4.72603e-08 4.4345e-08 4.70321e-08 4.44331e-08 4.72603e-08 4.4345e-08 4.70321e-08 0
4.93008e-08 5.20316e-08 4.90394e-08 5.18355e-08 4.93008e-08 5.20316e-08 4.90394e-08 5.18355e-08 0
5.40931e-08 5.70591e-08 5.39199e-08 5.6818e-08 5.40931e-08 5.70591e-08 5.39199e-08 5.6818e-08 0
5.92697e-08 6.2343e-08 5.8976e-08 6.19736e-08 5.92697e-08 6.2343e-08 5.8976e-08 6.19736e-08 0
6.46274e-08 6.77951e-08 6.42049e-08 6.73032e-08 6.46274e-08 6.77951e-08 6.42049e-08 6.73032e-08 0
7.0154e-08 7.39667e-08 6.96134e-08 7.35416e-08 7.0154e-08 7.39667e-08 6.96134e-08 7.35416e-08 0
7.69934e-08 8.11951e-08 7.65248e-08 8.06636e-08 7.69934e-08 8.11951e-08 7.65248e-08 8.06636e-08 0
3.08414e-08 3.37934e-08 3.11013e-08 3.39217e-08 3.08414e-08 3.37934e-08 3.11013e-08 3.39217e-08 0
3.59134e-08 3.86393e-08 3.58373e-08 3.82393e-08 3.59134e-08 3.86393e-08 3.58373e-08 3.82393e-08 0
4.07137e-08 4.36892e-08 4.01269e-08 4.29094e-08 4.07137e-08 4.36892e-08 4.01269e-08 4.29094e-08 0
4.581e-08 4.86254e-08 4.49654e-08 4.77888e-08 4.581e-08 4.86254e-08 4.49654e-08 4.77888e-08 0
5.05755e-08 5.30654e-08 4.98001e-08 5.24523e-08 5.05755e-08 5.30654e-08 4.98001e-08 5.24523e-08 0
5.48722e-08 5.75785e-08 5.43736e-08 5.72618e-08 5.48722e-08 5.75785e-08 5.43736e-08 5.72618e-08 0
5.98806e-08 6.30898e-08 5.9511e-08 6.2641e-08 5.98806e-08 6.30898e-08 5.9511e-08 6.2641e-08 0
6.54705e-08 6.87661e-08 6.49655e-08 6.81862e-08 6.54705e-08 6.87661e-08 6.49655e-08 6.81862e-08 0
7.11968e-08 7.54501e-08 7.05779e-08 7.44881e-08 7.11968e-08 7.54501e-08 7.05779e-08 7.44881e-08 0
7.8606e-08 8.26134e-08 7.75642e-08 8.1731e-08 7.8606e-08 8.26134e-08 7.75642e-08 8.1731e-08 0
3.07695e-08 3.35806e-08 3.07748e-08 3.3701e-08 3.07695e-08 3.35806e-08 3.07748e-08 3.3701e-08 0
3.61182e-08 3.93579e-08 3.599e-08 3.89422e-08 3.61182e-08 3.93579e-08 3.599e-08 3.89422e-08 0
4.17852e-08 4.52077e-08 4.1162e-08 4.43086e-08 4.17852e-08 4.52077e-08 4.1162e-08 4.43086e-08 0
4.74807e-08 5.02801e-08 4.64871e-08 4.92955e-08 4.74807e-08 5.02801e-08 4.64871e-08 4.92955e-08 0
5.20851e-08 5.41876e-08 5.11897e-08 5.35313e-08 5.20851e-08 5.41876e-08 5.11897e-08 5.35313e-08 0
5.57242e-08 5.82321e-08 5.52345e-08 5.78371e-08 5.57242e-08 5.82321e-08 5.52345e-08 5.78371e-08 0
6.06301e-08 6.39919e-08 6.01791e-08 6.34504e-08 6.06301e-08 6.39919e-08 6.01791e-08 6.34504e-08 0
6.65103e-08 7.00309e-08 6.58837e-08 6.92609e-08 6.65103e-08 7.00309e-08 6.58837e-08 6.92609e-08 0
7.25774e-08 7.67796e-08 7.17328e-08 7.60669e-08 7.25774e-08 7.67796e-08 7.17328e-08 7.60669e-08 0
3.08241e-08 3.38394e-08 3.07842e-08 3.36565e-08 3.08241e-08 3.38394e-08 3.07842e-08 3.36565e-08 0
3.60037e-08 3.89009e-08 3.57147e-08 3.89746e-08 3.60037e-08 3.89009e-08 3.57147e-08 3.89746e-08 0
4.09881e-08 4.4472e-08 4.15389e-08 4.52621e-08 4.09881e-08 4.4472e-08 4.15389e-08 4.52621e-08 0
4.7264e-08 5.06123e-08 4.76965e-08 5.06262e-08 4.7264e-08 5.06123e-08 4.76965e-08 5.06262e-08 0
5.26013e-08 5.46859e-08 5.24451e-08 5.44667e-08 5.26013e-08 5.46859e-08 5.24451e-08 5.44667e-08 0
5.61841e-08 5.90515e-08 5.59486e-08 5.85557e-08 5.61841e-08 5.90515e-08 5.59486e-08 5.85557e-08 0
6.14553e-08 6.48682e-08 6.09706e-08 6.43707e-08 6.14553e-08 6.48682e-08 6.09706e-08 6.43707e-08 0
6.74602e-08 7.11321e-08 6.69314e-08 7.05298e-08 6.74602e-08 7.11321e-08 6.69314e-08 7.05298e-08 0
0 0 0 0 0 0 0 0 0
0 0 0 0 0 0 0 0 0
0 0 0 0 0 0 0 0 0
0 0 0 0 0 0 0 0 0
0 0 0 0 0 0 0 0 0
0 0 0 0 0 0 0 0 0
0 0 0 0 0 0 0 0 0
0 0 0 0 0 0 0 0 0
0 0 0 0 0 0 0 0 0
0 0 0 0 0 0 0 0 0
0 0 0 0 0 0 0 0 0
0 0 0 0 0 0 0 0 0
0 0 0 0 0 0 0 0 0
0 0 0 0 0 0 0 0 0
0 0 0 0 0 0 0 0 0
0 0 0 0 0 0 0 0 0
0 0 0 0 0 0 0 0 0
0 0 0 0 0 0 0 0 0
0 0 0 0 0 0 0 0 0
0 0 0 0 0 0 0 0 0
0 0 0 0 0 0 0 0 0
0 0 0 0 0 0 0 0 0
0 0 0 0 0 0 0 0 0
0 0 0 0 0 0 0 0 0
0 0 0 0 0 0 0 0 0
0 0 0 0 0 0 0 0 0
0 0 0 0 0 0 0 0 0
0 0 0 0 0 0 0 0 0
0 0 0 0 0 0 0 0 0
0 0 0 0 0 0 0 0 0
0 0 0 0 0 0 0 0 0
0 0 0 0 0 0 0 0 0
0 0 0 0 0 0 0 0 0
0 0 0 0 0 0 0 0 0
0 0 0 0 0 0 0 0 0
0 0 0 0 0 0 0 0 0
0 0 0 0 0 0 0 0 0
0 0 0 0 0 0 0 0 0
0 0 0 0 0 0 0 0 0
0 0 0 0 0 0 0 0 0
0 0 0 0 0 0 0 0 0
0 0 0 0 0 0 0 0 0
0 0 0 0 0 0 0 0 0
0 0 0 0 0 0 0 0 0
0 0 0 0 0 0 0 0 0
0 0 0 0 0 0 0 0 0
0 0 0 0 0 0 0 0 0
0 0 0 0 0 0 0 0 0
0 0 0 0 0 0 0 0 0
0 0 0 0 0 0 0 0 0
0 0 0 0 0 0 0 0 0
0 0 0 0 0 0 0 0 0
0 0 0 0 0 0 0 0 0
0 0 0 0 0 0 0 0 0
0 0 0 0 0 0 0 0 0
0 0 0 0 0 0 0 0 0
0 0 0 0 0 0 0 0 0
0 0 0 0 0 0 0 0 0
0 0 0 0 0 0 0 0 0
0 0 0 0 0 0 0 0 0
0 0 0 0 0 0 0 0 0
0 0 0 0 0 0 0 0 0
0 0 0 0 0 0 0 0 0
0 0 0 0 0 0 0 0 0
0 0 0 0 0 0 0 0 0
0 0 0 0 0 0 0 0 0
0 0 0 0 0 0 0 0 0
0 0 0 0 0 0 0 0 0
0 0 0 0 0 0 0 0 0
0 0 0 0 0 0 0 0 0
0 0 0 0 0 0 0 0 0
0 0 0 0 0 0 0 0 0
0 0 0 0 0 0 0 0 0
0 0 0 0 0 0 0 0 0
0 0 0 0 0 0 0 0 0
0 0 0 0 0 0 0 0 0
0 0 0 0 0 0 0 0 0
0 0 0 0 0 0 0 0 0
0 0 0 0 0 0 0 0 0
0 0 0 0 0 0 0 0 0
0 0 0 0 0 0 0 0 0
0 0 0 0 0 0 0 0 0
0 0 0 0 0 0 0 0 0
0 0 0 0 0 0 0 0 0
0 0 0 0 0 0 0 0 0
0 0 0 0 0 0 0 0 0
0 0 0 0 0 0 0 0 0
0 0 0 0 0 0 0 0 0
0 0 0 0 0 0 0 0 0
0 0 0 0 0 0 0 0 0
0 0 0 0 0 0 0 0 0
0 0 0 0 0 0 0 0 0
0 0 0 0 0 0 0 0 0
0 0 0 0 0 0 0 0 0
0 0 0 0 0 0 0 0 0
0 0 0 0 0 0 0 0 0
0 0 0 0 0 0 0 0 0
0 0 0 0 0 0 0 0 0
0 0 0 0 0 0 0 0 0
0 0 0 0 0 0 0 0 0
0 0 0 0 0 0 0 0 0
0 0 0 0 0 0 0 0 0
0 0 0 0 0 0 0 0 0
0 0 0 0 0 0 0 0 0
0 0 0 0 0 0 0 0 0
0 0 0 0 0 0 0 0 0
0 0 0 0 0 0 0 0 0
0 0 0 0 0 0 0 0 0
0 0 0 0 0 0 0 0 0
0 0 0 0 0 0 0 0 0
0 0 0 0 0 0 0 0 0
0 0 0 0 0 0 0 0 0
0 0 0 0 0 0 0 0 0
0 0 0 0 0 0 0 0 0
0 0 0 0 0 0 0 0 0
0 0 0 0 0 0 0 0 0
0 0 0 0 0 0 0 0 0
0 0 0 0 0 0 0 0 0
0 0 0 0 0 0 0 0 0
0 0 0 0 0 0 0 0 0
0 0 0 0 0 0 0 0 0
0 0 0 0 0 0 0 0 0
0 0 0 0 0 0 0 0 0
0 0 0 0 0 0 0 0 0
0 0 0 0 0 0 0 0 0
0 0 0 0 0 0 0 0 0
0 0 0 0 0 0 0 0 0
0 0 0 0 0 0 0 0 0
0 0 0 0 0 0 0 0 0
0 0 0 0 0 0 0 0 0
0 0 0 0 0 0 0 0 0
0 0 0 0 0 0 0 0 0
0 0 0 0 0 0 0 0 0
0 0 0 0 0 0 0 0 0
0 0 0 0 0 0 0 0 0
0 0 0 0 0 0 0 0 0
0 0 0 0 0 0 0 0 0
0 0 0 0 0 0 0 0 0
0 0 0 0 0 0 0 0 0
0 0 0 0 0 0 0 0 0
0 0 0 0 0 0 0 0 0
0 0 0 0 0 0 0 0 0
0 0 0 0 0 0 0 0 0
0 0 0 0 0 0 0 0 0
0 0 0 0 0 0 0 0 0
0 0 0 0 0 0 0 0 0
0 0 0 0 0 0 0 0 0
0 0 0 0 0 0 0 0 0
0 0 0 0 0 0 0 0 0
0 0 0 0 0 0 0 0 0
0 0 0 0 0 0 0 0 0
0 0 0 0 0 0 0 0 0
0 0 0 0 0 0 0 0 0
0 0 0 0 0 0 0 0 0
0 0 0 0 0 0 0 0 0
0 0 0 0 0 0 0 0 0
0 0 0 0 0 0 0 0 0
0 0 0 0 0 0 0 0 0
0 0 0 0 0 0 0 0 0
0 0 0 0 0 0 0 0 0
0 0 0 0 0 0 0 0 0
0 0 0 0 0 0 0 0 0
0 0 0 0 0 0 0 0 0
0 0 0 0 0 0 0 0 0
0 0 0 0 0 0 0 0 0
0 0 0 0 0 0 0 0 0
0 0 0 0 0 0 0 0 0
0 0 0 0 0 0 0 0 0
0 0 0 0 0 0 0 0 0
0 0 0 0 0 0 0 0 0
0 0 0 0 0 0 0 0 0
0 0 0 0 0 0 0 0 0
0 0 0 0 0 0 0 0 0
0 0 0 0 0 0 0 0 0
0 0 0 0 0 0 0 0 0
0 0 0 0 0 0 0 0 0
0 0 0 0 0 0 0 0 0
0 0 0 0 0 0 0 0 0
0 0 0 0 0 0 0 0 0
0 0 0 0 0 0 0 0 0
0 0 0 0 0 0 0 0 0
0 0 0 0 0 0 0 0 0
0 0 0 0 0 0 0 0 0
0 0 0 0 0 0 0 0 0
0 0 0 0 0 0 0 0 0
0 0 0 0 0 0 0 0 0
0 0 0 0 0 0 0 0 0
0 0 0 0 0 0 0 0 0
0 0 0 0 0 0 0 0 0
0 0 0 0 0 0 0 0 0
0 0 0 0 0 0 0 0 0
0 0 0 0 0 0 0 0 0
0 0 0 0 0 0 0 0 0
0 0 0 0 0 0 0 0 0
0 0 0 0 0 0 0 0 0
0 0 0 0 0 0 0 0 0
0 0 0 0 0 0 0 0 0
0 0 0 0 0 0 0 0 0
0 0 0 0 0 0 0 0 0
0 0 0 0 0 0 0 0 0
0 0 0 0 0 0 0 0 0
0 0 0 0 0 0 0 0 0
0 0 0 0 0 0 0 0 0
0 0 0 0 0 0 0 0 0
0 0 0 0 0 0 0 0 0
0 0 0 0 0 0 0 0 0
0 0 0 0 0 0 0 0 0
0 0 0 0 0 0 0 0 0
0 0 0 0 0 0 0 0 0
0 0 0 0 0 0 0 0 0
0 0 0 0 0 0 0 0 0
0 0 0 0 0 0 0 0 0
0 0 0 0 0 0 0 0 0
0 0 0 0 0 0 0 0 0
0 0 0 0 0 0 0 0 0
0 0 0 0 0 0 0 0 0
0 0 0 0 0 0 0 0 0
0 0 0 0 0 0 0 0 0
0 0 0 0 0 0 0 0 0
0 0 0 0 0 0 0 0 0
0 0 0 0 0 0 0 0 0
0 0 0 0 0 0 0 0 0
0 0 0 0 0 0 0 0 0
0 0 0 0 0 0 0 0 0
0 0 0 0 0 0 0 0 0
0 0 0 0 0 0 0 0 0
0 0 0 0 0 0 0 0 0
0 0 0 0 0 0 0 0 0
0 0 0 0 0 0 0 0 0
0 0 0 0 0 0 0 0 0
0 0 0 0 0 0 0 0 0
0 0 0 0 0 0 0 0 0
0 0 0 0 0 0 0 0 0
0 0 0 0 0 0 0 0 0
0 0 0 0 0 0 0 0 0
0 0 0 0 0 0 0 0 0
0 0 0 0 0 0 0 0 0
0 0 0 0 0 0 0 0 0
0 0 0 0 0 0 0 0 0
0 0 0 0 0 0 0 0 0
0 0 0 0 0 0 0 0 0
0 0 0 0 0 0 0 0 0
0 0 0 0 0 0 0 0 0
0 0 0 0 0 0 0 0 0
0 0 0 0 0 0 0 0 0
0 0 0 0 0 0 0 0 0
0 0 0 0 0 0 0 0 0
0 0 0 0 0 0 0 0 0
0 0 0 0 0 0 0 0 0
0 0 0 0 0 0 0 0 0
0 0 0 0 0 0 0 0 0
0 0 0 0 0 0 0 0 0
0 0 0 0 0 0 0 0 0
0 0 0 0 0 0 0 0 0
0 0 0 0 0 0 0 0 0
0 0 0 0 0 0 0 0 0
0 0 0 0 0 0 0 0 0
0 0 0 0 0 0 0 0 0
0 0 0 0 0 0 0 0 0
0 0 0 0 0 0 0 0 0
0 0 0 0 0 0 0 0 0
0 0 0 0 0 0 0 0 0
0 0 0 0 0 0 0 0 0
0 0 0 0 0 0 0 0 0
0 0 0 0 0 0 0 0 0
0 0 0 0 0 0 0 0 0
0 0 0 0 0 0 0 0 0
0 0 0 0 0 0 0 0 0
0 0 0 0 0 0 0 0 0
0 0 0 0 0 0 0 0 0
0 0 0 0 0 0 0 0 0
0 0 0 0 0 0 0 0 0
0 0 0 0 0 0 0 0 0
0 0 0 0 0 0 0 0 0
0 0 0 0 0 0 0 0 0
0 0 0 0 0 0 0 0 0
0 0 0 0 0 0 0 0 0
0 0 0 0 0 0 0 0 0
0 0 0 0 0 0 0 0 0
0 0 0 0 0 0 0 0 0
0 0 0 0 0 0 0 0 0
0 0 0 0 0 0 0 0 0
0 0 0 0 0 0 0 0 0
0 0 0 0 0 0 0 0 0
0 0 0 0 0 0 0 0 0
0 0 0 0 0 0 0 0 0
0 0 0 0 0 0 0 0 0
0 0 0 0 0 0 0 0 0
0 0 0 0 0 0 0 0 0
0 0 0 0 0 0 0 0 0
0 0 0 0 0 0 0 0 0
0 0 0 0 0 0 0 0 0
0 0 0 0 0 0 0 0 0
0 0 0 0 0 0 0 0 0
0 0 0 0 0 0 0 0 0
0 0 0 0 0 0 0 0 0
0 0 0 0 0 0 0 0 0
0 0 0 0 0 0 0 0 0
0 0 0 0 0 0 0 0 0
0 0 0 0 0 0 0 0 0
0 0 0 0 0 0 0 0 0
0 0 0 0 0 0 0 0 0
0 0 0 0 0 0 0 0 0
0 0 0 0 0 0 0 0 0
0 0 0 0 0 0 0 0 0
0 0 0 0 0 0 0 0 0
0 0 0 0 0 0 0 0 0
0 0 0 0 0 0 0 0 0
0 0 0 0 0 0 0 0 0
0 0 0 0 0 0 0 0 0
0 0 0 0 0 0 0 0 0
0 0 0 0 0 0 0 0 0
0 0 0 0 0 0 0 0 0
0 0 0 0 0 0 0 0 0
0 0 0 0 0 0 0 0 0
0 0 0 0 0 0 0 0 0
0 0 0 0 0 0 0 0 0
0 0 0 0 0 0 0 0 0
0 0 0 0 0 0 0 0 0
0 0 0 0 0 0 0 0 0
0 0 0 0 0 0 0 0 0
0 0 0 0 0 0 0 0 0
0 0 0 0 0 0 0 0 0
0 0 0 0 0 0 0 0 0
0 0 0 0 0 0 0 0 0
0 0 0 0 0 0 0 0 0
0 0 0 0 0 0 0 0 0
0 0 0 0 0 0 0 0 0
0 0 0 0 0 0 0 0 0
0 0 0 0 0 0 0 0 0
0 0 0 0 0 0 0 0 0
0 0 0 0 0 0 0 0 0
0 0 0 0 0 0 0 0 0
0 0 0 0 0 0 0 0 0
0 0 0 0 0 0 0 0 0
0 0 0 0 0 0 0 0 0
0 0 0 0 0 0 0 0 0
0 0 0 0 0 0 0 0 0
0 0 0 0 0 0 0 0 0
0 0 0 0 0 0 0 0 0
0 0 0 0 0 0 0 0 0
0 0 0 0 0 0 0 0 0
0 0 0 0 0 0 0 0 0
0 0 0 0 0 0 0 0 0
0 0 0 0 0 0 0 0 0
0 0 0 0 0 0 0 0 0
0 0 0 0 0 0 0 0 0
0 0 0 0 0 0 0 0 0
0 0 0 0 0 0 0 0 0
0 0 0 0 0 0 0 0 0
0 0 0 0 0 0 0 0 0
0 0 0 0 0 0 0 0 0
0 0 0 0 0 0 0 0 0
0 0 0 0 0 0 0 0 0
0 0 0 0 0 0 0 0 0
0 0 0 0 0 0 0 0 0
0 0 0 0 0 0 0 0 0
0 0 0 0 0 0 0 0 0
0 0 0 0 0 0 0 0 0
0 0 0 0 0 0 0 0 0
0 0 0 0 0 0 0 0 0
0 0 0 0 0 0 0 0 0
0 0 0 0 0 0 0 0 0
0 0 0 0 0 0 0 0 0
0 0 0 0 0 0 0 0 0
0 0 0 0 0 0 0 0 0
0 0 0 0 0 0 0 0 0
0 0 0 0 0 0 0 0 0
0 0 0 0 0 0 0 0 0
0 0 0 0 0 0 0 0 0
0 0 0 0 0 0 0 0 0
0 0 0 0 0 0 0 0 0
0 0 0 0 0 0 0 0 0
0 0 0 0 0 0 0 0 0
0 0 0 0 0 0 0 0 0
0 0 0 0 0 0 0 0 0
0 0 0 0 0 0 0 0 0
0 0 0 0 0 0 0 0 0
0 0 0 0 0 0 0 0 0
0 0 0 0 0 0 0 0 0
0 0 0 0 0 0 0 0 0
0 0 0 0 0 0 0 0 0
0 0 0 0 0 0 0 0 0
0 0 0 0 0 0 0 0 0
0 0 0 0 0 0 0 0 0
0 0 0 0 0 0 0 0 0
0 0 0 0 0 0 0 0 0
0 0 0 0 0 0 0 0 0
0 0 0 0 0 0 0 0 0
0 0 0 0 0 0 0 0 0
0 0 0 0 0 0 0 0 0
0 0 0 0 0 0 0 0 0
0 0 0 0 0 0 0 0 0
0 0 0 0 0 0 0 0 0
0 0 0 0 0 0 0 0 0
SCALARS Dshear double 9
LOOKUP_TABLE default
0 0 0 0 0 0 0 0 0
0 0 0 0 0 0 0 0 0
0 0 0 0 0 0 0 0 0
0 0 0 0 0 0 0 0 0
0 0 0 0 0 0 0 0 0
0 0 0 0 0 0 0 0 0
0 0 0 0 0 0 0 0 0
0 0 0 0 0 0 0 0 0
0 0 0 0 0 0 0 0 0
0 0 0 0 0 0 0 0 0
0 0 0 0 0 0 0 0 0
0 0 0 0 0 0 0 0 0
0 0 0 0 0 0 0 0 0
0 0 0 0 0 0 0 0 0
0 0 0 0 0 0 0 0 0
0 0 0 0 0 0 0 0 0
0 0 0 0 0 0 0 0 0
0 0 0 0 0 0 0 0 0
0 0 0 0 0 0 0 0 0
0 0 0 0 0 0 0 0 0
0 0 0 0 0 0 0 0 0
0 0 0 0 0 0 0 0 0
0 0 0 0 0 0 0 0 0
0 0 0 0 0 0 0 0 0
0 0 0 0 0 0 0 0 0
0 0 0 0 0 0 0 0 0
0 0 0 0 0 0 0 0 0
0 0 0 0 0 0 0 0 0
0 0 0 0 0 0 0 0 0
0 0 0 0 0 0 0 0 0
0 0 0 0 0 0 0 0 0
0 0 0 0 0 0 0 0 0
0 0 0 0 0 0 0 0 0
0 0 0 0 0 0 0 0 0
0 0 0 0 0 0 0 0 0
0 0 0 0 0 0 0 0 0
0 0 0 0 0 0 0 0 0
0 0 0 0 0 0 0 0 0
0 0 0 0 0 0 0 0 0
0 0 0 0 0 0 0 0 0
0 0 0 0 0 0 0 0 0
0 0 0 0 0 0 0 0 0
0 0 0 0 0 0 0 0 0
0 0 0 0 0 0 0 0 0
0 0 0 0 0 0 0 0 0
0 0 0 0 0 0 0 0 0
0 0 0 0 0 0 0 0 0
0 0 0 0 0 0 0 0 0
0 0 0 0 0 0 0 0 0
0 0 0 0 0 0 0 0 0
0 0 0 0 0 0 0 0 0
0 0 0 0 0 0 0 0 0
0 0 0 0 0 0 0 0 0
0 0 0 0 0 0 0 0 0
0 0 0 0 0 0 0 0 0
0 0 0 0 0 0 0 0 0
0 0 0 0 0 0 0 0 0
0 0 0 0 0 0 0 0 0
0 0 0 0 0 0 0 0 0
0 0 0 0 0 0 0 0 0
0 0 0 0 0 0 0 0 0
0 0 0 0 0 0 0 0 0
0 0 0 0 0 0 0 0 0
0 0 0 0 0 0 0 0 0
0 0 0 0 0 0 0 0 0
0 0 0 0 0 0 0 0 0
0 0 0 0 0 0 0 0 0
0 0 0 0 0 0 0 0 0
0 0 0 0 0 0 0 0 0
0 0 0 0 0 0 0 0 0
0 0 0 0 0 0 0 0 0
0 0 0 0 0 0 0 0 0
0 0 0 0 0 0 0 0 0
0 0 0 0 0 0 0 0 0
0 0 0 0 0 0 0 0 0
0 0 0 0 0 0 0 0 0
0 0 0 0 0 0 0 0 0
0 0 0 0 0 0 0 0 0
0 0 0 0 0 0 0 0 0
0 0 0 0 0 0 0 0 0
0 0 0 0 0 0 0 0 0
0 0 0 0 0 0 0 0 0
0 0 0 0 0 0 0 0 0
0 0 0 0 0 0 0 0 0
0 0 0 0 0 0 0 0 0
0 0 0 0 0 0 0 0 0
0 0 0 0 0 0 0 0 0
0 0 0 0 0 0 0 0 0
0 0 0 0 0 0 0 0 0
0 0 0 0 0 0 0 0 0
0 0 0 0 0 0 0 0 0
0 0 0 0 0 0 0 0 0
0 0 0 0 0 0 0 0 0
0 0 0 0 0 0 0 0 0
0 0 0 0 0 0 0 0 0
0 0 0 0 0 0 0 0 0
0 0 0 0 0 0 0 0 0
0 0 0 0 0 0 0 0 0
0 0 0 0 0 0 0 0 0
0 0 0 0 0 0 0 0 0
0 0 0 0 0 0 0 0 0
0 0 0 0 0 0 0 0 0
0 0 0 0 0 0 0 0 0
0 0 0 0 0 0 0 0 0
0 0 0 0 0 0 0 0 0
0 0 0 0 0 0 0 0 0
0 0 0 0 0 0 0 0 0
0 0 0 0 0 0 0 0 0
0 0 0 0 0 0 0 0 0
0 0 0 0 0 0 0 0 0
0 0 0 0 0 0 0 0 0
0 0 0 0 0 0 0 0 0
0 0 0 0 0 0 0 0 0
0 0 0 0 0 0 0 0 0
0 0 0 0 0 0 0 0 0
0 0 0 0 0 0 0 0 0
0 0 0 0 0 0 0 0 0
0 0 0 0 0 0 0 0 0
0 0 0 0 0 0 0 0 0
0 0 0 0 0 0 0 0 0
0 0 0 0 0 0 0 0 0
0 0 0 0 0 0 0 0 0
0 0 0 0 0 0 0 0 0
0 0 0 0 0 0 0 0 0
0 0 0 0 0 0 0 0 0
0 0 0 0 0 0 0 0 0
0 0 0 0 0 0 0 0 0
0 0 0 0 0 0 0 0 0
0 0 0 0 0 0 0 0 0
0 0 0 0 0 0 0 0 0
0 0 0 0 0 0 0 0 0
0 0 0 0 0 0 0 0 0
0 0 0 0 0 0 0 0 0
0 0 0 0 0 0 0 0 0
0 0 0 0 0 0 0 0 0
0 0 0 0 0 0 0 0 0
0 0 0 0 0 0 0 0 0
0 0 0 0 0 0 0 0 0
0 0 0 0 0 0 0 0 0
0 0 0 0 0 0 0 0 0
0 0 0 0 0 0 0 0 0
0 0 0 0 0 0 0 0 0
0 0 0 0 0 0 0 0 0
0 0 0 0 0 0 0 0 0
0 0 0 0 0 0 0 0 0
0 0 0 0 0 0 0 0 0
0 0 0 0 0 0 0 0 0
0 0 0 0 0 0 0 0 0
0 0 0 0 0 0 0 0 0
0 0 0 0 0 0 0 0 0
0 0 0 0 0 0 0 0 0
0 0 0 0 0 0 0 0 0
0 0 0 0 0 0 0 0 0
0 0 0 0 0 0 0 0 0
0 0 0 0 0 0 0 0 0
0 0 0 0 0 0 0 0 0
0 0 0 0 0 0 0 0 0
0 0 0 0 0 0 0 0 0
6.20673e-08 6.4723e-08 6.23645e-08 6.51046e-08 6.20673e-08 6.4723e-08 6.23645e-08 6.51046e-08 0
6.67316e-08 6.95632e-08 6.71803e-08 7.01125e-08 6.67316e-08 6.95632e-08 6.71803e-08 7.01125e-08 0
7.17452e-08 7.48763e-08 7.22746e-08 7.52498e-08 7.17452e-08 7.48763e-08 7.22746e-08 7.52498e-08 0
7.74284e-08 8.12677e-08 7.77119e-08 8.14619e-08 7.74284e-08 8.12677e-08 7.77119e-08 8.14619e-08 0
8.41076e-08 8.80268e-08 8.4232e-08 8.80497e-08 8.41076e-08 8.80268e-08 8.4232e-08 8.80497e-08 0
4.82126e-08 5.0245e-08 4.87023e-08 5.07484e-08 4.82126e-08 5.0245e-08 4.87023e-08 5.07484e-08 0
5.19305e-08 5.44905e-08 5.24262e-08 5.49539e-08 5.19305e-08 5.44905e-08 5.24262e-08 5.49539e-08 0
5.64745e-08 5.93283e-08 5.69288e-08 5.97872e-08 5.64745e-08 5.93283e-08 5.69288e-08 5.97872e-08 0
6.14311e-08 6.43214e-08 6.18181e-08 6.45083e-08 6.14311e-08 6.43214e-08 6.18181e-08 6.45083e-08 0
6.647e-08 6.94504e-08 6.65342e-08 6.93786e-08 6.647e-08 6.94504e-08 6.65342e-08 6.93786e-08 0
7.17345e-08 7.49949e-08 7.15939e-08 7.4803e-08 7.17345e-08 7.49949e-08 7.15939e-08 7.4803e-08 0
7.75729e-08 8.13546e-08 7.73866e-08 8.1234e-08 7.75729e-08 8.13546e-08 7.73866e-08 8.1234e-08 0
8.4195e-08 8.81731e-08 8.40934e-08 8.80576e-08 8.4195e-08 8.81731e-08 8.40934e-08 8.80576e-08 0
4.3305e-08 4.54666e-08 4.39847e-08 4.61998e-08 4.3305e-08 4.54666e-08 4.39847e-08 4.61998e-08 0
4.71216e-08 4.94744e-08 4.77839e-08 4.99009e-08 4.71216e-08 4.94744e-08 4.77839e-08 4.99009e-08 0
5.13036e-08 5.39426e-08 5.16276e-08 5.42166e-08 5.13036e-08 5.39426e-08 5.16276e-08 5.42166e-08 0
5.59726e-08 5.88759e-08 5.6215e-08 5.90805e-08 5.59726e-08 5.88759e-08 5.6215e-08 5.90805e-08 0
6.10585e-08 6.41173e-08 6.12247e-08 6.42165e-08 6.10585e-08 6.41173e-08 6.12247e-08 6.42165e-08 0
6.63936e-08 6.95541e-08 6.64332e-08 6.94979e-08 6.63936e-08 6.95541e-08 6.64332e-08 6.94979e-08 0
7.19465e-08 7.53222e-08 7.18292e-08 7.51337e-08 7.19465e-08 7.53222e-08 7.18292e-08 7.51337e-08 0
7.79266e-08 8.1666e-08 7.77172e-08 8.14704e-08 7.79266e-08 8.1666e-08 7.77172e-08 8.14704e-08 0
8.44564e-08 8.83404e-08 8.42921e-08 8.8248e-08 8.44564e-08 8.83404e-08 8.42921e-08 8.8248e-08 0
3.8175e-08 4.04084e-08 3.88316e-08 4.11442e-08 3.8175e-08 4.04084e-08 3.88316e-08 4.11442e-08 0
4.2103e-08 4.45009e-08 4.2798e-08 4.5013e-08 4.2103e-08 4.45009e-08 4.2798e-08 4.5013e-08 0
4.63045e-08 4.88291e-08 4.67275e-08 4.91872e-08 4.63045e-08 4.88291e-08 4.67275e-08 4.91872e-08 0
5.07593e-08 5.35043e-08 5.10702e-08 5.37508e-08 5.07593e-08 5.35043e-08 5.10702e-08 5.37508e-08 0
5.56014e-08 5.85829e-08 5.58073e-08 5.87417e-08 5.56014e-08 5.85829e-08 5.58073e-08 5.87417e-08 0
6.08345e-08 6.40038e-08 6.09533e-08 6.40601e-08 6.08345e-08 6.40038e-08 6.09533e-08 6.40601e-08 0
6.6373e-08 6.96763e-08 6.63775e-08 6.9602e-08 6.6373e-08 6.96763e-08 6.63775e-08 6.9602e-08 0
7.21596e-08 7.56406e-08 7.2035e-08 7.54577e-08 7.21596e-08 7.56406e-08 7.2035e-08 7.54577e-08 0
7.82932e-08 8.20593e-08 7.80805e-08 8.18233e-08 7.82932e-08 8.20593e-08 7.80805e-08 8.18233e-08 0
8.48446e-08 8.86881e-08 8.46041e-08 8.84585e-08 8.48446e-08 8.86881e-08 8.46041e-08 8.84585e-08 0
3.68756e-08 3.92843e-08 3.76515e-08 3.99123e-08 3.68756e-08 3.92843e-08 3.76515e-08 3.99123e-08 0
4.11049e-08 4.36684e-08 4.16514e-08 4.41406e-08 4.11049e-08 4.36684e-08 4.16514e-08 4.41406e-08 0
4.55843e-08 4.82514e-08 4.59974e-08 4.85777e-08 4.55843e-08 4.82514e-08 4.59974e-08 4.85777e-08 0
5.02733e-08 5.31269e-08 5.0545e-08 5.33362e-08 5.02733e-08 5.31269e-08 5.0545e-08 5.33362e-08 0
5.52982e-08 5.83748e-08 5.5464e-08 5.84838e-08 5.52982e-08 5.83748e-08 5.5464e-08 5.84838e-08 0
6.07e-08 6.39756e-08 6.07661e-08 6.39809e-08 6.07e-08 6.39756e-08 6.07661e-08 6.39809e-08 0
6.64291e-08 6.98564e-08 6.63866e-08 6.97442e-08 6.64291e-08 6.98564e-08 6.63866e-08 6.97442e-08 0
7.24208e-08 7.59994e-08 7.22626e-08 7.57853e-08 7.24208e-08 7.59994e-08 7.22626e-08 7.57853e-08 0
7.87034e-08 8.25127e-08 7.84595e-08 8.22434e-08 7.87034e-08 8.25127e-08 7.84595e-08 8.22434e-08 0
8.53354e-08 8.92381e-08 8.504e-08 8.88966e-08 8.53354e-08 8.92381e-08 8.504e-08 8.88966e-08 0
3.5757e-08 3.83104e-08 3.63673e-08 3.8854e-08 3.5757e-08 3.83104e-08 3.63673e-08 3.8854e-08 0
4.02422e-08 4.29633e-08 4.07261e-08 4.33521e-08 4.02422e-08 4.29633e-08 4.07261e-08 4.33521e-08 0
4.49811e-08 4.77701e-08 4.53111e-08 4.80341e-08 4.49811e-08 4.77701e-08 4.53111e-08 4.80341e-08 0
4.98741e-08 5.28309e-08 5.00925e-08 5.29907e-08 4.98741e-08 5.28309e-08 5.00925e-08 5.29907e-08 0
5.50761e-08 5.82521e-08 5.51935e-08 5.8312e-08 5.50761e-08 5.82521e-08 5.51935e-08 5.8312e-08 0
6.06549e-08 6.40429e-08 6.06696e-08 6.39917e-08 6.06549e-08 6.40429e-08 6.06696e-08 6.39917e-08 0
6.65832e-08 7.01356e-08 6.64813e-08 6.99608e-08 6.65832e-08 7.01356e-08 6.64813e-08 6.99608e-08 0
7.27804e-08 7.64539e-08 7.2559e-08 7.6178e-08 7.27804e-08 7.64539e-08 7.2559e-08 7.6178e-08 0
7.92001e-08 8.30305e-08 7.89012e-08 8.27228e-08 7.92001e-08 8.30305e-08 7.89012e-08 8.27228e-08 0
8.59012e-08 8.99147e-08 8.55654e-08 8.95103e-08 8.59012e-08 8.99147e-08 8.55654e-08 8.95103e-08 0
3.48978e-08 3.75852e-08 3.53615e-08 3.79699e-08 3.48978e-08 3.75852e-08 3.53615e-08 3.79699e-08 0
3.96115e-08 4.24581e-08 3.99432e-08 4.27228e-08 3.96115e-08 4.24581e-08 3.99432e-08 4.27228e-08 0
4.45575e-08 4.74437e-08 4.4778e-08 4.76109e-08 4.45575e-08 4.74437e-08 4.4778e-08 4.76109e-08 0
4.96118e-08 5.26472e-08 4.97443e-08 5.27381e-08 4.96118e-08 5.26472e-08 4.97443e-08 5.27381e-08 0
5.4955e-08 5.82243e-08 5.50115e-08 5.82281e-08 5.4955e-08 5.82243e-08 5.50115e-08 5.82281e-08 0
6.07056e-08 6.42154e-08 6.0664e-08 6.41023e-08 6.07056e-08 6.42154e-08 6.0664e-08 6.41023e-08 0
6.68505e-08 7.05402e-08 6.66816e-08 7.02902e-08 6.68505e-08 7.05402e-08 6.66816e-08 7.02902e-08 0
7.32798e-08 7.70755e-08 7.29728e-08 7.66936e-08 7.32798e-08 7.70755e-08 7.29728e-08 7.66936e-08 0
7.98859e-08 8.37701e-08 7.94634e-08 8.3311e-08 7.98859e-08 8.37701e-08 7.94634e-08 8.3311e-08 0
8.66588e-08 9.06675e-08 8.61939e-08 9.02237e-08 8.66588e-08 9.06675e-08 8.61939e-08 9.02237e-08 0
3.42712e-08 3.71384e-08 3.46048e-08 3.73617e-08 3.42712e-08 3.71384e-08 3.46048e-08 3.73617e-08 0
3.92703e-08 4.22282e-08 3.94304e-08 4.23247e-08 3.92703e-08 4.22282e-08 3.94304e-08 4.23247e-08 0
4.43894e-08 4.73334e-08 4.44523e-08 4.73682e-08 4.43894e-08 4.73334e-08 4.44523e-08 4.73682e-08 0
4.95377e-08 5.2615e-08 4.95554e-08 5.26134e-08 4.95377e-08 5.2615e-08 4.95554e-08 5.26134e-08 0
5.49665e-08 5.83136e-08 5.49423e-08 5.82466e-08 5.49665e-08 5.83136e-08 5.49423e-08 5.82466e-08 0
6.087e-08 6.4507e-08 6.07602e-08 6.43232e-08 6.087e-08 6.4507e-08 6.07602e-08 6.43232e-08 0
6.7246e-08 7.10923e-08 6.70011e-08 7.07543e-08 6.7246e-08 7.10923e-08 6.70011e-08 7.07543e-08 0
7.39116e-08 7.77681e-08 7.35301e-08 7.73612e-08 7.39116e-08 7.77681e-08 7.35301e-08 7.73612e-08 0
8.05902e-08 8.44473e-08 8.01853e-08 8.40721e-08 8.05902e-08 8.44473e-08 8.01853e-08 8.40721e-08 0
3.39735e-08 3.68586e-08 3.41023e-08 3.70037e-08 3.39735e-08 3.68586e-08 3.41023e-08 3.70037e-08 0
3.90139e-08 4.2019e-08 3.91586e-08 4.21459e-08 3.90139e-08 4.2019e-08 3.91586e-08 4.21459e-08 0
4.42701e-08 4.74126e-08 4.434e-08 4.73448e-08 4.42701e-08 4.74126e-08 4.434e-08 4.73448e-08 0
4.97537e-08 5.30075e-08 4.95903e-08 5.27199e-08 4.97537e-08 5.30075e-08 4.95903e-08 5.27199e-08 0
5.54318e-08 5.8802e-08 5.5097e-08 5.84621e-08 5.54318e-08 5.8802e-08 5.5097e-08 5.84621e-08 0
6.13343e-08 6.48824e-08 6.10238e-08 6.46575e-08 6.13343e-08 6.48824e-08 6.10238e-08 6.46575e-08 0
6.75702e-08 7.13657e-08 6.73995e-08 7.12574e-08 6.75702e-08 7.13657e-08 6.73995e-08 7.12574e-08 0
7.4214e-08 7.82008e-08 7.40966e-08 7.79961e-08 7.4214e-08 7.82008e-08 7.40966e-08 7.79961e-08 0
0 0 0 0 0 0 0 0 0
0 0 0 0 0 0 0 0 0
0 0 0 0 0 0 0 0 0
0 0 0 0 0 0 0 0 0
0 0 0 0 0 0 0 0 0
0 0 0 0 0 0 0 0 0
0 0 0 0 0 0 0 0 0
0 0 0 0 0 0 0 0 0
0 0 0 0 0 0 0 0 0
0 0 0 0 0 0 0 0 0
0 0 0 0 0 0 0 0 0
0 0 0 0 0 0 0 0 0
0 0 0 0 0 0 0 0 0
0 0 0 0 0 0 0 0 0
0 0 0 0 0 0 0 0 0
0 0 0 0 0 0 0 0 0
0 0 0 0 0 0 0 0 0
0 0 0 0 0 0 0 0 0
0 0 0 0 0 0 0 0 0
0 0 0 0 0 0 0 0 0
0 0 0 0 0 0 0 0 0
0 0 0 0 0 0 0 0 0
0 0 0 0 0 0 0 0 0
0 0 0 0 0 0 0 0 0
0 0 0 0 0 0 0 0 0
0 0 0 0 0 0 0 0 0
0 0 0 0 0 0 0 0 0
0 0 0 0 0 0 0 0 0
0 0 0 0 0 0 0 0 0
0 0 0 0 0 0 0 0 0
0 0 0 0 0 0 0 0 0
0 0 0 0 0 0 0 0 0
0 0 0 0 0 0 0 0 0
0 0 0 0 0 0 0 0 0
0 0 0 0 0 0 0 0 0
0 0 0 0 0 0 0 0 0
0 0 0 0 0 0 0 0 0
0 0 0 0 0 0 0 0 0
0 0 0 0 0 0 0 0 0
0 0 0 0 0 0 0 0 0
0 0 0 0 0 0 0 0 0
0 0 0 0 0 0 0 0 0
0 0 0 0 0 0 0 0 0
0 0 0 0 0 0 0 0 0
0 0 0 0 0 0 0 0 0
0 0 0 0 0 0 0 0 0
0 0 0 0 0 0 0 0 0
0 0 0 0 0 0 0 0 0
0 0 0 0 0 0 0 0 0
0 0 0 0 0 0 0 0 0
0 0 0 0 0 0 0 0 0
0 0 0 0 0 0 0 0 0
0 0 0 0 0 0 0 0 0
0 0 0 0 0 0 0 0 0
0 0 0 0 0 0 0 0 0
0 0 0 0 0 0 0 0 0
0 0 0 0 0 0 0 0 0
0 0 0 0 0 0 0 0 0
0 0 0 0 0 0 0 0 0
0 0 0 0 0 0 0 0 0
0 0 0 0 0 0 0 0 0
0 0 0 0 0 0 0 0 0
0 0 0 0 0 0 0 0 0
0 0 0 0 0 0 0 0 0
0 0 0 0 0 0 0 0 0
0 0 0 0 0 0 0 0 0
0 0 0 0 0 0 0 0 0
0 0 0 0 0 0 0 0 0
0 0 0 0 0 0 0 0 0
0 0 0 0 0 0 0 0 0
0 0 0 0 0 0 0 0 0
0 0 0 0 0 0 0 0 0
0 0 0 0 0 0 0 0 0
0 0 0 0 0 0 0 0 0
0 0 0 0 0 0 0 0 0
0 0 0 0 0 0 0 0 0
0 0 0 0 0 0 0 0 0
0 0 0 0 0 0 0 0 0
0 0 0 0 0 0 0 0 0
0 0 0 0 0 0 0 0 0
0 0 0 0 0 0 0 0 0
0 0 0 0 0 0 0 0 0
0 0 0 0 0 0 0 0 0
0 0 0 0 0 0 0 0 0
0 0 0 0 0 0 0 0 0
0 0 0 0 0 0 0 0 0
0 0 0 0 0 0 0 0 0
0 0 0 0 0 0 0 0 0
0 0 0 0 0 0 0 0 0
0 0 0 0 0 0 0 0 0
0 0 0 0 0 0 0 0 0
0 0 0 0 0 0 0 0 0
0 0 0 0 0 0 0 0 0
0 0 0 0 0 0 0 0 0
0 0 0 0 0 0 0 0 0
0 0 0 0 0 0 0 0 0
0 0 0 0 0 0 0 0 0
0 0 0 0 0 0 0 0 0
0 0 0 0 0 0 0 0 0
0 0 0 0 0 0 0 0 0
0 0 0 0 0 0 0 0 0
0 0 0 0 0 0 0 0 0
0 0 0 0 0 0 0 0 0
0 0 0 0 0 0 0 0 0
0 0 0 0 0 0 0 0 0
0 0 0 0 0 0 0 0 0
0 0 0 0 0 0 0 0 0
0 0 0 0 0 0 0 0 0
0 0 0 0 0 0 0 0 0
0 0 0 0 0 0 0 0 0
0 0 0 0 0 0 0 0 0
0 0 0 0 0 0 0 0 0
0 0 0 0 0 0 0 0 0
0 0 0 0 0 0 0 0 0
0 0 0 0 0 0 0 0 0
0 0 0 0 0 0 0 0 0
0 0 0 0 0 0 0 0 0
0 0 0 0 0 0 0 0 0
0 0 0 0 0 0 0 0 0
0 0 0 0 0 0 0 0 0
0 0 0 0 0 0 0 0 0
0 0 0 0 0 0 0 0 0
0 0 0 0 0 0 0 0 0
0 0 0 0 0 0 0 0 0
0 0 0 0 0 0 0 0 0
0 0 0 0 0 0 0 0 0
0 0 0 0 0 0 0 0 0
0 0 0 0 0 0 0 0 0
0 0 0 0 0 0 0 0 0
0 0 0 0 0 0 0 0 0
0 0 0 0 0 0 0 0 0
0 0 0 0 0 0 0 0 0
0 0 0 0 0 0 0 0 0
0 0 0 0 0 0 0 0 0
0 0 0 0 0 0 0 0 0
0 0 0 0 0 0 0 0 0
0 0 0 0 0 0 0 0 0
0 0 0 0 0 0 0 0 0
0 0 0 0 0 0 0 0 0
0 0 0 0 0 0 0 0 0
0 0 0 0 0 0 0 0 0
0 0 0 0 0 0 0 0 0
0 0 0 0 0 0 0 0 0
0 0 0 0 0 0 0 0 0
0 0 0 0 0 0 0 0 0
0 0 0 0 0 0 0 0 0
0 0 0 0 0 0 0 0 0
0 0 0 0 0 0 0 0 0
0 0 0 0 0 0 0 0 0
0 0 0 0 0 0 0 0 0
0 0 0 0 0 0 0 0 0
0 0 0 0 0 0 0 0 0
0 0 0 0 0 0 0 0 0
0 0 0 0 0 0 0 0 0
0 0 0 0 0 0 0 0 0
0 0 0 0 0 0 0 0 0
0 0 0 0 0 0 0 0 0
0 0 0 0 0 0 0 0 0
0 0 0 0 0 0 0 0 0
0 0 0 0 0 0 0 0 0
0 0 0 0 0 0 0 0 0
0 0 0 0 0 0 0 0 0
0 0 0 0 0 0 0 0 0
0 0 0 0 0 0 0 0 0
0 0 0 0 0 0 0 0 0
0 0 0 0 0 0 0 0 0
0 0 0 0 0 0 0 0 0
0 0 0 0 0 0 0 0 0
0 0 0 0 0 0 0 0 0
0 0 0 0 0 0 0 0 0
0 0 0 0 0 0 0 0 0
0 0 0 0 0 0 0 0 0
0 0 0 0 0 0 0 0 0
0 0 0 0 0 0 0 0 0
0 0 0 0 0 0 0 0 0
0 0 0 0 0 0 0 0 0
0 0 0 0 0 0 0 0 0
0 0 0 0 0 0 0 0 0
0 0 0 0 0 0 0 0 0
0 0 0 0 0 0 0 0 0
0 0 0 0 0 0 0 0 0
0 0 0 0 0 0 0 0 0
0 0 0 0 0 0 0 0 0
0 0 0 0 0 0 0 0 0
0 0 0 0 0 0 0 0 0
0 0 0 0 0 0 0 0 0
0 0 0 0 0 0 0 0 0
0 0 0 0 0 0 0 0 0
0 0 0 0 0 0 0 0 0
0 0 0 0 0 0 0 0 0
0 0 0 0 0 0 0 0 0
0 0 0 0 0 0 0 0 0
0 0 0 0 0 0 0 0 0
0 0 0 0 0 0 0 0 0
0 0 0 0 0 0 0 0 0
0 0 0 0 0 0 0 0 0
0 0 0 0 0 0 0 0 0
0 0 0 0 0 0 0 0 0
0 0 0 0 0 0 0 0 0
0 0 0 0 0 0 0 0 0
0 0 0 0 0 0 0 0 0
0 0 0 0 0 0 0 0 0
0 0 0 0 0 0 0 0 0
0 0 0 0 0 0 0 0 0
0 0 0 0 0 0 0 0 0
0 0 0 0 0 0 0 0 0
0 0 0 0 0 0 0 0 0
0 0 0 0 0 0 0 0 0
0 0 0 0 0 0 0 0 0
0 0 0 0 0 0 0 0 0
0 0 0 0 0 0 0 0 0
0 0 0 0 0 0 0 0 0
0 0 0 0 0 0 0 0 0
0 0 0 0 0 0 0 0 0
0 0 0 0 0 0 0 0 0
0 0 0 0 0 0 0 0 0
0 0 0 0 0 0 0 0 0
0 0 0 0 0 0 0 0 0
0 0 0 0 0 0 0 0 0
0 0 0 0 0 0 0 0 0
0 0 0 0 0 0 0 0 0
0 0 0 0 0 0 0 0 0
0 0 0 0 0 0 0 0 0
0 0 0 0 0 0 0 0 0
0 0 0 0 0 0 0 0 0
0 0 0 0 0 0 0 0 0
0 0 0 0 0 0 0 0 0
0 0 0 0 0 0 0 0 0
0 0 0 0 0 0 0 0 0
0 0 0 0 0 0 0 0 0
0 0 0 0 0 0 0 0 0
0 0 0 0 0 0 0 0 0
0 0 0 0 0 0 0 0 0
0 0 0 0 0 0 0 0 0
0 0 0 0 0 0 0 0 0
0 0 0 0 0 0 0 0 0
0 0 0 0 0 0 0 0 0
0 0 0 0 0 0 0 0 0
0 0 0 0 0 0 0 0 0
0 0 0 0 0 0 0 0 0
0 0 0 0 0 0 0 0 0
0 0 0 0 0 0 0 0 0
0 0 0 0 0 0 0 0 0
0 0 0 0 0 0 0 0 0
0 0 0 0 0 0 0 0 0
0 0 0 0 0 0 0 0 0
0 0 0 0 0 0 0 0 0
0 0 0 0 0 0 0 0 0
0 0 0 0 0 0 0 0 0
0 0 0 0 0 0 0 0 0
0 0 0 0 0 0 0 0 0
0 0 0 0 0 0 0 0 0
0 0 0 0 0 0 0 0 0
0 0 0 0 0 0 0 0 0
0 0 0 0 0 0 0 0 0
0 0 0 0 0 0 0 0 0
0 0 0 0 0 0 0 0 0
0 0 0 0 0 0 0 0 0
0 0 0 0 0 0 0 0 0
0 0 0 0 0 0 0 0 0
0 0 0 0 0 0 0 0 0
0 0 0 0 0 0 0 0 0
0 0 0 0 0 0 0 0 0
0 0 0 0 0 0 0 0 0
0 0 0 0 0 0 0 0 0
0 0 0 0 0 0 0 0 0
0 0 0 0 0 0 0 0 0
0 0 0 0 0 0 0 0 0
0 0 0 0 0 0 0 0 0
0 0 0 0 0 0 0 0 0
0 0 0 0 0 0 0 0 0
0 0 0 0 0 0 0 0 0
0 0 0 0 0 0 0 0 0
0 0 0 0 0 0 0 0 0
0 0 0 0 0 0 0 0 0
0 0 0 0 0 0 0 0 0
0 0 0 0 0 0 0 0 0
0 0 0 0 0 0 0 0 0
0 0 0 0 0 0 0 0 0
0 0 0 0 0 0 0 0 0
0 0 0 0 0 0 0 0 0
0 0 0 0 0 0 0 0 0
0 0 0 0 0 0 0 0 0
0 0 0 0 0 0 0 0 0
0 0 0 0 0 0 0 0 0
0 0 0 0 0 0 0 0 0
0 0 0 0 0 0 0 0 0
0 0 0 0 0 0 0 0 0
0 0 0 0 0 0 0 0 0
0 0 0 0 0 0 0 0 0
0 0 0 0 0 0 0 0 0
0 0 0 0 0 0 0 0 0
0 0 0 0 0 0 0 0 0
0 0 0 0 0 0 0 0 0
0 0 0 0 0 0 0 0 0
0 0 0 0 0 0 0 0 0
0 0 0 0 0 0 0 0 0
0 0 0 0 0 0 0 0 0
0 0 0 0 0 0 0 0 0
0 0 0 0 0 0 0 0 0
0 0 0 0 0 0 0 0 0
0 0 0 0 0 0 0 0 0
0 0 0 0 0 0 0 0 0
0 0 0 0 0 0 0 0 0
0 0 0 0 0 0 0 0 0
0 0 0 0 0 0 0 0 0
0 0 0 0 0 0 0 0 0
0 0 0 0 0 0 0 0 0
0 0 0 0 0 0 0 0 0
0 0 0 0 0 0 0 0 0
0 0 0 0 0 0 0 0 0
0 0 0 0 0 0 0 0 0
0 0 0 0 0 0 0 0 0
0 0 0 0 0 0 0 0 0
0 0 0 0 0 0 0 0 0
0 0 0 0 0 0 0 0 0
0 0 0 0 0 0 0 0 0
0 0 0 0 0 0 0 0 0
0 0 0 0 0 0 0 0 0
0 0 0 0 0 0 0 0 0
0 0 0 0 0 0 0 0 0
0 0 0 0 0 0 0 0 0
0 0 0 0 0 0 0 0 0
0 0 0 0 0 0 0 0 0
0 0 0 0 0 0 0 0 0
0 0 0 0 0 0 0 0 0
0 0 0 0 0 0 0 0 0
0 0 0 0 0 0 0 0 0
0 0 0 0 0 0 0 0 0
0 0 0 0 0 0 0 0 0
0 0 0 0 0 0 0 0 0
0 0 0 0 0 0 0 0 0
0 0 0 0 0 0 0 0 0
0 0 0 0 0 0 0 0 0
0 0 0 0 0 0 0 0 0
0 0 0 0 0 0 0 0 0
0 0 0 0 0 0 0 0 0
0 0 0 0 0 0 0 0 0
0 0 0 0 0 0 0 0 0
0 0 0 0 0 0 0 0 0
0 0 0 0 0 0 0 0 0
0 0 0 0 0 0 0 0 0
0 0 0 0 0 0 0 0 0
0 0 0 0 0 0 0 0 0
0 0 0 0 0 0 0 0 0
0 0 0 0 0 0 0 0 0
0 0 0 0 0 0 0 0 0
0 0 0 0 0 0 0 0 0
0 0 0 0 0 0 0 0 0
0 0 0 0 0 0 0 0 0
0 0 0 0 0 0 0 0 0
0 0 0 0 0 0 0 0 0
0 0 0 0 0 0 0 0 0
0 0 0 0 0 0 0 0 0
0 0 0 0 0 0 0 0 0
0 0 0 0 0 0 0 0 0
0 0 0 0 0 0 0 0 0
0 0 0 0 0 0 0 0 0
0 0 0 0 0 0 0 0 0
0 0 0 0 0 0 0 0 0
0 0 0 0 0 0 0 0 0
0 0 0 0 0 0 0 0 0
0 0 0 0 0 0 0 0 0
0 0 0 0 0 0 0 0 0
0 0 0 0 0 0 0 0 0
0 0 0 0 0 0 0 0 0
0 0 0 0 0 0 0 0 0
0 0 0 0 0 0 0 0 0
0 0 0 0 0 0 0 0 0
0 0 0 0 0 0 0 0 0
0 0 0 0 0 0 0 0 0
0 0 0 0 0 0 0 0 0
0 0 0 0 0 0 0 0 0
0 0 0 0 0 0 0 0 0
0 0 0 0 0 0 0 0 0
0 0 0 0 0 0 0 0 0
0 0 0 0 0 0 0 0 0
0 0 0 0 0 0 0 0 0
0 0 0 0 0 0 0 0 0
0 0 0 0 0 0 0 0 0
0 0 0 0 0 0 0 0 0
0 0 0 0 0 0 0 0 0
0 0 0 0 0 0 0 0 0
0 0 0 0 0 0 0 0 0
0 0 0 0 0 0 0 0 0
0 0 0 0 0 0 0 0 0
0 0 0 0 0 0 0 0 0
0 0 0 0 0 0 0 0 0
0 0 0 0 0 0 0 0 0
0 0 0 0 0 0 0 0 0
0 0 0 0 0 0 0 0 0
0 0 0 0 0 0 0 0 0
0 0 0 0 0 0 0 0 0
0 0 0 0 0 0 0 0 0
0 0 0 0 0 0 0 0 0
0 0 0 0 0 0 0 0 0
0 0 0 0 0 0 0 0 0
0 0 0 0 0 0 0 0 0
0 0 0 0 0 0 0 0 0
0 0 0 0 0 0 0 0 0
0 0 0 0 0 0 0 0 0
0 0 0 0 0 0 0 0 0
0 0 0 0 0 0 0 0 0
0 0 0 0 0 0 0 0 0
0 0 0 0 0 0 0 0 0
0 0 0 0 0 0 0 0 0
0 0 0 0 0 0 0 0 0
0 0 0 0 0 0 0 0 0
0 0 0 0 0 0 0 0 0
0 0 0 0 0 0 0 0 0
0 0 0 0 0 0 0 0 0
0 0 0 0 0 0 0 0 0
0 0 0 0 0 0 0 0 0
0 0 0 0 0 0 0 0 0
0 0 0 0 0 0 0 0 0
0 0 0 0 0 0 0 0 0
0 0 0 0 0 0 0 0 0
0 0 0 0 0 0 0 0 0
0 0 0 0 0 0 0 0 0
0 0 0 0 0 0 0 0 0
0 0 0 0 0 0 0 0 0
0 0 0 0 0 0 0 0 0
0 0 0 0 0 0 0 0 0
0 0 0 0 0 0 0 0 0
0 0 0 0 0 0 0 0 0
0 0 0 0 0 0 0 0 0
0 0 0 0 0 0 0 0 0
0 0 0 0 0 0 0 0 0
0 0 0 0 0 0 0 0 0
0 0 0 0 0 0 0 0 0
0 0 0 0 0 0 0 0 0
0 0 0 0 0 0 0 0 0
0 0 0 0 0 0 0 0 0
0 0 0 0 0 0 0 0 0
0 0 0 0 0 0 0 0 0
0 0 0 0 0 0 0 0 0
0 0 0 0 0 0 0 0 0
0 0 0 0 0 0 0 0 0
0 0 0 0 0 0 0 0 0
0 0 0 0 0 0 0 0 0
0 0 0 0 0 0 0 0 0
0 0 0 0 0 0 0 0 0
0 0 0 0 0 0 0 0 0
0 0 0 0 0 0 0 0 0
0 0 0 0 0 0 0 0 0
0 0 0 0 0 0 0 0 0
0 0 0 0 0 0 0 0 0
0 0 0 0 0 0 0 0 0
0 0 0 0 0 0 0 0 0
0 0 0 0 0 0 0 0 0
0 0 0 0 0 0 0 0 0
0 0 0 0 0 0 0 0 0
0 0 0 0 0 0 0 0 0
0 0 0 0 0 0 0 0 0
0 0 0 0 0 0 0 0 0
0 0 0 0 0 0 0 0 0
0 0 0 0 0 0 0 0 0
0 0 0 0 0 0 0 0 0
0 0 0 0 0 0 0 0 0
0 0 0 0 0 0 0 0 0
0 0 0 0 0 0 0 0 0
0 0 0 0 0 0 0 0 0
0 0 0 0 0 0 0 0 0
0 0 0 0 0 0 0 0 0
0 0 0 0 0 0 0 0 0
0 0 0 0 0 0 0 0 0
0 0 0 0 0 0 0 0 0
0 0 0 0 0 0 0 0 0
0 0 0 0 0 0 0 0 0
0 0 0 0 0 0 0 0 0
0 0 0 0 0 0 0 0 0
0 0 0 0 0 0 0 0 0
0 0 0 0 0 0 0 0 0
0 0 0 0 0 0 0 0 0
0 0 0 0 0 0 0 0 0
0 0 0 0 0 0 0 0 0
0 0 0 0 0 0 0 0 0
0 0 0 0 0 0 0 0 0
0 0 0 0 0 0 0 0 0
0 0 0 0 0 0 0 0 0
0 0 0 0 0 0 0 0 0
0 0 0 0 0 0 0 0 0
0 0 0 0 0 0 0 0 0
0 0 0 0 0 0 0 0 0
0 0 0 0 0 0 0 0 0
0 0 0 0 0 0 0 0 0
0 0 0 0 0 0 0 0 0
0 0 0 0 0 0 0 0 0
0 0 0 0 0 0 0 0 0
0 0 0 0 0 0 0 0 0
0 0 0 0 0 0 0 0 0
0 0 0 0 0 0 0 0 0
0 0 0 0 0 0 0 0 0
0 0 0 0 0 0 0 0 0
0 0 0 0 0 0 0 0 0
0 0 0 0 0 0 0 0 0
0 0 0 0 0 0 0 0 0
0 0 0 0 0 0 0 0 0
0 0 0 0 0 0 0 0 0
0 0 0 0 0 0 0 0 0
0 0 0 0 0 0 0 0 0
0 0 0 0 0 0 0 0 0
0 0 0 0 0 0 0 0 0
0 0 0 0 0 0 0 0 0
0 0 0 0 0 0 0 0 0
0 0 0 0 0 0 0 0 0
0 0 0 0 0 0 0 0 0
0 0 0 0 0 0 0 0 0
0 0 0 0 0 0 0 0 0
0 0 0 0 0 0 0 0 0
0 0 0 0 0 0 0 0 0
0 0 0 0 0 0 0 0 0
0 0 0 0 0 0 0 0 0
0 0 0 0 0 0 0 0 0
0 0 0 0 0 0 0 0 0
0 0 0 0 0 0 0 0 0
0 0 0 0 0 0 0 0 0
0 0 0 0 0 0 0 0 0
0 0 0 0 0 0 0 0 0
0 0 0 0 0 0 0 0 0
0 0 0 0 0 0 0 0 0
0 0 0 0 0 0 0 0 0
0 0 0 0 0 0 0 0 0
0 0 0 0 0 0 0 0 0
0 0 0 0 0 0 0 0 0
0 0 0 0 0 0 0 0 0
0 0 0 0 0 0 0 0 0
0 0 0 0 0 0 0 0 0
0 0 0 0 0 0 0 0 0
0 0 0 0 0 0 0 0 0
0 0 0 0 0 0 0 0 0
0 0 0 0 0 0 0 0 0
0 0 0 0 0 0 0 0 0
0 0 0 0 0 0 0 0 0
0 0 0 0 0 0 0 0 0
0 0 0 0 0 0 0 0 0
0 0 0 0 0 0 0 0 0
0 0 0 0 0 0 0 0 0
0 0 0 0 0 0 0 0 0
0 0 0 0 0 0 0 0 0
0 0 0 0 0 0 0 0 0
0 0 0 0 0 0 0 0 0
0 0 0 0 0 0 0 0 0
0 0 0 0 0 0 0 0 0
0 0 0 0 0 0 0 0 0
0 0 0 0 0 0 0 0 0
0 0 0 0 0 0 0 0 0
0 0 0 0 0 0 0 0 0
0 0 0 0 0 0 0 0 0
0 0 0 0 0 0 0 0 0
0 0 0 0 0 0 0 0 0
0 0 0 0 0 0 0 0 0
0 0 0 0 0 0 0 0 0
0 0 0 0 0 0 0 0 0
0 0 0 0 0 0 0 0 0
0 0 0 0 0 0 0 0 0
0 0 0 0 0 0 0 0 0
0 0 0 0 0 0 0 0 0
0 0 0 0 0 0 0 0 0
0 0 0 0 0 0 0 0 0
0 0 0 0 0 0 0 0 0
0 0 0 0 0 0 0 0 0
0 0 0 0 0 0 0 0 0
0 0 0 0 0 0 0 0 0
0 0 0 0 0 0 0 0 0
0 0 0 0 0 0 0 0 0
0 0 0 0 0 0 0 0 0
0 0 0 0 0 0 0 0 0
0 0 0 0 0 0 0 0 0
0 0 0 0 0 0 0 0 0
0 0 0 0 0 0 0 0 0
0 0 0 0 0 0 0 0 0
0 0 0 0 0 0 0 0 0
0 0 0 0 0 0 0 0 0
0 0 0 0 0 0 0 0 0
0 0 0 0 0 0 0 0 0
0 0 0 0 0 0 0 0 0
0 0 0 0 0 0 0 0 0
0 0 0 0 0 0 0 0 0
0 0 0 0 0 0 0 0 0
0 0 0 0 0 0 0 0 0
0 0 0 0 0 0 0 0 0
0 0 0 0 0 0 0 0 0
0 0 0 0 0 0 0 0 0
0 0 0 0 0 0 0 0 0
0 0 0 0 0 0 0 0 0
0 0 0 0 0 0 0 0 0
0 0 0 0 0 0 0 0 0
0 0 0 0 0 0 0 0 0
0 0 0 0 0 0 0 0 0
0 0 0 0 0 0 0 0 0
0 0 0 0 0 0 0 0 0
0 0 0 0 0 0 0 0 0
0 0 0 0 0 0 0 0 0
0 0 0 0 0 0 0 0 0
0 0 0 0 0 0 0 0 0
0 0 0 0 0 0 0 0 0
0 0 0 0 0 0 0 0 0
0 0 0 0 0 0 0 0 0
0 0 0 0 0 0 0 0 0
0 0 0 0 0 0 0 0 0
0 0 0 0 0 0 0 0 0
0 0 0 0 0 0 0 0 0
0 0 0 0 0 0 0 0 0
0 0 0 0 0 0 0 0 0
0 0 0 0 0 0 0 0 0
0 0 0 0 0 0 0 0 0
0 0 0 0 0 0 0 0 0
0 0 0 0 0 0 0 0 0
0 0 0 0 0 0 0 0 0
0 0 0 0 0 0 0 0 0
0 0 0 0 0 0 0 0 0
0 0 0 0 0 0 0 0 0
0 0 0 0 0 0 0 0 0
0 0 0 0 0 0 0 0 0
0 0 0 0 0 0 0 0 0
0 0 0 0 0 0 0 0 0
0 0 0 0 0 0 0 0 0
0 0 0 0 0 0 0 0 0
0 0 0 0 0 0 0 0 0
0 0 0 0 0 0 0 0 0
0 0 0 0 0 0 0 0 0
0 0 0 0 0 0 0 0 0
0 0 0 0 0 0 0 0 0
0 0 0 0 0 0 0 0 0
0 0 0 0 0 0 0 0 0
0 0 0 0 0 0 0 0 0
0 0 0 0 0 0 0 0 0
0 0 0 0 0 0 0 0 0
0 0 0 0 0 0 0 0 0
0 0 0 0 0 0 0 0 0
0 0 0 0 0 0 0 0 0
0 0 0 0 0 0 0 0 0
0 0 0 0 0 0 0 0 0
0 0 0 0 0 0 0 0 0
0 0 0 0 0 0 0 0 0
0 0 0 0 0 0 0 0 0
0 0 0 0 0 0 0 0 0
0 0 0 0 0 0 0 0 0
0 0 0 0 0 0 0 0 0
0 0 0 0 0 0 0 0 0
0 0 0 0 0 0 0 0 0
0 0 0 0 0 0 0 0 0
0 0 0 0 0 0 0 0 0
0 0 0 0 0 0 0 0 0
0 0 0 0 0 0 0 0 0
0 0 0 0 0 0 0 0 0
0 0 0 0 0 0 0 0 0
0 0 0 0 0 0 0 0 0
0 0 0 0 0 0 0 0 0
0 0 0 0 0 0 0 0 0
0 0 0 0 0 0 0 0 0
0 0 0 0 0 0 0 0 0
0 0 0 0 0 0 0 0 0
0 0 0 0 0 0 0 0 0
0 0 0 0 0 0 0 0 0
0 0 0 0 0 0 0 0 0
0 0 0 0 0 0 0 0 0
0 0 0 0 0 0 0 0 0
0 0 0 0 0 0 0 0 0
0 0 0 0 0 0 0 0 0
0 0 0 0 0 0 0 0 0
0 0 0 0 0 0 0 0 0
0 0 0 0 0 0 0 0 0
0 0 0 0 0 0 0 0 0
0 0 0 0 0 0 0 0 0
0 0 0 0 0 0 0 0 0
0 0 0 0 0 0 0 0 0
0 0 0 0 0 0 0 0 0
0 0 0 0 0 0 0 0 0
0 0 0 0 0 0 0 0 0
0 0 0 0 0 0 0 0 0
0 0 0 0 0 0 0 0 0
0 0 0 0 0 0 0 0 0
0 0 0 0 0 0 0 0 0
0 0 0 0 0 0 0 0 0
0 0 0 0 0 0 0 0 0
0 0 0 0 0 0 0 0 0
0 0 0 0 0 0 0 0 0
0 0 0 0 0 0 0 0 0
0 0 0 0 0 0 0 0 0
0 0 0 0 0 0 0 0 0
0 0 0 0 0 0 0 0 0
0 0 0 0 0 0 0 0 0
0 0 0 0 0 0 0 0 0
0 0 0 0 0 0 0 0 0
0 0 0 0 0 0 0 0 0
0 0 0 0 0 0 0 0 0
0 0 0 0 0 0 0 0 0
0 0 0 0 0 0 0 0 0
0 0 0 0 0 0 0 0 0
0 0 0 0 0 0 0 0 0
0 0 0 0 0 0 0 0 0
0 0 0 0 0 0 0 0 0
0 0 0 0 0 0 0 0 0
0 0 0 0 0 0 0 0 0
0 0 0 0 0 0 0 0 0
0 0 0 0 0 0 0 0 0
0 0 0 0 0 0 0 0 0
0 0 0 0 0 0 0 0 0
0 0 0 0 0 0 0 0 0
0 0 0 0 0 0 0 0 0
0 0 0 0 0 0 0 0 0
0 0 0 0 0 0 0 0 0
0 0 0 0 0 0 0 0 0
0 0 0 0 0 0 0 0 0
0 0 0 0 0 0 0 0 0
0 0 0 0 0 0 0 0 0
0 0 0 0 0 0 0 0 0
0 0 0 0 0 0 0 0 0
0 0 0 0 0 0 0 0 0
1.1239e-07 1.17547e-07 1.13086e-07 1.18213e-07 1.1239e-07 1.17547e-07 1.13086e-07 1.18213e-07 0
1.21494e-07 1.27121e-07 1.2214e-07 1.27741e-07 1.21494e-07 1.27121e-07 1.2214e-07 1.27741e-07 0
1.31352e-07 1.37288e-07 1.31979e-07 1.37961e-07 1.31352e-07 1.37288e-07 1.31979e-07 1.37961e-07 0
1.41695e-07 1.47799e-07 1.42297e-07 1.48161e-07 1.41695e-07 1.47799e-07 1.42297e-07 1.48161e-07 0
1.52543e-07 1.59399e-07 1.52782e-07 1.59541e-07 1.52543e-07 1.59399e-07 1.52782e-07 1.59541e-07 0
8.69482e-08 9.12341e-08 8.81097e-08 9.21449e-08 8.69482e-08 9.12341e-08 8.81097e-08 9.21449e-08 0
9.45037e-08 9.91407e-08 9.52903e-08 9.9839e-08 9.45037e-08 9.91407e-08 9.52903e-08 9.9839e-08 0
1.02642e-07 1.07562e-07 1.03304e-07 1.0821e-07 1.02642e-07 1.07562e-07 1.03304e-07 1.0821e-07 0
1.11317e-07 1.16649e-07 1.11915e-07 1.17125e-07 1.11317e-07 1.16649e-07 1.11915e-07 1.17125e-07 0
1.20703e-07 1.26447e-07 1.21106e-07 1.26769e-07 1.20703e-07 1.26447e-07 1.21106e-07 1.26769e-07 0
1.3076e-07 1.36802e-07 1.31021e-07 1.36974e-07 1.3076e-07 1.36802e-07 1.31021e-07 1.36974e-07 0
1.41337e-07 1.47685e-07 1.41435e-07 1.47668e-07 1.41337e-07 1.47685e-07 1.41435e-07 1.47668e-07 0
1.52527e-07 1.59406e-07 1.52472e-07 1.59362e-07 1.52527e-07 1.59406e-07 1.52472e-07 1.59362e-07 0
7.72347e-08 8.14899e-08 7.8765e-08 8.28998e-08 7.72347e-08 8.14899e-08 7.8765e-08 8.28998e-08 0
8.47335e-08 8.93338e-08 8.60378e-08 9.0477e-08 8.47335e-08 8.93338e-08 8.60378e-08 9.0477e-08 0
9.28032e-08 9.76757e-08 9.38339e-08 9.85577e-08 9.28032e-08 9.76757e-08 9.38339e-08 9.85577e-08 0
1.01344e-07 1.06488e-07 1.02114e-07 1.07098e-07 1.01344e-07 1.06488e-07 1.02114e-07 1.07098e-07 0
1.10393e-07 1.15915e-07 1.10907e-07 1.16323e-07 1.10393e-07 1.15915e-07 1.10907e-07 1.16323e-07 0
1.20094e-07 1.2599e-07 1.20431e-07 1.26237e-07 1.20094e-07 1.2599e-07 1.20431e-07 1.26237e-07 0
1.30421e-07 1.36633e-07 1.30599e-07 1.3671e-07 1.30421e-07 1.36633e-07 1.30599e-07 1.3671e-07 0
1.41299e-07 1.47833e-07 1.41299e-07 1.47728e-07 1.41299e-07 1.47833e-07 1.41299e-07 1.47728e-07 0
1.52748e-07 1.59642e-07 1.52599e-07 1.5948e-07 1.52748e-07 1.59642e-07 1.52599e-07 1.5948e-07 0
6.72463e-08 7.14597e-08 6.88e-08 7.2998e-08 6.72463e-08 7.14597e-08 6.88e-08 7.2998e-08 0
7.46836e-08 7.92697e-08 7.61375e-08 8.05166e-08 7.46836e-08 7.92697e-08 7.61375e-08 8.05166e-08 0
8.27231e-08 8.75668e-08 8.38452e-08 8.85524e-08 8.27231e-08 8.75668e-08 8.38452e-08 8.85524e-08 0
9.12075e-08 9.63061e-08 9.20973e-08 9.70703e-08 9.12075e-08 9.63061e-08 9.20973e-08 9.70703e-08 0
1.00142e-07 1.05521e-07 1.00814e-07 1.06063e-07 1.00142e-07 1.05521e-07 1.00814e-07 1.06063e-07 0
1.09585e-07 1.15305e-07 1.10037e-07 1.1564e-07 1.09585e-07 1.15305e-07 1.10037e-07 1.1564e-07 0
1.19619e-07 1.25686e-07 1.19875e-07 1.25841e-07 1.19619e-07 1.25686e-07 1.19875e-07 1.25841e-07 0
1.30244e-07 1.3663e-07 1.30325e-07 1.3661e-07 1.30244e-07 1.3663e-07 1.30325e-07 1.3661e-07 0
1.41422e-07 1.48128e-07 1.4133e-07 1.47938e-07 1.41422e-07 1.48128e-07 1.4133e-07 1.47938e-07 0
1.53136e-07 1.60112e-07 1.5289e-07 1.5981e-07 1.53136e-07 1.60112e-07 1.5289e-07 1.5981e-07 0
6.48905e-08 6.92525e-08 6.61957e-08 7.04556e-08 6.48905e-08 6.92525e-08 6.61957e-08 7.04556e-08 0
7.2619e-08 7.74421e-08 7.37408e-08 7.84445e-08 7.2619e-08 7.74421e-08 7.37408e-08 7.84445e-08 0
8.1057e-08 8.61059e-08 8.19742e-08 8.69095e-08 8.1057e-08 8.61059e-08 8.19742e-08 8.69095e-08 0
8.98929e-08 9.51872e-08 9.0615e-08 9.57995e-08 8.98929e-08 9.51872e-08 9.0615e-08 9.57995e-08 0
9.91681e-08 1.04748e-07 9.96994e-08 1.05167e-07 9.91681e-08 1.04748e-07 9.96994e-08 1.05167e-07 0
1.08953e-07 1.14863e-07 1.09292e-07 1.15095e-07 1.08953e-07 1.14863e-07 1.09292e-07 1.15095e-07 0
1.19313e-07 1.2556e-07 1.19467e-07 1.25609e-07 1.19313e-07 1.2556e-07 1.19467e-07 1.25609e-07 0
1.30248e-07 1.36808e-07 1.30222e-07 1.36682e-07 1.30248e-07 1.36808e-07 1.30222e-07 1.36682e-07 0
1.41726e-07 1.48601e-07 1.41527e-07 1.48304e-07 1.41726e-07 1.48601e-07 1.41527e-07 1.48304e-07 0
1.53722e-07 1.60836e-07 1.53358e-07 1.60386e-07 1.53722e-07 1.60836e-07 1.53358e-07 1.60386e-07 0
6.29475e-08 6.75102e-08 6.40182e-08 6.84617e-08 6.29475e-08 6.75102e-08 6.40182e-08 6.84617e-08 0
7.10204e-08 7.60361e-08 7.18886e-08 7.67954e-08 7.10204e-08 7.60361e-08 7.18886e-08 7.67954e-08 0
7.97821e-08 8.49973e-08 8.04683e-08 8.5592e-08 7.97821e-08 8.49973e-08 8.04683e-08 8.5592e-08 0
8.89037e-08 9.43588e-08 8.94327e-08 9.47994e-08 8.89037e-08 9.43588e-08 8.94327e-08 9.47994e-08 0
9.84598e-08 1.04208e-07 9.88341e-08 1.04489e-07 9.84598e-08 1.04208e-07 9.88341e-08 1.04489e-07 0
1.0854e-07 1.14628e-07 1.0875e-07 1.14736e-07 1.0854e-07 1.14628e-07 1.0875e-07 1.14736e-07 0
1.19211e-07 1.25642e-07 1.19242e-07 1.25567e-07 1.19211e-07 1.25642e-07 1.19242e-07 1.25567e-07 0
1.30461e-07 1.37195e-07 1.3031e-07 1.36944e-07 1.30461e-07 1.37195e-07 1.3031e-07 1.36944e-07 0
1.42231e-07 1.4926e-07 1.41913e-07 1.48855e-07 1.42231e-07 1.4926e-07 1.41913e-07 1.48855e-07 0
1.54501e-07 1.61792e-07 1.54026e-07 1.61212e-07 1.54501e-07 1.61792e-07 1.54026e-07 1.61212e-07 0
6.13834e-08 6.62296e-08 6.22385e-08 6.69107e-08 6.13834e-08 6.62296e-08 6.22385e-08 6.69107e-08 0
6.99e-08 7.50745e-08 7.04866e-08 7.55737e-08 6.99e-08 7.50745e-08 7.04866e-08 7.55737e-08 0
7.89279e-08 8.42786e-08 7.9368e-08 8.4644e-08 7.89279e-08 8.42786e-08 7.9368e-08 8.4644e-08 0
8.82775e-08 9.38513e-08 8.85928e-08 9.41034e-08 8.82775e-08 9.38513e-08 8.85928e-08 9.41034e-08 0
9.80446e-08 1.03927e-07 9.82468e-08 1.04056e-07 9.80446e-08 1.03927e-07 9.82468e-08 1.04056e-07 0
1.0837e-07 1.14627e-07 1.08437e-07 1.14597e-07 1.0837e-07 1.14627e-07 1.08437e-07 1.14597e-07 0
1.19341e-07 1.25964e-07 1.19235e-07 1.25747e-07 1.19341e-07 1.25964e-07 1.19235e-07 1.25747e-07 0
1.3092e-07 1.3784e-07 1.30622e-07 1.37433e-07 1.3092e-07 1.3784e-07 1.30622e-07 1.37433e-07 0
1.42983e-07 1.50115e-07 1.42516e-07 1.49596e-07 1.42983e-07 1.50115e-07 1.42516e-07 1.49596e-07 0
1.55466e-07 1.62951e-07 1.54885e-07 1.62256e-07 1.55466e-07 1.62951e-07 1.54885e-07 1.62256e-07 0
6.02716e-08 6.54026e-08 6.0854e-08 6.58238e-08 6.02716e-08 6.54026e-08 6.0854e-08 6.58238e-08 0
6.92368e-08 7.45787e-08 6.95638e-08 7.48067e-08 6.92368e-08 7.45787e-08 6.95638e-08 7.48067e-08 0
7.85303e-08 8.39833e-08 7.87023e-08 8.41004e-08 7.85303e-08 8.39833e-08 7.87023e-08 8.41004e-08 0
8.80467e-08 9.36952e-08 8.81301e-08 9.37408e-08 8.80467e-08 9.36952e-08 8.81301e-08 9.37408e-08 0
9.79522e-08 1.03934e-07 9.79644e-08 1.03893e-07 9.79522e-08 1.03934e-07 9.79644e-08 1.03893e-07 0
1.08471e-07 1.14886e-07 1.08378e-07 1.14702e-07 1.08471e-07 1.14886e-07 1.08378e-07 1.14702e-07 0
1.19733e-07 1.26563e-07 1.19472e-07 1.2618e-07 1.19733e-07 1.26563e-07 1.19472e-07 1.2618e-07 0
1.31676e-07 1.38818e-07 1.31201e-07 1.3821e-07 1.31676e-07 1.38818e-07 1.31201e-07 1.3821e-07 0
1.44055e-07 1.51222e-07 1.43393e-07 1.50547e-07 1.44055e-07 1.51222e-07 1.43393e-07 1.50547e-07 0
5.95483e-08 6.49196e-08 5.99223e-08 6.5161e-08 5.95483e-08 6.49196e-08 5.99223e-08 6.5161e-08 0
6.89205e-08 7.44798e-08 6.90649e-08 7.4491e-08 6.89205e-08 7.44798e-08 6.90649e-08 7.4491e-08 0
7.85888e-08 8.42553e-08 7.84989e-08 8.4022e-08 7.85888e-08 8.42553e-08 7.84989e-08 8.4022e-08 0
8.84331e-08 9.41812e-08 8.8124e-08 9.38082e-08 8.84331e-08 9.41812e-08 8.8124e-08 9.38082e-08 0
9.84677e-08 1.04432e-07 9.80819e-08 1.04074e-07 9.84677e-08 1.04432e-07 9.80819e-08 1.04074e-07 0
1.08945e-07 1.15312e-07 1.0862e-07 1.15048e-07 1.08945e-07 1.15312e-07 1.0862e-07 1.15048e-07 0
1.20158e-07 1.2703e-07 1.19916e-07 1.26792e-07 1.20158e-07 1.2703e-07 1.19916e-07 1.26792e-07 0
1.32236e-07 1.39588e-07 1.31955e-07 1.39188e-07 1.32236e-07 1.39588e-07 1.31955e-07 1.39188e-07 0
0 0 0 0 0 0 0 0 0
0 0 0 0 0 0 0 0 0
0 0 0 0 0 0 0 0 0
0 0 0 0 0 0 0 0 0
0 0 0 0 0 0 0 0 0
0 0 0 0 0 0 0 0 0
0 0 0 0 0 0 0 0 0
0 0 0 0 0 0 0 0 0
0 0 0 0 0 0 0 0 0
0 0 0 0 0 0 0 0 0
0 0 0 0 0 0 0 0 0
0 0 0 0 0 0 0 0 0
0 0 0 0 0 0 0 0 0
0 0 0 0 0 0 0 0 0
0 0 0 0 0 0 0 0 0
0 0 0 0 0 0 0 0 0
0 0 0 0 0 0 0 0 0
0 0 0 0 0 0 0 0 0
0 0 0 0 0 0 0 0 0
0 0 0 0 0 0 0 0 0
0 0 0 0 0 0 0 0 0
0 0 0 0 0 0 0 0 0
0 0 0 0 0 0 0 0 0
0 0 0 0 0 0 0 0 0
0 0 0 0 0 0 0 0 0
0 0 0 0 0 0 0 0 0
0 0 0 0 0 0 0 0 0
0 0 0 0 0 0 0 0 0
0 0 0 0 0 0 0 0 0
0 0 0 0 0 0 0 0 0
0 0 0 0 0 0 0 0 0
0 0 0 0 0 0 0 0 0
0 0 0 0 0 0 0 0 0
0 0 0 0 0 0 0 0 0
0 0 0 0 0 0 0 0 0
0 0 0 0 0 0 0 0 0
0 0 0 0 0 0 0 0 0
0 0 0 0 0 0 0 0 0
0 0 0 0 0 0 0 0 0
0 0 0 0 0 0 0 0 0
0 0 0 0 0 0 0 0 0
0 0 0 0 0 0 0 0 0
0 0 0 0 0 0 0 0 0
0 0 0 0 0 0 0 0 0
0 0 0 0 0 0 0 0 0
0 0 0 0 0 0 0 0 0
0 0 0 0 0 0 0 0 0
0 0 0 0 0 0 0 0 0
0 0 0 0 0 0 0 0 0
0 0 0 0 0 0 0 0 0
0 0 0 0 0 0 0 0 0
0 0 0 0 0 0 0 0 0
0 0 0 0 0 0 0 0 0
0 0 0 0 0 0 0 0 0
0 0 0 0 0 0 0 0 0
0 0 0 0 0 0 0 0 0
0 0 0 0 0 0 0 0 0
0 0 0 0 0 0 0 0 0
0 0 0 0 0 0 0 0 0
0 0 0 0 0 0 0 0 0
0 0 0 0 0 0 0 0 0
0 0 0 0 0 0 0 0 0
0 0 0 0 0 0 0 0 0
0 0 0 0 0 0 0 0 0
0 0 0 0 0 0 0 0 0
0 0 0 0 0 0 0 0 0
0 0 0 0 0 0 0 0 0
0 0 0 0 0 0 0 0 0
0 0 0 0 0 0 0 0 0
0 0 0 0 0 0 0 0 0
0 0 0 0 0 0 0 0 0
0 0 0 0 0 0 0 0 0
0 0 0 0 0 0 0 0 0
0 0 0 0 0 0 0 0 0
0 0 0 0 0 0 0 0 0
0 0 0 0 0 0 0 0 0
0 0 0 0 0 0 0 0 0
0 0 0 0 0 0 0 0 0
0 0 0 0 0 0 0 0 0
0 0 0 0 0 0 0 0 0
0 0 0 0 0 0 0 0 0
0 0 0 0 0 0 0 0 0
0 0 0 0 0 0 0 0 0
0 0 0 0 0 0 0 0 0
0 0 0 0 0 0 0 0 0
0 0 0 0 0 0 0 0 0
0 0 0 0 0 0 0 0 0
0 0 0 0 0 0 0 0 0
0 0 0 0 0 0 0 0 0
0 0 0 0 0 0 0 0 0
0 0 0 0 0 0 0 0 0
0 0 0 0 0 0 0 0 0
0 0 0 0 0 0 0 0 0
0 0 0 0 0 0 0 0 0
0 0 0 0 0 0 0 0 0
0 0 0 0 0 0 0 0 0
0 0 0 0 0 0 0 0 0
0 0 0 0 0 0 0 0 0
0 0 0 0 0 0 0 0 0
0 0 0 0 0 0 0 0 0
0 0 0 0 0 0 0 0 0
0 0 0 0 0 0 0 0 0
0 0 0 0 0 0 0 0 0
0 0 0 0 0 0 0 0 0
0 0 0 0 0 0 0 0 0
0 0 0 0 0 0 0 0 0
0 0 0 0 0 0 0 0 0
0 0 0 0 0 0 0 0 0
0 0 0 0 0 0 0 0 0
0 0 0 0 0 0 0 0 0
0 0 0 0 0 0 0 0 0
0 0 0 0 0 0 0 0 0
0 0 0 0 0 0 0 0 0
0 0 0 0 0 0 0 0 0
0 0 0 0 0 0 0 0 0
0 0 0 0 0 0 0 0 0
0 0 0 0 0 0 0 0 0
0 0 0 0 0 0 0 0 0
0 0 0 0 0 0 0 0 0
0 0 0 0 0 0 0 0 0
0 0 0 0 0 0 0 0 0
0 0 0 0 0 0 0 0 0
0 0 0 0 0 0 0 0 0
0 0 0 0 0 0 0 0 0
0 0 0 0 0 0 0 0 0
0 0 0 0 0 0 0 0 0
0 0 0 0 0 0 0 0 0
0 0 0 0 0 0 0 0 0
0 0 0 0 0 0 0 0 0
0 0 0 0 0 0 0 0 0
0 0 0 0 0 0 0 0 0
0 0 0 0 0 0 0 0 0
0 0 0 0 0 0 0 0 0
0 0 0 0 0 0 0 0 0
0 0 0 0 0 0 0 0 0
0 0 0 0 0 0 0 0 0
0 0 0 0 0 0 0 0 0
0 0 0 0 0 0 0 0 0
0 0 0 0 0 0 0 0 0
0 0 0 0 0 0 0 0 0
0 0 0 0 0 0 0 0 0
0 0 0 0 0 0 0 0 0
0 0 0 0 0 0 0 0 0
0 0 0 0 0 0 0 0 0
0 0 0 0 0 0 0 0 0
0 0 0 0 0 0 0 0 0
0 0 0 0 0 0 0 0 0
0 0 0 0 0 0 0 0 0
0 0 0 0 0 0 0 0 0
0 0 0 0 0 0 0 0 0
0 0 0 0 0 0 0 0 0
0 0 0 0 0 0 0 0 0
0 0 0 0 0 0 0 0 0
0 0 0 0 0 0 0 0 0
0 0 0 0 0 0 0 0 0
0 0 0 0 0 0 0 0 0
0 0 0 0 0 0 0 0 0
0 0 0 0 0 0 0 0 0
0 0 0 0 0 0 0 0 0
0 0 0 0 0 0 0 0 0
0 0 0 0 0 0 0 0 0
0 0 0 0 0 0 0 0 0
0 0 0 0 0 0 0 0 0
0 0 0 0 0 0 0 0 0
0 0 0 0 0 0 0 0 0
0 0 0 0 0 0 0 0 0
0 0 0 0 0 0 0 0 0
0 0 0 0 0 0 0 0 0
0 0 0 0 0 0 0 0 0
0 0 0 0 0 0 0 0 0
0 0 0 0 0 0 0 0 0
0 0 0 0 0 0 0 0 0
0 0 0 0 0 0 0 0 0
0 0 0 0 0 0 0 0 0
0 0 0 0 0 0 0 0 0
0 0 0 0 0 0 0 0 0
0 0 0 0 0 0 0 0 0
0 0 0 0 0 0 0 0 0
0 0 0 0 0 0 0 0 0
0 0 0 0 0 0 0 0 0
0 0 0 0 0 0 0 0 0
0 0 0 0 0 0 0 0 0
0 0 0 0 0 0 0 0 0
0 0 0 0 0 0 0 0 0
0 0 0 0 0 0 0 0 0
0 0 0 0 0 0 0 0 0
0 0 0 0 0 0 0 0 0
0 0 0 0 0 0 0 0 0
0 0 0 0 0 0 0 0 0
0 0 0 0 0 0 0 0 0
0 0 0 0 0 0 0 0 0
0 0 0 0 0 0 0 0 0
0 0 0 0 0 0 0 0 0
0 0 0 0 0 0 0 0 0
0 0 0 0 0 0 0 0 0
0 0 0 0 0 0 0 0 0
0 0 0 0 0 0 0 0 0
0 0 0 0 0 0 0 0 0
0 0 0 0 0 0 0 0 0
0 0 0 0 0 0 0 0 0
0 0 0 0 0 0 0 0 0
0 0 0 0 0 0 0 0 0
0 0 0 0 0 0 0 0 0
0 0 0 0 0 0 0 0 0
0 0 0 0 0 0 0 0 0
0 0 0 0 0 0 0 0 0
0 0 0 0 0 0 0 0 0
0 0 0 0 0 0 0 0 0
0 0 0 0 0 0 0 0 0
0 0 0 0 0 0 0 0 0
0 0 0 0 0 0 0 0 0
0 0 0 0 0 0 0 0 0
0 0 0 0 0 0 0 0 0
0 0 0 0 0 0 0 0 0
0 0 0 0 0 0 0 0 0
0 0 0 0 0 0 0 0 0
0 0 0 0 0 0 0 0 0
0 0 0 0 0 0 0 0 0
0 0 0 0 0 0 0 0 0
0 0 0 0 0 0 0 0 0
0 0 0 0 0 0 0 0 0
0 0 0 0 0 0 0 0 0
0 0 0 0 0 0 0 0 0
0 0 0 0 0 0 0 0 0
0 0 0 0 0 0 0 0 0
0 0 0 0 0 0 0 0 0
0 0 0 0 0 0 0 0 0
0 0 0 0 0 0 0 0 0
0 0 0 0 0 0 0 0 0
0 0 0 0 0 0 0 0 0
0 0 0 0 0 0 0 0 0
0 0 0 0 0 0 0 0 0
0 0 0 0 0 0 0 0 0
0 0 0 0 0 0 0 0 0
0 0 0 0 0 0 0 0 0
0 0 0 0 0 0 0 0 0
0 0 0 0 0 0 0 0 0
0 0 0 0 0 0 0 0 0
0 0 0 0 0 0 0 0 0
0 0 0 0 0 0 0 0 0
0 0 0 0 0 0 0 0 0
0 0 0 0 0 0 0 0 0
0 0 0 0 0 0 0 0 0
0 0 0 0 0 0 0 0 0
0 0 0 0 0 0 0 0 0
0 0 0 0 0 0 0 0 0
0 0 0 0 0 0 0 0 0
0 0 0 0 0 0 0 0 0
0 0 0 0 0 0 0 0 0
0 0 0 0 0 0 0 0 0
0 0 0 0 0 0 0 0 0
0 0 0 0 0 0 0 0 0
0 0 0 0 0 0 0 0 0
0 0 0 0 0 0 0 0 0
0 0 0 0 0 0 0 0 0
0 0 0 0 0 0 0 0 0
0 0 0 0 0 0 0 0 0
0 0 0 0 0 0 0 0 0
0 0 0 0 0 0 0 0 0
0 0 0 0 0 0 0 0 0
0 0 0 0 0 0 0 0 0
0 0 0 0 0 0 0 0 0
0 0 0 0 0 0 0 0 0
0 0 0 0 0 0 0 0 0
0 0 0 0 0 0 0 0 0
0 0 0 0 0 0 0 0 0
0 0 0 0 0 0 0 0 0
0 0 0 0 0 0 0 0 0
0 0 0 0 0 0 0 0 0
0 0 0 0 0 0 0 0 0
0 0 0 0 0 0 0 0 0
0 0 0 0 0 0 0 0 0
0 0 0 0 0 0 0 0 0
0 0 0 0 0 0 0 0 0
0 0 0 0 0 0 0 0 0
0 0 0 0 0 0 0 0 0
0 0 0 0 0 0 0 0 0
0 0 0 0 0 0 0 0 0
0 0 0 0 0 0 0 0 0
0 0 0 0 0 0 0 0 0
0 0 0 0 0 0 0 0 0
0 0 0 0 0 0 0 0 0
0 0 0 0 0 0 0 0 0
0 0 0 0 0 0 0 0 0
0 0 0 0 0 0 0 0 0
0 0 0 0 0 0 0 0 0
0 0 0 0 0 0 0 0 0
0 0 0 0 0 0 0 0 0
0 0 0 0 0 0 0 0 0
0 0 0 0 0 0 0 0 0
0 0 0 0 0 0 0 0 0
0 0 0 0 0 0 0 0 0
0 0 0 0 0 0 0 0 0
0 0 0 0 0 0 0 0 0
0 0 0 0 0 0 0 0 0
0 0 0 0 0 0 0 0 0
0 0 0 0 0 0 0 0 0
0 0 0 0 0 0 0 0 0
0 0 0 0 0 0 0 0 0
0 0 0 0 0 0 0 0 0
0 0 0 0 0 0 0 0 0
0 0 0 0 0 0 0 0 0
0 0 0 0 0 0 0 0 0
0 0 0 0 0 0 0 0 0
0 0 0 0 0 0 0 0 0
0 0 0 0 0 0 0 0 0
0 0 0 0 0 0 0 0 0
0 0 0 0 0 0 0 0 0
0 0 0 0 0 0 0 0 0
0 0 0 0 0 0 0 0 0
0 0 0 0 0 0 0 0 0
0 0 0 0 0 0 0 0 0
0 0 0 0 0 0 0 0 0
0 0 0 0 0 0 0 0 0
0 0 0 0 0 0 0 0 0
0 0 0 0 0 0 0 0 0
0 0 0 0 0 0 0 0 0
0 0 0 0 0 0 0 0 0
0 0 0 0 0 0 0 0 0
0 0 0 0 0 0 0 0 0
0 0 0 0 0 0 0 0 0
0 0 0 0 0 0 0 0 0
0 0 0 0 0 0 0 0 0
0 0 0 0 0 0 0 0 0
0 0 0 0 0 0 0 0 0
0 0 0 0 0 0 0 0 0
0 0 0 0 0 0 0 0 0
0 0 0 0 0 0 0 0 0
0 0 0 0 0 0 0 0 0
0 0 0 0 0 0 0 0 0
0 0 0 0 0 0 0 0 0
0 0 0 0 0 0 0 0 0
0 0 0 0 0 0 0 0 0
0 0 0 0 0 0 0 0 0
0 0 0 0 0 0 0 0 0
0 0 0 0 0 0 0 0 0
0 0 0 0 0 0 0 0 0
0 0 0 0 0 0 0 0 0
0 0 0 0 0 0 0 0 0
0 0 0 0 0 0 0 0 0
0 0 0 0 0 0 0 0 0
0 0 0 0 0 0 0 0 0
0 0 0 0 0 0 0 0 0
0 0 0 0 0 0 0 0 0
0 0 0 0 0 0 0 0 0
0 0 0 0 0 0 0 0 0
0 0 0 0 0 0 0 0 0
0 0 0 0 0 0 0 0 0
0 0 0 0 0 0 0 0 0
0 0 0 0 0 0 0 0 0
0 0 0 0 0 0 0 0 0
0 0 0 0 0 0 0 0 0
0 0 0 0 0 0 0 0 0
0 0 0 0 0 0 0 0 0
0 0 0 0 0 0 0 0 0
0 0 0 0 0 0 0 0 0
0 0 0 0 0 0 0 0 0
0 0 0 0 0 0 0 0 0
0 0 0 0 0 0 0 0 0
0 0 0 0 0 0 0 0 0
0 0 0 0 0 0 0 0 0
0 0 0 0 0 0 0 0 0
0 0 0 0 0 0 0 0 0
0 0 0 0 0 0 0 0 0
0 0 0 0 0 0 0 0 0
0 0 0 0 0 0 0 0 0
0 0 0 0 0 0 0 0 0
0 0 0 0 0 0 0 0 0
0 0 0 0 0 0 0 0 0
0 0 0 0 0 0 0 0 0
0 0 0 0 0 0 0 0 0
0 0 0 0 0 0 0 0 0
0 0 0 0 0 0 0 0 0
0 0 0 0 0 0 0 0 0
0 0 0 0 0 0 0 0 0
0 0 0 0 0 0 0 0 0
0 0 0 0 0 0 0 0 0
0 0 0 0 0 0 0 0 0
0 0 0 0 0 0 0 0 0
0 0 0 0 0 0 0 0 0
0 0 0 0 0 0 0 0 0
0 0 0 0 0 0 0 0 0
0 0 0 0 0 0 0 0 0
0 0 0 0 0 0 0 0 0
0 0 0 0 0 0 0 0 0
0 0 0 0 0 0 0 0 0
0 0 0 0 0 0 0 0 0
0 0 0 0 0 0 0 0 0
0 0 0 0 0 0 0 0 0
0 0 0 0 0 0 0 0 0
0 0 0 0 0 0 0 0 0
0 0 0 0 0 0 0 0 0
0 0 0 0 0 0 0 0 0
0 0 0 0 0 0 0 0 0
0 0 0 0 0 0 0 0 0
0 0 0 0 0 0 0 0 0
0 0 0 0 0 0 0 0 0
0 0 0 0 0 0 0 0 0
0 0 0 0 0 0 0 0 0
0 0 0 0 0 0 0 0 0
0 0 0 0 0 0 0 0 0
0 0 0 0 0 0 0 0 0
0 0 0 0 0 0 0 0 0
0 0 0 0 0 0 0 0 0
0 0 0 0 0 0 0 0 0
0 0 0 0 0 0 0 0 0
0 0 0 0 0 0 0 0 0
0 0 0 0 0 0 0 0 0
0 0 0 0 0 0 0 0 0
0 0 0 0 0 0 0 0 0
0 0 0 0 0 0 0 0 0
0 0 0 0 0 0 0 0 0
0 0 0 0 0 0 0 0 0
0 0 0 0 0 0 0 0 0
0 0 0 0 0 0 0 0 0
0 0 0 0 0 0 0 0 0
0 0 0 0 0 0 0 0 0
0 0 0 0 0 0 0 0 0
0 0 0 0 0 0 0 0 0
0 0 0 0 0 0 0 0 0
0 0 0 0 0 0 0 0 0
0 0 0 0 0 0 0 0 0
0 0 0 0 0 0 0 0 0
0 0 0 0 0 0 0 0 0
0 0 0 0 0 0 0 0 0
0 0 0 0 0 0 0 0 0
0 0 0 0 0 0 0 0 0
0 0 0 0 0 0 0 0 0
0 0 0 0 0 0 0 0 0
0 0 0 0 0 0 0 0 0
0 0 0 0 0 0 0 0 0
0 0 0 0 0 0 0 0 0
0 0 0 0 0 0 0 0 0
0 0 0 0 0 0 0 0 0
0 0 0 0 0 0 0 0 0
0 0 0 0 0 0 0 0 0
0 0 0 0 0 0 0 0 0
0 0 0 0 0 0 0 0 0
0 0 0 0 0 0 0 0 0
0 0 0 0 0 0 0 0 0
0 0 0 0 0 0 0 0 0
0 0 0 0 0 0 0 0 0
0 0 0 0 0 0 0 0 0
0 0 0 0 0 0 0 0 0
0 0 0 0 0 0 0 0 0
0 0 0 0 0 0 0 0 0
0 0 0 0 0 0 0 0 0
0 0 0 0 0 0 0 0 0
0 0 0 0 0 0 0 0 0
0 0 0 0 0 0 0 0 0
0 0 0 0 0 0 0 0 0
0 0 0 0 0 0 0 0 0
0 0 0 0 0 0 0 0 0
0 0 0 0 0 0 0 0 0
0 0 0 0 0 0 0 0 0
0 0 0 0 0 0 0 0 0
0 0 0 0 0 0 0 0 0
0 0 0 0 0 0 0 0 0
0 0 0 0 0 0 0 0 0
0 0 0 0 0 0 0 0 0
0 0 0 0 0 0 0 0 0
0 0 0 0 0 0 0 0 0
0 0 0 0 0 0 0 0 0
0 0 0 0 0 0 0 0 0
0 0 0 0 0 0 0 0 0
0 0 0 0 0 0 0 0 0
0 0 0 0 0 0 0 0 0
0 0 0 0 0 0 0 0 0
0 0 0 0 0 0 0 0 0
0 0 0 0 0 0 0 0 0
0 0 0 0 0 0 0 0 0
0 0 0 0 0 0 0 0 0
0 0 0 0 0 0 0 0 0
0 0 0 0 0 0 0 0 0
0 0 0 0 0 0 0 0 0
0 0 0 0 0 0 0 0 0
0 0 0 0 0 0 0 0 0
0 0 0 0 0 0 0 0 0
0 0 0 0 0 0 0 0 0
0 0 0 0 0 0 0 0 0
0 0 0 0 0 0 0 0 0
0 0 0 0 0 0 0 0 0
0 0 0 0 0 0 0 0 0
0 0 0 0 0 0 0 0 0
0 0 0 0 0 0 0 0 0
0 0 0 0 0 0 0 0 0
0 0 0 0 0 0 0 0 0
0 0 0 0 0 0 0 0 0
0 0 0 0 0 0 0 0 0
0 0 0 0 0 0 0 0 0
0 0 0 0 0 0 0 0 0
0 0 0 0 0 0 0 0 0
0 0 0 0 0 0 0 0 0
0 0 0 0 0 0 0 0 0
0 0 0 0 0 0 0 0 0
0 0 0 0 0 0 0 0 0
0 0 0 0 0 0 0 0 0
0 0 0 0 0 0 0 0 0
0 0 0 0 0 0 0 0 0
0 0 0 0 0 0 0 0 0
0 0 0 0 0 0 0 0 0
0 0 0 0 0 0 0 0 0
0 0 0 0 0 0 0 0 0
0 0 0 0 0 0 0 0 0
0 0 0 0 0 0 0 0 0
0 0 0 0 0 0 0 0 0
0 0 0 0 0 0 0 0 0
0 0 0 0 0 0 0 0 0
0 0 0 0 0 0 0 0 0
0 0 0 0 0 0 0 0 0
0 0 0 0 0 0 0 0 0
0 0 0 0 0 0 0 0 0
0 0 0 0 0 0 0 0 0
0 0 0 0 0 0 0 0 0
0 0 0 0 0 0 0 0 0
0 0 0 0 0 0 0 0 0
0 0 0 0 0 0 0 0 0
0 0 0 0 0 0 0 0 0
0 0 0 0 0 0 0 0 0
0 0 0 0 0 0 0 0 0
0 0 0 0 0 0 0 0 0
0 0 0 0 0 0 0 0 0
0 0 0 0 0 0 0 0 0
0 0 0 0 0 0 0 0 0
0 0 0 0 0 0 0 0 0
0 0 0 0 0 0 0 0 0
0 0 0 0 0 0 0 0 0
0 0 0 0 0 0 0 0 0
0 0 0 0 0 0 0 0 0
0 0 0 0 0 0 0 0 0
0 0 0 0 0 0 0 0 0
0 0 0 0 0 0 0 0 0
0 0 0 0 0 0 0 0 0
0 0 0 0 0 0 0 0 0
0 0 0 0 0 0 0 0 0
0 0 0 0 0 0 0 0 0
0 0 0 0 0 0 0 0 0
0 0 0 0 0 0 0 0 0
0 0 0 0 0 0 0 0 0
0 0 0 0 0 0 0 0 0
0 0 0 0 0 0 0 0 0
0 0 0 0 0 0 0 0 0
0 0 0 0 0 0 0 0 0
0 0 0 0 0 0 0 0 0
0 0 0 0 0 0 0 0 0
0 0 0 0 0 0 0 0 0
0 0 0 0 0 0 0 0 0
0 0 0 0 0 0 0 0 0
0 0 0 0 0 0 0 0 0
0 0 0 0 0 0 0 0 0
0 0 0 0 0 0 0 0 0
0 0 0 0 0 0 0 0 0
0 0 0 0 0 0 0 0 0
6.16981e-08 6.46318e-08 6.21177e-08 6.47623e-08 6.16981e-08 6.46318e-08 6.21177e-08 6.47623e-08 0
6.6767e-08 6.96608e-08 6.68082e-08 6.97489e-08 6.6767e-08 6.96608e-08 6.68082e-08 6.97489e-08 0
7.19583e-08 7.53403e-08 7.201e-08 7.52457e-08 7.19583e-08 7.53403e-08 7.201e-08 7.52457e-08 0
7.78073e-08 8.11652e-08 7.7619e-08 8.08675e-08 7.78073e-08 8.11652e-08 7.7619e-08 8.08675e-08 0
8.36426e-08 8.70532e-08 8.33571e-08 8.69101e-08 8.36426e-08 8.70532e-08 8.33571e-08 8.69101e-08 0
4.73988e-08 4.99388e-08 4.76886e-08 5.00859e-08 4.73988e-08 4.99388e-08 4.76886e-08 5.00859e-08 0
5.18953e-08 5.46939e-08 5.19724e-08 5.47248e-08 5.18953e-08 5.46939e-08 5.19724e-08 5.47248e-08 0
5.6732e-08 5.9501e-08 5.67298e-08 5.94558e-08 5.6732e-08 5.9501e-08 5.67298e-08 5.94558e-08 0
6.15484e-08 6.43724e-08 6.15458e-08 6.45303e-08 6.15484e-08 6.43724e-08 6.15458e-08 6.45303e-08 0
6.65019e-08 6.94926e-08 6.66889e-08 6.95961e-08 6.65019e-08 6.94926e-08 6.66889e-08 6.95961e-08 0
7.18282e-08 7.52176e-08 7.19127e-08 7.53341e-08 7.18282e-08 7.52176e-08 7.19127e-08 7.53341e-08 0
7.77303e-08 8.12058e-08 7.78372e-08 8.12544e-08 7.77303e-08 8.12058e-08 7.78372e-08 8.12544e-08 0
8.37646e-08 8.728e-08 8.37505e-08 8.71527e-08 8.37646e-08 8.728e-08 8.37505e-08 8.71527e-08 0
4.25985e-08 4.48267e-08 4.32086e-08 4.53647e-08 4.25985e-08 4.48267e-08 4.32086e-08 4.53647e-08 0
4.66038e-08 4.92245e-08 4.71072e-08 4.9709e-08 4.66038e-08 4.92245e-08 4.71072e-08 4.9709e-08 0
5.12232e-08 5.4059e-08 5.16962e-08 5.4517e-08 5.12232e-08 5.4059e-08 5.16962e-08 5.4517e-08 0
5.61497e-08 5.90246e-08 5.65776e-08 5.93858e-08 5.61497e-08 5.90246e-08 5.65776e-08 5.93858e-08 0
6.11411e-08 6.40472e-08 6.14396e-08 6.42416e-08 6.11411e-08 6.40472e-08 6.14396e-08 6.42416e-08 0
6.62537e-08 6.93739e-08 6.63837e-08 6.94315e-08 6.62537e-08 6.93739e-08 6.63837e-08 6.94315e-08 0
7.17659e-08 7.51807e-08 7.17874e-08 7.51754e-08 7.17659e-08 7.51807e-08 7.17874e-08 7.51754e-08 0
7.77325e-08 8.12895e-08 7.77013e-08 8.12143e-08 7.77325e-08 8.12895e-08 7.77013e-08 8.12143e-08 0
8.39363e-08 8.76102e-08 8.38136e-08 8.74019e-08 8.39363e-08 8.76102e-08 8.38136e-08 8.74019e-08 0
3.76832e-08 3.98556e-08 3.85854e-08 4.0576e-08 3.76832e-08 3.98556e-08 3.85854e-08 4.0576e-08 0
4.15409e-08 4.39597e-08 4.21503e-08 4.44504e-08 4.15409e-08 4.39597e-08 4.21503e-08 4.44504e-08 0
4.58315e-08 4.85219e-08 4.62622e-08 4.89056e-08 4.58315e-08 4.85219e-08 4.62622e-08 4.89056e-08 0
5.05561e-08 5.34207e-08 5.09165e-08 5.37643e-08 5.05561e-08 5.34207e-08 5.09165e-08 5.37643e-08 0
5.55556e-08 5.85226e-08 5.58749e-08 5.87925e-08 5.55556e-08 5.85226e-08 5.58749e-08 5.87925e-08 0
6.07281e-08 6.37853e-08 6.09496e-08 6.3924e-08 6.07281e-08 6.37853e-08 6.09496e-08 6.3924e-08 0
6.60923e-08 6.93368e-08 6.61745e-08 6.93473e-08 6.60923e-08 6.93368e-08 6.61745e-08 6.93473e-08 0
7.17998e-08 7.52843e-08 7.17681e-08 7.52089e-08 7.17998e-08 7.52843e-08 7.17681e-08 7.52089e-08 0
7.78928e-08 8.15351e-08 7.77829e-08 8.13747e-08 7.78928e-08 8.15351e-08 7.77829e-08 8.13747e-08 0
8.42557e-08 8.80458e-08 8.4054e-08 8.77819e-08 8.42557e-08 8.80458e-08 8.4054e-08 8.77819e-08 0
3.661e-08 3.89436e-08 3.71521e-08 3.94177e-08 3.661e-08 3.89436e-08 3.71521e-08 3.94177e-08 0
4.0738e-08 4.32961e-08 4.11621e-08 4.36495e-08 4.0738e-08 4.32961e-08 4.11621e-08 4.36495e-08 0
4.52378e-08 4.79809e-08 4.5556e-08 4.82732e-08 4.52378e-08 4.79809e-08 4.5556e-08 4.82732e-08 0
5.00497e-08 5.29566e-08 5.03229e-08 5.32034e-08 5.00497e-08 5.29566e-08 5.03229e-08 5.32034e-08 0
5.51354e-08 5.81801e-08 5.53566e-08 5.83577e-08 5.51354e-08 5.81801e-08 5.53566e-08 5.83577e-08 0
6.04594e-08 6.36406e-08 6.05958e-08 6.37084e-08 6.04594e-08 6.36406e-08 6.05958e-08 6.37084e-08 0
6.60362e-08 6.93993e-08 6.60542e-08 6.93496e-08 6.60362e-08 6.93993e-08 6.60542e-08 6.93496e-08 0
7.19393e-08 7.55157e-08 7.18446e-08 7.53657e-08 7.19393e-08 7.55157e-08 7.18446e-08 7.53657e-08 0
7.81973e-08 8.19476e-08 7.80031e-08 8.1688e-08 7.81973e-08 8.19476e-08 7.80031e-08 8.1688e-08 0
8.47314e-08 8.8586e-08 8.44365e-08 8.82604e-08 8.47314e-08 8.8586e-08 8.44365e-08 8.82604e-08 0
3.57132e-08 3.82531e-08 3.6223e-08 3.86305e-08 3.57132e-08 3.82531e-08 3.6223e-08 3.86305e-08 0
4.0155e-08 4.28051e-08 4.04672e-08 4.30689e-08 4.0155e-08 4.28051e-08 4.04672e-08 4.30689e-08 0
4.48008e-08 4.76001e-08 4.50345e-08 4.77998e-08 4.48008e-08 4.76001e-08 4.50345e-08 4.77998e-08 0
4.97043e-08 5.26525e-08 4.98832e-08 5.28083e-08 4.97043e-08 5.26525e-08 4.98832e-08 5.28083e-08 0
5.48711e-08 5.79834e-08 5.50046e-08 5.80791e-08 5.48711e-08 5.79834e-08 5.50046e-08 5.80791e-08 0
6.03269e-08 6.36164e-08 6.03865e-08 6.36151e-08 6.03269e-08 6.36164e-08 6.03865e-08 6.36151e-08 0
6.60933e-08 6.95707e-08 6.60458e-08 6.94577e-08 6.60933e-08 6.95707e-08 6.60458e-08 6.94577e-08 0
7.21869e-08 7.58576e-08 7.20301e-08 7.56467e-08 7.21869e-08 7.58576e-08 7.20301e-08 7.56467e-08 0
7.86163e-08 8.24839e-08 7.83608e-08 8.21604e-08 7.86163e-08 8.24839e-08 7.83608e-08 8.21604e-08 0
8.53336e-08 8.9251e-08 8.49713e-08 8.88511e-08 8.53336e-08 8.9251e-08 8.49713e-08 8.88511e-08 0
3.49553e-08 3.76964e-08 3.53733e-08 3.80016e-08 3.49553e-08 3.76964e-08 3.53733e-08 3.80016e-08 0
3.97107e-08 4.24681e-08 3.99509e-08 4.26433e-08 3.97107e-08 4.24681e-08 3.99509e-08 4.26433e-08 0
4.45209e-08 4.73703e-08 4.46625e-08 4.74844e-08 4.45209e-08 4.73703e-08 4.46625e-08 4.74844e-08 0
4.95033e-08 5.24805e-08 4.96019e-08 5.25641e-08 4.95033e-08 5.24805e-08 4.96019e-08 5.25641e-08 0
5.47296e-08 5.78965e-08 5.47968e-08 5.79338e-08 5.47296e-08 5.78965e-08 5.47968e-08 5.79338e-08 0
6.02987e-08 6.36945e-08 6.03026e-08 6.36369e-08 6.02987e-08 6.36945e-08 6.03026e-08 6.36369e-08 0
6.62536e-08 6.98496e-08 6.61481e-08 6.96748e-08 6.62536e-08 6.98496e-08 6.61481e-08 6.96748e-08 0
7.25469e-08 7.63209e-08 7.23244e-08 7.60374e-08 7.25469e-08 7.63209e-08 7.23244e-08 7.60374e-08 0
7.91011e-08 8.29237e-08 7.88135e-08 8.26863e-08 7.91011e-08 8.29237e-08 7.88135e-08 8.26863e-08 0
8.58516e-08 9.00295e-08 8.55675e-08 8.9566e-08 8.58516e-08 9.00295e-08 8.55675e-08 8.9566e-08 0
3.43622e-08 3.72956e-08 3.46835e-08 3.75068e-08 3.43622e-08 3.72956e-08 3.46835e-08 3.75068e-08 0
3.94194e-08 4.22856e-08 3.9568e-08 4.23718e-08 3.94194e-08 4.22856e-08 3.9568e-08 4.23718e-08 0
4.43936e-08 4.72858e-08 4.44484e-08 4.73168e-08 4.43936e-08 4.72858e-08 4.44484e-08 4.73168e-08 0
4.9438e-08 5.24254e-08 4.9459e-08 5.24429e-08 4.9438e-08 5.24254e-08 4.9459e-08 5.24429e-08 0
5.46934e-08 5.7902e-08 5.47014e-08 5.78873e-08 5.46934e-08 5.7902e-08 5.47014e-08 5.78873e-08 0
6.03605e-08 6.38687e-08 6.03135e-08 6.37559e-08 6.03605e-08 6.38687e-08 6.03135e-08 6.37559e-08 0
6.65186e-08 7.02507e-08 6.63521e-08 7.00032e-08 6.65186e-08 7.02507e-08 6.63521e-08 7.00032e-08 0
7.30604e-08 7.7006e-08 7.27433e-08 7.65796e-08 7.30604e-08 7.7006e-08 7.27433e-08 7.65796e-08 0
7.98689e-08 8.37459e-08 7.93832e-08 8.32074e-08 7.98689e-08 8.37459e-08 7.93832e-08 8.32074e-08 0
3.3758e-08 3.69495e-08 3.4113e-08 3.71452e-08 3.3758e-08 3.69495e-08 3.4113e-08 3.71452e-08 0
3.92569e-08 4.23684e-08 3.93347e-08 4.22825e-08 3.92569e-08 4.23684e-08 3.93347e-08 4.22825e-08 0
4.46072e-08 4.76118e-08 4.44335e-08 4.73617e-08 4.46072e-08 4.76118e-08 4.44335e-08 4.73617e-08 0
4.98138e-08 5.28251e-08 4.95298e-08 5.25247e-08 4.98138e-08 5.28251e-08 4.95298e-08 5.25247e-08 0
5.50911e-08 5.82708e-08 5.47951e-08 5.80028e-08 5.50911e-08 5.82708e-08 5.47951e-08 5.80028e-08 0
6.07072e-08 6.41843e-08 6.04647e-08 6.39829e-08 6.07072e-08 6.41843e-08 6.04647e-08 6.39829e-08 0
6.68412e-08 7.06239e-08 6.66495e-08 7.04172e-08 6.68412e-08 7.06239e-08 6.66495e-08 7.04172e-08 0
7.35029e-08 7.75875e-08 7.32644e-08 7.72766e-08 7.35029e-08 7.75875e-08 7.32644e-08 7.72766e-08 0
0 0 0 0 0 0 0 0 0
0 0 0 0 0 0 0 0 0
0 0 0 0 0 0 0 0 0
0 0 0 0 0 0 0 0 0
0 0 0 0 0 0 0 0 0
0 0 0 0 0 0 0 0 0
0 0 0 0 0 0 0 0 0
0 0 0 0 0 0 0 0 0
0 0 0 0 0 0 0 0 0
0 0 0 0 0 0 0 0 0
0 0 0 0 0 0 0 0 0
0 0 0 0 0 0 0 0 0
0 0 0 0 0 0 0 0 0
0 0 0 0 0 0 0 0 0
0 0 0 0 0 0 0 0 0
0 0 0 0 0 0 0 0 0
0 0 0 0 0 0 0 0 0
0 0 0 0 0 0 0 0 0
0 0 0 0 0 0 0 0 0
0 0 0 0 0 0 0 0 0
0 0 0 0 0 0 0 0 0
0 0 0 0 0 0 0 0 0
0 0 0 0 0 0 0 0 0
0 0 0 0 0 0 0 0 0
0 0 0 0 0 0 0 0 0
0 0 0 0 0 0 0 0 0
0 0 0 0 0 0 0 0 0
0 0 0 0 0 0 0 0 0
0 0 0 0 0 0 0 0 0
0 0 0 0 0 0 0 0 0
0 0 0 0 0 0 0 0 0
0 0 0 0 0 0 0 0 0
0 0 0 0 0 0 0 0 0
0 0 0 0 0 0 0 0 0
0 0 0 0 0 0 0 0 0
0 0 0 0 0 0 0 0 0
0 0 0 0 0 0 0 0 0
0 0 0 0 0 0 0 0 0
0 0 0 0 0 0 0 0 0
0 0 0 0 0 0 0 0 0
0 0 0 0 0 0 0 0 0
0 0 0 0 0 0 0 0 0
0 0 0 0 0 0 0 0 0
0 0 0 0 0 0 0 0 0
0 0 0 0 0 0 0 0 0
0 0 0 0 0 0 0 0 0
0 0 0 0 0 0 0 0 0
0 0 0 0 0 0 0 0 0
0 0 0 0 0 0 0 0 0
0 0 0 0 0 0 0 0 0
0 0 0 0 0 0 0 0 0
0 0 0 0 0 0 0 0 0
0 0 0 0 0 0 0 0 0
0 0 0 0 0 0 0 0 0
0 0 0 0 0 0 0 0 0
0 0 0 0 0 0 0 0 0
0 0 0 0 0 0 0 0 0
0 0 0 0 0 0 0 0 0
0 0 0 0 0 0 0 0 0
0 0 0 0 0 0 0 0 0
0 0 0 0 0 0 0 0 0
0 0 0 0 0 0 0 0 0
0 0 0 0 0 0 0 0 0
0 0 0 0 0 0 0 0 0
0 0 0 0 0 0 0 0 0
0 0 0 0 0 0 0 0 0
0 0 0 0 0 0 0 0 0
0 0 0 0 0 0 0 0 0
0 0 0 0 0 0 0 0 0
0 0 0 0 0 0 0 0 0
0 0 0 0 0 0 0 0 0
0 0 0 0 0 0 0 0 0
0 0 0 0 0 0 0 0 0
0 0 0 0 0 0 0 0 0
0 0 0 0 0 0 0 0 0
0 0 0 0 0 0 0 0 0
0 0 0 0 0 0 0 0 0
0 0 0 0 0 0 0 0 0
0 0 0 0 0 0 0 0 0
5.37602e-08 5.63548e-08 5.39439e-08 5.62643e-08 5.37602e-08 5.63548e-08 5.39439e-08 5.62643e-08 0
5.82166e-08 6.07025e-08 5.80155e-08 6.04757e-08 5.82166e-08 6.07025e-08 5.80155e-08 6.04757e-08 0
6.25485e-08 6.51061e-08 6.23382e-08 6.49653e-08 6.25485e-08 6.51061e-08 6.23382e-08 6.49653e-08 0
6.69528e-08 6.9441e-08 6.68148e-08 6.92425e-08 6.69528e-08 6.9441e-08 6.68148e-08 6.92425e-08 0
7.13967e-08 7.42495e-08 7.11251e-08 7.3838e-08 7.13967e-08 7.42495e-08 7.11251e-08 7.3838e-08 0
4.19859e-08 4.41493e-08 4.23437e-08 4.43146e-08 4.19859e-08 4.41493e-08 4.23437e-08 4.43146e-08 0
4.5764e-08 4.80081e-08 4.58176e-08 4.79521e-08 4.5764e-08 4.80081e-08 4.58176e-08 4.79521e-08 0
4.96926e-08 5.20455e-08 4.95855e-08 5.19071e-08 4.96926e-08 5.20455e-08 4.95855e-08 5.19071e-08 0
5.38342e-08 5.63647e-08 5.37292e-08 5.63834e-08 5.38342e-08 5.63647e-08 5.37292e-08 5.63834e-08 0
5.82291e-08 6.07896e-08 5.82763e-08 6.07883e-08 5.82291e-08 6.07896e-08 5.82763e-08 6.07883e-08 0
6.26935e-08 6.53342e-08 6.26457e-08 6.52087e-08 6.26935e-08 6.53342e-08 6.26457e-08 6.52087e-08 0
6.72836e-08 6.99686e-08 6.70827e-08 6.96392e-08 6.72836e-08 6.99686e-08 6.70827e-08 6.96392e-08 0
7.20278e-08 7.4968e-08 7.16413e-08 7.45533e-08 7.20278e-08 7.4968e-08 7.16413e-08 7.45533e-08 0
3.7254e-08 3.94883e-08 3.79482e-08 4.00662e-08 3.7254e-08 3.94883e-08 3.79482e-08 4.00662e-08 0
4.11511e-08 4.34629e-08 4.16652e-08 4.39223e-08 4.11511e-08 4.34629e-08 4.16652e-08 4.39223e-08 0
4.51926e-08 4.76045e-08 4.55986e-08 4.79168e-08 4.51926e-08 4.76045e-08 4.55986e-08 4.79168e-08 0
4.94038e-08 5.19044e-08 4.96457e-08 5.20464e-08 4.94038e-08 5.19044e-08 4.96457e-08 5.20464e-08 0
5.37661e-08 5.63492e-08 5.3845e-08 5.63546e-08 5.37661e-08 5.63492e-08 5.3845e-08 5.63546e-08 0
5.82742e-08 6.09493e-08 5.8227e-08 6.08316e-08 5.82742e-08 6.09493e-08 5.8227e-08 6.08316e-08 0
6.29454e-08 6.57234e-08 6.27727e-08 6.54709e-08 6.29454e-08 6.57234e-08 6.27727e-08 6.54709e-08 0
6.77882e-08 7.06511e-08 6.74714e-08 7.02384e-08 6.77882e-08 7.06511e-08 6.74714e-08 7.02384e-08 0
7.27986e-08 7.58026e-08 7.23367e-08 7.53019e-08 7.27986e-08 7.58026e-08 7.23367e-08 7.53019e-08 0
3.24736e-08 3.46529e-08 3.30825e-08 3.52001e-08 3.24736e-08 3.46529e-08 3.30825e-08 3.52001e-08 0
3.63112e-08 3.86548e-08 3.68162e-08 3.91103e-08 3.63112e-08 3.86548e-08 3.68162e-08 3.91103e-08 0
4.04066e-08 4.2849e-08 4.08134e-08 4.31738e-08 4.04066e-08 4.2849e-08 4.08134e-08 4.31738e-08 0
4.46756e-08 4.72217e-08 4.49436e-08 4.74166e-08 4.46756e-08 4.72217e-08 4.49436e-08 4.74166e-08 0
4.91202e-08 5.17593e-08 4.92614e-08 5.18259e-08 4.91202e-08 5.17593e-08 4.92614e-08 5.18259e-08 0
5.37202e-08 5.64368e-08 5.37313e-08 5.637e-08 5.37202e-08 5.64368e-08 5.37313e-08 5.637e-08 0
5.84586e-08 6.12646e-08 5.83351e-08 6.10643e-08 5.84586e-08 6.12646e-08 5.83351e-08 6.10643e-08 0
6.33591e-08 6.62751e-08 6.31015e-08 6.59378e-08 6.33591e-08 6.62751e-08 6.31015e-08 6.59378e-08 0
6.84453e-08 7.14584e-08 6.8048e-08 7.09768e-08 6.84453e-08 7.14584e-08 6.8048e-08 7.09768e-08 0
7.37034e-08 7.6824e-08 7.31639e-08 7.62104e-08 7.37034e-08 7.6824e-08 7.31639e-08 7.62104e-08 0
3.16922e-08 3.39295e-08 3.20947e-08 3.43083e-08 3.16922e-08 3.39295e-08 3.20947e-08 3.43083e-08 0
3.5651e-08 3.81067e-08 3.59962e-08 3.83841e-08 3.5651e-08 3.81067e-08 3.59962e-08 3.83841e-08 0
3.99387e-08 4.24874e-08 4.01709e-08 4.2664e-08 3.99387e-08 4.24874e-08 4.01709e-08 4.2664e-08 0
4.4391e-08 4.7042e-08 4.45264e-08 4.712e-08 4.4391e-08 4.7042e-08 4.45264e-08 4.712e-08 0
4.90207e-08 5.17746e-08 4.90544e-08 5.17442e-08 4.90207e-08 5.17746e-08 4.90544e-08 5.17442e-08 0
5.38246e-08 5.66706e-08 5.37439e-08 5.65162e-08 5.38246e-08 5.66706e-08 5.37439e-08 5.65162e-08 0
5.87888e-08 6.17296e-08 5.8579e-08 6.14418e-08 5.87888e-08 6.17296e-08 5.8579e-08 6.14418e-08 0
6.39208e-08 6.69663e-08 6.35776e-08 6.65495e-08 6.39208e-08 6.69663e-08 6.35776e-08 6.65495e-08 0
6.92372e-08 7.23962e-08 6.87628e-08 7.18374e-08 6.92372e-08 7.23962e-08 6.87628e-08 7.18374e-08 0
7.47408e-08 7.79872e-08 7.41248e-08 7.72993e-08 7.47408e-08 7.79872e-08 7.41248e-08 7.72993e-08 0
3.11805e-08 3.35263e-08 3.14467e-08 3.37197e-08 3.11805e-08 3.35263e-08 3.14467e-08 3.37197e-08 0
3.5321e-08 3.78685e-08 3.54699e-08 3.79683e-08 3.5321e-08 3.78685e-08 3.54699e-08 3.79683e-08 0
3.97618e-08 4.23863e-08 3.98287e-08 4.24123e-08 3.97618e-08 4.23863e-08 3.98287e-08 4.24123e-08 0
4.43458e-08 4.70742e-08 4.43418e-08 4.70289e-08 4.43458e-08 4.70742e-08 4.43418e-08 4.70289e-08 0
4.91153e-08 5.19627e-08 4.90361e-08 5.18321e-08 4.91153e-08 5.19627e-08 4.90361e-08 5.18321e-08 0
5.40906e-08 5.70564e-08 5.39164e-08 5.68142e-08 5.40906e-08 5.70564e-08 5.39164e-08 5.68142e-08 0
5.92668e-08 6.23398e-08 5.8972e-08 6.19692e-08 5.92668e-08 6.23398e-08 5.8972e-08 6.19692e-08 0
6.46238e-08 6.7791e-08 6.42001e-08 6.72979e-08 6.46238e-08 6.7791e-08 6.42001e-08 6.72979e-08 0
7.01496e-08 7.34264e-08 6.96077e-08 7.28207e-08 7.01496e-08 7.34264e-08 6.96077e-08 7.28207e-08 0
7.58675e-08 7.92602e-08 7.52065e-08 7.8512e-08 7.58675e-08 7.92602e-08 7.52065e-08 7.8512e-08 0
3.08405e-08 3.34157e-08 3.10162e-08 3.34452e-08 3.08405e-08 3.34157e-08 3.10162e-08 3.34452e-08 0
3.53143e-08 3.79216e-08 3.52801e-08 3.78563e-08 3.53143e-08 3.79216e-08 3.52801e-08 3.78563e-08 0
3.98553e-08 4.25307e-08 3.9769e-08 4.24178e-08 3.98553e-08 4.25307e-08 3.9769e-08 4.24178e-08 0
4.45257e-08 4.73007e-08 4.43948e-08 4.71466e-08 4.45257e-08 4.73007e-08 4.43948e-08 4.71466e-08 0
4.93842e-08 5.23014e-08 4.9208e-08 5.20877e-08 4.93842e-08 5.23014e-08 4.9208e-08 5.20877e-08 0
5.44967e-08 5.75772e-08 5.42452e-08 5.72598e-08 5.44967e-08 5.75772e-08 5.42452e-08 5.72598e-08 0
5.98792e-08 6.30882e-08 5.95087e-08 6.26385e-08 5.98792e-08 6.30882e-08 5.95087e-08 6.26385e-08 0
6.54688e-08 6.8764e-08 6.49627e-08 6.8183e-08 6.54688e-08 6.8764e-08 6.49627e-08 6.8183e-08 0
7.11943e-08 7.45407e-08 7.05744e-08 7.38883e-08 7.11943e-08 7.45407e-08 7.05744e-08 7.38883e-08 0
7.70698e-08 8.06324e-08 7.63674e-08 7.98271e-08 7.70698e-08 8.06324e-08 7.63674e-08 7.98271e-08 0
3.07693e-08 3.35501e-08 3.07742e-08 3.34441e-08 3.07693e-08 3.35501e-08 3.07742e-08 3.34441e-08 0
3.55494e-08 3.823e-08 3.53867e-08 3.8022e-08 3.55494e-08 3.823e-08 3.53867e-08 3.8022e-08 0
4.02017e-08 4.29077e-08 3.99715e-08 4.2662e-08 4.02017e-08 4.29077e-08 3.99715e-08 4.2662e-08 0
4.49207e-08 4.77144e-08 4.46665e-08 4.74526e-08 4.49207e-08 4.77144e-08 4.46665e-08 4.74526e-08 0
4.98225e-08 5.27881e-08 4.95484e-08 5.24882e-08 4.98225e-08 5.27881e-08 4.95484e-08 5.24882e-08 0
5.50413e-08 5.82318e-08 5.4709e-08 5.78363e-08 5.50413e-08 5.82318e-08 5.4709e-08 5.78363e-08 0
6.06297e-08 6.39914e-08 6.01782e-08 6.34494e-08 6.06297e-08 6.39914e-08 6.01782e-08 6.34494e-08 0
6.65098e-08 7.00302e-08 6.58825e-08 6.92594e-08 6.65098e-08 7.00302e-08 6.58825e-08 6.92594e-08 0
7.25766e-08 7.60139e-08 7.17311e-08 7.51089e-08 7.25766e-08 7.60139e-08 7.17311e-08 7.51089e-08 0
3.08241e-08 3.38394e-08 3.07841e-08 3.36565e-08 3.08241e-08 3.38394e-08 3.07841e-08 3.36565e-08 0
3.60037e-08 3.89009e-08 3.57146e-08 3.84652e-08 3.60037e-08 3.89009e-08 3.57146e-08 3.84652e-08 0
4.09881e-08 4.37933e-08 4.04732e-08 4.32089e-08 4.09881e-08 4.37933e-08 4.04732e-08 4.32089e-08 0
4.58449e-08 4.86453e-08 4.52339e-08 4.80309e-08 4.58449e-08 4.86453e-08 4.52339e-08 4.80309e-08 0
5.07417e-08 5.36688e-08 5.01391e-08 5.31016e-08 5.07417e-08 5.36688e-08 5.01391e-08 5.31016e-08 0
5.58952e-08 5.90515e-08 5.53567e-08 5.85556e-08 5.58952e-08 5.90515e-08 5.53567e-08 5.85556e-08 0
6.14553e-08 6.48682e-08 6.09705e-08 6.43705e-08 6.14553e-08 6.48682e-08 6.09705e-08 6.43705e-08 0
6.74602e-08 7.1132e-08 6.69311e-08 7.05295e-08 6.74602e-08 7.1132e-08 6.69311e-08 7.05295e-08 0
0 0 0 0 0 0 0 0 0
0 0 0 0 0 0 0 0 0
0 0 0 0 0 0 0 0 0
0 0 0 0 0 0 0 0 0
0 0 0 0 0 0 0 0 0
0 0 0 0 0 0 0 0 0
0 0 0 0 0 0 0 0 0
0 0 0 0 0 0 0 0 0
0 0 0 0 0 0 0 0 0
0 0 0 0 0 0 0 0 0
0 0 0 0 0 0 0 0 0
0 0 0 0 0 0 0 0 0
0 0 0 0 0 0 0 0 0
0 0 0 0 0 0 0 0 0
0 0 0 0 0 0 0 0 0
0 0 0 0 0 0 0 0 0
0 0 0 0 0 0 0 0 0
0 0 0 0 0 0 0 0 0
0 0 0 0 0 0 0 0 0
0 0 0 0 0 0 0 0 0
0 0 0 0 0 0 0 0 0
0 0 0 0 0 0 0 0 0
0 0 0 0 0 0 0 0 0
0 0 0 0 0 0 0 0 0
0 0 0 0 0 0 0 0 0
0 0 0 0 0 0 0 0 0
0 0 0 0 0 0 0 0 0
0 0 0 0 0 0 0 0 0
0 0 0 0 0 0 0 0 0
0 0 0 0 0 0 0 0 0
0 0 0 0 0 0 0 0 0
0 0 0 0 0 0 0 0 0
0 0 0 0 0 0 0 0 0
0 0 0 0 0 0 0 0 0
0 0 0 0 0 0 0 0 0
0 0 0 0 0 0 0 0 0
0 0 0 0 0 0 0 0 0
0 0 0 0 0 0 0 0 0
0 0 0 0 0 0 0 0 0
0 0 0 0 0 0 0 0 0
0 0 0 0 0 0 0 0 0
0 0 0 0 0 0 0 0 0
0 0 0 0 0 0 0 0 0
0 0 0 0 0 0 0 0 0
0 0 0 0 0 0 0 0 0
0 0 0 0 0 0 0 0 0
0 0 0 0 0 0 0 0 0
0 0 0 0 0 0 0 0 0
0 0 0 0 0 0 0 0 0
0 0 0 0 0 0 0 0 0
0 0 0 0 0 0 0 0 0
0 0 0 0 0 0 0 0 0
0 0 0 0 0 0 0 0 0
0 0 0 0 0 0 0 0 0
0 0 0 0 0 0 0 0 0
0 0 0 0 0 0 0 0 0
0 0 0 0 0 0 0 0 0
0 0 0 0 0 0 0 0 0
0 0 0 0 0 0 0 0 0
0 0 0 0 0 0 0 0 0
0 0 0 0 0 0 0 0 0
0 0 0 0 0 0 0 0 0
0 0 0 0 0 0 0 0 0
0 0 0 0 0 0 0 0 0
0 0 0 0 0 0 0 0 0
0 0 0 0 0 0 0 0 0
0 0 0 0 0 0 0 0 0
0 0 0 0 0 0 0 0 0
0 0 0 0 0 0 0 0 0
0 0 0 0 0 0 0 0 0
0 0 0 0 0 0 0 0 0
0 0 0 0 0 0 0 0 0
0 0 0 0 0 0 0 0 0
0 0 0 0 0 0 0 0 0
0 0 0 0 0 0 0 0 0
0 0 0 0 0 0 0 0 0
0 0 0 0 0 0 0 0 0
0 0 0 0 0 0 0 0 0
0 0 0 0 0 0 0 0 0
0 0 0 0 0 0 0 0 0
0 0 0 0 0 0 0 0 0
0 0 0 0 0 0 0 0 0
0 0 0 0 0 0 0 0 0
0 0 0 0 0 0 0 0 0
0 0 0 0 0 0 0 0 0
0 0 0 0 0 0 0 0 0
0 0 0 0 0 0 0 0 0
0 0 0 0 0 0 0 0 0
0 0 0 0 0 0 0 0 0
0 0 0 0 0 0 0 0 0
0 0 0 0 0 0 0 0 0
0 0 0 0 0 0 0 0 0
0 0 0 0 0 0 0 0 0
0 0 0 0 0 0 0 0 0
0 0 0 0 0 0 0 0 0
0 0 0 0 0 0 0 0 0
0 0 0 0 0 0 0 0 0
0 0 0 0 0 0 0 0 0
0 0 0 0 0 0 0 0 0
0 0 0 0 0 0 0 0 0
0 0 0 0 0 0 0 0 0
0 0 0 0 0 0 0 0 0
0 0 0 0 0 0 0 0 0
0 0 0 0 0 0 0 0 0
0 0 0 0 0 0 0 0 0
0 0 0 0 0 0 0 0 0
0 0 0 0 0 0 0 0 0
0 0 0 0 0 0 0 0 0
0 0 0 0 0 0 0 0 0
0 0 0 0 0 0 0 0 0
0 0 0 0 0 0 0 0 0
0 0 0 0 0 0 0 0 0
0 0 0 0 0 0 0 0 0
0 0 0 0 0 0 0 0 0
0 0 0 0 0 0 0 0 0
0 0 0 0 0 0 0 0 0
0 0 0 0 0 0 0 0 0
0 0 0 0 0 0 0 0 0
0 0 0 0 0 0 0 0 0
0 0 0 0 0 0 0 0 0
0 0 0 0 0 0 0 0 0
0 0 0 0 0 0 0 0 0
0 0 0 0 0 0 0 0 0
0 0 0 0 0 0 0 0 0
0 0 0 0 0 0 0 0 0
0 0 0 0 0 0 0 0 0
0 0 0 0 0 0 0 0 0
0 0 0 0 0 0 0 0 0
0 0 0 0 0 0 0 0 0
0 0 0 0 0 0 0 0 0
0 0 0 0 0 0 0 0 0
0 0 0 0 0 0 0 0 0
0 0 0 0 0 0 0 0 0
0 0 0 0 0 0 0 0 0
0 0 0 0 0 0 0 0 0
0 0 0 0 0 0 0 0 0
0 0 0 0 0 0 0 0 0
0 0 0 0 0 0 0 0 0
0 0 0 0 0 0 0 0 0
0 0 0 0 0 0 0 0 0
0 0 0 0 0 0 0 0 0
0 0 0 0 0 0 0 0 0
0 0 0 0 0 0 0 0 0
0 0 0 0 0 0 0 0 0
0 0 0 0 0 0 0 0 0
0 0 0 0 0 0 0 0 0
0 0 0 0 0 0 0 0 0
0 0 0 0 0 0 0 0 0
0 0 0 0 0 0 0 0 0
0 0 0 0 0 0 0 0 0
0 0 0 0 0 0 0 0 0
0 0 0 0 0 0 0 0 0
0 0 0 0 0 0 0 0 0
0 0 0 0 0 0 0 0 0
0 0 0 0 0 0 0 0 0
0 0 0 0 0 0 0 0 0
0 0 0 0 0 0 0 0 0
0 0 0 0 0 0 0 0 0
0 0 0 0 0 0 0 0 0
0 0 0 0 0 0 0 0 0
0 0 0 0 0 0 0 0 0
0 0 0 0 0 0 0 0 0
0 0 0 0 0 0 0 0 0
0 0 0 0 0 0 0 0 0
0 0 0 0 0 0 0 0 0
0 0 0 0 0 0 0 0 0
0 0 0 0 0 0 0 0 0
0 0 0 0 0 0 0 0 0
0 0 0 0 0 0 0 0 0
0 0 0 0 0 0 0 0 0
0 0 0 0 0 0 0 0 0
0 0 0 0 0 0 0 0 0
0 0 0 0 0 0 0 0 0
0 0 0 0 0 0 0 0 0
0 0 0 0 0 0 0 0 0
0 0 0 0 0 0 0 0 0
0 0 0 0 0 0 0 0 0
0 0 0 0 0 0 0 0 0
0 0 0 0 0 0 0 0 0
0 0 0 0 0 0 0 0 0
0 0 0 0 0 0 0 0 0
0 0 0 0 0 0 0 0 0
0 0 0 0 0 0 0 0 0
0 0 0 0 0 0 0 0 0
0 0 0 0 0 0 0 0 0
0 0 0 0 0 0 0 0 0
0 0 0 0 0 0 0 0 0
0 0 0 0 0 0 0 0 0
0 0 0 0 0 0 0 0 0
0 0 0 0 0 0 0 0 0
0 0 0 0 0 0 0 0 0
0 0 0 0 0 0 0 0 0
0 0 0 0 0 0 0 0 0
0 0 0 0 0 0 0 0 0
0 0 0 0 0 0 0 0 0
0 0 0 0 0 0 0 0 0
0 0 0 0 0 0 0 0 0
0 0 0 0 0 0 0 0 0
0 0 0 0 0 0 0 0 0
0 0 0 0 0 0 0 0 0
0 0 0 0 0 0 0 0 0
0 0 0 0 0 0 0 0 0
0 0 0 0 0 0 0 0 0
0 0 0 0 0 0 0 0 0
0 0 0 0 0 0 0 0 0
0 0 0 0 0 0 0 0 0
0 0 0 0 0 0 0 0 0
0 0 0 0 0 0 0 0 0
0 0 0 0 0 0 0 0 0
0 0 0 0 0 0 0 0 0
0 0 0 0 0 0 0 0 0
0 0 0 0 0 0 0 0 0
0 0 0 0 0 0 0 0 0
0 0 0 0 0 0 0 0 0
0 0 0 0 0 0 0 0 0
0 0 0 0 0 0 0 0 0
0 0 0 0 0 0 0 0 0
0 0 0 0 0 0 0 0 0
0 0 0 0 0 0 0 0 0
0 0 0 0 0 0 0 0 0
0 0 0 0 0 0 0 0 0
0 0 0 0 0 0 0 0 0
0 0 0 0 0 0 0 0 0
0 0 0 0 0 0 0 0 0
0 0 0 0 0 0 0 0 0
0 0 0 0 0 0 0 0 0
0 0 0 0 0 0 0 0 0
0 0 0 0 0 0 0 0 0
0 0 0 0 0 0 0 0 0
0 0 0 0 0 0 0 0 0
0 0 0 0 0 0 0 0 0
0 0 0 0 0 0 0 0 0
0 0 0 0 0 0 0 0 0
0 0 0 0 0 0 0 0 0
0 0 0 0 0 0 0 0 0
0 0 0 0 0 0 0 0 0
0 0 0 0 0 0 0 0 0
0 0 0 0 0 0 0 0 0
0 0 0 0 0 0 0 0 0
0 0 0 0 0 0 0 0 0
0 0 0 0 0 0 0 0 0
0 0 0 0 0 0 0 0 0
0 0 0 0 0 0 0 0 0
0 0 0 0 0 0 0 0 0
0 0 0 0 0 0 0 0 0
0 0 0 0 0 0 0 0 0
0 0 0 0 0 0 0 0 0
0 0 0 0 0 0 0 0 0
0 0 0 0 0 0 0 0 0
0 0 0 0 0 0 0 0 0
0 0 0 0 0 0 0 0 0
0 0 0 0 0 0 0 0 0
0 0 0 0 0 0 0 0 0
0 0 0 0 0 0 0 0 0
0 0 0 0 0 0 0 0 0
0 0 0 0 0 0 0 0 0
0 0 0 0 0 0 0 0 0
0 0 0 0 0 0 0 0 0
0 0 0 0 0 0 0 0 0
0 0 0 0 0 0 0 0 0
0 0 0 0 0 0 0 0 0
0 0 0 0 0 0 0 0 0
0 0 0 0 0 0 0 0 0
0 0 0 0 0 0 0 0 0
0 0 0 0 0 0 0 0 0
0 0 0 0 0 0 0 0 0
0 0 0 0 0 0 0 0 0
0 0 0 0 0 0 0 0 0
0 0 0 0 0 0 0 0 0
0 0 0 0 0 0 0 0 0
0 0 0 0 0 0 0 0 0
0 0 0 0 0 0 0 0 0
0 0 0 0 0 0 0 0 0
0 0 0 0 0 0 0 0 0
0 0 0 0 0 0 0 0 0
0 0 0 0 0 0 0 0 0
0 0 0 0 0 0 0 0 0
0 0 0 0 0 0 0 0 0
0 0 0 0 0 0 0 0 0
0 0 0 0 0 0 0 0 0
0 0 0 0 0 0 0 0 0
0 0 0 0 0 0 0 0 0
0 0 0 0 0 0 0 0 0
0 0 0 0 0 0 0 0 0
0 0 0 0 0 0 0 0 0
0 0 0 0 0 0 0 0 0
0 0 0 0 0 0 0 0 0
0 0 0 0 0 0 0 0 0
0 0 0 0 0 0 0 0 0
0 0 0 0 0 0 0 0 0
0 0 0 0 0 0 0 0 0
0 0 0 0 0 0 0 0 0
0 0 0 0 0 0 0 0 0
0 0 0 0 0 0 0 0 0
0 0 0 0 0 0 0 0 0
0 0 0 0 0 0 0 0 0
0 0 0 0 0 0 0 0 0
0 0 0 0 0 0 0 0 0
0 0 0 0 0 0 0 0 0
0 0 0 0 0 0 0 0 0
0 0 0 0 0 0 0 0 0
0 0 0 0 0 0 0 0 0
0 0 0 0 0 0 0 0 0
0 0 0 0 0 0 0 0 0
0 0 0 0 0 0 0 0 0
0 0 0 0 0 0 0 0 0
0 0 0 0 0 0 0 0 0
0 0 0 0 0 0 0 0 0
0 0 0 0 0 0 0 0 0
0 0 0 0 0 0 0 0 0
0 0 0 0 0 0 0 0 0
0 0 0 0 0 0 0 0 0
0 0 0 0 0 0 0 0 0
0 0 0 0 0 0 0 0 0
0 0 0 0 0 0 0 0 0
0 0 0 0 0 0 0 0 0
0 0 0 0 0 0 0 0 0
0 0 0 0 0 0 0 0 0
0 0 0 0 0 0 0 0 0
0 0 0 0 0 0 0 0 0
0 0 0 0 0 0 0 0 0
0 0 0 0 0 0 0 0 0
0 0 0 0 0 0 0 0 0
0 0 0 0 0 0 0 0 0
0 0 0 0 0 0 0 0 0
0 0 0 0 0 0 0 0 0
0 0 0 0 0 0 0 0 0
0 0 0 0 0 0 0 0 0
0 0 0 0 0 0 0 0 0
0 0 0 0 0 0 0 0 0
0 0 0 0 0 0 0 0 0
0 0 0 0 0 0 0 0 0
0 0 0 0 0 0 0 0 0
0 0 0 0 0 0 0 0 0
0 0 0 0 0 0 0 0 0
0 0 0 0 0 0 0 0 0
0 0 0 0 0 0 0 0 0
0 0 0 0 0 0 0 0 0
0 0 0 0 0 0 0 0 0
0 0 0 0 0 0 0 0 0
0 0 0 0 0 0 0 0 0
0 0 0 0 0 0 0 0 0
0 0 0 0 0 0 0 0 0
0 0 0 0 0 0 0 0 0
0 0 0 0 0 0 0 0 0
0 0 0 0 0 0 0 0 0
0 0 0 0 0 0 0 0 0
0 0 0 0 0 0 0 0 0
0 0 0 0 0 0 0 0 0
0 0 0 0 0 0 0 0 0
0 0 0 0 0 0 0 0 0
0 0 0 0 0 0 0 0 0
0 0 0 0 0 0 0 0 0
0 0 0 0 0 0 0 0 0
0 0 0 0 0 0 0 0 0
0 0 0 0 0 0 0 0 0
0 0 0 0 0 0 0 0 0
0 0 0 0 0 0 0 0 0
0 0 0 0 0 0 0 0 0
0 0 0 0 0 0 0 0 0
0 0 0 0 0 0 0 0 0
0 0 0 0 0 0 0 0 0
0 0 0 0 0 0 0 0 0
0 0 0 0 0 0 0 0 0
0 0 0 0 0 0 0 0 0
0 0 0 0 0 0 0 0 0
0 0 0 0 0 0 0 0 0
0 0 0 0 0 0 0 0 0
0 0 0 0 0 0 0 0 0
0 0 0 0 0 0 0 0 0
0 0 0 0 0 0 0 0 0
0 0 0 0 0 0 0 0 0
0 0 0 0 0 0 0 0 0
0 0 0 0 0 0 0 0 0
0 0 0 0 0 0 0 0 0
0 0 0 0 0 0 0 0 0
0 0 0 0 0 0 0 0 0
0 0 0 0 0 0 0 0 0
0 0 0 0 0 0 0 0 0
0 0 0 0 0 0 0 0 0
0 0 0 0 0 0 0 0 0
0 0 0 0 0 0 0 0 0
0 0 0 0 0 0 0 0 0
0 0 0 0 0 0 0 0 0
0 0 0 0 0 0 0 0 0
0 0 0 0 0 0 0 0 0
0 0 0 0 0 0 0 0 0
0 0 0 0 0 0 0 0 0
0 0 0 0 0 0 0 0 0
0 0 0 0 0 0 0 0 0
0 0 0 0 0 0 0 0 0
0 0 0 0 0 0 0 0 0
0 0 0 0 0 0 0 0 0
0 0 0 0 0 0 0 0 0
0 0 0 0 0 0 0 0 0
SCALARS DNormal double 9
LOOKUP_TABLE default
0 0 0 0 0 0 0 0 0
0 0 0 0 0 0 0 0 0
0 0 0 0 0 0 0 0 0
0 0 0 0 0 0 0 0 0
0 0 0 0 0 0 0 0 0
0 0 0 0 0 0 0 0 0
0 0 0 0 0 0 0 0 0
0 0 0 0 0 0 0 0 0
0 0 0 0 0 0 0 0 0
0 0 0 0 0 0 0 0 0
0 0 0 0 0 0 0 0 0
0 0 0 0 0 0 0 0 0
0 0 0 0 0 0 0 0 0
0 0 0 0 0 0 0 0 0
0 0 0 0 0 0 0 0 0
0 0 0 0 0 0 0 0 0
0 0 0 0 0 0 0 0 0
0 0 0 0 0 0 0 0 0
0 0 0 0 0 0 0 0 0
0 0 0 0 0 0 0 0 0
0 0 0 0 0 0 0 0 0
0 0 0 0 0 0 0 0 0
0 0 0 0 0 0 0 0 0
0 0 0 0 0 0 0 0 0
0 0 0 0 0 0 0 0 0
0 0 0 0 0 0 0 0 0
0 0 0 0 0 0 0 0 0
0 0 0 0 0 0 0 0 0
0 0 0 0 0 0 0 0 0
0 0 0 0 0 0 0 0 0
0 0 0 0 0 0 0 0 0
0 0 0 0 0 0 0 0 0
0 0 0 0 0 0 0 0 0
0 0 0 0 0 0 0 0 0
0 0 0 0 0 0 0 0 0
0 0 0 0 0 0 0 0 0
0 0 0 0 0 0 0 0 0
0 0 0 0 0 0 0 0 0
0 0 0 0 0 0 0 0 0
0 0 0 0 0 0 0 0 0
0 0 0 0 0 0 0 0 0
0 0 0 0 0 0 0 0 0
0 0 0 0 0 0 0 0 0
0 0 0 0 0 0 0 0 0
0 0 0 0 0 0 0 0 0
0 0 0 0 0 0 0 0 0
0 0 0 0 0 0 0 0 0
0 0 0 0 0 0 0 0 0
0 0 0 0 0 0 0 0 0
0 0 0 0 0 0 0 0 0
0 0 0 0 0 0 0 0 0
0 0 0 0 0 0 0 0 0
0 0 0 0 0 0 0 0 0
0 0 0 0 0 0 0 0 0
0 0 0 0 0 0 0 0 0
0 0 0 0 0 0 0 0 0
0 0 0 0 0 0 0 0 0
0 0 0 0 0 0 0 0 0
0 0 0 0 0 0 0 0 0
0 0 0 0 0 0 0 0 0
0 0 0 0 0 0 0 0 0
0 0 0 0 0 0 0 0 0
0 0 0 0 0 0 0 0 0
0 0 0 0 0 0 0 0 0
0 0 0 0 0 0 0 0 0
0 0 0 0 0 0 0 0 0
0 0 0 0 0 0 0 0 0
0 0 0 0 0 0 0 0 0
0 0 0 0 0 0 0 0 0
0 0 0 0 0 0 0 0 0
0 0 0 0 0 0 0 0 0
0 0 0 0 0 0 0 0 0
0 0 0 0 0 0 0 0 0
0 0 0 0 0 0 0 0 0
0 0 0 0 0 0 0 0 0
0 0 0 0 0 0 0 0 0
0 0 0 0 0 0 0 0 0
0 0 0 0 0 0 0 0 0
0 0 0 0 0 0 0 0 0
0 0 0 0 0 0 0 0 0
0 0 0 0 0 0 0 0 0
0 0 0 0 0 0 0 0 0
0 0 0 0 0 0 0 0 0
0 0 0 0 0 0 0 0 0
0 0 0 0 0 0 0 0 0
0 0 0 0 0 0 0 0 0
0 0 0 0 0 0 0 0 0
0 0 0 0 0 0 0 0 0
0 0 0 0 0 0 0 0 0
0 0 0 0 0 0 0 0 0
0 0 0 0 0 0 0 0 0
0 0 0 0 0 0 0 0 0
0 0 0 0 0 0 0 0 0
0 0 0 0 0 0 0 0 0
0 0 0 0 0 0 0 0 0
0 0 0 0 0 0 0 0 0
0 0 0 0 0 0 0 0 0
0 0 0 0 0 0 0 0 0
0 0 0 0 0 0 0 0 0
0 0 0 0 0 0 0 0 0
0 0 0 0 0 0 0 0 0
0 0 0 0 0 0 0 0 0
0 0 0 0 0 0 0 0 0
0 0 0 0 0 0 0 0 0
0 0 0 0 0 0 0 0 0
0 0 0 0 0 0 0 0 0
0 0 0 0 0 0 0 0 0
0 0 0 0 0 0 0 0 0
0 0 0 0 0 0 0 0 0
0 0 0 0 0 0 0 0 0
0 0 0 0 0 0 0 0 0
0 0 0 0 0 0 0 0 0
0 0 0 0 0 0 0 0 0
0 0 0 0 0 0 0 0 0
0 0 0 0 0 0 0 0 0
0 0 0 0 0 0 0 0 0
0 0 0 0 0 0 0 0 0
0 0 0 0 0 0 0 0 0
0 0 0 0 0 0 0 0 0
0 0 0 0 0 0 0 0 0
0 0 0 0 0 0 0 0 0
0 0 0 0 0 0 0 0 0
0 0 0 0 0 0 0 0 0
0 0 0 0 0 0 0 0 0
0 0 0 0 0 0 0 0 0
0 0 0 0 0 0 0 0 0
0 0 0 0 0 0 0 0 0
0 0 0 0 0 0 0 0 0
0 0 0 0 0 0 0 0 0
0 0 0 0 0 0 0 0 0
0 0 0 0 0 0 0 0 0
0 0 0 0 0 0 0 0 0
0 0 0 0 0 0 0 0 0
0 0 0 0 0 0 0 0 0
0 0 0 0 0 0 0 0 0
0 0 0 0 0 0 0 0 0
0 0 0 0 0 0 0 0 0
0 0 0 0 0 0 0 0 0
0 0 0 0 0 0 0 0 0
0 0 0 0 0 0 0 0 0
0 0 0 0 0 0 0 0 0
0 0 0 0 0 0 0 0 0
0 0 0 0 0 0 0 0 0
0 0 0 0 0 0 0 0 0
0 0 0 0 0 0 0 0 0
0 0 0 0 0 0 0 0 0
0 0 0 0 0 0 0 0 0
0 0 0 0 0 0 0 0 0
0 0 0 0 0 0 0 0 0
0 0 0 0 0 0 0 0 0
0 0 0 0 0 0 0 0 0
0 0 0 0 0 0 0 0 0
0 0 0 0 0 0 0 0 0
0 0 0 0 0 0 0 0 0
0 0 0 0 0 0 0 0 0
0 0 0 0 0 0 0 0 0
0 0 0 0 0 0 0 0 0
0 0 0 0 0 0 0 0 0
0 0 0 0 0 0 0 0 0
0 0 0 0 0 0 0 0 0
0 0 0 0 0 0 0 0 0
0 0 0 0 0 0 0 0 0
0 0 0 0 0 0 0 0 0
0 0 0 0 0 0 0 0 0
0 0 0 0 0 0 0 0 0
0 0 0 0 0 0 0 0 0
0 0 0 0 0 0 0 0 0
0 0 0 0 0 0 0 0 0
0 0 0 0 0 0 0 0 0
0 0 0 0 0 0 0 0 0
0 0 0 0 0 0 0 0 0
0 0 0 0 0 0 0 0 0
0 0 0 0 0 0 0 0 0
0 0 0 0 0 0 0 0 0
0 0 0 0 0 0 0 0 0
0 0 0 0 0 0 0 0 0
0 0 0 0 0 0 0 0 0
0 0 0 0 0 0 0 0 0
0 0 0 0 0 0 0 0 0
0 0 0 0 0 0 0 0 0
0 0 0 0 0 0 0 0 0
0 0 0 0 0 0 0 0 0
0 0 0 0 0 0 0 0 0
0 0 0 0 0 0 0 0 0
0 0 0 0 0 0 0 0 0
0 0 0 0 0 0 0 0 0
0 0 0 0 0 0 0 0 0
0 0 0 0 0 0 0 0 0
0 0 0 0 0 0 0 0 0
0 0 0 0 0 0 0 0 0
0 0 0 0 0 0 0 0 0
0 0 0 0 0 0 0 0 0
0 0 0 0 0 0 0 0 0
0 0 0 0 0 0 0 0 0
0 0 0 0 0 0 0 0 0
0 0 0 0 0 0 0 0 0
0 0 0 0 0 0 0 0 0
0 0 0 0 0 0 0 0 0
0 0 0 0 0 0 0 0 0
0 0 0 0 0 0 0 0 0
0 0 0 0 0 0 0 0 0
0 0 0 0 0 0 0 0 0
0 0 0 0 0 0 0 0 0
0 0 0 0 0 0 0 0 0
0 0 0 0 0 0 0 0 0
0 0 0 0 0 0 0 0 0
0 0 0 0 0 0 0 0 0
0 0 0 0 0 0 0 0 0
0 0 0 0 0 0 0 0 0
0 0 0 0 0 0 0 0 0
0 0 0 0 0 0 0 0 0
0 0 0 0 0 0 0 0 0
0 0 0 0 0 0 0 0 0
0 0 0 0 0 0 0 0 0
0 0 0 0 0 0 0 0 0
0 0 0 0 0 0 0 0 0
0 0 0 0 0 0 0 0 0
0 0 0 0 0 0 0 0 0
0 0 0 0 0 0 0 0 0
0 0 0 0 0 0 0 0 0
0 0 0 0 0 0 0 0 0
0 0 0 0 0 0 0 0 0
0 0 0 0 0 0 0 0 0
0 0 0 0 0 0 0 0 0
0 0 0 0 0 0 0 0 0
0 0 0 0 0 0 0 0 0
0 0 0 0 0 0 0 0 0
0 0 0 0 0 0 0 0 0
0 0 0 0 0 0 0 0 0
0 0 0 0 0 0 0 0 0
0 0 0 0 0 0 0 0 0
0 0 0 0 0 0 0 0 0
0 0 0 0 0 0 0 0 0
0 0 0 0 0 0 0 0 0
0 0 0 0 0 0 0 0 0
0 0 0 0 0 0 0 0 0
0 0 0 0 0 0 0 0 0
0 0 0 0 0 0 0 0 0
0 0 0 0 0 0 0 0 0
0 0 0 0 0 0 0 0 0
0 0 0 0 0 0 0 0 0
0 0 0 0 0 0 0 0 0
0 0 0 0 0 0 0 0 0
0 0 0 0 0 0 0 0 0
0 0 0 0 0 0 0 0 0
0 0 0 0 0 0 0 0 0
0 0 0 0 0 0 0 0 0
0 0 0 0 0 0 0 0 0
0 0 0 0 0 0 0 0 0
0 0 0 0 0 0 0 0 0
0 0 0 0 0 0 0 0 0
0 0 0 0 0 0 0 0 0
0 0 0 0 0 0 0 0 0
0 0 0 0 0 0 0 0 0
0 0 0 0 0 0 0 0 0
0 0 0 0 0 0 0 0 0
0 0 0 0 0 0 0 0 0
0 0 0 0 0 0 0 0 0
0 0 0 0 0 0 0 0 0
0 0 0 0 0 0 0 0 0
0 0 0 0 0 0 0 0 0
0 0 0 0 0 0 0 0 0
0 0 0 0 0 0 0 0 0
0 0 0 0 0 0 0 0 0
0 0 0 0 0 0 0 0 0
0 0 0 0 0 0 0 0 0
0 0 0 0 0 0 0 0 0
0 0 0 0 0 0 0 0 0
0 0 0 0 0 0 0 0 0
0 0 0 0 0 0 0 0 0
0 0 0 0 0 0 0 0 0
0 0 0 0 0 0 0 0 0
0 0 0 0 0 0 0 0 0
0 0 0 0 0 0 0 0 0
0 0 0 0 0 0 0 0 0
0 0 0 0 0 0 0 0 0
0 0 0 0 0 0 0 0 0
0 0 0 0 0 0 0 0 0
0 0 0 0 0 0 0 0 0
0 0 0 0 0 0 0 0 0
0 0 0 0 0 0 0 0 0
0 0 0 0 0 0 0 0 0
0 0 0 0 0 0 0 0 0
0 0 0 0 0 0 0 0 0
0 0 0 0 0 0 0 0 0
0 0 0 0 0 0 0 0 0
0 0 0 0 0 0 0 0 0
0 0 0 0 0 0 0 0 0
0 0 0 0 0 0 0 0 0
0 0 0 0 0 0 0 0 0
0 0 0 0 0 0 0 0 0
0 0 0 0 0 0 0 0 0
0 0 0 0 0 0 0 0 0
0 0 0 0 0 0 0 0 0
0 0 0 0 0 0 0 0 0
0 0 0 0 0 0 0 0 0
0 0 0 0 0 0 0 0 0
0 0 0 0 0 0 0 0 0
0 0 0 0 0 0 0 0 0
0 0 0 0 0 0 0 0 0
0 0 0 0 0 0 0 0 0
0 0 0 0 0 0 0 0 0
0 0 0 0 0 0 0 0 0
0 0 0 0 0 0 0 0 0
0 0 0 0 0 0 0 0 0
0 0 0 0 0 0 0 0 0
0 0 0 0 0 0 0 0 0
0 0 0 0 0 0 0 0 0
0 0 0 0 0 0 0 0 0
0 0 0 0 0 0 0 0 0
0 0 0 0 0 0 0 0 0
0 0 0 0 0 0 0 0 0
0 0 0 0 0 0 0 0 0
0 0 0 0 0 0 0 0 0
0 0 0 0 0 0 0 0 0
0 0 0 0 0 0 0 0 0
0 0 0 0 0 0 0 0 0
0 0 0 0 0 0 0 0 0
0 0 0 0 0 0 0 0 0
0 0 0 0 0 0 0 0 0
0 0 0 0 0 0 0 0 0
0 0 0 0 0 0 0 0 0
0 0 0 0 0 0 0 0 0
0 0 0 0 0 0 0 0 0
0 0 0 0 0 0 0 0 0
0 0 0 0 0 0 0 0 0
0 0 0 0 0 0 0 0 0
0 0 0 0 0 0 0 0 0
0 0 0 0 0 0 0 0 0
0 0 0 0 0 0 0 0 0
0 0 0 0 0 0 0 0 0
0 0 0 0 0 0 0 0 0
0 0 0 0 0 0 0 0 0
0 0 0 0 0 0 0 0 0
0 0 0 0 0 0 0 0 0
0 0 0 0 0 0 0 0 0
0 0 0 0 0 0 0 0 0
0 0 0 0 0 0 0 0 0
0 0 0 0 0 0 0 0 0
0 0 0 0 0 0 0 0 0
0 0 0 0 0 0 0 0 0
0 0 0 0 0 0 0 0 0
0 0 0 0 0 0 0 0 0
0 0 0 0 0 0 0 0 0
0 0 0 0 0 0 0 0 0
0 0 0 0 0 0 0 0 0
0 0 0 0 0 0 0 0 0
0 0 0 0 0 0 0 0 0
0 0 0 0 0 0 0 0 0
0 0 0 0 0 0 0 0 0
0 0 0 0 0 0 0 0 0
0 0 0 0 0 0 0 0 0
0 0 0 0 0 0 0 0 0
0 0 0 0 0 0 0 0 0
0 0 0 0 0 0 0 0 0
0 0 0 0 0 0 0 0 0
0 0 0 0 0 0 0 0 0
0 0 0 0 0 0 0 0 0
0 0 0 0 0 0 0 0 0
0 0 0 0 0 0 0 0 0
0 0 0 0 0 0 0 0 0
0 0 0 0 0 0 0 0 0
0 0 0 0 0 0 0 0 0
0 0 0 0 0 0 0 0 0
0 0 0 0 0 0 0 0 0
0 0 0 0 0 0 0 0 0
0 0 0 0 0 0 0 0 0
0 0 0 0 0 0 0 0 0
0 0 0 0 0 0 0 0 0
0 0 0 0 0 0 0 0 0
0 0 0 0 0 0 0 0 0
0 0 0 0 0 0 0 0 0
0 0 0 0 0 0 0 0 0
0 0 0 0 0 0 0 0 0
0 0 0 0 0 0 0 0 0
0 0 0 0 0 0 0 0 0
0 0 0 0 0 0 0 0 0
0 0 0 0 0 0 0 0 0
0 0 0 0 0 0 0 0 0
0 0 0 0 0 0 0 0 0
0 0 0 0 0 0 0 0 0
0 0 0 0 0 0 0 0 0
0 0 0 0 0 0 0 0 0
0 0 0 0 0 0 0 0 0
0 0 0 0 0 0 0 0 0
0 0 0 0 0 0 0 0 0
0 0 0 0 0 0 0 0 0
0 0 0 0 0 0 0 0 0
0 0 0 0 0 0 0 0 0
0 0 0 0 0 0 0 0 0
0 0 0 0 0 0 0 0 0
0 0 0 0 0 0 0 0 0
0 0 0 0 0 0 0 0 0
0 0 0 0 0 0 0 0 0
0 0 0 0 0 0 0 0 0
0 0 0 0 0 0 0 0 0
0 0 0 0 0 0 0 0 0
0 0 0 0 0 0 0 0 0
0 0 0 0 0 0 0 0 0
0 0 0 0 0 0 0 0 0
0 0 0 0 0 0 0 0 0
0 0 0 0 0 0 0 0 0
0 0 0 0 0 0 0 0 0
0 0 0 0 0 0 0 0 0
0 0 0 0 0 0 0 0 0
0 0 0 0 0 0 0 0 0
0 0 0 0 0 0 0 0 0
0 0 0 0 0 0 0 0 0
0 0 0 0 0 0 0 0 0
0 0 0 0 0 0 0 0 0
0 0 0 0 0 0 0 0 0
0 0 0 0 0 0 0 0 0
0 0 0 0 0 0 0 0 0
0 0 0 0 0 0 0 0 0
0 0 0 0 0 0 0 0 0
0 0 0 0 0 0 0 0 0
0 0 0 0 0 0 0 0 0
0 0 0 0 0 0 0 0 0
0 0 0 0 0 0 0 0 0
0 0 0 0 0 0 0 0 0
0 0 0 0 0 0 0 0 0
0 0 0 0 0 0 0 0 0
0 0 0 0 0 0 0 0 0
0 0 0 0 0 0 0 0 0
0 0 0 0 0 0 0 0 0
0 0 0 0 0 0 0 0 0
0 0 0 0 0 0 0 0 0
0 0 0 0 0 0 0 0 0
0 0 0 0 0 0 0 0 0
0 0 0 0 0 0 0 0 0
0 0 0 0 0 0 0 0 0
0 0 0 0 0 0 0 0 0
0 0 0 0 0 0 0 0 0
0 0 0 0 0 0 0 0 0
0 0 0 0 0 0 0 0 0
0 0 0 0 0 0 0 0 0
0 0 0 0 0 0 0 0 0
0 0 0 0 0 0 0 0 0
0 0 0 0 0 0 0 0 0
0 0 0 0 0 0 0 0 0
0 0 0 0 0 0 0 0 0
0 0 0 0 0 0 0 0 0
0 0 0 0 0 0 0 0 0
0 0 0 0 0 0 0 0 0
0 0 0 0 0 0 0 0 0
0 0 0 0 0 0 0 0 0
0 0 0 0 0 0 0 0 0
0 0 0 0 0 0 0 0 0
0 0 0 0 0 0 0 0 0
0 0 0 0 0 0 0 0 0
0 0 0 0 0 0 0 0 0
0 0 0 0 0 0 0 0 0
0 0 0 0 0 0 0 0 0
0 0 0 0 0 0 0 0 0
0 0 0 0 0 0 0 0 0
0 0 0 0 0 0 0 0 0
0 0 0 0 0 0 0 0 0
0 0 0 0 0 0 0 0 0
0 0 0 0 0 0 0 0 0
0 0 0 0 0 0 0 0 0
0 0 0 0 0 0 0 0 0
0 0 0 0 0 0 0 0 0
0 0 0 0 0 0 0 0 0
0 0 0 0 0 0 0 0 0
0 0 0 0 0 0 0 0 0
0 0 0 0 0 0 0 0 0
0 0 0 0 0 0 0 0 0
0 0 0 0 0 0 0 0 0
0 0 0 0 0 0 0 0 0
0 0 0 0 0 0 0 0 0
0 0 0 0 0 0 0 0 0
0 0 0 0 0 0 0 0 0
0 0 0 0 0 0 0 0 0
0 0 0 0 0 0 0 0 0
0 0 0 0 0 0 0 0 0
0 0 0 0 0 0 0 0 0
0 0 0 0 0 0 0 0 0
0 0 0 0 0 0 0 0 0
0 0 0 0 0 0 0 0 0
0 0 0 0 0 0 0 0 0
0 0 0 0 0 0 0 0 0
0 0 0 0 0 0 0 0 0
0 0 0 0 0 0 0 0 0
0 0 0 0 0 0 0 0 0
0 0 0 0 0 0 0 0 0
0 0 0 0 0 0 0 0 0
0 0 0 0 0 0 0 0 0
0 0 0 0 0 0 0 0 0
0 0 0 0 0 0 0 0 0
0 0 0 0 0 0 0 0 0
0 0 0 0 0 0 0 0 0
0 0 0 0 0 0 0 0 0
0 0 0 0 0 0 0 0 0
0 0 0 0 0 0 0 0 0
0 0 0 0 0 0 0 0 0
0 0 0 0 0 0 0 0 0
0 0 0 0 0 0 0 0 0
0 0 0 0 0 0 0 0 0
0 0 0 0 0 0 0 0 0
0 0 0 0 0 0 0 0 0
0 0 0 0 0 0 0 0 0
0 0 0 0 0 0 0 0 0
0 0 0 0 0 0 0 0 0
0 0 0 0 0 0 0 0 0
0 0 0 0 0 0 0 0 0
0 0 0 0 0 0 0 0 0
0 0 0 0 0 0 0 0 0
0 0 0 0 0 0 0 0 0
0 0 0 0 0 0 0 0 0
0 0 0 0 0 0 0 0 0
0 0 0 0 0 0 0 0 0
0 0 0 0 0 0 0 0 0
0 0 0 0 0 0 0 0 0
0 0 0 0 0 0 0 0 0
0 0 0 0 0 0 0 0 0
0 0 0 0 0 0 0 0 0
0 0 0 0 0 0 0 0 0
0 0 0 0 0 0 0 0 0
0 0 0 0 0 0 0 0 0
0 0 0 0 0 0 0 0 0
0 0 0 0 0 0 0 0 0
0 0 0 0 0 0 0 0 0
0 0 0 0 0 0 0 0 0
0 0 0 0 0 0 0 0 0
0 0 0 0 0 0 0 0 0
0 0 0 0 0 0 0 0 0
0 0 0 0 0 0 0 0 0
0 0 0 0 0 0 0 0 0
0 0 0 0 0 0 0 0 0
0 0 0 0 0 0 0 0 0
0 0 0 0 0 0 0 0 0
0 0 0 0 0 0 0 0 0
0 0 0 0 0 0 0 0 0
0 0 0 0 0 0 0 0 0
0 0 0 0 0 0 0 0 0
0 0 0 0 0 0 0 0 0
0 0 0 0 0 0 0 0 0
0 0 0 0 0 0 0 0 0
0 0 0 0 0 0 0 0 0
0 0 0 0 0 0 0 0 0
0 0 0 0 0 0 0 0 0
0 0 0 0 0 0 0 0 0
0 0 0 0 0 0 0 0 0
0 0 0 0 0 0 0 0 0
0 0 0 0 0 0 0 0 0
0 0 0 0 0 0 0 0 0
0 0 0 0 0 0 0 0 0
0 0 0 0 0 0 0 0 0
0 0 0 0 0 0 0 0 0
0 0 0 0 0 0 0 0 0
0 0 0 0 0 0 0 0 0
0 0 0 0 0 0 0 0 0
0 0 0 0 0 0 0 0 0
0 0 0 0 0 0 0 0 0
0 0 0 0 0 0 0 0 0
0 0 0 0 0 0 0 0 0
0 0 0 0 0 0 0 0 0
0 0 0 0 0 0 0 0 0
0 0 0 0 0 0 0 0 0
0 0 0 0 0 0 0 0 0
0 0 0 0 0 0 0 0 0
0 0 0 0 0 0 0 0 0
0 0 0 0 0 0 0 0 0
0 0 0 0 0 0 0 0 0
0 0 0 0 0 0 0 0 0
0 0 0 0 0 0 0 0 0
0 0 0 0 0 0 0 0 0
0 0 0 0 0 0 0 0 0
0 0 0 0 0 0 0 0 0
0 0 0 0 0 0 0 0 0
0 0 0 0 0 0 0 0 0
0 0 0 0 0 0 0 0 0
0 0 0 0 0 0 0 0 0
0 0 0 0 0 0 0 0 0
0 0 0 0 0 0 0 0 0
0 0 0 0 0 0 0 0 0
0 0 0 0 0 0 0 0 0
0 0 0 0 0 0 0 0 0
0 0 0 0 0 0 0 0 0
0 0 0 0 0 0 0 0 0
0 0 0 0 0 0 0 0 0
0 0 0 0 0 0 0 0 0
0 0 0 0 0 0 0 0 0
0 0 0 0 0 0 0 0 0
0 0 0 0 0 0 0 0 0
0 0 0 0 0 0 0 0 0
0 0 0 0 0 0 0 0 0
0 0 0 0 0 0 0 0 0
0 0 0 0 0 0 0 0 0
0 0 0 0 0 0 0 0 0
0 0 0 0 0 0 0 0 0
0 0 0 0 0 0 0 0 0
0 0 0 0 0 0 0 0 0
0 0 0 0 0 0 0 0 0
0 0 0 0 0 0 0 0 0
0 0 0 0 0 0 0 0 0
0 0 0 0 0 0 0 0 0
0 0 0 0 0 0 0 0 0
0 0 0 0 0 0 0 0 0
0 0 0 0 0 0 0 0 0
0 0 0 0 0 0 0 0 0
0 0 0 0 0 0 0 0 0
0 0 0 0 0 0 0 0 0
0 0 0 0 0 0 0 0 0
0 0 0 0 0 0 0 0 0
0 0 0 0 0 0 0 0 0
0 0 0 0 0 0 0 0 0
0 0 0 0 0 0 0 0 0
0 0 0 0 0 0 0 0 0
0 0 0 0 0 0 0 0 0
0 0 0 0 0 0 0 0 0
0 0 0 0 0 0 0 0 0
0 0 0 0 0 0 0 0 0
0 0 0 0 0 0 0 0 0
0 0 0 0 0 0 0 0 0
0 0 0 0 0 0 0 0 0
0 0 0 0 0 0 0 0 0
0 0 0 0 0 0 0 0 0
0 0 0 0 0 0 0 0 0
0 0 0 0 0 0 0 0 0
0 0 0 0 0 0 0 0 0
0 0 0 0 0 0 0 0 0
0 0 0 0 0 0 0 0 0
0 0 0 0 0 0 0 0 0
0 0 0 0 0 0 0 0 0
0 0 0 0 0 0 0 0 0
0 0 0 0 0 0 0 0 0
0 0 0 0 0 0 0 0 0
0 0 0 0 0 0 0 0 0
0 0 0 0 0 0 0 0 0
0 0 0 0 0 0 0 0 0
0 0 0 0 0 0 0 0 0
0 0 0 0 0 0 0 0 0
0 0 0 0 0 0 0 0 0
0 0 0 0 0 0 0 0 0
0 0 0 0 0 0 0 0 0
0 0 0 0 0 0 0 0 0
0 0 0 0 0 0 0 0 0
0 0 0 0 0 0 0 0 0
0 0 0 0 0 0 0 0 0
0 0 0 0 0 0 0 0 0
0 0 0 0 0 0 0 0 0
0 0 0 0 0 0 0 0 0
0 0 0 0 0 0 0 0 0
0 0 0 0 0 0 0 0 0
0 0 0 0 0 0 0 0 0
0 0 0 0 0 0 0 0 0
0 0 0 0 0 0 0 0 0
0 0 0 0 0 0 0 0 0
0 0 0 0 0 0 0 0 0
0 0 0 0 0 0 0 0 0
0 0 0 0 0 0 0 0 0
0 0 0 0 0 0 0 0 0
0 0 0 0 0 0 0 0 0
0 0 0 0 0 0 0 0 0
0 0 0 0 0 0 0 0 0
0 0 0 0 0 0 0 0 0
0 0 0 0 0 0 0 0 0
0 0 0 0 0 0 0 0 0
0 0 0 0 0 0 0 0 0
0 0 0 0 0 0 0 0 0
0 0 0 0 0 0 0 0 0
0 0 0 0 0 0 0 0 0
0 0 0 0 0 0 0 0 0
0 0 0 0 0 0 0 0 0
0 0 0 0 0 0 0 0 0
0 0 0 0 0 0 0 0 0
0 0 0 0 0 0 0 0 0
0 0 0 0 0 0 0 0 0
0 0 0 0 0 0 0 0 0
0 0 0 0 0 0 0 0 0
0 0 0 0 0 0 0 0 0
0 0 0 0 0 0 0 0 0
0 0 0 0 0 0 0 0 0
0 0 0 0 0 0 0 0 0
0 0 0 0 0 0 0 0 0
0 0 0 0 0 0 0 0 0
0 0 0 0 0 0 0 0 0
0 0 0 0 0 0 0 0 0
0 0 0 0 0 0 0 0 0
0 0 0 0 0 0 0 0 0
0 0 0 0 0 0 0 0 0
0 0 0 0 0 0 0 0 0
0 0 0 0 0 0 0 0 0
0 0 0 0 0 0 0 0 0
0 0 0 0 0 0 0 0 0
0 0 0 0 0 0 0 0 0
0 0 0 0 0 0 0 0 0
0 0 0 0 0 0 0 0 0
0 0 0 0 0 0 0 0 0
0 0 0 0 0 0 0 0 0
0 0 0 0 0 0 0 0 0
0 0 0 0 0 0 0 0 0
0 0 0 0 0 0 0 0 0
0 0 0 0 0 0 0 0 0
0 0 0 0 0 0 0 0 0
0 0 0 0 0 0 0 0 0
0 0 0 0 0 0 0 0 0
0 0 0 0 0 0 0 0 0
0 0 0 0 0 0 0 0 0
0 0 0 0 0 0 0 0 0
0 0 0 0 0 0 0 0 0
0 0 0 0 0 0 0 0 0
0 0 0 0 0 0 0 0 0
0 0 0 0 0 0 0 0 0
0 0 0 0 0 0 0 0 0
0 0 0 0 0 0 0 0 0
0 0 0 0 0 0 0 0 0
0 0 0 0 0 0 0 0 0
0 0 0 0 0 0 0 0 0
0 0 0 0 0 0 0 0 0
0 0 0 0 0 0 0 0 0
0 0 0 0 0 0 0 0 0
0 0 0 0 0 0 0 0 0
0 0 0 0 0 0 0 0 0
0 0 0 0 0 0 0 0 0
0 0 0 0 0 0 0 0 0
0 0 0 0 0 0 0 0 0
0 0 0 0 0 0 0 0 0
0 0 0 0 0 0 0 0 0
0 0 0 0 0 0 0 0 0
0 0 0 0 0 0 0 0 0
0 0 0 0 0 0 0 0 0
0 0 0 0 0 0 0 0 0
0 0 0 0 0 0 0 0 0
0 0 0 0 0 0 0 0 0
0 0 0 0 0 0 0 0 0
0 0 0 0 0 0 0 0 0
0 0 0 0 0 0 0 0 0
0 0 0 0 0 0 0 0 0
0 0 0 0 0 0 0 0 0
0 0 0 0 0 0 0 0 0
0 0 0 0 0 0 0 0 0
0 0 0 0 0 0 0 0 0
0 0 0 0 0 0 0 0 0
0 0 0 0 0 0 0 0 0
0 0 0 0 0 0 0 0 0
0 0 0 0 0 0 0 0 0
0 0 0 0 0 0 0 0 0
0 0 0 0 0 0 0 0 0
0 0 0 0 0 0 0 0 0
0 0 0 0 0 0 0 0 0
0 0 0 0 0 0 0 0 0
0 0 0 0 0 0 0 0 0
0 0 0 0 0 0 0 0 0
0 0 0 0 0 0 0 0 0
0 0 0 0 0 0 0 0 0
0 0 0 0 0 0 0 0 0
0 0 0 0 0 0 0 0 0
0 0 0 0 0 0 0 0 0
0 0 0 0 0 0 0 0 0
0 0 0 0 0 0 0 0 0
0 0 0 0 0 0 0 0 0
0 0 0 0 0 0 0 0 0
0 0 0 0 0 0 0 0 0
0 0 0 0 0 0 0 0 0
0 0 0 0 0 0 0 0 0
0 0 0 0 0 0 0 0 0
0 0 0 0 0 0 0 0 0
0 0 0 0 0 0 0 0 0
0 0 0 0 0 0 0 0 0
0 0 0 0 0 0 0 0 0
0 0 0 0 0 0 0 0 0
0 0 0 0 0 0 0 0 0
0 0 0 0 0 0 0 0 0
0 0 0 0 0 0 0 0 0
0 0 0 0 0 0 0 0 0
0 0 0 0 0 0 0 0 0
0 0 0 0 0 0 0 0 0
0 0 0 0 0 0 0 0 0
0 0 0 0 0 0 0 0 0
0 0 0 0 0 0 0 0 0
0 0 0 0 0 0 0 0 0
0 0 0 0 0 0 0 0 0
0 0 0 0 0 0 0 0 0
0 0 0 0 0 0 0 0 0
0 0 0 0 0 0 0 0 0
0 0 0 0 0 0 0 0 0
0 0 0 0 0 0 0 0 0
0 0 0 0 0 0 0 0 0
0 0 0 0 0 0 0 0 0
0 0 0 0 0 0 0 0 0
0 0 0 0 0 0 0 0 0
0 0 0 0 0 0 0 0 0
0 0 0 0 0 0 0 0 0
0 0 0 0 0 0 0 0 0
0 0 0 0 0 0 0 0 0
0 0 0 0 0 0 0 0 0
0 0 0 0 0 0 0 0 0
0 0 0 0 0 0 0 0 0
0 0 0 0 0 0 0 0 0
0 0 0 0 0 0 0 0 0
0 0 0 0 0 0 0 0 0
0 0 0 0 0 0 0 0 0
0 0 0 0 0 0 0 0 0
0 0 0 0 0 0 0 0 0
0 0 0 0 0 0 0 0 0
0 0 0 0 0 0 0 0 0
0 0 0 0 0 0 0 0 0
0 0 0 0 0 0 0 0 0
0 0 0 0 0 0 0 0 0
0 0 0 0 0 0 0 0 0
0 0 0 0 0 0 0 0 0
0 0 0 0 0 0 0 0 0
0 0 0 0 0 0 0 0 0
0 0 0 0 0 0 0 0 0
0 0 0 0 0 0 0 0 0
0 0 0 0 0 0 0 0 0
0 0 0 0 0 0 0 0 0
0 0 0 0 0 0 0 0 0
0 0 0 0 0 0 0 0 0
0 0 0 0 0 0 0 0 0
0 0 0 0 0 0 0 0 0
0 0 0 0 0 0 0 0 0
0 0 0 0 0 0 0 0 0
0 0 0 0 0 0 0 0 0
0 0 0 0 0 0 0 0 0
0 0 0 0 0 0 0 0 0
0 0 0 0 0 0 0 0 0
0 0 0 0 0 0 0 0 0
0 0 0 0 0 0 0 0 0
0 0 0 0 0 0 0 0 0
0 0 0 0 0 0 0 0 0
0 0 0 0 0 0 0 0 0
0 0 0 0 0 0 0 0 0
0 0 0 0 0 0 0 0 0
0 0 0 0 0 0 0 0 0
0 0 0 0 0 0 0 0 0
0 0 0 0 0 0 0 0 0
0 0 0 0 0 0 0 0 0
0 0 0 0 0 0 0 0 0
0 0 0 0 0 0 0 0 0
0 0 0 0 0 0 0 0 0
0 0 0 0 0 0 0 0 0
0 0 0 0 0 0 0 0 0
0 0 0 0 0 0 0 0 0
0 0 0 0 0 0 0 0 0
0 0 0 0 0 0 0 0 0
0 0 0 0 0 0 0 0 0
0 0 0 0 0 0 0 0 0
0 0 0 0 0 0 0 0 0
0 0 0 0 0 0 0 0 0
0 0 0 0 0 0 0 0 0
0 0 0 0 0 0 0 0 0
0 0 0 0 0 0 0 0 0
0 0 0 0 0 0 0 0 0
0 0 0 0 0 0 0 0 0
0 0 0 0 0 0 0 0 0
0 0 0 0 0 0 0 0 0
0 0 0 0 0 0 0 0 0
0 0 0 0 0 0 0 0 0
0 0 0 0 0 0 0 0 0
0 0 0 0 0 0 0 0 0
0 0 0 0 0 0 0 0 0
0 0 0 0 0 0 0 0 0
0 0 0 0 0 0 0 0 0
0 0 0 0 0 0 0 0 0
0 0 0 0 0 0 0 0 0
0 0 0 0 0 0 0 0 0
0 0 0 0 0 0 0 0 0
0 0 0 0 0 0 0 0 0
0 0 0 0 0 0 0 0 0
0 0 0 0 0 0 0 0 0
0 0 0 0 0 0 0 0 0
0 0 0 0 0 0 0 0 0
0 0 0 0 0 0 0 0 0
0 0 0 0 0 0 0 0 0
0 0 0 0 0 0 0 0 0
0 0 0 0 0 0 0 0 0
0 0 0 0 0 0 0 0 0
0 0 0 0 0 0 0 0 0
0 0 0 0 0 0 0 0 0
0 0 0 0 0 0 0 0 0
0 0 0 0 0 0 0 0 0
0 0 0 0 0 0 0 0 0
0 0 0 0 0 0 0 0 0
0 0 0 0 0 0 0 0 0
0 0 0 0 0 0 0 0 0
0 0 0 0 0 0 0 0 0
0 0 0 0 0 0 0 0 0
0 0 0 0 0 0 0 0 0
0 0 0 0 0 0 0 0 0
0 0 0 0 0 0 0 0 0
0 0 0 0 0 0 0 0 0
0 0 0 0 0 0 0 0 0
0 0 0 0 0 0 0 0 0
0 0 0 0 0 0 0 0 0
0 0 0 0 0 0 0 0 0
0 0 0 0 0 0 0 0 0
0 0 0 0 0 0 0 0 0
0 0 0 0 0 0 0 0 0
0 0 0 0 0 0 0 0 0
0 0 0 0 0 0 0 0 0
0 0 0 0 0 0 0 0 0
0 0 0 0 0 0 0 0 0
0 0 0 0 0 0 0 0 0
0 0 0 0 0 0 0 0 0
0 0 0 0 0 0 0 0 0
0 0 0 0 0 0 0 0 0
0 0 0 0 0 0 0 0 0
0 0 0 0 0 0 0 0 0
0 0 0 0 0 0 0 0 0
0 0 0 0 0 0 0 0 0
0 0 0 0 0 0 0 0 0
0 0 0 0 0 0 0 0 0
0 0 0 0 0 0 0 0 0
0 0 0 0 0 0 0 0 0
0 0 0 0 0 0 0 0 0
0 0 0 0 0 0 0 0 0
0 0 0 0 0 0 0 0 0
0 0 0 0 0 0 0 0 0
0 0 0 0 0 0 0 0 0
0 0 0 0 0 0 0 0 0
0 0 0 0 0 0 0 0 0
0 0 0 0 0 0 0 0 0
0 0 0 0 0 0 0 0 0
0 0 0 0 0 0 0 0 0
0 0 0 0 0 0 0 0 0
0 0 0 0 0 0 0 0 0
0 0 0 0 0 0 0 0 0
0 0 0 0 0 0 0 0 0
0 0 0 0 0 0 0 0 0
0 0 0 0 0 0 0 0 0
0 0 0 0 0 0 0 0 0
0 0 0 0 0 0 0 0 0
0 0 0 0 0 0 0 0 0
0 0 0 0 0 0 0 0 0
0 0 0 0 0 0 0 0 0
0 0 0 0 0 0 0 0 0
0 0 0 0 0 0 0 0 0
0 0 0 0 0 0 0 0 0
0 0 0 0 0 0 0 0 0
0 0 0 0 0 0 0 0 0
0 0 0 0 0 0 0 0 0
0 0 0 0 0 0 0 0 0
0 0 0 0 0 0 0 0 0
0 0 0 0 0 0 0 0 0
0 0 0 0 0 0 0 0 0
0 0 0 0 0 0 0 0 0
0 0 0 0 0 0 0 0 0
0 0 0 0 0 0 0 0 0
0 0 0 0 0 0 0 0 0
0 0 0 0 0 0 0 0 0
0 0 0 0 0 0 0 0 0
0 0 0 0 0 0 0 0 0
0 0 0 0 0 0 0 0 0
0 0 0 0 0 0 0 0 0
0 0 0 0 0 0 0 0 0
0 0 0 0 0 0 0 0 0
0 0 0 0 0 0 0 0 0
0 0 0 0 0 0 0 0 0
0 0 0 0 0 0 0 0 0
0 0 0 0 0 0 0 0 0
0 0 0 0 0 0 0 0 0
0 0 0 0 0 0 0 0 0
0 0 0 0 0 0 0 0 0
0 0 0 0 0 0 0 0 0
0 0 0 0 0 0 0 0 0
0 0 0 0 0 0 0 0 0
0 0 0 0 0 0 0 0 0
0 0 0 0 0 0 0 0 0
0 0 0 0 0 0 0 0 0
0 0 0 0 0 0 0 0 0
0 0 0 0 0 0 0 0 0
0 0 0 0 0 0 0 0 0
0 0 0 0 0 0 0 0 0
0 0 0 0 0 0 0 0 0
0 0 0 0 0 0 0 0 0
0 0 0 0 0 0 0 0 0
0 0 0 0 0 0 0 0 0
0 0 0 0 0 0 0 0 0
0 0 0 0 0 0 0 0 0
0 0 0 0 0 0 0 0 0
0 0 0 0 0 0 0 0 0
0 0 0 0 0 0 0 0 0
0 0 0 0 0 0 0 0 0
0 0 0 0 0 0 0 0 0
0 0 0 0 0 0 0 0 0
0 0 0 0 0 0 0 0 0
0 0 0 0 0 0 0 0 0
0 0 0 0 0 0 0 0 0
0 0 0 0 0 0 0 0 0
0 0 0 0 0 0 0 0 0
0 0 0 0 0 0 0 0 0
0 0 0 0 0 0 0 0 0
0 0 0 0 0 0 0 0 0
0 0 0 0 0 0 0 0 0
0 0 0 0 0 0 0 0 0
0 0 0 0 0 0 0 0 0
0 0 0 0 0 0 0 0 0
0 0 0 0 0 0 0 0 0
0 0 0 0 0 0 0 0 0
0 0 0 0 0 0 0 0 0
0 0 0 0 0 0 0 0 0
0 0 0 0 0 0 0 0 0
0 0 0 0 0 0 0 0 0
0 0 0 0 0 0 0 0 0
0 0 0 0 0 0 0 0 0
0 0 0 0 0 0 0 0 0
0 0 0 0 0 0 0 0 0
0 0 0 0 0 0 0 0 0
0 0 0 0 0 0 0 0 0
0 0 0 0 0 0 0 0 0
0 0 0 0 0 0 0 0 0
0 0 0 0 0 0 0 0 0
0 0 0 0 0 0 0 0 0
0 0 0 0 0 0 0 0 0
0 0 0 0 0 0 0 0 0
0 0 0 0 0 0 0 0 0
0 0 0 0 0 0 0 0 0
0 0 0 0 0 0 0 0 0
0 0 0 0 0 0 0 0 0
0 0 0 0 0 0 0 0 0
0 0 0 0 0 0 0 0 0
0 0 0 0 0 0 0 0 0
0 0 0 0 0 0 0 0 0
0 0 0 0 0 0 0 0 0
0 0 0 0 0 0 0 0 0
0 0 0 0 0 0 0 0 0
0 0 0 0 0 0 0 0 0
0 0 0 0 0 0 0 0 0
0 0 0 0 0 0 0 0 0
0 0 0 0 0 0 0 0 0
0 0 0 0 0 0 0 0 0
0 0 0 0 0 0 0 0 0
0 0 0 0 0 0 0 0 0
0 0 0 0 0 0 0 0 0
0 0 0 0 0 0 0 0 0
0 0 0 0 0 0 0 0 0
0 0 0 0 0 0 0 0 0
0 0 0 0 0 0 0 0 0
0 0 0 0 0 0 0 0 0
0 0 0 0 0 0 0 0 0
0 0 0 0 0 0 0 0 0
0 0 0 0 0 0 0 0 0
0 0 0 0 0 0 0 0 0
0 0 0 0 0 0 0 0 0
0 0 0 0 0 0 0 0 0
0 0 0 0 0 0 0 0 0
0 0 0 0 0 0 0 0 0
0 0 0 0 0 0 0 0 0
0 0 0 0 0 0 0 0 0
0 0 0 0 0 0 0 0 0
0 0 0 0 0 0 0 0 0
0 0 0 0 0 0 0 0 0
0 0 0 0 0 0 0 0 0
0 0 0 0 0 0 0 0 0
0 0 0 0 0 0 0 0 0
0 0 0 0 0 0 0 0 0
0 0 0 0 0 0 0 0 0
0 0 0 0 0 0 0 0 0
0 0 0 0 0 0 0 0 0
0 0 0 0 0 0 0 0 0
0 0 0 0 0 0 0 0 0
0 0 0 0 0 0 0 0 0
0 0 0 0 0 0 0 0 0
0 0 0 0 0 0 0 0 0
0 0 0 0 0 0 0 0 0
0 0 0 0 0 0 0 0 0
0 0 0 0 0 0 0 0 0
0 0 0 0 0 0 0 0 0
0 0 0 0 0 0 0 0 0
0 0 0 0 0 0 0 0 0
0 0 0 0 0 0 0 0 0
0 0 0 0 0 0 0 0 0
0 0 0 0 0 0 0 0 0
0 0 0 0 0 0 0 0 0
0 0 0 0 0 0 0 0 0
0 0 0 0 0 0 0 0 0
0 0 0 0 0 0 0 0 0
0 0 0 0 0 0 0 0 0
0 0 0 0 0 0 0 0 0
0 0 0 0 0 0 0 0 0
0 0 0 0 0 0 0 0 0
0 0 0 0 0 0 0 0 0
0 0 0 0 0 0 0 0 0
0 0 0 0 0 0 0 0 0
0 0 0 0 0 0 0 0 0
0 0 0 0 0 0 0 0 0
0 0 0 0 0 0 0 0 0
0 0 0 0 0 0 0 0 0
0 0 0 0 0 0 0 0 0
0 0 0 0 0 0 0 0 0
0 0 0 0 0 0 0 0 0
0 0 0 0 0 0 0 0 0
0 0 0 0 0 0 0 0 0
0 0 0 0 0 0 0 0 0
0 0 0 0 0 0 0 0 0
0 0 0 0 0 0 0 0 0
0 0 0 0 0 0 0 0 0
0 0 0 0 0 0 0 0 0
0 0 0 0 0 0 0 0 0
0 0 0 0 0 0 0 0 0
0 0 0 0 0 0 0 0 0
0 0 0 0 0 0 0 0 0
0 0 0 0 0 0 0 0 0
0 0 0 0 0 0 0 0 0
0 0 0 0 0 0 0 0 0
0 0 0 0 0 0 0 0 0
0 0 0 0 0 0 0 0 0
0 0 0 0 0 0 0 0 0
0 0 0 0 0 0 0 0 0
0 0 0 0 0 0 0 0 0
0 0 0 0 0 0 0 0 0
0 0 0 0 0 0 0 0 0
0 0 0 0 0 0 0 0 0
0 0 0 0 0 0 0 0 0
0 0 0 0 0 0 0 0 0
0 0 0 0 0 0 0 0 0
0 0 0 0 0 0 0 0 0
0 0 0 0 0 0 0 0 0
0 0 0 0 0 0 0 0 0
0 0 0 0 0 0 0 0 0
0 0 0 0 0 0 0 0 0
0 0 0 0 0 0 0 0 0
0 0 0 0 0 0 0 0 0
0 0 0 0 0 0 0 0 0
0 0 0 0 0 0 0 0 0
0 0 0 0 0 0 0 0 0
0 0 0 0 0 0 0 0 0
0 0 0 0 0 0 0 0 0
0 0 0 0 0 0 0 0 0
0 0 0 0 0 0 0 0 0
0 0 0 0 0 0 0 0 0
0 0 0 0 0 0 0 0 0
0 0 0 0 0 0 0 0 0
0 0 0 0 0 0 0 0 0
0 0 0 0 0 0 0 0 0
0 0 0 0 0 0 0 0 0
0 0 0 0 0 0 0 0 0
0 0 0 0 0 0 0 0 0
0 0 0 0 0 0 0 0 0
0 0 0 0 0 0 0 0 0
0 0 0 0 0 0 0 0 0
0 0 0 0 0 0 0 0 0
0 0 0 0 0 0 0 0 0
0 0 0 0 0 0 0 0 0
0 0 0 0 0 0 0 0 0
0 0 0 0 0 0 0 0 0
0 0 0 0 0 0 0 0 0
0 0 0 0 0 0 0 0 0
0 0 0 0 0 0 0 0 0
0 0 0 0 0 0 0 0 0
0 0 0 0 0 0 0 0 0
0 0 0 0 0 0 0 0 0
0 0 0 0 0 0 0 0 0
0 0 0 0 0 0 0 0 0
0 0 0 0 0 0 0 0 0
0 0 0 0 0 0 0 0 0
0 0 0 0 0 0 0 0 0
0 0 0 0 0 0 0 0 0
0 0 0 0 0 0 0 0 0
0 0 0 0 0 0 0 0 0
0 0 0 0 0 0 0 0 0
0 0 0 0 0 0 0 0 0
0 0 0 0 0 0 0 0 0
0 0 0 0 0 0 0 0 0
0 0 0 0 0 0 0 0 0
0 0 0 0 0 0 0 0 0
0 0 0 0 0 0 0 0 0
0 0 0 0 0 0 0 0 0
0 0 0 0 0 0 0 0 0
0 0 0 0 0 0 0 0 0
0 0 0 0 0 0 0 0 0
0 0 0 0 0 0 0 0 0
0 0 0 0 0 0 0 0 0
0 0 0 0 0 0 0 0 0
0 0 0 0 0 0 0 0 0
0 0 0 0 0 0 0 0 0
0 0 0 0 0 0 0 0 0
0 0 0 0 0 0 0 0 0
0 0 0 0 0 0 0 0 0
0 0 0 0 0 0 0 0 0
0 0 0 0 0 0 0 0 0
0 0 0 0 0 0 0 0 0
0 0 0 0 0 0 0 0 0
0 0 0 0 0 0 0 0 0
0 0 0 0 0 0 0 0 0
0 0 0 0 0 0 0 0 0
0 0 0 0 0 0 0 0 0
0 0 0 0 0 0 0 0 0
0 0 0 0 0 0 0 0 0
0 0 0 0 0 0 0 0 0
0 0 0 0 0 0 0 0 0
0 0 0 0 0 0 0 0 0
0 0 0 0 0 0 0 0 0
0 0 0 0 0 0 0 0 0
0 0 0 0 0 0 0 0 0
0 0 0 0 0 0 0 0 0
0 0 0 0 0 0 0 0 0
0 0 0 0 0 0 0 0 0
0 0 0 0 0 0 0 0 0
0 0 0 0 0 0 0 0 0
0 0 0 0 0 0 0 0 0
0 0 0 0 0 0 0 0 0
0 0 0 0 0 0 0 0 0
0 0 0 0 0 0 0 0 0
0 0 0 0 0 0 0 0 0
0 0 0 0 0 0 0 0 0
0 0 0 0 0 0 0 0 0
0 0 0 0 0 0 0 0 0
0 0 0 0 0 0 0 0 0
0 0 0 0 0 0 0 0 0
0 0 0 0 0 0 0 0 0
0 0 0 0 0 0 0 0 0
0 0 0 0 0 0 0 0 0
0 0 0 0 0 0 0 0 0
0 0 0 0 0 0 0 0 0
0 0 0 0 0 0 0 0 0
0 0 0 0 0 0 0 0 0
0 0 0 0 0 0 0 0 0
0 0 0 0 0 0 0 0 0
0 0 0 0 0 0 0 0 0
0 0 0 0 0 0 0 0 0
0 0 0 0 0 0 0 0 0
0 0 0 0 0 0 0 0 0
0 0 0 0 0 0 0 0 0
0 0 0 0 0 0 0 0 0
0 0 0 0 0 0 0 0 0
0 0 0 0 0 0 0 0 0
0 0 0 0 0 0 0 0 0
0 0 0 0 0 0 0 0 0
0 0 0 0 0 0 0 0 0
0 0 0 0 0 0 0 0 0
0 0 0 0 0 0 0 0 0
0 0 0 0 0 0 0 0 0
0 0 0 0 0 0 0 0 0
0 0 0 0 0 0 0 0 0
0 0 0 0 0 0 0 0 0
0 0 0 0 0 0 0 0 0
0 0 0 0 0 0 0 0 0
0 0 0 0 0 0 0 0 0
0 0 0 0 0 0 0 0 0
0 0 0 0 0 0 0 0 0
0 0 0 0 0 0 0 0 0
0 0 0 0 0 0 0 0 0
0 0 0 0 0 0 0 0 0
0 0 0 0 0 0 0 0 0
0 0 0 0 0 0 0 0 0
0 0 0 0 0 0 0 0 0
0 0 0 0 0 0 0 0 0
0 0 0 0 0 0 0 0 0
0 0 0 0 0 0 0 0 0
0 0 0 0 0 0 0 0 0
0 0 0 0 0 0 0 0 0
0 0 0 0 0 0 0 0 0
0 0 0 0 0 0 0 0 0
0 0 0 0 0 0 0 0 0
0 0 0 0 0 0 0 0 0
0 0 0 0 0 0 0 0 0
0 0 0 0 0 0 0 0 0
0 0 0 0 0 0 0 0 0
0 0 0 0 0 0 0 0 0
0 0 0 0 0 0 0 0 0
0 0 0 0 0 0 0 0 0
0 0 0 0 0 0 0 0 0
0 0 0 0 0 0 0 0 0
0 0 0 0 0 0 0 0 0
0 0 0 0 0 0 0 0 0
0 0 0 0 0 0 0 0 0
0 0 0 0 0 0 0 0 0
0 0 0 0 0 0 0 0 0
0 0 0 0 0 0 0 0 0
0 0 0 0 0 0 0 0 0
0 0 0 0 0 0 0 0 0
0 0 0 0 0 0 0 0 0
0 0 0 0 0 0 0 0 0
0 0 0 0 0 0 0 0 0
0 0 0 0 0 0 0 0 0
0 0 0 0 0 0 0 0 0
0 0 0 0 0 0 0 0 0
0 0 0 0 0 0 0 0 0
0 0 0 0 0 0 0 0 0
0 0 0 0 0 0 0 0 0
0 0 0 0 0 0 0 0 0
0 0 0 0 0 0 0 0 0
0 0 0 0 0 0 0 0 0
0 0 0 0 0 0 0 0 0
0 0 0 0 0 0 0 0 0
0 0 0 0 0 0 0 0 0
0 0 0 0 0 0 0 0 0
0 0 0 0 0 0 0 0 0
0 0 0 0 0 0 0 0 0
0 0 0 0 0 0 0 0 0
0 0 0 0 0 0 0 0 0
0 0 0 0 0 0 0 0 0
0 0 0 0 0 0 0 0 0
0 0 0 0 0 0 0 0 0
0 0 0 0 0 0 0 0 0
0 0 0 0 0 0 0 0 0
0 0 0 0 0 0 0 0 0
0 0 0 0 0 0 0 0 0
0 0 0 0 0 0 0 0 0
0 0 0 0 0 0 0 0 0
0 0 0 0 0 0 0 0 0
0 0 0 0 0 0 0 0 0
0 0 0 0 0 0 0 0 0
0 0 0 0 0 0 0 0 0
0 0 0 0 0 0 0 0 0
0 0 0 0 0 0 0 0 0
0 0 0 0 0 0 0 0 0
0 0 0 0 0 0 0 0 0
0 0 0 0 0 0 0 0 0
0 0 0 0 0 0 0 0 0
0 0 0 0 0 0 0 0 0
0 0 0 0 0 0 0 0 0
0 0 0 0 0 0 0 0 0
0 0 0 0 0 0 0 0 0
0 0 0 0 0 0 0 0 0
0 0 0 0 0 0 0 0 0
0 0 0 0 0 0 0 0 0
0 0 0 0 0 0 0 0 0
0 0 0 0 0 0 0 0 0
0 0 0 0 0 0 0 0 0
0 0 0 0 0 0 0 0 0
0 0 0 0 0 0 0 0 0
0 0 0 0 0 0 0 0 0
0 0 0 0 0 0 0 0 0
0 0 0 0 0 0 0 0 0
0 0 0 0 0 0 0 0 0
0 0 0 0 0 0 0 0 0
0 0 0 0 0 0 0 0 0
0 0 0 0 0 0 0 0 0
0 0 0 0 0 0 0 0 0
0 0 0 0 0 0 0 0 0
0 0 0 0 0 0 0 0 0
0 0 0 0 0 0 0 0 0
0 0 0 0 0 0 0 0 0
0 0 0 0 0 0 0 0 0
0 0 0 0 0 0 0 0 0
0 0 0 0 0 0 0 0 0
0 0 0 0 0 0 0 0 0
0 0 0 0 0 0 0 0 0
0 0 0 0 0 0 0 0 0
0 0 0 0 0 0 0 0 0
0 0 0 0 0 0 0 0 0
0 0 0 0 0 0 0 0 0
0 0 0 0 0 0 0 0 0
0 0 0 0 0 0 0 0 0
0 0 0 0 0 0 0 0 0
0 0 0 0 0 0 0 0 0
0 0 0 0 0 0 0 0 0
0 0 0 0 0 0 0 0 0
0 0 0 0 0 0 0 0 0
0 0 0 0 0 0 0 0 0
0 0 0 0 0 0 0 0 0
0 0 0 0 0 0 0 0 0
0 0 0 0 0 0 0 0 0
0 0 0 0 0 0 0 0 0
0 0 0 0 0 0 0 0 0
0 0 0 0 0 0 0 0 0
0 0 0 0 0 0 0 0 0
0 0 0 0 0 0 0 0 0
0 0 0 0 0 0 0 0 0
0 0 0 0 0 0 0 0 0
0 0 0 0 0 0 0 0 0
0 0 0 0 0 0 0 0 0
0 0 0 0 0 0 0 0 0
0 0 0 0 0 0 0 0 0
0 0 0 0 0 0 0 0 0
0 0 0 0 0 0 0 0 0
0 0 0 0 0 0 0 0 0
0 0 0 0 0 0 0 0 0
0 0 0 0 0 0 0 0 0
0 0 0 0 0 0 0 0 0
0 0 0 0 0 0 0 0 0
0 0 0 0 0 0 0 0 0
0 0 0 0 0 0 0 0 0
0 0 0 0 0 0 0 0 0
0 0 0 0 0 0 0 0 0
0 0 0 0 0 0 0 0 0
0 0 0 0 0 0 0 0 0
0 0 0 0 0 0 0 0 0
0 0 0 0 0 0 0 0 0
0 0 0 0 0 0 0 0 0
0 0 0 0 0 0 0 0 0
0 0 0 0 0 0 0 0 0
0 0 0 0 0 0 0 0 0
0 0 0 0 0 0 0 0 0
0 0 0 0 0 0 0 0 0
0 0 0 0 0 0 0 0 0
0 0 0 0 0 0 0 0 0
0 0 0 0 0 0 0 0 0
0 0 0 0 0 0 0 0 0
0 0 0 0 0 0 0 0 0
0 0 0 0 0 0 0 0 0
0 0 0 0 0 0 0 0 0
0 0 0 0 0 0 0 0 0
0 0 0 0 0 0 0 0 0
0 0 0 0 0 0 0 0 0
0 0 0 0 0 0 0 0 0
0 0 0 0 0 0 0 0 0
0 0 0 0 0 0 0 0 0
0 0 0 0 0 0 0 0 0
0 0 0 0 0 0 0 0 0
0 0 0 0 0 0 0 0 0
0 0 0 0 0 0 0 0 0
0 0 0 0 0 0 0 0 0
0 0 0 0 0 0 0 0 0
0 0 0 0 0 0 0 0 0
0 0 0 0 0 0 0 0 0
0 0 0 0 0 0 0 0 0
0 0 0 0 0 0 0 0 0
0 0 0 0 0 0 0 0 0
0 0 0 0 0 0 0 0 0
0 0 0 0 0 0 0 0 0
0 0 0 0 0 0 0 0 0
0 0 0 0 0 0 0 0 0
0 0 0 0 0 0 0 0 0
0 0 0 0 0 0 0 0 0
0 0 0 0 0 0 0 0 0
0 0 0 0 0 0 0 0 0
0 0 0 0 0 0 0 0 0
0 0 0 0 0 0 0 0 0
0 0 0 0 0 0 0 0 0
0 0 0 0 0 0 0 0 0
0 0 0 0 0 0 0 0 0
0 0 0 0 0 0 0 0 0
0 0 0 0 0 0 0 0 0
0 0 0 0 0 0 0 0 0
0 0 0 0 0 0 0 0 0
0 0 0 0 0 0 0 0 0
0 0 0 0 0 0 0 0 0
0 0 0 0 0 0 0 0 0
0 0 0 0 0 0 0 0 0
0 0 0 0 0 0 0 0 0
0 0 0 0 0 0 0 0 0
0 0 0 0 0 0 0 0 0
0 0 0 0 0 0 0 0 0
0 0 0 0 0 0 0 0 0
0 0 0 0 0 0 0 0 0
0 0 0 0 0 0 0 0 0
0 0 0 0 0 0 0 0 0
0 0 0 0 0 0 0 0 0
0 0 0 0 0 0 0 0 0
0 0 0 0 0 0 0 0 0
0 0 0 0 0 0 0 0 0
0 0 0 0 0 0 0 0 0
0 0 0 0 0 0 0 0 0
0 0 0 0 0 0 0 0 0
0 0 0 0 0 0 0 0 0
0 0 0 0 0 0 0 0 0
0 0 0 0 0 0 0 0 0
0 0 0 0 0 0 0 0 0
0 0 0 0 0 0 0 0 0
0 0 0 0 0 0 0 0 0
0 0 0 0 0 0 0 0 0
0 0 0 0 0 0 0 0 0
0 0 0 0 0 0 0 0 0
0 0 0 0 0 0 0 0 0
0 0 0 0 0 0 0 0 0
0 0 0 0 0 0 0 0 0
0 0 0 0 0 0 0 0 0
0 0 0 0 0 0 0 0 0
0 0 0 0 0 0 0 0 0
0 0 0 0 0 0 0 0 0
0 0 0 0 0 0 0 0 0
0 0 0 0 0 0 0 0 0
0 0 0 0 0 0 0 0 0
0 0 0 0 0 0 0 0 0
0 0 0 0 0 0 0 0 0
0 0 0 0 0 0 0 0 0
0 0 0 0 0 0 0 0 0
0 0 0 0 0 0 0 0 0
0 0 0 0 0 0 0 0 0
0 0 0 0 0 0 0 0 0
0 0 0 0 0 0 0 0 0
0 0 0 0 0 0 0 0 0
0 0 0 0 0 0 0 0 0
0 0 0 0 0 0 0 0 0
0 0 0 0 0 0 0 0 0
0 0 0 0 0 0 0 0 0
0 0 0 0 0 0 0 0 0
0 0 0 0 0 0 0 0 0
0 0 0 0 0 0 0 0 0
0 0 0 0 0 0 0 0 0
0 0 0 0 0 0 0 0 0
0 0 0 0 0 0 0 0 0
0 0 0 0 0 0 0 0 0
0 0 0 0 0 0 0 0 0
0 0 0 0 0 0 0 0 0
0 0 0 0 0 0 0 0 0
0 0 0 0 0 0 0 0 0
0 0 0 0 0 0 0 0 0
0 0 0 0 0 0 0 0 0
0 0 0 0 0 0 0 0 0
0 0 0 0 0 0 0 0 0
0 0 0 0 0 0 0 0 0
0 0 0 0 0 0 0 0 0
0 0 0 0 0 0 0 0 0
0 0 0 0 0 0 0 0 0
0 0 0 0 0 0 0 0 0
0 0 0 0 0 0 0 0 0
0 0 0 0 0 0 0 0 0
0 0 0 0 0 0 0 0 0
0 0 0 0 0 0 0 0 0
0 0 0 0 0 0 0 0 0
0 0 0 0 0 0 0 0 0
0 0 0 0 0 0 0 0 0
0 0 0 0 0 0 0 0 0
0 0 0 0 0 0 0 0 0
0 0 0 0 0 0 0 0 0
0 0 0 0 0 0 0 0 0
0 0 0 0 0 0 0 0 0
0 0 0 0 0 0 0 0 0
0 0 0 0 0 0 0 0 0
0 0 0 0 0 0 0 0 0
0 0 0 0 0 0 0 0 0
0 0 0 0 0 0 0 0 0
0 0 0 0 0 0 0 0 0
0 0 0 0 0 0 0 0 0
0 0 0 0 0 0 0 0 0
0 0 0 0 0 0 0 0 0
0 0 0 0 0 0 0 0 0
0 0 0 0 0 0 0 0 0
0 0 0 0 0 0 0 0 0
0 0 0 0 0 0 0 0 0
0 0 0 0 0 0 0 0 0
0 0 0 0 0 0 0 0 0
0 0 0 0 0 0 0 0 0
0 0 0 0 0 0 0 0 0
0 0 0 0 0 0 0 0 0
0 0 0 0 0 0 0 0 0
0 0 0 0 0 0 0 0 0
0 0 0 0 0 0 0 0 0
0 0 0 0 0 0 0 0 0
0 0 0 0 0 0 0 0 0
0 0 0 0 0 0 0 0 0
0 0 0 0 0 0 0 0 0
0 0 0 0 0 0 0 0 0
0 0 0 0 0 0 0 0 0
0 0 0 0 0 0 0 0 0
0 0 0 0 0 0 0 0 0
0 0 0 0 0 0 0 0 0
0 0 0 0 0 0 0 0 0
0 0 0 0 0 0 0 0 0
0 0 0 0 0 0 0 0 0
0 0 0 0 0 0 0 0 0
0 0 0 0 0 0 0 0 0
0 0 0 0 0 0 0 0 0
0 0 0 0 0 0 0 0 0
0 0 0 0 0 0 0 0 0
0 0 0 0 0 0 0 0 0
0 0 0 0 0 0 0 0 0
0 0 0 0 0 0 0 0 0
0 0 0 0 0 0 0 0 0
0 0 0 0 0 0 0 0 0
0 0 0 0 0 0 0 0 0
0 0 0 0 0 0 0 0 0
0 0 0 0 0 0 0 0 0
0 0 0 0 0 0 0 0 0
0 0 0 0 0 0 0 0 0
0 0 0 0 0 0 0 0 0
0 0 0 0 0 0 0 0 0
0 0 0 0 0 0 0 0 0
0 0 0 0 0 0 0 0 0
0 0 0 0 0 0 0 0 0
0 0 0 0 0 0 0 0 0
0 0 0 0 0 0 0 0 0
0 0 0 0 0 0 0 0 0
0 0 0 0 0 0 0 0 0
0 0 0 0 0 0 0 0 0
0 0 0 0 0 0 0 0 0
0 0 0 0 0 0 0 0 0
0 0 0 0 0 0 0 0 0
0 0 0 0 0 0 0 0 0
0 0 0 0 0 0 0 0 0
0 0 0 0 0 0 0 0 0
0 0 0 0 0 0 0 0 0
0 0 0 0 0 0 0 0 0
0 0 0 0 0 0 0 0 0
0 0 0 0 0 0 0 0 0
0 0 0 0 0 0 0 0 0
0 0 0 0 0 0 0 0 0
0 0 0 0 0 0 0 0 0
0 0 0 0 0 0 0 0 0
0 0 0 0 0 0 0 0 0
0 0 0 0 0 0 0 0 0
0 0 0 0 0 0 0 0 0
0 0 0 0 0 0 0 0 0
0 0 0 0 0 0 0 0 0
0 0 0 0 0 0 0 0 0
0 0 0 0 0 0 0 0 0
0 0 0 0 0 0 0 0 0
0 0 0 0 0 0 0 0 0
0 0 0 0 0 0 0 0 0
0 0 0 0 0 0 0 0 0
0 0 0 0 0 0 0 0 0
0 0 0 0 0 0 0 0 0
0 0 0 0 0 0 0 0 0
0 0 0 0 0 0 0 0 0
0 0 0 0 0 0 0 0 0
0 0 0 0 0 0 0 0 0
0 0 0 0 0 0 0 0 0
0 0 0 0 0 0 0 0 0
0 0 0 0 0 0 0 0 0
0 0 0 0 0 0 0 0 0
0 0 0 0 0 0 0 0 0
0 0 0 0 0 0 0 0 0
0 0 0 0 0 0 0 0 0
0 0 0 0 0 0 0 0 0
0 0 0 0 0 0 0 0 0
0 0 0 0 0 0 0 0 0
0 0 0 0 0 0 0 0 0
0 0 0 0 0 0 0 0 0
0 0 0 0 0 0 0 0 0
0 0 0 0 0 0 0 0 0
0 0 0 0 0 0 0 0 0
0 0 0 0 0 0 0 0 0
0 0 0 0 0 0 0 0 0
0 0 0 0 0 0 0 0 0
0 0 0 0 0 0 0 0 0
0 0 0 0 0 0 0 0 0
0 0 0 0 0 0 0 0 0
0 0 0 0 0 0 0 0 0
0 0 0 0 0 0 0 0 0
0 0 0 0 0 0 0 0 0
0 0 0 0 0 0 0 0 0
0 0 0 0 0 0 0 0 0
0 0 0 0 0 0 0 0 0
0 0 0 0 0 0 0 0 0
0 0 0 0 0 0 0 0 0
0 0 0 0 0 0 0 0 0
0 0 0 0 0 0 0 0 0
0 0 0 0 0 0 0 0 0
0 0 0 0 0 0 0 0 0
0 0 0 0 0 0 0 0 0
0 0 0 0 0 0 0 0 0
0 0 0 0 0 0 0 0 0
0 0 0 0 0 0 0 0 0
0 0 0 0 0 0 0 0 0
0 0 0 0 0 0 0 0 0
0 0 0 0 0 0 0 0 0
0 0 0 0 0 0 0 0 0
0 0 0 0 0 0 0 0 0
0 0 0 0 0 0 0 0 0
0 0 0 0 0 0 0 0 0
0 0 0 0 0 0 0 0 0
0 0 0 0 0 0 0 0 0
0 0 0 0 0 0 0 0 0
0 0 0 0 0 0 0 0 0
0 0 0 0 0 0 0 0 0
0 0 0 0 0 0 0 0 0
0 0 0 0 0 0 0 0 0
0 0 0 0 0 0 0 0 0
0 0 0 0 0 0 0 0 0
0 0 0 0 0 0 0 0 0
0 0 0 0 0 0 0 0 0
0 0 0 0 0 0 0 0 0
0 0 0 0 0 0 0 0 0
0 0 0 0 0 0 0 0 0
0 0 0 0 0 0 0 0 0
0 0 0 0 0 0 0 0 0
0 0 0 0 0 0 0 0 0
0 0 0 0 0 0 0 0 0
0 0 0 0 0 0 0 0 0
0 0 0 0 0 0 0 0 0
0 0 0 0 0 0 0 0 0
0 0 0 0 0 0 0 0 0
0 0 0 0 0 0 0 0 0
0 0 0 0 0 0 0 0 0
0 0 0 0 0 0 0 0 0
0 0 0 0 0 0 0 0 0
0 0 0 0 0 0 0 0 0
0 0 0 0 0 0 0 0 0
0 0 0 0 0 0 0 0 0
0 0 0 0 0 0 0 0 0
0 0 0 0 0 0 0 0 0
0 0 0 0 0 0 0 0 0
0 0 0 0 0 0 0 0 0
0 0 0 0 0 0 0 0 0
0 0 0 0 0 0 0 0 0
0 0 0 0 0 0 0 0 0
0 0 0 0 0 0 0 0 0
0 0 0 0 0 0 0 0 0
0 0 0 0 0 0 0 0 0
0 0 0 0 0 0 0 0 0
0 0 0 0 0 0 0 0 0
0 0 0 0 0 0 0 0 0
0 0 0 0 0 0 0 0 0
0 0 0 0 0 0 0 0 0
0 0 0 0 0 0 0 0 0
0 0 0 0 0 0 0 0 0
0 0 0 0 0 0 0 0 0
0 0 0 0 0 0 0 0 0
0 0 0 0 0 0 0 0 0
0 0 0 0 0 0 0 0 0
0 0 0 0 0 0 0 0 0
0 0 0 0 0 0 0 0 0
0 0 0 0 0 0 0 0 0
0 0 0 0 0 0 0 0 0
0 0 0 0 0 0 0 0 0
0 0 0 0 0 0 0 0 0
0 0 0 0 0 0 0 0 0
0 0 0 0 0 0 0 0 0
0 0 0 0 0 0 0 0 0
0 0 0 0 0 0 0 0 0
0 0 0 0 0 0 0 0 0
0 0 0 0 0 0 0 0 0
0 0 0 0 0 0 0 0 0
0 0 0 0 0 0 0 0 0
0 0 0 0 0 0 0 0 0
0 0 0 0 0 0 0 0 0
0 0 0 0 0 0 0 0 0
0 0 0 0 0 0 0 0 0
0 0 0 0 0 0 0 0 0
0 0 0 0 0 0 0 0 0
0 0 0 0 0 0 0 0 0
0 0 0 0 0 0 0 0 0
0 0 0 0 0 0 0 0 0
0 0 0 0 0 0 0 0 0
0 0 0 0 0 0 0 0 0
0 0 0 0 0 0 0 0 0
0 0 0 0 0 0 0 0 0
0 0 0 0 0 0 0 0 0
0 0 0 0 0 0 0 0 0
0 0 0 0 0 0 0 0 0
0 0 0 0 0 0 0 0 0
0 0 0 0 0 0 0 0 0
0 0 0 0 0 0 0 0 0
0 0 0 0 0 0 0 0 0
0 0 0 0 0 0 0 0 0
0 0 0 0 0 0 0 0 0
0 0 0 0 0 0 0 0 0
0 0 0 0 0 0 0 0 0
0 0 0 0 0 0 0 0 0
0 0 0 0 0 0 0 0 0
0 0 0 0 0 0 0 0 0
0 0 0 0 0 0 0 0 0
0 0 0 0 0 0 0 0 0
0 0 0 0 0 0 0 0 0
0 0 0 0 0 0 0 0 0
0 0 0 0 0 0 0 0 0
0 0 0 0 0 0 0 0 0
0 0 0 0 0 0 0 0 0
0 0 0 0 0 0 0 0 0
0 0 0 0 0 0 0 0 0
0 0 0 0 0 0 0 0 0
0 0 0 0 0 0 0 0 0
0 0 0 0 0 0 0 0 0
0 0 0 0 0 0 0 0 0
0 0 0 0 0 0 0 0 0
0 0 0 0 0 0 0 0 0
0 0 0 0 0 0 0 0 0
0 0 0 0 0 0 0 0 0
0 0 0 0 0 0 0 0 0
0 0 0 0 0 0 0 0 0
0 0 0 0 0 0 0 0 0
0 0 0 0 0 0 0 0 0
0 0 0 0 0 0 0 0 0
0 0 0 0 0 0 0 0 0
0 0 0 0 0 0 0 0 0
0 0 0 0 0 0 0 0 0
0 0 0 0 0 0 0 0 0
0 0 0 0 0 0 0 0 0
0 0 0 0 0 0 0 0 0
0 0 0 0 0 0 0 0 0
0 0 0 0 0 0 0 0 0
0 0 0 0 0 0 0 0 0
0 0 0 0 0 0 0 0 0
0 0 0 0 0 0 0 0 0
0 0 0 0 0 0 0 0 0
0 0 0 0 0 0 0 0 0
0 0 0 0 0 0 0 0 0
0 0 0 0 0 0 0 0 0
0 0 0 0 0 0 0 0 0
0 0 0 0 0 0 0 0 0
0 0 0 0 0 0 0 0 0
0 0 0 0 0 0 0 0 0
0 0 0 0 0 0 0 0 0
0 0 0 0 0 0 0 0 0
0 0 0 0 0 0 0 0 0
0 0 0 0 0 0 0 0 0
0 0 0 0 0 0 0 0 0
0 0 0 0 0 0 0 0 0
0 0 0 0 0 0 0 0 0
0 0 0 0 0 0 0 0 0
0 0 0 0 0 0 0 0 0
0 0 0 0 0 0 0 0 0
0 0 0 0 0 0 0 0 0
0 0 0 0 0 0 0 0 0
0 0 0 0 0 0 0 0 0
0 0 0 0 0 0 0 0 0
0 0 0 0 0 0 0 0 0
0 0 0 0 0 0 0 0 0
0 0 0 0 0 0 0 0 0
0 0 0 0 0 0 0 0 0
0 0 0 0 0 0 0 0 0
0 0 0 0 0 0 0 0 0
0 0 0 0 0 0 0 0 0
0 0 0 0 0 0 0 0 0
0 0 0 0 0 0 0 0 0
0 0 0 0 0 0 0 0 0
0 0 0 0 0 0 0 0 0
0 0 0 0 0 0 0 0 0
0 0 0 0 0 0 0 0 0
0 0 0 0 0 0 0 0 0
0 0 0 0 0 0 0 0 0
0 0 0 0 0 0 0 0 0
0 0 0 0 0 0 0 0 0
0 0 0 0 0 0 0 0 0
0 0 0 0 0 0 0 0 0
0 0 0 0 0 0 0 0 0
0 0 0 0 0 0 0 0 0
0 0 0 0 0 0 0 0 0
0 0 0 0 0 0 0 0 0
0 0 0 0 0 0 0 0 0
0 0 0 0 0 0 0 0 0
0 0 0 0 0 0 0 0 0
0 0 0 0 0 0 0 0 0
0 0 0 0 0 0 0 0 0
0 0 0 0 0 0 0 0 0
0 0 0 0 0 0 0 0 0
0 0 0 0 0 0 0 0 0
0 0 0 0 0 0 0 0 0
0 0 0 0 0 0 0 0 0
0 0 0 0 0 0 0 0 0
0 0 0 0 0 0 0 0 0
0 0 0 0 0 0 0 0 0
0 0 0 0 0 0 0 0 0
0 0 0 0 0 0 0 0 0
0 0 0 0 0 0 0 0 0
0 0 0 0 0 0 0 0 0
0 0 0 0 0 0 0 0 0
0 0 0 0 0 0 0 0 0
0 0 0 0 0 0 0 0 0
0 0 0 0 0 0 0 0 0
0 0 0 0 0 0 0 0 0
0 0 0 0 0 0 0 0 0
0 0 0 0 0 0 0 0 0
0 0 0 0 0 0 0 0 0
0 0 0 0 0 0 0 0 0
0 0 0 0 0 0 0 0 0
0 0 0 0 0 0 0 0 0
0 0 0 0 0 0 0 0 0
0 0 0 0 0 0 0 0 0
0 0 0 0 0 0 0 0 0
0 0 0 0 0 0 0 0 0
0 0 0 0 0 0 0 0 0
0 0 0 0 0 0 0 0 0
0 0 0 0 0 0 0 0 0
0 0 0 0 0 0 0 0 0
0 0 0 0 0 0 0 0 0
0 0 0 0 0 0 0 0 0
0 0 0 0 0 0 0 0 0
0 0 0 0 0 0 0 0 0
0 0 0 0 0 0 0 0 0
0 0 0 0 0 0 0 0 0
0 0 0 0 0 0 0 0 0
0 0 0 0 0 0 0 0 0
0 0 0 0 0 0 0 0 0
0 0 0 0 0 0 0 0 0
0 0 0 0 0 0 0 0 0
0 0 0 0 0 0 0 0 0
0 0 0 0 0 0 0 0 0
0 0 0 0 0 0 0 0 0
0 0 0 0 0 0 0 0 0
0 0 0 0 0 0 0 0 0
0 0 0 0 0 0 0 0 0
0 0 0 0 0 0 0 0 0
0 0 0 0 0 0 0 0 0
0 0 0 0 0 0 0 0 0
0 0 0 0 0 0 0 0 0
0 0 0 0 0 0 0 0 0
0 0 0 0 0 0 0 0 0
0 0 0 0 0 0 0 0 0
0 0 0 0 0 0 0 0 0
0 0 0 0 0 0 0 0 0
0 0 0 0 0 0 0 0 0
0 0 0 0 0 0 0 0 0
0 0 0 0 0 0 0 0 0
0 0 0 0 0 0 0 0 0
0 0 0 0 0 0 0 0 0
0 0 0 0 0 0 0 0 0
0 0 0 0 0 0 0 0 0
0 0 0 0 0 0 0 0 0
0 0 0 0 0 0 0 0 0
0 0 0 0 0 0 0 0 0
0 0 0 0 0 0 0 0 0
0 0 0 0 0 0 0 0 0
0 0 0 0 0 0 0 0 0
0 0 0 0 0 0 0 0 0
0 0 0 0 0 0 0 0 0
0 0 0 0 0 0 0 0 0
0 0 0 0 0 0 0 0 0
0 0 0 0 0 0 0 0 0
0 0 0 0 0 0 0 0 0
0 0 0 0 0 0 0 0 0
0 0 0 0 0 0 0 0 0
0 0 0 0 0 0 0 0 0
0 0 0 0 0 0 0 0 0
0 0 0 0 0 0 0 0 0
0 0 0 0 0 0 0 0 0
0 0 0 0 0 0 0 0 0
0 0 0 0 0 0 0 0 0
0 0 0 0 0 0 0 0 0
0 0 0 0 0 0 0 0 0
0 0 0 0 0 0 0 0 0
0 0 0 0 0 0 0 0 0
0 0 0 0 0 0 0 0 0
0 0 0 0 0 0 0 0 0
0 0 0 0 0 0 0 0 0
0 0 0 0 0 0 0 0 0
0 0 0 0 0 0 0 0 0
0 0 0 0 0 0 0 0 0
0 0 0 0 0 0 0 0 0
0 0 0 0 0 0 0 0 0
0 0 0 0 0 0 0 0 0
0 0 0 0 0 0 0 0 0
0 0 0 0 0 0 0 0 0
0 0 0 0 0 0 0 0 0
0 0 0 0 0 0 0 0 0
0 0 0 0 0 0 0 0 0
0 0 0 0 0 0 0 0 0
0 0 0 0 0 0 0 0 0
0 0 0 0 0 0 0 0 0
0 0 0 0 0 0 0 0 0
0 0 0 0 0 0 0 0 0
0 0 0 0 0 0 0 0 0
0 0 0 0 0 0 0 0 0
0 0 0 0 0 0 0 0 0
0 0 0 0 0 0 0 0 0
0 0 0 0 0 0 0 0 0
0 0 0 0 0 0 0 0 0
0 0 0 0 0 0 0 0 0
0 0 0 0 0 0 0 0 0
0 0 0 0 0 0 0 0 0
0 0 0 0 0 0 0 0 0
0 0 0 0 0 0 0 0 0
0 0 0 0 0 0 0 0 0
0 0 0 0 0 0 0 0 0
0 0 0 0 0 0 0 0 0
0 0 0 0 0 0 0 0 0
0 0 0 0 0 0 0 0 0
0 0 0 0 0 0 0 0 0
0 0 0 0 0 0 0 0 0
0 0 0 0 0 0 0 0 0
0 0 0 0 0 0 0 0 0
0 0 0 0 0 0 0 0 0
0 0 0 0 0 0 0 0 0
0 0 0 0 0 0 0 0 0
0 0 0 0 0 0 0 0 0
0 0 0 0 0 0 0 0 0
0 0 0 0 0 0 0 0 0
0 0 0 0 0 0 0 0 0
0 0 0 0 0 0 0 0 0
0 0 0 0 0 0 0 0 0
0 0 0 0 0 0 0 0 0
0 0 0 0 0 0 0 0 0
0 0 0 0 0 0 0 0 0
0 0 0 0 0 0 0 0 0
0 0 0 0 0 0 0 0 0
0 0 0 0 0 0 0 0 0
0 0 0 0 0 0 0 0 0
0 0 0 0 0 0 0 0 0
0 0 0 0 0 0 0 0 0
0 0 0 0 0 0 0 0 0
0 0 0 0 0 0 0 0 0
0 0 0 0 0 0 0 0 0
0 0 0 0 0 0 0 0 0
0 0 0 0 0 0 0 0 0
0 0 0 0 0 0 0 0 0
0 0 0 0 0 0 0 0 0
0 0 0 0 0 0 0 0 0
0 0 0 0 0 0 0 0 0
0 0 0 0 0 0 0 0 0
0 0 0 0 0 0 0 0 0
0 0 0 0 0 0 0 0 0
0 0 0 0 0 0 0 0 0
0 0 0 0 0 0 0 0 0
0 0 0 0 0 0 0 0 0
0 0 0 0 0 0 0 0 0
0 0 0 0 0 0 0 0 0
0 0 0 0 0 0 0 0 0
0 0 0 0 0 0 0 0 0
0 0 0 0 0 0 0 0 0
0 0 0 0 0 0 0 0 0
0 0 0 0 0 0 0 0 0
0 0 0 0 0 0 0 0 0
0 0 0 0 0 0 0 0 0
0 0 0 0 0 0 0 0 0
0 0 0 0 0 0 0 0 0
0 0 0 0 0 0 0 0 0
0 0 0 0 0 0 0 0 0
0 0 0 0 0 0 0 0 0
0 0 0 0 0 0 0 0 0
0 0 0 0 0 0 0 0 0
0 0 0 0 0 0 0 0 0
0 0 0 0 0 0 0 0 0
0 0 0 0 0 0 0 0 0
0 0 0 0 0 0 0 0 0
0 0 0 0 0 0 0 0 0
0 0 0 0 0 0 0 0 0
0 0 0 0 0 0 0 0 0
0 0 0 0 0 0 0 0 0
0 0 0 0 0 0 0 0 0
0 0 0 0 0 0 0 0 0
0 0 0 0 0 0 0 0 0
0 0 0 0 0 0 0 0 0
0 0 0 0 0 0 0 0 0
0 0 0 0 0 0 0 0 0
0 0 0 0 0 0 0 0 0
0 0 0 0 0 0 0 0 0
0 0 0 0 0 0 0 0 0
0 0 0 0 0 0 0 0 0
0 0 0 0 0 0 0 0 0
0 0 0 0 0 0 0 0 0
0 0 0 0 0 0 0 0 0
0 0 0 0 0 0 0 0 0
0 0 0 0 0 0 0 0 0
0 0 0 0 0 0 0 0 0
0 0 0 0 0 0 0 0 0
0 0 0 0 0 0 0 0 0
0 0 0 0 0 0 0 0 0
0 0 0 0 0 0 0 0 0
0 0 0 0 0 0 0 0 0
0 0 0 0 0 0 0 0 0
0 0 0 0 0 0 0 0 0
0 0 0 0 0 0 0 0 0
0 0 0 0 0 0 0 0 0
0 0 0 0 0 0 0 0 0
0 0 0 0 0 0 0 0 0
0 0 0 0 0 0 0 0 0
0 0 0 0 0 0 0 0 0
0 0 0 0 0 0 0 0 0
0 0 0 0 0 0 0 0 0
0 0 0 0 0 0 0 0 0
0 0 0 0 0 0 0 0 0
0 0 0 0 0 0 0 0 0
0 0 0 0 0 0 0 0 0
0 0 0 0 0 0 0 0 0
0 0 0 0 0 0 0 0 0
0 0 0 0 0 0 0 0 0
0 0 0 0 0 0 0 0 0
0 0 0 0 0 0 0 0 0
0 0 0 0 0 0 0 0 0
0 0 0 0 0 0 0 0 0
0 0 0 0 0 0 0 0 0
0 0 0 0 0 0 0 0 0
0 0 0 0 0 0 0 0 0
0 0 0 0 0 0 0 0 0
0 0 0 0 0 0 0 0 0
0 0 0 0 0 0 0 0 0
0 0 0 0 0 0 0 0 0
0 0 0 0 0 0 0 0 0
0 0 0 0 0 0 0 0 0
0 0 0 0 0 0 0 0 0
0 0 0 0 0 0 0 0 0
0 0 0 0 0 0 0 0 0
0 0 0 0 0 0 0 0 0
0 0 0 0 0 0 0 0 0
0 0 0 0 0 0 0 0 0
0 0 0 0 0 0 0 0 0
0 0 0 0 0 0 0 0 0
0 0 0 0 0 0 0 0 0
0 0 0 0 0 0 0 0 0
0 0 0 0 0 0 0 0 0
0 0 0 0 0 0 0 0 0
0 0 0 0 0 0 0 0 0
0 0 0 0 0 0 0 0 0
0 0 0 0 0 0 0 0 0
0 0 0 0 0 0 0 0 0
0 0 0 0 0 0 0 0 0
0 0 0 0 0 0 0 0 0
0 0 0 0 0 0 0 0 0
0 0 0 0 0 0 0 0 0
0 0 0 0 0 0 0 0 0
0 0 0 0 0 0 0 0 0
0 0 0 0 0 0 0 0 0
0 0 0 0 0 0 0 0 0
0 0 0 0 0 0 0 0 0
0 0 0 0 0 0 0 0 0
0 0 0 0 0 0 0 0 0
0 0 0 0 0 0 0 0 0
0 0 0 0 0 0 0 0 0
0 0 0 0 0 0 0 0 0
0 0 0 0 0 0 0 0 0
0 0 0 0 0 0 0 0 0
0 0 0 0 0 0 0 0 0
0 0 0 0 0 0 0 0 0
0 0 0 0 0 0 0 0 0
0 0 0 0 0 0 0 0 0
0 0 0 0 0 0 0 0 0
0 0 0 0 0 0 0 0 0
0 0 0 0 0 0 0 0 0
0 0 0 0 0 0 0 0 0
0 0 0 0 0 0 0 0 0
0 0 0 0 0 0 0 0 0
0 0 0 0 0 0 0 0 0
0 0 0 0 0 0 0 0 0
0 0 0 0 0 0 0 0 0
0 0 0 0 0 0 0 0 0
0 0 0 0 0 0 0 0 0
0 0 0 0 0 0 0 0 0
0 0 0 0 0 0 0 0 0
0 0 0 0 0 0 0 0 0
0 0 0 0 0 0 0 0 0
0 0 0 0 0 0 0 0 0
0 0 0 0 0 0 0 0 0
0 0 0 0 0 0 0 0 0
0 0 0 0 0 0 0 0 0
0 0 0 0 0 0 0 0 0
0 0 0 0 0 0 0 0 0
0 0 0 0 0 0 0 0 0
0 0 0 0 0 0 0 0 0
0 0 0 0 0 0 0 0 0
0 0 0 0 0 0 0 0 0
0 0 0 0 0 0 0 0 0
0 0 0 0 0 0 0 0 0
0 0 0 0 0 0 0 0 0
0 0 0 0 0 0 0 0 0
0 0 0 0 0 0 0 0 0
0 0 0 0 0 0 0 0 0
0 0 0 0 0 0 0 0 0
0 0 0 0 0 0 0 0 0
0 0 0 0 0 0 0 0 0
0 0 0 0 0 0 0 0 0
0 0 0 0 0 0 0 0 0
0 0 0 0 0 0 0 0 0
0 0 0 0 0 0 0 0 0
0 0 0 0 0 0 0 0 0
0 0 0 0 0 0 0 0 0
0 0 0 0 0 0 0 0 0
0 0 0 0 0 0 0 0 0
0 0 0 0 0 0 0 0 0
0 0 0 0 0 0 0 0 0
0 0 0 0 0 0 0 0 0
0 0 0 0 0 0 0 0 0
0 0 0 0 0 0 0 0 0
0 0 0 0 0 0 0 0 0
0 0 0 0 0 0 0 0 0
0 0 0 0 0 0 0 0 0
0 0 0 0 0 0 0 0 0
0 0 0 0 0 0 0 0 0
0 0 0 0 0 0 0 0 0
0 0 0 0 0 0 0 0 0
0 0 0 0 0 0 0 0 0
0 0 0 0 0 0 0 0 0
0 0 0 0 0 0 0 0 0
0 0 0 0 0 0 0 0 0
0 0 0 0 0 0 0 0 0
0 0 0 0 0 0 0 0 0
0 0 0 0 0 0 0 0 0
0 0 0 0 0 0 0 0 0
0 0 0 0 0 0 0 0 0
0 0 0 0 0 0 0 0 0
0 0 0 0 0 0 0 0 0
0 0 0 0 0 0 0 0 0
0 0 0 0 0 0 0 0 0
0 0 0 0 0 0 0 0 0
0 0 0 0 0 0 0 0 0
0 0 0 0 0 0 0 0 0
0 0 0 0 0 0 0 0 0
0 0 0 0 0 0 0 0 0
0 0 0 0 0 0 0 0 0
0 0 0 0 0 0 0 0 0
0 0 0 0 0 0 0 0 0
0 0 0 0 0 0 0 0 0
0 0 0 0 0 0 0 0 0
0 0 0 0 0 0 0 0 0
0 0 0 0 0 0 0 0 0
0 0 0 0 0 0 0 0 0
0 0 0 0 0 0 0 0 0
0 0 0 0 0 0 0 0 0
0 0 0 0 0 0 0 0 0
0 0 0 0 0 0 0 0 0
0 0 0 0 0 0 0 0 0
0 0 0 0 0 0 0 0 0
0 0 0 0 0 0 0 0 0
0 0 0 0 0 0 0 0 0
0 0 0 0 0 0 0 0 0
0 0 0 0 0 0 0 0 0
0 0 0 0 0 0 0 0 0
0 0 0 0 0 0 0 0 0
0 0 0 0 0 0 0 0 0
0 0 0 0 0 0 0 0 0
0 0 0 0 0 0 0 0 0
0 0 0 0 0 0 0 0 0
0 0 0 0 0 0 0 0 0
0 0 0 0 0 0 0 0 0
0 0 0 0 0 0 0 0 0
0 0 0 0 0 0 0 0 0
0 0 0 0 0 0 0 0 0
0 0 0 0 0 0 0 0 0
0 0 0 0 0 0 0 0 0
0 0 0 0 0 0 0 0 0
0 0 0 0 0 0 0 0 0
0 0 0 0 0 0 0 0 0
0 0 0 0 0 0 0 0 0
0 0 0 0 0 0 0 0 0
0 0 0 0 0 0 0 0 0
0 0 0 0 0 0 0 0 0
0 0 0 0 0 0 0 0 0
0 0 0 0 0 0 0 0 0
0 0 0 0 0 0 0 0 0
0 0 0 0 0 0 0 0 0
0 0 0 0 0 0 0 0 0
0 0 0 0 0 0 0 0 0
0 0 0 0 0 0 0 0 0
0 0 0 0 0 0 0 0 0
0 0 0 0 0 0 0 0 0
0 0 0 0 0 0 0 0 0
0 0 0 0 0 0 0 0 0
0 0 0 0 0 0 0 0 0
0 0 0 0 0 0 0 0 0
0 0 0 0 0 0 0 0 0
0 0 0 0 0 0 0 0 0
0 0 0 0 0 0 0 0 0
0 0 0 0 0 0 0 0 0
0 0 0 0 0 0 0 0 0
0 0 0 0 0 0 0 0 0
0 0 0 0 0 0 0 0 0
