# vtk DataFile Version 3.0
Generated by Jean Bénézech
ASCII
DATASET UNSTRUCTURED_GRID
POINTS 3883 double
56.19 128.4 312
56.29 128.482 310
56.39 128.563 308
56.49 128.645 306
56.59 128.727 304
56.69 128.808 302
56.09 127.12 314
56.79 127.679 300
56.89 127.759 298
56.99 127.839 296
56.09 125.922 314
57.09 126.702 294
55.99 124.648 316
57.09 125.485 294
55.99 123.451 316
57.19 124.343 292
55.99 122.255 316
57.19 123.125 292
55.99 121.059 316
57.19 121.906 292
55.99 119.862 316
57.19 120.688 292
55.99 118.666 316
57.09 119.403 294
55.99 117.47 316
57.09 118.186 294
56.09 116.337 314
57.09 116.97 294
56.19 115.2 312
56.29 115.261 310
56.39 115.323 308
56.49 115.384 306
56.59 115.446 304
56.69 115.507 302
56.79 115.569 300
56.89 115.63 298
56.99 115.692 296
55.94 128.4 312
56.04 128.482 310
56.14 128.563 308
56.24 128.645 306
56.34 128.727 304
56.44 128.808 302
55.84 127.12 314
56.54 127.679 300
56.64 127.759 298
56.74 127.839 296
55.84 125.922 314
56.84 126.702 294
55.74 124.648 316
56.84 125.485 294
55.74 123.451 316
56.94 124.343 292
55.74 122.255 316
56.94 123.125 292
55.74 121.059 316
56.94 121.906 292
55.74 119.862 316
56.94 120.688 292
55.74 118.666 316
56.84 119.403 294
55.74 117.47 316
56.84 118.186 294
55.84 116.337 314
56.84 116.97 294
55.94 115.2 312
56.04 115.261 310
56.14 115.323 308
56.24 115.384 306
56.34 115.446 304
56.44 115.507 302
56.54 115.569 300
56.64 115.63 298
56.74 115.692 296
55.69 128.4 312
55.79 128.482 310
55.89 128.563 308
55.99 128.645 306
56.09 128.727 304
56.19 128.808 302
55.59 127.12 314
56.29 127.679 300
56.39 127.759 298
56.49 127.839 296
55.59 125.922 314
56.59 126.702 294
55.49 124.648 316
56.59 125.485 294
55.49 123.451 316
56.69 124.343 292
55.49 122.255 316
56.69 123.125 292
55.49 121.059 316
56.69 121.906 292
55.49 119.862 316
56.69 120.688 292
55.49 118.666 316
56.59 119.403 294
55.49 117.47 316
56.59 118.186 294
55.59 116.337 314
56.59 116.97 294
55.69 115.2 312
55.79 115.261 310
55.89 115.323 308
55.99 115.384 306
56.09 115.446 304
56.19 115.507 302
56.29 115.569 300
56.39 115.63 298
56.49 115.692 296
55.68 128.4 312
55.78 128.482 310
55.88 128.563 308
55.98 128.645 306
56.08 128.727 304
56.18 128.808 302
55.58 127.12 314
56.28 127.679 300
56.38 127.759 298
56.48 127.839 296
55.58 125.922 314
56.58 126.702 294
55.48 124.648 316
56.58 125.485 294
55.48 123.451 316
56.68 124.343 292
55.48 122.255 316
56.68 123.125 292
55.48 121.059 316
56.68 121.906 292
55.48 119.862 316
56.68 120.688 292
55.48 118.666 316
56.58 119.403 294
55.48 117.47 316
56.58 118.186 294
55.58 116.337 314
56.58 116.97 294
55.68 115.2 312
55.78 115.261 310
55.88 115.323 308
55.98 115.384 306
56.08 115.446 304
56.18 115.507 302
56.28 115.569 300
56.38 115.63 298
56.48 115.692 296
55.43 128.4 312
55.53 128.482 310
55.63 128.563 308
55.73 128.645 306
55.83 128.727 304
55.93 128.808 302
55.33 127.12 314
56.03 127.679 300
56.13 127.759 298
56.23 127.839 296
55.33 125.922 314
56.33 126.702 294
55.23 124.648 316
56.33 125.485 294
55.23 123.451 316
56.43 124.343 292
55.23 122.255 316
56.43 123.125 292
55.23 121.059 316
56.43 121.906 292
55.23 119.862 316
56.43 120.688 292
55.23 118.666 316
56.33 119.403 294
55.23 117.47 316
56.33 118.186 294
55.33 116.337 314
56.33 116.97 294
55.43 115.2 312
55.53 115.261 310
55.63 115.323 308
55.73 115.384 306
55.83 115.446 304
55.93 115.507 302
56.03 115.569 300
56.13 115.63 298
56.23 115.692 296
55.42 128.4 312
55.52 128.482 310
55.62 128.563 308
55.72 128.645 306
55.82 128.727 304
55.92 128.808 302
55.32 127.12 314
56.02 127.679 300
56.12 127.759 298
56.22 127.839 296
55.32 125.922 314
56.32 126.702 294
55.22 124.648 316
56.32 125.485 294
55.22 123.451 316
56.42 124.343 292
55.22 122.255 316
56.42 123.125 292
55.22 121.059 316
56.42 121.906 292
55.22 119.862 316
56.42 120.688 292
55.22 118.666 316
56.32 119.403 294
55.22 117.47 316
56.32 118.186 294
55.32 116.337 314
56.32 116.97 294
55.42 115.2 312
55.52 115.261 310
55.62 115.323 308
55.72 115.384 306
55.82 115.446 304
55.92 115.507 302
56.02 115.569 300
56.12 115.63 298
56.22 115.692 296
55.17 128.4 312
55.27 128.482 310
55.37 128.563 308
55.47 128.645 306
55.57 128.727 304
55.67 128.808 302
55.07 127.12 314
55.77 127.679 300
55.87 127.759 298
55.97 127.839 296
55.07 125.922 314
56.07 126.702 294
54.97 124.648 316
56.07 125.485 294
54.97 123.451 316
56.17 124.343 292
54.97 122.255 316
56.17 123.125 292
54.97 121.059 316
56.17 121.906 292
54.97 119.862 316
56.17 120.688 292
54.97 118.666 316
56.07 119.403 294
54.97 117.47 316
56.07 118.186 294
55.07 116.337 314
56.07 116.97 294
55.17 115.2 312
55.27 115.261 310
55.37 115.323 308
55.47 115.384 306
55.57 115.446 304
55.67 115.507 302
55.77 115.569 300
55.87 115.63 298
55.97 115.692 296
54.92 128.4 312
55.02 128.482 310
55.12 128.563 308
55.22 128.645 306
55.32 128.727 304
55.42 128.808 302
54.82 127.12 314
55.52 127.679 300
55.62 127.759 298
55.72 127.839 296
54.82 125.922 314
55.82 126.702 294
54.72 124.648 316
55.82 125.485 294
54.72 123.451 316
55.92 124.343 292
54.72 122.255 316
55.92 123.125 292
54.72 121.059 316
55.92 121.906 292
54.72 119.862 316
55.92 120.688 292
54.72 118.666 316
55.82 119.403 294
54.72 117.47 316
55.82 118.186 294
54.82 116.337 314
55.82 116.97 294
54.92 115.2 312
55.02 115.261 310
55.12 115.323 308
55.22 115.384 306
55.32 115.446 304
55.42 115.507 302
55.52 115.569 300
55.62 115.63 298
55.72 115.692 296
54.67 128.4 312
54.77 128.482 310
54.87 128.563 308
54.97 128.645 306
55.07 128.727 304
55.17 128.808 302
54.57 127.12 314
55.27 127.679 300
55.37 127.759 298
55.47 127.839 296
54.57 125.922 314
55.57 126.702 294
54.47 124.648 316
55.57 125.485 294
54.47 123.451 316
55.67 124.343 292
54.47 122.255 316
55.67 123.125 292
54.47 121.059 316
55.67 121.906 292
54.47 119.862 316
55.67 120.688 292
54.47 118.666 316
55.57 119.403 294
54.47 117.47 316
55.57 118.186 294
54.57 116.337 314
55.57 116.97 294
54.67 115.2 312
54.77 115.261 310
54.87 115.323 308
54.97 115.384 306
55.07 115.446 304
55.17 115.507 302
55.27 115.569 300
55.37 115.63 298
55.47 115.692 296
54.42 128.4 312
54.52 128.482 310
54.62 128.563 308
54.72 128.645 306
54.82 128.727 304
54.92 128.808 302
54.32 127.12 314
55.02 127.679 300
55.12 127.759 298
55.22 127.839 296
54.32 125.922 314
55.32 126.702 294
54.22 124.648 316
55.32 125.485 294
54.22 123.451 316
55.42 124.343 292
54.22 122.255 316
55.42 123.125 292
54.22 121.059 316
55.42 121.906 292
54.22 119.862 316
55.42 120.688 292
54.22 118.666 316
55.32 119.403 294
54.22 117.47 316
55.32 118.186 294
54.32 116.337 314
55.32 116.97 294
54.42 115.2 312
54.52 115.261 310
54.62 115.323 308
54.72 115.384 306
54.82 115.446 304
54.92 115.507 302
55.02 115.569 300
55.12 115.63 298
55.22 115.692 296
54.17 128.4 312
54.27 128.482 310
54.37 128.563 308
54.47 128.645 306
54.57 128.727 304
54.67 128.808 302
54.07 127.12 314
54.77 127.679 300
54.87 127.759 298
54.97 127.839 296
54.07 125.922 314
55.07 126.702 294
53.97 124.648 316
55.07 125.485 294
53.97 123.451 316
55.17 124.343 292
53.97 122.255 316
55.17 123.125 292
53.97 121.059 316
55.17 121.906 292
53.97 119.862 316
55.17 120.688 292
53.97 118.666 316
55.07 119.403 294
53.97 117.47 316
55.07 118.186 294
54.07 116.337 314
55.07 116.97 294
54.17 115.2 312
54.27 115.261 310
54.37 115.323 308
54.47 115.384 306
54.57 115.446 304
54.67 115.507 302
54.77 115.569 300
54.87 115.63 298
54.97 115.692 296
53.92 128.4 312
54.02 128.482 310
54.12 128.563 308
54.22 128.645 306
54.32 128.727 304
54.42 128.808 302
53.82 127.12 314
54.52 127.679 300
54.62 127.759 298
54.72 127.839 296
53.82 125.922 314
54.82 126.702 294
53.72 124.648 316
54.82 125.485 294
53.72 123.451 316
54.92 124.343 292
53.72 122.255 316
54.92 123.125 292
53.72 121.059 316
54.92 121.906 292
53.72 119.862 316
54.92 120.688 292
53.72 118.666 316
54.82 119.403 294
53.72 117.47 316
54.82 118.186 294
53.82 116.337 314
54.82 116.97 294
53.92 115.2 312
54.02 115.261 310
54.12 115.323 308
54.22 115.384 306
54.32 115.446 304
54.42 115.507 302
54.52 115.569 300
54.62 115.63 298
54.72 115.692 296
53.67 128.4 312
53.77 128.482 310
53.87 128.563 308
53.97 128.645 306
54.07 128.727 304
54.17 128.808 302
53.57 127.12 314
54.27 127.679 300
54.37 127.759 298
54.47 127.839 296
53.57 125.922 314
54.57 126.702 294
53.47 124.648 316
54.57 125.485 294
53.47 123.451 316
54.67 124.343 292
53.47 122.255 316
54.67 123.125 292
53.47 121.059 316
54.67 121.906 292
53.47 119.862 316
54.67 120.688 292
53.47 118.666 316
54.57 119.403 294
53.47 117.47 316
54.57 118.186 294
53.57 116.337 314
54.57 116.97 294
53.67 115.2 312
53.77 115.261 310
53.87 115.323 308
53.97 115.384 306
54.07 115.446 304
54.17 115.507 302
54.27 115.569 300
54.37 115.63 298
54.47 115.692 296
53.66 128.4 312
53.76 128.482 310
53.86 128.563 308
53.96 128.645 306
54.06 128.727 304
54.16 128.808 302
53.56 127.12 314
54.26 127.679 300
54.36 127.759 298
54.46 127.839 296
53.56 125.922 314
54.56 126.702 294
53.46 124.648 316
54.56 125.485 294
53.46 123.451 316
54.66 124.343 292
53.46 122.255 316
54.66 123.125 292
53.46 121.059 316
54.66 121.906 292
53.46 119.862 316
54.66 120.688 292
53.46 118.666 316
54.56 119.403 294
53.46 117.47 316
54.56 118.186 294
53.56 116.337 314
54.56 116.97 294
53.66 115.2 312
53.76 115.261 310
53.86 115.323 308
53.96 115.384 306
54.06 115.446 304
54.16 115.507 302
54.26 115.569 300
54.36 115.63 298
54.46 115.692 296
53.41 128.4 312
53.51 128.482 310
53.61 128.563 308
53.71 128.645 306
53.81 128.727 304
53.91 128.808 302
53.31 127.12 314
54.01 127.679 300
54.11 127.759 298
54.21 127.839 296
53.31 125.922 314
54.31 126.702 294
53.21 124.648 316
54.31 125.485 294
53.21 123.451 316
54.41 124.343 292
53.21 122.255 316
54.41 123.125 292
53.21 121.059 316
54.41 121.906 292
53.21 119.862 316
54.41 120.688 292
53.21 118.666 316
54.31 119.403 294
53.21 117.47 316
54.31 118.186 294
53.31 116.337 314
54.31 116.97 294
53.41 115.2 312
53.51 115.261 310
53.61 115.323 308
53.71 115.384 306
53.81 115.446 304
53.91 115.507 302
54.01 115.569 300
54.11 115.63 298
54.21 115.692 296
53.16 128.4 312
53.26 128.482 310
53.36 128.563 308
53.46 128.645 306
53.56 128.727 304
53.66 128.808 302
53.06 127.12 314
53.76 127.679 300
53.86 127.759 298
53.96 127.839 296
53.06 125.922 314
54.06 126.702 294
52.96 124.648 316
54.06 125.485 294
52.96 123.451 316
54.16 124.343 292
52.96 122.255 316
54.16 123.125 292
52.96 121.059 316
54.16 121.906 292
52.96 119.862 316
54.16 120.688 292
52.96 118.666 316
54.06 119.403 294
52.96 117.47 316
54.06 118.186 294
53.06 116.337 314
54.06 116.97 294
53.16 115.2 312
53.26 115.261 310
53.36 115.323 308
53.46 115.384 306
53.56 115.446 304
53.66 115.507 302
53.76 115.569 300
53.86 115.63 298
53.96 115.692 296
52.91 128.4 312
53.01 128.482 310
53.11 128.563 308
53.21 128.645 306
53.31 128.727 304
53.41 128.808 302
52.81 127.12 314
53.51 127.679 300
53.61 127.759 298
53.71 127.839 296
52.81 125.922 314
53.81 126.702 294
52.71 124.648 316
53.81 125.485 294
52.71 123.451 316
53.91 124.343 292
52.71 122.255 316
53.91 123.125 292
52.71 121.059 316
53.91 121.906 292
52.71 119.862 316
53.91 120.688 292
52.71 118.666 316
53.81 119.403 294
52.71 117.47 316
53.81 118.186 294
52.81 116.337 314
53.81 116.97 294
52.91 115.2 312
53.01 115.261 310
53.11 115.323 308
53.21 115.384 306
53.31 115.446 304
53.41 115.507 302
53.51 115.569 300
53.61 115.63 298
53.71 115.692 296
52.66 128.4 312
52.76 128.482 310
52.86 128.563 308
52.96 128.645 306
53.06 128.727 304
53.16 128.808 302
52.56 127.12 314
53.26 127.679 300
53.36 127.759 298
53.46 127.839 296
52.56 125.922 314
53.56 126.702 294
52.46 124.648 316
53.56 125.485 294
52.46 123.451 316
53.66 124.343 292
52.46 122.255 316
53.66 123.125 292
52.46 121.059 316
53.66 121.906 292
52.46 119.862 316
53.66 120.688 292
52.46 118.666 316
53.56 119.403 294
52.46 117.47 316
53.56 118.186 294
52.56 116.337 314
53.56 116.97 294
52.66 115.2 312
52.76 115.261 310
52.86 115.323 308
52.96 115.384 306
53.06 115.446 304
53.16 115.507 302
53.26 115.569 300
53.36 115.63 298
53.46 115.692 296
52.41 128.4 312
52.51 128.482 310
52.61 128.563 308
52.71 128.645 306
52.81 128.727 304
52.91 128.808 302
52.31 127.12 314
53.01 127.679 300
53.11 127.759 298
53.21 127.839 296
52.31 125.922 314
53.31 126.702 294
52.21 124.648 316
53.31 125.485 294
52.21 123.451 316
53.41 124.343 292
52.21 122.255 316
53.41 123.125 292
52.21 121.059 316
53.41 121.906 292
52.21 119.862 316
53.41 120.688 292
52.21 118.666 316
53.31 119.403 294
52.21 117.47 316
53.31 118.186 294
52.31 116.337 314
53.31 116.97 294
52.41 115.2 312
52.51 115.261 310
52.61 115.323 308
52.71 115.384 306
52.81 115.446 304
52.91 115.507 302
53.01 115.569 300
53.11 115.63 298
53.21 115.692 296
52.16 128.4 312
52.26 128.482 310
52.36 128.563 308
52.46 128.645 306
52.56 128.727 304
52.66 128.808 302
52.06 127.12 314
52.76 127.679 300
52.86 127.759 298
52.96 127.839 296
52.06 125.922 314
53.06 126.702 294
51.96 124.648 316
53.06 125.485 294
51.96 123.451 316
53.16 124.343 292
51.96 122.255 316
53.16 123.125 292
51.96 121.059 316
53.16 121.906 292
51.96 119.862 316
53.16 120.688 292
51.96 118.666 316
53.06 119.403 294
51.96 117.47 316
53.06 118.186 294
52.06 116.337 314
53.06 116.97 294
52.16 115.2 312
52.26 115.261 310
52.36 115.323 308
52.46 115.384 306
52.56 115.446 304
52.66 115.507 302
52.76 115.569 300
52.86 115.63 298
52.96 115.692 296
51.91 128.4 312
52.01 128.482 310
52.11 128.563 308
52.21 128.645 306
52.31 128.727 304
52.41 128.808 302
51.81 127.12 314
52.51 127.679 300
52.61 127.759 298
52.71 127.839 296
51.81 125.922 314
52.81 126.702 294
51.71 124.648 316
52.81 125.485 294
51.71 123.451 316
52.81 124.269 294
51.71 122.255 316
52.81 123.052 294
51.71 121.059 316
52.81 121.836 294
51.71 119.862 316
52.81 120.619 294
51.71 118.666 316
52.81 119.403 294
51.71 117.47 316
52.81 118.186 294
51.81 116.337 314
52.81 116.97 294
51.91 115.2 312
52.01 115.261 310
52.11 115.323 308
52.21 115.384 306
52.31 115.446 304
52.41 115.507 302
52.51 115.569 300
52.61 115.63 298
52.71 115.692 296
51.66 128.4 312
51.76 128.482 310
51.86 128.563 308
51.96 128.645 306
52.06 128.727 304
52.16 128.808 302
51.56 127.12 314
52.26 127.679 300
52.36 127.759 298
52.46 127.839 296
51.56 125.922 314
52.56 126.702 294
51.46 124.648 316
52.56 125.485 294
51.46 123.451 316
52.56 124.269 294
51.46 122.255 316
52.56 123.052 294
51.46 121.059 316
52.56 121.836 294
51.46 119.862 316
52.56 120.619 294
51.46 118.666 316
52.56 119.403 294
51.46 117.47 316
52.56 118.186 294
51.56 116.337 314
52.56 116.97 294
51.66 115.2 312
51.76 115.261 310
51.86 115.323 308
51.96 115.384 306
52.06 115.446 304
52.16 115.507 302
52.26 115.569 300
52.36 115.63 298
52.46 115.692 296
51.4 128.4 312
51.41 128.4 312
51.5 128.482 310
51.51 128.482 310
51.6 128.563 308
51.61 128.563 308
51.7 128.645 306
51.71 128.645 306
51.8 128.727 304
51.81 128.727 304
51.9 128.808 302
51.91 128.808 302
51.3 127.12 314
51.31 127.12 314
52 127.679 300
52.01 127.679 300
52.1 127.759 298
52.11 127.759 298
52.2 127.839 296
52.21 127.839 296
51.3 125.922 314
51.31 125.922 314
52.3 126.702 294
52.31 126.702 294
51.2 124.648 316
51.21 124.648 316
52.3 125.485 294
52.31 125.485 294
51.2 123.451 316
51.21 123.451 316
52.3 124.269 294
52.31 124.269 294
51.2 122.255 316
51.21 122.255 316
52.3 123.052 294
52.31 123.052 294
51.2 121.059 316
51.21 121.059 316
52.3 121.836 294
52.31 121.836 294
51.2 119.862 316
51.21 119.862 316
52.3 120.619 294
52.31 120.619 294
51.2 118.666 316
51.21 118.666 316
52.3 119.403 294
52.31 119.403 294
51.2 117.47 316
51.21 117.47 316
52.3 118.186 294
52.31 118.186 294
51.3 116.337 314
51.31 116.337 314
52.3 116.97 294
52.31 116.97 294
51.4 115.2 312
51.41 115.2 312
51.5 115.261 310
51.51 115.261 310
51.6 115.323 308
51.61 115.323 308
51.7 115.384 306
51.71 115.384 306
51.8 115.446 304
51.81 115.446 304
51.9 115.507 302
51.91 115.507 302
52 115.569 300
52.01 115.569 300
52.1 115.63 298
52.11 115.63 298
52.2 115.692 296
52.21 115.692 296
50.9 128.4 312
51.15 128.4 312
51 128.482 310
51.25 128.482 310
51.1 128.563 308
51.35 128.563 308
51.2 128.645 306
51.45 128.645 306
51.3 128.727 304
51.55 128.727 304
51.4 128.808 302
51.65 128.808 302
50.8 127.12 314
51.05 127.12 314
51.5 127.679 300
51.75 127.679 300
51.6 127.759 298
51.85 127.759 298
51.7 127.839 296
51.95 127.839 296
50.8 125.922 314
51.05 125.922 314
51.8 126.702 294
52.05 126.702 294
50.7 124.648 316
50.95 124.648 316
51.8 125.485 294
52.05 125.485 294
50.7 123.451 316
50.95 123.451 316
51.8 124.269 294
52.05 124.269 294
50.7 122.255 316
50.95 122.255 316
51.8 123.052 294
52.05 123.052 294
50.7 121.059 316
50.95 121.059 316
51.8 121.836 294
52.05 121.836 294
50.7 119.862 316
50.95 119.862 316
51.8 120.619 294
52.05 120.619 294
50.7 118.666 316
50.95 118.666 316
51.8 119.403 294
52.05 119.403 294
50.7 117.47 316
50.95 117.47 316
51.8 118.186 294
52.05 118.186 294
50.8 116.337 314
51.05 116.337 314
51.8 116.97 294
52.05 116.97 294
50.9 115.2 312
51.15 115.2 312
51 115.261 310
51.25 115.261 310
51.1 115.323 308
51.35 115.323 308
51.2 115.384 306
51.45 115.384 306
51.3 115.446 304
51.55 115.446 304
51.4 115.507 302
51.65 115.507 302
51.5 115.569 300
51.75 115.569 300
51.6 115.63 298
51.85 115.63 298
51.7 115.692 296
51.95 115.692 296
50.65 128.4 312
50.75 128.482 310
50.85 128.563 308
50.95 128.645 306
51.05 128.727 304
51.15 128.808 302
50.55 127.12 314
51.25 127.679 300
51.35 127.759 298
51.45 127.839 296
50.55 125.922 314
51.55 126.702 294
50.45 124.648 316
51.55 125.485 294
50.45 123.451 316
51.55 124.269 294
50.45 122.255 316
51.55 123.052 294
50.45 121.059 316
51.55 121.836 294
50.45 119.862 316
51.55 120.619 294
50.45 118.666 316
51.55 119.403 294
50.45 117.47 316
51.55 118.186 294
50.55 116.337 314
51.55 116.97 294
50.65 115.2 312
50.75 115.261 310
50.85 115.323 308
50.95 115.384 306
51.05 115.446 304
51.15 115.507 302
51.25 115.569 300
51.35 115.63 298
51.45 115.692 296
56.44 128.4 312
56.54 128.482 310
56.64 128.563 308
56.74 128.645 306
56.84 128.727 304
56.94 128.808 302
56.34 127.12 314
57.04 127.679 300
57.14 127.759 298
57.24 127.839 296
56.34 125.922 314
57.34 126.702 294
56.24 124.648 316
57.34 125.485 294
56.24 123.451 316
57.44 124.343 292
56.24 122.255 316
57.44 123.125 292
56.24 121.059 316
57.44 121.906 292
56.24 119.862 316
57.44 120.688 292
56.24 118.666 316
57.34 119.403 294
56.24 117.47 316
57.34 118.186 294
56.34 116.337 314
57.34 116.97 294
56.44 115.2 312
56.54 115.261 310
56.64 115.323 308
56.74 115.384 306
56.84 115.446 304
56.94 115.507 302
57.04 115.569 300
57.14 115.63 298
57.24 115.692 296
50.4 128.4 312
50.5 128.482 310
50.6 128.563 308
50.7 128.645 306
50.8 128.727 304
50.9 128.808 302
50.3 127.12 314
51 127.679 300
51.1 127.759 298
51.2 127.839 296
50.3 125.922 314
51.3 126.702 294
50.2 124.648 316
51.3 125.485 294
50.2 123.451 316
51.3 124.269 294
50.2 122.255 316
51.3 123.052 294
50.2 121.059 316
51.3 121.836 294
50.2 119.862 316
51.3 120.619 294
50.2 118.666 316
51.3 119.403 294
50.2 117.47 316
51.3 118.186 294
50.3 116.337 314
51.3 116.97 294
50.4 115.2 312
50.5 115.261 310
50.6 115.323 308
50.7 115.384 306
50.8 115.446 304
50.9 115.507 302
51 115.569 300
51.1 115.63 298
51.2 115.692 296
51.2 118.121 296
51.1 118.056 298
51 117.991 300
50.9 117.926 302
50.8 117.861 304
50.7 117.795 306
50.6 117.73 308
50.5 117.665 310
50.4 117.6 312
50.3 117.535 314
51.2 119.336 296
51.1 119.269 298
51 119.202 300
50.9 119.135 302
50.8 119.068 304
50.7 119.001 306
50.6 118.934 308
50.5 118.867 310
50.4 118.8 312
50.3 118.733 314
51.2 120.55 296
51.1 120.482 298
51 120.413 300
50.9 120.344 302
50.8 120.275 304
50.7 120.206 306
50.6 120.138 308
50.5 120.069 310
50.4 120 312
50.3 119.931 314
51.2 121.765 296
51.1 121.694 298
51 121.624 300
50.9 121.553 302
50.8 121.483 304
50.7 121.412 306
50.6 121.341 308
50.5 121.271 310
50.4 121.2 312
50.3 121.129 314
51.2 122.98 296
51.1 122.907 298
51 122.835 300
50.9 122.762 302
50.8 122.69 304
50.7 122.617 306
50.6 122.545 308
50.5 122.472 310
50.4 122.4 312
50.3 122.328 314
51.2 124.194 296
51.1 124.12 298
51 124.046 300
50.9 123.972 302
50.8 123.897 304
50.7 123.823 306
50.6 123.749 308
50.5 123.674 310
50.4 123.6 312
50.3 123.526 314
51.2 125.409 296
51.1 125.333 298
51 125.257 300
50.9 125.181 302
50.8 125.105 304
50.7 125.028 306
50.6 124.952 308
50.5 124.876 310
50.4 124.8 312
50.3 124.724 314
51.2 126.624 296
51.1 126.546 298
51 126.468 300
50.9 126.39 302
50.8 126.312 304
50.7 126.234 306
50.6 126.156 308
50.5 126.078 310
50.4 126 312
50.9 127.599 302
50.8 127.519 304
50.7 127.439 306
50.6 127.36 308
50.5 127.28 310
50.4 127.2 312
57.24 118.121 296
57.14 118.056 298
57.04 117.991 300
56.94 117.926 302
56.84 117.861 304
56.74 117.795 306
56.64 117.73 308
56.54 117.665 310
56.44 117.6 312
56.34 117.535 314
57.24 119.336 296
57.14 119.269 298
57.04 119.202 300
56.94 119.135 302
56.84 119.068 304
56.74 119.001 306
56.64 118.934 308
56.54 118.867 310
56.44 118.8 312
56.34 118.733 314
57.34 120.619 294
57.24 120.55 296
57.14 120.482 298
57.04 120.413 300
56.94 120.344 302
56.84 120.275 304
56.74 120.206 306
56.64 120.138 308
56.54 120.069 310
56.44 120 312
56.34 119.931 314
57.34 121.836 294
57.24 121.765 296
57.14 121.694 298
57.04 121.624 300
56.94 121.553 302
56.84 121.483 304
56.74 121.412 306
56.64 121.341 308
56.54 121.271 310
56.44 121.2 312
56.34 121.129 314
57.34 123.052 294
57.24 122.98 296
57.14 122.907 298
57.04 122.835 300
56.94 122.762 302
56.84 122.69 304
56.74 122.617 306
56.64 122.545 308
56.54 122.472 310
56.44 122.4 312
56.34 122.328 314
57.34 124.269 294
57.24 124.194 296
57.14 124.12 298
57.04 124.046 300
56.94 123.972 302
56.84 123.897 304
56.74 123.823 306
56.64 123.749 308
56.54 123.674 310
56.44 123.6 312
56.34 123.526 314
57.24 125.409 296
57.14 125.333 298
57.04 125.257 300
56.94 125.181 302
56.84 125.105 304
56.74 125.028 306
56.64 124.952 308
56.54 124.876 310
56.44 124.8 312
56.34 124.724 314
57.24 126.624 296
57.14 126.546 298
57.04 126.468 300
56.94 126.39 302
56.84 126.312 304
56.74 126.234 306
56.64 126.156 308
56.54 126.078 310
56.44 126 312
56.94 127.599 302
56.84 127.519 304
56.74 127.439 306
56.64 127.36 308
56.54 127.28 310
56.44 127.2 312
51.45 118.121 296
51.35 118.056 298
51.25 117.991 300
51.15 117.926 302
51.05 117.861 304
50.95 117.795 306
50.85 117.73 308
50.75 117.665 310
50.65 117.6 312
50.55 117.535 314
51.45 119.336 296
51.35 119.269 298
51.25 119.202 300
51.15 119.135 302
51.05 119.068 304
50.95 119.001 306
50.85 118.934 308
50.75 118.867 310
50.65 118.8 312
50.55 118.733 314
51.45 120.55 296
51.35 120.482 298
51.25 120.413 300
51.15 120.344 302
51.05 120.275 304
50.95 120.206 306
50.85 120.138 308
50.75 120.069 310
50.65 120 312
50.55 119.931 314
51.45 121.765 296
51.35 121.694 298
51.25 121.624 300
51.15 121.553 302
51.05 121.483 304
50.95 121.412 306
50.85 121.341 308
50.75 121.271 310
50.65 121.2 312
50.55 121.129 314
51.45 122.98 296
51.35 122.907 298
51.25 122.835 300
51.15 122.762 302
51.05 122.69 304
50.95 122.617 306
50.85 122.545 308
50.75 122.472 310
50.65 122.4 312
50.55 122.328 314
51.45 124.194 296
51.35 124.12 298
51.25 124.046 300
51.15 123.972 302
51.05 123.897 304
50.95 123.823 306
50.85 123.749 308
50.75 123.674 310
50.65 123.6 312
50.55 123.526 314
51.45 125.409 296
51.35 125.333 298
51.25 125.257 300
51.15 125.181 302
51.05 125.105 304
50.95 125.028 306
50.85 124.952 308
50.75 124.876 310
50.65 124.8 312
50.55 124.724 314
51.45 126.624 296
51.35 126.546 298
51.25 126.468 300
51.15 126.39 302
51.05 126.312 304
50.95 126.234 306
50.85 126.156 308
50.75 126.078 310
50.65 126 312
51.15 127.599 302
51.05 127.519 304
50.95 127.439 306
50.85 127.36 308
50.75 127.28 310
50.65 127.2 312
51.95 118.121 296
51.7 118.121 296
51.85 118.056 298
51.6 118.056 298
51.75 117.991 300
51.5 117.991 300
51.65 117.926 302
51.4 117.926 302
51.55 117.861 304
51.3 117.861 304
51.45 117.795 306
51.2 117.795 306
51.35 117.73 308
51.1 117.73 308
51.25 117.665 310
51 117.665 310
51.15 117.6 312
50.9 117.6 312
51.05 117.535 314
50.8 117.535 314
51.95 119.336 296
51.7 119.336 296
51.85 119.269 298
51.6 119.269 298
51.75 119.202 300
51.5 119.202 300
51.65 119.135 302
51.4 119.135 302
51.55 119.068 304
51.3 119.068 304
51.45 119.001 306
51.2 119.001 306
51.35 118.934 308
51.1 118.934 308
51.25 118.867 310
51 118.867 310
51.15 118.8 312
50.9 118.8 312
51.05 118.733 314
50.8 118.733 314
51.95 120.55 296
51.7 120.55 296
51.85 120.482 298
51.6 120.482 298
51.75 120.413 300
51.5 120.413 300
51.65 120.344 302
51.4 120.344 302
51.55 120.275 304
51.3 120.275 304
51.45 120.206 306
51.2 120.206 306
51.35 120.138 308
51.1 120.138 308
51.25 120.069 310
51 120.069 310
51.15 120 312
50.9 120 312
51.05 119.931 314
50.8 119.931 314
51.95 121.765 296
51.7 121.765 296
51.85 121.694 298
51.6 121.694 298
51.75 121.624 300
51.5 121.624 300
51.65 121.553 302
51.4 121.553 302
51.55 121.483 304
51.3 121.483 304
51.45 121.412 306
51.2 121.412 306
51.35 121.341 308
51.1 121.341 308
51.25 121.271 310
51 121.271 310
51.15 121.2 312
50.9 121.2 312
51.05 121.129 314
50.8 121.129 314
51.95 122.98 296
51.7 122.98 296
51.85 122.907 298
51.6 122.907 298
51.75 122.835 300
51.5 122.835 300
51.65 122.762 302
51.4 122.762 302
51.55 122.69 304
51.3 122.69 304
51.45 122.617 306
51.2 122.617 306
51.35 122.545 308
51.1 122.545 308
51.25 122.472 310
51 122.472 310
51.15 122.4 312
50.9 122.4 312
51.05 122.328 314
50.8 122.328 314
51.95 124.194 296
51.7 124.194 296
51.85 124.12 298
51.6 124.12 298
51.75 124.046 300
51.5 124.046 300
51.65 123.972 302
51.4 123.972 302
51.55 123.897 304
51.3 123.897 304
51.45 123.823 306
51.2 123.823 306
51.35 123.749 308
51.1 123.749 308
51.25 123.674 310
51 123.674 310
51.15 123.6 312
50.9 123.6 312
51.05 123.526 314
50.8 123.526 314
51.95 125.409 296
51.7 125.409 296
51.85 125.333 298
51.6 125.333 298
51.75 125.257 300
51.5 125.257 300
51.65 125.181 302
51.4 125.181 302
51.55 125.105 304
51.3 125.105 304
51.45 125.028 306
51.2 125.028 306
51.35 124.952 308
51.1 124.952 308
51.25 124.876 310
51 124.876 310
51.15 124.8 312
50.9 124.8 312
51.05 124.724 314
50.8 124.724 314
51.95 126.624 296
51.7 126.624 296
51.85 126.546 298
51.6 126.546 298
51.75 126.468 300
51.5 126.468 300
51.65 126.39 302
51.4 126.39 302
51.55 126.312 304
51.3 126.312 304
51.45 126.234 306
51.2 126.234 306
51.35 126.156 308
51.1 126.156 308
51.25 126.078 310
51 126.078 310
51.15 126 312
50.9 126 312
51.65 127.599 302
51.4 127.599 302
51.55 127.519 304
51.3 127.519 304
51.45 127.439 306
51.2 127.439 306
51.35 127.36 308
51.1 127.36 308
51.25 127.28 310
51 127.28 310
51.15 127.2 312
50.9 127.2 312
52.21 118.121 296
52.2 118.121 296
52.11 118.056 298
52.1 118.056 298
52.01 117.991 300
52 117.991 300
51.91 117.926 302
51.9 117.926 302
51.81 117.861 304
51.8 117.861 304
51.71 117.795 306
51.7 117.795 306
51.61 117.73 308
51.6 117.73 308
51.51 117.665 310
51.5 117.665 310
51.41 117.6 312
51.4 117.6 312
51.31 117.535 314
51.3 117.535 314
52.21 119.336 296
52.2 119.336 296
52.11 119.269 298
52.1 119.269 298
52.01 119.202 300
52 119.202 300
51.91 119.135 302
51.9 119.135 302
51.81 119.068 304
51.8 119.068 304
51.71 119.001 306
51.7 119.001 306
51.61 118.934 308
51.6 118.934 308
51.51 118.867 310
51.5 118.867 310
51.41 118.8 312
51.4 118.8 312
51.31 118.733 314
51.3 118.733 314
52.21 120.55 296
52.2 120.55 296
52.11 120.482 298
52.1 120.482 298
52.01 120.413 300
52 120.413 300
51.91 120.344 302
51.9 120.344 302
51.81 120.275 304
51.8 120.275 304
51.71 120.206 306
51.7 120.206 306
51.61 120.138 308
51.6 120.138 308
51.51 120.069 310
51.5 120.069 310
51.41 120 312
51.4 120 312
51.31 119.931 314
51.3 119.931 314
52.21 121.765 296
52.2 121.765 296
52.11 121.694 298
52.1 121.694 298
52.01 121.624 300
52 121.624 300
51.91 121.553 302
51.9 121.553 302
51.81 121.483 304
51.8 121.483 304
51.71 121.412 306
51.7 121.412 306
51.61 121.341 308
51.6 121.341 308
51.51 121.271 310
51.5 121.271 310
51.41 121.2 312
51.4 121.2 312
51.31 121.129 314
51.3 121.129 314
52.21 122.98 296
52.2 122.98 296
52.11 122.907 298
52.1 122.907 298
52.01 122.835 300
52 122.835 300
51.91 122.762 302
51.9 122.762 302
51.81 122.69 304
51.8 122.69 304
51.71 122.617 306
51.7 122.617 306
51.61 122.545 308
51.6 122.545 308
51.51 122.472 310
51.5 122.472 310
51.41 122.4 312
51.4 122.4 312
51.31 122.328 314
51.3 122.328 314
52.21 124.194 296
52.2 124.194 296
52.11 124.12 298
52.1 124.12 298
52.01 124.046 300
52 124.046 300
51.91 123.972 302
51.9 123.972 302
51.81 123.897 304
51.8 123.897 304
51.71 123.823 306
51.7 123.823 306
51.61 123.749 308
51.6 123.749 308
51.51 123.674 310
51.5 123.674 310
51.41 123.6 312
51.4 123.6 312
51.31 123.526 314
51.3 123.526 314
52.21 125.409 296
52.2 125.409 296
52.11 125.333 298
52.1 125.333 298
52.01 125.257 300
52 125.257 300
51.91 125.181 302
51.9 125.181 302
51.81 125.105 304
51.8 125.105 304
51.71 125.028 306
51.7 125.028 306
51.61 124.952 308
51.6 124.952 308
51.51 124.876 310
51.5 124.876 310
51.41 124.8 312
51.4 124.8 312
51.31 124.724 314
51.3 124.724 314
52.21 126.624 296
52.2 126.624 296
52.11 126.546 298
52.1 126.546 298
52.01 126.468 300
52 126.468 300
51.91 126.39 302
51.9 126.39 302
51.81 126.312 304
51.8 126.312 304
51.71 126.234 306
51.7 126.234 306
51.61 126.156 308
51.6 126.156 308
51.51 126.078 310
51.5 126.078 310
51.41 126 312
51.4 126 312
51.91 127.599 302
51.9 127.599 302
51.81 127.519 304
51.8 127.519 304
51.71 127.439 306
51.7 127.439 306
51.61 127.36 308
51.6 127.36 308
51.51 127.28 310
51.5 127.28 310
51.41 127.2 312
51.4 127.2 312
52.46 118.121 296
52.36 118.056 298
52.26 117.991 300
52.16 117.926 302
52.06 117.861 304
51.96 117.795 306
51.86 117.73 308
51.76 117.665 310
51.66 117.6 312
51.56 117.535 314
52.46 119.336 296
52.36 119.269 298
52.26 119.202 300
52.16 119.135 302
52.06 119.068 304
51.96 119.001 306
51.86 118.934 308
51.76 118.867 310
51.66 118.8 312
51.56 118.733 314
52.46 120.55 296
52.36 120.482 298
52.26 120.413 300
52.16 120.344 302
52.06 120.275 304
51.96 120.206 306
51.86 120.138 308
51.76 120.069 310
51.66 120 312
51.56 119.931 314
52.46 121.765 296
52.36 121.694 298
52.26 121.624 300
52.16 121.553 302
52.06 121.483 304
51.96 121.412 306
51.86 121.341 308
51.76 121.271 310
51.66 121.2 312
51.56 121.129 314
52.46 122.98 296
52.36 122.907 298
52.26 122.835 300
52.16 122.762 302
52.06 122.69 304
51.96 122.617 306
51.86 122.545 308
51.76 122.472 310
51.66 122.4 312
51.56 122.328 314
52.46 124.194 296
52.36 124.12 298
52.26 124.046 300
52.16 123.972 302
52.06 123.897 304
51.96 123.823 306
51.86 123.749 308
51.76 123.674 310
51.66 123.6 312
51.56 123.526 314
52.46 125.409 296
52.36 125.333 298
52.26 125.257 300
52.16 125.181 302
52.06 125.105 304
51.96 125.028 306
51.86 124.952 308
51.76 124.876 310
51.66 124.8 312
51.56 124.724 314
52.46 126.624 296
52.36 126.546 298
52.26 126.468 300
52.16 126.39 302
52.06 126.312 304
51.96 126.234 306
51.86 126.156 308
51.76 126.078 310
51.66 126 312
52.16 127.599 302
52.06 127.519 304
51.96 127.439 306
51.86 127.36 308
51.76 127.28 310
51.66 127.2 312
52.71 118.121 296
52.61 118.056 298
52.51 117.991 300
52.41 117.926 302
52.31 117.861 304
52.21 117.795 306
52.11 117.73 308
52.01 117.665 310
51.91 117.6 312
51.81 117.535 314
52.71 119.336 296
52.61 119.269 298
52.51 119.202 300
52.41 119.135 302
52.31 119.068 304
52.21 119.001 306
52.11 118.934 308
52.01 118.867 310
51.91 118.8 312
51.81 118.733 314
52.71 120.55 296
52.61 120.482 298
52.51 120.413 300
52.41 120.344 302
52.31 120.275 304
52.21 120.206 306
52.11 120.138 308
52.01 120.069 310
51.91 120 312
51.81 119.931 314
52.71 121.765 296
52.61 121.694 298
52.51 121.624 300
52.41 121.553 302
52.31 121.483 304
52.21 121.412 306
52.11 121.341 308
52.01 121.271 310
51.91 121.2 312
51.81 121.129 314
52.71 122.98 296
52.61 122.907 298
52.51 122.835 300
52.41 122.762 302
52.31 122.69 304
52.21 122.617 306
52.11 122.545 308
52.01 122.472 310
51.91 122.4 312
51.81 122.328 314
52.71 124.194 296
52.61 124.12 298
52.51 124.046 300
52.41 123.972 302
52.31 123.897 304
52.21 123.823 306
52.11 123.749 308
52.01 123.674 310
51.91 123.6 312
51.81 123.526 314
52.71 125.409 296
52.61 125.333 298
52.51 125.257 300
52.41 125.181 302
52.31 125.105 304
52.21 125.028 306
52.11 124.952 308
52.01 124.876 310
51.91 124.8 312
51.81 124.724 314
52.71 126.624 296
52.61 126.546 298
52.51 126.468 300
52.41 126.39 302
52.31 126.312 304
52.21 126.234 306
52.11 126.156 308
52.01 126.078 310
51.91 126 312
52.41 127.599 302
52.31 127.519 304
52.21 127.439 306
52.11 127.36 308
52.01 127.28 310
51.91 127.2 312
52.96 118.121 296
52.86 118.056 298
52.76 117.991 300
52.66 117.926 302
52.56 117.861 304
52.46 117.795 306
52.36 117.73 308
52.26 117.665 310
52.16 117.6 312
52.06 117.535 314
52.96 119.336 296
52.86 119.269 298
52.76 119.202 300
52.66 119.135 302
52.56 119.068 304
52.46 119.001 306
52.36 118.934 308
52.26 118.867 310
52.16 118.8 312
52.06 118.733 314
53.06 120.619 294
52.96 120.55 296
52.86 120.482 298
52.76 120.413 300
52.66 120.344 302
52.56 120.275 304
52.46 120.206 306
52.36 120.138 308
52.26 120.069 310
52.16 120 312
52.06 119.931 314
53.06 121.836 294
52.96 121.765 296
52.86 121.694 298
52.76 121.624 300
52.66 121.553 302
52.56 121.483 304
52.46 121.412 306
52.36 121.341 308
52.26 121.271 310
52.16 121.2 312
52.06 121.129 314
53.06 123.052 294
52.96 122.98 296
52.86 122.907 298
52.76 122.835 300
52.66 122.762 302
52.56 122.69 304
52.46 122.617 306
52.36 122.545 308
52.26 122.472 310
52.16 122.4 312
52.06 122.328 314
53.06 124.269 294
52.96 124.194 296
52.86 124.12 298
52.76 124.046 300
52.66 123.972 302
52.56 123.897 304
52.46 123.823 306
52.36 123.749 308
52.26 123.674 310
52.16 123.6 312
52.06 123.526 314
52.96 125.409 296
52.86 125.333 298
52.76 125.257 300
52.66 125.181 302
52.56 125.105 304
52.46 125.028 306
52.36 124.952 308
52.26 124.876 310
52.16 124.8 312
52.06 124.724 314
52.96 126.624 296
52.86 126.546 298
52.76 126.468 300
52.66 126.39 302
52.56 126.312 304
52.46 126.234 306
52.36 126.156 308
52.26 126.078 310
52.16 126 312
52.66 127.599 302
52.56 127.519 304
52.46 127.439 306
52.36 127.36 308
52.26 127.28 310
52.16 127.2 312
53.21 118.121 296
53.11 118.056 298
53.01 117.991 300
52.91 117.926 302
52.81 117.861 304
52.71 117.795 306
52.61 117.73 308
52.51 117.665 310
52.41 117.6 312
52.31 117.535 314
53.21 119.336 296
53.11 119.269 298
53.01 119.202 300
52.91 119.135 302
52.81 119.068 304
52.71 119.001 306
52.61 118.934 308
52.51 118.867 310
52.41 118.8 312
52.31 118.733 314
53.31 120.619 294
53.21 120.55 296
53.11 120.482 298
53.01 120.413 300
52.91 120.344 302
52.81 120.275 304
52.71 120.206 306
52.61 120.138 308
52.51 120.069 310
52.41 120 312
52.31 119.931 314
53.31 121.836 294
53.21 121.765 296
53.11 121.694 298
53.01 121.624 300
52.91 121.553 302
52.81 121.483 304
52.71 121.412 306
52.61 121.341 308
52.51 121.271 310
52.41 121.2 312
52.31 121.129 314
53.31 123.052 294
53.21 122.98 296
53.11 122.907 298
53.01 122.835 300
52.91 122.762 302
52.81 122.69 304
52.71 122.617 306
52.61 122.545 308
52.51 122.472 310
52.41 122.4 312
52.31 122.328 314
53.31 124.269 294
53.21 124.194 296
53.11 124.12 298
53.01 124.046 300
52.91 123.972 302
52.81 123.897 304
52.71 123.823 306
52.61 123.749 308
52.51 123.674 310
52.41 123.6 312
52.31 123.526 314
53.21 125.409 296
53.11 125.333 298
53.01 125.257 300
52.91 125.181 302
52.81 125.105 304
52.71 125.028 306
52.61 124.952 308
52.51 124.876 310
52.41 124.8 312
52.31 124.724 314
53.21 126.624 296
53.11 126.546 298
53.01 126.468 300
52.91 126.39 302
52.81 126.312 304
52.71 126.234 306
52.61 126.156 308
52.51 126.078 310
52.41 126 312
52.91 127.599 302
52.81 127.519 304
52.71 127.439 306
52.61 127.36 308
52.51 127.28 310
52.41 127.2 312
53.46 118.121 296
53.36 118.056 298
53.26 117.991 300
53.16 117.926 302
53.06 117.861 304
52.96 117.795 306
52.86 117.73 308
52.76 117.665 310
52.66 117.6 312
52.56 117.535 314
53.46 119.336 296
53.36 119.269 298
53.26 119.202 300
53.16 119.135 302
53.06 119.068 304
52.96 119.001 306
52.86 118.934 308
52.76 118.867 310
52.66 118.8 312
52.56 118.733 314
53.56 120.619 294
53.46 120.55 296
53.36 120.482 298
53.26 120.413 300
53.16 120.344 302
53.06 120.275 304
52.96 120.206 306
52.86 120.138 308
52.76 120.069 310
52.66 120 312
52.56 119.931 314
53.56 121.836 294
53.46 121.765 296
53.36 121.694 298
53.26 121.624 300
53.16 121.553 302
53.06 121.483 304
52.96 121.412 306
52.86 121.341 308
52.76 121.271 310
52.66 121.2 312
52.56 121.129 314
53.56 123.052 294
53.46 122.98 296
53.36 122.907 298
53.26 122.835 300
53.16 122.762 302
53.06 122.69 304
52.96 122.617 306
52.86 122.545 308
52.76 122.472 310
52.66 122.4 312
52.56 122.328 314
53.56 124.269 294
53.46 124.194 296
53.36 124.12 298
53.26 124.046 300
53.16 123.972 302
53.06 123.897 304
52.96 123.823 306
52.86 123.749 308
52.76 123.674 310
52.66 123.6 312
52.56 123.526 314
53.46 125.409 296
53.36 125.333 298
53.26 125.257 300
53.16 125.181 302
53.06 125.105 304
52.96 125.028 306
52.86 124.952 308
52.76 124.876 310
52.66 124.8 312
52.56 124.724 314
53.46 126.624 296
53.36 126.546 298
53.26 126.468 300
53.16 126.39 302
53.06 126.312 304
52.96 126.234 306
52.86 126.156 308
52.76 126.078 310
52.66 126 312
53.16 127.599 302
53.06 127.519 304
52.96 127.439 306
52.86 127.36 308
52.76 127.28 310
52.66 127.2 312
53.71 118.121 296
53.61 118.056 298
53.51 117.991 300
53.41 117.926 302
53.31 117.861 304
53.21 117.795 306
53.11 117.73 308
53.01 117.665 310
52.91 117.6 312
52.81 117.535 314
53.71 119.336 296
53.61 119.269 298
53.51 119.202 300
53.41 119.135 302
53.31 119.068 304
53.21 119.001 306
53.11 118.934 308
53.01 118.867 310
52.91 118.8 312
52.81 118.733 314
53.81 120.619 294
53.71 120.55 296
53.61 120.482 298
53.51 120.413 300
53.41 120.344 302
53.31 120.275 304
53.21 120.206 306
53.11 120.138 308
53.01 120.069 310
52.91 120 312
52.81 119.931 314
53.81 121.836 294
53.71 121.765 296
53.61 121.694 298
53.51 121.624 300
53.41 121.553 302
53.31 121.483 304
53.21 121.412 306
53.11 121.341 308
53.01 121.271 310
52.91 121.2 312
52.81 121.129 314
53.81 123.052 294
53.71 122.98 296
53.61 122.907 298
53.51 122.835 300
53.41 122.762 302
53.31 122.69 304
53.21 122.617 306
53.11 122.545 308
53.01 122.472 310
52.91 122.4 312
52.81 122.328 314
53.81 124.269 294
53.71 124.194 296
53.61 124.12 298
53.51 124.046 300
53.41 123.972 302
53.31 123.897 304
53.21 123.823 306
53.11 123.749 308
53.01 123.674 310
52.91 123.6 312
52.81 123.526 314
53.71 125.409 296
53.61 125.333 298
53.51 125.257 300
53.41 125.181 302
53.31 125.105 304
53.21 125.028 306
53.11 124.952 308
53.01 124.876 310
52.91 124.8 312
52.81 124.724 314
53.71 126.624 296
53.61 126.546 298
53.51 126.468 300
53.41 126.39 302
53.31 126.312 304
53.21 126.234 306
53.11 126.156 308
53.01 126.078 310
52.91 126 312
53.41 127.599 302
53.31 127.519 304
53.21 127.439 306
53.11 127.36 308
53.01 127.28 310
52.91 127.2 312
53.96 118.121 296
53.86 118.056 298
53.76 117.991 300
53.66 117.926 302
53.56 117.861 304
53.46 117.795 306
53.36 117.73 308
53.26 117.665 310
53.16 117.6 312
53.06 117.535 314
53.96 119.336 296
53.86 119.269 298
53.76 119.202 300
53.66 119.135 302
53.56 119.068 304
53.46 119.001 306
53.36 118.934 308
53.26 118.867 310
53.16 118.8 312
53.06 118.733 314
54.06 120.619 294
53.96 120.55 296
53.86 120.482 298
53.76 120.413 300
53.66 120.344 302
53.56 120.275 304
53.46 120.206 306
53.36 120.138 308
53.26 120.069 310
53.16 120 312
53.06 119.931 314
54.06 121.836 294
53.96 121.765 296
53.86 121.694 298
53.76 121.624 300
53.66 121.553 302
53.56 121.483 304
53.46 121.412 306
53.36 121.341 308
53.26 121.271 310
53.16 121.2 312
53.06 121.129 314
54.06 123.052 294
53.96 122.98 296
53.86 122.907 298
53.76 122.835 300
53.66 122.762 302
53.56 122.69 304
53.46 122.617 306
53.36 122.545 308
53.26 122.472 310
53.16 122.4 312
53.06 122.328 314
54.06 124.269 294
53.96 124.194 296
53.86 124.12 298
53.76 124.046 300
53.66 123.972 302
53.56 123.897 304
53.46 123.823 306
53.36 123.749 308
53.26 123.674 310
53.16 123.6 312
53.06 123.526 314
53.96 125.409 296
53.86 125.333 298
53.76 125.257 300
53.66 125.181 302
53.56 125.105 304
53.46 125.028 306
53.36 124.952 308
53.26 124.876 310
53.16 124.8 312
53.06 124.724 314
53.96 126.624 296
53.86 126.546 298
53.76 126.468 300
53.66 126.39 302
53.56 126.312 304
53.46 126.234 306
53.36 126.156 308
53.26 126.078 310
53.16 126 312
53.66 127.599 302
53.56 127.519 304
53.46 127.439 306
53.36 127.36 308
53.26 127.28 310
53.16 127.2 312
54.21 118.121 296
54.11 118.056 298
54.01 117.991 300
53.91 117.926 302
53.81 117.861 304
53.71 117.795 306
53.61 117.73 308
53.51 117.665 310
53.41 117.6 312
53.31 117.535 314
54.21 119.336 296
54.11 119.269 298
54.01 119.202 300
53.91 119.135 302
53.81 119.068 304
53.71 119.001 306
53.61 118.934 308
53.51 118.867 310
53.41 118.8 312
53.31 118.733 314
54.31 120.619 294
54.21 120.55 296
54.11 120.482 298
54.01 120.413 300
53.91 120.344 302
53.81 120.275 304
53.71 120.206 306
53.61 120.138 308
53.51 120.069 310
53.41 120 312
53.31 119.931 314
54.31 121.836 294
54.21 121.765 296
54.11 121.694 298
54.01 121.624 300
53.91 121.553 302
53.81 121.483 304
53.71 121.412 306
53.61 121.341 308
53.51 121.271 310
53.41 121.2 312
53.31 121.129 314
54.31 123.052 294
54.21 122.98 296
54.11 122.907 298
54.01 122.835 300
53.91 122.762 302
53.81 122.69 304
53.71 122.617 306
53.61 122.545 308
53.51 122.472 310
53.41 122.4 312
53.31 122.328 314
54.31 124.269 294
54.21 124.194 296
54.11 124.12 298
54.01 124.046 300
53.91 123.972 302
53.81 123.897 304
53.71 123.823 306
53.61 123.749 308
53.51 123.674 310
53.41 123.6 312
53.31 123.526 314
54.21 125.409 296
54.11 125.333 298
54.01 125.257 300
53.91 125.181 302
53.81 125.105 304
53.71 125.028 306
53.61 124.952 308
53.51 124.876 310
53.41 124.8 312
53.31 124.724 314
54.21 126.624 296
54.11 126.546 298
54.01 126.468 300
53.91 126.39 302
53.81 126.312 304
53.71 126.234 306
53.61 126.156 308
53.51 126.078 310
53.41 126 312
53.91 127.599 302
53.81 127.519 304
53.71 127.439 306
53.61 127.36 308
53.51 127.28 310
53.41 127.2 312
54.46 118.121 296
54.36 118.056 298
54.26 117.991 300
54.16 117.926 302
54.06 117.861 304
53.96 117.795 306
53.86 117.73 308
53.76 117.665 310
53.66 117.6 312
53.56 117.535 314
54.46 119.336 296
54.36 119.269 298
54.26 119.202 300
54.16 119.135 302
54.06 119.068 304
53.96 119.001 306
53.86 118.934 308
53.76 118.867 310
53.66 118.8 312
53.56 118.733 314
54.56 120.619 294
54.46 120.55 296
54.36 120.482 298
54.26 120.413 300
54.16 120.344 302
54.06 120.275 304
53.96 120.206 306
53.86 120.138 308
53.76 120.069 310
53.66 120 312
53.56 119.931 314
54.56 121.836 294
54.46 121.765 296
54.36 121.694 298
54.26 121.624 300
54.16 121.553 302
54.06 121.483 304
53.96 121.412 306
53.86 121.341 308
53.76 121.271 310
53.66 121.2 312
53.56 121.129 314
54.56 123.052 294
54.46 122.98 296
54.36 122.907 298
54.26 122.835 300
54.16 122.762 302
54.06 122.69 304
53.96 122.617 306
53.86 122.545 308
53.76 122.472 310
53.66 122.4 312
53.56 122.328 314
54.56 124.269 294
54.46 124.194 296
54.36 124.12 298
54.26 124.046 300
54.16 123.972 302
54.06 123.897 304
53.96 123.823 306
53.86 123.749 308
53.76 123.674 310
53.66 123.6 312
53.56 123.526 314
54.46 125.409 296
54.36 125.333 298
54.26 125.257 300
54.16 125.181 302
54.06 125.105 304
53.96 125.028 306
53.86 124.952 308
53.76 124.876 310
53.66 124.8 312
53.56 124.724 314
54.46 126.624 296
54.36 126.546 298
54.26 126.468 300
54.16 126.39 302
54.06 126.312 304
53.96 126.234 306
53.86 126.156 308
53.76 126.078 310
53.66 126 312
54.16 127.599 302
54.06 127.519 304
53.96 127.439 306
53.86 127.36 308
53.76 127.28 310
53.66 127.2 312
54.47 118.121 296
54.37 118.056 298
54.27 117.991 300
54.17 117.926 302
54.07 117.861 304
53.97 117.795 306
53.87 117.73 308
53.77 117.665 310
53.67 117.6 312
53.57 117.535 314
54.47 119.336 296
54.37 119.269 298
54.27 119.202 300
54.17 119.135 302
54.07 119.068 304
53.97 119.001 306
53.87 118.934 308
53.77 118.867 310
53.67 118.8 312
53.57 118.733 314
54.57 120.619 294
54.47 120.55 296
54.37 120.482 298
54.27 120.413 300
54.17 120.344 302
54.07 120.275 304
53.97 120.206 306
53.87 120.138 308
53.77 120.069 310
53.67 120 312
53.57 119.931 314
54.57 121.836 294
54.47 121.765 296
54.37 121.694 298
54.27 121.624 300
54.17 121.553 302
54.07 121.483 304
53.97 121.412 306
53.87 121.341 308
53.77 121.271 310
53.67 121.2 312
53.57 121.129 314
54.57 123.052 294
54.47 122.98 296
54.37 122.907 298
54.27 122.835 300
54.17 122.762 302
54.07 122.69 304
53.97 122.617 306
53.87 122.545 308
53.77 122.472 310
53.67 122.4 312
53.57 122.328 314
54.57 124.269 294
54.47 124.194 296
54.37 124.12 298
54.27 124.046 300
54.17 123.972 302
54.07 123.897 304
53.97 123.823 306
53.87 123.749 308
53.77 123.674 310
53.67 123.6 312
53.57 123.526 314
54.47 125.409 296
54.37 125.333 298
54.27 125.257 300
54.17 125.181 302
54.07 125.105 304
53.97 125.028 306
53.87 124.952 308
53.77 124.876 310
53.67 124.8 312
53.57 124.724 314
54.47 126.624 296
54.37 126.546 298
54.27 126.468 300
54.17 126.39 302
54.07 126.312 304
53.97 126.234 306
53.87 126.156 308
53.77 126.078 310
53.67 126 312
54.17 127.599 302
54.07 127.519 304
53.97 127.439 306
53.87 127.36 308
53.77 127.28 310
53.67 127.2 312
54.72 118.121 296
54.62 118.056 298
54.52 117.991 300
54.42 117.926 302
54.32 117.861 304
54.22 117.795 306
54.12 117.73 308
54.02 117.665 310
53.92 117.6 312
53.82 117.535 314
54.72 119.336 296
54.62 119.269 298
54.52 119.202 300
54.42 119.135 302
54.32 119.068 304
54.22 119.001 306
54.12 118.934 308
54.02 118.867 310
53.92 118.8 312
53.82 118.733 314
54.82 120.619 294
54.72 120.55 296
54.62 120.482 298
54.52 120.413 300
54.42 120.344 302
54.32 120.275 304
54.22 120.206 306
54.12 120.138 308
54.02 120.069 310
53.92 120 312
53.82 119.931 314
54.82 121.836 294
54.72 121.765 296
54.62 121.694 298
54.52 121.624 300
54.42 121.553 302
54.32 121.483 304
54.22 121.412 306
54.12 121.341 308
54.02 121.271 310
53.92 121.2 312
53.82 121.129 314
54.82 123.052 294
54.72 122.98 296
54.62 122.907 298
54.52 122.835 300
54.42 122.762 302
54.32 122.69 304
54.22 122.617 306
54.12 122.545 308
54.02 122.472 310
53.92 122.4 312
53.82 122.328 314
54.82 124.269 294
54.72 124.194 296
54.62 124.12 298
54.52 124.046 300
54.42 123.972 302
54.32 123.897 304
54.22 123.823 306
54.12 123.749 308
54.02 123.674 310
53.92 123.6 312
53.82 123.526 314
54.72 125.409 296
54.62 125.333 298
54.52 125.257 300
54.42 125.181 302
54.32 125.105 304
54.22 125.028 306
54.12 124.952 308
54.02 124.876 310
53.92 124.8 312
53.82 124.724 314
54.72 126.624 296
54.62 126.546 298
54.52 126.468 300
54.42 126.39 302
54.32 126.312 304
54.22 126.234 306
54.12 126.156 308
54.02 126.078 310
53.92 126 312
54.42 127.599 302
54.32 127.519 304
54.22 127.439 306
54.12 127.36 308
54.02 127.28 310
53.92 127.2 312
54.97 118.121 296
54.87 118.056 298
54.77 117.991 300
54.67 117.926 302
54.57 117.861 304
54.47 117.795 306
54.37 117.73 308
54.27 117.665 310
54.17 117.6 312
54.07 117.535 314
54.97 119.336 296
54.87 119.269 298
54.77 119.202 300
54.67 119.135 302
54.57 119.068 304
54.47 119.001 306
54.37 118.934 308
54.27 118.867 310
54.17 118.8 312
54.07 118.733 314
55.07 120.619 294
54.97 120.55 296
54.87 120.482 298
54.77 120.413 300
54.67 120.344 302
54.57 120.275 304
54.47 120.206 306
54.37 120.138 308
54.27 120.069 310
54.17 120 312
54.07 119.931 314
55.07 121.836 294
54.97 121.765 296
54.87 121.694 298
54.77 121.624 300
54.67 121.553 302
54.57 121.483 304
54.47 121.412 306
54.37 121.341 308
54.27 121.271 310
54.17 121.2 312
54.07 121.129 314
55.07 123.052 294
54.97 122.98 296
54.87 122.907 298
54.77 122.835 300
54.67 122.762 302
54.57 122.69 304
54.47 122.617 306
54.37 122.545 308
54.27 122.472 310
54.17 122.4 312
54.07 122.328 314
55.07 124.269 294
54.97 124.194 296
54.87 124.12 298
54.77 124.046 300
54.67 123.972 302
54.57 123.897 304
54.47 123.823 306
54.37 123.749 308
54.27 123.674 310
54.17 123.6 312
54.07 123.526 314
54.97 125.409 296
54.87 125.333 298
54.77 125.257 300
54.67 125.181 302
54.57 125.105 304
54.47 125.028 306
54.37 124.952 308
54.27 124.876 310
54.17 124.8 312
54.07 124.724 314
54.97 126.624 296
54.87 126.546 298
54.77 126.468 300
54.67 126.39 302
54.57 126.312 304
54.47 126.234 306
54.37 126.156 308
54.27 126.078 310
54.17 126 312
54.67 127.599 302
54.57 127.519 304
54.47 127.439 306
54.37 127.36 308
54.27 127.28 310
54.17 127.2 312
55.22 118.121 296
55.12 118.056 298
55.02 117.991 300
54.92 117.926 302
54.82 117.861 304
54.72 117.795 306
54.62 117.73 308
54.52 117.665 310
54.42 117.6 312
54.32 117.535 314
55.22 119.336 296
55.12 119.269 298
55.02 119.202 300
54.92 119.135 302
54.82 119.068 304
54.72 119.001 306
54.62 118.934 308
54.52 118.867 310
54.42 118.8 312
54.32 118.733 314
55.32 120.619 294
55.22 120.55 296
55.12 120.482 298
55.02 120.413 300
54.92 120.344 302
54.82 120.275 304
54.72 120.206 306
54.62 120.138 308
54.52 120.069 310
54.42 120 312
54.32 119.931 314
55.32 121.836 294
55.22 121.765 296
55.12 121.694 298
55.02 121.624 300
54.92 121.553 302
54.82 121.483 304
54.72 121.412 306
54.62 121.341 308
54.52 121.271 310
54.42 121.2 312
54.32 121.129 314
55.32 123.052 294
55.22 122.98 296
55.12 122.907 298
55.02 122.835 300
54.92 122.762 302
54.82 122.69 304
54.72 122.617 306
54.62 122.545 308
54.52 122.472 310
54.42 122.4 312
54.32 122.328 314
55.32 124.269 294
55.22 124.194 296
55.12 124.12 298
55.02 124.046 300
54.92 123.972 302
54.82 123.897 304
54.72 123.823 306
54.62 123.749 308
54.52 123.674 310
54.42 123.6 312
54.32 123.526 314
55.22 125.409 296
55.12 125.333 298
55.02 125.257 300
54.92 125.181 302
54.82 125.105 304
54.72 125.028 306
54.62 124.952 308
54.52 124.876 310
54.42 124.8 312
54.32 124.724 314
55.22 126.624 296
55.12 126.546 298
55.02 126.468 300
54.92 126.39 302
54.82 126.312 304
54.72 126.234 306
54.62 126.156 308
54.52 126.078 310
54.42 126 312
54.92 127.599 302
54.82 127.519 304
54.72 127.439 306
54.62 127.36 308
54.52 127.28 310
54.42 127.2 312
55.47 118.121 296
55.37 118.056 298
55.27 117.991 300
55.17 117.926 302
55.07 117.861 304
54.97 117.795 306
54.87 117.73 308
54.77 117.665 310
54.67 117.6 312
54.57 117.535 314
55.47 119.336 296
55.37 119.269 298
55.27 119.202 300
55.17 119.135 302
55.07 119.068 304
54.97 119.001 306
54.87 118.934 308
54.77 118.867 310
54.67 118.8 312
54.57 118.733 314
55.57 120.619 294
55.47 120.55 296
55.37 120.482 298
55.27 120.413 300
55.17 120.344 302
55.07 120.275 304
54.97 120.206 306
54.87 120.138 308
54.77 120.069 310
54.67 120 312
54.57 119.931 314
55.57 121.836 294
55.47 121.765 296
55.37 121.694 298
55.27 121.624 300
55.17 121.553 302
55.07 121.483 304
54.97 121.412 306
54.87 121.341 308
54.77 121.271 310
54.67 121.2 312
54.57 121.129 314
55.57 123.052 294
55.47 122.98 296
55.37 122.907 298
55.27 122.835 300
55.17 122.762 302
55.07 122.69 304
54.97 122.617 306
54.87 122.545 308
54.77 122.472 310
54.67 122.4 312
54.57 122.328 314
55.57 124.269 294
55.47 124.194 296
55.37 124.12 298
55.27 124.046 300
55.17 123.972 302
55.07 123.897 304
54.97 123.823 306
54.87 123.749 308
54.77 123.674 310
54.67 123.6 312
54.57 123.526 314
55.47 125.409 296
55.37 125.333 298
55.27 125.257 300
55.17 125.181 302
55.07 125.105 304
54.97 125.028 306
54.87 124.952 308
54.77 124.876 310
54.67 124.8 312
54.57 124.724 314
55.47 126.624 296
55.37 126.546 298
55.27 126.468 300
55.17 126.39 302
55.07 126.312 304
54.97 126.234 306
54.87 126.156 308
54.77 126.078 310
54.67 126 312
55.17 127.599 302
55.07 127.519 304
54.97 127.439 306
54.87 127.36 308
54.77 127.28 310
54.67 127.2 312
55.72 118.121 296
55.62 118.056 298
55.52 117.991 300
55.42 117.926 302
55.32 117.861 304
55.22 117.795 306
55.12 117.73 308
55.02 117.665 310
54.92 117.6 312
54.82 117.535 314
55.72 119.336 296
55.62 119.269 298
55.52 119.202 300
55.42 119.135 302
55.32 119.068 304
55.22 119.001 306
55.12 118.934 308
55.02 118.867 310
54.92 118.8 312
54.82 118.733 314
55.82 120.619 294
55.72 120.55 296
55.62 120.482 298
55.52 120.413 300
55.42 120.344 302
55.32 120.275 304
55.22 120.206 306
55.12 120.138 308
55.02 120.069 310
54.92 120 312
54.82 119.931 314
55.82 121.836 294
55.72 121.765 296
55.62 121.694 298
55.52 121.624 300
55.42 121.553 302
55.32 121.483 304
55.22 121.412 306
55.12 121.341 308
55.02 121.271 310
54.92 121.2 312
54.82 121.129 314
55.82 123.052 294
55.72 122.98 296
55.62 122.907 298
55.52 122.835 300
55.42 122.762 302
55.32 122.69 304
55.22 122.617 306
55.12 122.545 308
55.02 122.472 310
54.92 122.4 312
54.82 122.328 314
55.82 124.269 294
55.72 124.194 296
55.62 124.12 298
55.52 124.046 300
55.42 123.972 302
55.32 123.897 304
55.22 123.823 306
55.12 123.749 308
55.02 123.674 310
54.92 123.6 312
54.82 123.526 314
55.72 125.409 296
55.62 125.333 298
55.52 125.257 300
55.42 125.181 302
55.32 125.105 304
55.22 125.028 306
55.12 124.952 308
55.02 124.876 310
54.92 124.8 312
54.82 124.724 314
55.72 126.624 296
55.62 126.546 298
55.52 126.468 300
55.42 126.39 302
55.32 126.312 304
55.22 126.234 306
55.12 126.156 308
55.02 126.078 310
54.92 126 312
55.42 127.599 302
55.32 127.519 304
55.22 127.439 306
55.12 127.36 308
55.02 127.28 310
54.92 127.2 312
55.97 118.121 296
55.87 118.056 298
55.77 117.991 300
55.67 117.926 302
55.57 117.861 304
55.47 117.795 306
55.37 117.73 308
55.27 117.665 310
55.17 117.6 312
55.07 117.535 314
55.97 119.336 296
55.87 119.269 298
55.77 119.202 300
55.67 119.135 302
55.57 119.068 304
55.47 119.001 306
55.37 118.934 308
55.27 118.867 310
55.17 118.8 312
55.07 118.733 314
56.07 120.619 294
55.97 120.55 296
55.87 120.482 298
55.77 120.413 300
55.67 120.344 302
55.57 120.275 304
55.47 120.206 306
55.37 120.138 308
55.27 120.069 310
55.17 120 312
55.07 119.931 314
56.07 121.836 294
55.97 121.765 296
55.87 121.694 298
55.77 121.624 300
55.67 121.553 302
55.57 121.483 304
55.47 121.412 306
55.37 121.341 308
55.27 121.271 310
55.17 121.2 312
55.07 121.129 314
56.07 123.052 294
55.97 122.98 296
55.87 122.907 298
55.77 122.835 300
55.67 122.762 302
55.57 122.69 304
55.47 122.617 306
55.37 122.545 308
55.27 122.472 310
55.17 122.4 312
55.07 122.328 314
56.07 124.269 294
55.97 124.194 296
55.87 124.12 298
55.77 124.046 300
55.67 123.972 302
55.57 123.897 304
55.47 123.823 306
55.37 123.749 308
55.27 123.674 310
55.17 123.6 312
55.07 123.526 314
55.97 125.409 296
55.87 125.333 298
55.77 125.257 300
55.67 125.181 302
55.57 125.105 304
55.47 125.028 306
55.37 124.952 308
55.27 124.876 310
55.17 124.8 312
55.07 124.724 314
55.97 126.624 296
55.87 126.546 298
55.77 126.468 300
55.67 126.39 302
55.57 126.312 304
55.47 126.234 306
55.37 126.156 308
55.27 126.078 310
55.17 126 312
55.67 127.599 302
55.57 127.519 304
55.47 127.439 306
55.37 127.36 308
55.27 127.28 310
55.17 127.2 312
56.22 118.121 296
56.12 118.056 298
56.02 117.991 300
55.92 117.926 302
55.82 117.861 304
55.72 117.795 306
55.62 117.73 308
55.52 117.665 310
55.42 117.6 312
55.32 117.535 314
56.22 119.336 296
56.12 119.269 298
56.02 119.202 300
55.92 119.135 302
55.82 119.068 304
55.72 119.001 306
55.62 118.934 308
55.52 118.867 310
55.42 118.8 312
55.32 118.733 314
56.32 120.619 294
56.22 120.55 296
56.12 120.482 298
56.02 120.413 300
55.92 120.344 302
55.82 120.275 304
55.72 120.206 306
55.62 120.138 308
55.52 120.069 310
55.42 120 312
55.32 119.931 314
56.32 121.836 294
56.22 121.765 296
56.12 121.694 298
56.02 121.624 300
55.92 121.553 302
55.82 121.483 304
55.72 121.412 306
55.62 121.341 308
55.52 121.271 310
55.42 121.2 312
55.32 121.129 314
56.32 123.052 294
56.22 122.98 296
56.12 122.907 298
56.02 122.835 300
55.92 122.762 302
55.82 122.69 304
55.72 122.617 306
55.62 122.545 308
55.52 122.472 310
55.42 122.4 312
55.32 122.328 314
56.32 124.269 294
56.22 124.194 296
56.12 124.12 298
56.02 124.046 300
55.92 123.972 302
55.82 123.897 304
55.72 123.823 306
55.62 123.749 308
55.52 123.674 310
55.42 123.6 312
55.32 123.526 314
56.22 125.409 296
56.12 125.333 298
56.02 125.257 300
55.92 125.181 302
55.82 125.105 304
55.72 125.028 306
55.62 124.952 308
55.52 124.876 310
55.42 124.8 312
55.32 124.724 314
56.22 126.624 296
56.12 126.546 298
56.02 126.468 300
55.92 126.39 302
55.82 126.312 304
55.72 126.234 306
55.62 126.156 308
55.52 126.078 310
55.42 126 312
55.92 127.599 302
55.82 127.519 304
55.72 127.439 306
55.62 127.36 308
55.52 127.28 310
55.42 127.2 312
56.23 118.121 296
56.13 118.056 298
56.03 117.991 300
55.93 117.926 302
55.83 117.861 304
55.73 117.795 306
55.63 117.73 308
55.53 117.665 310
55.43 117.6 312
55.33 117.535 314
56.23 119.336 296
56.13 119.269 298
56.03 119.202 300
55.93 119.135 302
55.83 119.068 304
55.73 119.001 306
55.63 118.934 308
55.53 118.867 310
55.43 118.8 312
55.33 118.733 314
56.33 120.619 294
56.23 120.55 296
56.13 120.482 298
56.03 120.413 300
55.93 120.344 302
55.83 120.275 304
55.73 120.206 306
55.63 120.138 308
55.53 120.069 310
55.43 120 312
55.33 119.931 314
56.33 121.836 294
56.23 121.765 296
56.13 121.694 298
56.03 121.624 300
55.93 121.553 302
55.83 121.483 304
55.73 121.412 306
55.63 121.341 308
55.53 121.271 310
55.43 121.2 312
55.33 121.129 314
56.33 123.052 294
56.23 122.98 296
56.13 122.907 298
56.03 122.835 300
55.93 122.762 302
55.83 122.69 304
55.73 122.617 306
55.63 122.545 308
55.53 122.472 310
55.43 122.4 312
55.33 122.328 314
56.33 124.269 294
56.23 124.194 296
56.13 124.12 298
56.03 124.046 300
55.93 123.972 302
55.83 123.897 304
55.73 123.823 306
55.63 123.749 308
55.53 123.674 310
55.43 123.6 312
55.33 123.526 314
56.23 125.409 296
56.13 125.333 298
56.03 125.257 300
55.93 125.181 302
55.83 125.105 304
55.73 125.028 306
55.63 124.952 308
55.53 124.876 310
55.43 124.8 312
55.33 124.724 314
56.23 126.624 296
56.13 126.546 298
56.03 126.468 300
55.93 126.39 302
55.83 126.312 304
55.73 126.234 306
55.63 126.156 308
55.53 126.078 310
55.43 126 312
55.93 127.599 302
55.83 127.519 304
55.73 127.439 306
55.63 127.36 308
55.53 127.28 310
55.43 127.2 312
56.48 118.121 296
56.38 118.056 298
56.28 117.991 300
56.18 117.926 302
56.08 117.861 304
55.98 117.795 306
55.88 117.73 308
55.78 117.665 310
55.68 117.6 312
55.58 117.535 314
56.48 119.336 296
56.38 119.269 298
56.28 119.202 300
56.18 119.135 302
56.08 119.068 304
55.98 119.001 306
55.88 118.934 308
55.78 118.867 310
55.68 118.8 312
55.58 118.733 314
56.58 120.619 294
56.48 120.55 296
56.38 120.482 298
56.28 120.413 300
56.18 120.344 302
56.08 120.275 304
55.98 120.206 306
55.88 120.138 308
55.78 120.069 310
55.68 120 312
55.58 119.931 314
56.58 121.836 294
56.48 121.765 296
56.38 121.694 298
56.28 121.624 300
56.18 121.553 302
56.08 121.483 304
55.98 121.412 306
55.88 121.341 308
55.78 121.271 310
55.68 121.2 312
55.58 121.129 314
56.58 123.052 294
56.48 122.98 296
56.38 122.907 298
56.28 122.835 300
56.18 122.762 302
56.08 122.69 304
55.98 122.617 306
55.88 122.545 308
55.78 122.472 310
55.68 122.4 312
55.58 122.328 314
56.58 124.269 294
56.48 124.194 296
56.38 124.12 298
56.28 124.046 300
56.18 123.972 302
56.08 123.897 304
55.98 123.823 306
55.88 123.749 308
55.78 123.674 310
55.68 123.6 312
55.58 123.526 314
56.48 125.409 296
56.38 125.333 298
56.28 125.257 300
56.18 125.181 302
56.08 125.105 304
55.98 125.028 306
55.88 124.952 308
55.78 124.876 310
55.68 124.8 312
55.58 124.724 314
56.48 126.624 296
56.38 126.546 298
56.28 126.468 300
56.18 126.39 302
56.08 126.312 304
55.98 126.234 306
55.88 126.156 308
55.78 126.078 310
55.68 126 312
56.18 127.599 302
56.08 127.519 304
55.98 127.439 306
55.88 127.36 308
55.78 127.28 310
55.68 127.2 312
56.49 118.121 296
56.39 118.056 298
56.29 117.991 300
56.19 117.926 302
56.09 117.861 304
55.99 117.795 306
55.89 117.73 308
55.79 117.665 310
55.69 117.6 312
55.59 117.535 314
56.49 119.336 296
56.39 119.269 298
56.29 119.202 300
56.19 119.135 302
56.09 119.068 304
55.99 119.001 306
55.89 118.934 308
55.79 118.867 310
55.69 118.8 312
55.59 118.733 314
56.59 120.619 294
56.49 120.55 296
56.39 120.482 298
56.29 120.413 300
56.19 120.344 302
56.09 120.275 304
55.99 120.206 306
55.89 120.138 308
55.79 120.069 310
55.69 120 312
55.59 119.931 314
56.59 121.836 294
56.49 121.765 296
56.39 121.694 298
56.29 121.624 300
56.19 121.553 302
56.09 121.483 304
55.99 121.412 306
55.89 121.341 308
55.79 121.271 310
55.69 121.2 312
55.59 121.129 314
56.59 123.052 294
56.49 122.98 296
56.39 122.907 298
56.29 122.835 300
56.19 122.762 302
56.09 122.69 304
55.99 122.617 306
55.89 122.545 308
55.79 122.472 310
55.69 122.4 312
55.59 122.328 314
56.59 124.269 294
56.49 124.194 296
56.39 124.12 298
56.29 124.046 300
56.19 123.972 302
56.09 123.897 304
55.99 123.823 306
55.89 123.749 308
55.79 123.674 310
55.69 123.6 312
55.59 123.526 314
56.49 125.409 296
56.39 125.333 298
56.29 125.257 300
56.19 125.181 302
56.09 125.105 304
55.99 125.028 306
55.89 124.952 308
55.79 124.876 310
55.69 124.8 312
55.59 124.724 314
56.49 126.624 296
56.39 126.546 298
56.29 126.468 300
56.19 126.39 302
56.09 126.312 304
55.99 126.234 306
55.89 126.156 308
55.79 126.078 310
55.69 126 312
56.19 127.599 302
56.09 127.519 304
55.99 127.439 306
55.89 127.36 308
55.79 127.28 310
55.69 127.2 312
56.74 118.121 296
56.64 118.056 298
56.54 117.991 300
56.44 117.926 302
56.34 117.861 304
56.24 117.795 306
56.14 117.73 308
56.04 117.665 310
55.94 117.6 312
55.84 117.535 314
56.74 119.336 296
56.64 119.269 298
56.54 119.202 300
56.44 119.135 302
56.34 119.068 304
56.24 119.001 306
56.14 118.934 308
56.04 118.867 310
55.94 118.8 312
55.84 118.733 314
56.84 120.619 294
56.74 120.55 296
56.64 120.482 298
56.54 120.413 300
56.44 120.344 302
56.34 120.275 304
56.24 120.206 306
56.14 120.138 308
56.04 120.069 310
55.94 120 312
55.84 119.931 314
56.84 121.836 294
56.74 121.765 296
56.64 121.694 298
56.54 121.624 300
56.44 121.553 302
56.34 121.483 304
56.24 121.412 306
56.14 121.341 308
56.04 121.271 310
55.94 121.2 312
55.84 121.129 314
56.84 123.052 294
56.74 122.98 296
56.64 122.907 298
56.54 122.835 300
56.44 122.762 302
56.34 122.69 304
56.24 122.617 306
56.14 122.545 308
56.04 122.472 310
55.94 122.4 312
55.84 122.328 314
56.84 124.269 294
56.74 124.194 296
56.64 124.12 298
56.54 124.046 300
56.44 123.972 302
56.34 123.897 304
56.24 123.823 306
56.14 123.749 308
56.04 123.674 310
55.94 123.6 312
55.84 123.526 314
56.74 125.409 296
56.64 125.333 298
56.54 125.257 300
56.44 125.181 302
56.34 125.105 304
56.24 125.028 306
56.14 124.952 308
56.04 124.876 310
55.94 124.8 312
55.84 124.724 314
56.74 126.624 296
56.64 126.546 298
56.54 126.468 300
56.44 126.39 302
56.34 126.312 304
56.24 126.234 306
56.14 126.156 308
56.04 126.078 310
55.94 126 312
56.44 127.599 302
56.34 127.519 304
56.24 127.439 306
56.14 127.36 308
56.04 127.28 310
55.94 127.2 312
56.99 118.121 296
56.89 118.056 298
56.79 117.991 300
56.69 117.926 302
56.59 117.861 304
56.49 117.795 306
56.39 117.73 308
56.29 117.665 310
56.19 117.6 312
56.09 117.535 314
56.99 119.336 296
56.89 119.269 298
56.79 119.202 300
56.69 119.135 302
56.59 119.068 304
56.49 119.001 306
56.39 118.934 308
56.29 118.867 310
56.19 118.8 312
56.09 118.733 314
57.09 120.619 294
56.99 120.55 296
56.89 120.482 298
56.79 120.413 300
56.69 120.344 302
56.59 120.275 304
56.49 120.206 306
56.39 120.138 308
56.29 120.069 310
56.19 120 312
56.09 119.931 314
57.09 121.836 294
56.99 121.765 296
56.89 121.694 298
56.79 121.624 300
56.69 121.553 302
56.59 121.483 304
56.49 121.412 306
56.39 121.341 308
56.29 121.271 310
56.19 121.2 312
56.09 121.129 314
57.09 123.052 294
56.99 122.98 296
56.89 122.907 298
56.79 122.835 300
56.69 122.762 302
56.59 122.69 304
56.49 122.617 306
56.39 122.545 308
56.29 122.472 310
56.19 122.4 312
56.09 122.328 314
57.09 124.269 294
56.99 124.194 296
56.89 124.12 298
56.79 124.046 300
56.69 123.972 302
56.59 123.897 304
56.49 123.823 306
56.39 123.749 308
56.29 123.674 310
56.19 123.6 312
56.09 123.526 314
56.99 125.409 296
56.89 125.333 298
56.79 125.257 300
56.69 125.181 302
56.59 125.105 304
56.49 125.028 306
56.39 124.952 308
56.29 124.876 310
56.19 124.8 312
56.09 124.724 314
56.99 126.624 296
56.89 126.546 298
56.79 126.468 300
56.69 126.39 302
56.59 126.312 304
56.49 126.234 306
56.39 126.156 308
56.29 126.078 310
56.19 126 312
56.69 127.599 302
56.59 127.519 304
56.49 127.439 306
56.39 127.36 308
56.29 127.28 310
56.19 127.2 312
51.2 116.906 296
51.1 116.843 298
51 116.78 300
50.9 116.717 302
50.8 116.653 304
50.7 116.59 306
50.6 116.527 308
50.5 116.463 310
50.4 116.4 312
57.24 116.906 296
57.14 116.843 298
57.04 116.78 300
56.94 116.717 302
56.84 116.653 304
56.74 116.59 306
56.64 116.527 308
56.54 116.463 310
56.44 116.4 312
51.45 116.906 296
51.35 116.843 298
51.25 116.78 300
51.15 116.717 302
51.05 116.653 304
50.95 116.59 306
50.85 116.527 308
50.75 116.463 310
50.65 116.4 312
51.95 116.906 296
51.7 116.906 296
51.85 116.843 298
51.6 116.843 298
51.75 116.78 300
51.5 116.78 300
51.65 116.717 302
51.4 116.717 302
51.55 116.653 304
51.3 116.653 304
51.45 116.59 306
51.2 116.59 306
51.35 116.527 308
51.1 116.527 308
51.25 116.463 310
51 116.463 310
51.15 116.4 312
50.9 116.4 312
52.21 116.906 296
52.2 116.906 296
52.11 116.843 298
52.1 116.843 298
52.01 116.78 300
52 116.78 300
51.91 116.717 302
51.9 116.717 302
51.81 116.653 304
51.8 116.653 304
51.71 116.59 306
51.7 116.59 306
51.61 116.527 308
51.6 116.527 308
51.51 116.463 310
51.5 116.463 310
51.41 116.4 312
51.4 116.4 312
52.46 116.906 296
52.36 116.843 298
52.26 116.78 300
52.16 116.717 302
52.06 116.653 304
51.96 116.59 306
51.86 116.527 308
51.76 116.463 310
51.66 116.4 312
52.71 116.906 296
52.61 116.843 298
52.51 116.78 300
52.41 116.717 302
52.31 116.653 304
52.21 116.59 306
52.11 116.527 308
52.01 116.463 310
51.91 116.4 312
52.96 116.906 296
52.86 116.843 298
52.76 116.78 300
52.66 116.717 302
52.56 116.653 304
52.46 116.59 306
52.36 116.527 308
52.26 116.463 310
52.16 116.4 312
53.21 116.906 296
53.11 116.843 298
53.01 116.78 300
52.91 116.717 302
52.81 116.653 304
52.71 116.59 306
52.61 116.527 308
52.51 116.463 310
52.41 116.4 312
53.46 116.906 296
53.36 116.843 298
53.26 116.78 300
53.16 116.717 302
53.06 116.653 304
52.96 116.59 306
52.86 116.527 308
52.76 116.463 310
52.66 116.4 312
53.71 116.906 296
53.61 116.843 298
53.51 116.78 300
53.41 116.717 302
53.31 116.653 304
53.21 116.59 306
53.11 116.527 308
53.01 116.463 310
52.91 116.4 312
53.96 116.906 296
53.86 116.843 298
53.76 116.78 300
53.66 116.717 302
53.56 116.653 304
53.46 116.59 306
53.36 116.527 308
53.26 116.463 310
53.16 116.4 312
54.21 116.906 296
54.11 116.843 298
54.01 116.78 300
53.91 116.717 302
53.81 116.653 304
53.71 116.59 306
53.61 116.527 308
53.51 116.463 310
53.41 116.4 312
54.46 116.906 296
54.36 116.843 298
54.26 116.78 300
54.16 116.717 302
54.06 116.653 304
53.96 116.59 306
53.86 116.527 308
53.76 116.463 310
53.66 116.4 312
54.47 116.906 296
54.37 116.843 298
54.27 116.78 300
54.17 116.717 302
54.07 116.653 304
53.97 116.59 306
53.87 116.527 308
53.77 116.463 310
53.67 116.4 312
54.72 116.906 296
54.62 116.843 298
54.52 116.78 300
54.42 116.717 302
54.32 116.653 304
54.22 116.59 306
54.12 116.527 308
54.02 116.463 310
53.92 116.4 312
54.97 116.906 296
54.87 116.843 298
54.77 116.78 300
54.67 116.717 302
54.57 116.653 304
54.47 116.59 306
54.37 116.527 308
54.27 116.463 310
54.17 116.4 312
55.22 116.906 296
55.12 116.843 298
55.02 116.78 300
54.92 116.717 302
54.82 116.653 304
54.72 116.59 306
54.62 116.527 308
54.52 116.463 310
54.42 116.4 312
55.47 116.906 296
55.37 116.843 298
55.27 116.78 300
55.17 116.717 302
55.07 116.653 304
54.97 116.59 306
54.87 116.527 308
54.77 116.463 310
54.67 116.4 312
55.72 116.906 296
55.62 116.843 298
55.52 116.78 300
55.42 116.717 302
55.32 116.653 304
55.22 116.59 306
55.12 116.527 308
55.02 116.463 310
54.92 116.4 312
55.97 116.906 296
55.87 116.843 298
55.77 116.78 300
55.67 116.717 302
55.57 116.653 304
55.47 116.59 306
55.37 116.527 308
55.27 116.463 310
55.17 116.4 312
56.22 116.906 296
56.12 116.843 298
56.02 116.78 300
55.92 116.717 302
55.82 116.653 304
55.72 116.59 306
55.62 116.527 308
55.52 116.463 310
55.42 116.4 312
56.23 116.906 296
56.13 116.843 298
56.03 116.78 300
55.93 116.717 302
55.83 116.653 304
55.73 116.59 306
55.63 116.527 308
55.53 116.463 310
55.43 116.4 312
56.48 116.906 296
56.38 116.843 298
56.28 116.78 300
56.18 116.717 302
56.08 116.653 304
55.98 116.59 306
55.88 116.527 308
55.78 116.463 310
55.68 116.4 312
56.49 116.906 296
56.39 116.843 298
56.29 116.78 300
56.19 116.717 302
56.09 116.653 304
55.99 116.59 306
55.89 116.527 308
55.79 116.463 310
55.69 116.4 312
56.74 116.906 296
56.64 116.843 298
56.54 116.78 300
56.44 116.717 302
56.34 116.653 304
56.24 116.59 306
56.14 116.527 308
56.04 116.463 310
55.94 116.4 312
56.99 116.906 296
56.89 116.843 298
56.79 116.78 300
56.69 116.717 302
56.59 116.653 304
56.49 116.59 306
56.39 116.527 308
56.29 116.463 310
56.19 116.4 312
CELLS 2160 19440
8 1247 1073 3622 3640 1248 1074 3623 3641
8 1248 1074 3623 3641 1249 1075 3624 3642
8 1249 1075 3624 3642 1250 1076 3625 3643
8 1250 1076 3625 3643 1251 1077 3626 3644
8 1251 1077 3626 3644 1252 1078 3627 3645
8 1252 1078 3627 3645 1253 1079 3628 3646
8 1253 1079 3628 3646 1254 1080 3629 3647
8 1254 1080 3629 3647 1255 1081 3630 3648
8 1257 1083 1073 1247 1258 1084 1074 1248
8 1258 1084 1074 1248 1259 1085 1075 1249
8 1259 1085 1075 1249 1260 1086 1076 1250
8 1260 1086 1076 1250 1261 1087 1077 1251
8 1261 1087 1077 1251 1262 1088 1078 1252
8 1262 1088 1078 1252 1263 1089 1079 1253
8 1263 1089 1079 1253 1264 1090 1080 1254
8 1264 1090 1080 1254 1265 1091 1081 1255
8 1265 1091 1081 1255 1266 1092 1082 1256
8 1267 1093 1083 1257 1268 1094 1084 1258
8 1268 1094 1084 1258 1269 1095 1085 1259
8 1269 1095 1085 1259 1270 1096 1086 1260
8 1270 1096 1086 1260 1271 1097 1087 1261
8 1271 1097 1087 1261 1272 1098 1088 1262
8 1272 1098 1088 1262 1273 1099 1089 1263
8 1273 1099 1089 1263 1274 1100 1090 1264
8 1274 1100 1090 1264 1275 1101 1091 1265
8 1275 1101 1091 1265 1276 1102 1092 1266
8 1277 1103 1093 1267 1278 1104 1094 1268
8 1278 1104 1094 1268 1279 1105 1095 1269
8 1279 1105 1095 1269 1280 1106 1096 1270
8 1280 1106 1096 1270 1281 1107 1097 1271
8 1281 1107 1097 1271 1282 1108 1098 1272
8 1282 1108 1098 1272 1283 1109 1099 1273
8 1283 1109 1099 1273 1284 1110 1100 1274
8 1284 1110 1100 1274 1285 1111 1101 1275
8 1285 1111 1101 1275 1286 1112 1102 1276
8 1287 1113 1103 1277 1288 1114 1104 1278
8 1288 1114 1104 1278 1289 1115 1105 1279
8 1289 1115 1105 1279 1290 1116 1106 1280
8 1290 1116 1106 1280 1291 1117 1107 1281
8 1291 1117 1107 1281 1292 1118 1108 1282
8 1292 1118 1108 1282 1293 1119 1109 1283
8 1293 1119 1109 1283 1294 1120 1110 1284
8 1294 1120 1110 1284 1295 1121 1111 1285
8 1295 1121 1111 1285 1296 1122 1112 1286
8 1297 1123 1113 1287 1298 1124 1114 1288
8 1298 1124 1114 1288 1299 1125 1115 1289
8 1299 1125 1115 1289 1300 1126 1116 1290
8 1300 1126 1116 1290 1301 1127 1117 1291
8 1301 1127 1117 1291 1302 1128 1118 1292
8 1302 1128 1118 1292 1303 1129 1119 1293
8 1303 1129 1119 1293 1304 1130 1120 1294
8 1304 1130 1120 1294 1305 1131 1121 1295
8 1305 1131 1121 1295 1306 1132 1122 1296
8 1307 1133 1123 1297 1308 1134 1124 1298
8 1308 1134 1124 1298 1309 1135 1125 1299
8 1309 1135 1125 1299 1310 1136 1126 1300
8 1310 1136 1126 1300 1311 1137 1127 1301
8 1311 1137 1127 1301 1312 1138 1128 1302
8 1312 1138 1128 1302 1313 1139 1129 1303
8 1313 1139 1129 1303 1314 1140 1130 1304
8 1314 1140 1130 1304 1315 1141 1131 1305
8 1315 1141 1131 1305 1316 1142 1132 1306
8 1317 1143 1133 1307 1318 1144 1134 1308
8 1318 1144 1134 1308 1319 1145 1135 1309
8 1319 1145 1135 1309 1320 1146 1136 1310
8 1320 1146 1136 1310 1321 1147 1137 1311
8 1321 1147 1137 1311 1322 1148 1138 1312
8 1322 1148 1138 1312 1323 1149 1139 1313
8 1323 1149 1139 1313 1324 1150 1140 1314
8 1324 1150 1140 1314 1325 1151 1141 1315
8 1326 1152 1146 1320 1327 1153 1147 1321
8 1327 1153 1147 1321 1328 1154 1148 1322
8 1328 1154 1148 1322 1329 1155 1149 1323
8 1329 1155 1149 1323 1330 1156 1150 1324
8 1330 1156 1150 1324 1331 1157 1151 1325
8 1332 1333 3650 3649 1334 1335 3652 3651
8 1334 1335 3652 3651 1336 1337 3654 3653
8 1336 1337 3654 3653 1338 1339 3656 3655
8 1338 1339 3656 3655 1340 1341 3658 3657
8 1340 1341 3658 3657 1342 1343 3660 3659
8 1342 1343 3660 3659 1344 1345 3662 3661
8 1344 1345 3662 3661 1346 1347 3664 3663
8 1346 1347 3664 3663 1348 1349 3666 3665
8 1352 1353 1333 1332 1354 1355 1335 1334
8 1354 1355 1335 1334 1356 1357 1337 1336
8 1356 1357 1337 1336 1358 1359 1339 1338
8 1358 1359 1339 1338 1360 1361 1341 1340
8 1360 1361 1341 1340 1362 1363 1343 1342
8 1362 1363 1343 1342 1364 1365 1345 1344
8 1364 1365 1345 1344 1366 1367 1347 1346
8 1366 1367 1347 1346 1368 1369 1349 1348
8 1368 1369 1349 1348 1370 1371 1351 1350
8 1372 1373 1353 1352 1374 1375 1355 1354
8 1374 1375 1355 1354 1376 1377 1357 1356
8 1376 1377 1357 1356 1378 1379 1359 1358
8 1378 1379 1359 1358 1380 1381 1361 1360
8 1380 1381 1361 1360 1382 1383 1363 1362
8 1382 1383 1363 1362 1384 1385 1365 1364
8 1384 1385 1365 1364 1386 1387 1367 1366
8 1386 1387 1367 1366 1388 1389 1369 1368
8 1388 1389 1369 1368 1390 1391 1371 1370
8 1392 1393 1373 1372 1394 1395 1375 1374
8 1394 1395 1375 1374 1396 1397 1377 1376
8 1396 1397 1377 1376 1398 1399 1379 1378
8 1398 1399 1379 1378 1400 1401 1381 1380
8 1400 1401 1381 1380 1402 1403 1383 1382
8 1402 1403 1383 1382 1404 1405 1385 1384
8 1404 1405 1385 1384 1406 1407 1387 1386
8 1406 1407 1387 1386 1408 1409 1389 1388
8 1408 1409 1389 1388 1410 1411 1391 1390
8 1412 1413 1393 1392 1414 1415 1395 1394
8 1414 1415 1395 1394 1416 1417 1397 1396
8 1416 1417 1397 1396 1418 1419 1399 1398
8 1418 1419 1399 1398 1420 1421 1401 1400
8 1420 1421 1401 1400 1422 1423 1403 1402
8 1422 1423 1403 1402 1424 1425 1405 1404
8 1424 1425 1405 1404 1426 1427 1407 1406
8 1426 1427 1407 1406 1428 1429 1409 1408
8 1428 1429 1409 1408 1430 1431 1411 1410
8 1432 1433 1413 1412 1434 1435 1415 1414
8 1434 1435 1415 1414 1436 1437 1417 1416
8 1436 1437 1417 1416 1438 1439 1419 1418
8 1438 1439 1419 1418 1440 1441 1421 1420
8 1440 1441 1421 1420 1442 1443 1423 1422
8 1442 1443 1423 1422 1444 1445 1425 1424
8 1444 1445 1425 1424 1446 1447 1427 1426
8 1446 1447 1427 1426 1448 1449 1429 1428
8 1448 1449 1429 1428 1450 1451 1431 1430
8 1452 1453 1433 1432 1454 1455 1435 1434
8 1454 1455 1435 1434 1456 1457 1437 1436
8 1456 1457 1437 1436 1458 1459 1439 1438
8 1458 1459 1439 1438 1460 1461 1441 1440
8 1460 1461 1441 1440 1462 1463 1443 1442
8 1462 1463 1443 1442 1464 1465 1445 1444
8 1464 1465 1445 1444 1466 1467 1447 1446
8 1466 1467 1447 1446 1468 1469 1449 1448
8 1468 1469 1449 1448 1470 1471 1451 1450
8 1472 1473 1453 1452 1474 1475 1455 1454
8 1474 1475 1455 1454 1476 1477 1457 1456
8 1476 1477 1457 1456 1478 1479 1459 1458
8 1478 1479 1459 1458 1480 1481 1461 1460
8 1480 1481 1461 1460 1482 1483 1463 1462
8 1482 1483 1463 1462 1484 1485 1465 1464
8 1484 1485 1465 1464 1486 1487 1467 1466
8 1486 1487 1467 1466 1488 1489 1469 1468
8 1490 1491 1479 1478 1492 1493 1481 1480
8 1492 1493 1481 1480 1494 1495 1483 1482
8 1494 1495 1483 1482 1496 1497 1485 1484
8 1496 1497 1485 1484 1498 1499 1487 1486
8 1498 1499 1487 1486 1500 1501 1489 1488
8 1502 1503 3668 3667 1504 1505 3670 3669
8 1504 1505 3670 3669 1506 1507 3672 3671
8 1506 1507 3672 3671 1508 1509 3674 3673
8 1508 1509 3674 3673 1510 1511 3676 3675
8 1510 1511 3676 3675 1512 1513 3678 3677
8 1512 1513 3678 3677 1514 1515 3680 3679
8 1514 1515 3680 3679 1516 1517 3682 3681
8 1516 1517 3682 3681 1518 1519 3684 3683
8 1522 1523 1503 1502 1524 1525 1505 1504
8 1524 1525 1505 1504 1526 1527 1507 1506
8 1526 1527 1507 1506 1528 1529 1509 1508
8 1528 1529 1509 1508 1530 1531 1511 1510
8 1530 1531 1511 1510 1532 1533 1513 1512
8 1532 1533 1513 1512 1534 1535 1515 1514
8 1534 1535 1515 1514 1536 1537 1517 1516
8 1536 1537 1517 1516 1538 1539 1519 1518
8 1538 1539 1519 1518 1540 1541 1521 1520
8 1542 1543 1523 1522 1544 1545 1525 1524
8 1544 1545 1525 1524 1546 1547 1527 1526
8 1546 1547 1527 1526 1548 1549 1529 1528
8 1548 1549 1529 1528 1550 1551 1531 1530
8 1550 1551 1531 1530 1552 1553 1533 1532
8 1552 1553 1533 1532 1554 1555 1535 1534
8 1554 1555 1535 1534 1556 1557 1537 1536
8 1556 1557 1537 1536 1558 1559 1539 1538
8 1558 1559 1539 1538 1560 1561 1541 1540
8 1562 1563 1543 1542 1564 1565 1545 1544
8 1564 1565 1545 1544 1566 1567 1547 1546
8 1566 1567 1547 1546 1568 1569 1549 1548
8 1568 1569 1549 1548 1570 1571 1551 1550
8 1570 1571 1551 1550 1572 1573 1553 1552
8 1572 1573 1553 1552 1574 1575 1555 1554
8 1574 1575 1555 1554 1576 1577 1557 1556
8 1576 1577 1557 1556 1578 1579 1559 1558
8 1578 1579 1559 1558 1580 1581 1561 1560
8 1582 1583 1563 1562 1584 1585 1565 1564
8 1584 1585 1565 1564 1586 1587 1567 1566
8 1586 1587 1567 1566 1588 1589 1569 1568
8 1588 1589 1569 1568 1590 1591 1571 1570
8 1590 1591 1571 1570 1592 1593 1573 1572
8 1592 1593 1573 1572 1594 1595 1575 1574
8 1594 1595 1575 1574 1596 1597 1577 1576
8 1596 1597 1577 1576 1598 1599 1579 1578
8 1598 1599 1579 1578 1600 1601 1581 1580
8 1602 1603 1583 1582 1604 1605 1585 1584
8 1604 1605 1585 1584 1606 1607 1587 1586
8 1606 1607 1587 1586 1608 1609 1589 1588
8 1608 1609 1589 1588 1610 1611 1591 1590
8 1610 1611 1591 1590 1612 1613 1593 1592
8 1612 1613 1593 1592 1614 1615 1595 1594
8 1614 1615 1595 1594 1616 1617 1597 1596
8 1616 1617 1597 1596 1618 1619 1599 1598
8 1618 1619 1599 1598 1620 1621 1601 1600
8 1622 1623 1603 1602 1624 1625 1605 1604
8 1624 1625 1605 1604 1626 1627 1607 1606
8 1626 1627 1607 1606 1628 1629 1609 1608
8 1628 1629 1609 1608 1630 1631 1611 1610
8 1630 1631 1611 1610 1632 1633 1613 1612
8 1632 1633 1613 1612 1634 1635 1615 1614
8 1634 1635 1615 1614 1636 1637 1617 1616
8 1636 1637 1617 1616 1638 1639 1619 1618
8 1638 1639 1619 1618 1640 1641 1621 1620
8 1642 1643 1623 1622 1644 1645 1625 1624
8 1644 1645 1625 1624 1646 1647 1627 1626
8 1646 1647 1627 1626 1648 1649 1629 1628
8 1648 1649 1629 1628 1650 1651 1631 1630
8 1650 1651 1631 1630 1652 1653 1633 1632
8 1652 1653 1633 1632 1654 1655 1635 1634
8 1654 1655 1635 1634 1656 1657 1637 1636
8 1656 1657 1637 1636 1658 1659 1639 1638
8 1660 1661 1649 1648 1662 1663 1651 1650
8 1662 1663 1651 1650 1664 1665 1653 1652
8 1664 1665 1653 1652 1666 1667 1655 1654
8 1666 1667 1655 1654 1668 1669 1657 1656
8 1668 1669 1657 1656 1670 1671 1659 1658
8 1672 1502 3667 3685 1673 1504 3669 3686
8 1673 1504 3669 3686 1674 1506 3671 3687
8 1674 1506 3671 3687 1675 1508 3673 3688
8 1675 1508 3673 3688 1676 1510 3675 3689
8 1676 1510 3675 3689 1677 1512 3677 3690
8 1677 1512 3677 3690 1678 1514 3679 3691
8 1678 1514 3679 3691 1679 1516 3681 3692
8 1679 1516 3681 3692 1680 1518 3683 3693
8 1682 1522 1502 1672 1683 1524 1504 1673
8 1683 1524 1504 1673 1684 1526 1506 1674
8 1684 1526 1506 1674 1685 1528 1508 1675
8 1685 1528 1508 1675 1686 1530 1510 1676
8 1686 1530 1510 1676 1687 1532 1512 1677
8 1687 1532 1512 1677 1688 1534 1514 1678
8 1688 1534 1514 1678 1689 1536 1516 1679
8 1689 1536 1516 1679 1690 1538 1518 1680
8 1690 1538 1518 1680 1691 1540 1520 1681
8 1692 1542 1522 1682 1693 1544 1524 1683
8 1693 1544 1524 1683 1694 1546 1526 1684
8 1694 1546 1526 1684 1695 1548 1528 1685
8 1695 1548 1528 1685 1696 1550 1530 1686
8 1696 1550 1530 1686 1697 1552 1532 1687
8 1697 1552 1532 1687 1698 1554 1534 1688
8 1698 1554 1534 1688 1699 1556 1536 1689
8 1699 1556 1536 1689 1700 1558 1538 1690
8 1700 1558 1538 1690 1701 1560 1540 1691
8 1702 1562 1542 1692 1703 1564 1544 1693
8 1703 1564 1544 1693 1704 1566 1546 1694
8 1704 1566 1546 1694 1705 1568 1548 1695
8 1705 1568 1548 1695 1706 1570 1550 1696
8 1706 1570 1550 1696 1707 1572 1552 1697
8 1707 1572 1552 1697 1708 1574 1554 1698
8 1708 1574 1554 1698 1709 1576 1556 1699
8 1709 1576 1556 1699 1710 1578 1558 1700
8 1710 1578 1558 1700 1711 1580 1560 1701
8 1712 1582 1562 1702 1713 1584 1564 1703
8 1713 1584 1564 1703 1714 1586 1566 1704
8 1714 1586 1566 1704 1715 1588 1568 1705
8 1715 1588 1568 1705 1716 1590 1570 1706
8 1716 1590 1570 1706 1717 1592 1572 1707
8 1717 1592 1572 1707 1718 1594 1574 1708
8 1718 1594 1574 1708 1719 1596 1576 1709
8 1719 1596 1576 1709 1720 1598 1578 1710
8 1720 1598 1578 1710 1721 1600 1580 1711
8 1722 1602 1582 1712 1723 1604 1584 1713
8 1723 1604 1584 1713 1724 1606 1586 1714
8 1724 1606 1586 1714 1725 1608 1588 1715
8 1725 1608 1588 1715 1726 1610 1590 1716
8 1726 1610 1590 1716 1727 1612 1592 1717
8 1727 1612 1592 1717 1728 1614 1594 1718
8 1728 1614 1594 1718 1729 1616 1596 1719
8 1729 1616 1596 1719 1730 1618 1598 1720
8 1730 1618 1598 1720 1731 1620 1600 1721
8 1732 1622 1602 1722 1733 1624 1604 1723
8 1733 1624 1604 1723 1734 1626 1606 1724
8 1734 1626 1606 1724 1735 1628 1608 1725
8 1735 1628 1608 1725 1736 1630 1610 1726
8 1736 1630 1610 1726 1737 1632 1612 1727
8 1737 1632 1612 1727 1738 1634 1614 1728
8 1738 1634 1614 1728 1739 1636 1616 1729
8 1739 1636 1616 1729 1740 1638 1618 1730
8 1740 1638 1618 1730 1741 1640 1620 1731
8 1742 1642 1622 1732 1743 1644 1624 1733
8 1743 1644 1624 1733 1744 1646 1626 1734
8 1744 1646 1626 1734 1745 1648 1628 1735
8 1745 1648 1628 1735 1746 1650 1630 1736
8 1746 1650 1630 1736 1747 1652 1632 1737
8 1747 1652 1632 1737 1748 1654 1634 1738
8 1748 1654 1634 1738 1749 1656 1636 1739
8 1749 1656 1636 1739 1750 1658 1638 1740
8 1751 1660 1648 1745 1752 1662 1650 1746
8 1752 1662 1650 1746 1753 1664 1652 1747
8 1753 1664 1652 1747 1754 1666 1654 1748
8 1754 1666 1654 1748 1755 1668 1656 1749
8 1755 1668 1656 1749 1756 1670 1658 1750
8 1757 1672 3685 3694 1758 1673 3686 3695
8 1758 1673 3686 3695 1759 1674 3687 3696
8 1759 1674 3687 3696 1760 1675 3688 3697
8 1760 1675 3688 3697 1761 1676 3689 3698
8 1761 1676 3689 3698 1762 1677 3690 3699
8 1762 1677 3690 3699 1763 1678 3691 3700
8 1763 1678 3691 3700 1764 1679 3692 3701
8 1764 1679 3692 3701 1765 1680 3693 3702
8 1767 1682 1672 1757 1768 1683 1673 1758
8 1768 1683 1673 1758 1769 1684 1674 1759
8 1769 1684 1674 1759 1770 1685 1675 1760
8 1770 1685 1675 1760 1771 1686 1676 1761
8 1771 1686 1676 1761 1772 1687 1677 1762
8 1772 1687 1677 1762 1773 1688 1678 1763
8 1773 1688 1678 1763 1774 1689 1679 1764
8 1774 1689 1679 1764 1775 1690 1680 1765
8 1775 1690 1680 1765 1776 1691 1681 1766
8 1777 1692 1682 1767 1778 1693 1683 1768
8 1778 1693 1683 1768 1779 1694 1684 1769
8 1779 1694 1684 1769 1780 1695 1685 1770
8 1780 1695 1685 1770 1781 1696 1686 1771
8 1781 1696 1686 1771 1782 1697 1687 1772
8 1782 1697 1687 1772 1783 1698 1688 1773
8 1783 1698 1688 1773 1784 1699 1689 1774
8 1784 1699 1689 1774 1785 1700 1690 1775
8 1785 1700 1690 1775 1786 1701 1691 1776
8 1787 1702 1692 1777 1788 1703 1693 1778
8 1788 1703 1693 1778 1789 1704 1694 1779
8 1789 1704 1694 1779 1790 1705 1695 1780
8 1790 1705 1695 1780 1791 1706 1696 1781
8 1791 1706 1696 1781 1792 1707 1697 1782
8 1792 1707 1697 1782 1793 1708 1698 1783
8 1793 1708 1698 1783 1794 1709 1699 1784
8 1794 1709 1699 1784 1795 1710 1700 1785
8 1795 1710 1700 1785 1796 1711 1701 1786
8 1797 1712 1702 1787 1798 1713 1703 1788
8 1798 1713 1703 1788 1799 1714 1704 1789
8 1799 1714 1704 1789 1800 1715 1705 1790
8 1800 1715 1705 1790 1801 1716 1706 1791
8 1801 1716 1706 1791 1802 1717 1707 1792
8 1802 1717 1707 1792 1803 1718 1708 1793
8 1803 1718 1708 1793 1804 1719 1709 1794
8 1804 1719 1709 1794 1805 1720 1710 1795
8 1805 1720 1710 1795 1806 1721 1711 1796
8 1807 1722 1712 1797 1808 1723 1713 1798
8 1808 1723 1713 1798 1809 1724 1714 1799
8 1809 1724 1714 1799 1810 1725 1715 1800
8 1810 1725 1715 1800 1811 1726 1716 1801
8 1811 1726 1716 1801 1812 1727 1717 1802
8 1812 1727 1717 1802 1813 1728 1718 1803
8 1813 1728 1718 1803 1814 1729 1719 1804
8 1814 1729 1719 1804 1815 1730 1720 1805
8 1815 1730 1720 1805 1816 1731 1721 1806
8 1817 1732 1722 1807 1818 1733 1723 1808
8 1818 1733 1723 1808 1819 1734 1724 1809
8 1819 1734 1724 1809 1820 1735 1725 1810
8 1820 1735 1725 1810 1821 1736 1726 1811
8 1821 1736 1726 1811 1822 1737 1727 1812
8 1822 1737 1727 1812 1823 1738 1728 1813
8 1823 1738 1728 1813 1824 1739 1729 1814
8 1824 1739 1729 1814 1825 1740 1730 1815
8 1825 1740 1730 1815 1826 1741 1731 1816
8 1827 1742 1732 1817 1828 1743 1733 1818
8 1828 1743 1733 1818 1829 1744 1734 1819
8 1829 1744 1734 1819 1830 1745 1735 1820
8 1830 1745 1735 1820 1831 1746 1736 1821
8 1831 1746 1736 1821 1832 1747 1737 1822
8 1832 1747 1737 1822 1833 1748 1738 1823
8 1833 1748 1738 1823 1834 1749 1739 1824
8 1834 1749 1739 1824 1835 1750 1740 1825
8 1836 1751 1745 1830 1837 1752 1746 1831
8 1837 1752 1746 1831 1838 1753 1747 1832
8 1838 1753 1747 1832 1839 1754 1748 1833
8 1839 1754 1748 1833 1840 1755 1749 1834
8 1840 1755 1749 1834 1841 1756 1750 1835
8 1842 1757 3694 3703 1843 1758 3695 3704
8 1843 1758 3695 3704 1844 1759 3696 3705
8 1844 1759 3696 3705 1845 1760 3697 3706
8 1845 1760 3697 3706 1846 1761 3698 3707
8 1846 1761 3698 3707 1847 1762 3699 3708
8 1847 1762 3699 3708 1848 1763 3700 3709
8 1848 1763 3700 3709 1849 1764 3701 3710
8 1849 1764 3701 3710 1850 1765 3702 3711
8 1852 1767 1757 1842 1853 1768 1758 1843
8 1853 1768 1758 1843 1854 1769 1759 1844
8 1854 1769 1759 1844 1855 1770 1760 1845
8 1855 1770 1760 1845 1856 1771 1761 1846
8 1856 1771 1761 1846 1857 1772 1762 1847
8 1857 1772 1762 1847 1858 1773 1763 1848
8 1858 1773 1763 1848 1859 1774 1764 1849
8 1859 1774 1764 1849 1860 1775 1765 1850
8 1860 1775 1765 1850 1861 1776 1766 1851
8 1863 1777 1767 1852 1864 1778 1768 1853
8 1864 1778 1768 1853 1865 1779 1769 1854
8 1865 1779 1769 1854 1866 1780 1770 1855
8 1866 1780 1770 1855 1867 1781 1771 1856
8 1867 1781 1771 1856 1868 1782 1772 1857
8 1868 1782 1772 1857 1869 1783 1773 1858
8 1869 1783 1773 1858 1870 1784 1774 1859
8 1870 1784 1774 1859 1871 1785 1775 1860
8 1871 1785 1775 1860 1872 1786 1776 1861
8 1874 1787 1777 1863 1875 1788 1778 1864
8 1875 1788 1778 1864 1876 1789 1779 1865
8 1876 1789 1779 1865 1877 1790 1780 1866
8 1877 1790 1780 1866 1878 1791 1781 1867
8 1878 1791 1781 1867 1879 1792 1782 1868
8 1879 1792 1782 1868 1880 1793 1783 1869
8 1880 1793 1783 1869 1881 1794 1784 1870
8 1881 1794 1784 1870 1882 1795 1785 1871
8 1882 1795 1785 1871 1883 1796 1786 1872
8 1885 1797 1787 1874 1886 1798 1788 1875
8 1886 1798 1788 1875 1887 1799 1789 1876
8 1887 1799 1789 1876 1888 1800 1790 1877
8 1888 1800 1790 1877 1889 1801 1791 1878
8 1889 1801 1791 1878 1890 1802 1792 1879
8 1890 1802 1792 1879 1891 1803 1793 1880
8 1891 1803 1793 1880 1892 1804 1794 1881
8 1892 1804 1794 1881 1893 1805 1795 1882
8 1893 1805 1795 1882 1894 1806 1796 1883
8 1896 1807 1797 1885 1897 1808 1798 1886
8 1897 1808 1798 1886 1898 1809 1799 1887
8 1898 1809 1799 1887 1899 1810 1800 1888
8 1899 1810 1800 1888 1900 1811 1801 1889
8 1900 1811 1801 1889 1901 1812 1802 1890
8 1901 1812 1802 1890 1902 1813 1803 1891
8 1902 1813 1803 1891 1903 1814 1804 1892
8 1903 1814 1804 1892 1904 1815 1805 1893
8 1904 1815 1805 1893 1905 1816 1806 1894
8 1906 1817 1807 1896 1907 1818 1808 1897
8 1907 1818 1808 1897 1908 1819 1809 1898
8 1908 1819 1809 1898 1909 1820 1810 1899
8 1909 1820 1810 1899 1910 1821 1811 1900
8 1910 1821 1811 1900 1911 1822 1812 1901
8 1911 1822 1812 1901 1912 1823 1813 1902
8 1912 1823 1813 1902 1913 1824 1814 1903
8 1913 1824 1814 1903 1914 1825 1815 1904
8 1914 1825 1815 1904 1915 1826 1816 1905
8 1916 1827 1817 1906 1917 1828 1818 1907
8 1917 1828 1818 1907 1918 1829 1819 1908
8 1918 1829 1819 1908 1919 1830 1820 1909
8 1919 1830 1820 1909 1920 1831 1821 1910
8 1920 1831 1821 1910 1921 1832 1822 1911
8 1921 1832 1822 1911 1922 1833 1823 1912
8 1922 1833 1823 1912 1923 1834 1824 1913
8 1923 1834 1824 1913 1924 1835 1825 1914
8 1925 1836 1830 1919 1926 1837 1831 1920
8 1926 1837 1831 1920 1927 1838 1832 1921
8 1927 1838 1832 1921 1928 1839 1833 1922
8 1928 1839 1833 1922 1929 1840 1834 1923
8 1929 1840 1834 1923 1930 1841 1835 1924
8 1931 1842 3703 3712 1932 1843 3704 3713
8 1932 1843 3704 3713 1933 1844 3705 3714
8 1933 1844 3705 3714 1934 1845 3706 3715
8 1934 1845 3706 3715 1935 1846 3707 3716
8 1935 1846 3707 3716 1936 1847 3708 3717
8 1936 1847 3708 3717 1937 1848 3709 3718
8 1937 1848 3709 3718 1938 1849 3710 3719
8 1938 1849 3710 3719 1939 1850 3711 3720
8 1941 1852 1842 1931 1942 1853 1843 1932
8 1942 1853 1843 1932 1943 1854 1844 1933
8 1943 1854 1844 1933 1944 1855 1845 1934
8 1944 1855 1845 1934 1945 1856 1846 1935
8 1945 1856 1846 1935 1946 1857 1847 1936
8 1946 1857 1847 1936 1947 1858 1848 1937
8 1947 1858 1848 1937 1948 1859 1849 1938
8 1948 1859 1849 1938 1949 1860 1850 1939
8 1949 1860 1850 1939 1950 1861 1851 1940
8 1952 1863 1852 1941 1953 1864 1853 1942
8 1953 1864 1853 1942 1954 1865 1854 1943
8 1954 1865 1854 1943 1955 1866 1855 1944
8 1955 1866 1855 1944 1956 1867 1856 1945
8 1956 1867 1856 1945 1957 1868 1857 1946
8 1957 1868 1857 1946 1958 1869 1858 1947
8 1958 1869 1858 1947 1959 1870 1859 1948
8 1959 1870 1859 1948 1960 1871 1860 1949
8 1960 1871 1860 1949 1961 1872 1861 1950
8 1962 1873 1862 1951 1963 1874 1863 1952
8 1963 1874 1863 1952 1964 1875 1864 1953
8 1964 1875 1864 1953 1965 1876 1865 1954
8 1965 1876 1865 1954 1966 1877 1866 1955
8 1966 1877 1866 1955 1967 1878 1867 1956
8 1967 1878 1867 1956 1968 1879 1868 1957
8 1968 1879 1868 1957 1969 1880 1869 1958
8 1969 1880 1869 1958 1970 1881 1870 1959
8 1970 1881 1870 1959 1971 1882 1871 1960
8 1971 1882 1871 1960 1972 1883 1872 1961
8 1973 1884 1873 1962 1974 1885 1874 1963
8 1974 1885 1874 1963 1975 1886 1875 1964
8 1975 1886 1875 1964 1976 1887 1876 1965
8 1976 1887 1876 1965 1977 1888 1877 1966
8 1977 1888 1877 1966 1978 1889 1878 1967
8 1978 1889 1878 1967 1979 1890 1879 1968
8 1979 1890 1879 1968 1980 1891 1880 1969
8 1980 1891 1880 1969 1981 1892 1881 1970
8 1981 1892 1881 1970 1982 1893 1882 1971
8 1982 1893 1882 1971 1983 1894 1883 1972
8 1984 1895 1884 1973 1985 1896 1885 1974
8 1985 1896 1885 1974 1986 1897 1886 1975
8 1986 1897 1886 1975 1987 1898 1887 1976
8 1987 1898 1887 1976 1988 1899 1888 1977
8 1988 1899 1888 1977 1989 1900 1889 1978
8 1989 1900 1889 1978 1990 1901 1890 1979
8 1990 1901 1890 1979 1991 1902 1891 1980
8 1991 1902 1891 1980 1992 1903 1892 1981
8 1992 1903 1892 1981 1993 1904 1893 1982
8 1993 1904 1893 1982 1994 1905 1894 1983
8 1995 1906 1896 1985 1996 1907 1897 1986
8 1996 1907 1897 1986 1997 1908 1898 1987
8 1997 1908 1898 1987 1998 1909 1899 1988
8 1998 1909 1899 1988 1999 1910 1900 1989
8 1999 1910 1900 1989 2000 1911 1901 1990
8 2000 1911 1901 1990 2001 1912 1902 1991
8 2001 1912 1902 1991 2002 1913 1903 1992
8 2002 1913 1903 1992 2003 1914 1904 1993
8 2003 1914 1904 1993 2004 1915 1905 1994
8 2005 1916 1906 1995 2006 1917 1907 1996
8 2006 1917 1907 1996 2007 1918 1908 1997
8 2007 1918 1908 1997 2008 1919 1909 1998
8 2008 1919 1909 1998 2009 1920 1910 1999
8 2009 1920 1910 1999 2010 1921 1911 2000
8 2010 1921 1911 2000 2011 1922 1912 2001
8 2011 1922 1912 2001 2012 1923 1913 2002
8 2012 1923 1913 2002 2013 1924 1914 2003
8 2014 1925 1919 2008 2015 1926 1920 2009
8 2015 1926 1920 2009 2016 1927 1921 2010
8 2016 1927 1921 2010 2017 1928 1922 2011
8 2017 1928 1922 2011 2018 1929 1923 2012
8 2018 1929 1923 2012 2019 1930 1924 2013
8 2020 1931 3712 3721 2021 1932 3713 3722
8 2021 1932 3713 3722 2022 1933 3714 3723
8 2022 1933 3714 3723 2023 1934 3715 3724
8 2023 1934 3715 3724 2024 1935 3716 3725
8 2024 1935 3716 3725 2025 1936 3717 3726
8 2025 1936 3717 3726 2026 1937 3718 3727
8 2026 1937 3718 3727 2027 1938 3719 3728
8 2027 1938 3719 3728 2028 1939 3720 3729
8 2030 1941 1931 2020 2031 1942 1932 2021
8 2031 1942 1932 2021 2032 1943 1933 2022
8 2032 1943 1933 2022 2033 1944 1934 2023
8 2033 1944 1934 2023 2034 1945 1935 2024
8 2034 1945 1935 2024 2035 1946 1936 2025
8 2035 1946 1936 2025 2036 1947 1937 2026
8 2036 1947 1937 2026 2037 1948 1938 2027
8 2037 1948 1938 2027 2038 1949 1939 2028
8 2038 1949 1939 2028 2039 1950 1940 2029
8 2041 1952 1941 2030 2042 1953 1942 2031
8 2042 1953 1942 2031 2043 1954 1943 2032
8 2043 1954 1943 2032 2044 1955 1944 2033
8 2044 1955 1944 2033 2045 1956 1945 2034
8 2045 1956 1945 2034 2046 1957 1946 2035
8 2046 1957 1946 2035 2047 1958 1947 2036
8 2047 1958 1947 2036 2048 1959 1948 2037
8 2048 1959 1948 2037 2049 1960 1949 2038
8 2049 1960 1949 2038 2050 1961 1950 2039
8 2051 1962 1951 2040 2052 1963 1952 2041
8 2052 1963 1952 2041 2053 1964 1953 2042
8 2053 1964 1953 2042 2054 1965 1954 2043
8 2054 1965 1954 2043 2055 1966 1955 2044
8 2055 1966 1955 2044 2056 1967 1956 2045
8 2056 1967 1956 2045 2057 1968 1957 2046
8 2057 1968 1957 2046 2058 1969 1958 2047
8 2058 1969 1958 2047 2059 1970 1959 2048
8 2059 1970 1959 2048 2060 1971 1960 2049
8 2060 1971 1960 2049 2061 1972 1961 2050
8 2062 1973 1962 2051 2063 1974 1963 2052
8 2063 1974 1963 2052 2064 1975 1964 2053
8 2064 1975 1964 2053 2065 1976 1965 2054
8 2065 1976 1965 2054 2066 1977 1966 2055
8 2066 1977 1966 2055 2067 1978 1967 2056
8 2067 1978 1967 2056 2068 1979 1968 2057
8 2068 1979 1968 2057 2069 1980 1969 2058
8 2069 1980 1969 2058 2070 1981 1970 2059
8 2070 1981 1970 2059 2071 1982 1971 2060
8 2071 1982 1971 2060 2072 1983 1972 2061
8 2073 1984 1973 2062 2074 1985 1974 2063
8 2074 1985 1974 2063 2075 1986 1975 2064
8 2075 1986 1975 2064 2076 1987 1976 2065
8 2076 1987 1976 2065 2077 1988 1977 2066
8 2077 1988 1977 2066 2078 1989 1978 2067
8 2078 1989 1978 2067 2079 1990 1979 2068
8 2079 1990 1979 2068 2080 1991 1980 2069
8 2080 1991 1980 2069 2081 1992 1981 2070
8 2081 1992 1981 2070 2082 1993 1982 2071
8 2082 1993 1982 2071 2083 1994 1983 2072
8 2084 1995 1985 2074 2085 1996 1986 2075
8 2085 1996 1986 2075 2086 1997 1987 2076
8 2086 1997 1987 2076 2087 1998 1988 2077
8 2087 1998 1988 2077 2088 1999 1989 2078
8 2088 1999 1989 2078 2089 2000 1990 2079
8 2089 2000 1990 2079 2090 2001 1991 2080
8 2090 2001 1991 2080 2091 2002 1992 2081
8 2091 2002 1992 2081 2092 2003 1993 2082
8 2092 2003 1993 2082 2093 2004 1994 2083
8 2094 2005 1995 2084 2095 2006 1996 2085
8 2095 2006 1996 2085 2096 2007 1997 2086
8 2096 2007 1997 2086 2097 2008 1998 2087
8 2097 2008 1998 2087 2098 2009 1999 2088
8 2098 2009 1999 2088 2099 2010 2000 2089
8 2099 2010 2000 2089 2100 2011 2001 2090
8 2100 2011 2001 2090 2101 2012 2002 2091
8 2101 2012 2002 2091 2102 2013 2003 2092
8 2103 2014 2008 2097 2104 2015 2009 2098
8 2104 2015 2009 2098 2105 2016 2010 2099
8 2105 2016 2010 2099 2106 2017 2011 2100
8 2106 2017 2011 2100 2107 2018 2012 2101
8 2107 2018 2012 2101 2108 2019 2013 2102
8 2109 2020 3721 3730 2110 2021 3722 3731
8 2110 2021 3722 3731 2111 2022 3723 3732
8 2111 2022 3723 3732 2112 2023 3724 3733
8 2112 2023 3724 3733 2113 2024 3725 3734
8 2113 2024 3725 3734 2114 2025 3726 3735
8 2114 2025 3726 3735 2115 2026 3727 3736
8 2115 2026 3727 3736 2116 2027 3728 3737
8 2116 2027 3728 3737 2117 2028 3729 3738
8 2119 2030 2020 2109 2120 2031 2021 2110
8 2120 2031 2021 2110 2121 2032 2022 2111
8 2121 2032 2022 2111 2122 2033 2023 2112
8 2122 2033 2023 2112 2123 2034 2024 2113
8 2123 2034 2024 2113 2124 2035 2025 2114
8 2124 2035 2025 2114 2125 2036 2026 2115
8 2125 2036 2026 2115 2126 2037 2027 2116
8 2126 2037 2027 2116 2127 2038 2028 2117
8 2127 2038 2028 2117 2128 2039 2029 2118
8 2130 2041 2030 2119 2131 2042 2031 2120
8 2131 2042 2031 2120 2132 2043 2032 2121
8 2132 2043 2032 2121 2133 2044 2033 2122
8 2133 2044 2033 2122 2134 2045 2034 2123
8 2134 2045 2034 2123 2135 2046 2035 2124
8 2135 2046 2035 2124 2136 2047 2036 2125
8 2136 2047 2036 2125 2137 2048 2037 2126
8 2137 2048 2037 2126 2138 2049 2038 2127
8 2138 2049 2038 2127 2139 2050 2039 2128
8 2140 2051 2040 2129 2141 2052 2041 2130
8 2141 2052 2041 2130 2142 2053 2042 2131
8 2142 2053 2042 2131 2143 2054 2043 2132
8 2143 2054 2043 2132 2144 2055 2044 2133
8 2144 2055 2044 2133 2145 2056 2045 2134
8 2145 2056 2045 2134 2146 2057 2046 2135
8 2146 2057 2046 2135 2147 2058 2047 2136
8 2147 2058 2047 2136 2148 2059 2048 2137
8 2148 2059 2048 2137 2149 2060 2049 2138
8 2149 2060 2049 2138 2150 2061 2050 2139
8 2151 2062 2051 2140 2152 2063 2052 2141
8 2152 2063 2052 2141 2153 2064 2053 2142
8 2153 2064 2053 2142 2154 2065 2054 2143
8 2154 2065 2054 2143 2155 2066 2055 2144
8 2155 2066 2055 2144 2156 2067 2056 2145
8 2156 2067 2056 2145 2157 2068 2057 2146
8 2157 2068 2057 2146 2158 2069 2058 2147
8 2158 2069 2058 2147 2159 2070 2059 2148
8 2159 2070 2059 2148 2160 2071 2060 2149
8 2160 2071 2060 2149 2161 2072 2061 2150
8 2162 2073 2062 2151 2163 2074 2063 2152
8 2163 2074 2063 2152 2164 2075 2064 2153
8 2164 2075 2064 2153 2165 2076 2065 2154
8 2165 2076 2065 2154 2166 2077 2066 2155
8 2166 2077 2066 2155 2167 2078 2067 2156
8 2167 2078 2067 2156 2168 2079 2068 2157
8 2168 2079 2068 2157 2169 2080 2069 2158
8 2169 2080 2069 2158 2170 2081 2070 2159
8 2170 2081 2070 2159 2171 2082 2071 2160
8 2171 2082 2071 2160 2172 2083 2072 2161
8 2173 2084 2074 2163 2174 2085 2075 2164
8 2174 2085 2075 2164 2175 2086 2076 2165
8 2175 2086 2076 2165 2176 2087 2077 2166
8 2176 2087 2077 2166 2177 2088 2078 2167
8 2177 2088 2078 2167 2178 2089 2079 2168
8 2178 2089 2079 2168 2179 2090 2080 2169
8 2179 2090 2080 2169 2180 2091 2081 2170
8 2180 2091 2081 2170 2181 2092 2082 2171
8 2181 2092 2082 2171 2182 2093 2083 2172
8 2183 2094 2084 2173 2184 2095 2085 2174
8 2184 2095 2085 2174 2185 2096 2086 2175
8 2185 2096 2086 2175 2186 2097 2087 2176
8 2186 2097 2087 2176 2187 2098 2088 2177
8 2187 2098 2088 2177 2188 2099 2089 2178
8 2188 2099 2089 2178 2189 2100 2090 2179
8 2189 2100 2090 2179 2190 2101 2091 2180
8 2190 2101 2091 2180 2191 2102 2092 2181
8 2192 2103 2097 2186 2193 2104 2098 2187
8 2193 2104 2098 2187 2194 2105 2099 2188
8 2194 2105 2099 2188 2195 2106 2100 2189
8 2195 2106 2100 2189 2196 2107 2101 2190
8 2196 2107 2101 2190 2197 2108 2102 2191
8 2198 2109 3730 3739 2199 2110 3731 3740
8 2199 2110 3731 3740 2200 2111 3732 3741
8 2200 2111 3732 3741 2201 2112 3733 3742
8 2201 2112 3733 3742 2202 2113 3734 3743
8 2202 2113 3734 3743 2203 2114 3735 3744
8 2203 2114 3735 3744 2204 2115 3736 3745
8 2204 2115 3736 3745 2205 2116 3737 3746
8 2205 2116 3737 3746 2206 2117 3738 3747
8 2208 2119 2109 2198 2209 2120 2110 2199
8 2209 2120 2110 2199 2210 2121 2111 2200
8 2210 2121 2111 2200 2211 2122 2112 2201
8 2211 2122 2112 2201 2212 2123 2113 2202
8 2212 2123 2113 2202 2213 2124 2114 2203
8 2213 2124 2114 2203 2214 2125 2115 2204
8 2214 2125 2115 2204 2215 2126 2116 2205
8 2215 2126 2116 2205 2216 2127 2117 2206
8 2216 2127 2117 2206 2217 2128 2118 2207
8 2219 2130 2119 2208 2220 2131 2120 2209
8 2220 2131 2120 2209 2221 2132 2121 2210
8 2221 2132 2121 2210 2222 2133 2122 2211
8 2222 2133 2122 2211 2223 2134 2123 2212
8 2223 2134 2123 2212 2224 2135 2124 2213
8 2224 2135 2124 2213 2225 2136 2125 2214
8 2225 2136 2125 2214 2226 2137 2126 2215
8 2226 2137 2126 2215 2227 2138 2127 2216
8 2227 2138 2127 2216 2228 2139 2128 2217
8 2229 2140 2129 2218 2230 2141 2130 2219
8 2230 2141 2130 2219 2231 2142 2131 2220
8 2231 2142 2131 2220 2232 2143 2132 2221
8 2232 2143 2132 2221 2233 2144 2133 2222
8 2233 2144 2133 2222 2234 2145 2134 2223
8 2234 2145 2134 2223 2235 2146 2135 2224
8 2235 2146 2135 2224 2236 2147 2136 2225
8 2236 2147 2136 2225 2237 2148 2137 2226
8 2237 2148 2137 2226 2238 2149 2138 2227
8 2238 2149 2138 2227 2239 2150 2139 2228
8 2240 2151 2140 2229 2241 2152 2141 2230
8 2241 2152 2141 2230 2242 2153 2142 2231
8 2242 2153 2142 2231 2243 2154 2143 2232
8 2243 2154 2143 2232 2244 2155 2144 2233
8 2244 2155 2144 2233 2245 2156 2145 2234
8 2245 2156 2145 2234 2246 2157 2146 2235
8 2246 2157 2146 2235 2247 2158 2147 2236
8 2247 2158 2147 2236 2248 2159 2148 2237
8 2248 2159 2148 2237 2249 2160 2149 2238
8 2249 2160 2149 2238 2250 2161 2150 2239
8 2251 2162 2151 2240 2252 2163 2152 2241
8 2252 2163 2152 2241 2253 2164 2153 2242
8 2253 2164 2153 2242 2254 2165 2154 2243
8 2254 2165 2154 2243 2255 2166 2155 2244
8 2255 2166 2155 2244 2256 2167 2156 2245
8 2256 2167 2156 2245 2257 2168 2157 2246
8 2257 2168 2157 2246 2258 2169 2158 2247
8 2258 2169 2158 2247 2259 2170 2159 2248
8 2259 2170 2159 2248 2260 2171 2160 2249
8 2260 2171 2160 2249 2261 2172 2161 2250
8 2262 2173 2163 2252 2263 2174 2164 2253
8 2263 2174 2164 2253 2264 2175 2165 2254
8 2264 2175 2165 2254 2265 2176 2166 2255
8 2265 2176 2166 2255 2266 2177 2167 2256
8 2266 2177 2167 2256 2267 2178 2168 2257
8 2267 2178 2168 2257 2268 2179 2169 2258
8 2268 2179 2169 2258 2269 2180 2170 2259
8 2269 2180 2170 2259 2270 2181 2171 2260
8 2270 2181 2171 2260 2271 2182 2172 2261
8 2272 2183 2173 2262 2273 2184 2174 2263
8 2273 2184 2174 2263 2274 2185 2175 2264
8 2274 2185 2175 2264 2275 2186 2176 2265
8 2275 2186 2176 2265 2276 2187 2177 2266
8 2276 2187 2177 2266 2277 2188 2178 2267
8 2277 2188 2178 2267 2278 2189 2179 2268
8 2278 2189 2179 2268 2279 2190 2180 2269
8 2279 2190 2180 2269 2280 2191 2181 2270
8 2281 2192 2186 2275 2282 2193 2187 2276
8 2282 2193 2187 2276 2283 2194 2188 2277
8 2283 2194 2188 2277 2284 2195 2189 2278
8 2284 2195 2189 2278 2285 2196 2190 2279
8 2285 2196 2190 2279 2286 2197 2191 2280
8 2287 2198 3739 3748 2288 2199 3740 3749
8 2288 2199 3740 3749 2289 2200 3741 3750
8 2289 2200 3741 3750 2290 2201 3742 3751
8 2290 2201 3742 3751 2291 2202 3743 3752
8 2291 2202 3743 3752 2292 2203 3744 3753
8 2292 2203 3744 3753 2293 2204 3745 3754
8 2293 2204 3745 3754 2294 2205 3746 3755
8 2294 2205 3746 3755 2295 2206 3747 3756
8 2297 2208 2198 2287 2298 2209 2199 2288
8 2298 2209 2199 2288 2299 2210 2200 2289
8 2299 2210 2200 2289 2300 2211 2201 2290
8 2300 2211 2201 2290 2301 2212 2202 2291
8 2301 2212 2202 2291 2302 2213 2203 2292
8 2302 2213 2203 2292 2303 2214 2204 2293
8 2303 2214 2204 2293 2304 2215 2205 2294
8 2304 2215 2205 2294 2305 2216 2206 2295
8 2305 2216 2206 2295 2306 2217 2207 2296
8 2308 2219 2208 2297 2309 2220 2209 2298
8 2309 2220 2209 2298 2310 2221 2210 2299
8 2310 2221 2210 2299 2311 2222 2211 2300
8 2311 2222 2211 2300 2312 2223 2212 2301
8 2312 2223 2212 2301 2313 2224 2213 2302
8 2313 2224 2213 2302 2314 2225 2214 2303
8 2314 2225 2214 2303 2315 2226 2215 2304
8 2315 2226 2215 2304 2316 2227 2216 2305
8 2316 2227 2216 2305 2317 2228 2217 2306
8 2318 2229 2218 2307 2319 2230 2219 2308
8 2319 2230 2219 2308 2320 2231 2220 2309
8 2320 2231 2220 2309 2321 2232 2221 2310
8 2321 2232 2221 2310 2322 2233 2222 2311
8 2322 2233 2222 2311 2323 2234 2223 2312
8 2323 2234 2223 2312 2324 2235 2224 2313
8 2324 2235 2224 2313 2325 2236 2225 2314
8 2325 2236 2225 2314 2326 2237 2226 2315
8 2326 2237 2226 2315 2327 2238 2227 2316
8 2327 2238 2227 2316 2328 2239 2228 2317
8 2329 2240 2229 2318 2330 2241 2230 2319
8 2330 2241 2230 2319 2331 2242 2231 2320
8 2331 2242 2231 2320 2332 2243 2232 2321
8 2332 2243 2232 2321 2333 2244 2233 2322
8 2333 2244 2233 2322 2334 2245 2234 2323
8 2334 2245 2234 2323 2335 2246 2235 2324
8 2335 2246 2235 2324 2336 2247 2236 2325
8 2336 2247 2236 2325 2337 2248 2237 2326
8 2337 2248 2237 2326 2338 2249 2238 2327
8 2338 2249 2238 2327 2339 2250 2239 2328
8 2340 2251 2240 2329 2341 2252 2241 2330
8 2341 2252 2241 2330 2342 2253 2242 2331
8 2342 2253 2242 2331 2343 2254 2243 2332
8 2343 2254 2243 2332 2344 2255 2244 2333
8 2344 2255 2244 2333 2345 2256 2245 2334
8 2345 2256 2245 2334 2346 2257 2246 2335
8 2346 2257 2246 2335 2347 2258 2247 2336
8 2347 2258 2247 2336 2348 2259 2248 2337
8 2348 2259 2248 2337 2349 2260 2249 2338
8 2349 2260 2249 2338 2350 2261 2250 2339
8 2351 2262 2252 2341 2352 2263 2253 2342
8 2352 2263 2253 2342 2353 2264 2254 2343
8 2353 2264 2254 2343 2354 2265 2255 2344
8 2354 2265 2255 2344 2355 2266 2256 2345
8 2355 2266 2256 2345 2356 2267 2257 2346
8 2356 2267 2257 2346 2357 2268 2258 2347
8 2357 2268 2258 2347 2358 2269 2259 2348
8 2358 2269 2259 2348 2359 2270 2260 2349
8 2359 2270 2260 2349 2360 2271 2261 2350
8 2361 2272 2262 2351 2362 2273 2263 2352
8 2362 2273 2263 2352 2363 2274 2264 2353
8 2363 2274 2264 2353 2364 2275 2265 2354
8 2364 2275 2265 2354 2365 2276 2266 2355
8 2365 2276 2266 2355 2366 2277 2267 2356
8 2366 2277 2267 2356 2367 2278 2268 2357
8 2367 2278 2268 2357 2368 2279 2269 2358
8 2368 2279 2269 2358 2369 2280 2270 2359
8 2370 2281 2275 2364 2371 2282 2276 2365
8 2371 2282 2276 2365 2372 2283 2277 2366
8 2372 2283 2277 2366 2373 2284 2278 2367
8 2373 2284 2278 2367 2374 2285 2279 2368
8 2374 2285 2279 2368 2375 2286 2280 2369
8 2376 2287 3748 3757 2377 2288 3749 3758
8 2377 2288 3749 3758 2378 2289 3750 3759
8 2378 2289 3750 3759 2379 2290 3751 3760
8 2379 2290 3751 3760 2380 2291 3752 3761
8 2380 2291 3752 3761 2381 2292 3753 3762
8 2381 2292 3753 3762 2382 2293 3754 3763
8 2382 2293 3754 3763 2383 2294 3755 3764
8 2383 2294 3755 3764 2384 2295 3756 3765
8 2386 2297 2287 2376 2387 2298 2288 2377
8 2387 2298 2288 2377 2388 2299 2289 2378
8 2388 2299 2289 2378 2389 2300 2290 2379
8 2389 2300 2290 2379 2390 2301 2291 2380
8 2390 2301 2291 2380 2391 2302 2292 2381
8 2391 2302 2292 2381 2392 2303 2293 2382
8 2392 2303 2293 2382 2393 2304 2294 2383
8 2393 2304 2294 2383 2394 2305 2295 2384
8 2394 2305 2295 2384 2395 2306 2296 2385
8 2397 2308 2297 2386 2398 2309 2298 2387
8 2398 2309 2298 2387 2399 2310 2299 2388
8 2399 2310 2299 2388 2400 2311 2300 2389
8 2400 2311 2300 2389 2401 2312 2301 2390
8 2401 2312 2301 2390 2402 2313 2302 2391
8 2402 2313 2302 2391 2403 2314 2303 2392
8 2403 2314 2303 2392 2404 2315 2304 2393
8 2404 2315 2304 2393 2405 2316 2305 2394
8 2405 2316 2305 2394 2406 2317 2306 2395
8 2407 2318 2307 2396 2408 2319 2308 2397
8 2408 2319 2308 2397 2409 2320 2309 2398
8 2409 2320 2309 2398 2410 2321 2310 2399
8 2410 2321 2310 2399 2411 2322 2311 2400
8 2411 2322 2311 2400 2412 2323 2312 2401
8 2412 2323 2312 2401 2413 2324 2313 2402
8 2413 2324 2313 2402 2414 2325 2314 2403
8 2414 2325 2314 2403 2415 2326 2315 2404
8 2415 2326 2315 2404 2416 2327 2316 2405
8 2416 2327 2316 2405 2417 2328 2317 2406
8 2418 2329 2318 2407 2419 2330 2319 2408
8 2419 2330 2319 2408 2420 2331 2320 2409
8 2420 2331 2320 2409 2421 2332 2321 2410
8 2421 2332 2321 2410 2422 2333 2322 2411
8 2422 2333 2322 2411 2423 2334 2323 2412
8 2423 2334 2323 2412 2424 2335 2324 2413
8 2424 2335 2324 2413 2425 2336 2325 2414
8 2425 2336 2325 2414 2426 2337 2326 2415
8 2426 2337 2326 2415 2427 2338 2327 2416
8 2427 2338 2327 2416 2428 2339 2328 2417
8 2429 2340 2329 2418 2430 2341 2330 2419
8 2430 2341 2330 2419 2431 2342 2331 2420
8 2431 2342 2331 2420 2432 2343 2332 2421
8 2432 2343 2332 2421 2433 2344 2333 2422
8 2433 2344 2333 2422 2434 2345 2334 2423
8 2434 2345 2334 2423 2435 2346 2335 2424
8 2435 2346 2335 2424 2436 2347 2336 2425
8 2436 2347 2336 2425 2437 2348 2337 2426
8 2437 2348 2337 2426 2438 2349 2338 2427
8 2438 2349 2338 2427 2439 2350 2339 2428
8 2440 2351 2341 2430 2441 2352 2342 2431
8 2441 2352 2342 2431 2442 2353 2343 2432
8 2442 2353 2343 2432 2443 2354 2344 2433
8 2443 2354 2344 2433 2444 2355 2345 2434
8 2444 2355 2345 2434 2445 2356 2346 2435
8 2445 2356 2346 2435 2446 2357 2347 2436
8 2446 2357 2347 2436 2447 2358 2348 2437
8 2447 2358 2348 2437 2448 2359 2349 2438
8 2448 2359 2349 2438 2449 2360 2350 2439
8 2450 2361 2351 2440 2451 2362 2352 2441
8 2451 2362 2352 2441 2452 2363 2353 2442
8 2452 2363 2353 2442 2453 2364 2354 2443
8 2453 2364 2354 2443 2454 2365 2355 2444
8 2454 2365 2355 2444 2455 2366 2356 2445
8 2455 2366 2356 2445 2456 2367 2357 2446
8 2456 2367 2357 2446 2457 2368 2358 2447
8 2457 2368 2358 2447 2458 2369 2359 2448
8 2459 2370 2364 2453 2460 2371 2365 2454
8 2460 2371 2365 2454 2461 2372 2366 2455
8 2461 2372 2366 2455 2462 2373 2367 2456
8 2462 2373 2367 2456 2463 2374 2368 2457
8 2463 2374 2368 2457 2464 2375 2369 2458
8 2465 2376 3757 3766 2466 2377 3758 3767
8 2466 2377 3758 3767 2467 2378 3759 3768
8 2467 2378 3759 3768 2468 2379 3760 3769
8 2468 2379 3760 3769 2469 2380 3761 3770
8 2469 2380 3761 3770 2470 2381 3762 3771
8 2470 2381 3762 3771 2471 2382 3763 3772
8 2471 2382 3763 3772 2472 2383 3764 3773
8 2472 2383 3764 3773 2473 2384 3765 3774
8 2475 2386 2376 2465 2476 2387 2377 2466
8 2476 2387 2377 2466 2477 2388 2378 2467
8 2477 2388 2378 2467 2478 2389 2379 2468
8 2478 2389 2379 2468 2479 2390 2380 2469
8 2479 2390 2380 2469 2480 2391 2381 2470
8 2480 2391 2381 2470 2481 2392 2382 2471
8 2481 2392 2382 2471 2482 2393 2383 2472
8 2482 2393 2383 2472 2483 2394 2384 2473
8 2483 2394 2384 2473 2484 2395 2385 2474
8 2486 2397 2386 2475 2487 2398 2387 2476
8 2487 2398 2387 2476 2488 2399 2388 2477
8 2488 2399 2388 2477 2489 2400 2389 2478
8 2489 2400 2389 2478 2490 2401 2390 2479
8 2490 2401 2390 2479 2491 2402 2391 2480
8 2491 2402 2391 2480 2492 2403 2392 2481
8 2492 2403 2392 2481 2493 2404 2393 2482
8 2493 2404 2393 2482 2494 2405 2394 2483
8 2494 2405 2394 2483 2495 2406 2395 2484
8 2496 2407 2396 2485 2497 2408 2397 2486
8 2497 2408 2397 2486 2498 2409 2398 2487
8 2498 2409 2398 2487 2499 2410 2399 2488
8 2499 2410 2399 2488 2500 2411 2400 2489
8 2500 2411 2400 2489 2501 2412 2401 2490
8 2501 2412 2401 2490 2502 2413 2402 2491
8 2502 2413 2402 2491 2503 2414 2403 2492
8 2503 2414 2403 2492 2504 2415 2404 2493
8 2504 2415 2404 2493 2505 2416 2405 2494
8 2505 2416 2405 2494 2506 2417 2406 2495
8 2507 2418 2407 2496 2508 2419 2408 2497
8 2508 2419 2408 2497 2509 2420 2409 2498
8 2509 2420 2409 2498 2510 2421 2410 2499
8 2510 2421 2410 2499 2511 2422 2411 2500
8 2511 2422 2411 2500 2512 2423 2412 2501
8 2512 2423 2412 2501 2513 2424 2413 2502
8 2513 2424 2413 2502 2514 2425 2414 2503
8 2514 2425 2414 2503 2515 2426 2415 2504
8 2515 2426 2415 2504 2516 2427 2416 2505
8 2516 2427 2416 2505 2517 2428 2417 2506
8 2518 2429 2418 2507 2519 2430 2419 2508
8 2519 2430 2419 2508 2520 2431 2420 2509
8 2520 2431 2420 2509 2521 2432 2421 2510
8 2521 2432 2421 2510 2522 2433 2422 2511
8 2522 2433 2422 2511 2523 2434 2423 2512
8 2523 2434 2423 2512 2524 2435 2424 2513
8 2524 2435 2424 2513 2525 2436 2425 2514
8 2525 2436 2425 2514 2526 2437 2426 2515
8 2526 2437 2426 2515 2527 2438 2427 2516
8 2527 2438 2427 2516 2528 2439 2428 2517
8 2529 2440 2430 2519 2530 2441 2431 2520
8 2530 2441 2431 2520 2531 2442 2432 2521
8 2531 2442 2432 2521 2532 2443 2433 2522
8 2532 2443 2433 2522 2533 2444 2434 2523
8 2533 2444 2434 2523 2534 2445 2435 2524
8 2534 2445 2435 2524 2535 2446 2436 2525
8 2535 2446 2436 2525 2536 2447 2437 2526
8 2536 2447 2437 2526 2537 2448 2438 2527
8 2537 2448 2438 2527 2538 2449 2439 2528
8 2539 2450 2440 2529 2540 2451 2441 2530
8 2540 2451 2441 2530 2541 2452 2442 2531
8 2541 2452 2442 2531 2542 2453 2443 2532
8 2542 2453 2443 2532 2543 2454 2444 2533
8 2543 2454 2444 2533 2544 2455 2445 2534
8 2544 2455 2445 2534 2545 2456 2446 2535
8 2545 2456 2446 2535 2546 2457 2447 2536
8 2546 2457 2447 2536 2547 2458 2448 2537
8 2548 2459 2453 2542 2549 2460 2454 2543
8 2549 2460 2454 2543 2550 2461 2455 2544
8 2550 2461 2455 2544 2551 2462 2456 2545
8 2551 2462 2456 2545 2552 2463 2457 2546
8 2552 2463 2457 2546 2553 2464 2458 2547
8 2554 2465 3766 3775 2555 2466 3767 3776
8 2555 2466 3767 3776 2556 2467 3768 3777
8 2556 2467 3768 3777 2557 2468 3769 3778
8 2557 2468 3769 3778 2558 2469 3770 3779
8 2558 2469 3770 3779 2559 2470 3771 3780
8 2559 2470 3771 3780 2560 2471 3772 3781
8 2560 2471 3772 3781 2561 2472 3773 3782
8 2561 2472 3773 3782 2562 2473 3774 3783
8 2564 2475 2465 2554 2565 2476 2466 2555
8 2565 2476 2466 2555 2566 2477 2467 2556
8 2566 2477 2467 2556 2567 2478 2468 2557
8 2567 2478 2468 2557 2568 2479 2469 2558
8 2568 2479 2469 2558 2569 2480 2470 2559
8 2569 2480 2470 2559 2570 2481 2471 2560
8 2570 2481 2471 2560 2571 2482 2472 2561
8 2571 2482 2472 2561 2572 2483 2473 2562
8 2572 2483 2473 2562 2573 2484 2474 2563
8 2575 2486 2475 2564 2576 2487 2476 2565
8 2576 2487 2476 2565 2577 2488 2477 2566
8 2577 2488 2477 2566 2578 2489 2478 2567
8 2578 2489 2478 2567 2579 2490 2479 2568
8 2579 2490 2479 2568 2580 2491 2480 2569
8 2580 2491 2480 2569 2581 2492 2481 2570
8 2581 2492 2481 2570 2582 2493 2482 2571
8 2582 2493 2482 2571 2583 2494 2483 2572
8 2583 2494 2483 2572 2584 2495 2484 2573
8 2585 2496 2485 2574 2586 2497 2486 2575
8 2586 2497 2486 2575 2587 2498 2487 2576
8 2587 2498 2487 2576 2588 2499 2488 2577
8 2588 2499 2488 2577 2589 2500 2489 2578
8 2589 2500 2489 2578 2590 2501 2490 2579
8 2590 2501 2490 2579 2591 2502 2491 2580
8 2591 2502 2491 2580 2592 2503 2492 2581
8 2592 2503 2492 2581 2593 2504 2493 2582
8 2593 2504 2493 2582 2594 2505 2494 2583
8 2594 2505 2494 2583 2595 2506 2495 2584
8 2596 2507 2496 2585 2597 2508 2497 2586
8 2597 2508 2497 2586 2598 2509 2498 2587
8 2598 2509 2498 2587 2599 2510 2499 2588
8 2599 2510 2499 2588 2600 2511 2500 2589
8 2600 2511 2500 2589 2601 2512 2501 2590
8 2601 2512 2501 2590 2602 2513 2502 2591
8 2602 2513 2502 2591 2603 2514 2503 2592
8 2603 2514 2503 2592 2604 2515 2504 2593
8 2604 2515 2504 2593 2605 2516 2505 2594
8 2605 2516 2505 2594 2606 2517 2506 2595
8 2607 2518 2507 2596 2608 2519 2508 2597
8 2608 2519 2508 2597 2609 2520 2509 2598
8 2609 2520 2509 2598 2610 2521 2510 2599
8 2610 2521 2510 2599 2611 2522 2511 2600
8 2611 2522 2511 2600 2612 2523 2512 2601
8 2612 2523 2512 2601 2613 2524 2513 2602
8 2613 2524 2513 2602 2614 2525 2514 2603
8 2614 2525 2514 2603 2615 2526 2515 2604
8 2615 2526 2515 2604 2616 2527 2516 2605
8 2616 2527 2516 2605 2617 2528 2517 2606
8 2618 2529 2519 2608 2619 2530 2520 2609
8 2619 2530 2520 2609 2620 2531 2521 2610
8 2620 2531 2521 2610 2621 2532 2522 2611
8 2621 2532 2522 2611 2622 2533 2523 2612
8 2622 2533 2523 2612 2623 2534 2524 2613
8 2623 2534 2524 2613 2624 2535 2525 2614
8 2624 2535 2525 2614 2625 2536 2526 2615
8 2625 2536 2526 2615 2626 2537 2527 2616
8 2626 2537 2527 2616 2627 2538 2528 2617
8 2628 2539 2529 2618 2629 2540 2530 2619
8 2629 2540 2530 2619 2630 2541 2531 2620
8 2630 2541 2531 2620 2631 2542 2532 2621
8 2631 2542 2532 2621 2632 2543 2533 2622
8 2632 2543 2533 2622 2633 2544 2534 2623
8 2633 2544 2534 2623 2634 2545 2535 2624
8 2634 2545 2535 2624 2635 2546 2536 2625
8 2635 2546 2536 2625 2636 2547 2537 2626
8 2637 2548 2542 2631 2638 2549 2543 2632
8 2638 2549 2543 2632 2639 2550 2544 2633
8 2639 2550 2544 2633 2640 2551 2545 2634
8 2640 2551 2545 2634 2641 2552 2546 2635
8 2641 2552 2546 2635 2642 2553 2547 2636
8 2643 2554 3775 3784 2644 2555 3776 3785
8 2644 2555 3776 3785 2645 2556 3777 3786
8 2645 2556 3777 3786 2646 2557 3778 3787
8 2646 2557 3778 3787 2647 2558 3779 3788
8 2647 2558 3779 3788 2648 2559 3780 3789
8 2648 2559 3780 3789 2649 2560 3781 3790
8 2649 2560 3781 3790 2650 2561 3782 3791
8 2650 2561 3782 3791 2651 2562 3783 3792
8 2653 2564 2554 2643 2654 2565 2555 2644
8 2654 2565 2555 2644 2655 2566 2556 2645
8 2655 2566 2556 2645 2656 2567 2557 2646
8 2656 2567 2557 2646 2657 2568 2558 2647
8 2657 2568 2558 2647 2658 2569 2559 2648
8 2658 2569 2559 2648 2659 2570 2560 2649
8 2659 2570 2560 2649 2660 2571 2561 2650
8 2660 2571 2561 2650 2661 2572 2562 2651
8 2661 2572 2562 2651 2662 2573 2563 2652
8 2664 2575 2564 2653 2665 2576 2565 2654
8 2665 2576 2565 2654 2666 2577 2566 2655
8 2666 2577 2566 2655 2667 2578 2567 2656
8 2667 2578 2567 2656 2668 2579 2568 2657
8 2668 2579 2568 2657 2669 2580 2569 2658
8 2669 2580 2569 2658 2670 2581 2570 2659
8 2670 2581 2570 2659 2671 2582 2571 2660
8 2671 2582 2571 2660 2672 2583 2572 2661
8 2672 2583 2572 2661 2673 2584 2573 2662
8 2674 2585 2574 2663 2675 2586 2575 2664
8 2675 2586 2575 2664 2676 2587 2576 2665
8 2676 2587 2576 2665 2677 2588 2577 2666
8 2677 2588 2577 2666 2678 2589 2578 2667
8 2678 2589 2578 2667 2679 2590 2579 2668
8 2679 2590 2579 2668 2680 2591 2580 2669
8 2680 2591 2580 2669 2681 2592 2581 2670
8 2681 2592 2581 2670 2682 2593 2582 2671
8 2682 2593 2582 2671 2683 2594 2583 2672
8 2683 2594 2583 2672 2684 2595 2584 2673
8 2685 2596 2585 2674 2686 2597 2586 2675
8 2686 2597 2586 2675 2687 2598 2587 2676
8 2687 2598 2587 2676 2688 2599 2588 2677
8 2688 2599 2588 2677 2689 2600 2589 2678
8 2689 2600 2589 2678 2690 2601 2590 2679
8 2690 2601 2590 2679 2691 2602 2591 2680
8 2691 2602 2591 2680 2692 2603 2592 2681
8 2692 2603 2592 2681 2693 2604 2593 2682
8 2693 2604 2593 2682 2694 2605 2594 2683
8 2694 2605 2594 2683 2695 2606 2595 2684
8 2696 2607 2596 2685 2697 2608 2597 2686
8 2697 2608 2597 2686 2698 2609 2598 2687
8 2698 2609 2598 2687 2699 2610 2599 2688
8 2699 2610 2599 2688 2700 2611 2600 2689
8 2700 2611 2600 2689 2701 2612 2601 2690
8 2701 2612 2601 2690 2702 2613 2602 2691
8 2702 2613 2602 2691 2703 2614 2603 2692
8 2703 2614 2603 2692 2704 2615 2604 2693
8 2704 2615 2604 2693 2705 2616 2605 2694
8 2705 2616 2605 2694 2706 2617 2606 2695
8 2707 2618 2608 2697 2708 2619 2609 2698
8 2708 2619 2609 2698 2709 2620 2610 2699
8 2709 2620 2610 2699 2710 2621 2611 2700
8 2710 2621 2611 2700 2711 2622 2612 2701
8 2711 2622 2612 2701 2712 2623 2613 2702
8 2712 2623 2613 2702 2713 2624 2614 2703
8 2713 2624 2614 2703 2714 2625 2615 2704
8 2714 2625 2615 2704 2715 2626 2616 2705
8 2715 2626 2616 2705 2716 2627 2617 2706
8 2717 2628 2618 2707 2718 2629 2619 2708
8 2718 2629 2619 2708 2719 2630 2620 2709
8 2719 2630 2620 2709 2720 2631 2621 2710
8 2720 2631 2621 2710 2721 2632 2622 2711
8 2721 2632 2622 2711 2722 2633 2623 2712
8 2722 2633 2623 2712 2723 2634 2624 2713
8 2723 2634 2624 2713 2724 2635 2625 2714
8 2724 2635 2625 2714 2725 2636 2626 2715
8 2726 2637 2631 2720 2727 2638 2632 2721
8 2727 2638 2632 2721 2728 2639 2633 2722
8 2728 2639 2633 2722 2729 2640 2634 2723
8 2729 2640 2634 2723 2730 2641 2635 2724
8 2730 2641 2635 2724 2731 2642 2636 2725
8 2732 2643 3784 3793 2733 2644 3785 3794
8 2733 2644 3785 3794 2734 2645 3786 3795
8 2734 2645 3786 3795 2735 2646 3787 3796
8 2735 2646 3787 3796 2736 2647 3788 3797
8 2736 2647 3788 3797 2737 2648 3789 3798
8 2737 2648 3789 3798 2738 2649 3790 3799
8 2738 2649 3790 3799 2739 2650 3791 3800
8 2739 2650 3791 3800 2740 2651 3792 3801
8 2742 2653 2643 2732 2743 2654 2644 2733
8 2743 2654 2644 2733 2744 2655 2645 2734
8 2744 2655 2645 2734 2745 2656 2646 2735
8 2745 2656 2646 2735 2746 2657 2647 2736
8 2746 2657 2647 2736 2747 2658 2648 2737
8 2747 2658 2648 2737 2748 2659 2649 2738
8 2748 2659 2649 2738 2749 2660 2650 2739
8 2749 2660 2650 2739 2750 2661 2651 2740
8 2750 2661 2651 2740 2751 2662 2652 2741
8 2753 2664 2653 2742 2754 2665 2654 2743
8 2754 2665 2654 2743 2755 2666 2655 2744
8 2755 2666 2655 2744 2756 2667 2656 2745
8 2756 2667 2656 2745 2757 2668 2657 2746
8 2757 2668 2657 2746 2758 2669 2658 2747
8 2758 2669 2658 2747 2759 2670 2659 2748
8 2759 2670 2659 2748 2760 2671 2660 2749
8 2760 2671 2660 2749 2761 2672 2661 2750
8 2761 2672 2661 2750 2762 2673 2662 2751
8 2763 2674 2663 2752 2764 2675 2664 2753
8 2764 2675 2664 2753 2765 2676 2665 2754
8 2765 2676 2665 2754 2766 2677 2666 2755
8 2766 2677 2666 2755 2767 2678 2667 2756
8 2767 2678 2667 2756 2768 2679 2668 2757
8 2768 2679 2668 2757 2769 2680 2669 2758
8 2769 2680 2669 2758 2770 2681 2670 2759
8 2770 2681 2670 2759 2771 2682 2671 2760
8 2771 2682 2671 2760 2772 2683 2672 2761
8 2772 2683 2672 2761 2773 2684 2673 2762
8 2774 2685 2674 2763 2775 2686 2675 2764
8 2775 2686 2675 2764 2776 2687 2676 2765
8 2776 2687 2676 2765 2777 2688 2677 2766
8 2777 2688 2677 2766 2778 2689 2678 2767
8 2778 2689 2678 2767 2779 2690 2679 2768
8 2779 2690 2679 2768 2780 2691 2680 2769
8 2780 2691 2680 2769 2781 2692 2681 2770
8 2781 2692 2681 2770 2782 2693 2682 2771
8 2782 2693 2682 2771 2783 2694 2683 2772
8 2783 2694 2683 2772 2784 2695 2684 2773
8 2785 2696 2685 2774 2786 2697 2686 2775
8 2786 2697 2686 2775 2787 2698 2687 2776
8 2787 2698 2687 2776 2788 2699 2688 2777
8 2788 2699 2688 2777 2789 2700 2689 2778
8 2789 2700 2689 2778 2790 2701 2690 2779
8 2790 2701 2690 2779 2791 2702 2691 2780
8 2791 2702 2691 2780 2792 2703 2692 2781
8 2792 2703 2692 2781 2793 2704 2693 2782
8 2793 2704 2693 2782 2794 2705 2694 2783
8 2794 2705 2694 2783 2795 2706 2695 2784
8 2796 2707 2697 2786 2797 2708 2698 2787
8 2797 2708 2698 2787 2798 2709 2699 2788
8 2798 2709 2699 2788 2799 2710 2700 2789
8 2799 2710 2700 2789 2800 2711 2701 2790
8 2800 2711 2701 2790 2801 2712 2702 2791
8 2801 2712 2702 2791 2802 2713 2703 2792
8 2802 2713 2703 2792 2803 2714 2704 2793
8 2803 2714 2704 2793 2804 2715 2705 2794
8 2804 2715 2705 2794 2805 2716 2706 2795
8 2806 2717 2707 2796 2807 2718 2708 2797
8 2807 2718 2708 2797 2808 2719 2709 2798
8 2808 2719 2709 2798 2809 2720 2710 2799
8 2809 2720 2710 2799 2810 2721 2711 2800
8 2810 2721 2711 2800 2811 2722 2712 2801
8 2811 2722 2712 2801 2812 2723 2713 2802
8 2812 2723 2713 2802 2813 2724 2714 2803
8 2813 2724 2714 2803 2814 2725 2715 2804
8 2815 2726 2720 2809 2816 2727 2721 2810
8 2816 2727 2721 2810 2817 2728 2722 2811
8 2817 2728 2722 2811 2818 2729 2723 2812
8 2818 2729 2723 2812 2819 2730 2724 2813
8 2819 2730 2724 2813 2820 2731 2725 2814
8 2821 2732 3793 3802 2822 2733 3794 3803
8 2822 2733 3794 3803 2823 2734 3795 3804
8 2823 2734 3795 3804 2824 2735 3796 3805
8 2824 2735 3796 3805 2825 2736 3797 3806
8 2825 2736 3797 3806 2826 2737 3798 3807
8 2826 2737 3798 3807 2827 2738 3799 3808
8 2827 2738 3799 3808 2828 2739 3800 3809
8 2828 2739 3800 3809 2829 2740 3801 3810
8 2831 2742 2732 2821 2832 2743 2733 2822
8 2832 2743 2733 2822 2833 2744 2734 2823
8 2833 2744 2734 2823 2834 2745 2735 2824
8 2834 2745 2735 2824 2835 2746 2736 2825
8 2835 2746 2736 2825 2836 2747 2737 2826
8 2836 2747 2737 2826 2837 2748 2738 2827
8 2837 2748 2738 2827 2838 2749 2739 2828
8 2838 2749 2739 2828 2839 2750 2740 2829
8 2839 2750 2740 2829 2840 2751 2741 2830
8 2842 2753 2742 2831 2843 2754 2743 2832
8 2843 2754 2743 2832 2844 2755 2744 2833
8 2844 2755 2744 2833 2845 2756 2745 2834
8 2845 2756 2745 2834 2846 2757 2746 2835
8 2846 2757 2746 2835 2847 2758 2747 2836
8 2847 2758 2747 2836 2848 2759 2748 2837
8 2848 2759 2748 2837 2849 2760 2749 2838
8 2849 2760 2749 2838 2850 2761 2750 2839
8 2850 2761 2750 2839 2851 2762 2751 2840
8 2852 2763 2752 2841 2853 2764 2753 2842
8 2853 2764 2753 2842 2854 2765 2754 2843
8 2854 2765 2754 2843 2855 2766 2755 2844
8 2855 2766 2755 2844 2856 2767 2756 2845
8 2856 2767 2756 2845 2857 2768 2757 2846
8 2857 2768 2757 2846 2858 2769 2758 2847
8 2858 2769 2758 2847 2859 2770 2759 2848
8 2859 2770 2759 2848 2860 2771 2760 2849
8 2860 2771 2760 2849 2861 2772 2761 2850
8 2861 2772 2761 2850 2862 2773 2762 2851
8 2863 2774 2763 2852 2864 2775 2764 2853
8 2864 2775 2764 2853 2865 2776 2765 2854
8 2865 2776 2765 2854 2866 2777 2766 2855
8 2866 2777 2766 2855 2867 2778 2767 2856
8 2867 2778 2767 2856 2868 2779 2768 2857
8 2868 2779 2768 2857 2869 2780 2769 2858
8 2869 2780 2769 2858 2870 2781 2770 2859
8 2870 2781 2770 2859 2871 2782 2771 2860
8 2871 2782 2771 2860 2872 2783 2772 2861
8 2872 2783 2772 2861 2873 2784 2773 2862
8 2874 2785 2774 2863 2875 2786 2775 2864
8 2875 2786 2775 2864 2876 2787 2776 2865
8 2876 2787 2776 2865 2877 2788 2777 2866
8 2877 2788 2777 2866 2878 2789 2778 2867
8 2878 2789 2778 2867 2879 2790 2779 2868
8 2879 2790 2779 2868 2880 2791 2780 2869
8 2880 2791 2780 2869 2881 2792 2781 2870
8 2881 2792 2781 2870 2882 2793 2782 2871
8 2882 2793 2782 2871 2883 2794 2783 2872
8 2883 2794 2783 2872 2884 2795 2784 2873
8 2885 2796 2786 2875 2886 2797 2787 2876
8 2886 2797 2787 2876 2887 2798 2788 2877
8 2887 2798 2788 2877 2888 2799 2789 2878
8 2888 2799 2789 2878 2889 2800 2790 2879
8 2889 2800 2790 2879 2890 2801 2791 2880
8 2890 2801 2791 2880 2891 2802 2792 2881
8 2891 2802 2792 2881 2892 2803 2793 2882
8 2892 2803 2793 2882 2893 2804 2794 2883
8 2893 2804 2794 2883 2894 2805 2795 2884
8 2895 2806 2796 2885 2896 2807 2797 2886
8 2896 2807 2797 2886 2897 2808 2798 2887
8 2897 2808 2798 2887 2898 2809 2799 2888
8 2898 2809 2799 2888 2899 2810 2800 2889
8 2899 2810 2800 2889 2900 2811 2801 2890
8 2900 2811 2801 2890 2901 2812 2802 2891
8 2901 2812 2802 2891 2902 2813 2803 2892
8 2902 2813 2803 2892 2903 2814 2804 2893
8 2904 2815 2809 2898 2905 2816 2810 2899
8 2905 2816 2810 2899 2906 2817 2811 2900
8 2906 2817 2811 2900 2907 2818 2812 2901
8 2907 2818 2812 2901 2908 2819 2813 2902
8 2908 2819 2813 2902 2909 2820 2814 2903
8 2910 2821 3802 3811 2911 2822 3803 3812
8 2911 2822 3803 3812 2912 2823 3804 3813
8 2912 2823 3804 3813 2913 2824 3805 3814
8 2913 2824 3805 3814 2914 2825 3806 3815
8 2914 2825 3806 3815 2915 2826 3807 3816
8 2915 2826 3807 3816 2916 2827 3808 3817
8 2916 2827 3808 3817 2917 2828 3809 3818
8 2917 2828 3809 3818 2918 2829 3810 3819
8 2920 2831 2821 2910 2921 2832 2822 2911
8 2921 2832 2822 2911 2922 2833 2823 2912
8 2922 2833 2823 2912 2923 2834 2824 2913
8 2923 2834 2824 2913 2924 2835 2825 2914
8 2924 2835 2825 2914 2925 2836 2826 2915
8 2925 2836 2826 2915 2926 2837 2827 2916
8 2926 2837 2827 2916 2927 2838 2828 2917
8 2927 2838 2828 2917 2928 2839 2829 2918
8 2928 2839 2829 2918 2929 2840 2830 2919
8 2931 2842 2831 2920 2932 2843 2832 2921
8 2932 2843 2832 2921 2933 2844 2833 2922
8 2933 2844 2833 2922 2934 2845 2834 2923
8 2934 2845 2834 2923 2935 2846 2835 2924
8 2935 2846 2835 2924 2936 2847 2836 2925
8 2936 2847 2836 2925 2937 2848 2837 2926
8 2937 2848 2837 2926 2938 2849 2838 2927
8 2938 2849 2838 2927 2939 2850 2839 2928
8 2939 2850 2839 2928 2940 2851 2840 2929
8 2941 2852 2841 2930 2942 2853 2842 2931
8 2942 2853 2842 2931 2943 2854 2843 2932
8 2943 2854 2843 2932 2944 2855 2844 2933
8 2944 2855 2844 2933 2945 2856 2845 2934
8 2945 2856 2845 2934 2946 2857 2846 2935
8 2946 2857 2846 2935 2947 2858 2847 2936
8 2947 2858 2847 2936 2948 2859 2848 2937
8 2948 2859 2848 2937 2949 2860 2849 2938
8 2949 2860 2849 2938 2950 2861 2850 2939
8 2950 2861 2850 2939 2951 2862 2851 2940
8 2952 2863 2852 2941 2953 2864 2853 2942
8 2953 2864 2853 2942 2954 2865 2854 2943
8 2954 2865 2854 2943 2955 2866 2855 2944
8 2955 2866 2855 2944 2956 2867 2856 2945
8 2956 2867 2856 2945 2957 2868 2857 2946
8 2957 2868 2857 2946 2958 2869 2858 2947
8 2958 2869 2858 2947 2959 2870 2859 2948
8 2959 2870 2859 2948 2960 2871 2860 2949
8 2960 2871 2860 2949 2961 2872 2861 2950
8 2961 2872 2861 2950 2962 2873 2862 2951
8 2963 2874 2863 2952 2964 2875 2864 2953
8 2964 2875 2864 2953 2965 2876 2865 2954
8 2965 2876 2865 2954 2966 2877 2866 2955
8 2966 2877 2866 2955 2967 2878 2867 2956
8 2967 2878 2867 2956 2968 2879 2868 2957
8 2968 2879 2868 2957 2969 2880 2869 2958
8 2969 2880 2869 2958 2970 2881 2870 2959
8 2970 2881 2870 2959 2971 2882 2871 2960
8 2971 2882 2871 2960 2972 2883 2872 2961
8 2972 2883 2872 2961 2973 2884 2873 2962
8 2974 2885 2875 2964 2975 2886 2876 2965
8 2975 2886 2876 2965 2976 2887 2877 2966
8 2976 2887 2877 2966 2977 2888 2878 2967
8 2977 2888 2878 2967 2978 2889 2879 2968
8 2978 2889 2879 2968 2979 2890 2880 2969
8 2979 2890 2880 2969 2980 2891 2881 2970
8 2980 2891 2881 2970 2981 2892 2882 2971
8 2981 2892 2882 2971 2982 2893 2883 2972
8 2982 2893 2883 2972 2983 2894 2884 2973
8 2984 2895 2885 2974 2985 2896 2886 2975
8 2985 2896 2886 2975 2986 2897 2887 2976
8 2986 2897 2887 2976 2987 2898 2888 2977
8 2987 2898 2888 2977 2988 2899 2889 2978
8 2988 2899 2889 2978 2989 2900 2890 2979
8 2989 2900 2890 2979 2990 2901 2891 2980
8 2990 2901 2891 2980 2991 2902 2892 2981
8 2991 2902 2892 2981 2992 2903 2893 2982
8 2993 2904 2898 2987 2994 2905 2899 2988
8 2994 2905 2899 2988 2995 2906 2900 2989
8 2995 2906 2900 2989 2996 2907 2901 2990
8 2996 2907 2901 2990 2997 2908 2902 2991
8 2997 2908 2902 2991 2998 2909 2903 2992
8 2999 2910 3811 3820 3000 2911 3812 3821
8 3000 2911 3812 3821 3001 2912 3813 3822
8 3001 2912 3813 3822 3002 2913 3814 3823
8 3002 2913 3814 3823 3003 2914 3815 3824
8 3003 2914 3815 3824 3004 2915 3816 3825
8 3004 2915 3816 3825 3005 2916 3817 3826
8 3005 2916 3817 3826 3006 2917 3818 3827
8 3006 2917 3818 3827 3007 2918 3819 3828
8 3009 2920 2910 2999 3010 2921 2911 3000
8 3010 2921 2911 3000 3011 2922 2912 3001
8 3011 2922 2912 3001 3012 2923 2913 3002
8 3012 2923 2913 3002 3013 2924 2914 3003
8 3013 2924 2914 3003 3014 2925 2915 3004
8 3014 2925 2915 3004 3015 2926 2916 3005
8 3015 2926 2916 3005 3016 2927 2917 3006
8 3016 2927 2917 3006 3017 2928 2918 3007
8 3017 2928 2918 3007 3018 2929 2919 3008
8 3020 2931 2920 3009 3021 2932 2921 3010
8 3021 2932 2921 3010 3022 2933 2922 3011
8 3022 2933 2922 3011 3023 2934 2923 3012
8 3023 2934 2923 3012 3024 2935 2924 3013
8 3024 2935 2924 3013 3025 2936 2925 3014
8 3025 2936 2925 3014 3026 2937 2926 3015
8 3026 2937 2926 3015 3027 2938 2927 3016
8 3027 2938 2927 3016 3028 2939 2928 3017
8 3028 2939 2928 3017 3029 2940 2929 3018
8 3030 2941 2930 3019 3031 2942 2931 3020
8 3031 2942 2931 3020 3032 2943 2932 3021
8 3032 2943 2932 3021 3033 2944 2933 3022
8 3033 2944 2933 3022 3034 2945 2934 3023
8 3034 2945 2934 3023 3035 2946 2935 3024
8 3035 2946 2935 3024 3036 2947 2936 3025
8 3036 2947 2936 3025 3037 2948 2937 3026
8 3037 2948 2937 3026 3038 2949 2938 3027
8 3038 2949 2938 3027 3039 2950 2939 3028
8 3039 2950 2939 3028 3040 2951 2940 3029
8 3041 2952 2941 3030 3042 2953 2942 3031
8 3042 2953 2942 3031 3043 2954 2943 3032
8 3043 2954 2943 3032 3044 2955 2944 3033
8 3044 2955 2944 3033 3045 2956 2945 3034
8 3045 2956 2945 3034 3046 2957 2946 3035
8 3046 2957 2946 3035 3047 2958 2947 3036
8 3047 2958 2947 3036 3048 2959 2948 3037
8 3048 2959 2948 3037 3049 2960 2949 3038
8 3049 2960 2949 3038 3050 2961 2950 3039
8 3050 2961 2950 3039 3051 2962 2951 3040
8 3052 2963 2952 3041 3053 2964 2953 3042
8 3053 2964 2953 3042 3054 2965 2954 3043
8 3054 2965 2954 3043 3055 2966 2955 3044
8 3055 2966 2955 3044 3056 2967 2956 3045
8 3056 2967 2956 3045 3057 2968 2957 3046
8 3057 2968 2957 3046 3058 2969 2958 3047
8 3058 2969 2958 3047 3059 2970 2959 3048
8 3059 2970 2959 3048 3060 2971 2960 3049
8 3060 2971 2960 3049 3061 2972 2961 3050
8 3061 2972 2961 3050 3062 2973 2962 3051
8 3063 2974 2964 3053 3064 2975 2965 3054
8 3064 2975 2965 3054 3065 2976 2966 3055
8 3065 2976 2966 3055 3066 2977 2967 3056
8 3066 2977 2967 3056 3067 2978 2968 3057
8 3067 2978 2968 3057 3068 2979 2969 3058
8 3068 2979 2969 3058 3069 2980 2970 3059
8 3069 2980 2970 3059 3070 2981 2971 3060
8 3070 2981 2971 3060 3071 2982 2972 3061
8 3071 2982 2972 3061 3072 2983 2973 3062
8 3073 2984 2974 3063 3074 2985 2975 3064
8 3074 2985 2975 3064 3075 2986 2976 3065
8 3075 2986 2976 3065 3076 2987 2977 3066
8 3076 2987 2977 3066 3077 2988 2978 3067
8 3077 2988 2978 3067 3078 2989 2979 3068
8 3078 2989 2979 3068 3079 2990 2980 3069
8 3079 2990 2980 3069 3080 2991 2981 3070
8 3080 2991 2981 3070 3081 2992 2982 3071
8 3082 2993 2987 3076 3083 2994 2988 3077
8 3083 2994 2988 3077 3084 2995 2989 3078
8 3084 2995 2989 3078 3085 2996 2990 3079
8 3085 2996 2990 3079 3086 2997 2991 3080
8 3086 2997 2991 3080 3087 2998 2992 3081
8 3088 2999 3820 3829 3089 3000 3821 3830
8 3089 3000 3821 3830 3090 3001 3822 3831
8 3090 3001 3822 3831 3091 3002 3823 3832
8 3091 3002 3823 3832 3092 3003 3824 3833
8 3092 3003 3824 3833 3093 3004 3825 3834
8 3093 3004 3825 3834 3094 3005 3826 3835
8 3094 3005 3826 3835 3095 3006 3827 3836
8 3095 3006 3827 3836 3096 3007 3828 3837
8 3098 3009 2999 3088 3099 3010 3000 3089
8 3099 3010 3000 3089 3100 3011 3001 3090
8 3100 3011 3001 3090 3101 3012 3002 3091
8 3101 3012 3002 3091 3102 3013 3003 3092
8 3102 3013 3003 3092 3103 3014 3004 3093
8 3103 3014 3004 3093 3104 3015 3005 3094
8 3104 3015 3005 3094 3105 3016 3006 3095
8 3105 3016 3006 3095 3106 3017 3007 3096
8 3106 3017 3007 3096 3107 3018 3008 3097
8 3109 3020 3009 3098 3110 3021 3010 3099
8 3110 3021 3010 3099 3111 3022 3011 3100
8 3111 3022 3011 3100 3112 3023 3012 3101
8 3112 3023 3012 3101 3113 3024 3013 3102
8 3113 3024 3013 3102 3114 3025 3014 3103
8 3114 3025 3014 3103 3115 3026 3015 3104
8 3115 3026 3015 3104 3116 3027 3016 3105
8 3116 3027 3016 3105 3117 3028 3017 3106
8 3117 3028 3017 3106 3118 3029 3018 3107
8 3119 3030 3019 3108 3120 3031 3020 3109
8 3120 3031 3020 3109 3121 3032 3021 3110
8 3121 3032 3021 3110 3122 3033 3022 3111
8 3122 3033 3022 3111 3123 3034 3023 3112
8 3123 3034 3023 3112 3124 3035 3024 3113
8 3124 3035 3024 3113 3125 3036 3025 3114
8 3125 3036 3025 3114 3126 3037 3026 3115
8 3126 3037 3026 3115 3127 3038 3027 3116
8 3127 3038 3027 3116 3128 3039 3028 3117
8 3128 3039 3028 3117 3129 3040 3029 3118
8 3130 3041 3030 3119 3131 3042 3031 3120
8 3131 3042 3031 3120 3132 3043 3032 3121
8 3132 3043 3032 3121 3133 3044 3033 3122
8 3133 3044 3033 3122 3134 3045 3034 3123
8 3134 3045 3034 3123 3135 3046 3035 3124
8 3135 3046 3035 3124 3136 3047 3036 3125
8 3136 3047 3036 3125 3137 3048 3037 3126
8 3137 3048 3037 3126 3138 3049 3038 3127
8 3138 3049 3038 3127 3139 3050 3039 3128
8 3139 3050 3039 3128 3140 3051 3040 3129
8 3141 3052 3041 3130 3142 3053 3042 3131
8 3142 3053 3042 3131 3143 3054 3043 3132
8 3143 3054 3043 3132 3144 3055 3044 3133
8 3144 3055 3044 3133 3145 3056 3045 3134
8 3145 3056 3045 3134 3146 3057 3046 3135
8 3146 3057 3046 3135 3147 3058 3047 3136
8 3147 3058 3047 3136 3148 3059 3048 3137
8 3148 3059 3048 3137 3149 3060 3049 3138
8 3149 3060 3049 3138 3150 3061 3050 3139
8 3150 3061 3050 3139 3151 3062 3051 3140
8 3152 3063 3053 3142 3153 3064 3054 3143
8 3153 3064 3054 3143 3154 3065 3055 3144
8 3154 3065 3055 3144 3155 3066 3056 3145
8 3155 3066 3056 3145 3156 3067 3057 3146
8 3156 3067 3057 3146 3157 3068 3058 3147
8 3157 3068 3058 3147 3158 3069 3059 3148
8 3158 3069 3059 3148 3159 3070 3060 3149
8 3159 3070 3060 3149 3160 3071 3061 3150
8 3160 3071 3061 3150 3161 3072 3062 3151
8 3162 3073 3063 3152 3163 3074 3064 3153
8 3163 3074 3064 3153 3164 3075 3065 3154
8 3164 3075 3065 3154 3165 3076 3066 3155
8 3165 3076 3066 3155 3166 3077 3067 3156
8 3166 3077 3067 3156 3167 3078 3068 3157
8 3167 3078 3068 3157 3168 3079 3069 3158
8 3168 3079 3069 3158 3169 3080 3070 3159
8 3169 3080 3070 3159 3170 3081 3071 3160
8 3171 3082 3076 3165 3172 3083 3077 3166
8 3172 3083 3077 3166 3173 3084 3078 3167
8 3173 3084 3078 3167 3174 3085 3079 3168
8 3174 3085 3079 3168 3175 3086 3080 3169
8 3175 3086 3080 3169 3176 3087 3081 3170
8 3177 3088 3829 3838 3178 3089 3830 3839
8 3178 3089 3830 3839 3179 3090 3831 3840
8 3179 3090 3831 3840 3180 3091 3832 3841
8 3180 3091 3832 3841 3181 3092 3833 3842
8 3181 3092 3833 3842 3182 3093 3834 3843
8 3182 3093 3834 3843 3183 3094 3835 3844
8 3183 3094 3835 3844 3184 3095 3836 3845
8 3184 3095 3836 3845 3185 3096 3837 3846
8 3187 3098 3088 3177 3188 3099 3089 3178
8 3188 3099 3089 3178 3189 3100 3090 3179
8 3189 3100 3090 3179 3190 3101 3091 3180
8 3190 3101 3091 3180 3191 3102 3092 3181
8 3191 3102 3092 3181 3192 3103 3093 3182
8 3192 3103 3093 3182 3193 3104 3094 3183
8 3193 3104 3094 3183 3194 3105 3095 3184
8 3194 3105 3095 3184 3195 3106 3096 3185
8 3195 3106 3096 3185 3196 3107 3097 3186
8 3198 3109 3098 3187 3199 3110 3099 3188
8 3199 3110 3099 3188 3200 3111 3100 3189
8 3200 3111 3100 3189 3201 3112 3101 3190
8 3201 3112 3101 3190 3202 3113 3102 3191
8 3202 3113 3102 3191 3203 3114 3103 3192
8 3203 3114 3103 3192 3204 3115 3104 3193
8 3204 3115 3104 3193 3205 3116 3105 3194
8 3205 3116 3105 3194 3206 3117 3106 3195
8 3206 3117 3106 3195 3207 3118 3107 3196
8 3208 3119 3108 3197 3209 3120 3109 3198
8 3209 3120 3109 3198 3210 3121 3110 3199
8 3210 3121 3110 3199 3211 3122 3111 3200
8 3211 3122 3111 3200 3212 3123 3112 3201
8 3212 3123 3112 3201 3213 3124 3113 3202
8 3213 3124 3113 3202 3214 3125 3114 3203
8 3214 3125 3114 3203 3215 3126 3115 3204
8 3215 3126 3115 3204 3216 3127 3116 3205
8 3216 3127 3116 3205 3217 3128 3117 3206
8 3217 3128 3117 3206 3218 3129 3118 3207
8 3219 3130 3119 3208 3220 3131 3120 3209
8 3220 3131 3120 3209 3221 3132 3121 3210
8 3221 3132 3121 3210 3222 3133 3122 3211
8 3222 3133 3122 3211 3223 3134 3123 3212
8 3223 3134 3123 3212 3224 3135 3124 3213
8 3224 3135 3124 3213 3225 3136 3125 3214
8 3225 3136 3125 3214 3226 3137 3126 3215
8 3226 3137 3126 3215 3227 3138 3127 3216
8 3227 3138 3127 3216 3228 3139 3128 3217
8 3228 3139 3128 3217 3229 3140 3129 3218
8 3230 3141 3130 3219 3231 3142 3131 3220
8 3231 3142 3131 3220 3232 3143 3132 3221
8 3232 3143 3132 3221 3233 3144 3133 3222
8 3233 3144 3133 3222 3234 3145 3134 3223
8 3234 3145 3134 3223 3235 3146 3135 3224
8 3235 3146 3135 3224 3236 3147 3136 3225
8 3236 3147 3136 3225 3237 3148 3137 3226
8 3237 3148 3137 3226 3238 3149 3138 3227
8 3238 3149 3138 3227 3239 3150 3139 3228
8 3239 3150 3139 3228 3240 3151 3140 3229
8 3241 3152 3142 3231 3242 3153 3143 3232
8 3242 3153 3143 3232 3243 3154 3144 3233
8 3243 3154 3144 3233 3244 3155 3145 3234
8 3244 3155 3145 3234 3245 3156 3146 3235
8 3245 3156 3146 3235 3246 3157 3147 3236
8 3246 3157 3147 3236 3247 3158 3148 3237
8 3247 3158 3148 3237 3248 3159 3149 3238
8 3248 3159 3149 3238 3249 3160 3150 3239
8 3249 3160 3150 3239 3250 3161 3151 3240
8 3251 3162 3152 3241 3252 3163 3153 3242
8 3252 3163 3153 3242 3253 3164 3154 3243
8 3253 3164 3154 3243 3254 3165 3155 3244
8 3254 3165 3155 3244 3255 3166 3156 3245
8 3255 3166 3156 3245 3256 3167 3157 3246
8 3256 3167 3157 3246 3257 3168 3158 3247
8 3257 3168 3158 3247 3258 3169 3159 3248
8 3258 3169 3159 3248 3259 3170 3160 3249
8 3260 3171 3165 3254 3261 3172 3166 3255
8 3261 3172 3166 3255 3262 3173 3167 3256
8 3262 3173 3167 3256 3263 3174 3168 3257
8 3263 3174 3168 3257 3264 3175 3169 3258
8 3264 3175 3169 3258 3265 3176 3170 3259
8 3266 3177 3838 3847 3267 3178 3839 3848
8 3267 3178 3839 3848 3268 3179 3840 3849
8 3268 3179 3840 3849 3269 3180 3841 3850
8 3269 3180 3841 3850 3270 3181 3842 3851
8 3270 3181 3842 3851 3271 3182 3843 3852
8 3271 3182 3843 3852 3272 3183 3844 3853
8 3272 3183 3844 3853 3273 3184 3845 3854
8 3273 3184 3845 3854 3274 3185 3846 3855
8 3276 3187 3177 3266 3277 3188 3178 3267
8 3277 3188 3178 3267 3278 3189 3179 3268
8 3278 3189 3179 3268 3279 3190 3180 3269
8 3279 3190 3180 3269 3280 3191 3181 3270
8 3280 3191 3181 3270 3281 3192 3182 3271
8 3281 3192 3182 3271 3282 3193 3183 3272
8 3282 3193 3183 3272 3283 3194 3184 3273
8 3283 3194 3184 3273 3284 3195 3185 3274
8 3284 3195 3185 3274 3285 3196 3186 3275
8 3287 3198 3187 3276 3288 3199 3188 3277
8 3288 3199 3188 3277 3289 3200 3189 3278
8 3289 3200 3189 3278 3290 3201 3190 3279
8 3290 3201 3190 3279 3291 3202 3191 3280
8 3291 3202 3191 3280 3292 3203 3192 3281
8 3292 3203 3192 3281 3293 3204 3193 3282
8 3293 3204 3193 3282 3294 3205 3194 3283
8 3294 3205 3194 3283 3295 3206 3195 3284
8 3295 3206 3195 3284 3296 3207 3196 3285
8 3297 3208 3197 3286 3298 3209 3198 3287
8 3298 3209 3198 3287 3299 3210 3199 3288
8 3299 3210 3199 3288 3300 3211 3200 3289
8 3300 3211 3200 3289 3301 3212 3201 3290
8 3301 3212 3201 3290 3302 3213 3202 3291
8 3302 3213 3202 3291 3303 3214 3203 3292
8 3303 3214 3203 3292 3304 3215 3204 3293
8 3304 3215 3204 3293 3305 3216 3205 3294
8 3305 3216 3205 3294 3306 3217 3206 3295
8 3306 3217 3206 3295 3307 3218 3207 3296
8 3308 3219 3208 3297 3309 3220 3209 3298
8 3309 3220 3209 3298 3310 3221 3210 3299
8 3310 3221 3210 3299 3311 3222 3211 3300
8 3311 3222 3211 3300 3312 3223 3212 3301
8 3312 3223 3212 3301 3313 3224 3213 3302
8 3313 3224 3213 3302 3314 3225 3214 3303
8 3314 3225 3214 3303 3315 3226 3215 3304
8 3315 3226 3215 3304 3316 3227 3216 3305
8 3316 3227 3216 3305 3317 3228 3217 3306
8 3317 3228 3217 3306 3318 3229 3218 3307
8 3319 3230 3219 3308 3320 3231 3220 3309
8 3320 3231 3220 3309 3321 3232 3221 3310
8 3321 3232 3221 3310 3322 3233 3222 3311
8 3322 3233 3222 3311 3323 3234 3223 3312
8 3323 3234 3223 3312 3324 3235 3224 3313
8 3324 3235 3224 3313 3325 3236 3225 3314
8 3325 3236 3225 3314 3326 3237 3226 3315
8 3326 3237 3226 3315 3327 3238 3227 3316
8 3327 3238 3227 3316 3328 3239 3228 3317
8 3328 3239 3228 3317 3329 3240 3229 3318
8 3330 3241 3231 3320 3331 3242 3232 3321
8 3331 3242 3232 3321 3332 3243 3233 3322
8 3332 3243 3233 3322 3333 3244 3234 3323
8 3333 3244 3234 3323 3334 3245 3235 3324
8 3334 3245 3235 3324 3335 3246 3236 3325
8 3335 3246 3236 3325 3336 3247 3237 3326
8 3336 3247 3237 3326 3337 3248 3238 3327
8 3337 3248 3238 3327 3338 3249 3239 3328
8 3338 3249 3239 3328 3339 3250 3240 3329
8 3340 3251 3241 3330 3341 3252 3242 3331
8 3341 3252 3242 3331 3342 3253 3243 3332
8 3342 3253 3243 3332 3343 3254 3244 3333
8 3343 3254 3244 3333 3344 3255 3245 3334
8 3344 3255 3245 3334 3345 3256 3246 3335
8 3345 3256 3246 3335 3346 3257 3247 3336
8 3346 3257 3247 3336 3347 3258 3248 3337
8 3347 3258 3248 3337 3348 3259 3249 3338
8 3349 3260 3254 3343 3350 3261 3255 3344
8 3350 3261 3255 3344 3351 3262 3256 3345
8 3351 3262 3256 3345 3352 3263 3257 3346
8 3352 3263 3257 3346 3353 3264 3258 3347
8 3353 3264 3258 3347 3354 3265 3259 3348
8 3355 3266 3847 3856 3356 3267 3848 3857
8 3356 3267 3848 3857 3357 3268 3849 3858
8 3357 3268 3849 3858 3358 3269 3850 3859
8 3358 3269 3850 3859 3359 3270 3851 3860
8 3359 3270 3851 3860 3360 3271 3852 3861
8 3360 3271 3852 3861 3361 3272 3853 3862
8 3361 3272 3853 3862 3362 3273 3854 3863
8 3362 3273 3854 3863 3363 3274 3855 3864
8 3365 3276 3266 3355 3366 3277 3267 3356
8 3366 3277 3267 3356 3367 3278 3268 3357
8 3367 3278 3268 3357 3368 3279 3269 3358
8 3368 3279 3269 3358 3369 3280 3270 3359
8 3369 3280 3270 3359 3370 3281 3271 3360
8 3370 3281 3271 3360 3371 3282 3272 3361
8 3371 3282 3272 3361 3372 3283 3273 3362
8 3372 3283 3273 3362 3373 3284 3274 3363
8 3373 3284 3274 3363 3374 3285 3275 3364
8 3376 3287 3276 3365 3377 3288 3277 3366
8 3377 3288 3277 3366 3378 3289 3278 3367
8 3378 3289 3278 3367 3379 3290 3279 3368
8 3379 3290 3279 3368 3380 3291 3280 3369
8 3380 3291 3280 3369 3381 3292 3281 3370
8 3381 3292 3281 3370 3382 3293 3282 3371
8 3382 3293 3282 3371 3383 3294 3283 3372
8 3383 3294 3283 3372 3384 3295 3284 3373
8 3384 3295 3284 3373 3385 3296 3285 3374
8 3386 3297 3286 3375 3387 3298 3287 3376
8 3387 3298 3287 3376 3388 3299 3288 3377
8 3388 3299 3288 3377 3389 3300 3289 3378
8 3389 3300 3289 3378 3390 3301 3290 3379
8 3390 3301 3290 3379 3391 3302 3291 3380
8 3391 3302 3291 3380 3392 3303 3292 3381
8 3392 3303 3292 3381 3393 3304 3293 3382
8 3393 3304 3293 3382 3394 3305 3294 3383
8 3394 3305 3294 3383 3395 3306 3295 3384
8 3395 3306 3295 3384 3396 3307 3296 3385
8 3397 3308 3297 3386 3398 3309 3298 3387
8 3398 3309 3298 3387 3399 3310 3299 3388
8 3399 3310 3299 3388 3400 3311 3300 3389
8 3400 3311 3300 3389 3401 3312 3301 3390
8 3401 3312 3301 3390 3402 3313 3302 3391
8 3402 3313 3302 3391 3403 3314 3303 3392
8 3403 3314 3303 3392 3404 3315 3304 3393
8 3404 3315 3304 3393 3405 3316 3305 3394
8 3405 3316 3305 3394 3406 3317 3306 3395
8 3406 3317 3306 3395 3407 3318 3307 3396
8 3408 3319 3308 3397 3409 3320 3309 3398
8 3409 3320 3309 3398 3410 3321 3310 3399
8 3410 3321 3310 3399 3411 3322 3311 3400
8 3411 3322 3311 3400 3412 3323 3312 3401
8 3412 3323 3312 3401 3413 3324 3313 3402
8 3413 3324 3313 3402 3414 3325 3314 3403
8 3414 3325 3314 3403 3415 3326 3315 3404
8 3415 3326 3315 3404 3416 3327 3316 3405
8 3416 3327 3316 3405 3417 3328 3317 3406
8 3417 3328 3317 3406 3418 3329 3318 3407
8 3419 3330 3320 3409 3420 3331 3321 3410
8 3420 3331 3321 3410 3421 3332 3322 3411
8 3421 3332 3322 3411 3422 3333 3323 3412
8 3422 3333 3323 3412 3423 3334 3324 3413
8 3423 3334 3324 3413 3424 3335 3325 3414
8 3424 3335 3325 3414 3425 3336 3326 3415
8 3425 3336 3326 3415 3426 3337 3327 3416
8 3426 3337 3327 3416 3427 3338 3328 3417
8 3427 3338 3328 3417 3428 3339 3329 3418
8 3429 3340 3330 3419 3430 3341 3331 3420
8 3430 3341 3331 3420 3431 3342 3332 3421
8 3431 3342 3332 3421 3432 3343 3333 3422
8 3432 3343 3333 3422 3433 3344 3334 3423
8 3433 3344 3334 3423 3434 3345 3335 3424
8 3434 3345 3335 3424 3435 3346 3336 3425
8 3435 3346 3336 3425 3436 3347 3337 3426
8 3436 3347 3337 3426 3437 3348 3338 3427
8 3438 3349 3343 3432 3439 3350 3344 3433
8 3439 3350 3344 3433 3440 3351 3345 3434
8 3440 3351 3345 3434 3441 3352 3346 3435
8 3441 3352 3346 3435 3442 3353 3347 3436
8 3442 3353 3347 3436 3443 3354 3348 3437
8 3444 3355 3856 3865 3445 3356 3857 3866
8 3445 3356 3857 3866 3446 3357 3858 3867
8 3446 3357 3858 3867 3447 3358 3859 3868
8 3447 3358 3859 3868 3448 3359 3860 3869
8 3448 3359 3860 3869 3449 3360 3861 3870
8 3449 3360 3861 3870 3450 3361 3862 3871
8 3450 3361 3862 3871 3451 3362 3863 3872
8 3451 3362 3863 3872 3452 3363 3864 3873
8 3454 3365 3355 3444 3455 3366 3356 3445
8 3455 3366 3356 3445 3456 3367 3357 3446
8 3456 3367 3357 3446 3457 3368 3358 3447
8 3457 3368 3358 3447 3458 3369 3359 3448
8 3458 3369 3359 3448 3459 3370 3360 3449
8 3459 3370 3360 3449 3460 3371 3361 3450
8 3460 3371 3361 3450 3461 3372 3362 3451
8 3461 3372 3362 3451 3462 3373 3363 3452
8 3462 3373 3363 3452 3463 3374 3364 3453
8 3465 3376 3365 3454 3466 3377 3366 3455
8 3466 3377 3366 3455 3467 3378 3367 3456
8 3467 3378 3367 3456 3468 3379 3368 3457
8 3468 3379 3368 3457 3469 3380 3369 3458
8 3469 3380 3369 3458 3470 3381 3370 3459
8 3470 3381 3370 3459 3471 3382 3371 3460
8 3471 3382 3371 3460 3472 3383 3372 3461
8 3472 3383 3372 3461 3473 3384 3373 3462
8 3473 3384 3373 3462 3474 3385 3374 3463
8 3475 3386 3375 3464 3476 3387 3376 3465
8 3476 3387 3376 3465 3477 3388 3377 3466
8 3477 3388 3377 3466 3478 3389 3378 3467
8 3478 3389 3378 3467 3479 3390 3379 3468
8 3479 3390 3379 3468 3480 3391 3380 3469
8 3480 3391 3380 3469 3481 3392 3381 3470
8 3481 3392 3381 3470 3482 3393 3382 3471
8 3482 3393 3382 3471 3483 3394 3383 3472
8 3483 3394 3383 3472 3484 3395 3384 3473
8 3484 3395 3384 3473 3485 3396 3385 3474
8 3486 3397 3386 3475 3487 3398 3387 3476
8 3487 3398 3387 3476 3488 3399 3388 3477
8 3488 3399 3388 3477 3489 3400 3389 3478
8 3489 3400 3389 3478 3490 3401 3390 3479
8 3490 3401 3390 3479 3491 3402 3391 3480
8 3491 3402 3391 3480 3492 3403 3392 3481
8 3492 3403 3392 3481 3493 3404 3393 3482
8 3493 3404 3393 3482 3494 3405 3394 3483
8 3494 3405 3394 3483 3495 3406 3395 3484
8 3495 3406 3395 3484 3496 3407 3396 3485
8 3497 3408 3397 3486 3498 3409 3398 3487
8 3498 3409 3398 3487 3499 3410 3399 3488
8 3499 3410 3399 3488 3500 3411 3400 3489
8 3500 3411 3400 3489 3501 3412 3401 3490
8 3501 3412 3401 3490 3502 3413 3402 3491
8 3502 3413 3402 3491 3503 3414 3403 3492
8 3503 3414 3403 3492 3504 3415 3404 3493
8 3504 3415 3404 3493 3505 3416 3405 3494
8 3505 3416 3405 3494 3506 3417 3406 3495
8 3506 3417 3406 3495 3507 3418 3407 3496
8 3508 3419 3409 3498 3509 3420 3410 3499
8 3509 3420 3410 3499 3510 3421 3411 3500
8 3510 3421 3411 3500 3511 3422 3412 3501
8 3511 3422 3412 3501 3512 3423 3413 3502
8 3512 3423 3413 3502 3513 3424 3414 3503
8 3513 3424 3414 3503 3514 3425 3415 3504
8 3514 3425 3415 3504 3515 3426 3416 3505
8 3515 3426 3416 3505 3516 3427 3417 3506
8 3516 3427 3417 3506 3517 3428 3418 3507
8 3518 3429 3419 3508 3519 3430 3420 3509
8 3519 3430 3420 3509 3520 3431 3421 3510
8 3520 3431 3421 3510 3521 3432 3422 3511
8 3521 3432 3422 3511 3522 3433 3423 3512
8 3522 3433 3423 3512 3523 3434 3424 3513
8 3523 3434 3424 3513 3524 3435 3425 3514
8 3524 3435 3425 3514 3525 3436 3426 3515
8 3525 3436 3426 3515 3526 3437 3427 3516
8 3527 3438 3432 3521 3528 3439 3433 3522
8 3528 3439 3433 3522 3529 3440 3434 3523
8 3529 3440 3434 3523 3530 3441 3435 3524
8 3530 3441 3435 3524 3531 3442 3436 3525
8 3531 3442 3436 3525 3532 3443 3437 3526
8 3533 3444 3865 3874 3534 3445 3866 3875
8 3534 3445 3866 3875 3535 3446 3867 3876
8 3535 3446 3867 3876 3536 3447 3868 3877
8 3536 3447 3868 3877 3537 3448 3869 3878
8 3537 3448 3869 3878 3538 3449 3870 3879
8 3538 3449 3870 3879 3539 3450 3871 3880
8 3539 3450 3871 3880 3540 3451 3872 3881
8 3540 3451 3872 3881 3541 3452 3873 3882
8 3543 3454 3444 3533 3544 3455 3445 3534
8 3544 3455 3445 3534 3545 3456 3446 3535
8 3545 3456 3446 3535 3546 3457 3447 3536
8 3546 3457 3447 3536 3547 3458 3448 3537
8 3547 3458 3448 3537 3548 3459 3449 3538
8 3548 3459 3449 3538 3549 3460 3450 3539
8 3549 3460 3450 3539 3550 3461 3451 3540
8 3550 3461 3451 3540 3551 3462 3452 3541
8 3551 3462 3452 3541 3552 3463 3453 3542
8 3554 3465 3454 3543 3555 3466 3455 3544
8 3555 3466 3455 3544 3556 3467 3456 3545
8 3556 3467 3456 3545 3557 3468 3457 3546
8 3557 3468 3457 3546 3558 3469 3458 3547
8 3558 3469 3458 3547 3559 3470 3459 3548
8 3559 3470 3459 3548 3560 3471 3460 3549
8 3560 3471 3460 3549 3561 3472 3461 3550
8 3561 3472 3461 3550 3562 3473 3462 3551
8 3562 3473 3462 3551 3563 3474 3463 3552
8 3564 3475 3464 3553 3565 3476 3465 3554
8 3565 3476 3465 3554 3566 3477 3466 3555
8 3566 3477 3466 3555 3567 3478 3467 3556
8 3567 3478 3467 3556 3568 3479 3468 3557
8 3568 3479 3468 3557 3569 3480 3469 3558
8 3569 3480 3469 3558 3570 3481 3470 3559
8 3570 3481 3470 3559 3571 3482 3471 3560
8 3571 3482 3471 3560 3572 3483 3472 3561
8 3572 3483 3472 3561 3573 3484 3473 3562
8 3573 3484 3473 3562 3574 3485 3474 3563
8 3575 3486 3475 3564 3576 3487 3476 3565
8 3576 3487 3476 3565 3577 3488 3477 3566
8 3577 3488 3477 3566 3578 3489 3478 3567
8 3578 3489 3478 3567 3579 3490 3479 3568
8 3579 3490 3479 3568 3580 3491 3480 3569
8 3580 3491 3480 3569 3581 3492 3481 3570
8 3581 3492 3481 3570 3582 3493 3482 3571
8 3582 3493 3482 3571 3583 3494 3483 3572
8 3583 3494 3483 3572 3584 3495 3484 3573
8 3584 3495 3484 3573 3585 3496 3485 3574
8 3586 3497 3486 3575 3587 3498 3487 3576
8 3587 3498 3487 3576 3588 3499 3488 3577
8 3588 3499 3488 3577 3589 3500 3489 3578
8 3589 3500 3489 3578 3590 3501 3490 3579
8 3590 3501 3490 3579 3591 3502 3491 3580
8 3591 3502 3491 3580 3592 3503 3492 3581
8 3592 3503 3492 3581 3593 3504 3493 3582
8 3593 3504 3493 3582 3594 3505 3494 3583
8 3594 3505 3494 3583 3595 3506 3495 3584
8 3595 3506 3495 3584 3596 3507 3496 3585
8 3597 3508 3498 3587 3598 3509 3499 3588
8 3598 3509 3499 3588 3599 3510 3500 3589
8 3599 3510 3500 3589 3600 3511 3501 3590
8 3600 3511 3501 3590 3601 3512 3502 3591
8 3601 3512 3502 3591 3602 3513 3503 3592
8 3602 3513 3503 3592 3603 3514 3504 3593
8 3603 3514 3504 3593 3604 3515 3505 3594
8 3604 3515 3505 3594 3605 3516 3506 3595
8 3605 3516 3506 3595 3606 3517 3507 3596
8 3607 3518 3508 3597 3608 3519 3509 3598
8 3608 3519 3509 3598 3609 3520 3510 3599
8 3609 3520 3510 3599 3610 3521 3511 3600
8 3610 3521 3511 3600 3611 3522 3512 3601
8 3611 3522 3512 3601 3612 3523 3513 3602
8 3612 3523 3513 3602 3613 3524 3514 3603
8 3613 3524 3514 3603 3614 3525 3515 3604
8 3614 3525 3515 3604 3615 3526 3516 3605
8 3616 3527 3521 3610 3617 3528 3522 3611
8 3617 3528 3522 3611 3618 3529 3523 3612
8 3618 3529 3523 3612 3619 3530 3524 3613
8 3619 3530 3524 3613 3620 3531 3525 3614
8 3620 3531 3525 3614 3621 3532 3526 3615
8 1158 3533 3874 3631 1159 3534 3875 3632
8 1159 3534 3875 3632 1160 3535 3876 3633
8 1160 3535 3876 3633 1161 3536 3877 3634
8 1161 3536 3877 3634 1162 3537 3878 3635
8 1162 3537 3878 3635 1163 3538 3879 3636
8 1163 3538 3879 3636 1164 3539 3880 3637
8 1164 3539 3880 3637 1165 3540 3881 3638
8 1165 3540 3881 3638 1166 3541 3882 3639
8 1168 3543 3533 1158 1169 3544 3534 1159
8 1169 3544 3534 1159 1170 3545 3535 1160
8 1170 3545 3535 1160 1171 3546 3536 1161
8 1171 3546 3536 1161 1172 3547 3537 1162
8 1172 3547 3537 1162 1173 3548 3538 1163
8 1173 3548 3538 1163 1174 3549 3539 1164
8 1174 3549 3539 1164 1175 3550 3540 1165
8 1175 3550 3540 1165 1176 3551 3541 1166
8 1176 3551 3541 1166 1177 3552 3542 1167
8 1179 3554 3543 1168 1180 3555 3544 1169
8 1180 3555 3544 1169 1181 3556 3545 1170
8 1181 3556 3545 1170 1182 3557 3546 1171
8 1182 3557 3546 1171 1183 3558 3547 1172
8 1183 3558 3547 1172 1184 3559 3548 1173
8 1184 3559 3548 1173 1185 3560 3549 1174
8 1185 3560 3549 1174 1186 3561 3550 1175
8 1186 3561 3550 1175 1187 3562 3551 1176
8 1187 3562 3551 1176 1188 3563 3552 1177
8 1189 3564 3553 1178 1190 3565 3554 1179
8 1190 3565 3554 1179 1191 3566 3555 1180
8 1191 3566 3555 1180 1192 3567 3556 1181
8 1192 3567 3556 1181 1193 3568 3557 1182
8 1193 3568 3557 1182 1194 3569 3558 1183
8 1194 3569 3558 1183 1195 3570 3559 1184
8 1195 3570 3559 1184 1196 3571 3560 1185
8 1196 3571 3560 1185 1197 3572 3561 1186
8 1197 3572 3561 1186 1198 3573 3562 1187
8 1198 3573 3562 1187 1199 3574 3563 1188
8 1200 3575 3564 1189 1201 3576 3565 1190
8 1201 3576 3565 1190 1202 3577 3566 1191
8 1202 3577 3566 1191 1203 3578 3567 1192
8 1203 3578 3567 1192 1204 3579 3568 1193
8 1204 3579 3568 1193 1205 3580 3569 1194
8 1205 3580 3569 1194 1206 3581 3570 1195
8 1206 3581 3570 1195 1207 3582 3571 1196
8 1207 3582 3571 1196 1208 3583 3572 1197
8 1208 3583 3572 1197 1209 3584 3573 1198
8 1209 3584 3573 1198 1210 3585 3574 1199
8 1211 3586 3575 1200 1212 3587 3576 1201
8 1212 3587 3576 1201 1213 3588 3577 1202
8 1213 3588 3577 1202 1214 3589 3578 1203
8 1214 3589 3578 1203 1215 3590 3579 1204
8 1215 3590 3579 1204 1216 3591 3580 1205
8 1216 3591 3580 1205 1217 3592 3581 1206
8 1217 3592 3581 1206 1218 3593 3582 1207
8 1218 3593 3582 1207 1219 3594 3583 1208
8 1219 3594 3583 1208 1220 3595 3584 1209
8 1220 3595 3584 1209 1221 3596 3585 1210
8 1222 3597 3587 1212 1223 3598 3588 1213
8 1223 3598 3588 1213 1224 3599 3589 1214
8 1224 3599 3589 1214 1225 3600 3590 1215
8 1225 3600 3590 1215 1226 3601 3591 1216
8 1226 3601 3591 1216 1227 3602 3592 1217
8 1227 3602 3592 1217 1228 3603 3593 1218
8 1228 3603 3593 1218 1229 3604 3594 1219
8 1229 3604 3594 1219 1230 3605 3595 1220
8 1230 3605 3595 1220 1231 3606 3596 1221
8 1232 3607 3597 1222 1233 3608 3598 1223
8 1233 3608 3598 1223 1234 3609 3599 1224
8 1234 3609 3599 1224 1235 3610 3600 1225
8 1235 3610 3600 1225 1236 3611 3601 1226
8 1236 3611 3601 1226 1237 3612 3602 1227
8 1237 3612 3602 1227 1238 3613 3603 1228
8 1238 3613 3603 1228 1239 3614 3604 1229
8 1239 3614 3604 1229 1240 3615 3605 1230
8 1241 3616 3610 1235 1242 3617 3611 1236
8 1242 3617 3611 1236 1243 3618 3612 1237
8 1243 3618 3612 1237 1244 3619 3613 1238
8 1244 3619 3613 1238 1245 3620 3614 1239
8 1245 3620 3614 1239 1246 3621 3615 1240
8 1333 1247 3640 3650 1335 1248 3641 3652
8 1335 1248 3641 3652 1337 1249 3642 3654
8 1337 1249 3642 3654 1339 1250 3643 3656
8 1339 1250 3643 3656 1341 1251 3644 3658
8 1341 1251 3644 3658 1343 1252 3645 3660
8 1343 1252 3645 3660 1345 1253 3646 3662
8 1345 1253 3646 3662 1347 1254 3647 3664
8 1347 1254 3647 3664 1349 1255 3648 3666
8 1353 1257 1247 1333 1355 1258 1248 1335
8 1355 1258 1248 1335 1357 1259 1249 1337
8 1357 1259 1249 1337 1359 1260 1250 1339
8 1359 1260 1250 1339 1361 1261 1251 1341
8 1361 1261 1251 1341 1363 1262 1252 1343
8 1363 1262 1252 1343 1365 1263 1253 1345
8 1365 1263 1253 1345 1367 1264 1254 1347
8 1367 1264 1254 1347 1369 1265 1255 1349
8 1369 1265 1255 1349 1371 1266 1256 1351
8 1373 1267 1257 1353 1375 1268 1258 1355
8 1375 1268 1258 1355 1377 1269 1259 1357
8 1377 1269 1259 1357 1379 1270 1260 1359
8 1379 1270 1260 1359 1381 1271 1261 1361
8 1381 1271 1261 1361 1383 1272 1262 1363
8 1383 1272 1262 1363 1385 1273 1263 1365
8 1385 1273 1263 1365 1387 1274 1264 1367
8 1387 1274 1264 1367 1389 1275 1265 1369
8 1389 1275 1265 1369 1391 1276 1266 1371
8 1393 1277 1267 1373 1395 1278 1268 1375
8 1395 1278 1268 1375 1397 1279 1269 1377
8 1397 1279 1269 1377 1399 1280 1270 1379
8 1399 1280 1270 1379 1401 1281 1271 1381
8 1401 1281 1271 1381 1403 1282 1272 1383
8 1403 1282 1272 1383 1405 1283 1273 1385
8 1405 1283 1273 1385 1407 1284 1274 1387
8 1407 1284 1274 1387 1409 1285 1275 1389
8 1409 1285 1275 1389 1411 1286 1276 1391
8 1413 1287 1277 1393 1415 1288 1278 1395
8 1415 1288 1278 1395 1417 1289 1279 1397
8 1417 1289 1279 1397 1419 1290 1280 1399
8 1419 1290 1280 1399 1421 1291 1281 1401
8 1421 1291 1281 1401 1423 1292 1282 1403
8 1423 1292 1282 1403 1425 1293 1283 1405
8 1425 1293 1283 1405 1427 1294 1284 1407
8 1427 1294 1284 1407 1429 1295 1285 1409
8 1429 1295 1285 1409 1431 1296 1286 1411
8 1433 1297 1287 1413 1435 1298 1288 1415
8 1435 1298 1288 1415 1437 1299 1289 1417
8 1437 1299 1289 1417 1439 1300 1290 1419
8 1439 1300 1290 1419 1441 1301 1291 1421
8 1441 1301 1291 1421 1443 1302 1292 1423
8 1443 1302 1292 1423 1445 1303 1293 1425
8 1445 1303 1293 1425 1447 1304 1294 1427
8 1447 1304 1294 1427 1449 1305 1295 1429
8 1449 1305 1295 1429 1451 1306 1296 1431
8 1453 1307 1297 1433 1455 1308 1298 1435
8 1455 1308 1298 1435 1457 1309 1299 1437
8 1457 1309 1299 1437 1459 1310 1300 1439
8 1459 1310 1300 1439 1461 1311 1301 1441
8 1461 1311 1301 1441 1463 1312 1302 1443
8 1463 1312 1302 1443 1465 1313 1303 1445
8 1465 1313 1303 1445 1467 1314 1304 1447
8 1467 1314 1304 1447 1469 1315 1305 1449
8 1469 1315 1305 1449 1471 1316 1306 1451
8 1473 1317 1307 1453 1475 1318 1308 1455
8 1475 1318 1308 1455 1477 1319 1309 1457
8 1477 1319 1309 1457 1479 1320 1310 1459
8 1479 1320 1310 1459 1481 1321 1311 1461
8 1481 1321 1311 1461 1483 1322 1312 1463
8 1483 1322 1312 1463 1485 1323 1313 1465
8 1485 1323 1313 1465 1487 1324 1314 1467
8 1487 1324 1314 1467 1489 1325 1315 1469
8 1491 1326 1320 1479 1493 1327 1321 1481
8 1493 1327 1321 1481 1495 1328 1322 1483
8 1495 1328 1322 1483 1497 1329 1323 1485
8 1497 1329 1323 1485 1499 1330 1324 1487
8 1499 1330 1324 1487 1501 1331 1325 1489
8 1503 1332 3649 3668 1505 1334 3651 3670
8 1505 1334 3651 3670 1507 1336 3653 3672
8 1507 1336 3653 3672 1509 1338 3655 3674
8 1509 1338 3655 3674 1511 1340 3657 3676
8 1511 1340 3657 3676 1513 1342 3659 3678
8 1513 1342 3659 3678 1515 1344 3661 3680
8 1515 1344 3661 3680 1517 1346 3663 3682
8 1517 1346 3663 3682 1519 1348 3665 3684
8 1523 1352 1332 1503 1525 1354 1334 1505
8 1525 1354 1334 1505 1527 1356 1336 1507
8 1527 1356 1336 1507 1529 1358 1338 1509
8 1529 1358 1338 1509 1531 1360 1340 1511
8 1531 1360 1340 1511 1533 1362 1342 1513
8 1533 1362 1342 1513 1535 1364 1344 1515
8 1535 1364 1344 1515 1537 1366 1346 1517
8 1537 1366 1346 1517 1539 1368 1348 1519
8 1539 1368 1348 1519 1541 1370 1350 1521
8 1543 1372 1352 1523 1545 1374 1354 1525
8 1545 1374 1354 1525 1547 1376 1356 1527
8 1547 1376 1356 1527 1549 1378 1358 1529
8 1549 1378 1358 1529 1551 1380 1360 1531
8 1551 1380 1360 1531 1553 1382 1362 1533
8 1553 1382 1362 1533 1555 1384 1364 1535
8 1555 1384 1364 1535 1557 1386 1366 1537
8 1557 1386 1366 1537 1559 1388 1368 1539
8 1559 1388 1368 1539 1561 1390 1370 1541
8 1563 1392 1372 1543 1565 1394 1374 1545
8 1565 1394 1374 1545 1567 1396 1376 1547
8 1567 1396 1376 1547 1569 1398 1378 1549
8 1569 1398 1378 1549 1571 1400 1380 1551
8 1571 1400 1380 1551 1573 1402 1382 1553
8 1573 1402 1382 1553 1575 1404 1384 1555
8 1575 1404 1384 1555 1577 1406 1386 1557
8 1577 1406 1386 1557 1579 1408 1388 1559
8 1579 1408 1388 1559 1581 1410 1390 1561
8 1583 1412 1392 1563 1585 1414 1394 1565
8 1585 1414 1394 1565 1587 1416 1396 1567
8 1587 1416 1396 1567 1589 1418 1398 1569
8 1589 1418 1398 1569 1591 1420 1400 1571
8 1591 1420 1400 1571 1593 1422 1402 1573
8 1593 1422 1402 1573 1595 1424 1404 1575
8 1595 1424 1404 1575 1597 1426 1406 1577
8 1597 1426 1406 1577 1599 1428 1408 1579
8 1599 1428 1408 1579 1601 1430 1410 1581
8 1603 1432 1412 1583 1605 1434 1414 1585
8 1605 1434 1414 1585 1607 1436 1416 1587
8 1607 1436 1416 1587 1609 1438 1418 1589
8 1609 1438 1418 1589 1611 1440 1420 1591
8 1611 1440 1420 1591 1613 1442 1422 1593
8 1613 1442 1422 1593 1615 1444 1424 1595
8 1615 1444 1424 1595 1617 1446 1426 1597
8 1617 1446 1426 1597 1619 1448 1428 1599
8 1619 1448 1428 1599 1621 1450 1430 1601
8 1623 1452 1432 1603 1625 1454 1434 1605
8 1625 1454 1434 1605 1627 1456 1436 1607
8 1627 1456 1436 1607 1629 1458 1438 1609
8 1629 1458 1438 1609 1631 1460 1440 1611
8 1631 1460 1440 1611 1633 1462 1442 1613
8 1633 1462 1442 1613 1635 1464 1444 1615
8 1635 1464 1444 1615 1637 1466 1446 1617
8 1637 1466 1446 1617 1639 1468 1448 1619
8 1639 1468 1448 1619 1641 1470 1450 1621
8 1643 1472 1452 1623 1645 1474 1454 1625
8 1645 1474 1454 1625 1647 1476 1456 1627
8 1647 1476 1456 1627 1649 1478 1458 1629
8 1649 1478 1458 1629 1651 1480 1460 1631
8 1651 1480 1460 1631 1653 1482 1462 1633
8 1653 1482 1462 1633 1655 1484 1464 1635
8 1655 1484 1464 1635 1657 1486 1466 1637
8 1657 1486 1466 1637 1659 1488 1468 1639
8 1661 1490 1478 1649 1663 1492 1480 1651
8 1663 1492 1480 1651 1665 1494 1482 1653
8 1665 1494 1482 1653 1667 1496 1484 1655
8 1667 1496 1484 1655 1669 1498 1486 1657
8 1669 1498 1486 1657 1671 1500 1488 1659
CELL_TYPES 2160
12
12
12
12
12
12
12
12
12
12
12
12
12
12
12
12
12
12
12
12
12
12
12
12
12
12
12
12
12
12
12
12
12
12
12
12
12
12
12
12
12
12
12
12
12
12
12
12
12
12
12
12
12
12
12
12
12
12
12
12
12
12
12
12
12
12
12
12
12
12
12
12
12
12
12
12
12
12
12
12
12
12
12
12
12
12
12
12
12
12
12
12
12
12
12
12
12
12
12
12
12
12
12
12
12
12
12
12
12
12
12
12
12
12
12
12
12
12
12
12
12
12
12
12
12
12
12
12
12
12
12
12
12
12
12
12
12
12
12
12
12
12
12
12
12
12
12
12
12
12
12
12
12
12
12
12
12
12
12
12
12
12
12
12
12
12
12
12
12
12
12
12
12
12
12
12
12
12
12
12
12
12
12
12
12
12
12
12
12
12
12
12
12
12
12
12
12
12
12
12
12
12
12
12
12
12
12
12
12
12
12
12
12
12
12
12
12
12
12
12
12
12
12
12
12
12
12
12
12
12
12
12
12
12
12
12
12
12
12
12
12
12
12
12
12
12
12
12
12
12
12
12
12
12
12
12
12
12
12
12
12
12
12
12
12
12
12
12
12
12
12
12
12
12
12
12
12
12
12
12
12
12
12
12
12
12
12
12
12
12
12
12
12
12
12
12
12
12
12
12
12
12
12
12
12
12
12
12
12
12
12
12
12
12
12
12
12
12
12
12
12
12
12
12
12
12
12
12
12
12
12
12
12
12
12
12
12
12
12
12
12
12
12
12
12
12
12
12
12
12
12
12
12
12
12
12
12
12
12
12
12
12
12
12
12
12
12
12
12
12
12
12
12
12
12
12
12
12
12
12
12
12
12
12
12
12
12
12
12
12
12
12
12
12
12
12
12
12
12
12
12
12
12
12
12
12
12
12
12
12
12
12
12
12
12
12
12
12
12
12
12
12
12
12
12
12
12
12
12
12
12
12
12
12
12
12
12
12
12
12
12
12
12
12
12
12
12
12
12
12
12
12
12
12
12
12
12
12
12
12
12
12
12
12
12
12
12
12
12
12
12
12
12
12
12
12
12
12
12
12
12
12
12
12
12
12
12
12
12
12
12
12
12
12
12
12
12
12
12
12
12
12
12
12
12
12
12
12
12
12
12
12
12
12
12
12
12
12
12
12
12
12
12
12
12
12
12
12
12
12
12
12
12
12
12
12
12
12
12
12
12
12
12
12
12
12
12
12
12
12
12
12
12
12
12
12
12
12
12
12
12
12
12
12
12
12
12
12
12
12
12
12
12
12
12
12
12
12
12
12
12
12
12
12
12
12
12
12
12
12
12
12
12
12
12
12
12
12
12
12
12
12
12
12
12
12
12
12
12
12
12
12
12
12
12
12
12
12
12
12
12
12
12
12
12
12
12
12
12
12
12
12
12
12
12
12
12
12
12
12
12
12
12
12
12
12
12
12
12
12
12
12
12
12
12
12
12
12
12
12
12
12
12
12
12
12
12
12
12
12
12
12
12
12
12
12
12
12
12
12
12
12
12
12
12
12
12
12
12
12
12
12
12
12
12
12
12
12
12
12
12
12
12
12
12
12
12
12
12
12
12
12
12
12
12
12
12
12
12
12
12
12
12
12
12
12
12
12
12
12
12
12
12
12
12
12
12
12
12
12
12
12
12
12
12
12
12
12
12
12
12
12
12
12
12
12
12
12
12
12
12
12
12
12
12
12
12
12
12
12
12
12
12
12
12
12
12
12
12
12
12
12
12
12
12
12
12
12
12
12
12
12
12
12
12
12
12
12
12
12
12
12
12
12
12
12
12
12
12
12
12
12
12
12
12
12
12
12
12
12
12
12
12
12
12
12
12
12
12
12
12
12
12
12
12
12
12
12
12
12
12
12
12
12
12
12
12
12
12
12
12
12
12
12
12
12
12
12
12
12
12
12
12
12
12
12
12
12
12
12
12
12
12
12
12
12
12
12
12
12
12
12
12
12
12
12
12
12
12
12
12
12
12
12
12
12
12
12
12
12
12
12
12
12
12
12
12
12
12
12
12
12
12
12
12
12
12
12
12
12
12
12
12
12
12
12
12
12
12
12
12
12
12
12
12
12
12
12
12
12
12
12
12
12
12
12
12
12
12
12
12
12
12
12
12
12
12
12
12
12
12
12
12
12
12
12
12
12
12
12
12
12
12
12
12
12
12
12
12
12
12
12
12
12
12
12
12
12
12
12
12
12
12
12
12
12
12
12
12
12
12
12
12
12
12
12
12
12
12
12
12
12
12
12
12
12
12
12
12
12
12
12
12
12
12
12
12
12
12
12
12
12
12
12
12
12
12
12
12
12
12
12
12
12
12
12
12
12
12
12
12
12
12
12
12
12
12
12
12
12
12
12
12
12
12
12
12
12
12
12
12
12
12
12
12
12
12
12
12
12
12
12
12
12
12
12
12
12
12
12
12
12
12
12
12
12
12
12
12
12
12
12
12
12
12
12
12
12
12
12
12
12
12
12
12
12
12
12
12
12
12
12
12
12
12
12
12
12
12
12
12
12
12
12
12
12
12
12
12
12
12
12
12
12
12
12
12
12
12
12
12
12
12
12
12
12
12
12
12
12
12
12
12
12
12
12
12
12
12
12
12
12
12
12
12
12
12
12
12
12
12
12
12
12
12
12
12
12
12
12
12
12
12
12
12
12
12
12
12
12
12
12
12
12
12
12
12
12
12
12
12
12
12
12
12
12
12
12
12
12
12
12
12
12
12
12
12
12
12
12
12
12
12
12
12
12
12
12
12
12
12
12
12
12
12
12
12
12
12
12
12
12
12
12
12
12
12
12
12
12
12
12
12
12
12
12
12
12
12
12
12
12
12
12
12
12
12
12
12
12
12
12
12
12
12
12
12
12
12
12
12
12
12
12
12
12
12
12
12
12
12
12
12
12
12
12
12
12
12
12
12
12
12
12
12
12
12
12
12
12
12
12
12
12
12
12
12
12
12
12
12
12
12
12
12
12
12
12
12
12
12
12
12
12
12
12
12
12
12
12
12
12
12
12
12
12
12
12
12
12
12
12
12
12
12
12
12
12
12
12
12
12
12
12
12
12
12
12
12
12
12
12
12
12
12
12
12
12
12
12
12
12
12
12
12
12
12
12
12
12
12
12
12
12
12
12
12
12
12
12
12
12
12
12
12
12
12
12
12
12
12
12
12
12
12
12
12
12
12
12
12
12
12
12
12
12
12
12
12
12
12
12
12
12
12
12
12
12
12
12
12
12
12
12
12
12
12
12
12
12
12
12
12
12
12
12
12
12
12
12
12
12
12
12
12
12
12
12
12
12
12
12
12
12
12
12
12
12
12
12
12
12
12
12
12
12
12
12
12
12
12
12
12
12
12
12
12
12
12
12
12
12
12
12
12
12
12
12
12
12
12
12
12
12
12
12
12
12
12
12
12
12
12
12
12
12
12
12
12
12
12
12
12
12
12
12
12
12
12
12
12
12
12
12
12
12
12
12
12
12
12
12
12
12
12
12
12
12
12
12
12
12
12
12
12
12
12
12
12
12
12
12
12
12
12
12
12
12
12
12
12
12
12
12
12
12
12
12
12
12
12
12
12
12
12
12
12
12
12
12
12
12
12
12
12
12
12
12
12
12
12
12
12
12
12
12
12
12
12
12
12
12
12
12
12
12
12
12
12
12
12
12
12
12
12
12
12
12
12
12
12
12
12
12
12
12
12
12
12
12
12
12
12
12
12
12
12
12
12
12
12
12
12
12
12
12
12
12
12
12
12
12
12
12
12
12
12
12
12
12
12
12
12
12
12
12
12
12
12
12
12
12
12
12
12
12
12
12
12
12
12
12
12
12
12
12
12
12
12
12
12
12
12
12
12
12
12
12
12
12
12
12
12
12
12
12
12
12
12
12
12
12
12
12
12
12
12
12
12
12
12
12
12
12
12
12
12
12
12
12
12
12
12
12
12
12
12
12
12
12
12
12
12
12
12
12
12
12
12
12
12
12
12
12
12
12
12
12
12
12
12
12
12
12
12
12
12
12
12
12
12
12
12
12
12
12
12
12
12
12
12
12
12
12
12
12
12
12
12
12
12
12
12
12
12
12
12
12
12
12
12
12
12
12
12
12
12
12
12
12
12
12
12
12
12
12
12
12
12
12
12
12
12
12
12
12
12
12
12
12
12
12
12
12
12
12
12
12
12
12
12
12
12
12
12
12
12
12
12
12
12
12
12
12
12
12
12
12
12
12
12
12
12
12
12
12
12
12
12
12
12
12
12
12
12
12
12
12
12
12
12
12
12
12
12
12
12
12
12
12
12
12
12
12
12
12
12
12
12
12
12
12
12
12
12
12
12
12
12
12
12
12
12
12
12
12
12
12
12
12
12
12
12
12
12
12
12
12
12
12
12
12
12
12
12
12
12
12
12
12
12
12
12
12
12
12
12
12
12
12
12
12
12
12
12
12
12
12
12
12
12
12
12
12
12
12
12
12
12
12
12
12
12
12
12
12
12
12
12
12
12
12
12
12
12
12
12
12
12
12
12
12
12
12
12
12
12
12
12
12
12
12
12
12
12
12
12
12
12
12
12
12
12
12
12
12
12
12
12
12
12
12
12
12
12
12
12
12
12
12
12
12
12
12
12
12
12
12
12
12
12
12
12
12
12
12
12
12
12
12
12
12
12
12
12
12
12
12
12
12
12
12
12
12
12
12
12
12
12
12
12
12
12
12
12
12
12
12
12
12
12
12
12
12
12
12
12
12
12
12
12
12
12
12
12
12
12
12
12
12
12
12
12
12
12
12
12
12
12
12
12
12
12
12
12
12
12
12
12
12
12
12
12
12
12
12
12
12
12
12
POINT_DATA 3883
SCALARS DISPLACEMENT double 3
LOOKUP_TABLE default
0 0 0
0 0 0
0 0 0
0 0 0
0 0 0
0 0 0
0 0 0
0 0 0
0 0 0
0 0 0
0 0 0
0 0 0
0 0 0
0 0 0
0 0 0
0 0 0
0 0 0
0 0 0
0 0 0
0 0 0
0 0 0
0 0 0
0 0 0
0 0 0
0 0 0
0 0 0
0 0 0
0 0 0
0 0 0
0 0 0
0 0 0
0 0 0
0 0 0
0 0 0
0 0 0
0 0 0
0 0 0
0 0 0
0 0 0
0 0 0
0 0 0
0 0 0
0 0 0
0 0 0
0 0 0
0 0 0
0 0 0
0 0 0
0 0 0
0 0 0
0 0 0
0 0 0
0 0 0
0 0 0
0 0 0
0 0 0
0 0 0
0 0 0
0 0 0
0 0 0
0 0 0
0 0 0
0 0 0
0 0 0
0 0 0
0 0 0
0 0 0
0 0 0
0 0 0
0 0 0
0 0 0
0 0 0
0 0 0
0 0 0
0 0 0
0 0 0
0 0 0
0 0 0
0 0 0
0 0 0
0 0 0
0 0 0
0 0 0
0 0 0
0 0 0
0 0 0
0 0 0
0 0 0
0 0 0
0 0 0
0 0 0
0 0 0
0 0 0
0 0 0
0 0 0
0 0 0
0 0 0
0 0 0
0 0 0
0 0 0
0 0 0
0 0 0
0 0 0
0 0 0
0 0 0
0 0 0
0 0 0
0 0 0
0 0 0
0 0 0
0 0 0
0 0 0
0 0 0
0 0 0
0 0 0
0 0 0
0 0 0
0 0 0
0 0 0
0 0 0
0 0 0
0 0 0
0 0 0
0 0 0
0 0 0
0 0 0
0 0 0
0 0 0
0 0 0
0 0 0
0 0 0
0 0 0
0 0 0
0 0 0
0 0 0
0 0 0
0 0 0
0 0 0
0 0 0
0 0 0
0 0 0
0 0 0
0 0 0
0 0 0
0 0 0
0 0 0
0 0 0
0 0 0
0 0 0
0 0 0
0 0 0
0 0 0
0 0 0
0 0 0
0 0 0
0 0 0
0 0 0
0 0 0
0 0 0
0 0 0
0 0 0
0 0 0
0 0 0
0 0 0
0 0 0
0 0 0
0 0 0
0 0 0
0 0 0
0 0 0
0 0 0
0 0 0
0 0 0
0 0 0
0 0 0
0 0 0
0 0 0
0 0 0
0 0 0
0 0 0
0 0 0
0 0 0
0 0 0
0 0 0
0 0 0
0 0 0
0 0 0
0 0 0
0 0 0
0 0 0
0 0 0
0 0 0
0 0 0
0 0 0
0 0 0
0 0 0
0 0 0
0 0 0
0 0 0
0 0 0
0 0 0
0 0 0
0 0 0
0 0 0
0 0 0
0 0 0
0 0 0
0 0 0
0 0 0
0 0 0
0 0 0
0 0 0
0 0 0
0 0 0
0 0 0
0 0 0
0 0 0
0 0 0
0 0 0
0 0 0
0 0 0
0 0 0
0 0 0
0 0 0
0 0 0
0 0 0
0 0 0
0 0 0
0 0 0
0 0 0
0 0 0
0 0 0
0 0 0
0 0 0
0 0 0
0 0 0
0 0 0
0 0 0
0 0 0
0 0 0
0 0 0
0 0 0
0 0 0
0 0 0
0 0 0
0 0 0
0 0 0
0 0 0
0 0 0
0 0 0
0 0 0
0 0 0
0 0 0
0 0 0
0 0 0
0 0 0
0 0 0
0 0 0
0 0 0
0 0 0
0 0 0
0 0 0
0 0 0
0 0 0
0 0 0
0 0 0
0 0 0
0 0 0
0 0 0
0 0 0
0 0 0
0 0 0
0 0 0
0 0 0
0 0 0
0 0 0
0 0 0
0 0 0
0 0 0
0 0 0
0 0 0
0 0 0
0 0 0
0 0 0
0 0 0
0 0 0
0 0 0
0 0 0
0 0 0
0 0 0
0 0 0
0 0 0
0 0 0
0 0 0
0 0 0
0 0 0
0 0 0
0 0 0
0 0 0
0 0 0
0 0 0
0 0 0
0 0 0
0 0 0
0 0 0
0 0 0
0 0 0
0 0 0
0 0 0
0 0 0
0 0 0
0 0 0
0 0 0
0 0 0
0 0 0
0 0 0
0 0 0
0 0 0
0 0 0
0 0 0
0 0 0
0 0 0
0 0 0
0 0 0
0 0 0
0 0 0
0 0 0
0 0 0
0 0 0
0 0 0
0 0 0
0 0 0
0 0 0
0 0 0
0 0 0
0 0 0
0 0 0
0 0 0
0 0 0
0 0 0
0 0 0
0 0 0
0 0 0
0 0 0
0 0 0
0 0 0
0 0 0
0 0 0
0 0 0
0 0 0
0 0 0
0 0 0
0 0 0
0 0 0
0 0 0
0 0 0
0 0 0
0 0 0
0 0 0
0 0 0
0 0 0
0 0 0
0 0 0
0 0 0
0 0 0
0 0 0
0 0 0
0 0 0
0 0 0
0 0 0
0 0 0
0 0 0
0 0 0
0 0 0
0 0 0
0 0 0
0 0 0
0 0 0
0 0 0
0 0 0
0 0 0
0 0 0
0 0 0
0 0 0
0 0 0
0 0 0
0 0 0
0 0 0
0 0 0
0 0 0
0 0 0
0 0 0
0 0 0
0 0 0
0 0 0
0 0 0
0 0 0
0 0 0
0 0 0
0 0 0
0 0 0
0 0 0
0 0 0
0 0 0
0 0 0
0 0 0
0 0 0
0 0 0
0 0 0
0 0 0
0 0 0
0 0 0
0 0 0
0 0 0
0 0 0
0 0 0
0 0 0
0 0 0
0 0 0
0 0 0
0 0 0
0 0 0
0 0 0
0 0 0
0 0 0
0 0 0
0 0 0
0 0 0
0 0 0
0 0 0
0 0 0
0 0 0
0 0 0
0 0 0
0 0 0
0 0 0
0 0 0
0 0 0
0 0 0
0 0 0
0 0 0
0 0 0
0 0 0
0 0 0
0 0 0
0 0 0
0 0 0
0 0 0
0 0 0
0 0 0
0 0 0
0 0 0
0 0 0
0 0 0
0 0 0
0 0 0
0 0 0
0 0 0
0 0 0
0 0 0
0 0 0
0 0 0
0 0 0
0 0 0
0 0 0
0 0 0
0 0 0
0 0 0
0 0 0
0 0 0
0 0 0
0 0 0
0 0 0
0 0 0
0 0 0
0 0 0
0 0 0
0 0 0
0 0 0
0 0 0
0 0 0
0 0 0
0 0 0
0 0 0
0 0 0
0 0 0
0 0 0
0 0 0
0 0 0
0 0 0
0 0 0
0 0 0
0 0 0
0 0 0
0 0 0
0 0 0
0 0 0
0 0 0
0 0 0
0 0 0
0 0 0
0 0 0
0 0 0
0 0 0
0 0 0
0 0 0
0 0 0
0 0 0
0 0 0
0 0 0
0 0 0
0 0 0
0 0 0
0 0 0
0 0 0
0 0 0
0 0 0
0 0 0
0 0 0
0 0 0
0 0 0
0 0 0
0 0 0
0 0 0
0 0 0
0 0 0
0 0 0
0 0 0
0 0 0
0 0 0
0 0 0
0 0 0
0 0 0
0 0 0
0 0 0
0 0 0
0 0 0
0 0 0
0 0 0
0 0 0
0 0 0
0 0 0
0 0 0
0 0 0
0 0 0
0 0 0
0 0 0
0 0 0
0 0 0
0 0 0
0 0 0
0 0 0
0 0 0
0 0 0
0 0 0
0 0 0
0 0 0
0 0 0
0 0 0
0 0 0
0 0 0
0 0 0
0 0 0
0 0 0
0 0 0
0 0 0
0 0 0
0 0 0
0 0 0
0 0 0
0 0 0
0 0 0
0 0 0
0 0 0
0 0 0
0 0 0
0 0 0
0 0 0
0 0 0
0 0 0
0 0 0
0 0 0
0 0 0
0 0 0
0 0 0
0 0 0
0 0 0
0 0 0
0 0 0
0 0 0
0 0 0
0 0 0
0 0 0
0 0 0
0 0 0
0 0 0
0 0 0
0 0 0
0 0 0
0 0 0
0 0 0
0 0 0
0 0 0
0 0 0
0 0 0
0 0 0
0 0 0
0 0 0
0 0 0
0 0 0
0 0 0
0 0 0
0 0 0
0 0 0
0 0 0
0 0 0
0 0 0
0 0 0
0 0 0
0 0 0
0 0 0
0 0 0
0 0 0
0 0 0
0 0 0
0 0 0
0 0 0
0 0 0
0 0 0
0 0 0
0 0 0
0 0 0
0 0 0
0 0 0
0 0 0
0 0 0
0 0 0
0 0 0
0 0 0
0 0 0
0 0 0
0 0 0
0 0 0
0 0 0
0 0 0
0 0 0
0 0 0
0 0 0
0 0 0
0 0 0
0 0 0
0 0 0
0 0 0
0 0 0
0 0 0
0 0 0
0 0 0
0 0 0
0 0 0
0 0 0
0 0 0
0 0 0
0 0 0
0 0 0
0 0 0
0 0 0
0 0 0
0 0 0
0 0 0
0 0 0
0 0 0
0 0 0
0 0 0
0 0 0
0 0 0
0 0 0
0 0 0
0 0 0
0 0 0
0 0 0
0 0 0
0 0 0
0 0 0
0 0 0
0 0 0
0 0 0
0 0 0
0 0 0
0 0 0
0 0 0
0 0 0
0 0 0
0 0 0
0 0 0
0 0 0
0 0 0
0 0 0
0 0 0
0 0 0
0 0 0
0 0 0
0 0 0
0 0 0
0 0 0
0 0 0
0 0 0
0 0 0
0 0 0
0 0 0
0 0 0
0 0 0
0 0 0
0 0 0
0 0 0
0 0 0
0 0 0
0 0 0
0 0 0
0 0 0
0 0 0
0 0 0
0 0 0
0 0 0
0 0 0
0 0 0
0 0 0
0 0 0
0 0 0
0 0 0
0 0 0
0 0 0
0 0 0
0 0 0
0 0 0
0 0 0
0 0 0
0 0 0
0 0 0
0 0 0
0 0 0
0 0 0
0 0 0
0 0 0
0 0 0
0 0 0
0 0 0
0 0 0
0 0 0
0 0 0
0 0 0
0 0 0
0 0 0
0 0 0
0 0 0
0 0 0
0 0 0
0 0 0
0 0 0
0 0 0
0 0 0
0 0 0
0 0 0
0 0 0
0 0 0
0 0 0
0 0 0
0 0 0
0 0 0
0 0 0
0 0 0
0 0 0
0 0 0
0 0 0
0 0 0
0 0 0
0 0 0
0 0 0
0 0 0
0 0 0
0 0 0
0 0 0
0 0 0
0 0 0
0 0 0
0 0 0
0 0 0
0 0 0
0 0 0
0 0 0
0 0 0
0 0 0
0 0 0
0 0 0
0 0 0
0 0 0
0 0 0
0 0 0
0 0 0
0 0 0
0 0 0
0 0 0
0 0 0
0 0 0
0 0 0
0 0 0
0 0 0
0 0 0
0 0 0
0 0 0
0 0 0
0 0 0
0 0 0
0 0 0
0 0 0
0 0 0
0 0 0
0 0 0
0 0 0
0 0 0
0 0 0
0 0 0
0 0 0
0 0 0
0 0 0
0 0 0
0 0 0
0 0 0
0 0 0
0 0 0
0 0 0
0 0 0
0 0 0
0 0 0
0 0 0
0 0 0
0 0 0
0 0 0
0 0 0
0 0 0
0 0 0
0 0 0
0 0 0
0 0 0
0 0 0
0 0 0
0 0 0
0 0 0
0 0 0
0 0 0
0 0 0
0 0 0
0 0 0
0 0 0
0 0 0
0 0 0
0 0 0
0 0 0
0 0 0
0 0 0
0 0 0
0 0 0
0 0 0
0 0 0
0 0 0
0 0 0
0 0 0
0 0 0
0 0 0
0 0 0
0 0 0
0 0 0
0 0 0
0 0 0
0 0 0
0 0 0
0 0 0
0 0 0
0 0 0
0 0 0
0 0 0
0 0 0
0 0 0
0 0 0
0 0 0
0 0 0
0 0 0
0 0 0
0 0 0
0 0 0
0 0 0
0 0 0
0 0 0
0 0 0
0 0 0
0 0 0
0 0 0
0 0 0
0 0 0
0 0 0
0 0 0
0 0 0
0 0 0
0 0 0
0 0 0
0 0 0
0 0 0
0 0 0
0 0 0
0 0 0
0 0 0
0 0 0
0 0 0
0 0 0
0 0 0
0 0 0
0 0 0
0 0 0
0 0 0
0 0 0
0 0 0
0 0 0
0 0 0
0 0 0
0 0 0
0 0 0
0 0 0
0 0 0
0 0 0
0 0 0
0 0 0
0 0 0
0 0 0
0 0 0
0 0 0
0 0 0
0 0 0
0 0 0
0 0 0
0 0 0
0 0 0
0 0 0
0 0 0
0 0 0
0 0 0
0 0 0
0 0 0
0 0 0
0 0 0
0 0 0
0 0 0
0 0 0
0 0 0
0 0 0
0 0 0
0 0 0
0 0 0
0 0 0
0 0 0
0 0 0
0 0 0
0 0 0
0 0 0
0 0 0
0 0 0
0 0 0
0 0 0
0 0 0
0 0 0
0 0 0
0 0 0
0 0 0
0 0 0
0 0 0
0 0 0
0 0 0
0 0 0
0 0 0
0 0 0
0 0 0
0 0 0
0 0 0
0 0 0
0 0 0
0 0 0
0 0 0
0 0 0
0 0 0
0 0 0
0 0 0
0 0 0
0 0 0
0 0 0
0 0 0
0 0 0
0 0 0
0 0 0
0 0 0
0 0 0
0 0 0
0 0 0
0 0 0
0 0 0
0 0 0
0 0 0
0 0 0
0 0 0
0 0 0
0 0 0
0 0 0
0 0 0
0 0 0
0 0 0
0 0 0
0 0 0
0 0 0
0 0 0
0 0 0
0 0 0
0 0 0
0 0 0
0 0 0
0 0 0
0 0 0
0 0 0
0 0 0
0 0 0
0 0 0
0 0 0
0 0 0
0 0 0
0 0 0
0 0 0
0 0 0
0 0 0
0 0 0
0 0 0
0 0 0
0 0 0
0 0 0
0 0 0
0 0 0
0 0 0
0 0 0
0 0 0
0 0 0
0 0 0
0 0 0
0 0 0
0 0 0
0 0 0
0 0 0
0 0 0
0 0 0
0 0 0
0 0 0
0 0 0
0 0 0
0 0 0
0 0 0
0 0 0
0 0 0
0 0 0
0 0 0
0 0 0
0 0 0
0 0 0
0 0 0
0 0 0
0 0 0
0 0 0
0 0 0
0 0 0
0 0 0
0.0205926 0.0108929 -0.208398
0.0174613 0.0110822 -0.209682
0.0143138 0.0112737 -0.210968
0.0111505 0.0114675 -0.212257
0.00797205 0.0116635 -0.213548
0.00477957 0.0118618 -0.214841
0.00157441 0.0120625 -0.216135
-0.00164168 0.0122656 -0.217428
-0.00486634 0.0124711 -0.21872
-0.00809717 0.012679 -0.220009
0.0224116 0.0111645 -0.208045
0.0193963 0.0113533 -0.209325
0.016365 0.0115444 -0.210608
0.0133182 0.0117378 -0.211895
0.0102566 0.0119336 -0.213184
0.0071811 0.0121318 -0.214475
0.004093 0.0123324 -0.215768
0.0009939 0.0125356 -0.21706
-0.00211417 0.0127414 -0.218353
-0.0052287 0.0129495 -0.219643
0.0242622 0.0114321 -0.207683
0.0213631 0.0116199 -0.20896
0.0184484 0.01181 -0.210241
0.0155187 0.0120025 -0.211525
0.0125744 0.0121976 -0.212812
0.00961653 0.0123951 -0.214101
0.00664616 0.0125952 -0.215393
0.0036648 0.012798 -0.216685
0.000674294 0.0130033 -0.217978
-0.00232309 0.0132113 -0.219269
0.0261423 0.0116958 -0.207315
0.0233595 0.0118819 -0.208589
0.0205616 0.0120705 -0.209866
0.0177491 0.0122616 -0.211148
0.0149224 0.0124553 -0.212433
0.0120825 0.0126516 -0.213721
0.00923026 0.0128506 -0.215011
0.00636714 0.0130524 -0.216303
0.00349482 0.0132568 -0.217595
0.000615324 0.013464 -0.218887
0.0280498 0.0119552 -0.20694
0.0253831 0.0121392 -0.20821
0.0227019 0.0123257 -0.209485
0.0200065 0.0125147 -0.210764
0.0172974 0.0127065 -0.212046
0.0145755 0.012901 -0.213333
0.0118416 0.0130983 -0.214622
0.00909693 0.0132985 -0.215913
0.00634315 0.0135015 -0.217205
0.00358202 0.0137074 -0.218498
0.0299825 0.0122103 -0.206559
0.0274315 0.0123915 -0.207825
0.0248665 0.0125753 -0.209097
0.0222878 0.0127618 -0.210373
0.0196961 0.012951 -0.211654
0.0170919 0.0131431 -0.212938
0.0144762 0.0133381 -0.214226
0.01185 0.0135361 -0.215516
0.00921485 0.0137371 -0.216809
0.00657232 0.013941 -0.218102
0.0319383 0.012461 -0.206171
0.0295021 0.0126388 -0.207434
0.0270526 0.0128193 -0.208703
0.0245901 0.0130025 -0.209976
0.022115 0.0131886 -0.211254
0.0196281 0.0133776 -0.212537
0.0171301 0.0135697 -0.213824
0.0146221 0.0137649 -0.215113
0.0121053 0.0139632 -0.216406
0.00958138 0.0141646 -0.2177
0.0339148 0.0127071 -0.205778
0.0315923 0.012881 -0.207037
0.0292573 0.0130575 -0.208303
0.0269099 0.0132368 -0.209573
0.0245508 0.013419 -0.21085
0.0221803 0.0136043 -0.21213
0.0197993 0.0137928 -0.213415
0.0174088 0.0139846 -0.214704
0.0150099 0.0141795 -0.215997
0.0292444 0.0134644 -0.209165
0.0269998 0.0136422 -0.210439
0.0247445 0.0138231 -0.211718
0.0224794 0.0140073 -0.213001
0.0202055 0.0141948 -0.21429
0.0179238 0.0143857 -0.215582
0.0216433 0.00214003 -0.198988
0.0185188 0.00177151 -0.200246
0.0153782 0.00140253 -0.20151
0.0122217 0.00103341 -0.20278
0.00905015 0.000664618 -0.204056
0.0058645 0.000296676 -0.205339
0.00266614 -6.98179e-05 -0.206629
-0.000543163 -0.000434161 -0.207927
-0.00376109 -0.000795439 -0.209232
-0.00698514 -0.00115262 -0.210546
0.0234631 0.00225258 -0.198975
0.0204548 0.00188162 -0.200232
0.0174305 0.0015101 -0.201494
0.0143908 0.0011383 -0.202762
0.0113363 0.000766638 -0.204037
0.00826783 0.000395622 -0.205319
0.00518677 2.58474e-05 -0.206608
0.00209471 -0.000341978 -0.207905
-0.0010063 -0.000706991 -0.20921
-0.0041138 -0.00106811 -0.210524
0.0281907 0.00274234 -0.197707
0.0253144 0.00237094 -0.198955
0.0224226 0.00199829 -0.20021
0.0195151 0.00162498 -0.201471
0.0165926 0.00125123 -0.202738
0.0136556 0.000877438 -0.204012
0.010705 0.000504094 -0.205293
0.00774195 0.000131777 -0.206581
0.00476789 -0.000238816 -0.207877
0.00178473 -0.000606848 -0.209182
-0.00120533 -0.000971279 -0.210495
0.0299556 0.00286734 -0.197681
0.0271953 0.00249512 -0.198928
0.0244199 0.00212167 -0.200181
0.0216294 0.00174733 -0.20144
0.0188243 0.0013724 -0.202706
0.0160052 0.000997258 -0.203979
0.0131727 0.000622361 -0.205259
0.010328 0.000248272 -0.206546
0.00747248 -0.000124336 -0.207842
0.00460779 -0.000494655 -0.209146
0.00173592 -0.000861699 -0.21046
0.031748 0.00299762 -0.197648
0.0291035 0.0026254 -0.198893
0.0264443 0.00225187 -0.200143
0.0237707 0.00187732 -0.201401
0.021083 0.00150201 -0.202666
0.0183816 0.00112632 -0.203938
0.0156674 0.00075068 -0.205217
0.0129413 0.000375623 -0.206504
0.0102045 1.79328e-06 -0.2078
0.00745861 -0.000370036 -0.209104
0.00470543 -0.000738941 -0.210417
0.033566 0.00313315 -0.197607
0.0310367 0.00276164 -0.198849
0.0284934 0.00238901 -0.200098
0.0259362 0.00201508 -0.201354
0.0233655 0.00164024 -0.202617
0.0207817 0.00126483 -0.203888
0.0181855 0.00088929 -0.205167
0.0155778 0.000514109 -0.206454
0.0129597 0.000139894 -0.207749
0.0103328 -0.000232625 -0.209053
0.00769852 -0.000602589 -0.210366
0.032993 0.00290421 -0.198796
0.0305647 0.00253318 -0.200043
0.0281233 0.00216073 -0.201298
0.0256689 0.00178723 -0.20256
0.023202 0.00141298 -0.20383
0.0207233 0.00103842 -0.205108
0.0182336 0.000663994 -0.206394
0.015734 0.000290275 -0.20769
0.0132256 -8.21616e-05 -0.208994
0.0107103 -0.000452238 -0.210308
0.0349699 0.003053 -0.198733
0.0326556 0.00268434 -0.199978
0.0303288 0.00231432 -0.201232
0.0279898 0.00194308 -0.202493
0.0256391 0.00157094 -0.203762
0.0232771 0.00119826 -0.205039
0.0209046 0.000825533 -0.206326
0.0185228 0.000453231 -0.207621
0.0161326 8.18718e-05 -0.208926
0.0303253 0.00210802 -0.202416
0.0280894 0.00173885 -0.203684
0.0258428 0.00136894 -0.204961
0.0235865 0.000998898 -0.206247
0.0213215 0.00062894 -0.207543
0.0190489 0.000259709 -0.208848
0.0206298 0.0105194 -0.208005
0.0174986 0.0106844 -0.209287
0.0143511 0.0108516 -0.210573
0.0111878 0.0110209 -0.211861
0.00800938 0.0111923 -0.213151
0.00481683 0.011366 -0.214443
0.00161154 0.0115419 -0.215736
-0.00160472 0.0117203 -0.217029
-0.00482963 0.011901 -0.218321
-0.00806077 0.0120842 -0.219611
0.0224493 0.0107841 -0.207666
0.019434 0.0109486 -0.208945
0.0164029 0.0111152 -0.210228
0.0133562 0.011284 -0.211513
0.0102946 0.011455 -0.212802
0.00721917 0.0116284 -0.214092
0.00413103 0.0118042 -0.215384
0.00103183 0.0119824 -0.216677
-0.0020764 0.0121632 -0.217969
-0.00519116 0.0123464 -0.21926
0.0243003 0.0110453 -0.20732
0.0214014 0.0112087 -0.208596
0.018487 0.0113743 -0.209875
0.0155574 0.0115421 -0.211159
0.0126132 0.0117123 -0.212445
0.00965544 0.0118849 -0.213734
0.00668511 0.01206 -0.215025
0.00370373 0.0122376 -0.216317
0.000713153 0.0124179 -0.217609
-0.00228437 0.0126007 -0.218901
0.0261809 0.011303 -0.206967
0.0233984 0.0114647 -0.208239
0.0206008 0.0116287 -0.209516
0.0177885 0.0117951 -0.210797
0.014962 0.0119639 -0.212081
0.0121222 0.0121353 -0.213368
0.00927015 0.0123092 -0.214658
0.0064071 0.0124858 -0.21595
0.00353479 0.012665 -0.217242
0.00065524 0.012847 -0.218535
0.0280889 0.0115568 -0.206607
0.0254225 0.0117165 -0.207876
0.0227417 0.0118784 -0.209149
0.0200466 0.0120428 -0.210428
0.0173378 0.0122098 -0.21171
0.0146161 0.0123793 -0.212995
0.0118824 0.0125515 -0.214284
0.00913793 0.0127265 -0.215575
0.00638425 0.0129042 -0.216868
0.00362317 0.0130848 -0.218161
0.0300221 0.0118068 -0.20624
0.0274715 0.0119638 -0.207506
0.0249069 0.0121232 -0.208777
0.0223286 0.0122851 -0.210052
0.0197373 0.0124496 -0.211332
0.0171334 0.0126167 -0.212616
0.014518 0.0127867 -0.213904
0.0118921 0.0129595 -0.215194
0.00925712 0.0131352 -0.216487
0.00661473 0.0133138 -0.217781
0.0319783 0.0120528 -0.205867
0.0295426 0.0122066 -0.207129
0.0270936 0.0123629 -0.208397
0.0246316 0.0125217 -0.20967
0.022157 0.0126831 -0.210948
0.0196705 0.0128474 -0.21223
0.0171729 0.0130146 -0.213516
0.0146653 0.0131846 -0.214806
0.0121487 0.0133577 -0.216099
0.00962507 0.0135338 -0.217393
0.0339553 0.0122948 -0.205488
0.0316335 0.0124448 -0.206747
0.029299 0.0125974 -0.208012
0.0269522 0.0127525 -0.209282
0.0245936 0.0129103 -0.210558
0.0222236 0.0130711 -0.211838
0.0198431 0.0132348 -0.213123
0.0174531 0.0134016 -0.214412
0.0150546 0.0135714 -0.215705
0.0292874 0.0129773 -0.208889
0.0270435 0.0131309 -0.210162
0.0247888 0.0132876 -0.211441
0.0225242 0.0134473 -0.212724
0.0202509 0.0136101 -0.214013
0.0179697 0.0137761 -0.215305
0.020703 0.00977756 -0.207222
0.0206665 0.0101476 -0.207613
0.0175721 0.00989497 -0.208501
0.0175355 0.0102886 -0.208894
0.0144248 0.0100143 -0.209785
0.0143881 0.0104317 -0.210179
0.0112616 0.0101355 -0.211071
0.0112249 0.0105768 -0.211466
0.00808323 0.0102586 -0.21236
0.00804643 0.010724 -0.212755
0.00489066 0.0103838 -0.21365
0.00485386 0.0108732 -0.214047
0.00168527 0.0105112 -0.214942
0.00164851 0.0110247 -0.215339
-0.0015312 0.010641 -0.216235
-0.00156787 0.0111786 -0.216632
-0.00475642 0.0107733 -0.217528
-0.00479295 0.011335 -0.217925
-0.00798801 0.0109081 -0.218819
-0.00802434 0.0114938 -0.219215
0.0225233 0.0100288 -0.206912
0.0224864 0.0104055 -0.207289
0.0195084 0.0101454 -0.208189
0.0194714 0.0105458 -0.208567
0.0164776 0.0102639 -0.209469
0.0164404 0.0106882 -0.209849
0.0134311 0.0103844 -0.210753
0.0133938 0.0108327 -0.211133
0.0103698 0.0105069 -0.21204
0.0103324 0.0109793 -0.212421
0.00729441 0.0106315 -0.213329
0.00725693 0.0111282 -0.213711
0.00420629 0.0107584 -0.21462
0.0041688 0.0112793 -0.215003
0.00110703 0.0108878 -0.215913
0.00106955 0.011433 -0.216295
-0.00200137 0.0110196 -0.217205
-0.00203878 0.0115891 -0.217588
-0.00511642 0.011154 -0.218497
-0.0051537 0.0117477 -0.218879
0.0243751 0.0102773 -0.206595
0.0243379 0.0106602 -0.206958
0.0214767 0.0103928 -0.207869
0.0214392 0.0107995 -0.208232
0.0185627 0.0105102 -0.209146
0.018525 0.0109408 -0.209511
0.0156335 0.0106295 -0.210428
0.0155956 0.0110843 -0.210793
0.0126896 0.010751 -0.211713
0.0126516 0.0112299 -0.212079
0.0097321 0.0108747 -0.213001
0.00969394 0.0113779 -0.213367
0.00676194 0.0110007 -0.214291
0.00672369 0.0115283 -0.214658
0.00378065 0.0111292 -0.215583
0.00374234 0.0116812 -0.21595
0.000790052 0.0112603 -0.216876
0.000751747 0.0118366 -0.217243
-0.00220761 0.011394 -0.218168
-0.00224586 0.0119947 -0.218535
0.0262565 0.0105231 -0.206271
0.0262189 0.0109119 -0.206619
0.0234746 0.010637 -0.207541
0.0234367 0.0110495 -0.20789
0.0206775 0.0107528 -0.208816
0.0206394 0.0111893 -0.209166
0.0178657 0.0108707 -0.210095
0.0178273 0.0113313 -0.210446
0.0150398 0.0109908 -0.211378
0.0150011 0.0114755 -0.21173
0.0122004 0.0111131 -0.212665
0.0121615 0.0116222 -0.213017
0.00934859 0.0112379 -0.213954
0.00930956 0.0117713 -0.214306
0.00648578 0.0113651 -0.215245
0.00644663 0.0119231 -0.215598
0.00361361 0.011495 -0.216538
0.00357438 0.0120774 -0.216891
0.000734086 0.0116276 -0.217832
0.000694836 0.0122345 -0.218184
0.0281652 0.0107661 -0.20594
0.0281273 0.0111602 -0.206273
0.0254997 0.010878 -0.207207
0.0254613 0.0112958 -0.207542
0.0228195 0.0109919 -0.208479
0.0227808 0.0114336 -0.208815
0.020125 0.0111079 -0.209756
0.020086 0.0115736 -0.210092
0.0174169 0.0112261 -0.211037
0.0173776 0.011716 -0.211374
0.0146957 0.0113467 -0.212322
0.0146561 0.0118609 -0.212659
0.0119625 0.0114697 -0.21361
0.0119227 0.0120083 -0.213947
0.00921842 0.0115954 -0.214901
0.0091784 0.0121584 -0.215239
0.00646504 0.0117236 -0.216194
0.00642487 0.0123112 -0.216531
0.00370415 0.0118547 -0.217488
0.00366387 0.0124669 -0.217825
0.0300993 0.011006 -0.205602
0.0300609 0.0114051 -0.205921
0.0275495 0.0111155 -0.206866
0.0275107 0.0115382 -0.207186
0.0249858 0.0112271 -0.208136
0.0249466 0.0116735 -0.208456
0.0224084 0.0113408 -0.20941
0.0223688 0.0118111 -0.209731
0.0198177 0.0114567 -0.210689
0.0197778 0.0119511 -0.211011
0.0172146 0.0115751 -0.211972
0.0171743 0.0120937 -0.212294
0.0145998 0.0116961 -0.213259
0.0145591 0.012239 -0.213582
0.0119744 0.0118196 -0.214549
0.0119335 0.0123869 -0.214872
0.00933992 0.0119459 -0.215843
0.00929879 0.0125377 -0.216165
0.0066979 0.0120751 -0.217137
0.00665657 0.0126914 -0.21746
0.0320563 0.0112429 -0.205258
0.0320176 0.0116465 -0.205563
0.0296217 0.0113496 -0.206519
0.0295824 0.0117765 -0.206825
0.0271736 0.0114584 -0.207785
0.0271339 0.0119089 -0.208092
0.0247126 0.0115693 -0.209057
0.0246724 0.0120435 -0.209364
0.0222389 0.0116826 -0.210334
0.0221982 0.0121807 -0.210642
0.0197532 0.0117983 -0.211616
0.0197122 0.0123205 -0.211924
0.0172564 0.0119167 -0.212902
0.017215 0.0124631 -0.21321
0.0147495 0.0120378 -0.214191
0.0147077 0.0126085 -0.214499
0.0122336 0.0121616 -0.215484
0.0121914 0.0127567 -0.215792
0.00971048 0.0122884 -0.21678
0.00966808 0.0129079 -0.217088
0.0340342 0.0114766 -0.204907
0.033995 0.0118842 -0.205198
0.0317135 0.0115801 -0.206165
0.0316737 0.0120108 -0.206457
0.0293801 0.0116856 -0.207429
0.0293398 0.0121396 -0.207721
0.0270344 0.0117934 -0.208698
0.0269936 0.0122709 -0.208991
0.0246769 0.0119035 -0.209973
0.0246355 0.0124046 -0.210266
0.0223079 0.0120161 -0.211253
0.0222661 0.0125411 -0.211546
0.0199283 0.0121315 -0.212538
0.0198861 0.0126805 -0.212831
0.0175392 0.0122496 -0.213827
0.0174965 0.0128227 -0.21412
0.0151415 0.0123705 -0.21512
0.0150984 0.0129679 -0.215413
0.0293709 0.0120128 -0.208333
0.0293295 0.0124929 -0.208612
0.0271282 0.0121193 -0.209606
0.0270862 0.0126227 -0.209885
0.0248747 0.0122284 -0.210884
0.0248321 0.0127554 -0.211163
0.0226112 0.0123402 -0.212168
0.0225681 0.0128909 -0.212447
0.020339 0.0124548 -0.213456
0.0202953 0.0130294 -0.213735
0.0180588 0.0125724 -0.214749
0.0180147 0.013171 -0.215028
0.020743 0.00940944 -0.206829
0.020743 0.00940928 -0.206829
0.0176122 0.00950342 -0.208108
0.0176122 0.00950323 -0.208108
0.0144651 0.00959916 -0.20939
0.0144651 0.00959894 -0.20939
0.011302 0.00969672 -0.210675
0.011302 0.00969647 -0.210675
0.00812368 0.00979612 -0.211963
0.00812368 0.00979585 -0.211963
0.00493114 0.0098975 -0.213254
0.00493114 0.0098972 -0.213253
0.00172574 0.010001 -0.214545
0.00172573 0.0100007 -0.214545
-0.00149077 0.010107 -0.215838
-0.00149078 0.0101066 -0.215838
-0.00471608 0.0102154 -0.217131
-0.00471609 0.010215 -0.217131
-0.00794781 0.0103264 -0.218423
-0.00794782 0.0103259 -0.218423
0.0225636 0.00965406 -0.206534
0.0225636 0.00965389 -0.206534
0.0195489 0.00974717 -0.20781
0.0195489 0.00974698 -0.20781
0.0165183 0.00984203 -0.209089
0.0165183 0.00984181 -0.209089
0.013472 0.00993875 -0.210372
0.013472 0.0099385 -0.210372
0.0104108 0.0100374 -0.211658
0.0104107 0.0100371 -0.211658
0.00733549 0.0101381 -0.212947
0.00733548 0.0101378 -0.212947
0.00424743 0.010241 -0.214238
0.00424742 0.0102407 -0.214238
0.00114818 0.0103463 -0.21553
0.00114818 0.0103459 -0.21553
-0.00196025 0.0104541 -0.216823
-0.00196025 0.0104537 -0.216823
-0.00507538 0.0105645 -0.218116
-0.00507538 0.0105641 -0.218116
0.0244157 0.00989639 -0.206231
0.0244157 0.00989622 -0.206231
0.0215176 0.00998834 -0.207504
0.0215176 0.00998814 -0.207504
0.0186038 0.010082 -0.208781
0.0186038 0.0100818 -0.208781
0.0156748 0.0101776 -0.210062
0.0156748 0.0101773 -0.210062
0.0127312 0.0102751 -0.211346
0.0127312 0.0102749 -0.211346
0.00977379 0.0103748 -0.212633
0.00977379 0.0103745 -0.212633
0.00680376 0.0104767 -0.213923
0.00680375 0.0104764 -0.213923
0.00382254 0.0105811 -0.215215
0.00382254 0.0105807 -0.215215
0.000831985 0.010688 -0.216508
0.000831979 0.0106876 -0.216508
-0.00216569 0.0107976 -0.217802
-0.0021657 0.0107971 -0.217802
0.0262974 0.0101364 -0.205922
0.0262974 0.0101363 -0.205922
0.0235159 0.0102268 -0.207191
0.0235159 0.0102266 -0.207191
0.0207191 0.010319 -0.208466
0.0207191 0.0103187 -0.208466
0.0179076 0.0104131 -0.209744
0.0179076 0.0104128 -0.209744
0.0150819 0.0105092 -0.211026
0.0150819 0.0105089 -0.211026
0.0122427 0.0106075 -0.212312
0.0122427 0.0106072 -0.212312
0.00939109 0.0107081 -0.213601
0.00939109 0.0107078 -0.213601
0.00652843 0.0108112 -0.214892
0.00652843 0.0108108 -0.214892
0.00365637 0.0109168 -0.216186
0.00365636 0.0109164 -0.216186
0.000776902 0.0110252 -0.21748
0.000776896 0.0110248 -0.21748
0.0282066 0.010374 -0.205605
0.0282066 0.0103738 -0.205605
0.0255414 0.0104625 -0.206872
0.0255414 0.0104623 -0.206872
0.0228615 0.0105528 -0.208143
0.0228615 0.0105526 -0.208143
0.0201674 0.0106451 -0.209419
0.0201674 0.0106448 -0.209419
0.0174596 0.0107394 -0.2107
0.0174596 0.0107391 -0.2107
0.0147387 0.010836 -0.211984
0.0147387 0.0108357 -0.211984
0.0120057 0.010935 -0.213272
0.0120057 0.0109346 -0.213272
0.00926184 0.0110364 -0.214563
0.00926184 0.011036 -0.214563
0.00650864 0.0111405 -0.215856
0.00650864 0.01114 -0.215856
0.00374788 0.0112473 -0.217151
0.00374788 0.0112469 -0.217151
0.0301409 0.0106091 -0.205282
0.0301409 0.0106089 -0.205282
0.0275916 0.0106953 -0.206545
0.0275916 0.0106951 -0.206545
0.0250283 0.0107834 -0.207814
0.0250283 0.0107831 -0.207814
0.0224512 0.0108735 -0.209088
0.0224512 0.0108732 -0.209088
0.019861 0.0109657 -0.210366
0.019861 0.0109654 -0.210366
0.0172582 0.0110602 -0.211649
0.0172582 0.0110599 -0.211649
0.0146437 0.0111571 -0.212936
0.0146437 0.0111567 -0.212936
0.0120186 0.0112566 -0.214226
0.0120186 0.0112562 -0.214226
0.00938438 0.0113587 -0.215519
0.00938438 0.0113582 -0.215519
0.00674257 0.0114636 -0.216815
0.00674256 0.0114631 -0.216815
0.0320983 0.0108415 -0.204952
0.0320983 0.0108413 -0.204952
0.0296642 0.0109251 -0.206212
0.0296642 0.0109249 -0.206212
0.0272166 0.0110106 -0.207478
0.0272166 0.0110104 -0.207478
0.024756 0.0110982 -0.208749
0.024756 0.0110979 -0.208749
0.0222827 0.0111879 -0.210026
0.0222827 0.0111875 -0.210026
0.0197975 0.0112799 -0.211307
0.0197975 0.0112795 -0.211307
0.0173011 0.0113744 -0.212593
0.0173011 0.011374 -0.212593
0.0147945 0.0114715 -0.213883
0.0147945 0.0114711 -0.213883
0.0122789 0.0115712 -0.215176
0.0122789 0.0115708 -0.215176
0.0097561 0.0116739 -0.216472
0.0097561 0.0116734 -0.216472
0.0340765 0.0110712 -0.204616
0.0340765 0.011071 -0.204616
0.0317564 0.0111519 -0.205873
0.0317564 0.0111517 -0.205873
0.0294235 0.0112344 -0.207136
0.0294235 0.0112342 -0.207136
0.0270784 0.011319 -0.208405
0.0270784 0.0113187 -0.208405
0.0247213 0.0114058 -0.209679
0.0247213 0.0114055 -0.209679
0.0223528 0.0114949 -0.210959
0.0223528 0.0114946 -0.210959
0.0199737 0.0115866 -0.212243
0.0199737 0.0115862 -0.212243
0.017585 0.011681 -0.213533
0.017585 0.0116805 -0.213533
0.0151878 0.011778 -0.214826
0.0151878 0.0117775 -0.214826
0.0294154 0.0115359 -0.208054
0.0294154 0.0115356 -0.208054
0.0271733 0.0116193 -0.209326
0.0271733 0.011619 -0.209326
0.0249203 0.0117052 -0.210604
0.0249203 0.0117049 -0.210604
0.0226574 0.0117937 -0.211888
0.0226574 0.0117933 -0.211888
0.0203857 0.0118848 -0.213176
0.0203857 0.0118843 -0.213176
0.0181059 0.0119787 -0.21447
0.0181059 0.0119782 -0.21447
0.0207826 0.00904256 -0.206438
0.017652 0.00911322 -0.207715
0.014505 0.00918551 -0.208997
0.011342 0.00925952 -0.210281
0.00816379 0.0093353 -0.211568
0.00497132 0.00941299 -0.212858
0.00176595 0.0094928 -0.21415
-0.00145056 0.00957497 -0.215443
-0.00467591 0.00965968 -0.216736
-0.00790773 0.00974701 -0.21803
0.0226035 0.00928052 -0.206157
0.019589 0.00935023 -0.207431
0.0165585 0.00942155 -0.20871
0.0135124 0.00949462 -0.209992
0.0104514 0.00956953 -0.211278
0.00737621 0.00964641 -0.212566
0.00428824 0.00972544 -0.213857
0.00118905 0.00980683 -0.21515
-0.00191936 0.00989076 -0.216443
-0.00503452 0.00997737 -0.217737
0.0244559 0.0095166 -0.205868
0.021558 0.00958511 -0.20714
0.0186445 0.00965521 -0.208416
0.0157157 0.00972708 -0.209696
0.0127723 0.00980085 -0.21098
0.00981506 0.00987663 -0.212267
0.00684518 0.00995461 -0.213557
0.00386408 0.010035 -0.214849
0.000873595 0.0101178 -0.216143
-0.00212405 0.0102035 -0.217437
0.0263379 0.00975081 -0.205573
0.0235566 0.00981778 -0.206842
0.0207602 0.00988638 -0.208115
0.017949 0.00995679 -0.209393
0.0151235 0.0100291 -0.210675
0.0122845 0.0101035 -0.21196
0.00943314 0.0101802 -0.213249
0.00657065 0.0102592 -0.214541
0.00369872 0.0103408 -0.215835
0.000819352 0.0104251 -0.21713
0.0282474 0.00998298 -0.205271
0.0255825 0.0100481 -0.206537
0.022903 0.010115 -0.207807
0.0202092 0.0101836 -0.209083
0.0175017 0.0102542 -0.210363
0.0147811 0.010327 -0.211647
0.0120484 0.0104019 -0.212935
0.00930475 0.0104794 -0.214226
0.00655175 0.0105593 -0.21552
0.00379116 0.0106421 -0.216816
0.030182 0.0102131 -0.204962
0.0276331 0.0102761 -0.206224
0.0250702 0.0103409 -0.207492
0.0224935 0.0104075 -0.208766
0.0199036 0.0104761 -0.210044
0.0173012 0.0105468 -0.211326
0.014687 0.0106198 -0.212613
0.0120622 0.0106953 -0.213904
0.00942827 0.0107734 -0.215198
0.00678668 0.0108543 -0.216494
0.0321397 0.010441 -0.204646
0.029706 0.0105016 -0.205905
0.0272589 0.010564 -0.207171
0.0247987 0.0106282 -0.208442
0.0223259 0.0106945 -0.209718
0.0198411 0.0107629 -0.210999
0.017345 0.0108337 -0.212285
0.0148388 0.0109069 -0.213575
0.0123236 0.0109828 -0.214869
0.00980108 0.0110615 -0.216166
0.0341183 0.0106667 -0.204323
0.0317986 0.0107246 -0.20558
0.0294663 0.0107843 -0.206842
0.0271216 0.0108458 -0.208111
0.024765 0.0109093 -0.209385
0.022397 0.0109751 -0.210665
0.0200184 0.0110433 -0.211949
0.0176301 0.011114 -0.213239
0.0152332 0.0111873 -0.214533
0.0294591 0.01106 -0.207774
0.0272176 0.0111206 -0.209046
0.0249652 0.0111834 -0.210324
0.0227027 0.0112486 -0.211608
0.0204315 0.0113164 -0.212897
0.0181522 0.0113868 -0.214191
0.0208221 0.00867704 -0.206047
0.0176917 0.00872456 -0.207324
0.0145448 0.00877359 -0.208604
0.011382 0.00882425 -0.209888
0.00820396 0.0088766 -0.211175
0.00501161 0.00893081 -0.212464
0.00180632 0.00898711 -0.213756
-0.00141014 0.00904575 -0.215049
-0.00463546 0.00910697 -0.216343
-0.0078673 0.00917089 -0.217638
0.0226432 0.00890836 -0.20578
0.019629 0.00895483 -0.207054
0.0165987 0.00900282 -0.208332
0.0135528 0.00905244 -0.209613
0.0104919 0.00910381 -0.210898
0.00741695 0.00915709 -0.212187
0.00432911 0.00921247 -0.213477
0.00123003 0.00927019 -0.21477
-0.00187831 0.00933047 -0.216065
-0.00499343 0.0093935 -0.21736
0.0244959 0.00913819 -0.205506
0.0215983 0.00918345 -0.206777
0.018685 0.00923017 -0.208052
0.0157565 0.00927856 -0.209332
0.0128133 0.00932873 -0.210615
0.00985628 0.00938084 -0.211902
0.00688657 0.00943509 -0.213192
0.00390563 0.00949167 -0.214484
0.000915272 0.00955081 -0.215778
-0.00208228 0.00961272 -0.217074
0.0263782 0.00936657 -0.205225
0.0235972 0.00941032 -0.206493
0.0208011 0.00945557 -0.207766
0.0179901 0.0095025 -0.209043
0.0151649 0.00955124 -0.210324
0.0123262 0.00960196 -0.21161
0.00947506 0.00965484 -0.212899
0.00661278 0.00971006 -0.21419
0.00374104 0.00976783 -0.215485
0.000861813 0.0098284 -0.216781
0.0282878 0.00959334 -0.204937
0.0256234 0.00963537 -0.206202
0.0229442 0.00967893 -0.207472
0.0202508 0.00972417 -0.208747
0.0175436 0.00977125 -0.210026
0.0148233 0.00982033 -0.21131
0.0120908 0.0098716 -0.212598
0.00934748 0.00992522 -0.21389
0.00659472 0.00998139 -0.215184
0.00383433 0.0100404 -0.216481
0.0302228 0.00981846 -0.204642
0.0276743 0.00985853 -0.205904
0.0251117 0.00990015 -0.207171
0.0225355 0.00994346 -0.208444
0.019946 0.00998863 -0.209722
0.0173438 0.0100358 -0.211004
0.01473 0.0100852 -0.212291
0.0121056 0.010137 -0.213582
0.0094719 0.0101913 -0.214877
0.00683058 0.0102485 -0.216174
0.0321808 0.0100419 -0.20434
0.0297475 0.0100797 -0.205599
0.0273008 0.0101192 -0.206864
0.0248411 0.0101603 -0.208134
0.0223687 0.0102033 -0.20941
0.0198843 0.0102484 -0.210691
0.0173886 0.0102957 -0.211977
0.0148828 0.0103453 -0.213267
0.0123679 0.0103976 -0.214562
0.00984572 0.0104526 -0.21586
0.0341595 0.0102635 -0.204031
0.0318404 0.0102989 -0.205287
0.0295085 0.0103359 -0.206549
0.0271644 0.0103746 -0.207817
0.0248083 0.0104151 -0.209091
0.0224407 0.0104578 -0.210371
0.0200625 0.0105027 -0.211656
0.0176747 0.01055 -0.212946
0.0152782 0.0105999 -0.21424
0.0295023 0.0105862 -0.207494
0.0272612 0.010624 -0.208766
0.0250094 0.010664 -0.210044
0.0227474 0.0107063 -0.211328
0.0204767 0.0107509 -0.212618
0.0181979 0.0107982 -0.213912
0.0208612 0.00831249 -0.205656
0.0177309 0.00833703 -0.206932
0.0145843 0.00836298 -0.208211
0.0114217 0.00839046 -0.209494
0.00824373 0.00841955 -0.210781
0.0050515 0.00845045 -0.21207
0.00184633 0.00848342 -0.213362
-0.00137005 0.00851872 -0.214655
-0.00459532 0.00855664 -0.21595
-0.00782714 0.00859733 -0.217245
0.0226825 0.00853725 -0.205404
0.0196685 0.00856067 -0.206676
0.0166385 0.00858549 -0.207954
0.0135928 0.00861185 -0.209234
0.0105321 0.00863986 -0.210519
0.00745725 0.00866971 -0.211807
0.00436956 0.00870163 -0.213097
0.0012706 0.00873588 -0.214391
-0.00183763 0.0087727 -0.215685
-0.00495269 0.00881234 -0.216981
0.027417 0.00874015 -0.203878
0.0245354 0.00876091 -0.205144
0.0216381 0.00878311 -0.206414
0.018725 0.00880664 -0.207688
0.0157967 0.00883172 -0.208967
0.0128538 0.00885849 -0.21025
0.00989699 0.00888712 -0.211536
0.00692748 0.00891783 -0.212826
0.0039467 0.00895085 -0.214119
0.000956494 0.00898643 -0.215414
-0.00204094 0.00902484 -0.21671
0.0291833 0.00896421 -0.203615
0.0264179 0.00898355 -0.204877
0.0236372 0.00900428 -0.206144
0.0208414 0.00902637 -0.207416
0.0180307 0.00905001 -0.208692
0.0152058 0.00907536 -0.209973
0.0123673 0.00910259 -0.211258
0.00951643 0.00913191 -0.212547
0.00665437 0.00916354 -0.213839
0.00378282 0.00919771 -0.215134
0.000903758 0.00923471 -0.216432
0.0309772 0.00918729 -0.203344
0.0283278 0.00920501 -0.204603
0.0256636 0.00922411 -0.205867
0.0229848 0.00924459 -0.207136
0.0202917 0.00926662 -0.208411
0.0175848 0.00929037 -0.20969
0.0148648 0.00931602 -0.210974
0.0121327 0.00934377 -0.212261
0.00938959 0.00937383 -0.213553
0.00663707 0.0094064 -0.214848
0.0038769 0.00944181 -0.216146
0.0327969 0.00940931 -0.203066
0.0302629 0.00942525 -0.204322
0.0277148 0.00944255 -0.205583
0.0251527 0.00946123 -0.20685
0.0225768 0.00948147 -0.208122
0.0199876 0.00950343 -0.209399
0.0173858 0.00952732 -0.210682
0.0147723 0.00955332 -0.211968
0.0121482 0.00958161 -0.21326
0.00951483 0.00961241 -0.214555
0.00687378 0.00964603 -0.215853
0.0322211 0.00964421 -0.204034
0.0297883 0.00965952 -0.205292
0.0273421 0.00967623 -0.206556
0.0248827 0.00969448 -0.207826
0.0224107 0.00971446 -0.209102
0.0199267 0.00973638 -0.210383
0.0174314 0.00976043 -0.211669
0.014926 0.00978678 -0.212959
0.0124114 0.00981562 -0.214254
0.00988956 0.00984723 -0.215553
0.0342001 0.00986182 -0.203738
0.0318814 0.00987496 -0.204994
0.0295501 0.0098895 -0.206256
0.0272064 0.00990557 -0.207523
0.0248507 0.00992336 -0.208797
0.0224836 0.00994311 -0.210077
0.0201058 0.00996502 -0.211362
0.0177184 0.00998922 -0.212652
0.0153224 0.0100159 -0.213947
0.0295446 0.0101147 -0.207214
0.0273041 0.0101301 -0.208486
0.0250527 0.0101475 -0.209764
0.0227913 0.010167 -0.211048
0.020521 0.0101888 -0.212338
0.0182427 0.0102131 -0.213633
0.0209036 0.00794883 -0.205265
0.0177736 0.00795049 -0.20654
0.0146272 0.00795345 -0.207818
0.0114648 0.00795784 -0.209101
0.00828703 0.00796378 -0.210386
0.00509496 0.00797148 -0.211675
0.00188993 0.00798122 -0.212967
-0.00132633 0.00799329 -0.214261
-0.0045515 0.00800799 -0.215556
-0.00778324 0.00802556 -0.216853
0.0227251 0.00816706 -0.205026
0.0197114 0.00816754 -0.206298
0.0166816 0.00816929 -0.207575
0.0136362 0.00817247 -0.208855
0.0105757 0.00817724 -0.210139
0.00750105 0.00818378 -0.211426
0.00441355 0.00819235 -0.212717
0.00131475 0.00820323 -0.21401
-0.00179335 0.0082167 -0.215306
-0.00490829 0.00823306 -0.216603
0.0274596 0.00838666 -0.203516
0.0245782 0.00838464 -0.204781
0.0216812 0.00838383 -0.20605
0.0187684 0.00838428 -0.207324
0.0158404 0.00838616 -0.208602
0.0128977 0.00838964 -0.209884
0.00994114 0.0083949 -0.21117
0.00697184 0.00840219 -0.21246
0.00399127 0.00841176 -0.213753
0.00100124 0.0084239 -0.215048
-0.00199604 0.00843892 -0.216346
0.029226 0.00860497 -0.203267
0.0264609 0.0086016 -0.204528
0.0236806 0.00859933 -0.205794
0.020885 0.00859837 -0.207065
0.0180747 0.00859884 -0.208341
0.01525 0.00860091 -0.209622
0.0124118 0.00860477 -0.210907
0.00956119 0.00861066 -0.212195
0.00669937 0.00861881 -0.213488
0.00382804 0.00862949 -0.214783
0.000949178 0.00864305 -0.216082
0.0310201 0.00882266 -0.20301
0.028371 0.00881776 -0.204268
0.0257072 0.00881398 -0.205531
0.0230287 0.0088115 -0.2068
0.020336 0.00881043 -0.208074
0.0176294 0.00881097 -0.209353
0.0149097 0.00881332 -0.210636
0.0121778 0.00881768 -0.211924
0.00943503 0.00882429 -0.213216
0.00668277 0.0088334 -0.214511
0.00392284 0.00884536 -0.21581
0.0328399 0.00903968 -0.202746
0.0303063 0.00903309 -0.204001
0.0277586 0.00902773 -0.205261
0.0251968 0.0090236 -0.206527
0.0226213 0.00902088 -0.207799
0.0200325 0.00901977 -0.209076
0.0174311 0.00902046 -0.210358
0.0148179 0.00902318 -0.211645
0.0121941 0.00902812 -0.212937
0.00956102 0.00903552 -0.214232
0.00692027 0.00904575 -0.215531
0.0322647 0.00924764 -0.203726
0.0298323 0.0092405 -0.204984
0.0273865 0.00923462 -0.206248
0.0249275 0.00923012 -0.207517
0.0224559 0.00922721 -0.208793
0.0199723 0.00922613 -0.210073
0.0174774 0.00922706 -0.211359
0.0149723 0.00923021 -0.21265
0.0124581 0.00923579 -0.213946
0.00993659 0.00924413 -0.215246
0.0342439 0.00946129 -0.203445
0.0319256 0.00945226 -0.2047
0.0295947 0.00944447 -0.205961
0.0272514 0.00943807 -0.207228
0.0248962 0.00943323 -0.208502
0.0225296 0.00943022 -0.209781
0.0201522 0.00942925 -0.211066
0.0177652 0.00943047 -0.212357
0.0153696 0.00943408 -0.213652
0.02959 0.00964467 -0.206932
0.02735 0.00963777 -0.208204
0.0250991 0.00963273 -0.209482
0.0228381 0.00962969 -0.210766
0.0205683 0.0096288 -0.212056
0.0182904 0.0096303 -0.213352
0.0209455 0.00758627 -0.204874
0.0178158 0.00756513 -0.206148
0.0146696 0.00754517 -0.207426
0.0115074 0.00752656 -0.208707
0.00832982 0.00750943 -0.209993
0.00513794 0.00749401 -0.211281
0.00193309 0.0074806 -0.212573
-0.00128301 0.00746952 -0.213867
-0.00450803 0.0074611 -0.215164
-0.00773965 0.00745563 -0.216462
0.0227672 0.00779796 -0.204649
0.0197537 0.00777557 -0.205921
0.0167242 0.00775433 -0.207196
0.013679 0.00773443 -0.208476
0.0106187 0.00771603 -0.209759
0.00754431 0.00769935 -0.211047
0.00445701 0.00768465 -0.212337
0.00135841 0.00767224 -0.213631
-0.00174951 0.00766246 -0.214928
-0.0048643 0.00765563 -0.216226
0.0275015 0.00803418 -0.203154
0.0246204 0.00800941 -0.204418
0.0217237 0.00798572 -0.205686
0.0188112 0.00796316 -0.206959
0.0158834 0.00794192 -0.208237
0.012941 0.00792219 -0.209519
0.00998469 0.00790417 -0.210805
0.00701563 0.00788813 -0.212094
0.00403528 0.00787434 -0.213388
0.00104546 0.00786313 -0.214684
-0.00195163 0.00785485 -0.215983
0.0292681 0.00824672 -0.202918
0.0265033 0.00822064 -0.204179
0.0237232 0.00819554 -0.205444
0.020928 0.0081716 -0.206715
0.0181179 0.00814898 -0.20799
0.0152936 0.00812786 -0.209271
0.0124557 0.00810844 -0.210555
0.0096053 0.00809099 -0.211844
0.00674374 0.00807576 -0.213137
0.00387265 0.00806305 -0.214433
0.000994019 0.00805326 -0.215733
0.0310623 0.00845901 -0.202675
0.0284135 0.0084315 -0.203933
0.02575 0.00840499 -0.205195
0.0230719 0.00837962 -0.206464
0.0203795 0.00835555 -0.207737
0.0176732 0.00833297 -0.209015
0.0149538 0.0083121 -0.210299
0.0122223 0.00829317 -0.211587
0.00947976 0.00827643 -0.212879
0.00672779 0.00826217 -0.214176
0.00396812 0.00825078 -0.215475
0.0328822 0.00867099 -0.202425
0.030349 0.00864197 -0.203679
0.0278016 0.00861402 -0.204939
0.0252402 0.00858717 -0.206205
0.022665 0.00856159 -0.207476
0.0200766 0.00853748 -0.208753
0.0174755 0.00851508 -0.210035
0.0148627 0.00849461 -0.211322
0.0122392 0.0084763 -0.212614
0.00960644 0.00846042 -0.21391
0.00696598 0.00844736 -0.215211
0.0323075 0.00885209 -0.203419
0.0298755 0.00882259 -0.204676
0.02743 0.00879418 -0.205939
0.0249715 0.00876702 -0.207208
0.0225003 0.00874133 -0.208483
0.020017 0.00871733 -0.209764
0.0175225 0.00869525 -0.21105
0.0150178 0.0086753 -0.212342
0.0125039 0.00865774 -0.213638
0.00998276 0.00864291 -0.214939
0.0342868 0.00906175 -0.203151
0.031969 0.00903063 -0.204405
0.0296385 0.00900061 -0.205666
0.0272957 0.00897182 -0.206933
0.0249409 0.00894444 -0.208207
0.0225746 0.00891877 -0.209486
0.0201977 0.00889502 -0.210771
0.0178111 0.00887337 -0.212062
0.0154158 0.00885404 -0.213359
0.0296345 0.0091759 -0.206651
0.0273949 0.0091468 -0.207922
0.0251444 0.00911941 -0.2092
0.0228839 0.0090939 -0.210485
0.0206145 0.00907042 -0.211775
0.018337 0.00904925 -0.213072
0.0209877 0.00722472 -0.204484
0.0178582 0.00718089 -0.205757
0.0147123 0.00713812 -0.207034
0.0115503 0.00709661 -0.208315
0.008373 0.00705652 -0.2096
0.00518136 0.0070181 -0.210888
0.00197672 0.00698166 -0.21218
-0.00123916 0.00694755 -0.213475
-0.00446398 0.00691614 -0.214772
-0.00769541 0.00688776 -0.216072
0.0228095 0.00742987 -0.204273
0.0197963 0.00738472 -0.205544
0.016767 0.00734061 -0.206818
0.0137221 0.00729773 -0.208097
0.0106621 0.00725628 -0.209381
0.00758793 0.00721649 -0.210668
0.00450088 0.00717865 -0.211959
0.00140251 0.00714309 -0.213253
-0.00170518 0.00711017 -0.21455
-0.00481975 0.00708028 -0.21585
0.0275435 0.00768259 -0.202793
0.0246628 0.00763518 -0.204055
0.0217663 0.00758871 -0.205323
0.0188542 0.00754326 -0.206595
0.0159267 0.00749903 -0.207872
0.0129845 0.00745621 -0.209154
0.0100285 0.00741504 -0.21044
0.00705973 0.00737579 -0.21173
0.00407964 0.00733877 -0.213024
0.00109008 0.00730434 -0.214321
-0.00190676 0.00727291 -0.215621
0.0293102 0.00788936 -0.202571
0.0265458 0.00784068 -0.203831
0.023766 0.00779285 -0.205095
0.0209711 0.00774606 -0.206365
0.0181613 0.00770047 -0.20764
0.0153373 0.00765628 -0.20892
0.0124997 0.00761371 -0.210205
0.00964964 0.00757305 -0.211494
0.00678836 0.00753457 -0.212787
0.00391756 0.00749862 -0.214084
0.0010392 0.00746561 -0.215385
0.0311045 0.00809622 -0.202342
0.0284561 0.00804623 -0.203598
0.0257929 0.0079971 -0.20486
0.0231151 0.00794897 -0.206128
0.020423 0.00790202 -0.207401
0.0177171 0.00785644 -0.208679
0.0149981 0.00781248 -0.209962
0.0122668 0.00777039 -0.211251
0.00952465 0.00773044 -0.212543
0.00677299 0.00769296 -0.213841
0.00401362 0.00765837 -0.215142
0.0329245 0.00830316 -0.202105
0.0303916 0.00825182 -0.203359
0.0278446 0.00820141 -0.204618
0.0252836 0.00815195 -0.205883
0.0227088 0.00810362 -0.207154
0.0201207 0.00805666 -0.208431
0.01752 0.0080113 -0.209713
0.0149075 0.00796778 -0.211
0.0122844 0.00792636 -0.212292
0.00965194 0.00788733 -0.21359
0.00701182 0.00785114 -0.214891
0.0323502 0.00845749 -0.203112
0.0299186 0.00840575 -0.204369
0.0274736 0.00835495 -0.205631
0.0250154 0.00830526 -0.2069
0.0225446 0.00825689 -0.208175
0.0200617 0.00821012 -0.209456
0.0175676 0.00816517 -0.210742
0.0150632 0.00812228 -0.212034
0.0125497 0.00808172 -0.213331
0.0100289 0.00804388 -0.214633
0.0343296 0.00866314 -0.202858
0.0320122 0.00861007 -0.204111
0.0296822 0.00855793 -0.205372
0.0273397 0.00850688 -0.206639
0.0249854 0.00845709 -0.207912
0.0226195 0.0084089 -0.209191
0.020243 0.00836252 -0.210477
0.0178568 0.00831814 -0.211768
0.0154619 0.00827603 -0.213066
0.0296787 0.00870842 -0.20637
0.0274395 0.00865724 -0.207641
0.0251895 0.00860766 -0.208919
0.0229294 0.00855982 -0.210204
0.0206605 0.00851392 -0.211495
0.0183835 0.00847024 -0.212793
0.0210293 0.00686328 -0.204094
0.0179001 0.00679678 -0.205366
0.0147544 0.00673125 -0.206642
0.0115927 0.00666688 -0.207922
0.00841563 0.00660387 -0.209207
0.00522424 0.00654249 -0.210495
0.00201985 0.00648307 -0.211787
-0.00119579 0.00642597 -0.213082
-0.00442038 0.0063716 -0.21438
-0.00765159 0.00632036 -0.215681
0.0228511 0.0070619 -0.203897
0.0198382 0.00699402 -0.205167
0.0168092 0.00692708 -0.206441
0.0137646 0.00686127 -0.207719
0.0107048 0.00679681 -0.209002
0.00763096 0.00673395 -0.210289
0.00454417 0.00667301 -0.21158
0.00144606 0.00661434 -0.212874
-0.00166138 0.00655834 -0.214172
-0.0047757 0.00650544 -0.215473
0.027585 0.0073311 -0.202432
0.0247045 0.00726108 -0.203693
0.0218084 0.00719188 -0.20496
0.0188965 0.00712358 -0.206232
0.0159693 0.00705639 -0.207508
0.0130274 0.00699052 -0.208789
0.0100717 0.00692624 -0.210075
0.00710319 0.00686383 -0.211365
0.00412338 0.00680363 -0.212659
0.00113409 0.00674604 -0.213957
-0.00186249 0.00669149 -0.215259
0.0293517 0.0075321 -0.202224
0.0265876 0.00746087 -0.203482
0.0238081 0.00739035 -0.204747
0.0210135 0.00732075 -0.206016
0.0182041 0.00725223 -0.20729
0.0153803 0.00718501 -0.20857
0.0125431 0.00711934 -0.209854
0.00969327 0.00705551 -0.211143
0.00683229 0.00699383 -0.212437
0.00396178 0.00693468 -0.213735
0.00108371 0.00687852 -0.215037
0.031146 0.00773357 -0.202008
0.0284979 0.00766113 -0.203264
0.0258351 0.00758941 -0.204526
0.0231576 0.00751856 -0.205793
0.0204659 0.00744876 -0.207065
0.0177603 0.00738024 -0.208343
0.0150416 0.00731324 -0.209626
0.0123106 0.00724803 -0.210914
0.00956876 0.00718493 -0.212208
0.00681742 0.00712428 -0.213505
0.00405836 0.00706654 -0.214808
0.0329661 0.00793547 -0.201786
0.0304335 0.00786184 -0.203038
0.0278869 0.00778902 -0.204297
0.0253262 0.00771699 -0.205562
0.0227517 0.00764597 -0.206832
0.020164 0.00757619 -0.208108
0.0175636 0.00750791 -0.20939
0.0149515 0.0074414 -0.210678
0.0123287 0.00737692 -0.211971
0.00969658 0.00731481 -0.213268
0.0070568 0.00725554 -0.214571
0.0323922 0.00806308 -0.202805
0.0299609 0.00798915 -0.204061
0.0275163 0.007916 -0.205324
0.0250585 0.00784382 -0.206592
0.022588 0.00777284 -0.207867
0.0201055 0.00770334 -0.209147
0.0176117 0.00763557 -0.210434
0.0151077 0.00756978 -0.211726
0.0125946 0.00750628 -0.213024
0.0100741 0.0074455 -0.214327
0.0343717 0.00826474 -0.202564
0.0320547 0.00818975 -0.203818
0.029725 0.00811555 -0.205078
0.0273829 0.00804228 -0.206344
0.0250289 0.00797014 -0.207617
0.0226634 0.00789948 -0.208897
0.0202873 0.00783052 -0.210182
0.0179015 0.00776348 -0.211474
0.015507 0.00769864 -0.212772
0.029722 0.00824131 -0.206089
0.0274832 0.00816811 -0.20736
0.0252336 0.00809638 -0.208638
0.0229739 0.00802627 -0.209923
0.0207054 0.00795799 -0.211215
0.0184288 0.00789187 -0.212513
0.0210742 0.00650191 -0.203703
0.0179453 0.00641274 -0.204974
0.0147999 0.00632442 -0.20625
0.0116385 0.00623718 -0.207529
0.00846169 0.00615124 -0.208813
0.00527058 0.00606688 -0.210101
0.00206647 0.00598447 -0.211393
-0.00114889 0.00590437 -0.212689
-0.00437321 0.00582704 -0.213988
-0.00760413 0.00575293 -0.21529
0.0228961 0.00669402 -0.20352
0.0198835 0.0066034 -0.204789
0.0168548 0.0065136 -0.206062
0.0138104 0.00642485 -0.20734
0.010751 0.00633736 -0.208622
0.0076774 0.00625143 -0.209909
0.0045909 0.00616738 -0.2112
0.00149308 0.00608559 -0.212495
-0.00161406 0.00600649 -0.213794
-0.0047281 0.00593057 -0.215096
0.0276297 0.00697972 -0.20207
0.0247495 0.00688709 -0.20333
0.0218537 0.00679514 -0.204596
0.0189421 0.00670397 -0.205867
0.0160152 0.00661381 -0.207143
0.0130737 0.00652488 -0.208424
0.0101182 0.00643747 -0.20971
0.00715003 0.00635189 -0.211
0.00417053 0.0062685 -0.212294
0.00118155 0.00618772 -0.213593
-0.00181473 0.00611006 -0.214896
0.0293964 0.00717497 -0.201876
0.0266326 0.00708117 -0.203133
0.0238535 0.00698795 -0.204397
0.0210592 0.00689552 -0.205665
0.0182501 0.00680406 -0.206939
0.0154266 0.0067138 -0.208219
0.0125897 0.00662501 -0.209503
0.00974021 0.006538 -0.210792
0.00687956 0.00645311 -0.212086
0.00400937 0.00637076 -0.213385
0.00113162 0.00629143 -0.214688
0.0311908 0.00737105 -0.201674
0.028543 0.00727615 -0.202929
0.0258805 0.00718183 -0.20419
0.0232034 0.00708825 -0.205456
0.0205119 0.0069956 -0.206728
0.0178067 0.00690411 -0.208006
0.0150883 0.00681405 -0.209289
0.0123577 0.00672573 -0.210577
0.00961616 0.00663945 -0.211871
0.00686515 0.00655562 -0.213169
0.00410643 0.00647472 -0.214473
0.0330109 0.00756793 -0.201465
0.0304786 0.007472 -0.202717
0.0279323 0.00737675 -0.203975
0.0253719 0.00728215 -0.205239
0.0227978 0.00718842 -0.206509
0.0202104 0.00709581 -0.207785
0.0176104 0.00700461 -0.209067
0.0149986 0.00691508 -0.210355
0.0123762 0.00682753 -0.211648
0.00974445 0.00674232 -0.212946
0.00710502 0.00665996 -0.21425
0.0324373 0.00766883 -0.202497
0.0300064 0.0075727 -0.203753
0.0275621 0.00747718 -0.205015
0.0251047 0.0073825 -0.206283
0.0226346 0.00728889 -0.207557
0.0201524 0.00719665 -0.208838
0.017659 0.00710605 -0.210125
0.0151553 0.00701735 -0.211417
0.0126426 0.00693089 -0.212716
0.0101225 0.00684716 -0.21402
0.0344168 0.00786652 -0.20227
0.0321002 0.0077696 -0.203523
0.0297708 0.00767332 -0.204782
0.0274292 0.00757783 -0.206049
0.0250756 0.00748333 -0.207321
0.0227104 0.00739018 -0.208601
0.0203347 0.00729863 -0.209887
0.0179492 0.0072089 -0.211179
0.0155551 0.00712132 -0.212478
0.0297683 0.00777437 -0.205807
0.0275299 0.00767914 -0.207078
0.0252807 0.00758523 -0.208356
0.0230214 0.00749285 -0.209641
0.0207532 0.00740219 -0.210933
0.018477 0.0073136 -0.212232
0.0211197 0.00614084 -0.203311
0.017991 0.00602899 -0.204581
0.0148459 0.0059179 -0.205856
0.0116848 0.00580778 -0.207135
0.00850837 0.00569891 -0.208419
0.00531757 0.00559158 -0.209706
0.00211377 0.00548617 -0.210999
-0.00110128 0.00538307 -0.212295
-0.00432527 0.00528277 -0.213595
-0.00755587 0.00518579 -0.214898
0.0229416 0.00632643 -0.203142
0.0199292 0.00621307 -0.20441
0.0169009 0.00610043 -0.205682
0.0138568 0.00598873 -0.206959
0.0107977 0.00587822 -0.208241
0.00772442 0.00576921 -0.209528
0.00463824 0.00566205 -0.210819
0.00154075 0.00555714 -0.212115
-0.00156607 0.00545494 -0.213414
-0.00467977 0.00535599 -0.214718
0.0276748 0.00662863 -0.201706
0.024795 0.0065134 -0.202966
0.0218994 0.00639869 -0.204231
0.0189882 0.00628466 -0.205501
0.0160616 0.00617152 -0.206777
0.0131204 0.00605954 -0.208057
0.0101653 0.005949 -0.209343
0.0071974 0.00584025 -0.210633
0.00421823 0.00573366 -0.211928
0.00122959 0.00562971 -0.213227
-0.00176634 0.00552892 -0.214531
0.0294416 0.00681813 -0.201526
0.0266781 0.00670177 -0.202783
0.0238992 0.00658585 -0.204045
0.0211053 0.00647059 -0.205313
0.0182965 0.00635619 -0.206587
0.0154734 0.00624289 -0.207866
0.0126368 0.00613098 -0.20915
0.00978762 0.00602079 -0.210439
0.0069273 0.0059127 -0.211734
0.00405746 0.00580713 -0.213033
0.00118006 0.00570463 -0.214337
0.0312359 0.00700882 -0.201338
0.0285885 0.00689147 -0.202592
0.0259263 0.00677455 -0.203852
0.0232495 0.00665824 -0.205118
0.0205583 0.00654274 -0.206389
0.0178534 0.00642828 -0.207667
0.0151354 0.00631517 -0.20895
0.0124051 0.00620372 -0.210238
0.00966394 0.00609428 -0.211532
0.00691328 0.00598726 -0.212832
0.00415493 0.0058832 -0.214136
0.033056 0.00720069 -0.201143
0.0305241 0.00708246 -0.202394
0.0279781 0.00696478 -0.203651
0.025418 0.0068476 -0.204915
0.0228443 0.00673116 -0.206184
0.0202572 0.00661573 -0.20746
0.0176575 0.0065016 -0.208742
0.0150461 0.00638906 -0.21003
0.012424 0.00627844 -0.211323
0.00979263 0.00617013 -0.212622
0.00715357 0.00606468 -0.213927
0.0324828 0.00727487 -0.202188
0.0300522 0.00715653 -0.203443
0.0276082 0.00703866 -0.204704
0.0251511 0.00692147 -0.205972
0.0226813 0.00680524 -0.207246
0.0201995 0.00669026 -0.208526
0.0177065 0.00657682 -0.209813
0.0152032 0.00646521 -0.211106
0.0126908 0.00635581 -0.212406
0.0101711 0.00624912 -0.213711
0.0344623 0.00746859 -0.201974
0.0321459 0.00734974 -0.203226
0.0298169 0.00723137 -0.204485
0.0274756 0.00711366 -0.205751
0.0251223 0.0069968 -0.207024
0.0227576 0.00688117 -0.208303
0.0203822 0.00676702 -0.209589
0.0179971 0.00665462 -0.210882
0.0156034 0.0065443 -0.212181
0.0298147 0.0073077 -0.205522
0.0275767 0.00719044 -0.206793
0.0253279 0.00707438 -0.208072
0.0230689 0.00695971 -0.209357
0.0208012 0.00684667 -0.21065
0.0185253 0.00673563 -0.211949
0.0211197 0.00614113 -0.203311
0.017991 0.00602933 -0.204581
0.0148459 0.00591828 -0.205856
0.0116848 0.00580822 -0.207135
0.00850837 0.0056994 -0.208419
0.00531757 0.00559212 -0.209707
0.00211378 0.00548676 -0.210999
-0.00110127 0.00538373 -0.212295
-0.00432526 0.00528349 -0.213595
-0.00755586 0.00518656 -0.214898
0.0229416 0.00632673 -0.203142
0.0199292 0.00621342 -0.20441
0.0169009 0.00610082 -0.205682
0.0138568 0.00598918 -0.20696
0.0107977 0.00587872 -0.208242
0.00772442 0.00576977 -0.209528
0.00463824 0.00566267 -0.210819
0.00154075 0.00555781 -0.212115
-0.00156606 0.00545568 -0.213415
-0.00467976 0.00535679 -0.214718
0.0276748 0.00662888 -0.201706
0.024795 0.0065137 -0.202966
0.0218994 0.00639904 -0.204231
0.0189882 0.00628506 -0.205501
0.0160616 0.00617198 -0.206777
0.0131204 0.00606005 -0.208057
0.0101653 0.00594957 -0.209343
0.0071974 0.00584088 -0.210633
0.00421823 0.00573436 -0.211928
0.00122959 0.00563046 -0.213228
-0.00176634 0.00552974 -0.214531
0.0294416 0.00681839 -0.201526
0.0266781 0.00670208 -0.202783
0.0238992 0.00658621 -0.204045
0.0211053 0.00647101 -0.205313
0.0182965 0.00635666 -0.206587
0.0154734 0.00624342 -0.207866
0.0126368 0.00613157 -0.20915
0.00978762 0.00602144 -0.210439
0.0069273 0.00591341 -0.211734
0.00405747 0.0058079 -0.213033
0.00118007 0.00570547 -0.214337
0.0312359 0.00700908 -0.201338
0.0285885 0.00689178 -0.202592
0.0259263 0.00677492 -0.203852
0.0232495 0.00665866 -0.205118
0.0205583 0.00654321 -0.206389
0.0178534 0.00642882 -0.207667
0.0151354 0.00631577 -0.20895
0.0124051 0.00620438 -0.210238
0.00966394 0.006095 -0.211532
0.00691328 0.00598805 -0.212832
0.00415493 0.00588406 -0.214136
0.033056 0.00720095 -0.201142
0.0305241 0.00708278 -0.202394
0.0279781 0.00696515 -0.203651
0.025418 0.00684803 -0.204915
0.0228443 0.00673165 -0.206184
0.0202572 0.00661628 -0.20746
0.0176575 0.00650221 -0.208742
0.0150461 0.00638973 -0.210029
0.012424 0.00627918 -0.211323
0.00979262 0.00617094 -0.212622
0.00715357 0.00606556 -0.213927
0.0324828 0.0072752 -0.202188
0.0300522 0.00715691 -0.203442
0.0276082 0.0070391 -0.204704
0.0251511 0.00692197 -0.205971
0.0226813 0.0068058 -0.207246
0.0201995 0.00669088 -0.208526
0.0177065 0.00657751 -0.209813
0.0152032 0.00646597 -0.211106
0.0126908 0.00635664 -0.212406
0.0101711 0.00625002 -0.213711
0.0344622 0.00746891 -0.201973
0.0321459 0.00735012 -0.203226
0.0298169 0.00723182 -0.204485
0.0274756 0.00711417 -0.205751
0.0251223 0.00699736 -0.207023
0.0227576 0.0068818 -0.208303
0.0203822 0.00676772 -0.209589
0.0179971 0.00665539 -0.210882
0.0156034 0.00654514 -0.212181
0.0298147 0.00730821 -0.205522
0.0275767 0.00719102 -0.206793
0.0253279 0.00707502 -0.208071
0.0230689 0.00696042 -0.209357
0.0208011 0.00684745 -0.21065
0.0185253 0.00673649 -0.211949
0.021163 0.00577962 -0.202918
0.0180347 0.00564506 -0.204188
0.0148899 0.00551114 -0.205462
0.0117291 0.00537813 -0.20674
0.00855297 0.00524628 -0.208023
0.00536251 0.00511595 -0.209311
0.00215906 0.00498751 -0.210603
-0.00105563 0.00486139 -0.2119
-0.00427926 0.0047381 -0.213201
-0.00750949 0.00461823 -0.214506
0.0229848 0.0059587 -0.202763
0.0199728 0.00582256 -0.20403
0.0169448 0.00568703 -0.205302
0.013901 0.00555235 -0.206579
0.0108422 0.00541879 -0.20786
0.00776931 0.00528666 -0.209147
0.00468348 0.00515636 -0.210438
0.00158634 0.0050283 -0.211734
-0.00152012 0.00490297 -0.213035
-0.00463344 0.00478098 -0.21434
0.0277177 0.00627745 -0.201342
0.0248382 0.00613956 -0.202601
0.021943 0.00600206 -0.203865
0.019032 0.00586513 -0.205135
0.0161058 0.00572899 -0.20641
0.0131649 0.00559391 -0.20769
0.0102101 0.0054602 -0.208975
0.00724258 0.00532824 -0.210265
0.00426377 0.00519844 -0.211561
0.00127549 0.00507127 -0.212861
-0.00172007 0.00494733 -0.214167
0.0294844 0.0064612 -0.201176
0.0267212 0.00632224 -0.202432
0.0239427 0.00618358 -0.203693
0.0211491 0.00604545 -0.204961
0.0183406 0.00590807 -0.206234
0.0155178 0.00577169 -0.207512
0.0126815 0.00563662 -0.208796
0.00983274 0.00550322 -0.210086
0.00697277 0.00537188 -0.211381
0.0041033 0.00524307 -0.212681
0.00122628 0.00511738 -0.213986
0.0312787 0.00664652 -0.201001
0.0286316 0.00650667 -0.202255
0.0259697 0.0063671 -0.203514
0.0232932 0.00622802 -0.204779
0.0206024 0.00608962 -0.20605
0.0178978 0.00595217 -0.207327
0.0151801 0.00581597 -0.20861
0.0124502 0.00568135 -0.209898
0.00970935 0.0055487 -0.211193
0.00695906 0.00541846 -0.212493
0.00420108 0.00529122 -0.213799
0.0330987 0.00683338 -0.200819
0.0305671 0.00669281 -0.20207
0.0280215 0.00655265 -0.203326
0.0254617 0.00641285 -0.204589
0.0228882 0.00627367 -0.205859
0.0203015 0.00613538 -0.207134
0.0177022 0.00599827 -0.208416
0.0150911 0.00586268 -0.209704
0.0124693 0.00572895 -0.210998
0.00983833 0.00559751 -0.212298
0.00719965 0.00546893 -0.213604
0.0325258 0.00688082 -0.201877
0.0300955 0.00674022 -0.203131
0.0276518 0.00659994 -0.204392
0.025195 0.00646022 -0.205659
0.0227256 0.00632132 -0.206933
0.0202441 0.00618356 -0.208214
0.0177514 0.00604724 -0.209501
0.0152484 0.00591268 -0.210795
0.0127364 0.00578029 -0.212095
0.0102171 0.00565061 -0.213401
0.0345052 0.00707057 -0.201676
0.0321891 0.00692974 -0.202928
0.0298605 0.00678926 -0.204187
0.0275194 0.00664928 -0.205452
0.0251665 0.00651002 -0.206725
0.0228021 0.00637186 -0.208004
0.020427 0.00623508 -0.209291
0.0180423 0.00609995 -0.210584
0.0156489 0.00596685 -0.211884
0.0298585 0.00684084 -0.205237
0.0276208 0.00670151 -0.206508
0.0253723 0.00656323 -0.207786
0.0231137 0.00642625 -0.209072
0.0208463 0.00629078 -0.210365
0.0185708 0.00615723 -0.211665
0.0212084 0.00541746 -0.202526
0.0180803 0.00526005 -0.203794
0.0149359 0.00510318 -0.205067
0.0117755 0.00494713 -0.206345
0.0085997 0.00479219 -0.207628
0.00540961 0.00463871 -0.208916
0.00220655 0.00448711 -0.210208
-0.00100775 0.00433782 -0.211505
-0.00423097 0.00419141 -0.212807
-0.00746077 0.00404851 -0.214113
0.0230301 0.00558997 -0.202385
0.0200184 0.00543091 -0.203651
0.0169907 0.00527235 -0.204922
0.0139473 0.00511455 -0.206198
0.0108889 0.00495778 -0.207479
0.00781631 0.00480241 -0.208765
0.00473085 0.00464882 -0.210056
0.00163411 0.00449746 -0.211353
-0.00147194 0.00434887 -0.212654
-0.00458484 0.00420369 -0.213961
0.0277626 0.00592533 -0.200978
0.0248834 0.00576466 -0.202236
0.0219885 0.00560422 -0.2035
0.0190779 0.00544423 -0.204769
0.016152 0.00528494 -0.206043
0.0132114 0.00512662 -0.207322
0.010257 0.0049696 -0.208608
0.00728984 0.00481428 -0.209898
0.00431141 0.0046611 -0.211194
0.00132354 0.00451057 -0.212495
-0.0016716 0.00436334 -0.213802
0.0295292 0.00610327 -0.200825
0.0267663 0.00594156 -0.202081
0.0239881 0.00578001 -0.203342
0.0211948 0.00561886 -0.204608
0.0183866 0.00545835 -0.205881
0.0155642 0.00529874 -0.207159
0.0127283 0.00514037 -0.208443
0.00987987 0.00498359 -0.209732
0.00702029 0.00482885 -0.211028
0.00415122 0.00467664 -0.212329
0.0012746 0.00452759 -0.213635
0.0313234 0.00628315 -0.200665
0.0286766 0.00612065 -0.201917
0.026015 0.00595829 -0.203176
0.0233388 0.00579628 -0.20444
0.0206484 0.00563483 -0.205711
0.0179441 0.00547422 -0.206988
0.0152267 0.00531476 -0.20827
0.0124972 0.00515682 -0.209559
0.00975672 0.00500079 -0.210854
0.00700682 0.00484717 -0.212155
0.00424926 0.00469657 -0.213462
0.0331434 0.00646494 -0.200497
0.030612 0.00630187 -0.201746
0.0280667 0.00613908 -0.203002
0.0255072 0.0059765 -0.204265
0.0229341 0.00581441 -0.205533
0.0203477 0.00565309 -0.206809
0.0177487 0.00549285 -0.20809
0.0151379 0.00533403 -0.209378
0.0125166 0.00517702 -0.210673
0.00988594 0.00502228 -0.211973
0.00724767 0.0048704 -0.213281
0.0325706 0.00648541 -0.201567
0.0301406 0.00632239 -0.202821
0.0276972 0.00615955 -0.204081
0.0252407 0.00599712 -0.205348
0.0227716 0.00583539 -0.206622
0.0202905 0.00567467 -0.207902
0.0177981 0.00551529 -0.209189
0.0152955 0.00535761 -0.210483
0.0127839 0.00520203 -0.211784
0.010265 0.00504918 -0.213092
0.0345499 0.00667114 -0.20138
0.0322341 0.00650816 -0.202631
0.0299057 0.00634539 -0.203889
0.027565 0.00618298 -0.205154
0.0252124 0.00602114 -0.206427
0.0228483 0.00586026 -0.207706
0.0204736 0.00570066 -0.208992
0.0180892 0.00554262 -0.210286
0.0156962 0.00538655 -0.211587
0.029904 0.00637197 -0.204952
0.0276666 0.00621039 -0.206223
0.0254184 0.00604971 -0.207501
0.0231601 0.00589021 -0.208787
0.020893 0.00573212 -0.210081
0.0186179 0.00557588 -0.211382
0.0212542 0.00505577 -0.202134
0.0181265 0.0048755 -0.203401
0.0149824 0.00469567 -0.204674
0.0118224 0.00451656 -0.205951
0.00864697 0.0043385 -0.207233
0.00545726 0.00416186 -0.20852
0.0022546 0.00398705 -0.209813
-0.000959279 0.00381457 -0.21111
-0.00418206 0.00364498 -0.212413
-0.0074114 0.003479 -0.21372
0.0230759 0.0052217 -0.202007
0.0200645 0.0050397 -0.203272
0.0170371 0.00485811 -0.204542
0.0139941 0.00467717 -0.205817
0.010936 0.00449719 -0.207098
0.00786381 0.00431854 -0.208384
0.00477875 0.00414163 -0.209675
0.00168241 0.00396693 -0.210972
-0.00142321 0.00379504 -0.212274
-0.00453566 0.00362662 -0.213582
0.027808 0.00557367 -0.200615
0.0249291 0.0053902 -0.201872
0.0220345 0.00520682 -0.203135
0.0191242 0.00502377 -0.204403
0.0161986 0.00484131 -0.205677
0.0132584 0.00465973 -0.206956
0.0103043 0.00447938 -0.208241
0.00733757 0.00430067 -0.209531
0.00435954 0.00412408 -0.210827
0.00137208 0.00395015 -0.212129
-0.00162262 0.00377957 -0.213437
0.0295745 0.0057458 -0.200476
0.0268119 0.00556132 -0.201731
0.024034 0.00537687 -0.202991
0.021241 0.0051927 -0.204257
0.0184332 0.00500905 -0.205528
0.0156111 0.00482619 -0.206806
0.0127755 0.00464448 -0.20809
0.00992743 0.0044643 -0.20938
0.00706823 0.00428612 -0.210675
0.00419956 0.00411048 -0.211977
0.00132338 0.00393802 -0.213285
0.0313686 0.00592022 -0.20033
0.0287221 0.00573506 -0.201581
0.0260608 0.0055499 -0.202839
0.0233849 0.00536496 -0.204103
0.0206947 0.00518045 -0.205373
0.0179908 0.00499666 -0.206649
0.0152738 0.00481392 -0.207932
0.0125446 0.00463262 -0.20922
0.00980447 0.00445319 -0.210516
0.00705497 0.00427615 -0.211817
0.00429782 0.00410214 -0.213125
0.0331884 0.00609692 -0.200175
0.0306574 0.00591135 -0.201424
0.0281123 0.00572593 -0.202679
0.0255532 0.00554056 -0.203941
0.0229803 0.00535555 -0.205209
0.0203942 0.00517118 -0.206484
0.0177955 0.00498778 -0.207766
0.0151851 0.00480571 -0.209054
0.0125641 0.00462539 -0.210348
0.00993388 0.0044473 -0.21165
0.007296 0.00427207 -0.212958
0.0326158 0.0060904 -0.201258
0.0301861 0.00590497 -0.202511
0.027743 0.00571955 -0.203771
0.0252868 0.0055344 -0.205038
0.022818 0.00534981 -0.206311
0.0203372 0.00516612 -0.207591
0.0178451 0.00498367 -0.208879
0.0153429 0.00480282 -0.210173
0.0128316 0.00462403 -0.211475
0.0103131 0.00444795 -0.212783
0.034595 0.00627208 -0.201084
0.0322795 0.00608697 -0.202335
0.0299514 0.0059019 -0.203593
0.0276109 0.00571703 -0.204858
0.0252586 0.0055326 -0.20613
0.0228948 0.005349 -0.207409
0.0205204 0.00516655 -0.208696
0.0181363 0.00498558 -0.20999
0.0157437 0.00480649 -0.211291
0.0299497 0.00590345 -0.204669
0.0277126 0.0057196 -0.20594
0.0254647 0.0055365 -0.207218
0.0232067 0.00535447 -0.208504
0.0209399 0.00517373 -0.209798
0.0186652 0.00499475 -0.2111
0.0213021 0.00469462 -0.201742
0.0181747 0.00449147 -0.203008
0.015031 0.00428865 -0.204279
0.0118713 0.00408645 -0.205556
0.00869633 0.00388522 -0.206837
0.00550705 0.00368536 -0.208124
0.00230482 0.00348731 -0.209417
-0.000908594 0.00329157 -0.210714
-0.0041309 0.00309873 -0.212018
-0.00735972 0.00290959 -0.213326
0.0231236 0.00485403 -0.201628
0.0201126 0.00464909 -0.202892
0.0170855 0.00444443 -0.204162
0.0140429 0.00424031 -0.205436
0.0109852 0.00403707 -0.206717
0.0079134 0.0038351 -0.208002
0.00482876 0.00363482 -0.209294
0.00173286 0.00343673 -0.210591
-0.00137229 0.00324145 -0.211893
-0.00448425 0.00304971 -0.213202
0.0278552 0.0052227 -0.200252
0.0249767 0.00501642 -0.201508
0.0220824 0.00481007 -0.20277
0.0191724 0.00460393 -0.204037
0.0162472 0.00439827 -0.20531
0.0133074 0.00419339 -0.206588
0.0103537 0.00398966 -0.207873
0.00738736 0.00378752 -0.209164
0.00440975 0.00358745 -0.21046
0.00142274 0.00339005 -0.211762
-0.00157148 0.00319604 -0.213071
0.0296217 0.00538907 -0.200127
0.0268594 0.00518182 -0.20138
0.0240818 0.00497445 -0.202639
0.0212891 0.00476723 -0.203905
0.0184816 0.0045604 -0.205176
0.0156599 0.00435426 -0.206453
0.0128247 0.00414917 -0.207737
0.00997698 0.00394554 -0.209026
0.00711819 0.00374387 -0.210322
0.00424996 0.00354471 -0.211624
0.00137423 0.00334877 -0.212933
0.0314156 0.00555809 -0.199994
0.0287694 0.00535027 -0.201245
0.0261084 0.00514229 -0.202502
0.0234328 0.00493438 -0.203765
0.020743 0.00472678 -0.205034
0.0180394 0.00451978 -0.20631
0.0153227 0.00431372 -0.207592
0.0125939 0.00410902 -0.208881
0.00985417 0.00390613 -0.210177
0.00710508 0.0037056 -0.211479
0.00434837 0.0035081 -0.212788
0.0332354 0.00572977 -0.199853
0.0307046 0.00552169 -0.201101
0.0281598 0.00531361 -0.202356
0.0256009 0.00510544 -0.203617
0.0230284 0.00489748 -0.204885
0.0204426 0.00469002 -0.206159
0.0178442 0.00448343 -0.20744
0.0152342 0.00427807 -0.208729
0.0126135 0.00407438 -0.210024
0.0099837 0.00387287 -0.211326
0.00734624 0.00367421 -0.212635
0.0326628 0.00569632 -0.200949
0.0302334 0.00548845 -0.202202
0.0277905 0.00528044 -0.203461
0.0253346 0.00507254 -0.204727
0.0228661 0.00486507 -0.206
0.0203856 0.00465836 -0.20728
0.0178939 0.00445278 -0.208568
0.015392 0.00424873 -0.209862
0.0128811 0.00404666 -0.211165
0.010363 0.00384728 -0.212474
0.0346419 0.00587401 -0.200789
0.0323266 0.00566673 -0.202039
0.0299988 0.00545935 -0.203296
0.0276586 0.00525201 -0.204561
0.0253065 0.00504495 -0.205832
0.022943 0.0048386 -0.207112
0.0205689 0.00463327 -0.208399
0.0181852 0.0044293 -0.209693
0.0157929 0.00422714 -0.210995
0.0299971 0.00543592 -0.204385
0.0277603 0.00522976 -0.205656
0.0255126 0.00502422 -0.206934
0.0232549 0.00481962 -0.208221
0.0209885 0.00461618 -0.209515
0.018714 0.00441441 -0.210817
0.0213478 0.00433224 -0.201349
0.0182209 0.00410601 -0.202614
0.0150776 0.00388 -0.203884
0.0119183 0.00365451 -0.20516
0.0087437 0.00342992 -0.206441
0.00555486 0.00320664 -0.207728
0.0023531 0.00298514 -0.20902
-0.000859833 0.00276593 -0.210318
-0.00408162 0.00254966 -0.211622
-0.00730989 0.00233717 -0.212932
0.0231692 0.0044851 -0.201249
0.0201585 0.004257 -0.202512
0.0171319 0.00402907 -0.203781
0.0140896 0.00380158 -0.205055
0.0110323 0.00357488 -0.206334
0.00796092 0.00334937 -0.20762
0.00487672 0.0031255 -0.208911
0.00178129 0.00290382 -0.210208
-0.00132337 0.00268495 -0.211512
-0.0044348 0.00246969 -0.212821
0.0279004 0.00487066 -0.199888
0.0250221 0.00464135 -0.201143
0.0221281 0.00441182 -0.202404
0.0192185 0.00418239 -0.20367
0.0162937 0.00395331 -0.204942
0.0133542 0.00372491 -0.20622
0.010401 0.00349759 -0.207505
0.007435 0.00327179 -0.208795
0.00445783 0.00304803 -0.210092
0.0014713 0.00282694 -0.211395
-0.00152242 0.00260929 -0.212705
0.0296666 0.00503126 -0.199777
0.0269046 0.00480102 -0.201029
0.0241273 0.00457051 -0.202287
0.021335 0.00434002 -0.203552
0.0185278 0.00410979 -0.204822
0.0157064 0.00388014 -0.206099
0.0128716 0.00365145 -0.207382
0.0100243 0.00342415 -0.208672
0.00716592 0.00319874 -0.209968
0.00429813 0.00297585 -0.211271
0.00142288 0.0027562 -0.212581
0.0314604 0.00519488 -0.199658
0.0288145 0.00496417 -0.200907
0.0261537 0.00473314 -0.202164
0.0234784 0.00450205 -0.203426
0.0207889 0.00427112 -0.204695
0.0180856 0.00404067 -0.20597
0.0153693 0.00381107 -0.207252
0.0126408 0.00358273 -0.208541
0.00990152 0.00335613 -0.209837
0.00715285 0.00313187 -0.21114
0.00439659 0.00291065 -0.212449
0.03328 0.00536153 -0.19953
0.0307494 0.00513071 -0.200778
0.0282049 0.00489975 -0.202032
0.0256463 0.00466853 -0.203292
0.023074 0.00443738 -0.204559
0.0204886 0.00420661 -0.205833
0.0178905 0.00397657 -0.207114
0.0152808 0.00374767 -0.208403
0.0126605 0.00352036 -0.209698
0.0100311 0.00329519 -0.211
0.00739402 0.00307285 -0.212311
0.0327075 0.0053009 -0.20064
0.0302783 0.00507036 -0.201891
0.0278357 0.00483951 -0.20315
0.02538 0.00460863 -0.204415
0.0229118 0.00437802 -0.205688
0.0204316 0.00414805 -0.206968
0.0179401 0.0039191 -0.208256
0.0154386 0.00369157 -0.209551
0.0129281 0.00346595 -0.210853
0.0104103 0.00324302 -0.212164
0.0346863 0.00547461 -0.200493
0.0323713 0.00524493 -0.201742
0.0300436 0.00501498 -0.202999
0.0277037 0.00478492 -0.204263
0.0253519 0.00455499 -0.205534
0.0229886 0.00432561 -0.206813
0.0206148 0.00409713 -0.2081
0.0182313 0.0038699 -0.209395
0.0158394 0.00364439 -0.210698
0.0300419 0.0049663 -0.204101
0.0278053 0.00473759 -0.205371
0.0255578 0.00450933 -0.20665
0.0233004 0.00428188 -0.207936
0.0210342 0.00405547 -0.209231
0.0187601 0.00383062 -0.210533
0.0213958 0.00396836 -0.200956
0.0182692 0.00371882 -0.20222
0.0151263 0.00346941 -0.203489
0.0119674 0.00322042 -0.204764
0.00879334 0.00297225 -0.206045
0.00560497 0.00272534 -0.207331
0.00240372 0.00248016 -0.208623
-0.000808677 0.00223728 -0.209921
-0.0040299 0.00199736 -0.211226
-0.00725757 0.00176131 -0.212537
0.0232169 0.00411455 -0.20087
0.0202067 0.00386306 -0.202133
0.0171804 0.00361163 -0.2034
0.0141385 0.00336053 -0.204673
0.0110816 0.00311014 -0.205952
0.00801071 0.00286086 -0.207237
0.00492698 0.00261319 -0.208529
0.00183206 0.00236767 -0.209826
-0.00127206 0.002125 -0.21113
-0.00438292 0.00188599 -0.212441
0.0279476 0.00451709 -0.199524
0.0250696 0.00426452 -0.200778
0.022176 0.00401157 -0.202038
0.0192668 0.0037586 -0.203304
0.0163423 0.00350587 -0.204575
0.0134032 0.00325372 -0.205853
0.0104504 0.00300256 -0.207137
0.00748488 0.00275286 -0.208427
0.00450819 0.00250517 -0.209724
0.00152217 0.00226016 -0.211027
-0.001471 0.00201863 -0.212338
0.0297136 0.00467179 -0.199427
0.0269519 0.00441832 -0.200678
0.024175 0.00416443 -0.201936
0.0213829 0.00391041 -0.2032
0.0185761 0.00365654 -0.20447
0.0157551 0.00340313 -0.205746
0.0129207 0.00315059 -0.207029
0.0100738 0.00289935 -0.208318
0.00721585 0.00264997 -0.209614
0.00434854 0.00240309 -0.210918
0.00147381 0.00215948 -0.212229
0.0315073 0.00482989 -0.199322
0.0288616 0.00457603 -0.200571
0.0262011 0.0043217 -0.201826
0.0235261 0.00406716 -0.203088
0.0208369 0.00381266 -0.204356
0.018134 0.0035585 -0.205631
0.015418 0.00330508 -0.206913
0.0126899 0.00305284 -0.208202
0.00995102 0.00280227 -0.209498
0.0072028 0.00255402 -0.210801
0.00444702 0.00230881 -0.212112
0.0333266 0.00499138 -0.199208
0.0307963 0.00473755 -0.200455
0.028252 0.00448344 -0.201708
0.0256937 0.00422891 -0.202968
0.0231217 0.00397431 -0.204235
0.0205365 0.00371995 -0.205508
0.0179388 0.0034662 -0.206789
0.0153295 0.00321347 -0.208077
0.0127095 0.00296227 -0.209373
0.0100805 0.00271316 -0.210676
0.00744393 0.00246687 -0.211987
0.0327541 0.00490318 -0.200331
0.0303251 0.00464969 -0.201582
0.0278828 0.00439573 -0.20284
0.0254274 0.00414158 -0.204105
0.0229594 0.00388756 -0.205377
0.0204795 0.00363404 -0.206657
0.0179884 0.00338141 -0.207945
0.0154871 0.00313012 -0.20924
0.012977 0.00288067 -0.210543
0.0104597 0.00263388 -0.211854
0.0347327 0.00507277 -0.200197
0.0324179 0.00482041 -0.201446
0.0300904 0.0045676 -0.202702
0.0277507 0.00431453 -0.203966
0.0253991 0.00406144 -0.205237
0.0230361 0.00380874 -0.206516
0.0206626 0.0035568 -0.207803
0.0182794 0.00330601 -0.209098
0.0158878 0.00305685 -0.210401
0.0300886 0.00449323 -0.203818
0.0278521 0.00424167 -0.205088
0.0256049 0.00399037 -0.206366
0.0233477 0.00373975 -0.207653
0.0210818 0.00349005 -0.208948
0.018808 0.0032418 -0.210251
0.0214439 0.00360461 -0.200563
0.0183177 0.00333169 -0.201826
0.0151752 0.00305877 -0.203095
0.0120168 0.00278618 -0.204369
0.00884314 0.00251433 -0.205649
0.00565527 0.00224367 -0.206934
0.00245454 0.0019747 -0.208226
-0.000757303 0.001708 -0.209525
-0.00397794 0.00144429 -0.21083
-0.00720497 0.00118451 -0.212141
0.0232648 0.00374411 -0.200492
0.0202549 0.00346914 -0.201753
0.017229 0.00319412 -0.20302
0.0141875 0.00291933 -0.204292
0.0111311 0.00264513 -0.205571
0.00806064 0.00237198 -0.206855
0.0049774 0.00210037 -0.208146
0.00188299 0.00183088 -0.209444
-0.00122056 0.00156424 -0.210748
-0.00433082 0.00130133 -0.21206
0.027995 0.0041637 -0.199161
0.0251173 0.00388779 -0.200414
0.022224 0.00361133 -0.201673
0.0193151 0.00333473 -0.202938
0.0163911 0.00305825 -0.204209
0.0134524 0.00278224 -0.205486
0.0104999 0.00250713 -0.206769
0.00753489 0.0022334 -0.208059
0.00455868 0.00196164 -0.209356
0.00157318 0.00169255 -0.21066
-0.00141943 0.00142697 -0.211972
0.0297608 0.00431247 -0.199078
0.0269994 0.00403569 -0.200329
0.0242227 0.00375833 -0.201585
0.021431 0.00348071 -0.202848
0.0186245 0.00320309 -0.204117
0.0158039 0.00292581 -0.205393
0.0129698 0.00264929 -0.206676
0.0101234 0.002374 -0.207965
0.00726587 0.0021005 -0.209261
0.00439905 0.00182948 -0.210565
0.00152484 0.00156174 -0.211877
0.0315543 0.00446502 -0.198987
0.0289088 0.00418793 -0.200235
0.0262486 0.00391022 -0.20149
0.0235739 0.00363215 -0.202751
0.020885 0.00335396 -0.204019
0.0181824 0.003076 -0.205293
0.0154667 0.00279864 -0.206574
0.0127391 0.00252236 -0.207863
0.0100006 0.00224769 -0.209159
0.00725278 0.00197528 -0.210463
0.00449749 0.00170592 -0.211774
0.0333734 0.00462133 -0.198888
0.0308433 0.00434442 -0.200134
0.0282992 0.00406707 -0.201386
0.0257412 0.00378914 -0.202645
0.0231695 0.00351098 -0.203911
0.0205846 0.00323292 -0.205185
0.0179872 0.00295534 -0.206465
0.0153781 0.00267867 -0.207753
0.0127586 0.00240342 -0.209049
0.0101299 0.00213021 -0.210353
0.00749381 0.00185979 -0.211664
0.0328009 0.00450545 -0.200023
0.0303721 0.00422893 -0.201274
0.0279299 0.00395176 -0.202531
0.0254748 0.00367425 -0.203796
0.0230071 0.00339671 -0.205068
0.0205274 0.00311952 -0.206348
0.0180366 0.00284309 -0.207635
0.0155357 0.00256789 -0.20893
0.0130259 0.00229445 -0.210234
0.010509 0.00202362 -0.211546
0.0347793 0.00467089 -0.199904
0.0324645 0.00439576 -0.201152
0.0301372 0.00412002 -0.202408
0.0277977 0.00384382 -0.203671
0.0254463 0.00356746 -0.204942
0.0230836 0.00329131 -0.206221
0.0207103 0.00301579 -0.207508
0.0183274 0.0027413 -0.208803
0.0159361 0.00246831 -0.210107
0.0301352 0.00401982 -0.203537
0.0278989 0.00374527 -0.204807
0.0256519 0.00347082 -0.206085
0.0233949 0.00319691 -0.207372
0.0211292 0.00292376 -0.208667
0.0188557 0.00265196 -0.209971
0.0214439 0.00360477 -0.200563
0.0183177 0.00333188 -0.201826
0.0151752 0.00305899 -0.203095
0.0120168 0.00278642 -0.204369
0.00884315 0.0025146 -0.205649
0.00565528 0.00224397 -0.206935
0.00245454 0.00197503 -0.208226
-0.000757299 0.00170836 -0.209525
-0.00397794 0.00144468 -0.21083
-0.00720496 0.00118493 -0.212141
0.0232648 0.00374427 -0.200492
0.0202549 0.00346933 -0.201753
0.017229 0.00319434 -0.20302
0.0141875 0.00291958 -0.204292
0.0111311 0.00264541 -0.205571
0.00806064 0.00237229 -0.206855
0.0049774 0.00210071 -0.208146
0.001883 0.00183125 -0.209444
-0.00122056 0.00156465 -0.210748
-0.00433081 0.00130177 -0.21206
0.0279949 0.00416384 -0.199161
0.0251173 0.00388795 -0.200414
0.022224 0.00361152 -0.201673
0.0193151 0.00333496 -0.202938
0.0163911 0.00305851 -0.204209
0.0134524 0.00278253 -0.205486
0.0104999 0.00250744 -0.206769
0.00753489 0.00223375 -0.208059
0.00455868 0.00196202 -0.209356
0.00157318 0.00169296 -0.21066
-0.00141943 0.00142742 -0.211972
0.0297608 0.00431262 -0.199078
0.0269994 0.00403586 -0.200329
0.0242227 0.00375853 -0.201585
0.021431 0.00348094 -0.202848
0.0186245 0.00320335 -0.204117
0.0158039 0.00292611 -0.205393
0.0129698 0.00264962 -0.206676
0.0101234 0.00237436 -0.207965
0.00726587 0.00210089 -0.209261
0.00439905 0.0018299 -0.210565
0.00152485 0.0015622 -0.211877
0.0315543 0.00446517 -0.198987
0.0289088 0.00418811 -0.200235
0.0262486 0.00391043 -0.20149
0.0235739 0.00363238 -0.202751
0.020885 0.00335423 -0.204019
0.0181824 0.0030763 -0.205293
0.0154667 0.00279897 -0.206574
0.0127391 0.00252273 -0.207863
0.0100006 0.00224809 -0.209159
0.00725278 0.00197572 -0.210463
0.00449749 0.00170639 -0.211774
0.0333734 0.00462148 -0.198888
0.0308433 0.0043446 -0.200134
0.0282992 0.00406728 -0.201386
0.0257412 0.00378938 -0.202645
0.0231694 0.00351126 -0.203911
0.0205846 0.00323323 -0.205185
0.0179872 0.00295567 -0.206465
0.0153781 0.00267904 -0.207753
0.0127586 0.00240383 -0.209049
0.0101299 0.00213066 -0.210353
0.00749381 0.00186027 -0.211664
0.0328009 0.00450563 -0.200023
0.0303721 0.00422914 -0.201274
0.0279299 0.00395201 -0.202531
0.0254748 0.00367453 -0.203796
0.023007 0.00339702 -0.205068
0.0205274 0.00311986 -0.206348
0.0180366 0.00284347 -0.207635
0.0155357 0.00256831 -0.20893
0.0130259 0.0022949 -0.210234
0.010509 0.00202412 -0.211546
0.0347792 0.00467108 -0.199904
0.0324645 0.00439597 -0.201152
0.0301372 0.00412026 -0.202408
0.0277977 0.00384411 -0.203671
0.0254463 0.00356777 -0.204942
0.0230836 0.00329166 -0.206221
0.0207103 0.00301618 -0.207508
0.0183274 0.00274173 -0.208803
0.0159361 0.00246878 -0.210107
0.0301352 0.0040201 -0.203537
0.0278989 0.00374559 -0.204807
0.0256519 0.00347118 -0.206085
0.0233949 0.00319731 -0.207372
0.0211292 0.0029242 -0.208667
0.0188557 0.00265244 -0.20997
0.0214941 0.00324128 -0.20017
0.0183683 0.00294493 -0.201432
0.0152263 0.00264845 -0.202699
0.0120683 0.00235219 -0.203972
0.00889517 0.00205657 -0.205251
0.00570782 0.00176207 -0.206536
0.00250764 0.00146921 -0.207828
-0.000703613 0.00117858 -0.209126
-0.00392362 0.000890954 -0.210431
-0.00714997 0.000607308 -0.211744
0.0233148 0.00337418 -0.200113
0.0203053 0.0030757 -0.201373
0.0172798 0.00277704 -0.202639
0.0142387 0.00247847 -0.20391
0.0111827 0.0021804 -0.205188
0.00811277 0.00188328 -0.206472
0.00503005 0.00158764 -0.207762
0.00193619 0.00129408 -0.20906
-0.00116677 0.00100335 -0.210365
-0.00427639 0.000716384 -0.211677
0.0280444 0.00381097 -0.198798
0.0251671 0.00351168 -0.20005
0.0222742 0.00321167 -0.201307
0.0193656 0.00291139 -0.202571
0.0164419 0.0026111 -0.203841
0.0135036 0.00231115 -0.205117
0.0105517 0.002012 -0.2064
0.00758707 0.00171415 -0.20769
0.00461137 0.00141821 -0.208987
0.00162642 0.00112492 -0.210291
-0.00136559 0.000835157 -0.211604
0.02981 0.00395393 -0.198729
0.0270489 0.00365379 -0.199978
0.0242726 0.00335292 -0.201234
0.0214812 0.00305164 -0.202496
0.018675 0.00275021 -0.203765
0.0158547 0.002449 -0.20504
0.0130211 0.00214843 -0.206322
0.0101751 0.00184898 -0.207611
0.00731804 0.00155126 -0.208907
0.00445172 0.00125597 -0.210211
0.00157807 0.000963958 -0.211523
0.0316033 0.00410104 -0.198652
0.0289581 0.00380069 -0.199899
0.0262982 0.00349955 -0.201153
0.0236237 0.00319789 -0.202413
0.0209351 0.00289596 -0.20368
0.0182328 0.00259411 -0.204954
0.0155176 0.00229275 -0.206235
0.0127903 0.00199234 -0.207523
0.0100522 0.00169346 -0.208819
0.00730486 0.00139678 -0.210123
0.00455008 0.00110311 -0.211435
0.0334222 0.00425228 -0.198567
0.0308923 0.00395225 -0.199812
0.0283485 0.00365162 -0.201064
0.0257906 0.00335024 -0.202322
0.0232192 0.00304847 -0.203588
0.0206346 0.00274664 -0.20486
0.0180375 0.00244515 -0.20614
0.0154288 0.00214444 -0.207428
0.0128096 0.00184505 -0.208724
0.0101814 0.00154763 -0.210028
0.00754575 0.00125293 -0.21134
0.0328496 0.00410879 -0.199716
0.030421 0.00380921 -0.200965
0.027979 0.00350879 -0.202222
0.0255241 0.00320785 -0.203486
0.0230566 0.00290672 -0.204758
0.0205772 0.00260579 -0.206037
0.0180867 0.00230548 -0.207324
0.0155861 0.00200627 -0.20862
0.0130767 0.00170872 -0.209924
0.0105602 0.00141372 -0.211236
0.0348277 0.0042702 -0.19961
0.0325131 0.00397225 -0.200858
0.030186 0.00367353 -0.202113
0.0278466 0.00337417 -0.203376
0.0254955 0.00307446 -0.204646
0.0231329 0.00277482 -0.205925
0.0207599 0.00247563 -0.207212
0.0183773 0.00217734 -0.208507
0.0159863 0.00188041 -0.209811
0.0301837 0.00354757 -0.203256
0.0279476 0.00324999 -0.204525
0.0257007 0.00295233 -0.205803
0.023444 0.00265505 -0.20709
0.0211785 0.00235837 -0.208385
0.0189052 0.00206289 -0.209689
0.0214941 0.00324143 -0.20017
0.0183683 0.00294511 -0.201432
0.0152263 0.00264866 -0.202699
0.0120683 0.00235242 -0.203972
0.00889517 0.00205683 -0.205251
0.00570782 0.00176236 -0.206537
0.00250764 0.00146953 -0.207828
-0.000703613 0.00117893 -0.209126
-0.00392362 0.000891332 -0.210431
-0.00714997 0.000607717 -0.211744
0.0233148 0.00337434 -0.200113
0.0203053 0.00307589 -0.201373
0.0172798 0.00277725 -0.202639
0.0142387 0.00247871 -0.20391
0.0111827 0.00218067 -0.205188
0.00811277 0.00188358 -0.206472
0.00503005 0.00158796 -0.207762
0.00193619 0.00129443 -0.20906
-0.00116677 0.00100374 -0.210365
-0.00427639 0.000716805 -0.211677
0.0280444 0.0038111 -0.198798
0.0251671 0.00351184 -0.20005
0.0222741 0.00321186 -0.201307
0.0193656 0.00291161 -0.202571
0.0164419 0.00261134 -0.203841
0.0135036 0.00231143 -0.205117
0.0105516 0.00201231 -0.2064
0.00758706 0.00171449 -0.20769
0.00461137 0.00141858 -0.208987
0.00162642 0.00112532 -0.210291
-0.00136559 0.00083559 -0.211604
0.02981 0.00395407 -0.198729
0.0270489 0.00365396 -0.199978
0.0242726 0.00335312 -0.201234
0.0214811 0.00305186 -0.202496
0.018675 0.00275047 -0.203765
0.0158547 0.00244928 -0.20504
0.0130211 0.00214874 -0.206322
0.010175 0.00184933 -0.207611
0.00731803 0.00155164 -0.208907
0.00445172 0.00125638 -0.210211
0.00157807 0.000964404 -0.211523
0.0316033 0.00410118 -0.198652
0.028958 0.00380086 -0.199899
0.0262981 0.00349975 -0.201153
0.0236237 0.00319811 -0.202413
0.0209351 0.00289622 -0.20368
0.0182328 0.0025944 -0.204954
0.0155175 0.00229307 -0.206235
0.0127902 0.00199269 -0.207523
0.0100522 0.00169385 -0.208819
0.00730486 0.0013972 -0.210123
0.00455008 0.00110357 -0.211435
0.0334222 0.00425242 -0.198567
0.0308923 0.00395242 -0.199812
0.0283485 0.00365182 -0.201064
0.0257906 0.00335047 -0.202322
0.0232192 0.00304873 -0.203587
0.0206346 0.00274693 -0.20486
0.0180375 0.00244547 -0.20614
0.0154288 0.0021448 -0.207428
0.0128096 0.00184545 -0.208724
0.0101814 0.00154806 -0.210028
0.00754574 0.0012534 -0.21134
0.0328496 0.00410897 -0.199716
0.030421 0.00380941 -0.200965
0.027979 0.00350903 -0.202222
0.0255241 0.00320812 -0.203486
0.0230566 0.00290702 -0.204758
0.0205772 0.00260612 -0.206037
0.0180867 0.00230585 -0.207324
0.0155861 0.00200668 -0.20862
0.0130767 0.00170916 -0.209924
0.0105602 0.0014142 -0.211236
0.0348277 0.00427037 -0.19961
0.0325131 0.00397246 -0.200858
0.030186 0.00367377 -0.202113
0.0278466 0.00337444 -0.203376
0.0254955 0.00307477 -0.204646
0.0231329 0.00277515 -0.205925
0.0207599 0.00247601 -0.207212
0.0183773 0.00217775 -0.208507
0.0159863 0.00188086 -0.209811
0.0301837 0.00354784 -0.203256
0.0279476 0.0032503 -0.204525
0.0257007 0.00295267 -0.205803
0.0234439 0.00265543 -0.20709
0.0211785 0.00235879 -0.208385
0.0189052 0.00206335 -0.209689
0.0215423 0.00287591 -0.199776
0.018417 0.00255581 -0.201037
0.0152754 0.00223547 -0.202303
0.0121179 0.00191523 -0.203575
0.00894528 0.00159553 -0.204853
0.00575846 0.00127687 -0.206138
0.00255886 0.000959797 -0.207429
-0.000651779 0.000644935 -0.208727
-0.00387113 0.000333085 -0.210032
-0.00709676 2.5268e-05 -0.211345
0.0233628 0.00300218 -0.199734
0.0203537 0.00267986 -0.200992
0.0173286 0.00235723 -0.202257
0.0142879 0.00203457 -0.203527
0.0112324 0.00171229 -0.204804
0.00816291 0.00139088 -0.206088
0.00508072 0.00107086 -0.207378
0.00198743 0.000752893 -0.208675
-0.00111492 0.000437755 -0.20998
-0.00422387 0.000126424 -0.211293
0.0280917 0.00345645 -0.198433
0.0252148 0.00313344 -0.199684
0.0223222 0.00280955 -0.200941
0.019414 0.00248526 -0.202204
0.0164907 0.00216081 -0.203473
0.0135528 0.00183659 -0.204748
0.0106013 0.00151306 -0.206031
0.00763716 0.00119074 -0.20732
0.00466198 0.000870279 -0.208617
0.0016776 0.000552437 -0.209921
-0.0013138 0.000238154 -0.211234
0.0298571 0.00359357 -0.198379
0.0270963 0.00326974 -0.199627
0.0243202 0.00294501 -0.200882
0.0215291 0.00261972 -0.202143
0.0187233 0.00229414 -0.203411
0.0159034 0.00196863 -0.204685
0.0130701 0.00164364 -0.205967
0.0102246 0.00131969 -0.207255
0.007368 0.000997376 -0.208551
0.00450221 0.000677458 -0.209856
0.00162912 0.000360824 -0.211168
0.0316501 0.00373521 -0.198317
0.0290051 0.00341125 -0.199563
0.0263455 0.00308633 -0.200815
0.0236713 0.00276072 -0.202075
0.020983 0.00243469 -0.203341
0.018281 0.0021086 -0.204614
0.0155661 0.00178284 -0.205895
0.0128391 0.00145794 -0.207183
0.0101015 0.00113446 -0.208479
0.00735463 0.000813131 -0.209783
0.00460036 0.000494791 -0.211095
0.0334687 0.00388136 -0.198246
0.030939 0.00355785 -0.19949
0.0283954 0.00323358 -0.20074
0.0258378 0.00290838 -0.201998
0.0232666 0.00258263 -0.203263
0.0206822 0.00225665 -0.204535
0.0180854 0.00193086 -0.205815
0.0154771 0.00160573 -0.207102
0.0128583 0.0012818 -0.208398
0.0102304 0.000959763 -0.209702
0.00759522 0.000640403 -0.211014
0.032896 0.0037099 -0.199408
0.0304675 0.00338686 -0.200656
0.0280257 0.00306281 -0.201912
0.025571 0.00273806 -0.203176
0.0231037 0.00241295 -0.204447
0.0206246 0.00208788 -0.205726
0.0181343 0.00176328 -0.207013
0.015634 0.00143966 -0.208308
0.013125 0.00111757 -0.209612
0.0106089 0.000797996 -0.210925
0.0348737 0.00386724 -0.199316
0.0325593 0.00354611 -0.200563
0.0302322 0.003224 -0.201817
0.027893 0.00290108 -0.20308
0.025542 0.00257764 -0.20435
0.0231797 0.00225406 -0.205628
0.0208068 0.00193079 -0.206914
0.0184245 0.00160826 -0.20821
0.0160338 0.00128698 -0.209514
0.0302296 0.00307184 -0.202973
0.0279936 0.00275083 -0.204243
0.0257468 0.00242951 -0.20552
0.0234902 0.00210842 -0.206807
0.0212249 0.00178777 -0.208102
0.0189519 0.00146817 -0.209406
0.0215929 0.00250806 -0.199382
0.018468 0.00216383 -0.200641
0.0153269 0.00181926 -0.201907
0.0121699 0.00147467 -0.203178
0.00899781 0.00113052 -0.204455
0.00581157 0.000787316 -0.205739
0.00261258 0.000445639 -0.207029
-0.000597393 0.000106155 -0.208327
-0.00381604 -0.000230282 -0.209632
-0.0070409 -0.000562638 -0.210946
0.0234131 0.00262749 -0.199354
0.0204043 0.00228092 -0.200612
0.0173797 0.00193394 -0.201875
0.0143395 0.0015868 -0.203145
0.0112844 0.00123992 -0.204421
0.00821548 0.00089381 -0.205703
0.00513385 0.000549026 -0.206993
0.00204117 0.000206249 -0.20829
-0.00106052 -0.000133696 -0.209595
-0.00416876 -0.000469778 -0.210908
0.0281413 0.00309944 -0.19807
0.0252647 0.00275232 -0.199319
0.0223725 0.00240412 -0.200575
0.0194647 0.00205541 -0.201837
0.0165418 0.0017064 -0.203105
0.0136043 0.00135749 -0.20438
0.0106533 0.00100916 -0.205661
0.00768967 0.000661951 -0.20695
0.00471505 0.000316545 -0.208247
0.00173128 -2.62582e-05 -0.209551
-0.00125946 -0.000365472 -0.210865
0.0299065 0.00323052 -0.19803
0.0271459 0.00288257 -0.199277
0.0243702 0.00253356 -0.200531
0.0215794 0.00218383 -0.201791
0.018774 0.00183367 -0.203058
0.0159544 0.00148344 -0.204331
0.0131216 0.0011336 -0.205612
0.0102764 0.000784693 -0.2069
0.00742038 0.000437358 -0.208197
0.00455513 9.23741e-05 -0.209501
0.00168265 -0.000249319 -0.210814
0.0316991 0.00336649 -0.197982
0.0290544 0.00301848 -0.199227
0.026395 0.00266933 -0.200479
0.0237211 0.00231934 -0.201737
0.0210331 0.00196877 -0.203003
0.0183314 0.00161798 -0.204275
0.0156169 0.00126739 -0.205555
0.0128904 0.000917518 -0.206843
0.0101531 0.00056899 -0.208139
0.00740678 0.000222547 -0.209443
0.00465305 -0.000120928 -0.210756
0.0335175 0.00350735 -0.197925
0.030988 0.00315992 -0.199168
0.0284445 0.00281155 -0.200418
0.0258871 0.00246207 -0.201675
0.0233162 0.00211187 -0.202939
0.0207321 0.00176128 -0.204211
0.0181356 0.00141072 -0.20549
0.0155276 0.00106068 -0.206777
0.0129092 0.000711736 -0.208073
0.0102818 0.000364595 -0.209377
0.00764705 2.00838e-05 -0.21069
0.0329446 0.00330725 -0.1991
0.0305162 0.0029603 -0.200348
0.0280746 0.00261214 -0.201604
0.0256201 0.0022631 -0.202867
0.023153 0.00191353 -0.204137
0.0206741 0.00156382 -0.205416
0.0181841 0.00121442 -0.206703
0.0156842 0.000865879 -0.207998
0.0131755 0.000518758 -0.209302
0.0106598 0.000174086 -0.210616
0.0349219 0.00346034 -0.199023
0.0326075 0.00311553 -0.200269
0.0302806 0.00276955 -0.201523
0.0279415 0.00242256 -0.202785
0.0255907 0.00207488 -0.204054
0.0232285 0.00172686 -0.205332
0.0208559 0.00137897 -0.206619
0.0184738 0.00103169 -0.207914
0.0160834 0.000685508 -0.209219
0.0302776 0.00259044 -0.202693
0.0280416 0.00224545 -0.203962
0.025795 0.00189995 -0.205239
0.0235385 0.0015545 -0.206526
0.0212735 0.00120932 -0.207821
0.0190006 0.000865055 -0.209126
0.0188071 0.0106175 -0.208745
0.0155605 0.0108068 -0.210031
0.0122975 0.0109983 -0.21132
0.0090183 0.0111919 -0.212612
0.00572384 0.0113876 -0.213905
0.00241521 0.0115855 -0.215199
-0.000906087 0.0117857 -0.216494
-0.00423814 0.0119883 -0.217787
-0.00757843 0.0121931 -0.219079
0.0198569 0.00203319 -0.198994
0.016617 0.00166786 -0.200254
0.0133606 0.0013021 -0.20152
0.0100881 0.000936362 -0.202792
0.00680033 0.000571132 -0.204069
0.00349832 0.000206959 -0.205353
0.000183582 -0.000155568 -0.206644
-0.00314195 -0.000515736 -0.207942
-0.00647576 -0.000872641 -0.209248
0.0188438 0.0102512 -0.208337
0.0155973 0.0104165 -0.209622
0.0123342 0.0105838 -0.21091
0.00905499 0.0107531 -0.212201
0.00576044 0.0109244 -0.213493
0.00245167 0.0110978 -0.214786
-0.000869822 0.0112736 -0.21608
-0.00420213 0.0114516 -0.217373
-0.00754274 0.0116319 -0.218665
0.0189163 0.00952369 -0.207524
0.0188802 0.00988661 -0.20793
0.0156699 0.0096416 -0.208807
0.0156337 0.010028 -0.209214
0.0124069 0.00976135 -0.210093
0.0123707 0.0101714 -0.210501
0.00912769 0.0098829 -0.211381
0.00909145 0.0103167 -0.211791
0.00583307 0.0100063 -0.212672
0.00579686 0.0104639 -0.213082
0.00252415 0.0101317 -0.213964
0.002488 0.0106132 -0.214375
-0.000797594 0.0102593 -0.215257
-0.000833633 0.0107647 -0.215669
-0.00413025 0.0103892 -0.21655
-0.00416614 0.0109186 -0.216962
-0.00747132 0.0105215 -0.217842
-0.00750699 0.0110747 -0.218254
0.018956 0.00916258 -0.207117
0.018956 0.00916242 -0.207117
0.0157097 0.0092572 -0.208399
0.0157097 0.00925702 -0.208399
0.0124467 0.00935353 -0.209684
0.0124467 0.00935332 -0.209684
0.00916759 0.00945158 -0.210971
0.00916758 0.00945134 -0.210971
0.00587299 0.00955141 -0.212261
0.00587298 0.00955114 -0.212261
0.00256405 0.00965319 -0.213553
0.00256404 0.00965289 -0.213553
-0.00075776 0.00975712 -0.214845
-0.000757767 0.0097568 -0.214845
-0.00409053 0.00986337 -0.216138
-0.00409053 0.00986302 -0.216138
-0.00743174 0.00997203 -0.217431
-0.00743175 0.00997165 -0.217431
0.0189953 0.00880277 -0.206711
0.0157491 0.00887419 -0.207992
0.0124862 0.00894722 -0.209276
0.00920717 0.00902187 -0.210562
0.00591262 0.00909823 -0.211852
0.0026037 0.0091765 -0.213143
-0.00071813 0.00925689 -0.214435
-0.00405095 0.00933959 -0.215729
-0.00739226 0.00942476 -0.217022
0.0190345 0.00844429 -0.206306
0.0157885 0.0084927 -0.207586
0.0125258 0.00854261 -0.208869
0.00924685 0.00859406 -0.210155
0.00595239 0.00864715 -0.211444
0.00264353 0.0087021 -0.212734
-0.000678256 0.00875916 -0.214027
-0.00401107 0.00881854 -0.215321
-0.00735241 0.00888042 -0.216615
0.0190734 0.00808671 -0.205902
0.0158275 0.00811226 -0.20718
0.012565 0.00813922 -0.208462
0.00928615 0.00816762 -0.209747
0.00599181 0.00819761 -0.211035
0.00268304 0.00822942 -0.212326
-0.000638686 0.00826331 -0.213618
-0.00397147 0.00829953 -0.214912
-0.0073128 0.00833831 -0.216207
0.0191157 0.00772997 -0.205496
0.01587 0.00773277 -0.206774
0.0126077 0.00773685 -0.208055
0.00932899 0.00774231 -0.209339
0.0060348 0.0077493 -0.210627
0.00272616 0.00775807 -0.211917
-0.000595452 0.0077689 -0.213209
-0.00392815 0.00778206 -0.214504
-0.00726941 0.00779783 -0.215799
0.0191575 0.00737435 -0.205091
0.015912 0.00735446 -0.206368
0.0126498 0.00733575 -0.207648
0.00937135 0.00731834 -0.208932
0.00607734 0.0073024 -0.210219
0.00276887 0.0072882 -0.211509
-0.000552601 0.00727605 -0.212802
-0.00388517 0.00726623 -0.214096
-0.00722632 0.00725907 -0.215393
0.0191996 0.00701973 -0.204687
0.0159543 0.00697726 -0.205963
0.0126924 0.00693587 -0.207242
0.00941413 0.00689569 -0.208525
0.00612034 0.00685694 -0.209812
0.00281208 0.00681989 -0.211102
-0.000509191 0.00678486 -0.212394
-0.00384157 0.00675219 -0.21369
-0.00718255 0.00672222 -0.214987
0.0192411 0.0066652 -0.204283
0.0159961 0.00660018 -0.205558
0.0127344 0.00653614 -0.206836
0.0094564 0.00647324 -0.208119
0.00616284 0.00641171 -0.209405
0.00285482 0.00635185 -0.210695
-0.000466227 0.006294 -0.211987
-0.00379839 0.00623851 -0.213283
-0.00713915 0.00618577 -0.214581
0.019286 0.00631074 -0.203879
0.0160413 0.00622316 -0.205152
0.0127798 0.00613645 -0.20643
0.0095021 0.00605081 -0.207712
0.00620882 0.00596649 -0.208997
0.00290106 0.00588381 -0.210287
-0.000419714 0.00580312 -0.21158
-0.00375161 0.0057248 -0.212876
-0.00709211 0.00564929 -0.214175
0.0193314 0.00595658 -0.203473
0.016087 0.00584643 -0.204745
0.0128259 0.00573706 -0.206022
0.00954844 0.00562868 -0.207303
0.00625547 0.00552157 -0.208589
0.00294801 0.00541606 -0.209878
-0.000372453 0.00531254 -0.211171
-0.00370404 0.00521139 -0.212468
-0.00704423 0.0051131 -0.213768
0.0193314 0.00595686 -0.203473
0.016087 0.00584676 -0.204746
0.0128259 0.00573744 -0.206022
0.00954845 0.00562911 -0.207304
0.00625547 0.00552204 -0.208589
0.00294802 0.00541659 -0.209878
-0.000372446 0.00531312 -0.211171
-0.00370403 0.00521203 -0.212468
-0.00704422 0.00511379 -0.213768
0.0193748 0.00560226 -0.203067
0.0161307 0.00546951 -0.204338
0.0128699 0.00533744 -0.205614
0.00959276 0.00520629 -0.206895
0.00630012 0.00507636 -0.20818
0.002993 0.004948 -0.209469
-0.000327117 0.00482161 -0.210762
-0.00365835 0.00469761 -0.212059
-0.00699818 0.00457651 -0.21336
0.0194202 0.00524708 -0.20266
0.0161764 0.0050916 -0.203931
0.012916 0.0049367 -0.205206
0.00963922 0.00478265 -0.206486
0.00634694 0.00462977 -0.20777
0.00304021 0.00447843 -0.209059
-0.000279526 0.00432904 -0.210352
-0.00361036 0.00418206 -0.21165
-0.00694977 0.00403803 -0.212952
0.0194661 0.00489236 -0.202254
0.0162227 0.00471414 -0.203524
0.0129626 0.0045364 -0.204798
0.00968623 0.00435943 -0.206078
0.00639433 0.00418358 -0.207361
0.003088 0.00400923 -0.20865
-0.000231325 0.00383682 -0.209943
-0.00356173 0.00366681 -0.211241
-0.00690069 0.00349981 -0.212544
0.0195141 0.00453813 -0.201848
0.016271 0.00433715 -0.203117
0.0130113 0.00413654 -0.20439
0.00973535 0.00393661 -0.205668
0.00644387 0.00373774 -0.206952
0.00313797 0.00354034 -0.20824
-0.000180894 0.00334484 -0.209533
-0.00351082 0.00315175 -0.210831
-0.00684929 0.0029617 -0.212135
0.01956 0.00418269 -0.201441
0.0163174 0.00395875 -0.202709
0.0130581 0.00373508 -0.203981
0.00978252 0.00351201 -0.205259
0.00649149 0.00328993 -0.206541
0.00318605 0.00306927 -0.207829
-0.000132326 0.0028505 -0.209122
-0.00346174 0.00263414 -0.210421
-0.00679967 0.00242086 -0.211725
0.0196081 0.00382589 -0.201034
0.0163659 0.00357878 -0.202301
0.0131071 0.00333184 -0.203572
0.00983197 0.00308542 -0.204849
0.00654142 0.00283992 -0.206131
0.00323649 0.00259581 -0.207418
-8.13589e-05 0.00235355 -0.208711
-0.00341021 0.00211372 -0.21001
-0.00674755 0.00187702 -0.211315
0.0196564 0.00346922 -0.200627
0.0164146 0.00319887 -0.201893
0.0131562 0.00292857 -0.203163
0.00988161 0.0026587 -0.204439
0.00659155 0.00238969 -0.20572
0.00328714 0.002122 -0.207007
-3.01532e-05 0.00185614 -0.2083
-0.00335842 0.0015927 -0.209599
-0.00669514 0.00133241 -0.210904
0.0196564 0.00346938 -0.200627
0.0164146 0.00319905 -0.201893
0.0131562 0.00292878 -0.203163
0.00988161 0.00265893 -0.204439
0.00659155 0.00238995 -0.20572
0.00328714 0.00212229 -0.207007
-3.01492e-05 0.00185646 -0.2083
-0.00335841 0.00159305 -0.209599
-0.00669513 0.00133279 -0.210905
0.0197069 0.00311288 -0.20022
0.0164655 0.00281923 -0.201484
0.0132076 0.00252551 -0.202753
0.00993347 0.00223212 -0.204028
0.00664394 0.00193951 -0.205308
0.00334008 0.00164816 -0.206595
2.33795e-05 0.0013586 -0.207887
-0.00330426 0.00107143 -0.209186
-0.00664031 0.000787443 -0.210492
0.0197069 0.00311303 -0.20022
0.0164655 0.0028194 -0.201484
0.0132076 0.00252571 -0.202753
0.00993347 0.00223234 -0.204028
0.00664394 0.00193976 -0.205308
0.00334008 0.00164844 -0.206595
2.33797e-05 0.0013589 -0.207887
-0.00330426 0.00107177 -0.209186
-0.00664031 0.000787809 -0.210492
0.0197554 0.00275455 -0.199811
0.0165145 0.0024373 -0.201074
0.0132571 0.00211986 -0.202342
0.00998347 0.00180265 -0.203616
0.00669448 0.00148614 -0.204895
0.00339121 0.00117082 -0.206181
7.51285e-05 0.000857253 -0.207473
-0.00325185 0.00054607 -0.208772
-0.0065872 0.000238093 -0.210078
0.0198062 0.00239395 -0.199403
0.0165659 0.00205273 -0.200664
0.0133089 0.00171122 -0.201931
0.0100359 0.00136983 -0.203204
0.00674749 0.00102906 -0.204483
0.00344484 0.000689413 -0.205767
0.000129423 0.000351471 -0.207059
-0.00319685 1.59125e-05 -0.208357
-0.00653144 -0.000316402 -0.209664
CELL_DATA 2160
SCALARS MARKER int 1
LOOKUP_TABLE default
1
1
1
1
1
1
1
1
1
1
1
1
1
1
1
1
1
1
1
1
1
1
1
1
1
1
1
1
1
1
1
1
1
1
1
1
1
1
1
1
1
1
1
1
1
1
1
1
1
1
1
1
1
1
1
1
1
1
1
1
1
1
1
1
1
1
1
1
1
1
1
1
1
1
1
1
1
1
1
1
1
1
1
1
1
1
1
1
1
1
1
1
1
1
1
1
1
1
1
1
1
1
1
1
1
1
1
1
1
1
1
1
1
1
1
1
1
1
1
1
1
1
1
1
1
1
1
1
1
1
1
1
1
1
1
1
1
1
1
1
1
1
1
1
1
1
1
1
1
1
2
2
2
2
2
2
2
2
2
2
2
2
2
2
2
2
2
2
2
2
2
2
2
2
2
2
2
2
2
2
2
2
2
2
2
2
2
2
2
2
2
2
2
2
2
2
2
2
2
2
2
2
2
2
2
2
2
2
2
2
2
2
2
2
2
2
2
2
2
2
2
2
2
2
2
1
1
1
1
1
1
1
1
1
1
1
1
1
1
1
1
1
1
1
1
1
1
1
1
1
1
1
1
1
1
1
1
1
1
1
1
1
1
1
1
1
1
1
1
1
1
1
1
1
1
1
1
1
1
1
1
1
1
1
1
1
1
1
1
1
1
1
1
1
1
1
1
1
1
1
1
1
1
1
1
1
1
1
1
1
1
1
1
1
1
1
1
1
1
1
1
1
1
1
1
1
1
1
1
1
1
1
1
1
1
1
1
1
1
1
1
1
1
1
1
1
1
1
1
1
1
1
1
1
1
1
1
1
1
1
1
1
1
1
1
1
1
1
1
1
1
1
1
1
1
1
1
1
1
1
1
1
1
1
1
1
1
1
1
1
1
1
1
1
1
1
1
1
1
1
1
1
1
1
1
1
1
1
1
1
1
1
1
1
1
1
1
1
1
1
1
1
1
1
1
1
1
1
1
1
1
1
1
1
1
1
1
1
1
1
1
1
1
1
1
1
1
1
1
1
1
1
1
1
1
1
1
1
1
1
1
1
1
1
1
1
1
1
1
1
1
1
1
1
1
1
1
1
1
1
1
1
1
1
1
1
1
1
1
1
1
1
1
1
1
1
1
1
1
1
1
1
1
1
1
1
1
1
1
1
1
1
1
1
1
1
1
1
1
1
1
1
1
1
1
1
1
1
1
1
1
1
1
1
1
1
1
1
1
1
1
1
1
1
1
1
1
1
1
1
1
1
1
1
1
1
1
1
1
1
1
1
1
1
1
1
1
1
1
1
1
1
1
1
1
1
1
1
1
1
1
1
1
1
1
1
1
1
1
1
1
1
1
1
1
1
1
1
1
1
1
1
1
1
1
1
1
1
1
1
1
1
1
1
1
1
1
1
1
1
1
1
1
1
1
1
1
1
1
1
1
1
1
1
1
1
1
1
1
1
1
1
1
1
1
1
1
1
1
1
1
1
1
1
1
1
1
1
1
1
1
1
1
1
1
1
1
1
1
1
1
1
1
1
1
1
1
1
1
1
1
1
1
1
1
1
1
1
1
1
1
1
1
1
1
1
1
1
1
1
1
1
1
1
1
1
1
1
1
1
1
1
1
1
1
1
1
1
1
1
1
1
1
1
1
1
1
1
1
1
1
1
1
1
1
1
1
1
1
1
1
1
1
1
1
1
1
1
1
1
1
1
1
1
1
1
1
1
1
1
1
1
1
1
1
1
1
1
1
1
1
1
1
1
1
1
1
1
1
1
1
1
1
1
1
1
1
1
1
1
1
1
1
1
1
1
1
1
1
1
1
1
1
1
1
1
1
1
1
1
1
1
1
1
1
1
1
1
1
1
1
1
1
1
1
1
1
1
1
1
1
1
1
1
1
1
1
1
1
1
1
1
1
1
1
1
1
1
1
1
1
1
1
1
1
1
1
1
1
1
1
1
1
1
1
1
1
1
1
1
1
1
1
1
1
1
1
1
1
1
1
1
1
1
1
1
1
1
1
1
1
1
1
1
1
1
1
1
1
1
1
1
1
1
1
1
1
1
1
1
1
1
1
1
1
1
1
1
5
5
5
5
5
5
5
5
5
5
5
5
5
5
5
5
5
5
5
5
5
5
5
5
5
5
5
5
5
5
5
5
5
5
5
5
5
5
5
5
5
5
5
5
5
5
5
5
5
5
5
5
5
5
5
5
5
5
5
5
5
5
5
5
5
5
5
5
5
5
5
5
5
5
5
5
5
5
1
1
1
1
1
1
1
1
1
1
1
1
1
1
1
1
1
1
1
1
1
1
1
1
1
1
1
1
1
1
1
1
1
1
1
1
1
1
1
1
1
1
1
1
1
1
1
1
1
1
1
1
1
1
1
1
1
1
1
1
1
1
1
1
1
1
1
1
1
1
1
1
1
1
1
1
1
1
1
1
1
1
1
1
1
1
1
1
1
1
1
1
1
1
1
1
1
1
1
1
1
1
1
1
1
1
1
1
1
1
1
1
1
1
1
1
1
1
1
1
1
1
1
1
1
1
1
1
1
1
1
1
1
1
1
1
1
1
1
1
1
1
1
1
1
1
1
1
1
1
1
1
1
1
1
1
1
1
1
1
1
1
1
1
1
1
1
1
1
1
1
1
1
1
1
1
1
1
1
1
1
1
1
1
1
1
1
1
1
1
1
1
1
1
1
1
1
1
1
1
1
1
1
1
1
1
1
1
1
1
1
1
1
1
1
1
1
1
1
1
1
1
1
1
1
1
1
1
1
1
1
1
1
1
1
1
1
1
1
1
1
1
1
1
1
1
1
1
1
1
1
1
1
1
1
1
1
1
1
1
1
1
1
1
1
1
1
1
1
1
1
1
1
1
1
1
1
1
1
1
1
1
1
1
1
1
1
1
1
1
1
1
1
1
1
1
1
1
1
1
1
1
1
1
1
1
1
1
1
1
1
1
1
1
1
1
1
1
1
1
1
1
1
1
1
1
1
1
1
1
1
1
1
1
1
1
1
1
1
1
1
1
1
1
1
1
1
1
1
1
1
1
1
1
1
1
1
1
1
1
1
1
1
1
1
1
1
1
1
1
1
1
1
1
1
1
1
1
1
1
1
1
1
1
1
1
1
1
1
1
1
1
1
1
1
1
1
1
1
1
1
1
1
1
1
1
1
1
1
1
1
1
1
1
1
1
1
1
1
1
1
1
1
1
1
1
1
1
1
1
1
1
1
1
1
1
1
1
1
1
1
1
1
1
1
1
1
1
1
1
1
1
1
1
1
1
1
1
1
1
1
1
1
1
1
1
1
1
1
1
1
1
1
1
1
1
1
1
1
1
1
1
1
1
1
1
1
1
1
1
1
1
1
1
1
1
1
1
1
1
1
1
1
1
1
1
1
1
1
1
1
1
1
1
1
1
1
1
1
1
1
1
1
1
1
1
1
1
1
1
1
1
1
1
1
1
1
1
1
1
1
1
1
1
1
1
6
6
6
6
6
6
6
6
6
6
6
6
6
6
6
6
6
6
6
6
6
6
6
6
6
6
6
6
6
6
6
6
6
6
6
6
6
6
6
6
6
6
6
6
6
6
6
6
6
6
6
6
6
6
6
6
6
6
6
6
6
6
6
6
6
6
6
6
6
6
6
6
6
6
6
6
6
6
1
1
1
1
1
1
1
1
1
1
1
1
1
1
1
1
1
1
1
1
1
1
1
1
1
1
1
1
1
1
1
1
1
1
1
1
1
1
1
1
1
1
1
1
1
1
1
1
1
1
1
1
1
1
1
1
1
1
1
1
1
1
1
1
1
1
1
1
1
1
1
1
1
1
1
1
1
1
7
7
7
7
7
7
7
7
7
7
7
7
7
7
7
7
7
7
7
7
7
7
7
7
7
7
7
7
7
7
7
7
7
7
7
7
7
7
7
7
7
7
7
7
7
7
7
7
7
7
7
7
7
7
7
7
7
7
7
7
7
7
7
7
7
7
7
7
7
7
7
7
7
7
7
7
7
7
1
1
1
1
1
1
1
1
1
1
1
1
1
1
1
1
1
1
1
1
1
1
1
1
1
1
1
1
1
1
1
1
1
1
1
1
1
1
1
1
1
1
1
1
1
1
1
1
1
1
1
1
1
1
1
1
1
1
1
1
1
1
1
1
1
1
1
1
1
1
1
1
1
1
1
1
1
1
1
1
1
1
1
1
1
1
1
1
1
1
1
1
1
1
1
1
1
1
1
1
1
1
1
1
1
1
1
1
1
1
1
1
1
1
1
1
1
1
1
1
1
1
1
1
1
1
1
1
1
1
1
1
1
1
1
1
1
1
1
1
1
1
1
1
1
1
1
1
1
1
1
1
1
1
1
1
1
1
1
1
1
1
1
1
1
1
1
1
1
1
1
1
1
1
1
1
1
1
1
1
1
1
1
1
1
1
1
1
1
1
1
1
1
1
1
1
1
1
1
1
1
1
1
1
1
1
1
1
1
1
1
1
1
1
1
1
1
1
1
1
1
1
1
1
1
1
1
1
1
1
1
1
1
1
1
1
1
1
1
1
1
1
1
1
1
1
1
1
1
1
1
1
1
1
1
1
1
1
1
1
1
1
1
1
1
1
1
1
1
1
1
1
1
1
1
1
1
1
1
1
1
1
1
1
1
1
1
1
1
1
1
1
1
1
1
1
1
1
1
1
1
1
1
1
1
1
1
1
1
1
1
1
1
1
1
1
1
1
1
1
1
1
1
1
1
1
1
1
1
1
1
1
1
1
1
1
1
1
1
1
1
1
1
1
1
1
1
1
1
1
1
1
1
1
1
1
1
1
1
1
1
1
1
1
1
1
1
1
1
1
1
1
1
1
1
1
1
1
1
1
1
1
1
1
SCALARS LOCAL_STRESS double 6
LOOKUP_TABLE default
-50.481 -1.51479 -0.0557258 5.22467 0.00869322 0.0465835
-50.4857 -1.52804 -0.059921 5.23419 0.0092634 0.0525469
-50.4389 -1.53993 -0.0638943 5.24272 0.00968294 0.0589326
-50.3357 -1.55038 -0.0678515 5.25039 0.0101178 0.065781
-50.1739 -1.55972 -0.0722406 5.25677 0.0105751 0.0730755
-49.9488 -1.5679 -0.0772013 5.26132 0.0110036 0.0807928
-49.6502 -1.57423 -0.0824152 5.26359 0.0113675 0.0889697
-49.262 -1.57762 -0.0871632 5.26323 0.0121515 0.0975477
-51.1912 -1.5284 -0.0548538 5.20961 0.00877262 0.0427809
-51.2432 -1.54606 -0.058698 5.21798 0.00936473 0.0488759
-51.2498 -1.56304 -0.0627501 5.22514 0.00992473 0.0554364
-51.2029 -1.57925 -0.0670542 5.23144 0.0104737 0.0624489
-51.0987 -1.59424 -0.0716157 5.23678 0.0110014 0.0698575
-50.9321 -1.60758 -0.0764101 5.24066 0.0114937 0.0776793
-50.695 -1.61907 -0.0814026 5.24241 0.0119406 0.0860064
-50.3712 -1.62832 -0.086284 5.2416 0.0123381 0.094648
-49.959 -1.63567 -0.0916763 5.23805 0.012575 0.104318
-51.8806 -1.54404 -0.0538057 5.19371 0.00909337 0.0388646
-51.9862 -1.56677 -0.0576298 5.20063 0.00965516 0.0451863
-52.0491 -1.58888 -0.0617501 5.20649 0.0102499 0.0517764
-52.0615 -1.61033 -0.0661215 5.21151 0.0108307 0.0588103
-52.0187 -1.63077 -0.0707487 5.21557 0.0113891 0.0662673
-51.9146 -1.64983 -0.0756155 5.21828 0.0119153 0.0741842
-51.7408 -1.66728 -0.0806974 5.21914 0.0124022 0.08264
-51.4874 -1.68293 -0.0859793 5.21767 0.0128469 0.0917039
-51.1383 -1.69607 -0.0911824 5.21345 0.0132711 0.101378
-52.5419 -1.56172 -0.0524156 5.17709 0.00953646 0.0349229
-52.7074 -1.59012 -0.0565798 5.1823 0.00994115 0.0412852
-52.8286 -1.61754 -0.0607537 5.18669 0.010566 0.047884
-52.902 -1.64437 -0.0651767 5.19028 0.0111763 0.0549234
-52.9224 -1.67036 -0.0698535 5.19295 0.0117674 0.0624187
-52.8831 -1.69521 -0.0747766 5.1944 0.0123309 0.070419
-52.7756 -1.71869 -0.0799298 5.19425 0.0128598 0.0789864
-52.5902 -1.74058 -0.0852999 5.19203 0.0133495 0.0881706
-52.312 -1.75993 -0.0905523 5.18717 0.013703 0.0981043
-53.182 -1.58255 -0.0513778 5.15932 0.00976714 0.0308013
-53.4049 -1.61617 -0.0555506 5.16296 0.0102212 0.0371724
-53.586 -1.64901 -0.0597617 5.16574 0.0108729 0.0437637
-53.7221 -1.68137 -0.0642191 5.16775 0.0115122 0.0507939
-53.8075 -1.71302 -0.0689298 5.1689 0.0121366 0.0583113
-53.8353 -1.74375 -0.0738934 5.169 0.0127385 0.0663741
-53.7969 -1.77334 -0.0790995 5.16769 0.0133096 0.0750301
-53.6827 -1.80159 -0.0845364 5.16455 0.0138443 0.084314
-53.4787 -1.82741 -0.0898487 5.15894 0.014165 0.0944524
-53.7945 -1.6059 -0.0503648 5.14088 0.00998525 0.0265232
-54.0766 -1.64492 -0.0545417 5.14265 0.0104928 0.0328561
-54.3191 -1.68331 -0.0587718 5.14366 0.011169 0.0394205
-54.5192 -1.72133 -0.0632457 5.14393 0.0118369 0.0464234
-54.6715 -1.75877 -0.0679732 5.14342 0.0124951 0.0539428
-54.7688 -1.79547 -0.0729596 5.14203 0.0131359 0.0620431
-54.802 -1.83129 -0.0781994 5.13943 0.0137493 0.0707626
-54.7618 -1.86601 -0.0836806 5.13521 0.0143287 0.0801229
-54.6357 -1.89856 -0.0890747 5.1287 0.0146528 0.0904074
-54.3785 -1.63195 -0.0494519 5.12163 0.0101677 0.0220885
-54.7205 -1.67636 -0.0535521 5.1214 0.0107528 0.0283418
-55.0253 -1.72044 -0.0577813 5.12048 0.0114519 0.034855
-55.2909 -1.76426 -0.0622552 5.11885 0.0121486 0.0418137
-55.512 -1.80762 -0.066983 5.11653 0.01284 0.0493136
-55.6808 -1.8504 -0.0719727 5.11348 0.0135196 0.0574233
-55.7881 -1.89253 -0.0772242 5.10945 0.014176 0.0661789
-55.8249 -1.93332 -0.0824904 5.10389 0.0143976 0.0755177
-55.7827 -1.97339 -0.088244 5.09663 0.0150168 0.0856266
-54.9326 -1.66027 -0.048511 5.10162 0.0101938 0.017414
-55.3367 -1.70997 -0.0524851 5.09924 0.0106471 0.0233461
-55.7082 -1.75972 -0.0566945 5.09621 0.0113117 0.0297169
-56.0415 -1.81025 -0.0614636 5.0928 0.0122786 0.0367909
-56.3263 -1.85957 -0.0659521 5.08824 0.0131691 0.0444277
-56.5685 -1.90853 -0.0709187 5.08337 0.0138885 0.0525088
-56.7521 -1.95708 -0.0761617 5.07773 0.0145858 0.0612701
-56.8644 -2.00478 -0.0813759 5.07062 0.0149931 0.0710031
-56.7595 -1.85896 -0.060459 5.06518 0.0129285 0.0320975
-57.1258 -1.91285 -0.0643543 5.05848 0.0133826 0.0397738
-57.4454 -1.96879 -0.0695537 5.05213 0.0135234 0.0474036
-57.7007 -2.02464 -0.0749089 5.0444 0.0144214 0.0555946
-57.8925 -2.07996 -0.0804301 5.03574 0.0153767 0.0654863
31.5717 -6.25867 -0.0540743 1.68854 0.0654683 -0.127677
31.5627 -6.27621 -0.058084 1.68075 0.0692098 -0.147844
31.5664 -6.29095 -0.0619077 1.67087 0.0737335 -0.168472
31.5854 -6.30265 -0.0657158 1.65876 0.0791516 -0.189731
31.6135 -6.31133 -0.0699934 1.64436 0.0853177 -0.21176
31.6464 -6.31658 -0.0748776 1.62757 0.0920193 -0.234609
31.6867 -6.31735 -0.0800038 1.60817 0.0992193 -0.258251
31.7423 -6.31223 -0.0846867 1.58577 0.106915 -0.282703
31.1733 -6.28164 -0.0532136 1.71917 0.0531495 -0.130316
31.1192 -6.30254 -0.0568553 1.71147 0.0569192 -0.151037
31.0691 -6.32126 -0.0607645 1.70176 0.0613942 -0.17233
31.0299 -6.33746 -0.0649353 1.6897 0.0667452 -0.194269
31.0044 -6.3507 -0.0693835 1.67538 0.072794 -0.216977
30.9907 -6.36037 -0.0740678 1.65882 0.0793521 -0.240559
30.985 -6.36573 -0.0789287 1.63977 0.0864378 -0.265027
30.9866 -6.3659 -0.0838011 1.61767 0.0942155 -0.290005
30.9975 -6.36059 -0.0890017 1.59218 0.103511 -0.315909
30.7616 -6.30461 -0.0521722 1.74828 0.0403081 -0.132911
30.6548 -6.32931 -0.0557575 1.74072 0.0441994 -0.154237
30.5518 -6.3521 -0.0597236 1.73127 0.0485288 -0.176102
30.4583 -6.37254 -0.0639462 1.71958 0.0536624 -0.198642
30.3766 -6.39023 -0.0684439 1.70561 0.0595017 -0.221959
30.3061 -6.4046 -0.0731881 1.6893 0.0659397 -0.246169
30.2445 -6.41496 -0.0781308 1.6704 0.0729966 -0.271329
30.1904 -6.42062 -0.083246 1.64853 0.0808381 -0.297407
30.1477 -6.42039 -0.0883301 1.62325 0.0898278 -0.324264
30.3407 -6.32727 -0.0507671 1.77533 0.0271611 -0.135539
30.1736 -6.3563 -0.0546765 1.76808 0.0310128 -0.157231
30.0149 -6.38322 -0.0586949 1.75893 0.035163 -0.179631
29.8646 -6.40797 -0.0629577 1.74761 0.0400676 -0.202739
29.7247 -6.43016 -0.0674858 1.73405 0.045689 -0.226662
29.5955 -6.44929 -0.0722659 1.71807 0.0519752 -0.251522
29.4759 -6.46471 -0.0772664 1.69942 0.0589448 -0.277393
29.3647 -6.47576 -0.082462 1.67777 0.0667164 -0.304278
29.2649 -6.48104 -0.0875832 1.65283 0.0757459 -0.332085
29.8993 -6.35032 -0.0496517 1.80045 0.0137939 -0.137784
29.6759 -6.38345 -0.053619 1.79346 0.0173639 -0.159996
29.4589 -6.41455 -0.0576722 1.78463 0.021297 -0.182905
29.2493 -6.44365 -0.0619571 1.77371 0.025958 -0.206557
29.049 -6.47041 -0.0664988 1.76057 0.0313512 -0.23107
28.8591 -6.49435 -0.0712985 1.745 0.037452 -0.256578
28.6791 -6.5149 -0.0763378 1.72671 0.0442713 -0.283171
28.5078 -6.5314 -0.0815912 1.70538 0.0518993 -0.310871
28.3477 -6.54238 -0.0867608 1.68084 0.0608693 -0.339627
29.4459 -6.37358 -0.0486154 1.82345 -3.66153e-06 -0.139838
29.1624 -6.41071 -0.0525852 1.81676 0.00327086 -0.162511
28.8847 -6.44602 -0.0566529 1.80826 0.00694319 -0.185906
28.6131 -6.47952 -0.0609412 1.79774 0.0113363 -0.210076
28.35 -6.51087 -0.0654799 1.78507 0.0164831 -0.23516
28.0971 -6.53969 -0.070282 1.76999 0.0223636 -0.261302
27.8542 -6.56544 -0.0753406 1.75214 0.0289722 -0.288611
27.6199 -6.58745 -0.08063 1.7312 0.0363788 -0.31713
27.3961 -6.60435 -0.0858679 1.70711 0.0451781 -0.346838
28.9794 -6.39697 -0.0476778 1.84427 -0.0141551 -0.141638
28.634 -6.43801 -0.0515699 1.83791 -0.0112456 -0.164746
28.2931 -6.47757 -0.0556313 1.82972 -0.00788041 -0.188603
27.9568 -6.51549 -0.0599078 1.81961 -0.0037859 -0.213272
27.6283 -6.55149 -0.0644272 1.80745 0.00108762 -0.238903
27.3099 -6.58523 -0.0692106 1.79291 0.00671045 -0.265654
27.0016 -6.61621 -0.0742656 1.77558 0.0130526 -0.293659
26.703 -6.64346 -0.0793737 1.75532 0.0204216 -0.322669
26.4118 -6.66699 -0.0848954 1.73167 0.0285755 -0.353328
28.5016 -6.42016 -0.0467061 1.86304 -0.0285994 -0.14302
28.092 -6.46516 -0.0505411 1.8572 -0.0260882 -0.166261
27.6843 -6.50903 -0.0546224 1.84951 -0.023099 -0.190507
27.281 -6.55199 -0.059103 1.83957 -0.019415 -0.215926
26.8849 -6.59219 -0.0633425 1.82758 -0.0148236 -0.242264
26.4984 -6.63087 -0.0680836 1.81364 -0.00950345 -0.269586
26.1222 -6.66712 -0.0731109 1.79689 -0.00347664 -0.298256
25.7536 -6.69995 -0.0781746 1.7769 0.00371831 -0.328433
26.5877 -6.58791 -0.0579938 1.85712 -0.0355209 -0.219021
26.1237 -6.63223 -0.0617825 1.84673 -0.0309173 -0.245663
25.6667 -6.67669 -0.0667457 1.83323 -0.0256554 -0.272839
25.2142 -6.71834 -0.0718703 1.8165 -0.0204422 -0.301842
24.773 -6.75721 -0.077112 1.79675 -0.0139194 -0.333166
0 0 0 0 0 0
0 0 0 0 0 0
0 0 0 0 0 0
0 0 0 0 0 0
0 0 0 0 0 0
0 0 0 0 0 0
0 0 0 0 0 0
0 0 0 0 0 0
0 0 0 0 0 0
0 0 0 0 0 0
0 0 0 0 0 0
0 0 0 0 0 0
0 0 0 0 0 0
0 0 0 0 0 0
0 0 0 0 0 0
0 0 0 0 0 0
0 0 0 0 0 0
0 0 0 0 0 0
0 0 0 0 0 0
0 0 0 0 0 0
0 0 0 0 0 0
0 0 0 0 0 0
0 0 0 0 0 0
0 0 0 0 0 0
0 0 0 0 0 0
0 0 0 0 0 0
0 0 0 0 0 0
0 0 0 0 0 0
0 0 0 0 0 0
0 0 0 0 0 0
0 0 0 0 0 0
0 0 0 0 0 0
0 0 0 0 0 0
0 0 0 0 0 0
0 0 0 0 0 0
0 0 0 0 0 0
0 0 0 0 0 0
0 0 0 0 0 0
0 0 0 0 0 0
0 0 0 0 0 0
0 0 0 0 0 0
0 0 0 0 0 0
0 0 0 0 0 0
0 0 0 0 0 0
0 0 0 0 0 0
0 0 0 0 0 0
0 0 0 0 0 0
0 0 0 0 0 0
0 0 0 0 0 0
0 0 0 0 0 0
0 0 0 0 0 0
0 0 0 0 0 0
0 0 0 0 0 0
0 0 0 0 0 0
0 0 0 0 0 0
0 0 0 0 0 0
0 0 0 0 0 0
0 0 0 0 0 0
0 0 0 0 0 0
0 0 0 0 0 0
0 0 0 0 0 0
0 0 0 0 0 0
0 0 0 0 0 0
0 0 0 0 0 0
0 0 0 0 0 0
0 0 0 0 0 0
0 0 0 0 0 0
0 0 0 0 0 0
0 0 0 0 0 0
0 0 0 0 0 0
0 0 0 0 0 0
0 0 0 0 0 0
0 0 0 0 0 0
0 0 0 0 0 0
0 0 0 0 0 0
-44.897 -2.12662 -0.0549395 5.06052 0.0915088 0.196652
-44.9174 -2.14787 -0.05885 5.06759 0.105664 0.22435
-44.8993 -2.16862 -0.062687 5.07404 0.119146 0.253628
-44.8384 -2.18865 -0.0665324 5.07979 0.132259 0.28468
-44.7355 -2.20825 -0.0707853 5.08445 0.145037 0.317661
-44.589 -2.22737 -0.075562 5.08757 0.157353 0.352579
-44.3916 -2.24546 -0.0805686 5.08888 0.169014 0.389403
-44.1331 -2.26168 -0.0852923 5.08829 0.180199 0.428011
-45.4733 -2.13152 -0.0540281 5.05619 0.106672 0.185861
-45.5248 -2.15579 -0.0575983 5.06315 0.121618 0.21403
-45.5434 -2.18021 -0.0614958 5.06929 0.136053 0.24374
-45.5215 -2.20447 -0.0656433 5.07468 0.150167 0.275229
-45.4572 -2.22817 -0.0700521 5.07926 0.163975 0.308659
-45.3485 -2.25101 -0.0746889 5.08264 0.177377 0.344086
-45.1909 -2.27282 -0.079503 5.08431 0.190189 0.381508
-44.9774 -2.29351 -0.0844347 5.08385 0.20213 0.420678
-44.6984 -2.31283 -0.0895538 5.08113 0.212985 0.462641
-46.0447 -2.1373 -0.0529926 5.0513 0.122247 0.174362
-46.1309 -2.16505 -0.0564611 5.05796 0.138009 0.203076
-46.1877 -2.19312 -0.0604151 5.06387 0.153381 0.233156
-46.206 -2.22113 -0.0646137 5.06905 0.168459 0.265001
-46.1833 -2.24876 -0.0690714 5.07342 0.183242 0.298768
-46.1166 -2.27578 -0.0737661 5.07667 0.197648 0.334566
-46.001 -2.30198 -0.0786588 5.07839 0.211536 0.372473
-45.8305 -2.32723 -0.0837263 5.07817 0.224742 0.412597
-45.5951 -2.35096 -0.0888194 5.07569 0.237021 0.455195
-46.6004 -2.14384 -0.0515493 5.04594 0.138184 0.162454
-46.7295 -2.17562 -0.0553374 5.0521 0.15459 0.191432
-46.8259 -2.20744 -0.059335 5.05769 0.170887 0.221825
-46.8859 -2.23928 -0.0635697 5.0626 0.186932 0.253983
-46.9062 -2.27091 -0.0680583 5.06671 0.20272 0.288065
-46.8832 -2.30212 -0.0727914 5.0698 0.21818 0.324221
-46.8117 -2.33273 -0.0777423 5.07152 0.233198 0.362586
-46.6861 -2.36258 -0.0828873 5.07147 0.247633 0.403305
-46.4972 -2.39091 -0.0880182 5.0692 0.261136 0.446743
-47.1506 -2.15189 -0.0503439 5.0397 0.15404 0.14987
-47.3194 -2.18751 -0.0542306 5.04555 0.171322 0.179083
-47.4568 -2.22314 -0.0582557 5.05075 0.188534 0.209737
-47.5596 -2.2589 -0.0625089 5.0553 0.205552 0.242161
-47.6244 -2.29459 -0.0670102 5.0591 0.222373 0.276525
-47.6468 -2.33003 -0.0717629 5.06199 0.238935 0.313011
-47.6216 -2.36509 -0.0767514 5.06364 0.255136 0.35179
-47.5431 -2.39959 -0.0819522 5.06368 0.270852 0.393046
-47.4032 -2.4327 -0.0871296 5.06159 0.285682 0.437228
-47.6897 -2.16132 -0.0492429 5.03298 0.170014 0.136664
-47.8994 -2.20071 -0.0531374 5.0383 0.188161 0.166021
-48.0788 -2.24024 -0.0571721 5.04303 0.206277 0.196883
-48.2257 -2.27999 -0.0614247 5.04713 0.224277 0.229523
-48.3364 -2.31979 -0.0659211 5.05055 0.24216 0.264126
-48.406 -2.35951 -0.0706744 5.05317 0.259864 0.300894
-48.429 -2.39905 -0.0756796 5.0547 0.277295 0.340032
-48.3996 -2.43827 -0.0809136 5.05475 0.294344 0.381755
-48.3114 -2.47635 -0.0861576 5.0528 0.310599 0.426582
-48.2172 -2.17209 -0.0482327 5.02567 0.186019 0.122812
-48.4682 -2.21519 -0.0520527 5.03035 0.205049 0.152236
-48.6907 -2.2587 -0.0560762 5.03453 0.224063 0.183253
-48.8827 -2.30253 -0.0603127 5.03809 0.243054 0.216056
-49.0407 -2.3465 -0.0647869 5.04105 0.262021 0.250846
-49.1593 -2.39054 -0.0695189 5.04332 0.280901 0.287839
-49.2322 -2.43462 -0.0745164 5.04466 0.299601 0.327264
-49.254 -2.47827 -0.0796106 5.04461 0.317654 0.369342
-49.2213 -2.5218 -0.0850723 5.04294 0.335679 0.414458
-48.7328 -2.18381 -0.0471908 5.01767 0.201818 0.10828
-49.0285 -2.23066 -0.050987 5.02166 0.22154 0.137555
-49.2968 -2.27815 -0.055 5.02517 0.24149 0.168604
-49.5347 -2.32661 -0.0593727 5.02834 0.261723 0.201613
-49.7359 -2.37471 -0.0635987 5.03057 0.281882 0.236665
-49.905 -2.42312 -0.0682848 5.03242 0.301962 0.273814
-50.0295 -2.47175 -0.0732477 5.03349 0.321961 0.313443
-50.1021 -2.52042 -0.0783268 5.03323 0.341612 0.356213
-50.1717 -2.35171 -0.0581511 5.01755 0.280914 0.186908
-50.4299 -2.4031 -0.0620028 5.01911 0.301801 0.222142
-50.6523 -2.45655 -0.0668828 5.02078 0.322525 0.259126
-50.8253 -2.5104 -0.0718817 5.02122 0.343973 0.298367
-50.9513 -2.56438 -0.0770832 5.02077 0.365469 0.341396
-15.4158 -3.85146 -0.0539104 -5.02036 0.23935 -0.0946696
-15.6809 -3.86126 -0.0577351 -5.02699 0.271504 -0.111714
-15.9523 -3.86839 -0.0614979 -5.03308 0.305521 -0.128076
-16.2284 -3.8725 -0.0652608 -5.03852 0.341552 -0.143921
-16.5105 -3.8739 -0.0694212 -5.04294 0.379712 -0.159362
-16.7981 -3.87254 -0.0740981 -5.04594 0.420026 -0.174432
-17.0876 -3.86772 -0.0790099 -5.04725 0.462524 -0.189014
-17.3742 -3.85843 -0.0836836 -5.04684 0.507178 -0.203104
-15.2922 -3.89152 -0.0530145 -5.01865 0.226508 -0.112486
-15.5842 -3.90398 -0.0565124 -5.02543 0.259185 -0.130365
-15.8874 -3.91447 -0.060347 -5.03147 0.29371 -0.147728
-16.2001 -3.92232 -0.0644221 -5.03681 0.330296 -0.164668
-16.5183 -3.92735 -0.0687473 -5.04139 0.369023 -0.181275
-16.8389 -3.92934 -0.0732921 -5.04485 0.409942 -0.197578
-17.1614 -3.92799 -0.0780134 -5.04673 0.453132 -0.213447
-17.4863 -3.92287 -0.0828944 -5.04661 0.498456 -0.228475
-17.8132 -3.91315 -0.0879166 -5.04438 0.546952 -0.242321
-15.1773 -3.93163 -0.052006 -5.01643 0.212823 -0.130709
-15.4996 -3.94716 -0.05539 -5.0232 0.246114 -0.14946
-15.8337 -3.96108 -0.0592771 -5.02928 0.281043 -0.167848
-16.1781 -3.97253 -0.0634009 -5.03468 0.318025 -0.18588
-16.5298 -3.98129 -0.0677762 -5.03931 0.357171 -0.20361
-16.8866 -3.9871 -0.0723826 -5.04291 0.398589 -0.22105
-17.2477 -3.98962 -0.0771852 -5.04507 0.442407 -0.238105
-17.6132 -3.98841 -0.0821586 -5.04542 0.488798 -0.25457
-17.9795 -3.98271 -0.0871928 -5.04366 0.538064 -0.270014
-15.0733 -3.97083 -0.0505831 -5.01383 0.19862 -0.1493
-15.4285 -3.99035 -0.0542788 -5.02039 0.232201 -0.168787
-15.7941 -4.00782 -0.0582089 -5.02644 0.267473 -0.188193
-16.1706 -4.02298 -0.0623676 -5.03184 0.304798 -0.207314
-16.5561 -4.03557 -0.0667747 -5.0365 0.344329 -0.226186
-16.9489 -4.04531 -0.0714213 -5.04021 0.386218 -0.244817
-17.3485 -4.05184 -0.0762831 -5.04262 0.430626 -0.263127
-17.7544 -4.05475 -0.081333 -5.04337 0.477739 -0.28095
-18.1611 -4.05325 -0.0864051 -5.04204 0.527976 -0.297797
-14.9835 -4.01033 -0.0493782 -5.0104 0.183596 -0.167812
-15.3711 -4.03347 -0.0531826 -5.01696 0.217434 -0.188308
-15.7687 -4.0546 -0.0571396 -5.02292 0.252987 -0.20873
-16.178 -4.07356 -0.0613162 -5.02826 0.290602 -0.228939
-16.5974 -4.0901 -0.0657369 -5.03291 0.330471 -0.248973
-17.0262 -4.10389 -0.0704044 -5.0367 0.372786 -0.268838
-17.464 -4.11458 -0.0753043 -5.03932 0.417728 -0.28847
-17.9104 -4.12175 -0.0804094 -5.04041 0.465493 -0.307724
-18.3588 -4.12467 -0.0855262 -5.03949 0.516593 -0.326084
-14.9086 -4.04966 -0.0482801 -5.00653 0.167802 -0.186496
-15.3276 -4.07644 -0.0520975 -5.01289 0.201811 -0.207973
-15.7578 -4.10132 -0.0560634 -5.0187 0.237581 -0.229413
-16.2003 -4.12418 -0.06024 -5.02391 0.275423 -0.250714
-16.654 -4.14477 -0.0646564 -5.02849 0.315574 -0.271926
-17.1186 -4.16274 -0.0693249 -5.03232 0.358254 -0.293065
-17.5946 -4.17771 -0.074241 -5.0351 0.403658 -0.314076
-18.0817 -4.18929 -0.0793789 -5.03648 0.451992 -0.334832
-18.5729 -4.19685 -0.084559 -5.03597 0.503837 -0.354819
-14.848 -4.08878 -0.0472704 -5.00212 0.151239 -0.205243
-15.298 -4.11919 -0.0510163 -5.00819 0.185334 -0.227727
-15.7614 -4.14789 -0.0549714 -5.01378 0.221248 -0.250183
-16.2378 -4.17475 -0.0591323 -5.01878 0.259249 -0.272582
-16.7261 -4.19949 -0.0635264 -5.02323 0.299613 -0.294987
-17.2266 -4.22176 -0.0681736 -5.02703 0.342586 -0.317429
-17.7407 -4.24113 -0.0730806 -5.02994 0.388368 -0.339867
-18.2655 -4.25713 -0.0780955 -5.03153 0.43715 -0.36181
-18.8032 -4.26972 -0.083457 -5.03153 0.489373 -0.383781
-14.7981 -4.12754 -0.0462377 -4.99705 0.133893 -0.223804
-15.2779 -4.16184 -0.0499551 -5.00277 0.167841 -0.247096
-15.7738 -4.19452 -0.0538738 -5.00806 0.203757 -0.270611
-16.2895 -4.22559 -0.0581556 -5.01301 0.241933 -0.294379
-16.8138 -4.25417 -0.0623384 -5.01708 0.282576 -0.318082
-17.3501 -4.28083 -0.0669381 -5.02081 0.325755 -0.341845
-17.9023 -4.30472 -0.0718077 -5.02378 0.371815 -0.365742
-18.4707 -4.32534 -0.0768334 -5.02548 0.421365 -0.389472
-16.3537 -4.27581 -0.0569108 -5.0063 0.224246 -0.316756
-16.9007 -4.30878 -0.0606831 -5.01009 0.265081 -0.341336
-17.4792 -4.34028 -0.0654669 -5.01397 0.308135 -0.365819
-18.0777 -4.3687 -0.0703959 -5.01666 0.353831 -0.391293
-18.6915 -4.3942 -0.0755426 -5.01849 0.403676 -0.41706
27.8337 -6.34696 -0.0541835 1.05545 0.10458 -0.256788
27.7467 -6.36897 -0.0580257 1.04431 0.113762 -0.296208
27.6664 -6.38944 -0.0618352 1.03148 0.124773 -0.336472
27.5944 -6.40797 -0.0656486 1.01686 0.137699 -0.377871
27.5249 -6.42465 -0.0698523 1.0005 0.152489 -0.420628
27.454 -6.43921 -0.0745629 0.982405 0.169024 -0.464777
27.3835 -6.45095 -0.0795067 0.962472 0.187358 -0.510195
27.3195 -6.45919 -0.0842864 0.940563 0.207599 -0.556738
27.6588 -6.36632 -0.0532803 1.08369 0.0810437 -0.262727
27.5532 -6.39086 -0.0567879 1.07254 0.0899869 -0.30329
27.4473 -6.41441 -0.0606608 1.0597 0.100625 -0.344784
27.3455 -6.43642 -0.0647778 1.04497 0.113119 -0.387502
27.2495 -6.45662 -0.0691493 1.02847 0.127411 -0.431663
27.1574 -6.47458 -0.0737431 1.01029 0.143421 -0.477329
27.0659 -6.48984 -0.0785134 0.990337 0.161255 -0.52438
26.9725 -6.50204 -0.0834886 0.968452 0.181192 -0.572318
26.8814 -6.51038 -0.0885483 0.944183 0.204303 -0.621678
27.4756 -6.38565 -0.0522781 1.11185 0.0566105 -0.268344
27.3472 -6.41301 -0.0556442 1.10066 0.0653549 -0.310141
27.2164 -6.43971 -0.0595638 1.08789 0.075508 -0.352855
27.0888 -6.46501 -0.0637241 1.07327 0.0874365 -0.396844
26.9655 -6.48863 -0.0681414 1.05685 0.101142 -0.442289
26.8457 -6.5102 -0.0727946 1.03863 0.116622 -0.489284
26.727 -6.52928 -0.0776447 1.01852 0.134001 -0.537807
26.6076 -6.5454 -0.0826675 0.996338 0.153574 -0.587784
26.4895 -6.55788 -0.0877999 0.971959 0.176004 -0.639101
27.2906 -6.4044 -0.050819 1.13937 0.0315485 -0.273877
27.1313 -6.43524 -0.0545094 1.1284 0.0399263 -0.316585
26.9743 -6.46514 -0.0584668 1.11575 0.0495501 -0.36047
26.8195 -6.49377 -0.062657 1.10127 0.060883 -0.405691
26.6682 -6.52087 -0.0671004 1.08497 0.0739705 -0.452418
26.5199 -6.54611 -0.0717895 1.06679 0.0888631 -0.500774
26.373 -6.56905 -0.0766959 1.04662 0.105702 -0.550801
26.2257 -6.58925 -0.0817933 1.02431 0.124756 -0.602492
26.0793 -6.60585 -0.0869584 0.999834 0.146777 -0.655771
27.0914 -6.42329 -0.0495658 1.16661 0.0059493 -0.278783
26.9055 -6.45749 -0.0533845 1.15572 0.0137201 -0.322579
26.721 -6.49063 -0.0573632 1.14322 0.0227656 -0.36759
26.5379 -6.52263 -0.0615653 1.12892 0.0334681 -0.414006
26.3575 -6.55326 -0.0660165 1.11279 0.0459006 -0.462002
26.1799 -6.5822 -0.070722 1.09472 0.0601433 -0.51173
26.0038 -6.60907 -0.0756634 1.07458 0.076345 -0.563281
25.8273 -6.6334 -0.0808131 1.05222 0.0947646 -0.616696
25.6511 -6.65429 -0.0860178 1.0277 0.116215 -0.671949
26.884 -6.44233 -0.0484338 1.19329 -0.0203567 -0.28329
26.6699 -6.47971 -0.0522663 1.1826 -0.0132305 -0.328076
26.4566 -6.51612 -0.0562475 1.17026 -0.00481652 -0.37417
26.2438 -6.55153 -0.0604431 1.15617 0.00521172 -0.421741
26.0332 -6.58572 -0.0648834 1.14026 0.0169438 -0.470984
25.8254 -6.61841 -0.0695847 1.12239 0.0304696 -0.522078
25.6191 -6.64924 -0.0745385 1.10235 0.0459353 -0.575152
25.4121 -6.67776 -0.0797177 1.08001 0.063595 -0.630292
25.2046 -6.70312 -0.0849792 1.05549 0.0843025 -0.68753
26.6679 -6.46138 -0.04738 1.21946 -0.04728 -0.287294
26.4247 -6.50182 -0.0511452 1.20899 -0.0408827 -0.333024
26.1814 -6.54154 -0.0551091 1.19683 -0.0331566 -0.380155
25.9375 -6.58038 -0.0592809 1.18297 -0.0238531 -0.428841
25.6954 -6.61816 -0.0636914 1.16734 -0.012874 -0.4793
25.4563 -6.65464 -0.0683657 1.14972 -0.000134844 -0.531735
25.2188 -6.68948 -0.0733062 1.12987 0.014496 -0.586311
24.9815 -6.72205 -0.0783818 1.10772 0.0315244 -0.642873
24.7412 -6.75227 -0.0837787 1.08319 0.0509659 -0.702097
26.4433 -6.48015 -0.0463179 1.24524 -0.0746493 -0.290586
26.1695 -6.52375 -0.0500592 1.23518 -0.0690035 -0.336952
25.8951 -6.56677 -0.0539651 1.22333 -0.0620925 -0.385052
25.6194 -6.60944 -0.0582239 1.20951 -0.0537117 -0.435066
25.3443 -6.65053 -0.0624371 1.19397 -0.0435096 -0.486873
25.0726 -6.69082 -0.0670563 1.17669 -0.0316277 -0.54061
24.8029 -6.72968 -0.0719514 1.15708 -0.01793 -0.596644
24.5316 -6.7666 -0.0770454 1.13494 -0.0017408 -0.655283
25.2911 -6.63789 -0.0568925 1.23555 -0.084294 -0.441395
24.9858 -6.68218 -0.0607091 1.22108 -0.0746691 -0.494185
24.6801 -6.72693 -0.0654922 1.20395 -0.0634106 -0.5486
24.3717 -6.76992 -0.0704347 1.18415 -0.0511548 -0.60576
24.0645 -6.81137 -0.0756225 1.16205 -0.0363204 -0.666311
-87.724 0.0479676 -0.0547403 -0.899639 0.274888 0.0930867
-87.9649 0.0324208 -0.0585176 -0.88771 0.316951 0.103168
-88.1921 0.017586 -0.0623321 -0.874191 0.359854 0.115305
-88.4004 0.00370238 -0.066169 -0.859008 0.404044 0.129513
-88.5872 -0.00972226 -0.0703547 -0.842234 0.449748 0.145821
-88.7483 -0.0229179 -0.0749908 -0.823885 0.496888 0.164203
-88.8778 -0.0355395 -0.0798492 -0.803886 0.545239 0.18474
-88.9729 -0.047015 -0.0846629 -0.78214 0.594665 0.207439
-87.9247 0.0340997 -0.0537848 -0.927366 0.281744 0.0676084
-88.1929 0.0170696 -0.0572499 -0.915401 0.325106 0.0773564
-88.45 4.40965e-05 -0.0611075 -0.901842 0.369373 0.0889988
-88.6906 -0.0164807 -0.0652054 -0.886512 0.414986 0.102642
-88.9117 -0.0323463 -0.0695522 -0.869553 0.462199 0.118332
-89.1084 -0.0475671 -0.0741185 -0.851052 0.510988 0.136083
-89.2751 -0.0622283 -0.0788607 -0.830933 0.56112 0.156013
-89.4079 -0.0764689 -0.0838462 -0.809163 0.612078 0.178331
-89.4977 -0.0896642 -0.0888596 -0.785281 0.664516 0.204118
-88.1231 0.0200711 -0.0522599 -0.955335 0.288621 0.0411153
-88.42 0.000883043 -0.0560568 -0.943311 0.333025 0.0505983
-88.7083 -0.0183142 -0.0599607 -0.929784 0.378669 0.0616662
-88.9812 -0.037116 -0.0641011 -0.914509 0.425693 0.0746619
-89.236 -0.055385 -0.0684929 -0.897553 0.474296 0.0896646
-89.4683 -0.0730945 -0.0731171 -0.878943 0.524514 0.10675
-89.6729 -0.0902787 -0.0779378 -0.858605 0.576247 0.126076
-89.8443 -0.106944 -0.0829338 -0.836419 0.629407 0.147933
-89.9768 -0.122818 -0.0880849 -0.812338 0.68397 0.17295
-87.9686 0.0284 -0.0461068 -0.992797 0.25097 0.00719773
-88.3155 0.00644282 -0.0498126 -0.982948 0.295638 0.0140174
-88.6452 -0.015913 -0.0548716 -0.971223 0.340543 0.0230101
-88.9649 -0.03737 -0.0588087 -0.957768 0.387511 0.0334594
-89.2707 -0.0585237 -0.0629763 -0.942582 0.435913 0.0457719
-89.5597 -0.0792452 -0.0673939 -0.925683 0.485918 0.0600497
-89.8281 -0.0994832 -0.0720551 -0.907044 0.537606 0.0764135
-90.0711 -0.119244 -0.0769325 -0.886578 0.590974 0.0950506
-90.2833 -0.138536 -0.0820033 -0.864188 0.646015 0.116248
-90.4566 -0.157068 -0.0871818 -0.839915 0.702716 0.140742
-88.1326 0.0155223 -0.0445424 -1.02071 0.255776 -0.0199928
-88.5043 -0.0085584 -0.0481287 -1.01081 0.301514 -0.0136996
-88.8677 -0.0333096 -0.0536934 -0.999111 0.347607 -0.00538416
-89.2192 -0.0571055 -0.0576473 -0.985764 0.395849 0.00440119
-89.558 -0.080686 -0.0618241 -0.970703 0.445595 0.0159902
-89.8817 -0.103918 -0.0662488 -0.953914 0.497005 0.0294982
-90.1868 -0.126732 -0.0709268 -0.935322 0.550187 0.0450742
-90.4687 -0.149126 -0.0758395 -0.914813 0.605212 0.0629275
-90.722 -0.17112 -0.0809625 -0.892294 0.662143 0.0833505
-90.9378 -0.192429 -0.0861755 -0.867877 0.720998 0.107148
-88.2925 0.00163008 -0.0443911 -1.04819 0.259608 -0.0478149
-88.6928 -0.0247115 -0.0479349 -1.03851 0.306379 -0.0421987
-89.0867 -0.0512916 -0.0525177 -1.02695 0.354162 -0.0345489
-89.4702 -0.0774999 -0.0564702 -1.01374 0.403628 -0.0254748
-89.8423 -0.103584 -0.0606374 -0.998837 0.454688 -0.0146557
-90.2009 -0.129393 -0.0650499 -0.982214 0.507493 -0.00197098
-90.5431 -0.154837 -0.0697238 -0.963743 0.562175 0.0127442
-90.8643 -0.179918 -0.074649 -0.943268 0.618859 0.0297133
-91.1592 -0.204685 -0.0798005 -0.92069 0.677677 0.0492378
-91.4195 -0.228907 -0.0850673 -0.89618 0.738701 0.0721597
-88.8778 -0.0411098 -0.0475953 -1.06613 0.311027 -0.0712637
-89.3016 -0.0698356 -0.0513351 -1.05472 0.360142 -0.0644402
-89.7174 -0.0985265 -0.0552654 -1.04166 0.41079 -0.0561231
-90.1228 -0.127197 -0.0594052 -1.02695 0.463128 -0.0461261
-90.5165 -0.155657 -0.0637866 -1.01055 0.51731 -0.0343248
-90.896 -0.183787 -0.0684327 -0.992274 0.573478 -0.0205473
-91.257 -0.211605 -0.0733439 -0.971905 0.631801 -0.00456487
-91.5931 -0.239045 -0.0784145 -0.94941 0.692199 0.0141795
-91.901 -0.266364 -0.0837824 -0.924792 0.755394 0.0356948
-89.0568 -0.0577953 -0.0464808 -1.0937 0.315217 -0.100784
-89.5112 -0.0890016 -0.0501968 -1.08267 0.365065 -0.0947852
-89.9589 -0.120177 -0.0540503 -1.06989 0.41683 -0.0873615
-90.4015 -0.151597 -0.0582523 -1.0552 0.470662 -0.0783968
-90.8277 -0.182695 -0.0624499 -1.03888 0.526367 -0.0675094
-91.2446 -0.21357 -0.0670409 -1.02088 0.583989 -0.0547467
-91.6455 -0.244169 -0.0719053 -1.00068 0.64391 -0.0398535
-92.0247 -0.274626 -0.0770069 -0.978156 0.706545 -0.0221118
-90.6712 -0.176366 -0.0568374 -1.08344 0.478227 -0.111395
-91.1305 -0.20974 -0.0606584 -1.06808 0.535051 -0.101227
-91.5913 -0.243675 -0.0653995 -1.05015 0.593579 -0.0892771
-92.0309 -0.27751 -0.0702703 -1.02972 0.654826 -0.0759934
-92.454 -0.311187 -0.0754506 -1.00718 0.719523 -0.0597555
-39.5066 -2.72524 -0.055452 4.90141 0.13988 0.282666
-39.5459 -2.75429 -0.0592479 4.90698 0.162258 0.322806
-39.5612 -2.7836 -0.0631326 4.91223 0.183631 0.36524
-39.5485 -2.81285 -0.0670483 4.91699 0.204345 0.410207
-39.51 -2.84227 -0.0712727 4.92098 0.224487 0.457921
-39.4458 -2.87183 -0.0758975 4.92387 0.243967 0.50839
-39.3525 -2.90118 -0.0807384 4.9255 0.262552 0.561562
-39.2269 -2.93 -0.0856236 4.92598 0.280213 0.617306
-39.9575 -2.72107 -0.0544972 4.9075 0.164142 0.267835
-40.0123 -2.7517 -0.0580025 4.91396 0.187747 0.308646
-40.0467 -2.78316 -0.0619177 4.91999 0.210525 0.351687
-40.0548 -2.81501 -0.0660653 4.92546 0.232753 0.397285
-40.0366 -2.84701 -0.0704486 4.93031 0.254502 0.445661
-39.9916 -2.87895 -0.0750458 4.93428 0.275684 0.496869
-39.9184 -2.91072 -0.0798252 4.93704 0.296043 0.550887
-39.8175 -2.94232 -0.0848859 4.93837 0.315118 0.607495
-39.6774 -2.97324 -0.0899368 4.93802 0.332597 0.66789
-40.4152 -2.71653 -0.0533695 4.91337 0.188956 0.252094
-40.4886 -2.74918 -0.056832 4.92056 0.213797 0.293539
-40.5435 -2.78279 -0.0607925 4.92743 0.238028 0.337134
-40.5731 -2.81689 -0.064985 4.93375 0.26178 0.383273
-40.5767 -2.85129 -0.0694178 4.93946 0.285083 0.43217
-40.5534 -2.88581 -0.0740775 4.94434 0.307855 0.48395
-40.5015 -2.92033 -0.0789378 4.94811 0.329891 0.538696
-40.4187 -2.95475 -0.0839772 4.95049 0.350929 0.596572
-40.3028 -2.98876 -0.0892195 4.95135 0.370532 0.657977
-40.7449 -2.67703 -0.0480886 4.9101 0.187466 0.196209
-40.8702 -2.71167 -0.0518737 4.9189 0.214189 0.235729
-40.9715 -2.74666 -0.0556618 4.9268 0.240168 0.277457
-41.048 -2.78244 -0.0596524 4.93449 0.265845 0.321534
-41.1001 -2.81882 -0.0638728 4.94166 0.291126 0.368157
-41.1267 -2.85561 -0.0683366 4.94824 0.316021 0.417545
-41.1264 -2.89269 -0.0730392 4.95405 0.340451 0.469878
-41.0972 -2.92995 -0.0779601 4.95884 0.364249 0.525316
-41.0372 -2.96726 -0.0830751 4.96233 0.387198 0.584072
-40.9443 -3.00419 -0.0883547 4.96425 0.408776 0.646657
-41.1966 -2.67047 -0.0470477 4.91433 0.211469 0.178266
-41.3393 -2.70699 -0.0506968 4.92366 0.239345 0.218229
-41.4608 -2.74412 -0.0544922 4.93263 0.266804 0.260385
-41.5598 -2.7821 -0.0584969 4.94113 0.29392 0.304875
-41.6353 -2.82075 -0.0627278 4.94914 0.32074 0.35192
-41.686 -2.85994 -0.0672028 4.95659 0.347265 0.401755
-41.7099 -2.89957 -0.0719273 4.96335 0.373419 0.454602
-41.7049 -2.93955 -0.0768865 4.96917 0.399061 0.510675
-41.6691 -2.97976 -0.0820548 4.97376 0.424007 0.570232
-41.6008 -3.01968 -0.0873723 4.97681 0.447703 0.633875
-41.6461 -2.66402 -0.0460317 4.91814 0.23556 0.159528
-41.8131 -2.70239 -0.0496299 4.92817 0.264791 0.199688
-41.9559 -2.74153 -0.053316 4.93801 0.293638 0.242319
-42.0782 -2.78172 -0.0573181 4.94732 0.322187 0.287147
-42.1781 -2.82267 -0.0615405 4.95613 0.350558 0.334547
-42.254 -2.86426 -0.0660073 4.96445 0.37875 0.384774
-42.3035 -2.90642 -0.0707317 4.97216 0.406689 0.438077
-42.3239 -2.9491 -0.0757054 4.97902 0.434247 0.49471
-42.3136 -2.9922 -0.0809025 4.98472 0.461274 0.554974
-42.2717 -3.03522 -0.086274 4.98893 0.487231 0.619541
-42.2893 -2.6973 -0.04833 4.93247 0.290541 0.180462
-42.4564 -2.73886 -0.0521241 4.94291 0.320593 0.223254
-42.6027 -2.78129 -0.0561028 4.953 0.350569 0.268347
-42.7279 -2.82456 -0.0602997 4.9626 0.380502 0.316029
-42.8302 -2.86854 -0.0647387 4.97177 0.410396 0.366578
-42.9065 -2.91321 -0.0694382 4.98043 0.440167 0.420266
-42.9537 -2.95857 -0.074398 4.98833 0.469704 0.477368
-42.9697 -3.00441 -0.0795432 4.99518 0.498518 0.538195
-42.9557 -3.0507 -0.0849751 5.00065 0.52712 0.603298
-42.7716 -2.69242 -0.0472221 4.93607 0.315889 0.160323
-42.965 -2.73601 -0.0509949 4.94722 0.347099 0.203033
-43.1365 -2.78053 -0.0548748 4.95809 0.378558 0.248244
-43.2869 -2.82641 -0.0590936 4.96863 0.410368 0.296203
-43.4142 -2.87276 -0.0633787 4.97849 0.442099 0.347153
-43.5185 -2.91992 -0.0680254 4.98808 0.47374 0.401143
-43.5934 -2.96793 -0.0729393 4.99703 0.505298 0.458603
-43.6373 -3.01681 -0.0781341 5.00499 0.53653 0.520283
-43.8508 -2.8278 -0.0576531 4.97396 0.440766 0.275838
-44.0097 -2.87574 -0.0615898 4.98476 0.473902 0.327035
-44.1432 -2.9259 -0.0663514 4.99553 0.506915 0.381038
-44.2433 -2.97703 -0.0712419 5.00526 0.540682 0.438246
-44.3166 -3.02907 -0.0765082 5.01423 0.574551 0.500295
-24.4906 -3.63957 -0.0548292 -4.86218 0.31276 -0.140152
-24.8478 -3.65304 -0.058575 -4.86747 0.355382 -0.164327
-25.2155 -3.66518 -0.062439 -4.87251 0.400394 -0.187512
-25.5917 -3.67561 -0.0663359 -4.87713 0.447995 -0.209953
-25.9768 -3.68463 -0.0705163 -4.88105 0.498377 -0.231804
-26.3704 -3.69231 -0.075064 -4.884 0.551575 -0.253076
-26.7698 -3.6983 -0.0798219 -4.88584 0.607564 -0.273561
-27.1736 -3.70244 -0.0847021 -4.88672 0.666235 -0.293083
-24.2894 -3.6679 -0.0538851 -4.87084 0.29753 -0.164889
-24.6598 -3.6825 -0.057358 -4.87727 0.34087 -0.190307
-25.0452 -3.69625 -0.061249 -4.88336 0.386557 -0.214901
-25.4432 -3.70857 -0.0653674 -4.88895 0.434893 -0.238893
-25.8506 -3.71943 -0.0697114 -4.89398 0.486041 -0.262417
-26.2653 -3.72878 -0.0742619 -4.89821 0.540058 -0.28546
-26.6866 -3.7365 -0.078997 -4.90137 0.59697 -0.307784
-27.1133 -3.74281 -0.0840346 -4.90328 0.656596 -0.328836
-27.5435 -3.74662 -0.0890498 -4.90367 0.720099 -0.348229
-24.078 -3.69669 -0.0527634 -4.87933 0.28132 -0.190115
-24.4648 -3.71283 -0.0562043 -4.88678 0.32536 -0.216786
-24.8676 -3.72828 -0.0601367 -4.89397 0.371644 -0.242873
-25.2838 -3.74239 -0.0642989 -4.90068 0.420573 -0.268451
-25.7111 -3.7551 -0.0686954 -4.90683 0.472328 -0.293595
-26.148 -3.76632 -0.0733144 -4.91224 0.527028 -0.318284
-26.5935 -3.77594 -0.0781358 -4.91664 0.584778 -0.342336
-27.0467 -3.78383 -0.0831376 -4.91981 0.645756 -0.365455
-27.5047 -3.78992 -0.0883948 -4.92165 0.710373 -0.387073
-23.4698 -3.70529 -0.0475339 -4.87823 0.222408 -0.187148
-23.8601 -3.72528 -0.0512961 -4.88754 0.26444 -0.215719
-24.2627 -3.7438 -0.0550486 -4.896 0.308797 -0.243572
-24.6827 -3.76103 -0.0590102 -4.9043 0.355601 -0.271144
-25.117 -3.77699 -0.0632 -4.91213 0.40506 -0.298303
-25.5639 -3.79161 -0.0676298 -4.91943 0.457382 -0.325097
-26.0223 -3.80477 -0.0722966 -4.92604 0.512739 -0.351503
-26.4913 -3.81637 -0.0771831 -4.93173 0.57129 -0.377375
-26.97 -3.82628 -0.0822623 -4.93624 0.633248 -0.40247
-27.4539 -3.83437 -0.0875619 -4.93936 0.699147 -0.426165
-23.2277 -3.73387 -0.0465071 -4.88489 0.203807 -0.211432
-23.6332 -3.7552 -0.050121 -4.89504 0.246344 -0.241204
-24.0532 -3.77539 -0.0538916 -4.90488 0.291169 -0.27061
-24.4902 -3.79446 -0.0578662 -4.91429 0.338416 -0.299664
-24.9425 -3.81233 -0.0620664 -4.92325 0.388337 -0.328405
-25.4086 -3.82893 -0.06651 -4.93172 0.441177 -0.356878
-25.8878 -3.84411 -0.0712032 -4.93957 0.497145 -0.385065
-26.3797 -3.85775 -0.0761323 -4.94656 0.556435 -0.412845
-26.8834 -3.86975 -0.0812672 -4.95243 0.619288 -0.440012
-27.3936 -3.87996 -0.0866056 -4.95691 0.686339 -0.465931
-22.9829 -3.76253 -0.0455123 -4.89116 0.18434 -0.235806
-23.4006 -3.78574 -0.0490701 -4.90233 0.227133 -0.266981
-23.836 -3.80757 -0.0527252 -4.91338 0.272476 -0.297836
-24.2901 -3.82853 -0.0566965 -4.9239 0.320085 -0.328369
-24.7601 -3.84838 -0.0608886 -4.93399 0.37039 -0.358696
-25.2449 -3.86701 -0.0653263 -4.94363 0.423683 -0.388875
-25.7444 -3.88428 -0.0700234 -4.95273 0.480202 -0.4189
-26.2586 -3.90004 -0.0749705 -4.96105 0.540152 -0.448669
-26.7869 -3.91419 -0.0801368 -4.9683 0.603798 -0.478003
-27.3238 -3.92667 -0.0855259 -4.97421 0.671857 -0.506293
-23.1565 -3.81639 -0.0477509 -4.90947 0.207187 -0.293055
-23.6108 -3.84031 -0.0515384 -4.92144 0.252725 -0.325173
-24.082 -3.8632 -0.0554866 -4.93307 0.300606 -0.357183
-24.5697 -3.88508 -0.0596531 -4.94428 0.35121 -0.389103
-25.0727 -3.90583 -0.0640647 -4.9551 0.404881 -0.421011
-25.5917 -3.92525 -0.0687407 -4.96547 0.461875 -0.452921
-26.1277 -3.94318 -0.0736764 -4.97514 0.522391 -0.484746
-26.6791 -3.95948 -0.0788149 -4.98384 0.586681 -0.515962
-27.2437 -3.97431 -0.0842287 -4.99125 0.655349 -0.547011
-22.9081 -3.84788 -0.0466775 -4.91592 0.186244 -0.318707
-23.3763 -3.87385 -0.0504441 -4.92893 0.231723 -0.352026
-23.8622 -3.89862 -0.0542607 -4.94172 0.279729 -0.385572
-24.3702 -3.92258 -0.0584178 -4.95418 0.33063 -0.41942
-24.8918 -3.94535 -0.0627093 -4.96606 0.384763 -0.453191
-25.4297 -3.96699 -0.0673341 -4.9777 0.442146 -0.487019
-25.9868 -3.98714 -0.0722245 -4.98874 0.503113 -0.520947
-26.5631 -4.00582 -0.0774271 -4.99888 0.568328 -0.554668
-24.1584 -3.96048 -0.0569576 -4.96349 0.309469 -0.450274
-24.6888 -3.98533 -0.0608844 -4.97669 0.363895 -0.485505
-25.2504 -4.00943 -0.0656136 -4.98984 0.421364 -0.520711
-25.8344 -4.03176 -0.0704941 -5.00201 0.482133 -0.556886
-26.4365 -4.05296 -0.0757678 -5.01347 0.547782 -0.593331
24.1521 -6.43657 -0.0552523 0.435701 0.123811 -0.316147
23.9956 -6.46351 -0.0590517 0.421465 0.13578 -0.364374
23.8397 -6.49014 -0.0630115 0.405991 0.150137 -0.413634
23.6853 -6.51597 -0.0670118 0.389229 0.166906 -0.464255
23.5278 -6.54108 -0.071274 0.371307 0.186072 -0.5165
23.3642 -6.56538 -0.0758717 0.352273 0.207584 -0.570402
23.1952 -6.58853 -0.0806689 0.33213 0.231562 -0.625789
23.0234 -6.61067 -0.0856743 0.310923 0.258151 -0.682415
24.1975 -6.45222 -0.0543132 0.462022 0.09537 -0.323255
24.0485 -6.48086 -0.0578441 0.447701 0.106963 -0.372902
23.8957 -6.50961 -0.0618113 0.432077 0.120803 -0.423659
23.7409 -6.53786 -0.0660104 0.415056 0.136981 -0.475908
23.584 -6.56545 -0.0704368 0.396798 0.155476 -0.529897
23.4235 -6.59219 -0.075069 0.377406 0.17628 -0.585662
23.2572 -6.61785 -0.079888 0.356891 0.199572 -0.643036
23.083 -6.64257 -0.0850393 0.335519 0.22568 -0.701471
22.9037 -6.66525 -0.0901423 0.312861 0.25575 -0.761541
24.2429 -6.4676 -0.0531869 0.489531 0.0659332 -0.330021
24.0973 -6.49828 -0.0566814 0.475112 0.0771355 -0.381074
23.9476 -6.52926 -0.0606862 0.459398 0.0903234 -0.433352
23.7951 -6.55981 -0.0649246 0.442262 0.105768 -0.487182
23.64 -6.5898 -0.069402 0.423812 0.123511 -0.542771
23.481 -6.61906 -0.0741056 0.404118 0.143606 -0.600199
23.3163 -6.64736 -0.0790148 0.383201 0.166245 -0.65941
23.1442 -6.6745 -0.0841113 0.361098 0.191782 -0.720324
22.9649 -6.70045 -0.0895208 0.337981 0.221012 -0.78281
24.4294 -6.44815 -0.0478709 0.530421 0.0273627 -0.285577
24.2889 -6.48234 -0.0517109 0.517745 0.0357914 -0.336597
24.1429 -6.51563 -0.0555146 0.503647 0.046357 -0.388745
23.9962 -6.54887 -0.0595448 0.487888 0.0588445 -0.442482
23.8461 -6.58178 -0.0638065 0.470686 0.07352 -0.497848
23.6931 -6.61421 -0.0683151 0.452113 0.0904686 -0.555035
23.536 -6.64602 -0.0730679 0.432199 0.109787 -0.614161
23.3732 -6.677 -0.0780453 0.410958 0.131675 -0.67525
23.2025 -6.70693 -0.0832212 0.388437 0.156474 -0.738293
23.0238 -6.7356 -0.088673 0.364861 0.185081 -0.80321
24.4611 -6.46125 -0.0468295 0.560314 -0.00301791 -0.289982
24.324 -6.49714 -0.0505072 0.547534 0.00490135 -0.342237
24.1848 -6.53285 -0.0543412 0.533319 0.0146595 -0.395866
24.0411 -6.56839 -0.0583808 0.517559 0.0263927 -0.45101
23.8935 -6.60368 -0.0626478 0.500342 0.0402563 -0.507865
23.7427 -6.63859 -0.0671679 0.481712 0.0563617 -0.566637
23.5879 -6.67299 -0.0719486 0.46166 0.0748257 -0.627479
23.4272 -6.70667 -0.0769714 0.440172 0.0958533 -0.690469
23.2583 -6.73943 -0.0822046 0.4173 0.11978 -0.755653
23.0805 -6.77095 -0.0876916 0.393311 0.147567 -0.823014
24.4893 -6.47404 -0.0458254 0.590754 -0.0340634 -0.293883
24.3556 -6.51203 -0.0494488 0.578329 -0.0269819 -0.347324
24.2227 -6.54989 -0.0531555 0.56414 -0.0179126 -0.402393
24.0819 -6.58776 -0.0571868 0.54842 -0.00699378 -0.45889
23.9367 -6.62545 -0.0614399 0.531239 0.00600507 -0.517188
23.7881 -6.66287 -0.0659512 0.512623 0.0212104 -0.577522
23.6359 -6.69988 -0.070737 0.492511 0.0387391 -0.640077
23.4778 -6.7363 -0.0757802 0.470849 0.0587892 -0.704972
23.3109 -6.77191 -0.0810462 0.44769 0.0816968 -0.772298
23.1343 -6.80643 -0.0865755 0.423341 0.108453 -0.842109
24.39 -6.52636 -0.0480804 0.610301 -0.0595814 -0.352136
24.2561 -6.56668 -0.0519446 0.596125 -0.0513042 -0.40828
24.1181 -6.6069 -0.0559467 0.580475 -0.0412657 -0.466074
23.9751 -6.64702 -0.0601667 0.563381 -0.0291907 -0.525764
23.8289 -6.68697 -0.0646483 0.544853 -0.0149474 -0.587626
23.6794 -6.72662 -0.0694143 0.524762 0.00156234 -0.651878
23.5242 -6.7658 -0.0744484 0.502997 0.0205167 -0.718661
23.3609 -6.80427 -0.0797001 0.479615 0.0424917 -0.787813
23.1859 -6.84186 -0.0852168 0.454901 0.0676578 -0.860068
24.4131 -6.54071 -0.0470181 0.643281 -0.0925784 -0.355982
24.2815 -6.5833 -0.0508742 0.629415 -0.0852172 -0.412969
24.1488 -6.62574 -0.0547086 0.613966 -0.0762037 -0.471985
24.0091 -6.66844 -0.0588684 0.596857 -0.0653068 -0.533313
23.8642 -6.71082 -0.0632485 0.57841 -0.0520502 -0.596881
23.7177 -6.75313 -0.0679637 0.558423 -0.0366423 -0.662796
23.5658 -6.79507 -0.0729504 0.536619 -0.0189041 -0.731428
23.4045 -6.83661 -0.078268 0.513067 0.00190259 -0.803047
24.0393 -6.68923 -0.0573458 0.631763 -0.102215 -0.540863
23.9022 -6.73386 -0.0613787 0.613924 -0.0898157 -0.605692
23.7587 -6.77929 -0.0661894 0.593861 -0.0753082 -0.672695
23.6055 -6.82404 -0.0711603 0.571699 -0.0593081 -0.742845
23.444 -6.86863 -0.0765279 0.548019 -0.0401659 -0.816766
-87.7568 -0.24592 -0.0557695 -0.281655 0.310529 0.108977
-88.0406 -0.267926 -0.0595366 -0.266668 0.358357 0.121135
-88.323 -0.290063 -0.0635167 -0.250547 0.407238 0.135803
-88.5986 -0.312082 -0.0675541 -0.233269 0.457564 0.152954
-88.8663 -0.334354 -0.0718192 -0.21498 0.509578 0.172602
-89.124 -0.357086 -0.0763693 -0.195741 0.56325 0.194721
-89.3696 -0.380136 -0.0811033 -0.175576 0.6184 0.219434
-89.6078 -0.403548 -0.0861525 -0.154557 0.674835 0.24681
-87.9762 -0.242737 -0.0547874 -0.307509 0.317886 0.079052
-88.2842 -0.264101 -0.0583005 -0.292421 0.36715 0.0907872
-88.5934 -0.286047 -0.0622674 -0.276125 0.417542 0.10488
-88.8971 -0.308238 -0.0664655 -0.25856 0.46949 0.121377
-89.1939 -0.330664 -0.0708871 -0.239892 0.52323 0.140294
-89.4816 -0.353401 -0.0755096 -0.220222 0.578753 0.161651
-89.758 -0.376524 -0.0803172 -0.199594 0.635871 0.18563
-90.0246 -0.400282 -0.0854827 -0.178376 0.694085 0.212517
-90.2699 -0.424059 -0.090564 -0.156152 0.754026 0.243454
-88.1931 -0.239298 -0.0536266 -0.334884 0.324962 0.0480792
-88.5272 -0.260426 -0.0570984 -0.319683 0.375641 0.0593743
-88.8642 -0.282246 -0.0611022 -0.303257 0.427565 0.0727699
-89.1965 -0.304377 -0.0653372 -0.285522 0.481091 0.0884866
-89.5227 -0.326805 -0.069809 -0.266596 0.536415 0.106595
-89.8409 -0.349582 -0.0745051 -0.246561 0.593583 0.12718
-90.1488 -0.372787 -0.0794058 -0.225472 0.65253 0.150444
-90.4442 -0.39649 -0.0844971 -0.203418 0.713206 0.176739
-90.728 -0.420799 -0.0899571 -0.180639 0.775541 0.206827
-88.028 -0.214237 -0.0482695 -0.376896 0.28123 0.00791148
-88.4037 -0.235453 -0.0521254 -0.363339 0.331902 0.0163384
-88.7685 -0.256835 -0.0558888 -0.348442 0.383672 0.0269765
-89.1339 -0.278512 -0.0599144 -0.331935 0.437069 0.039625
-89.4955 -0.300559 -0.0641699 -0.314081 0.492137 0.0545232
-89.8518 -0.322952 -0.0686727 -0.294971 0.54905 0.0717806
-90.2012 -0.345728 -0.0734209 -0.274655 0.607901 0.0915246
-90.5414 -0.368976 -0.0783931 -0.25318 0.668713 0.113976
-90.87 -0.392792 -0.0835668 -0.230641 0.731511 0.139478
-91.1856 -0.417248 -0.089065 -0.207318 0.796258 0.168916
-88.212 -0.211509 -0.047162 -0.40745 0.286035 -0.024082
-88.6103 -0.232297 -0.0508453 -0.393785 0.337944 -0.0161863
-89.0071 -0.253344 -0.0546714 -0.378724 0.391198 -0.00637116
-89.4016 -0.274864 -0.0587039 -0.362182 0.446015 0.00547669
-89.7929 -0.296807 -0.0629616 -0.344267 0.502587 0.0195107
-90.18 -0.319132 -0.0674757 -0.325045 0.561087 0.0358646
-90.5612 -0.341866 -0.0722545 -0.304529 0.621641 0.0546901
-90.9343 -0.365111 -0.0772757 -0.282743 0.68434 0.0762188
-91.2968 -0.388996 -0.0825097 -0.259784 0.749271 0.100795
-91.6461 -0.413574 -0.0880356 -0.235963 0.816444 0.129375
-88.3909 -0.208944 -0.0461212 -0.438908 0.290384 -0.0567174
-88.8163 -0.229452 -0.0497465 -0.425613 0.343468 -0.0497072
-89.2422 -0.249972 -0.0534408 -0.410556 0.398173 -0.040622
-89.6662 -0.271319 -0.0574615 -0.394023 0.454361 -0.0296325
-90.0878 -0.293143 -0.0617016 -0.376103 0.512401 -0.0165169
-90.5062 -0.315374 -0.0662063 -0.356843 0.572473 -0.00112732
-90.9199 -0.338024 -0.0709936 -0.336209 0.634733 0.0166959
-91.3265 -0.361215 -0.0760393 -0.314184 0.699321 0.0371856
-91.7234 -0.385119 -0.0813087 -0.290865 0.766385 0.060691
-92.1083 -0.409809 -0.0868685 -0.2666 0.835992 0.0881953
-89.0175 -0.225974 -0.0483044 -0.459037 0.348771 -0.0839681
-89.4729 -0.246735 -0.0521848 -0.443963 0.404551 -0.075719
-89.9269 -0.267898 -0.0561724 -0.427474 0.462062 -0.0656484
-90.3792 -0.289595 -0.0603751 -0.409606 0.521528 -0.0535117
-90.8294 -0.31171 -0.0648503 -0.390389 0.583149 -0.0391528
-91.276 -0.33423 -0.0696214 -0.369721 0.647101 -0.0224187
-91.7167 -0.357313 -0.0746616 -0.347525 0.713564 -0.00308707
-92.1494 -0.381114 -0.0799365 -0.323885 0.78243 0.0194303
-92.5706 -0.405833 -0.0854501 -0.299179 0.854466 0.0452891
-89.2143 -0.223454 -0.0472293 -0.493826 0.353159 -0.118617
-89.6985 -0.244065 -0.0511046 -0.479037 0.40979 -0.111326
-90.1822 -0.264718 -0.0549046 -0.462724 0.468535 -0.102321
-90.6671 -0.286162 -0.059003 -0.44484 0.529679 -0.0914406
-91.1484 -0.308175 -0.0633847 -0.425703 0.593053 -0.0781477
-91.6285 -0.330518 -0.0681099 -0.405086 0.658669 -0.0625878
-92.1038 -0.35343 -0.0731078 -0.382785 0.726967 -0.0445345
-92.5738 -0.377258 -0.0784503 -0.358922 0.798285 -0.0232572
-90.9473 -0.282637 -0.0574292 -0.481987 0.537859 -0.130154
-91.4608 -0.303937 -0.0615077 -0.463348 0.602475 -0.117801
-91.9792 -0.326259 -0.0663287 -0.442607 0.669234 -0.103256
-92.488 -0.349298 -0.0712804 -0.419903 0.739101 -0.0870293
-92.9942 -0.373281 -0.0766438 -0.395877 0.812737 -0.0674868
-87.7641 -0.319267 -0.0562522 -0.128023 0.310942 0.0764207
-88.0593 -0.34288 -0.060021 -0.112295 0.358823 0.0887155
-88.3559 -0.366823 -0.0640359 -0.0955515 0.407753 0.103724
-88.6489 -0.390872 -0.068122 -0.0777827 0.458112 0.121339
-88.9372 -0.415351 -0.0724038 -0.0591449 0.510147 0.141607
-89.2196 -0.440453 -0.0769261 -0.0397086 0.563842 0.164531
-89.4946 -0.466095 -0.0816226 -0.0195276 0.619017 0.190225
-89.7686 -0.492467 -0.0867138 0.00129333 0.675462 0.218621
-87.9878 -0.311817 -0.0552699 -0.153431 0.318288 0.0436172
-88.3065 -0.33427 -0.0588085 -0.13759 0.367607 0.0554115
-88.6291 -0.357433 -0.0628014 -0.120633 0.418048 0.0697441
-88.9491 -0.381026 -0.0670208 -0.102542 0.470036 0.0865945
-89.2653 -0.405081 -0.0714551 -0.0834793 0.523808 0.106027
-89.5762 -0.429683 -0.0760852 -0.0635467 0.579358 0.128094
-89.8805 -0.454905 -0.0809019 -0.0428183 0.636503 0.152974
-90.1809 -0.480998 -0.0860901 -0.0217472 0.694734 0.18088
-90.4657 -0.507399 -0.091178 3.85871e-05 0.754679 0.212949
-88.209 -0.303998 -0.0541132 -0.180679 0.325351 0.00967024
-88.5532 -0.325639 -0.0576182 -0.164714 0.376087 0.020941
-88.9028 -0.348101 -0.0616474 -0.147591 0.428062 0.0344991
-89.2504 -0.37105 -0.065905 -0.129271 0.481633 0.0504813
-89.5949 -0.394505 -0.070393 -0.109885 0.536994 0.0690011
-89.9351 -0.418535 -0.0751013 -0.0895255 0.594196 0.090184
-90.2693 -0.443229 -0.0800145 -0.0682781 0.653173 0.114249
-90.5962 -0.468673 -0.0851214 -0.0462865 0.713873 0.141549
-90.9183 -0.495056 -0.0906351 -0.0238526 0.776216 0.172762
-88.0409 -0.274705 -0.0487695 -0.22385 0.281558 -0.0334013
-88.4239 -0.295704 -0.0526399 -0.20941 0.332283 -0.0251649
-88.7983 -0.316959 -0.0564173 -0.193708 0.384106 -0.0145855
-89.1755 -0.338678 -0.0604676 -0.176466 0.437556 -0.0018544
-89.5514 -0.360933 -0.0647466 -0.157977 0.492671 0.0132186
-89.925 -0.383729 -0.0692691 -0.138345 0.549627 0.0307821
-90.2951 -0.407127 -0.0740343 -0.117643 0.608517 0.0510137
-90.6602 -0.431231 -0.0790231 -0.0959484 0.669365 0.0741651
-91.0185 -0.456159 -0.0842151 -0.0734052 0.732191 0.100589
-91.3703 -0.482066 -0.0897726 -0.0503443 0.796952 0.131121
-88.2296 -0.267964 -0.0476561 -0.255046 0.286333 -0.0685246
-88.6349 -0.287923 -0.0513572 -0.240503 0.338303 -0.0608557
-89.0406 -0.308256 -0.0552056 -0.224611 0.391618 -0.0511237
-89.4462 -0.329192 -0.0592623 -0.207301 0.44649 -0.0392735
-89.851 -0.350708 -0.0635445 -0.188703 0.503112 -0.0251585
-90.2544 -0.372792 -0.0680816 -0.168904 0.561659 -0.00860758
-90.6552 -0.395494 -0.0728821 -0.147941 0.622258 0.0105935
-91.0517 -0.418936 -0.0779239 -0.125871 0.684998 0.0327224
-91.4421 -0.443274 -0.083179 -0.102838 0.749962 0.0581388
-91.8253 -0.468641 -0.0887659 -0.0791946 0.817155 0.0877666
-88.413 -0.261394 -0.0466362 -0.287531 0.290649 -0.104257
-88.845 -0.280433 -0.0502757 -0.273375 0.343804 -0.0975546
-89.2795 -0.299554 -0.0539773 -0.257461 0.398577 -0.0886232
-89.7139 -0.31967 -0.0580221 -0.24013 0.454822 -0.0777067
-90.1483 -0.34041 -0.0622874 -0.221487 0.512913 -0.0646059
-90.582 -0.36173 -0.0668184 -0.201601 0.573036 -0.0491347
-91.014 -0.383668 -0.0716321 -0.180461 0.635347 -0.0310523
-91.4426 -0.406373 -0.0767023 -0.158086 0.699984 -0.0100616
-91.8657 -0.430041 -0.0819956 -0.134623 0.767084 0.0142061
-92.2824 -0.454821 -0.0876143 -0.11045 0.836717 0.0426999
-89.0501 -0.272111 -0.0487933 -0.308253 0.349089 -0.135041
-89.5139 -0.290879 -0.052721 -0.292299 0.40494 -0.127024
-89.9777 -0.310142 -0.0567322 -0.274986 0.462508 -0.117091
-90.442 -0.330076 -0.0609605 -0.25636 0.522026 -0.105067
-90.9066 -0.350586 -0.0654649 -0.236472 0.583701 -0.0907501
-91.3706 -0.37169 -0.070267 -0.215241 0.647711 -0.0738783
-91.8319 -0.393574 -0.0753354 -0.192631 0.714229 -0.0541456
-92.2893 -0.416465 -0.0806656 -0.168745 0.783137 -0.0309429
-92.7396 -0.44051 -0.0862059 -0.144063 0.855202 -0.00417194
-89.251 -0.2648 -0.0477474 -0.344844 0.353454 -0.172896
-89.7432 -0.282763 -0.051679 -0.329143 0.410152 -0.165908
-90.2362 -0.300777 -0.0554818 -0.311983 0.46895 -0.157109
-90.7316 -0.319692 -0.0595577 -0.293353 0.530152 -0.146479
-91.2273 -0.339408 -0.0639967 -0.273551 0.593592 -0.133382
-91.7237 -0.359602 -0.0687582 -0.252318 0.659274 -0.11781
-92.2182 -0.380577 -0.073788 -0.229536 0.727636 -0.0994538
-92.7114 -0.402723 -0.0791817 -0.205383 0.799 -0.0776058
-91.014 -0.309107 -0.0579764 -0.332746 0.538319 -0.188679
-91.5415 -0.32741 -0.0621521 -0.313318 0.602982 -0.17667
-92.0748 -0.346804 -0.0669935 -0.291942 0.669819 -0.162319
-92.6017 -0.367111 -0.0719642 -0.268724 0.739764 -0.145943
-93.1292 -0.388625 -0.0773619 -0.244368 0.813458 -0.12595
0 0 0 0 0 0
0 0 0 0 0 0
0 0 0 0 0 0
0 0 0 0 0 0
0 0 0 0 0 0
0 0 0 0 0 0
0 0 0 0 0 0
0 0 0 0 0 0
0 0 0 0 0 0
0 0 0 0 0 0
0 0 0 0 0 0
0 0 0 0 0 0
0 0 0 0 0 0
0 0 0 0 0 0
0 0 0 0 0 0
0 0 0 0 0 0
0 0 0 0 0 0
0 0 0 0 0 0
0 0 0 0 0 0
0 0 0 0 0 0
0 0 0 0 0 0
0 0 0 0 0 0
0 0 0 0 0 0
0 0 0 0 0 0
0 0 0 0 0 0
0 0 0 0 0 0
0 0 0 0 0 0
0 0 0 0 0 0
0 0 0 0 0 0
0 0 0 0 0 0
0 0 0 0 0 0
0 0 0 0 0 0
0 0 0 0 0 0
0 0 0 0 0 0
0 0 0 0 0 0
0 0 0 0 0 0
0 0 0 0 0 0
0 0 0 0 0 0
0 0 0 0 0 0
0 0 0 0 0 0
0 0 0 0 0 0
0 0 0 0 0 0
0 0 0 0 0 0
0 0 0 0 0 0
0 0 0 0 0 0
0 0 0 0 0 0
0 0 0 0 0 0
0 0 0 0 0 0
0 0 0 0 0 0
0 0 0 0 0 0
0 0 0 0 0 0
0 0 0 0 0 0
0 0 0 0 0 0
0 0 0 0 0 0
0 0 0 0 0 0
0 0 0 0 0 0
0 0 0 0 0 0
0 0 0 0 0 0
0 0 0 0 0 0
0 0 0 0 0 0
0 0 0 0 0 0
0 0 0 0 0 0
0 0 0 0 0 0
0 0 0 0 0 0
0 0 0 0 0 0
0 0 0 0 0 0
0 0 0 0 0 0
0 0 0 0 0 0
0 0 0 0 0 0
0 0 0 0 0 0
0 0 0 0 0 0
0 0 0 0 0 0
0 0 0 0 0 0
0 0 0 0 0 0
0 0 0 0 0 0
0 0 0 0 0 0
0 0 0 0 0 0
0 0 0 0 0 0
21.4015 -6.50391 -0.0567621 -0.0249871 0.06049 -0.290334
21.1946 -6.53479 -0.0605771 -0.0414356 0.0727145 -0.335889
20.9839 -6.56619 -0.0646562 -0.0587728 0.0877325 -0.382537
20.7692 -6.59766 -0.0688226 -0.0770032 0.105401 -0.430649
20.5472 -6.62928 -0.0731615 -0.0959694 0.125773 -0.480433
20.3157 -6.66104 -0.0777079 -0.115586 0.148853 -0.531854
20.0747 -6.6929 -0.0824292 -0.135762 0.174745 -0.584789
19.8239 -6.72556 -0.0876007 -0.156365 0.203313 -0.63911
21.6116 -6.51671 -0.0558151 4.09994e-06 0.0264188 -0.297509
21.4315 -6.54869 -0.0594337 -0.0165709 0.038113 -0.344426
21.2451 -6.5815 -0.0634936 -0.0341678 0.0524186 -0.39252
21.0522 -6.61458 -0.0677763 -0.0527635 0.069281 -0.442182
20.8514 -6.64787 -0.0722681 -0.0721978 0.0887771 -0.493611
20.6414 -6.68135 -0.0769565 -0.0923687 0.110965 -0.546785
20.421 -6.71499 -0.0818388 -0.113174 0.136014 -0.601564
20.1892 -6.74919 -0.087091 -0.134097 0.164107 -0.657526
19.9464 -6.78286 -0.0922522 -0.155434 0.196377 -0.715324
21.826 -6.52912 -0.0546924 0.0271365 -0.00883996 -0.304497
21.6706 -6.56251 -0.0582968 0.0104342 0.00230249 -0.352753
21.5082 -6.59684 -0.0623934 -0.00736652 0.0158057 -0.402291
21.3388 -6.63149 -0.0667188 -0.0262484 0.0317649 -0.453438
21.1615 -6.66642 -0.0712702 -0.0460714 0.0503067 -0.506361
20.975 -6.7016 -0.0760409 -0.0667311 0.0715676 -0.561094
20.7779 -6.73701 -0.081022 -0.0881123 0.0957693 -0.617609
20.5685 -6.77261 -0.0862 -0.110018 0.123266 -0.675907
20.3459 -6.80882 -0.0918065 -0.132091 0.154697 -0.735958
22.1695 -6.50525 -0.0494004 0.0715067 -0.053104 -0.263203
22.0438 -6.54087 -0.0532935 0.056182 -0.0450436 -0.311412
21.9114 -6.57615 -0.0571476 0.0396786 -0.0345974 -0.360684
21.774 -6.61204 -0.0612676 0.0217241 -0.0219503 -0.411614
21.6292 -6.64829 -0.0656184 0.00262184 -0.0069358 -0.46422
21.4765 -6.68489 -0.0702098 -0.0175063 0.0106082 -0.518647
21.3148 -6.7218 -0.0750421 -0.0385703 0.0308771 -0.574973
21.1421 -6.75899 -0.0801017 -0.0604596 0.0541326 -0.633253
20.9563 -6.79643 -0.0853657 -0.082983 0.0807295 -0.693558
20.7559 -6.83434 -0.0910309 -0.105764 0.111482 -0.755883
22.3565 -6.51578 -0.0483278 0.103327 -0.0896214 -0.268081
22.2572 -6.55248 -0.052069 0.0879196 -0.0821359 -0.317477
22.1532 -6.58955 -0.0559831 0.0712163 -0.0725397 -0.368176
22.0417 -6.62702 -0.0601107 0.0531606 -0.0608024 -0.420456
21.9225 -6.6649 -0.0644687 0.0339048 -0.0467824 -0.474495
21.7956 -6.70319 -0.0690797 0.0135544 -0.0302935 -0.530427
21.6598 -6.74185 -0.0739519 -0.00782989 -0.0110962 -0.588364
21.5128 -6.78085 -0.0790674 -0.0301577 0.0111044 -0.648425
21.352 -6.82014 -0.084396 -0.05324 0.0366706 -0.710749
21.1756 -6.85985 -0.0901007 -0.0766886 0.0665146 -0.775363
22.5401 -6.52602 -0.0473838 0.136849 -0.126727 -0.272599
22.4678 -6.56414 -0.051058 0.12185 -0.120242 -0.323103
22.3953 -6.60265 -0.0547972 0.105101 -0.111471 -0.375189
22.3105 -6.64173 -0.0589149 0.0869933 -0.100694 -0.428779
22.2179 -6.68126 -0.0632603 0.0676516 -0.0877255 -0.484227
22.1177 -6.72125 -0.0678703 0.0471646 -0.0723616 -0.541657
22.009 -6.76168 -0.0727595 0.0255455 -0.0543255 -0.601204
21.8892 -6.8025 -0.0779054 0.00284921 -0.0332948 -0.663047
21.7548 -6.84365 -0.0832734 -0.0207344 -0.00889772 -0.727389
21.604 -6.88526 -0.0890143 -0.0447958 0.0198008 -0.7943
22.6876 -6.57495 -0.0495623 0.158191 -0.159158 -0.328597
22.6369 -6.61539 -0.0535772 0.141382 -0.151329 -0.381686
22.5797 -6.6561 -0.0576635 0.123267 -0.141559 -0.436547
22.5142 -6.69729 -0.0619756 0.103908 -0.129704 -0.493374
22.4417 -6.73901 -0.0665629 0.083375 -0.115544 -0.552286
22.3614 -6.78122 -0.0714445 0.0616092 -0.0987623 -0.613429
22.2702 -6.82386 -0.0765908 0.0386132 -0.0790209 -0.677039
22.1641 -6.867 -0.0820401 0.0145083 -0.0557101 -0.743054
22.0407 -6.91036 -0.0876725 -0.0101224 -0.0287576 -0.812256
22.8955 -6.58596 -0.0485801 0.196577 -0.198433 -0.333272
22.8716 -6.628 -0.0526101 0.179982 -0.191659 -0.387156
22.8466 -6.67012 -0.0564667 0.162002 -0.183045 -0.443171
22.8113 -6.71287 -0.0605808 0.142665 -0.17265 -0.501633
22.7664 -6.75639 -0.0651452 0.122234 -0.159769 -0.562265
22.7159 -6.80039 -0.0699879 0.100412 -0.144332 -0.624976
22.6547 -6.84486 -0.0750958 0.077178 -0.125993 -0.690315
22.5783 -6.89002 -0.0805965 0.0527722 -0.104074 -0.758666
23.1094 -6.72784 -0.0590245 0.184315 -0.216374 -0.510025
23.0991 -6.77293 -0.063358 0.164116 -0.204642 -0.571762
23.0795 -6.81905 -0.0682459 0.142163 -0.190515 -0.635566
23.0457 -6.86533 -0.0732923 0.11848 -0.17421 -0.702435
22.9966 -6.91242 -0.0787939 0.0938233 -0.154181 -0.773042
-35.7213 -3.37998 -0.0565603 -4.66588 0.230947 -0.143372
-36.1923 -3.39839 -0.0603194 -4.66998 0.269774 -0.165648
-36.6779 -3.41701 -0.0643471 -4.67413 0.311377 -0.186813
-37.1766 -3.43561 -0.0684826 -4.67814 0.355904 -0.207207
-37.6879 -3.45444 -0.0727708 -4.68185 0.403506 -0.226937
-38.2114 -3.47368 -0.0772382 -4.68518 0.454149 -0.245963
-38.7458 -3.49344 -0.0818837 -4.68813 0.507862 -0.264117
-39.294 -3.51445 -0.0870386 -4.69103 0.564526 -0.281373
-35.4199 -3.3938 -0.0555916 -4.68733 0.211882 -0.170071
-35.8869 -3.41149 -0.0591871 -4.6938 0.251235 -0.193602
-36.3726 -3.42955 -0.0632104 -4.70034 0.293306 -0.216194
-36.8741 -3.44771 -0.0674482 -4.70667 0.338295 -0.238147
-37.39 -3.46614 -0.0718857 -4.71268 0.386367 -0.25955
-37.9196 -3.48494 -0.0765178 -4.71832 0.437534 -0.280334
-38.4619 -3.50427 -0.0813466 -4.72356 0.491856 -0.300274
-39.013 -3.52487 -0.086546 -4.72858 0.549229 -0.318953
-39.5702 -3.54584 -0.0916442 -4.73288 0.610929 -0.336051
-35.086 -3.40874 -0.0544786 -4.70888 0.191924 -0.197408
-35.5509 -3.42597 -0.0580771 -4.71779 0.231773 -0.222188
-36.0366 -3.44358 -0.0621405 -4.72675 0.274224 -0.24628
-36.5395 -3.46128 -0.0664268 -4.73549 0.319546 -0.269817
-37.0583 -3.47919 -0.0709296 -4.74396 0.367923 -0.292833
-37.5923 -3.49746 -0.0756465 -4.75208 0.419466 -0.315257
-38.1403 -3.51625 -0.0805743 -4.75981 0.474339 -0.336918
-38.7003 -3.5358 -0.085695 -4.76706 0.532832 -0.357593
-39.2705 -3.55679 -0.0912679 -4.77398 0.595422 -0.376782
-34.2721 -3.40684 -0.0493164 -4.71844 0.133666 -0.198475
-34.7198 -3.4246 -0.0531427 -4.73037 0.171293 -0.225296
-35.1821 -3.44187 -0.0569547 -4.74185 0.211314 -0.251216
-35.6668 -3.45906 -0.0610446 -4.75332 0.254079 -0.276809
-36.17 -3.47629 -0.0653617 -4.76459 0.299695 -0.301941
-36.6905 -3.49371 -0.0699106 -4.7756 0.348357 -0.326605
-37.2275 -3.51146 -0.0746928 -4.78631 0.400249 -0.350736
-37.7802 -3.5297 -0.0797005 -4.79661 0.455617 -0.374204
-38.3466 -3.54868 -0.0849077 -4.8064 0.514798 -0.396825
-38.9242 -3.56899 -0.0905489 -4.8157 0.578402 -0.418001
-33.8751 -3.42529 -0.0482363 -4.73728 0.111475 -0.22516
-34.3178 -3.44239 -0.0519351 -4.75162 0.149488 -0.253159
-34.7796 -3.45925 -0.0558197 -4.7659 0.189866 -0.28063
-35.2625 -3.476 -0.0599202 -4.77999 0.232882 -0.307732
-35.765 -3.49278 -0.0642507 -4.79386 0.278749 -0.334474
-36.2858 -3.50973 -0.0688255 -4.80752 0.327662 -0.360828
-36.8245 -3.52697 -0.0736519 -4.8209 0.379856 -0.386731
-37.3805 -3.54465 -0.0787175 -4.83388 0.435651 -0.412089
-37.9521 -3.56303 -0.08399 -4.84631 0.495435 -0.436753
-38.5364 -3.58265 -0.0896755 -4.85816 0.5599 -0.460082
-33.4528 -3.44513 -0.0473474 -4.75571 0.0886991 -0.252007
-33.886 -3.462 -0.0509679 -4.77267 0.126721 -0.281412
-34.3426 -3.47812 -0.0546641 -4.78988 0.167441 -0.310374
-34.8229 -3.49444 -0.0587593 -4.80665 0.210653 -0.338998
-35.3234 -3.51079 -0.0630838 -4.82321 0.256722 -0.367372
-35.8431 -3.52728 -0.0676642 -4.8396 0.305837 -0.395453
-36.3821 -3.54401 -0.0725121 -4.85576 0.358269 -0.423189
-36.9402 -3.56112 -0.0776106 -4.87153 0.414406 -0.450516
-37.5159 -3.57887 -0.0829237 -4.88671 0.474696 -0.477321
-38.1061 -3.59782 -0.0886479 -4.90128 0.53986 -0.502966
-33.4128 -3.48232 -0.0494557 -4.79396 0.103359 -0.31013
-33.8703 -3.49853 -0.0534771 -4.8137 0.14406 -0.340391
-34.3471 -3.51442 -0.057546 -4.83323 0.187416 -0.370549
-34.8446 -3.53035 -0.0618451 -4.85255 0.233635 -0.400578
-35.3619 -3.5464 -0.06641 -4.87175 0.28289 -0.430424
-35.8997 -3.56263 -0.0712551 -4.89079 0.335483 -0.460045
-36.4585 -3.57914 -0.0763563 -4.90945 0.391867 -0.489417
-37.0391 -3.5963 -0.0818045 -4.92757 0.452463 -0.518048
-37.6327 -3.61437 -0.0873877 -4.94488 0.517896 -0.546421
-32.9163 -3.50488 -0.0485309 -4.81461 0.0792444 -0.338535
-33.368 -3.5208 -0.0525637 -4.83706 0.119719 -0.370023
-33.837 -3.53601 -0.0564092 -4.85955 0.163012 -0.401721
-34.3284 -3.5513 -0.0604737 -4.88175 0.209309 -0.433834
-34.8415 -3.56714 -0.065043 -4.90386 0.258846 -0.465667
-35.3766 -3.58286 -0.0698544 -4.92588 0.311514 -0.497217
-35.9348 -3.59874 -0.0749236 -4.94755 0.368037 -0.528695
-36.516 -3.61533 -0.0804124 -4.96874 0.42921 -0.559825
-33.7686 -3.57397 -0.0589813 -4.91081 0.184613 -0.467745
-34.2746 -3.58917 -0.063389 -4.93607 0.234024 -0.501015
-34.8079 -3.60449 -0.0682185 -4.96131 0.286482 -0.534115
-35.368 -3.61966 -0.0731987 -4.98591 0.342609 -0.567986
-35.9493 -3.63572 -0.0786707 -5.00999 0.403984 -0.601929
-30.2505 -3.76048 -0.0569828 4.62617 0.13922 0.240987
-30.3292 -3.80318 -0.0607559 4.63001 0.16173 0.279121
-30.408 -3.84721 -0.0648094 4.63395 0.183187 0.319784
-30.4863 -3.8924 -0.0689906 4.6378 0.203914 0.363125
-30.5669 -3.93877 -0.0733015 4.64142 0.224046 0.409327
-30.6526 -3.98637 -0.077762 4.64478 0.243543 0.458392
-30.7461 -4.03518 -0.0824023 4.6479 0.262179 0.510314
-30.8553 -4.08581 -0.0876036 4.65113 0.279838 0.56491
-30.4874 -3.74012 -0.0559974 4.65018 0.163449 0.224227
-30.5554 -3.78193 -0.0596384 4.65664 0.187186 0.262939
-30.6229 -3.82543 -0.0636906 4.66323 0.210016 0.304116
-30.6897 -3.87031 -0.0679511 4.66965 0.232254 0.347984
-30.7585 -3.91654 -0.0724015 4.67583 0.254013 0.39473
-30.8314 -3.96416 -0.0770417 4.68171 0.275219 0.444387
-30.9113 -4.01311 -0.0818812 4.68733 0.295609 0.496984
-31.0089 -4.06339 -0.0871112 4.69292 0.314718 0.552343
-31.1173 -4.1144 -0.0922186 4.69793 0.33223 0.611656
-30.7518 -3.71742 -0.0548848 4.67434 0.188179 0.206604
-30.8107 -3.75855 -0.0585347 4.68352 0.213135 0.245873
-30.8681 -3.80155 -0.0626268 4.69279 0.237438 0.287497
-30.9236 -3.84603 -0.066936 4.7019 0.261223 0.331785
-30.9798 -3.89196 -0.0714538 4.71079 0.284541 0.378928
-31.0393 -3.93935 -0.0761808 4.71942 0.30733 0.429035
-31.1051 -3.98818 -0.0811195 4.72776 0.329402 0.482229
-31.182 -4.03836 -0.0862561 4.73578 0.350513 0.538734
-31.2792 -4.09011 -0.0918638 4.74365 0.370114 0.59898
-30.9816 -3.65274 -0.0497784 4.68605 0.18645 0.15117
-31.0433 -3.6923 -0.0535901 4.69848 0.213356 0.188389
-31.0973 -3.73289 -0.057418 4.71054 0.239426 0.22786
-31.1449 -3.7753 -0.0615349 4.72262 0.265197 0.26986
-31.1895 -3.81928 -0.0658757 4.73453 0.290528 0.31452
-31.2338 -3.8648 -0.0704419 4.74625 0.315437 0.362035
-31.2804 -3.91186 -0.0752367 4.75773 0.339879 0.41257
-31.3323 -3.96046 -0.0802556 4.76891 0.363715 0.466321
-31.3943 -4.01053 -0.0854781 4.7797 0.386743 0.523563
-31.4748 -4.06222 -0.0911544 4.79018 0.408324 0.584872
-31.3196 -3.62623 -0.0486745 4.70735 0.210354 0.131393
-31.3716 -3.66482 -0.052385 4.72249 0.238411 0.169043
-31.4161 -3.70488 -0.0562892 4.73763 0.266012 0.208903
-31.4541 -3.74663 -0.0604161 4.75262 0.293252 0.251213
-31.4884 -3.79001 -0.0647711 4.76744 0.320136 0.296194
-31.5214 -3.835 -0.0693661 4.78209 0.34667 0.344046
-31.5555 -3.88161 -0.074208 4.79654 0.372826 0.394972
-31.5937 -3.92987 -0.0792861 4.81067 0.39851 0.449223
-31.6407 -3.97972 -0.0845735 4.82437 0.423547 0.507124
-31.7044 -4.03125 -0.09029 4.83764 0.447267 0.569348
-31.6866 -3.59815 -0.0478068 4.72821 0.23434 0.110999
-31.735 -3.6355 -0.0514465 4.7463 0.263776 0.148741
-31.768 -3.67447 -0.0551402 4.76471 0.292844 0.189012
-31.7967 -3.71547 -0.0592626 4.7827 0.32156 0.231571
-31.8211 -3.75815 -0.0636127 4.80053 0.350009 0.276818
-31.8435 -3.8025 -0.0682164 4.81822 0.378197 0.324962
-31.8656 -3.84855 -0.0730835 4.83575 0.406126 0.376225
-31.8903 -3.89634 -0.0781965 4.85296 0.433739 0.430904
-31.9222 -3.94585 -0.0835241 4.86969 0.46088 0.48937
-31.9693 -3.99715 -0.0892738 4.88592 0.486892 0.552349
-32.1257 -3.60281 -0.0498978 4.77042 0.289533 0.127871
-32.1538 -3.6416 -0.0539636 4.7917 0.319871 0.168209
-32.1735 -3.68177 -0.0580605 4.81278 0.350078 0.210956
-32.1886 -3.72366 -0.0623866 4.83369 0.380101 0.256411
-32.2011 -3.76724 -0.0669785 4.85452 0.409968 0.304791
-32.2118 -3.8126 -0.0718474 4.87525 0.439724 0.35633
-32.223 -3.8598 -0.0769656 4.89567 0.46934 0.411348
-32.2394 -3.90913 -0.0824553 4.91562 0.498271 0.470184
-32.2688 -3.95982 -0.0880376 4.93485 0.526975 0.533496
-32.5527 -3.56909 -0.049004 4.79392 0.314909 0.10621
-32.574 -3.60695 -0.0530844 4.81824 0.346426 0.146374
-32.5836 -3.64583 -0.0569511 4.84264 0.378126 0.189135
-32.5889 -3.68645 -0.0609978 4.86676 0.410165 0.234768
-32.5952 -3.7292 -0.0656256 4.89088 0.441922 0.283562
-32.5949 -3.77372 -0.0704692 4.91493 0.47355 0.33531
-32.5926 -3.82019 -0.0755602 4.93869 0.50524 0.390566
-32.5953 -3.86887 -0.0810723 4.96205 0.536605 0.450045
-33.0293 -3.64617 -0.0595434 4.89978 0.440813 0.212783
-33.0245 -3.68785 -0.0640807 4.92739 0.473913 0.26156
-33.0145 -3.73158 -0.0689349 4.955 0.506996 0.313229
-32.9973 -3.77741 -0.0739094 4.98206 0.540993 0.368189
-32.9869 -3.82535 -0.079372 5.00865 0.575103 0.427955
-87.7844 -0.613439 -0.0570597 0.487815 0.274117 0.0611436
-88.1262 -0.643659 -0.0608077 0.506475 0.316182 0.0712534
-88.4795 -0.674906 -0.0648571 0.525686 0.359094 0.0837104
-88.8414 -0.707197 -0.0690517 0.545398 0.403194 0.0983821
-89.2122 -0.740689 -0.0733477 0.565447 0.448738 0.115297
-89.5929 -0.775525 -0.0777535 0.585706 0.495727 0.134449
-89.9855 -0.811848 -0.0823309 0.605968 0.543966 0.155922
-90.4008 -0.850271 -0.0875394 0.626007 0.593191 0.179567
-88.0253 -0.588856 -0.0560642 0.464256 0.28099 0.0328247
-88.3878 -0.615869 -0.0597041 0.483078 0.324361 0.0425282
-88.7637 -0.644051 -0.0637453 0.502677 0.368632 0.0544179
-89.1484 -0.673427 -0.0679898 0.522887 0.414211 0.0684468
-89.5421 -0.704177 -0.0724132 0.543554 0.461328 0.0846539
-89.9458 -0.736423 -0.0770187 0.564559 0.509976 0.103078
-90.3614 -0.770231 -0.0818265 0.585694 0.559964 0.123864
-90.7958 -0.805841 -0.0870317 0.60624 0.610781 0.147142
-91.2378 -0.842979 -0.0921116 0.626311 0.662984 0.173925
-88.2631 -0.563517 -0.0549417 0.437589 0.287633 0.00350717
-88.6493 -0.587418 -0.0585925 0.456563 0.332294 0.0128098
-89.0487 -0.612594 -0.0626716 0.476486 0.377962 0.024042
-89.4569 -0.638978 -0.0669635 0.497161 0.424983 0.0373353
-89.8745 -0.666719 -0.0714558 0.518417 0.473538 0.0527762
-90.3025 -0.695952 -0.0761521 0.540101 0.523662 0.0704575
-90.7422 -0.726804 -0.0810615 0.561994 0.575277 0.0905517
-91.1951 -0.75943 -0.0861808 0.583742 0.628319 0.113342
-91.6682 -0.794296 -0.0917965 0.604831 0.682663 0.139433
-88.0843 -0.517374 -0.0498906 0.389655 0.24954 -0.0332206
-88.4957 -0.537527 -0.0536799 0.40773 0.294239 -0.0265537
-88.9091 -0.558393 -0.0574732 0.426697 0.339839 -0.0178358
-89.3331 -0.580416 -0.0615747 0.446886 0.386844 -0.00730981
-89.7659 -0.603656 -0.065897 0.467943 0.435268 0.00521152
-90.2084 -0.628242 -0.0704399 0.489691 0.485263 0.0198485
-90.6614 -0.654317 -0.0752091 0.511971 0.5369 0.0367318
-91.126 -0.682051 -0.0802025 0.534564 0.590184 0.0560551
-91.6031 -0.711649 -0.0854085 0.557142 0.64512 0.0781052
-92.0981 -0.743561 -0.0910922 0.5792 0.701629 0.103668
-88.2912 -0.494443 -0.0487546 0.356055 0.254158 -0.0635573
-88.7248 -0.511233 -0.0524602 0.374155 0.299996 -0.0573397
-89.1664 -0.528843 -0.0563422 0.393376 0.346963 -0.0493684
-89.6158 -0.547574 -0.060453 0.413772 0.395257 -0.0396006
-90.0742 -0.567528 -0.0647886 0.43513 0.445046 -0.0278941
-90.5424 -0.588811 -0.0693628 0.457275 0.496479 -0.014107
-91.0213 -0.611572 -0.0741845 0.480063 0.549655 0.0019133
-91.5116 -0.636015 -0.0792414 0.503294 0.604635 0.020374
-92.0139 -0.66239 -0.0845147 0.526651 0.661478 0.0415696
-92.5321 -0.691129 -0.0902365 0.549647 0.720164 0.0663902
-88.4929 -0.471896 -0.0479059 0.319536 0.258367 -0.0944051
-88.9513 -0.485189 -0.0515269 0.337161 0.305301 -0.0890402
-89.42 -0.498818 -0.0551937 0.356506 0.353636 -0.0817453
-89.8959 -0.514128 -0.0593002 0.37705 0.403177 -0.072786
-90.3805 -0.530663 -0.0636304 0.398626 0.454296 -0.061944
-90.8752 -0.5485 -0.068216 0.42107 0.507157 -0.0490608
-91.3809 -0.567781 -0.0730692 0.444275 0.561884 -0.0339749
-91.8978 -0.588749 -0.0781662 0.468076 0.618574 -0.0164755
-92.4259 -0.611701 -0.0834824 0.49216 0.677331 0.00374172
-92.969 -0.637068 -0.0892318 0.516044 0.738191 0.0275972
-89.171 -0.457435 -0.0499305 0.296524 0.310507 -0.121435
-89.6691 -0.468378 -0.054021 0.315998 0.359836 -0.114916
-90.172 -0.480143 -0.0581031 0.336633 0.410585 -0.106815
-90.6835 -0.493138 -0.0624074 0.358345 0.462995 -0.0968914
-91.2056 -0.507385 -0.0669842 0.380982 0.51727 -0.0849702
-91.7389 -0.523013 -0.0718471 0.404509 0.573552 -0.0708917
-92.2832 -0.540311 -0.0769564 0.428811 0.631951 -0.0544568
-92.8402 -0.559861 -0.0824654 0.453732 0.69226 -0.0351234
-93.4059 -0.581465 -0.0880195 0.478373 0.755289 -0.0128238
-89.3887 -0.430917 -0.0490888 0.252821 0.314851 -0.154137
-89.9134 -0.438403 -0.0532181 0.272198 0.36492 -0.148522
-90.4432 -0.446039 -0.0570486 0.292783 0.416781 -0.141391
-90.9797 -0.454927 -0.0610077 0.314399 0.470813 -0.132719
-91.5323 -0.465559 -0.06565 0.33692 0.526799 -0.121777
-92.0942 -0.477347 -0.0704981 0.360669 0.584637 -0.108771
-92.6666 -0.49077 -0.0755857 0.38541 0.644723 -0.0935039
-93.2526 -0.506399 -0.0810883 0.410808 0.707236 -0.0753306
-91.271 -0.416076 -0.0595606 0.26608 0.478811 -0.169195
-91.8532 -0.422706 -0.0641818 0.28879 0.535792 -0.159126
-92.4466 -0.430568 -0.0690496 0.312656 0.594695 -0.147141
-93.0471 -0.440097 -0.0740297 0.337939 0.656263 -0.133621
-93.6597 -0.451815 -0.0794359 0.363727 0.720965 -0.117079
17.7123 -6.59252 -0.0577312 -0.642947 0.0418083 -0.229989
17.435 -6.62865 -0.0615412 -0.662377 0.0511447 -0.266678
17.1483 -6.66625 -0.0656831 -0.682258 0.0627977 -0.304284
16.8499 -6.70513 -0.0699932 -0.702518 0.0766225 -0.343049
16.538 -6.74532 -0.0743942 -0.72298 0.0926115 -0.383173
16.2112 -6.78699 -0.0788788 -0.743499 0.110697 -0.424687
15.8686 -6.83041 -0.0835327 -0.763841 0.130917 -0.467529
15.5072 -6.87679 -0.088859 -0.783751 0.153069 -0.511561
18.1427 -6.60152 -0.0567784 -0.619881 0.0127091 -0.236014
17.9177 -6.63797 -0.060509 -0.639495 0.0216554 -0.273798
17.6832 -6.67607 -0.0646408 -0.659812 0.0327543 -0.312582
17.4357 -6.71549 -0.0689802 -0.680614 0.0459479 -0.35263
17.1727 -6.7563 -0.0735015 -0.701742 0.0612406 -0.394105
16.8928 -6.79867 -0.0782095 -0.723074 0.0786122 -0.437028
16.596 -6.84283 -0.0831271 -0.744373 0.0981706 -0.481329
16.2828 -6.88945 -0.0884411 -0.764867 0.120039 -0.526638
15.9498 -6.93756 -0.0936436 -0.784594 0.145214 -0.573493
18.5824 -6.60999 -0.0556965 -0.593385 -0.0174294 -0.241964
18.4107 -6.64704 -0.0594532 -0.613161 -0.00885653 -0.280823
18.2281 -6.68574 -0.0636252 -0.63384 0.00160558 -0.320758
18.0325 -6.72574 -0.0680162 -0.655165 0.0140641 -0.362005
17.8219 -6.76716 -0.0726101 -0.67695 0.028583 -0.404692
17.5948 -6.81016 -0.0774118 -0.69903 0.0452237 -0.448874
17.3501 -6.85493 -0.0824339 -0.721153 0.0641378 -0.494562
17.0862 -6.90168 -0.0876721 -0.742918 0.0856108 -0.541776
16.8005 -6.95124 -0.0934229 -0.763757 0.110193 -0.590439
19.1367 -6.58051 -0.0506777 -0.544249 -0.0544088 -0.209166
19.0289 -6.61787 -0.0545141 -0.563273 -0.0483692 -0.247939
18.912 -6.65578 -0.0583893 -0.583102 -0.0403384 -0.287558
18.7838 -6.6951 -0.0625867 -0.604086 -0.0305606 -0.328603
18.6426 -6.73571 -0.0670112 -0.625845 -0.0188691 -0.371022
18.4868 -6.77776 -0.0716601 -0.648187 -0.00515526 -0.414926
18.3148 -6.82139 -0.0765394 -0.670929 0.0107029 -0.460393
18.1245 -6.86678 -0.0816502 -0.693823 0.0288905 -0.507495
17.9137 -6.91411 -0.0869774 -0.716492 0.0496857 -0.55631
17.6792 -6.96407 -0.0928119 -0.738391 0.073829 -0.606801
19.5326 -6.58758 -0.0495628 -0.510063 -0.0856884 -0.213411
19.4807 -6.62534 -0.0533374 -0.529097 -0.0800683 -0.253163
19.4207 -6.66414 -0.0573122 -0.549204 -0.072744 -0.293977
19.3491 -6.7041 -0.0615215 -0.570429 -0.0637006 -0.3361
19.2646 -6.74534 -0.0659625 -0.592537 -0.0528156 -0.379671
19.166 -6.78803 -0.0706469 -0.615334 -0.0399497 -0.424791
19.0514 -6.8323 -0.0755837 -0.638651 -0.0249382 -0.471556
18.9184 -6.8783 -0.0807627 -0.662255 -0.00756936 -0.520088
18.7636 -6.92619 -0.0861604 -0.685782 0.0124367 -0.570518
18.5837 -6.97657 -0.0920437 -0.708713 0.0359238 -0.622847
19.9233 -6.59449 -0.0487996 -0.472555 -0.117464 -0.217415
19.9301 -6.63277 -0.0524896 -0.491092 -0.112698 -0.258077
19.9358 -6.67206 -0.0562171 -0.511353 -0.106022 -0.300058
19.923 -6.71267 -0.0604248 -0.532759 -0.0977641 -0.343234
19.8972 -6.75456 -0.0648635 -0.555129 -0.087733 -0.387939
19.858 -6.79788 -0.0695635 -0.578279 -0.0757702 -0.434269
19.8035 -6.84279 -0.0745371 -0.602077 -0.0616777 -0.482335
19.7304 -6.8894 -0.0797608 -0.626324 -0.0452246 -0.532301
19.6348 -6.93785 -0.0852051 -0.65066 -0.0261254 -0.584351
19.5128 -6.98869 -0.0911194 -0.674572 -0.00351941 -0.63852
20.3981 -6.6389 -0.0508946 -0.44903 -0.146043 -0.263022
20.456 -6.67947 -0.0550963 -0.46945 -0.140125 -0.305787
20.5039 -6.72075 -0.0592833 -0.490978 -0.132694 -0.349992
20.5389 -6.76328 -0.0636983 -0.513521 -0.123571 -0.395816
20.5613 -6.80725 -0.0683936 -0.536911 -0.112576 -0.443346
20.5696 -6.85281 -0.0733838 -0.561093 -0.0994756 -0.492703
20.5595 -6.90002 -0.0786251 -0.585915 -0.0840356 -0.544096
20.524 -6.94932 -0.0843049 -0.611198 -0.0657435 -0.597393
20.4636 -7.00022 -0.0900053 -0.635932 -0.0446215 -0.653397
20.8533 -6.64553 -0.0501419 -0.403558 -0.179677 -0.267264
20.9707 -6.68682 -0.0544189 -0.423914 -0.174651 -0.310615
21.0862 -6.72849 -0.0583313 -0.445424 -0.168164 -0.355719
21.1879 -6.77114 -0.0623431 -0.467851 -0.160311 -0.402972
21.2743 -6.81608 -0.0671293 -0.491122 -0.15031 -0.452012
21.3482 -6.86228 -0.0721095 -0.515588 -0.138267 -0.502645
21.404 -6.91007 -0.0773346 -0.540927 -0.123925 -0.55544
21.4358 -6.95994 -0.0829776 -0.566752 -0.106728 -0.610667
21.8451 -6.77847 -0.0609486 -0.417321 -0.197706 -0.410491
21.9985 -6.82416 -0.0657912 -0.440935 -0.188578 -0.460254
22.1403 -6.87117 -0.0707838 -0.465507 -0.177574 -0.511703
22.2624 -6.91951 -0.0759048 -0.491403 -0.164935 -0.565759
22.3608 -6.96972 -0.0814201 -0.517668 -0.149306 -0.622938
-44.7709 -3.16871 -0.0573725 -4.50679 0.157433 -0.0970048
-45.3347 -3.19113 -0.0611301 -4.50965 0.185684 -0.112146
-45.9162 -3.21482 -0.0652087 -4.51278 0.216251 -0.126451
-46.5151 -3.23988 -0.0694767 -4.51596 0.249121 -0.140161
-47.1301 -3.26652 -0.0738429 -4.51912 0.284386 -0.153376
-47.761 -3.29502 -0.0782904 -4.52232 0.322043 -0.166118
-48.4069 -3.32584 -0.0829128 -4.52568 0.362175 -0.178317
-49.0725 -3.36017 -0.0882366 -4.52958 0.404643 -0.190051
-44.3916 -3.17077 -0.0563923 -4.53853 0.14081 -0.116746
-44.938 -3.19099 -0.0600831 -4.54476 0.169404 -0.132731
-45.5065 -3.21245 -0.0641742 -4.55132 0.200279 -0.148043
-46.0935 -3.23523 -0.0684732 -4.55787 0.233469 -0.162874
-46.6992 -3.25962 -0.0729563 -4.56432 0.269039 -0.17728
-47.3236 -3.28592 -0.0776287 -4.57071 0.307006 -0.191244
-47.9654 -3.31447 -0.082511 -4.5772 0.34749 -0.204656
-48.6191 -3.34632 -0.0877962 -4.58416 0.390423 -0.217247
-49.281 -3.3809 -0.0929523 -4.591 0.436864 -0.228742
-43.962 -3.17456 -0.0553265 -4.57055 0.123529 -0.137078
-44.4916 -3.19273 -0.0590577 -4.58037 0.152462 -0.153879
-45.0462 -3.21202 -0.0631944 -4.59041 0.183522 -0.170225
-45.6212 -3.23252 -0.0675509 -4.60044 0.216862 -0.186156
-46.2164 -3.25452 -0.0721107 -4.61041 0.252577 -0.201686
-46.8312 -3.27835 -0.0768785 -4.62032 0.290763 -0.216788
-47.4644 -3.3044 -0.0818672 -4.63027 0.331598 -0.231383
-48.1129 -3.3332 -0.0870641 -4.6403 0.37536 -0.245341
-48.7756 -3.36587 -0.0927965 -4.65066 0.422424 -0.258253
-42.9831 -3.16453 -0.0504415 -4.58892 0.0787281 -0.139605
-43.4794 -3.18033 -0.0542076 -4.6027 0.105755 -0.157873
-43.9919 -3.19653 -0.0580263 -4.61635 0.134714 -0.175408
-44.531 -3.21361 -0.0621945 -4.63005 0.16591 -0.19279
-45.0923 -3.23178 -0.0665908 -4.64373 0.199369 -0.209829
-45.6748 -3.25137 -0.0712101 -4.65736 0.235213 -0.226507
-46.2782 -3.2727 -0.0760578 -4.67096 0.273589 -0.242793
-46.9012 -3.29618 -0.0811369 -4.68453 0.314728 -0.258633
-47.5414 -3.32233 -0.0864249 -4.69806 0.35893 -0.273923
-48.1973 -3.35221 -0.0922555 -4.71171 0.406731 -0.288145
-42.4642 -3.17465 -0.0493007 -4.61761 0.0596912 -0.159507
-42.9398 -3.18833 -0.0530348 -4.63506 0.0869977 -0.178587
-43.4373 -3.20248 -0.0569886 -4.65261 0.11618 -0.19728
-43.9595 -3.2173 -0.0611747 -4.67013 0.147467 -0.215711
-44.5051 -3.23313 -0.0655945 -4.68761 0.181016 -0.233871
-45.0731 -3.25027 -0.0702546 -4.70507 0.216961 -0.251724
-45.6631 -3.26906 -0.0751631 -4.72251 0.255484 -0.26924
-46.2742 -3.28989 -0.0803131 -4.73987 0.296863 -0.286386
-46.9042 -3.31328 -0.0856737 -4.75709 0.341436 -0.303083
-47.5518 -3.34023 -0.0915607 -4.77425 0.389828 -0.318758
-41.9023 -3.18741 -0.0485956 -4.64581 0.0402724 -0.179588
-42.3505 -3.19918 -0.0522403 -4.66717 0.0674781 -0.199709
-42.8265 -3.21065 -0.0559391 -4.68906 0.0968851 -0.219459
-43.3303 -3.22319 -0.0601307 -4.71054 0.128221 -0.238958
-43.8583 -3.23663 -0.0645553 -4.73197 0.161829 -0.258262
-44.4096 -3.2513 -0.0692369 -4.75341 0.197835 -0.277317
-44.9842 -3.2675 -0.0741862 -4.77485 0.236447 -0.296103
-45.5815 -3.28561 -0.0793848 -4.79619 0.277995 -0.314616
-46.1996 -3.30613 -0.0847955 -4.81728 0.322862 -0.332798
-46.8371 -3.33005 -0.0907158 -4.83818 0.371688 -0.350065
-41.6955 -3.21116 -0.0506571 -4.69986 0.0475839 -0.22131
-42.1581 -3.22114 -0.0548723 -4.72559 0.0768588 -0.241916
-42.6421 -3.23134 -0.0590509 -4.75117 0.108211 -0.262505
-43.1508 -3.24239 -0.0634604 -4.77668 0.141844 -0.282976
-43.6832 -3.25457 -0.0681442 -4.80225 0.177862 -0.303261
-44.2402 -3.26813 -0.073115 -4.82788 0.216495 -0.323353
-44.8218 -3.28341 -0.0783353 -4.85336 0.258135 -0.343291
-45.4312 -3.3012 -0.08404 -4.87851 0.303095 -0.362603
-46.0528 -3.32173 -0.0897159 -4.90319 0.351926 -0.381864
-41.0023 -3.22654 -0.0499829 -4.73194 0.0271186 -0.242611
-41.4438 -3.2344 -0.0542802 -4.76173 0.0560682 -0.264056
-41.9028 -3.24188 -0.0582038 -4.79171 0.0872366 -0.285696
-42.3829 -3.25006 -0.0621697 -4.82142 0.12084 -0.307788
-42.8927 -3.26016 -0.0669609 -4.85147 0.157084 -0.329523
-43.4299 -3.27103 -0.071928 -4.88146 0.195671 -0.35095
-43.9938 -3.2834 -0.0771417 -4.91128 0.237322 -0.372361
-44.5846 -3.29811 -0.0827909 -4.94085 0.282683 -0.393473
-41.546 -3.2605 -0.0608752 -4.86646 0.099777 -0.333311
-42.0388 -3.26796 -0.065827 -4.90095 0.135724 -0.355826
-42.553 -3.27629 -0.0707938 -4.93551 0.173968 -0.378228
-43.0985 -3.28565 -0.0758816 -4.96975 0.215159 -0.401411
-43.6681 -3.29719 -0.0813656 -5.0036 0.260632 -0.424679
-24.8743 -4.35728 -0.0573159 4.46618 0.0901234 0.155134
-24.9755 -4.40796 -0.0610857 4.46861 0.104381 0.180748
-25.0884 -4.46051 -0.0651616 4.47138 0.117888 0.208223
-25.2161 -4.51497 -0.0694452 4.47423 0.130935 0.237582
-25.3625 -4.5713 -0.0738294 4.47713 0.143612 0.268968
-25.5319 -4.62954 -0.078295 4.48015 0.155872 0.302407
-25.7307 -4.68985 -0.082945 4.48344 0.167542 0.337911
-25.9705 -4.75306 -0.0883084 4.48743 0.178645 0.375269
-24.9855 -4.32784 -0.0562907 4.50052 0.105222 0.142441
-25.0608 -4.37624 -0.0600092 4.50658 0.120257 0.168454
-25.1453 -4.42684 -0.0641139 4.51302 0.134678 0.196275
-25.2432 -4.47941 -0.068425 4.51949 0.148736 0.225997
-25.359 -4.53404 -0.0729155 4.52592 0.162483 0.257738
-25.4964 -4.59085 -0.0775921 4.53236 0.175839 0.29154
-25.6613 -4.64986 -0.0824804 4.53902 0.188619 0.32745
-25.8685 -4.71105 -0.0878064 4.5463 0.200545 0.365293
-26.1151 -4.7738 -0.0929711 4.55359 0.211389 0.40601
-25.1372 -4.29499 -0.055211 4.53519 0.120721 0.129187
-25.1876 -4.34119 -0.0589728 4.54511 0.136505 0.155596
-25.2444 -4.38978 -0.0631215 4.55531 0.151887 0.183683
-25.3121 -4.44044 -0.0674877 4.56553 0.166938 0.213652
-25.3956 -4.49323 -0.0720543 4.57573 0.181674 0.245626
-25.4994 -4.54825 -0.0768268 4.58596 0.196033 0.279696
-25.6298 -4.60552 -0.0818215 4.59632 0.209894 0.315971
-25.795 -4.66499 -0.0870299 4.60689 0.223119 0.354621
-26.0093 -4.72703 -0.0927823 4.61791 0.235307 0.39596
-25.3127 -4.21605 -0.0504189 4.55585 0.119453 0.0907575
-25.3347 -4.25858 -0.0541307 4.57 0.13652 0.1156
-25.3596 -4.30254 -0.0579322 4.5841 0.152965 0.142062
-25.3884 -4.34898 -0.0621103 4.59824 0.169298 0.170359
-25.4262 -4.39756 -0.0665153 4.61239 0.18534 0.200539
-25.4777 -4.44835 -0.071141 4.62655 0.201087 0.23273
-25.5479 -4.50141 -0.0759937 4.64073 0.216498 0.267053
-25.6432 -4.55679 -0.0810778 4.65497 0.231493 0.303666
-25.7716 -4.61448 -0.0863755 4.66927 0.245956 0.342776
-25.9466 -4.67482 -0.0922255 4.68382 0.25937 0.384861
-25.5817 -4.17824 -0.0492123 4.58705 0.134289 0.0760005
-25.58 -4.21826 -0.05293 4.60517 0.152092 0.101152
-25.5786 -4.26021 -0.0568896 4.62344 0.16961 0.127864
-25.5794 -4.30435 -0.0610852 4.6417 0.186893 0.156323
-25.5872 -4.3507 -0.0655134 4.65996 0.203931 0.186679
-25.607 -4.3993 -0.0701802 4.67825 0.22071 0.219061
-25.6437 -4.45023 -0.0750941 4.69656 0.237216 0.253611
-25.7033 -4.50356 -0.0802486 4.71486 0.253402 0.29052
-25.794 -4.55928 -0.0856172 4.73311 0.269162 0.330035
-25.9283 -4.61774 -0.0915179 4.75141 0.28393 0.372733
-25.8996 -4.13801 -0.0485055 4.61771 0.149179 0.060856
-25.8785 -4.17504 -0.0521575 4.64008 0.167937 0.0859935
-25.8463 -4.21412 -0.0558396 4.66303 0.186415 0.113018
-25.819 -4.25583 -0.0600426 4.68558 0.204657 0.141597
-25.7971 -4.29977 -0.0644755 4.70812 0.222699 0.172092
-25.7855 -4.34601 -0.0691641 4.73069 0.24053 0.204635
-25.7885 -4.39463 -0.0741201 4.75331 0.258168 0.239371
-25.812 -4.44572 -0.0793238 4.77589 0.2756 0.276525
-25.8641 -4.49929 -0.0847415 4.79829 0.292724 0.31638
-25.9568 -4.55567 -0.0906665 4.82058 0.308964 0.359549
-26.2181 -4.12675 -0.0505517 4.67565 0.184125 0.0705418
-26.1643 -4.16418 -0.0547818 4.70277 0.203358 0.0975457
-26.1088 -4.20332 -0.0589738 4.72977 0.222576 0.126208
-26.0575 -4.24471 -0.0633919 4.75672 0.24163 0.156804
-26.0148 -4.28839 -0.068084 4.78375 0.260526 0.189472
-25.9843 -4.33451 -0.0730642 4.81088 0.279333 0.224352
-25.9712 -4.38317 -0.0782914 4.83792 0.298065 0.261686
-25.9839 -4.43499 -0.0840244 4.86466 0.31619 0.301696
-26.0336 -4.48862 -0.0896839 4.89099 0.334282 0.344933
-26.6115 -4.07673 -0.0498938 4.71064 0.199891 0.0545178
-26.5321 -4.1116 -0.0542109 4.74216 0.219851 0.0812647
-26.4462 -4.14761 -0.0581472 4.77392 0.240002 0.109855
-26.3645 -4.18539 -0.0620881 4.80539 0.260517 0.140561
-26.297 -4.22638 -0.0669186 4.83729 0.280678 0.173614
-26.2329 -4.26979 -0.071903 4.86914 0.300687 0.208597
-26.1823 -4.31582 -0.0771281 4.90086 0.320777 0.24604
-26.1555 -4.36485 -0.0827776 4.93236 0.34053 0.286521
-26.7316 -4.1215 -0.0608441 4.8545 0.279963 0.124321
-26.6292 -4.16023 -0.0659074 4.89115 0.300713 0.157222
-26.5348 -4.20071 -0.0709068 4.92789 0.321534 0.192025
-26.4468 -4.24395 -0.0759937 4.9644 0.343224 0.229137
-26.3808 -4.28984 -0.0814272 5.00055 0.364943 0.269817
0 0 0 0 0 0
0 0 0 0 0 0
0 0 0 0 0 0
0 0 0 0 0 0
0 0 0 0 0 0
0 0 0 0 0 0
0 0 0 0 0 0
0 0 0 0 0 0
0 0 0 0 0 0
0 0 0 0 0 0
0 0 0 0 0 0
0 0 0 0 0 0
0 0 0 0 0 0
0 0 0 0 0 0
0 0 0 0 0 0
0 0 0 0 0 0
0 0 0 0 0 0
0 0 0 0 0 0
0 0 0 0 0 0
0 0 0 0 0 0
0 0 0 0 0 0
0 0 0 0 0 0
0 0 0 0 0 0
0 0 0 0 0 0
0 0 0 0 0 0
0 0 0 0 0 0
0 0 0 0 0 0
0 0 0 0 0 0
0 0 0 0 0 0
0 0 0 0 0 0
0 0 0 0 0 0
0 0 0 0 0 0
0 0 0 0 0 0
0 0 0 0 0 0
0 0 0 0 0 0
0 0 0 0 0 0
0 0 0 0 0 0
0 0 0 0 0 0
0 0 0 0 0 0
0 0 0 0 0 0
0 0 0 0 0 0
0 0 0 0 0 0
0 0 0 0 0 0
0 0 0 0 0 0
0 0 0 0 0 0
0 0 0 0 0 0
0 0 0 0 0 0
0 0 0 0 0 0
0 0 0 0 0 0
0 0 0 0 0 0
0 0 0 0 0 0
0 0 0 0 0 0
0 0 0 0 0 0
0 0 0 0 0 0
0 0 0 0 0 0
0 0 0 0 0 0
0 0 0 0 0 0
0 0 0 0 0 0
0 0 0 0 0 0
0 0 0 0 0 0
0 0 0 0 0 0
0 0 0 0 0 0
0 0 0 0 0 0
0 0 0 0 0 0
0 0 0 0 0 0
0 0 0 0 0 0
0 0 0 0 0 0
0 0 0 0 0 0
0 0 0 0 0 0
0 0 0 0 0 0
0 0 0 0 0 0
0 0 0 0 0 0
0 0 0 0 0 0
0 0 0 0 0 0
0 0 0 0 0 0
0 0 0 0 0 0
0 0 0 0 0 0
0 0 0 0 0 0
-87.7777 -0.909954 -0.0571851 1.11496 0.168933 0.0258033
-88.159 -0.947196 -0.0609416 1.13677 0.194751 0.0311717
-88.5619 -0.986076 -0.0650137 1.15878 0.221018 0.0379809
-88.9853 -1.02694 -0.0693117 1.18084 0.247987 0.0460641
-89.4306 -1.06989 -0.0736976 1.20272 0.275866 0.0554177
-89.9012 -1.11507 -0.0781434 1.22419 0.304661 0.0659985
-90.4023 -1.16276 -0.0827707 1.24491 0.334205 0.0778174
-90.9477 -1.21376 -0.0881566 1.26453 0.36431 0.0906054
-88.0381 -0.868176 -0.0561155 1.09364 0.173203 0.00830233
-88.4375 -0.900108 -0.0598323 1.11569 0.199877 0.0135028
-88.8599 -0.933741 -0.0639332 1.13829 0.227045 0.0200017
-89.302 -0.969334 -0.0682373 1.16103 0.254994 0.0277276
-89.7654 -1.0072 -0.0727126 1.18375 0.283887 0.036682
-90.2536 -1.04754 -0.0773685 1.20625 0.313719 0.0468551
-90.7714 -1.09043 -0.0822415 1.2282 0.344344 0.0583063
-91.3289 -1.13622 -0.08758 1.24863 0.375366 0.0710345
-91.9157 -1.1847 -0.0927377 1.26747 0.4072 0.0857798
-88.295 -0.825342 -0.0550076 1.06787 0.177436 -0.00987374
-88.7163 -0.851855 -0.0587647 1.09014 0.204939 -0.00479412
-89.159 -0.88017 -0.0629053 1.11323 0.233009 0.00134268
-89.6209 -0.910422 -0.0672609 1.13668 0.261884 0.00864974
-90.1041 -0.942884 -0.0718111 1.16026 0.291681 0.0171658
-90.6115 -0.977778 -0.0765644 1.18372 0.32242 0.0269262
-91.1475 -1.0153 -0.0815443 1.20671 0.354044 0.038014
-91.716 -1.05568 -0.0867547 1.22868 0.3865 0.0505794
-92.3271 -1.09962 -0.0925232 1.2489 0.419678 0.0650063
-88.1131 -0.762143 -0.0502671 1.01521 0.154248 -0.0319897
-88.5476 -0.781728 -0.0539437 1.03722 0.181765 -0.0284597
-88.9937 -0.802488 -0.0577018 1.05974 0.209767 -0.0236943
-89.4581 -0.82523 -0.0618669 1.08326 0.238689 -0.0179533
-89.9411 -0.849886 -0.066258 1.10732 0.268457 -0.011086
-90.4451 -0.876702 -0.0708674 1.13165 0.299161 -0.00302548
-90.973 -0.905922 -0.075704 1.15599 0.33084 0.00629351
-91.528 -0.937805 -0.0807754 1.17998 0.363499 0.0169695
-92.1137 -0.972655 -0.0860728 1.2031 0.397136 0.0291527
-92.739 -1.01118 -0.0919373 1.22469 0.431674 0.0434302
-88.3406 -0.722898 -0.049005 0.979446 0.157162 -0.0507901
-88.797 -0.736824 -0.0527021 1.00141 0.185415 -0.0474625
-89.2687 -0.752079 -0.0566393 1.02433 0.214349 -0.043167
-89.756 -0.76901 -0.0608197 1.04821 0.244086 -0.0378595
-90.2613 -0.787828 -0.065231 1.07278 0.27472 -0.0314572
-90.7873 -0.808756 -0.0698815 1.09775 0.30633 -0.0238763
-91.3365 -0.83205 -0.0747821 1.12288 0.338974 -0.0150365
-91.9117 -0.858017 -0.0799257 1.14781 0.372693 -0.00482966
-92.5157 -0.887014 -0.0852942 1.17206 0.407521 0.00690241
-93.1563 -0.91975 -0.0912068 1.195 0.443425 0.0208605
-88.5626 -0.684335 -0.0482896 0.939134 0.159828 -0.0698988
-89.0428 -0.692212 -0.0519211 0.96057 0.188795 -0.0671575
-89.54 -0.700705 -0.0555741 0.983749 0.218669 -0.0631843
-90.0515 -0.711603 -0.0597615 1.00792 0.249196 -0.0583473
-90.5802 -0.724352 -0.0641749 1.0329 0.280673 -0.0524411
-91.1291 -0.739149 -0.0688473 1.05841 0.313187 -0.0453707
-91.7008 -0.756252 -0.0737935 1.08423 0.346808 -0.037053
-92.2973 -0.776005 -0.0789887 1.11004 0.381601 -0.0273761
-92.9206 -0.798826 -0.0844069 1.13537 0.417631 -0.0161684
-93.5778 -0.82542 -0.090337 1.15962 0.454896 -0.00270397
-89.2806 -0.645063 -0.0502687 0.914455 0.192272 -0.087289
-89.8067 -0.648454 -0.0545073 0.937861 0.222721 -0.0837205
-90.3433 -0.653101 -0.0586853 0.962258 0.254022 -0.0793863
-90.8962 -0.659566 -0.0630798 0.987542 0.286317 -0.0740107
-91.4691 -0.667991 -0.0677557 1.01346 0.31973 -0.0674864
-92.0645 -0.678618 -0.0727321 1.03986 0.354337 -0.0597333
-92.6834 -0.691846 -0.0779555 1.06648 0.39021 -0.0506483
-93.3301 -0.708686 -0.0837206 1.09312 0.427066 -0.0398145
-93.9999 -0.728523 -0.0893549 1.11843 0.465695 -0.0273935
-89.5174 -0.59931 -0.0496453 0.863809 0.195042 -0.107523
-90.0692 -0.59665 -0.054011 0.887261 0.225855 -0.104555
-90.6309 -0.594303 -0.0579164 0.911773 0.257822 -0.100779
-91.2029 -0.5935 -0.0617623 0.93691 0.29131 -0.0962311
-91.8061 -0.595395 -0.0665993 0.962751 0.325977 -0.0901952
-92.4265 -0.599243 -0.0715888 0.989625 0.361586 -0.083038
-93.0688 -0.605623 -0.0768132 1.017 0.398529 -0.0745991
-93.7379 -0.615326 -0.0824592 1.04445 0.436881 -0.0643663
-91.5075 -0.526224 -0.0605182 0.879956 0.29673 -0.118814
-92.1384 -0.52175 -0.0656824 0.906619 0.33177 -0.113128
-92.7852 -0.518703 -0.0706995 0.93361 0.367929 -0.106514
-93.4518 -0.518021 -0.075802 0.961647 0.405836 -0.0992314
-94.1402 -0.520302 -0.0811562 0.989697 0.445745 -0.0900382
0 0 0 0 0 0
0 0 0 0 0 0
0 0 0 0 0 0
0 0 0 0 0 0
0 0 0 0 0 0
0 0 0 0 0 0
0 0 0 0 0 0
0 0 0 0 0 0
0 0 0 0 0 0
0 0 0 0 0 0
0 0 0 0 0 0
0 0 0 0 0 0
0 0 0 0 0 0
0 0 0 0 0 0
0 0 0 0 0 0
0 0 0 0 0 0
0 0 0 0 0 0
0 0 0 0 0 0
0 0 0 0 0 0
0 0 0 0 0 0
0 0 0 0 0 0
0 0 0 0 0 0
0 0 0 0 0 0
0 0 0 0 0 0
0 0 0 0 0 0
0 0 0 0 0 0
0 0 0 0 0 0
0 0 0 0 0 0
0 0 0 0 0 0
0 0 0 0 0 0
0 0 0 0 0 0
0 0 0 0 0 0
0 0 0 0 0 0
0 0 0 0 0 0
0 0 0 0 0 0
0 0 0 0 0 0
0 0 0 0 0 0
0 0 0 0 0 0
0 0 0 0 0 0
0 0 0 0 0 0
0 0 0 0 0 0
0 0 0 0 0 0
0 0 0 0 0 0
0 0 0 0 0 0
0 0 0 0 0 0
0 0 0 0 0 0
0 0 0 0 0 0
0 0 0 0 0 0
0 0 0 0 0 0
0 0 0 0 0 0
0 0 0 0 0 0
0 0 0 0 0 0
0 0 0 0 0 0
0 0 0 0 0 0
0 0 0 0 0 0
0 0 0 0 0 0
0 0 0 0 0 0
0 0 0 0 0 0
0 0 0 0 0 0
0 0 0 0 0 0
0 0 0 0 0 0
0 0 0 0 0 0
0 0 0 0 0 0
0 0 0 0 0 0
0 0 0 0 0 0
0 0 0 0 0 0
0 0 0 0 0 0
0 0 0 0 0 0
0 0 0 0 0 0
0 0 0 0 0 0
0 0 0 0 0 0
0 0 0 0 0 0
0 0 0 0 0 0
0 0 0 0 0 0
0 0 0 0 0 0
0 0 0 0 0 0
0 0 0 0 0 0
0 0 0 0 0 0
13.9738 -6.67946 -0.0578543 -1.27415 0.00343463 -0.101372
13.6176 -6.72038 -0.0616806 -1.29682 0.00734313 -0.118767
13.2478 -6.7637 -0.0658414 -1.31962 0.0125697 -0.1367
12.8582 -6.80944 -0.07026 -1.34237 0.0189419 -0.155246
12.4472 -6.85771 -0.0747805 -1.36481 0.026375 -0.174552
12.0142 -6.90882 -0.0793573 -1.38668 0.0347077 -0.194697
11.5577 -6.96333 -0.0841221 -1.40763 0.0438825 -0.215704
11.0745 -7.0227 -0.0896591 -1.42724 0.0535808 -0.237561
14.6263 -6.68478 -0.0568011 -1.25346 -0.0143753 -0.104097
14.3485 -6.72524 -0.0606169 -1.2764 -0.010579 -0.122001
14.057 -6.76822 -0.06482 -1.29984 -0.00559732 -0.140535
13.7463 -6.81352 -0.0692369 -1.32333 0.000488476 -0.159753
13.4121 -6.86135 -0.0738371 -1.34666 0.0075892 -0.179723
13.053 -6.91209 -0.0786281 -1.36964 0.0155786 -0.2005
12.6698 -6.96619 -0.0836448 -1.3919 0.0244661 -0.22213
12.2619 -7.02461 -0.0891464 -1.41244 0.0342654 -0.24442
11.8259 -7.08635 -0.0944614 -1.4311 0.0456881 -0.267726
15.2918 -6.68952 -0.0557327 -1.22797 -0.0328978 -0.107
15.096 -6.72977 -0.0595986 -1.25115 -0.0291354 -0.125372
14.8846 -6.77243 -0.0638449 -1.27513 -0.0244497 -0.144404
14.6541 -6.81735 -0.0683179 -1.29938 -0.0187497 -0.164151
14.4013 -6.86478 -0.0729956 -1.32365 -0.0120581 -0.184662
14.1242 -6.91507 -0.0778851 -1.34768 -0.00441002 -0.206002
13.8215 -6.96864 -0.0830108 -1.37106 0.0042443 -0.228249
13.4914 -7.02591 -0.0883711 -1.39321 0.0140639 -0.251469
13.1297 -7.08792 -0.0942906 -1.41335 0.0253532 -0.275599
16.0632 -6.65506 -0.0510416 -1.17411 -0.0543741 -0.0919128
15.9668 -6.69374 -0.0547563 -1.19718 -0.0518922 -0.11007
15.8588 -6.73384 -0.0585875 -1.22068 -0.0483468 -0.128645
15.7314 -6.77619 -0.0628629 -1.24513 -0.0439864 -0.148152
15.5852 -6.82075 -0.0673754 -1.27005 -0.0386836 -0.168413
15.4173 -6.86779 -0.0721153 -1.29514 -0.0324067 -0.18947
15.2255 -6.91763 -0.0770902 -1.32012 -0.0251243 -0.211388
15.0073 -6.97065 -0.0823102 -1.34459 -0.0167575 -0.234266
14.7596 -7.02724 -0.0877586 -1.36799 -0.00717421 -0.258193
14.4777 -7.08839 -0.0937899 -1.38961 0.00414176 -0.283153
16.6702 -6.65878 -0.0497733 -1.13786 -0.0736887 -0.093956
16.6589 -6.69719 -0.0535316 -1.16087 -0.0713367 -0.112586
16.6357 -6.73738 -0.0575774 -1.1848 -0.0681736 -0.131813
16.5959 -6.77945 -0.0618719 -1.20966 -0.0641748 -0.151782
16.5375 -6.82365 -0.0664086 -1.23514 -0.059286 -0.172552
16.4582 -6.87029 -0.0711923 -1.26095 -0.0534405 -0.194155
16.3554 -6.91968 -0.0762331 -1.28679 -0.0465607 -0.216653
16.2257 -6.97215 -0.0815274 -1.31229 -0.0385422 -0.240161
16.0652 -7.02803 -0.0870491 -1.33692 -0.0292574 -0.264804
15.8683 -7.08826 -0.0931408 -1.36 -0.0180824 -0.290597
17.2693 -6.66248 -0.0491334 -1.09663 -0.0932929 -0.0959868
17.3488 -6.70065 -0.0528494 -1.11911 -0.0914941 -0.115037
17.4251 -6.74035 -0.0565659 -1.14336 -0.0885768 -0.134869
17.4765 -6.78214 -0.0608711 -1.16855 -0.0849787 -0.155295
17.5094 -6.82599 -0.0654133 -1.19449 -0.0805287 -0.176575
17.5222 -6.87223 -0.0702216 -1.22089 -0.075146 -0.19872
17.5123 -6.92115 -0.07531 -1.24749 -0.068714 -0.221787
17.4755 -6.97305 -0.0806575 -1.27396 -0.0611026 -0.245924
17.4068 -7.02819 -0.0862318 -1.29977 -0.0521768 -0.271292
17.3002 -7.08746 -0.0923461 -1.32429 -0.0413143 -0.297914
18.0658 -6.70242 -0.0512207 -1.07168 -0.11211 -0.11776
18.2257 -6.74267 -0.0555532 -1.09618 -0.109536 -0.137812
18.3714 -6.78419 -0.0598538 -1.12163 -0.10636 -0.158696
18.4988 -6.82768 -0.0643797 -1.14792 -0.102382 -0.18049
18.6074 -6.87351 -0.069194 -1.17478 -0.0975084 -0.20317
18.6946 -6.92198 -0.0743157 -1.20205 -0.0915678 -0.226788
18.7552 -6.97328 -0.0796935 -1.22942 -0.084413 -0.251546
18.7782 -7.02817 -0.085667 -1.25667 -0.0756864 -0.277261
18.7674 -7.08587 -0.0914753 -1.28233 -0.0656942 -0.304719
18.77 -6.70483 -0.0506743 -1.01932 -0.132812 -0.119994
19.0222 -6.74503 -0.0551914 -1.04389 -0.130792 -0.140138
19.2708 -6.78598 -0.0592032 -1.06951 -0.128099 -0.161331
19.502 -6.82819 -0.0631317 -1.09566 -0.124916 -0.18396
19.7118 -6.87409 -0.0681122 -1.12247 -0.120508 -0.207513
19.9007 -6.92211 -0.0732481 -1.15028 -0.11509 -0.231667
20.0633 -6.97278 -0.0786313 -1.1785 -0.108409 -0.257029
20.1915 -7.02677 -0.0844524 -1.20665 -0.100115 -0.283821
20.5225 -6.82819 -0.0619405 -1.0366 -0.147821 -0.188097
20.8298 -6.87414 -0.0673459 -1.06441 -0.143701 -0.211596
21.1221 -6.92172 -0.0725156 -1.09235 -0.138779 -0.235862
21.3897 -6.97176 -0.0777936 -1.12125 -0.133116 -0.261795
21.6259 -7.02445 -0.0832688 -1.15006 -0.125699 -0.289743
-54.0141 -2.94799 -0.0571547 -4.34355 0.0217743 -0.0169728
-54.6743 -2.97423 -0.0609118 -4.34433 0.0302826 -0.0194638
-55.3562 -3.00263 -0.064954 -4.34567 0.0401299 -0.0216069
-56.0606 -3.0337 -0.0692848 -4.34719 0.0511121 -0.0235164
-56.7859 -3.0678 -0.0737676 -4.34888 0.0632174 -0.0252809
-57.5311 -3.10535 -0.0783435 -4.3509 0.0764396 -0.0270185
-58.2955 -3.14709 -0.0831254 -4.35349 0.0909018 -0.0288102
-59.0827 -3.19441 -0.0886688 -4.35718 0.106518 -0.0309765
-53.5631 -2.93793 -0.0560412 -4.38582 0.0105232 -0.0237568
-54.1931 -2.96046 -0.0597993 -4.39098 0.01906 -0.0263551
-54.8503 -2.98506 -0.0639418 -4.39672 0.0289448 -0.0287606
-55.5298 -3.01214 -0.0683069 -4.40263 0.0399825 -0.030991
-56.2321 -3.04215 -0.0728713 -4.40859 0.0520776 -0.033066
-56.9577 -3.07556 -0.0776373 -4.41476 0.0652187 -0.0350605
-57.7051 -3.11299 -0.0826272 -4.42144 0.0795914 -0.0370451
-58.4684 -3.15588 -0.0881346 -4.42905 0.0952329 -0.039024
-59.2418 -3.20362 -0.0933999 -4.43705 0.112818 -0.0407889
-53.0444 -2.93039 -0.054993 -4.42851 -0.000926984 -0.0310608
-53.6433 -2.94926 -0.0588112 -4.43843 0.00766258 -0.0336757
-54.273 -2.96996 -0.0630047 -4.44873 0.0174001 -0.0362563
-54.9273 -2.99293 -0.0674329 -4.45918 0.0282525 -0.0387064
-55.6059 -3.01866 -0.0720788 -4.46973 0.0401848 -0.0410244
-56.3086 -3.04767 -0.0769443 -4.48047 0.0532451 -0.0432549
-57.0339 -3.08062 -0.0820444 -4.49159 0.0676259 -0.0454511
-57.7782 -3.11831 -0.0873653 -4.50321 0.0835672 -0.0476261
-58.5392 -3.16215 -0.0932387 -4.51557 0.101275 -0.0496046
-51.9031 -2.91243 -0.0504697 -4.4565 -0.0199431 -0.0356985
-52.4523 -2.92593 -0.0540869 -4.47145 -0.0125208 -0.038637
-53.0193 -2.94075 -0.0578291 -4.48656 -0.00414943 -0.0412375
-53.6195 -2.95744 -0.0620638 -4.50168 0.00542505 -0.0440042
-54.246 -2.97623 -0.0665407 -4.51691 0.0160907 -0.0466787
-54.8982 -2.99761 -0.0712517 -4.53227 0.0278603 -0.0492445
-55.5757 -3.02214 -0.0761994 -4.5478 0.0408188 -0.0517211
-56.277 -3.05048 -0.0813909 -4.56358 0.0551584 -0.0541466
-56.999 -3.08339 -0.0868013 -4.57966 0.0710966 -0.0565418
-57.7404 -3.12231 -0.0928058 -4.59623 0.0890327 -0.0586065
-51.2667 -2.91395 -0.049153 -4.4953 -0.0321915 -0.0429323
-51.7796 -2.9239 -0.052843 -4.51515 -0.0247136 -0.0460103
-52.3192 -2.93507 -0.0568601 -4.53527 -0.016348 -0.0490268
-52.8876 -2.94767 -0.0611228 -4.55544 -0.00694928 -0.0519966
-53.4838 -2.9622 -0.0656336 -4.57569 0.00353158 -0.0549078
-54.107 -2.97916 -0.0703921 -4.59608 0.0151278 -0.0577281
-54.7568 -2.99911 -0.0754037 -4.61661 0.0279414 -0.0604575
-55.4318 -3.02268 -0.0806675 -4.6373 0.04218 -0.0631272
-56.1294 -3.05064 -0.0861516 -4.65812 0.0580777 -0.0657671
-56.8487 -3.08436 -0.0922276 -4.67917 0.0761238 -0.0680118
-50.5689 -2.91942 -0.0485505 -4.53344 -0.0444646 -0.0503545
-51.0384 -2.92587 -0.0522207 -4.55861 -0.037295 -0.0537895
-51.5407 -2.93236 -0.055897 -4.58443 -0.0289048 -0.0570285
-52.0754 -2.9408 -0.0601796 -4.60987 -0.0196977 -0.0602222
-52.6388 -2.95099 -0.0647052 -4.63537 -0.00939867 -0.0633885
-53.2301 -2.96345 -0.0694924 -4.66099 0.00200061 -0.0664729
-53.8495 -2.97872 -0.0745494 -4.68677 0.0146134 -0.0694594
-54.4958 -2.99739 -0.079865 -4.71263 0.0286946 -0.0723888
-55.1665 -3.02022 -0.0854046 -4.73846 0.0445169 -0.0753
-55.8612 -3.04851 -0.0915076 -4.7643 0.0625531 -0.0778154
-50.2085 -2.92945 -0.050646 -4.60295 -0.0498558 -0.0620014
-50.6822 -2.93276 -0.0549444 -4.63394 -0.0418029 -0.0652362
-51.1811 -2.93696 -0.0592305 -4.66486 -0.03279 -0.0686713
-51.709 -2.94274 -0.0637513 -4.69578 -0.0226705 -0.0721153
-52.2656 -2.95064 -0.068549 -4.72687 -0.0115064 -0.0754754
-52.8518 -2.96114 -0.0736371 -4.75815 0.000841013 -0.078718
-53.4668 -2.97475 -0.0789814 -4.78946 0.0147181 -0.0819213
-54.1165 -2.99267 -0.0849901 -4.82047 0.0303113 -0.0847039
-54.7772 -3.01504 -0.0907618 -4.85115 0.0479504 -0.0878564
-49.3217 -2.93748 -0.0501564 -4.64669 -0.0626451 -0.0698888
-49.7593 -2.93694 -0.054655 -4.68317 -0.0551109 -0.0732233
-50.2173 -2.9364 -0.0586915 -4.71994 -0.0464679 -0.0767897
-50.6954 -2.93706 -0.0625879 -4.75641 -0.0365659 -0.0809184
-51.2116 -2.94089 -0.0675473 -4.79355 -0.0253777 -0.0847299
-51.7617 -2.94651 -0.0726481 -4.83064 -0.0133537 -0.0882248
-52.343 -2.95489 -0.0780073 -4.86766 0.00029219 -0.0917036
-52.9562 -2.96713 -0.0838583 -4.90445 0.0160595 -0.0950248
-49.5873 -2.93505 -0.0614902 -4.81789 -0.0500634 -0.0903857
-50.0784 -2.93427 -0.0669722 -4.86072 -0.0394103 -0.0938421
-50.5858 -2.93523 -0.0720966 -4.90367 -0.0279827 -0.0972481
-51.1292 -2.9384 -0.0773546 -4.94665 -0.0149175 -0.101333
-51.6994 -2.94471 -0.0828135 -4.98921 0.000791818 -0.105543
-19.3011 -4.96679 -0.0564213 4.30137 0.00807169 0.00706037
-19.4207 -5.02568 -0.0601626 4.30143 0.00862938 0.010997
-19.5613 -5.08695 -0.0641139 4.30214 0.00895751 0.0156481
-19.7307 -5.15094 -0.0683839 4.30306 0.00922835 0.0208443
-19.9353 -5.21764 -0.0728583 4.30416 0.00950135 0.0266041
-20.1823 -5.28709 -0.0774775 4.30562 0.00979698 0.0329335
-20.4812 -5.35947 -0.0823291 4.30774 0.0100905 0.0398877
-20.8458 -5.43551 -0.0879132 4.3111 0.0106821 0.0473531
-19.2795 -4.92861 -0.0552365 4.34633 0.00805217 0.00139568
-19.3577 -4.98387 -0.0589999 4.35103 0.00860649 0.00540202
-19.4539 -5.04201 -0.0631156 4.35635 0.00905074 0.0101087
-19.5764 -5.10274 -0.0674589 4.36186 0.0094743 0.0153846
-19.7315 -5.16622 -0.0720163 4.36748 0.00987904 0.0211763
-19.9258 -5.23265 -0.0767857 4.37336 0.0102525 0.0274752
-20.1683 -5.30211 -0.0817735 4.37985 0.0105804 0.034375
-20.4794 -5.3748 -0.087349 4.38732 0.0108733 0.0418319
-20.8554 -5.4497 -0.0925801 4.39529 0.0109977 0.0503576
-19.3139 -4.88607 -0.0541397 4.39173 0.00830067 -0.00430138
-19.3507 -4.93763 -0.0579691 4.40148 0.00876081 -0.000195206
-19.4011 -4.99226 -0.062139 4.41164 0.00925106 0.00443845
-19.4744 -5.04958 -0.0665459 4.42196 0.00972213 0.0096206
-19.5775 -5.10971 -0.0711808 4.43243 0.0101717 0.0153305
-19.7177 -5.17282 -0.0760421 4.44316 0.0105924 0.0215904
-19.9047 -5.239 -0.0811327 4.45432 0.0109767 0.0284976
-20.1507 -5.30827 -0.0864564 4.46606 0.0113174 0.0361743
-20.4731 -5.38089 -0.0922892 4.47858 0.0115151 0.0447699
-19.4364 -4.79321 -0.0497618 4.42231 0.00808233 -0.0133796
-19.4128 -4.83891 -0.0532766 4.43738 0.00859837 -0.00991954
-19.4031 -4.88647 -0.0569557 4.45269 0.00891889 -0.00599621
-19.407 -4.9374 -0.0611695 4.46796 0.009456 -0.00144394
-19.4307 -4.99108 -0.0656257 4.48337 0.00997392 0.0036447
-19.4816 -5.04764 -0.0703224 4.49893 0.0104712 0.00927393
-19.5673 -5.10722 -0.0752589 4.51472 0.0109436 0.0154848
-19.6976 -5.16992 -0.0804326 4.53079 0.0113881 0.0223737
-19.8839 -5.23578 -0.0858414 4.54723 0.0117946 0.0300501
-20.1437 -5.30518 -0.0918056 4.56419 0.0119247 0.0388277
-19.6313 -4.74433 -0.0483512 4.46372 0.00795696 -0.0194906
-19.5704 -4.78602 -0.0519721 4.48398 0.00848683 -0.0159455
-19.5173 -4.83029 -0.0559596 4.50456 0.00907982 -0.011988
-19.4743 -4.87731 -0.0602032 4.5252 0.00966304 -0.00752338
-19.4483 -4.92713 -0.064695 4.54594 0.0102289 -0.00252654
-19.4468 -4.97988 -0.0694358 4.56683 0.0107753 0.00301764
-19.4775 -5.0357 -0.0744284 4.5879 0.0113022 0.00915813
-19.5498 -5.09471 -0.0796654 4.60917 0.0118096 0.0159981
-19.6748 -5.15693 -0.0851414 4.6306 0.012284 0.0236556
-19.8691 -5.22281 -0.091172 4.65229 0.0124149 0.0325244
-19.8959 -4.69215 -0.0477026 4.50439 0.00784574 -0.0255691
-19.8003 -4.72931 -0.0513643 4.53035 0.00859102 -0.0222452
-19.696 -4.76896 -0.0549763 4.55696 0.00924251 -0.0181564
-19.6058 -4.81189 -0.0592416 4.5832 0.00987336 -0.0137877
-19.5299 -4.85762 -0.0637496 4.6095 0.0104883 -0.00888032
-19.4758 -4.90632 -0.0685164 4.63595 0.0110842 -0.00343222
-19.451 -4.95814 -0.0735465 4.66258 0.011667 0.00260959
-19.4641 -5.01321 -0.078827 4.68932 0.0122406 0.00937188
-19.5261 -5.07155 -0.084352 4.71605 0.0127875 0.016994
-19.6527 -5.1336 -0.0903999 4.74278 0.0129815 0.0258645
-20.0849 -4.66603 -0.0497911 4.57766 0.0089335 -0.0283808
-19.9418 -4.7024 -0.0540119 4.60977 0.00940612 -0.0244935
-19.8039 -4.74104 -0.0582801 4.64184 0.0100897 -0.0202219
-19.6779 -4.78246 -0.0627843 4.67391 0.0107537 -0.0154021
-19.5714 -4.82685 -0.0675582 4.70615 0.0113975 -0.0100697
-19.4907 -4.87443 -0.0726109 4.73862 0.0120367 -0.0041592
-19.4434 -4.9253 -0.0779138 4.77113 0.0126808 0.00250207
-19.4413 -4.98041 -0.0839307 4.80333 0.012878 0.00995691
-19.4986 -5.03767 -0.0896352 4.83517 0.0134724 0.0184781
-20.4412 -4.59986 -0.0492586 4.62438 0.00876523 -0.034682
-20.2548 -4.63214 -0.0536977 4.66237 0.00914057 -0.0312255
-20.0658 -4.66594 -0.0577295 4.70065 0.00974605 -0.0271997
-19.8883 -4.70155 -0.0616048 4.73859 0.0108561 -0.022429
-19.7363 -4.74138 -0.0665563 4.77726 0.0117101 -0.0168873
-19.5994 -4.78445 -0.0716162 4.81589 0.0124086 -0.011137
-19.4904 -4.83087 -0.07693 4.85448 0.0131291 -0.00458936
-19.4214 -4.88111 -0.0827683 4.89282 0.013592 0.00312618
-20.1765 -4.61444 -0.0604949 4.80429 0.0114037 -0.028932
-19.9653 -4.65094 -0.0659937 4.84896 0.0116353 -0.0237554
-19.777 -4.68907 -0.0710998 4.89377 0.0120156 -0.0184357
-19.6089 -4.73068 -0.0763404 4.93872 0.013087 -0.0123111
-19.4733 -4.77533 -0.0817342 4.98319 0.0141294 -0.00452528
-6.14155 -4.0724 -0.0541246 -5.18288 0.102285 -0.0142444
-6.31075 -4.07872 -0.0581752 -5.19167 0.114692 -0.0187103
-6.48069 -4.08109 -0.0620051 -5.19958 0.127948 -0.0229983
-6.65064 -4.0792 -0.0658148 -5.20667 0.142093 -0.0271406
-6.82319 -4.07324 -0.0700761 -5.2125 0.157089 -0.0312305
-6.99811 -4.06297 -0.0749311 -5.21654 0.172932 -0.0353851
-7.17128 -4.04739 -0.0800351 -5.21842 0.18972 -0.0396516
-7.33663 -4.02483 -0.0846612 -5.21784 0.207496 -0.0442954
-6.08971 -4.12462 -0.0532809 -5.17053 0.0947527 -0.0191414
-6.29893 -4.13519 -0.0569867 -5.17845 0.107364 -0.023714
-6.51369 -4.14259 -0.0609066 -5.18523 0.120886 -0.0282565
-6.73454 -4.14622 -0.0650831 -5.19117 0.135314 -0.0326615
-6.95679 -4.1457 -0.0695223 -5.1962 0.150539 -0.0370015
-7.17681 -4.14063 -0.0741917 -5.19984 0.166598 -0.0414131
-7.39428 -4.13041 -0.0790449 -5.20145 0.183669 -0.0459601
-7.611 -4.1139 -0.083848 -5.20054 0.201665 -0.0504813
-7.8281 -4.09094 -0.0890658 -5.19701 0.221313 -0.0547143
-6.06549 -4.1761 -0.0522487 -5.15742 0.0868969 -0.0243481
-6.31919 -4.19159 -0.0559253 -5.16417 0.0998146 -0.0289937
-6.57824 -4.20418 -0.0599124 -5.16992 0.113418 -0.0337166
-6.84375 -4.21323 -0.0641519 -5.17485 0.127914 -0.0383428
-7.11264 -4.21834 -0.06865 -5.17886 0.143265 -0.0429228
-7.38237 -4.21903 -0.0733858 -5.18159 0.159542 -0.0475581
-7.65233 -4.2147 -0.0783256 -5.18254 0.176898 -0.0523048
-7.9232 -4.20463 -0.0834469 -5.18122 0.195469 -0.0571141
-8.19181 -4.18746 -0.0885033 -5.17724 0.215308 -0.0617799
-6.07231 -4.2262 -0.0508822 -5.14364 0.0788558 -0.0297375
-6.37392 -4.24737 -0.0548847 -5.14898 0.0918316 -0.0343753
-6.67846 -4.26532 -0.0589269 -5.15356 0.105474 -0.0392761
-6.9899 -4.27995 -0.0632149 -5.15736 0.120007 -0.0441122
-7.30618 -4.29083 -0.0677569 -5.16026 0.135462 -0.0489277
-7.62578 -4.29745 -0.0725428 -5.16201 0.151933 -0.0538005
-7.94822 -4.29921 -0.0775504 -5.16218 0.169542 -0.0587746
-8.27357 -4.2954 -0.0827575 -5.16035 0.188387 -0.0638155
-8.59606 -4.28467 -0.0878598 -5.15594 0.208658 -0.0686573
-6.11688 -4.27594 -0.0498383 -5.1288 0.0704248 -0.03497
-6.46384 -4.30239 -0.0538662 -5.13289 0.0834147 -0.0398529
-6.81501 -4.32585 -0.0579491 -5.13616 0.0970646 -0.0449383
-7.17359 -4.34619 -0.0622686 -5.13868 0.111604 -0.0499786
-7.53814 -4.363 -0.0668381 -5.14038 0.12713 -0.0550214
-7.908 -4.37573 -0.0716572 -5.14104 0.143753 -0.0601363
-8.28317 -4.38379 -0.0767131 -5.14034 0.16157 -0.0653599
-8.66356 -4.38648 -0.0819845 -5.13783 0.180648 -0.0706633
-9.04176 -4.3825 -0.0871438 -5.1329 0.201278 -0.075733
-6.1962 -4.32465 -0.0488393 -5.11333 0.0616158 -0.0403045
-6.5896 -4.35654 -0.0528718 -5.11589 0.0745784 -0.045418
-6.98858 -4.38563 -0.0569757 -5.11772 0.0881976 -0.0506969
-7.3955 -4.41182 -0.0613089 -5.11882 0.102708 -0.0559402
-7.80924 -4.43469 -0.0658894 -5.11918 0.118263 -0.0612034
-8.2299 -4.45372 -0.0707248 -5.11866 0.13499 -0.0665607
-8.65823 -4.46828 -0.0758099 -5.11696 0.152964 -0.0720511
-9.09437 -4.47768 -0.0811242 -5.11364 0.172229 -0.0776475
-9.53024 -4.48076 -0.0863606 -5.10808 0.193136 -0.0830006
-6.31165 -4.37233 -0.0479433 -5.09713 0.0524565 -0.0456828
-6.75166 -4.40967 -0.0518971 -5.09802 0.0653346 -0.0510583
-7.19975 -4.44449 -0.0560031 -5.09827 0.0788755 -0.0565385
-7.65629 -4.47665 -0.0603349 -5.09781 0.0933217 -0.0619895
-8.1202 -4.50576 -0.0649098 -5.09669 0.108861 -0.0674693
-8.59228 -4.53124 -0.0697414 -5.09485 0.125634 -0.0730667
-9.07429 -4.55248 -0.0748338 -5.09203 0.143711 -0.0788347
-9.56171 -4.56862 -0.0799449 -5.08768 0.163054 -0.0843368
-10.0614 -4.57945 -0.0855112 -5.08162 0.183898 -0.0902866
-6.45915 -4.41872 -0.0470142 -5.08017 0.0428963 -0.050973
-6.94431 -4.4617 -0.0508797 -5.07927 0.0554329 -0.0564056
-7.44066 -4.50256 -0.0549857 -5.07775 0.0687779 -0.0620507
-7.95484 -4.54113 -0.0595708 -5.07589 0.0832857 -0.0679665
-8.47172 -4.57602 -0.0638964 -5.07293 0.098934 -0.0738115
-8.99587 -4.60811 -0.0686991 -5.06962 0.115682 -0.079645
-9.53209 -4.63619 -0.0737744 -5.06552 0.133801 -0.0856945
-10.0803 -4.65925 -0.0788502 -5.05996 0.153609 -0.0916603
-8.29145 -4.60411 -0.0585549 -5.05258 0.0733755 -0.0745915
-8.84279 -4.64561 -0.0623309 -5.0478 0.0890465 -0.0802382
-9.42626 -4.6849 -0.0673704 -5.04332 0.105348 -0.0856283
-10.0276 -4.71985 -0.0725806 -5.0375 0.122883 -0.09207
-10.6413 -4.75032 -0.0779039 -5.03076 0.142846 -0.0988696
-87.7138 0.344719 -0.054489 -1.52851 0.169822 0.0570559
-87.9181 0.335988 -0.0584026 -1.51984 0.195695 0.0624005
-88.0959 0.328816 -0.0622004 -1.50916 0.222012 0.0688524
-88.2428 0.323431 -0.0660027 -1.49636 0.249157 0.0764359
-88.3552 0.319272 -0.0702458 -1.48141 0.277296 0.085142
-88.4262 0.316128 -0.0750511 -1.46425 0.30633 0.094911
-88.4465 0.314539 -0.0800881 -1.44466 0.336053 0.10576
-88.4064 0.315549 -0.084775 -1.42234 0.366438 0.117545
-87.894 0.313609 -0.0535704 -1.55847 0.174096 0.0423495
-88.1286 0.30124 -0.0571314 -1.54986 0.200807 0.0475774
-88.3392 0.289546 -0.0609953 -1.53931 0.22803 0.0537938
-88.5225 0.279119 -0.065121 -1.52652 0.256077 0.061105
-88.6741 0.270257 -0.069523 -1.5116 0.285139 0.0695107
-88.7864 0.263008 -0.0741605 -1.49458 0.315196 0.0789748
-88.8505 0.257301 -0.0789706 -1.47525 0.346056 0.0895395
-88.8573 0.253301 -0.0838482 -1.45315 0.377266 0.101258
-88.8009 0.251295 -0.0889737 -1.4279 0.409422 0.114999
-88.0717 0.281673 -0.0524942 -1.5873 0.178259 0.027019
-88.3377 0.264988 -0.0559728 -1.57877 0.205862 0.032192
-88.5826 0.248811 -0.0598909 -1.56844 0.233958 0.0381277
-88.802 0.23376 -0.0640657 -1.55595 0.262885 0.0451062
-88.9915 0.220091 -0.0685128 -1.54131 0.292789 0.053156
-89.1445 0.207911 -0.073205 -1.52446 0.323694 0.0622923
-89.2528 0.197253 -0.0780925 -1.50518 0.355518 0.0725838
-89.3083 0.188195 -0.0831524 -1.48317 0.388179 0.0841882
-89.2992 0.181356 -0.0882074 -1.45805 0.421654 0.0974543
-88.2442 0.249409 -0.0510313 -1.61439 0.182464 0.0113012
-88.5446 0.227585 -0.0548325 -1.60617 0.210674 0.0163105
-88.8239 0.206734 -0.0587961 -1.59609 0.239601 0.0219341
-89.0795 0.186885 -0.063007 -1.58392 0.269386 0.0285588
-89.3072 0.168272 -0.0674799 -1.5696 0.300144 0.0362344
-89.5012 0.151042 -0.0722045 -1.553 0.331933 0.0450108
-89.6541 0.13528 -0.0771471 -1.5339 0.364748 0.0549758
-89.7579 0.121088 -0.0822852 -1.51201 0.398567 0.0662795
-89.7986 0.109092 -0.0873693 -1.48712 0.43337 0.0793878
-88.4137 0.21563 -0.0498172 -1.64001 0.18625 -0.00469216
-88.7486 0.189066 -0.0537149 -1.63199 0.215204 -5.71816e-05
-89.0623 0.163368 -0.0577073 -1.62218 0.244924 0.0052224
-89.3541 0.13855 -0.0619358 -1.61034 0.275543 0.0114703
-89.6202 0.114844 -0.0664171 -1.59638 0.307162 0.0187486
-89.8556 0.0924241 -0.071157 -1.58011 0.33986 0.0271266
-90.0533 0.0714016 -0.0761354 -1.56128 0.373684 0.0367052
-90.2056 0.0518758 -0.0813291 -1.53961 0.408665 0.0476359
-90.2976 0.0344568 -0.0864557 -1.51499 0.444804 0.0604702
-88.582 0.180958 -0.0487188 -1.66389 0.189784 -0.0211162
-88.9491 0.149484 -0.0526186 -1.65614 0.21941 -0.0168924
-89.2971 0.118774 -0.056621 -1.64662 0.249888 -0.01199
-89.625 0.0888162 -0.0608476 -1.63513 0.281321 -0.00614753
-89.9296 0.0598576 -0.0653205 -1.62157 0.313801 0.000703683
-90.2065 0.0320965 -0.0700581 -1.6057 0.347413 0.00864029
-90.4493 0.00565094 -0.0750523 -1.58722 0.382249 0.0177707
-90.6502 -0.0194021 -0.0802795 -1.56585 0.41839 0.0282513
-90.7951 -0.042524 -0.0854715 -1.54156 0.455876 0.0406906
-88.7477 0.145348 -0.0477201 -1.686 0.192979 -0.0379202
-89.1457 0.108907 -0.0515383 -1.67856 0.223241 -0.0341712
-89.5279 0.0730288 -0.0555303 -1.66931 0.254449 -0.0296792
-89.8917 0.0377562 -0.0597392 -1.65819 0.286676 -0.0242751
-90.2346 0.0033737 -0.0641871 -1.64507 0.320007 -0.0178864
-90.5529 -0.0298878 -0.0689012 -1.62966 0.354527 -0.0104374
-90.8409 -0.0619175 -0.0738888 -1.61161 0.39036 -0.00181748
-91.0881 -0.0924473 -0.0789498 -1.59078 0.427349 0.00838354
-91.2922 -0.121745 -0.0843988 -1.56681 0.466184 0.0199494
-88.9073 0.109059 -0.0466826 -1.70651 0.195635 -0.0550064
-89.3365 0.0674494 -0.0504611 -1.69955 0.226251 -0.0517531
-89.7526 0.026151 -0.054465 -1.69075 0.258146 -0.0477575
-90.1579 -0.0147913 -0.0588488 -1.67975 0.291391 -0.0429129
-90.5345 -0.054534 -0.0630167 -1.66678 0.325709 -0.0369945
-90.894 -0.0934605 -0.0676817 -1.65189 0.361119 -0.0300828
-91.227 -0.131229 -0.072634 -1.63433 0.397923 -0.0220346
-91.5224 -0.167732 -0.0776591 -1.6137 0.436436 -0.0122688
-90.4133 -0.0681837 -0.0576481 -1.69939 0.296371 -0.0620362
-90.8241 -0.11326 -0.0614086 -1.68787 0.33129 -0.0563079
-91.2329 -0.15833 -0.0662968 -1.67334 0.366971 -0.049716
-91.6092 -0.20246 -0.0713062 -1.65574 0.404473 -0.0427307
-91.9563 -0.245261 -0.0764728 -1.63529 0.444416 -0.0338759
SCALARS STRAIN double 6
LOOKUP_TABLE default
0.000147901 0.000223891 -0.00055292 -9.16266e-06 0.00029986 6.62462e-05
0.00014806 0.000224158 -0.000554095 -8.43054e-06 0.000299001 6.5809e-05
0.00014809 0.00022451 -0.000555043 -7.65359e-06 0.000297817 6.52754e-05
0.000147961 0.000224974 -0.000555754 -6.80869e-06 0.000296283 6.46547e-05
0.000147646 0.000225519 -0.000556196 -5.89528e-06 0.000294368 6.39435e-05
0.000147121 0.000226117 -0.000556315 -4.91967e-06 0.000292039 6.31311e-05
0.000146369 0.000226779 -0.000556035 -3.87983e-06 0.000289259 6.22006e-05
0.000145374 0.000227541 -0.000555265 -2.72737e-06 0.000285959 6.11984e-05
0.000149842 0.000220709 -0.000553831 -9.79344e-06 0.000304622 6.69431e-05
0.000150275 0.000220613 -0.000555197 -9.04652e-06 0.00030379 6.65409e-05
0.00015058 0.000220555 -0.000556349 -8.23825e-06 0.000302645 6.60517e-05
0.000150734 0.000220582 -0.000557293 -7.36483e-06 0.000301128 6.54774e-05
0.000150714 0.000220712 -0.000557993 -6.43349e-06 0.000299243 6.4817e-05
0.000150496 0.000220934 -0.000558387 -5.44344e-06 0.00029698 6.40588e-05
0.000150061 0.000221224 -0.000558401 -4.38349e-06 0.00029429 6.31823e-05
0.000149387 0.000221592 -0.000557958 -3.26842e-06 0.000291057 6.21975e-05
0.000148438 0.000222028 -0.000557048 -2.03377e-06 0.000287263 6.10123e-05
0.000151823 0.000217427 -0.000554713 -1.03937e-05 0.000309042 6.76788e-05
0.00015254 0.000216915 -0.000556281 -9.628e-06 0.000308249 6.7298e-05
0.000153128 0.000216444 -0.000557652 -8.81575e-06 0.00030716 6.68596e-05
0.000153574 0.000216049 -0.000558825 -7.9404e-06 0.000305717 6.63388e-05
0.000153858 0.000215744 -0.000559768 -7.00443e-06 0.000303906 6.57313e-05
0.000153956 0.000215527 -0.000560426 -6.00386e-06 0.000301705 6.50247e-05
0.000153846 0.000215387 -0.000560735 -4.92863e-06 0.000299065 6.42009e-05
0.000153502 0.000215317 -0.000560632 -3.76828e-06 0.000295917 6.32436e-05
0.00015289 0.000215343 -0.00056003 -2.51614e-06 0.000292177 6.21426e-05
0.000153843 0.000214068 -0.000555566 -1.09633e-05 0.000313053 6.8431e-05
0.000154848 0.000213088 -0.000557346 -1.02124e-05 0.000312312 6.80794e-05
0.00015573 0.000212181 -0.000558933 -9.39913e-06 0.000311284 6.76944e-05
0.000156479 0.000211343 -0.000560334 -8.52385e-06 0.000309915 6.72294e-05
0.000157075 0.000210587 -0.000561519 -7.58442e-06 0.000308185 6.6677e-05
0.000157497 0.000209918 -0.000562442 -6.57488e-06 0.00030606 6.60244e-05
0.00015772 0.00020933 -0.000563046 -5.48685e-06 0.000303488 6.52563e-05
0.00015772 0.000208822 -0.00056327 -4.31244e-06 0.000300407 6.43582e-05
0.00015746 0.00020841 -0.00056301 -3.04487e-06 0.000296757 6.32918e-05
0.000155901 0.000210555 -0.000556402 -1.15533e-05 0.000316645 6.91819e-05
0.000157199 0.000209136 -0.000558387 -1.07991e-05 0.00031596 6.88845e-05
0.000158383 0.000207772 -0.000560187 -9.98692e-06 0.000314995 6.85549e-05
0.000159444 0.000206471 -0.000561815 -9.1134e-06 0.000313704 6.81478e-05
0.000160361 0.000205246 -0.000563242 -8.1724e-06 0.000312059 6.7653e-05
0.000161115 0.000204107 -0.00056443 -7.15656e-06 0.00031002 6.70578e-05
0.000161682 0.000203053 -0.000565329 -6.05893e-06 0.000307532 6.63488e-05
0.000162036 0.000202081 -0.000565877 -4.87339e-06 0.000304534 6.5513e-05
0.000162144 0.000201207 -0.000565966 -3.59268e-06 0.000300984 6.44932e-05
0.000157987 0.000206954 -0.000557224 -1.21394e-05 0.000319803 6.99494e-05
0.000159587 0.000205062 -0.000559401 -1.13866e-05 0.000319177 6.97114e-05
0.000161082 0.000203223 -0.000561413 -1.05778e-05 0.000318275 6.94395e-05
0.000162464 0.000201438 -0.000563263 -9.70797e-06 0.00031706 6.90928e-05
0.000163712 0.000199725 -0.00056493 -8.76775e-06 0.000315507 6.86586e-05
0.000164807 0.000198097 -0.000566382 -7.7487e-06 0.000313565 6.81243e-05
0.000165728 0.000196556 -0.000567575 -6.64475e-06 0.000311174 6.7478e-05
0.000166449 0.000195096 -0.000568447 -5.4512e-06 0.000308271 6.6708e-05
0.000166936 0.000193733 -0.000568892 -4.16017e-06 0.000304829 6.57469e-05
0.000160099 0.000203254 -0.000558026 -1.27233e-05 0.00032251 7.07303e-05
0.000162009 0.000200876 -0.000560388 -1.19737e-05 0.000321944 7.05585e-05
0.000163824 0.000198541 -0.000562606 -1.11709e-05 0.000321102 7.03473e-05
0.000165534 0.000196252 -0.000564675 -1.03065e-05 0.000319965 7.00632e-05
0.000167122 0.00019403 -0.000566579 -9.36961e-06 0.000318506 6.96925e-05
0.000168569 0.000191893 -0.000568294 -8.35075e-06 0.00031667 6.92228e-05
0.000169853 0.000189843 -0.000569779 -7.24385e-06 0.000314387 6.86429e-05
0.000170954 0.000187883 -0.000570953 -6.09747e-06 0.000311627 6.79057e-05
0.000171836 0.000186002 -0.000571799 -4.79906e-06 0.00030829 6.70743e-05
0.00016223 0.000199472 -0.000558793 -1.33271e-05 0.000324781 7.15186e-05
0.000164454 0.000196597 -0.000561332 -1.26295e-05 0.0003243 7.1416e-05
0.000166598 0.000193744 -0.000563751 -1.18502e-05 0.000323554 7.12694e-05
0.00016865 0.000190926 -0.000566083 -1.09469e-05 0.000322451 7.10622e-05
0.000170588 0.000188167 -0.000568188 -9.9767e-06 0.000321035 7.07533e-05
0.000172395 0.0001855 -0.000570159 -8.96227e-06 0.000319311 7.03527e-05
0.000174052 0.000182921 -0.000571932 -7.85631e-06 0.000317145 6.98428e-05
0.000175546 0.000180417 -0.000573418 -6.6524e-06 0.000314458 6.91542e-05
0.000171809 0.000185444 -0.00056741 -1.1473e-05 0.000324444 7.20777e-05
0.000174116 0.000182165 -0.000569717 -1.05591e-05 0.000323317 7.17757e-05
0.000176299 0.000178958 -0.000572007 -9.65753e-06 0.000321677 7.14312e-05
0.000178337 0.000175792 -0.00057405 -8.59104e-06 0.000319521 7.10681e-05
0.000180224 0.000172717 -0.000575873 -7.31561e-06 0.000316894 7.0494e-05
0.000145363 0.000211897 -0.000552829 6.43523e-06 0.000252194 6.01919e-05
0.000145691 0.000211884 -0.000554077 9.49402e-06 0.000251184 5.97896e-05
0.000145919 0.000211945 -0.000555143 1.26367e-05 0.000249867 5.92421e-05
0.00014602 0.000212096 -0.000556009 1.58901e-05 0.000248224 5.85278e-05
0.000145969 0.000212299 -0.000556647 1.9275e-05 0.000246246 5.76634e-05
0.000145748 0.000212527 -0.000557008 2.27997e-05 0.000243917 5.6674e-05
0.000145345 0.000212794 -0.000557029 2.64618e-05 0.000241205 5.55577e-05
0.000144749 0.000213143 -0.000556638 3.02666e-05 0.000238056 5.43065e-05
0.000146924 0.000209429 -0.000553762 6.60014e-06 0.00025677 6.22864e-05
0.000147487 0.000209137 -0.000555196 9.74051e-06 0.000255779 6.19221e-05
0.000147951 0.000208867 -0.000556462 1.2981e-05 0.000254492 6.14255e-05
0.000148294 0.00020866 -0.00055755 1.63351e-05 0.000252861 6.07678e-05
0.000148492 0.000208535 -0.00055843 1.98205e-05 0.000250899 5.99703e-05
0.00014853 0.000208478 -0.000559049 2.34525e-05 0.00024861 5.90543e-05
0.000148396 0.000208463 -0.000559345 2.72348e-05 0.000245959 5.80095e-05
0.000148074 0.000208483 -0.000559254 3.11158e-05 0.000242856 5.68036e-05
0.000147533 0.000208551 -0.000558752 3.51599e-05 0.000239255 5.53073e-05
0.000148522 0.000206876 -0.000554672 6.76956e-06 0.000261121 6.44605e-05
0.000149326 0.000206259 -0.000556299 9.99906e-06 0.000260154 6.41215e-05
0.00015003 0.000205664 -0.000557774 1.33227e-05 0.000258912 6.36917e-05
0.000150621 0.000205124 -0.000559082 1.67634e-05 0.000257339 6.31135e-05
0.000151079 0.000204653 -0.000560193 2.03368e-05 0.000255435 6.23965e-05
0.000151386 0.000204247 -0.000561063 2.40605e-05 0.000253188 6.15506e-05
0.000151527 0.000203889 -0.000561635 2.79446e-05 0.000250563 6.05655e-05
0.000151487 0.00020357 -0.000561854 3.19876e-05 0.000247502 5.94093e-05
0.000151233 0.00020331 -0.000561644 3.61718e-05 0.00024394 5.80169e-05
0.000150155 0.000204264 -0.000555548 6.95946e-06 0.000265165 6.66804e-05
0.000151202 0.000203276 -0.000557381 1.0241e-05 0.000264248 6.63924e-05
0.000152153 0.000202338 -0.000559064 1.3642e-05 0.000263053 6.60352e-05
0.000153001 0.000201448 -0.000560592 1.71646e-05 0.000261541 6.5539e-05
0.000153725 0.00020062 -0.000561937 2.0825e-05 0.0002597 6.49047e-05
0.000154308 0.000199853 -0.000563059 2.46428e-05 0.000257508 6.41344e-05
0.000154734 0.00019914 -0.000563908 2.86311e-05 0.000254926 6.32187e-05
0.000154985 0.000198471 -0.00056443 3.27925e-05 0.000251905 6.21326e-05
0.000155032 0.000197863 -0.000564535 3.71154e-05 0.000248401 6.07959e-05
0.000151818 0.000201523 -0.000556402 7.10652e-06 0.00026892 6.89342e-05
0.000153111 0.000200189 -0.000558438 1.04636e-05 0.000268044 6.87335e-05
0.000154318 0.000198892 -0.000560329 1.39381e-05 0.000266901 6.84551e-05
0.00015543 0.000197637 -0.000562075 1.75384e-05 0.000265452 6.80438e-05
0.000156428 0.000196437 -0.000563653 2.12836e-05 0.00026368 6.74945e-05
0.000157295 0.000195297 -0.000565028 2.51948e-05 0.000261553 6.68058e-05
0.000158013 0.000194212 -0.000566155 2.92877e-05 0.000259029 6.59698e-05
0.000158565 0.000193176 -0.00056698 3.35681e-05 0.000256061 6.49656e-05
0.000158923 0.000192199 -0.000567408 3.80294e-05 0.000252624 6.37015e-05
0.000153503 0.000198709 -0.000557242 7.24103e-06 0.000272357 7.12531e-05
0.000155051 0.000197003 -0.000559468 1.06644e-05 0.000271531 7.11413e-05
0.000156521 0.000195331 -0.000561564 1.42088e-05 0.000270439 7.09489e-05
0.000157905 0.000193694 -0.000563527 1.78833e-05 0.000269054 7.06267e-05
0.000159185 0.000192107 -0.000565338 2.17098e-05 0.000267356 7.01659e-05
0.000160343 0.000190579 -0.000566966 2.57119e-05 0.000265306 6.95648e-05
0.000161361 0.000189109 -0.00056837 2.9908e-05 0.000262853 6.88182e-05
0.000162223 0.000187687 -0.000569497 3.43072e-05 0.000259951 6.79086e-05
0.000162905 0.000186319 -0.000570257 3.89067e-05 0.000256587 6.67356e-05
0.000155208 0.000195811 -0.00055806 7.35408e-06 0.000275468 7.3625e-05
0.000157018 0.000193723 -0.000560468 1.08397e-05 0.000274693 7.36122e-05
0.000158758 0.000191661 -0.000562767 1.44504e-05 0.000273653 7.35132e-05
0.000160422 0.000189624 -0.000564945 1.81961e-05 0.000272333 7.32853e-05
0.000161991 0.000187634 -0.000566985 2.21003e-05 0.000270713 7.29175e-05
0.000163448 0.000185704 -0.000568865 2.61888e-05 0.000268748 7.24101e-05
0.000164775 0.000183832 -0.000570547 3.04848e-05 0.000266378 7.17621e-05
0.000165959 0.000182013 -0.00057196 3.4952e-05 0.00026358 7.09192e-05
0.000166975 0.000180235 -0.000573089 3.96897e-05 0.000260289 6.99134e-05
0.00015693 0.000192842 -0.000558838 7.42006e-06 0.000278272 7.60383e-05
0.000159005 0.000190357 -0.000561427 1.09216e-05 0.000277575 7.61298e-05
0.000161023 0.000187882 -0.000563924 1.45864e-05 0.000276612 7.61349e-05
0.000162974 0.000185433 -0.000566352 1.84425e-05 0.000275322 7.60223e-05
0.000164843 0.000183025 -0.000568592 2.24506e-05 0.000273734 7.57468e-05
0.000166606 0.000180674 -0.000570721 2.66197e-05 0.000271863 7.53404e-05
0.000168249 0.000178385 -0.000572677 3.10101e-05 0.000269585 7.47989e-05
0.000169766 0.000176136 -0.000574387 3.5649e-05 0.000266835 7.4045e-05
0.000165562 0.000181131 -0.000567685 1.87724e-05 0.000277956 7.88269e-05
0.000167743 0.000178301 -0.000570127 2.2814e-05 0.000276609 7.86011e-05
0.000169828 0.000175518 -0.000572559 2.6958e-05 0.000274802 7.82661e-05
0.000171795 0.000172758 -0.000574774 3.13979e-05 0.000272528 7.79048e-05
0.000173645 0.000170063 -0.0005768 3.62056e-05 0.000269823 7.73167e-05
0 0 0 0 0 0
0 0 0 0 0 0
0 0 0 0 0 0
0 0 0 0 0 0
0 0 0 0 0 0
0 0 0 0 0 0
0 0 0 0 0 0
0 0 0 0 0 0
0 0 0 0 0 0
0 0 0 0 0 0
0 0 0 0 0 0
0 0 0 0 0 0
0 0 0 0 0 0
0 0 0 0 0 0
0 0 0 0 0 0
0 0 0 0 0 0
0 0 0 0 0 0
0 0 0 0 0 0
0 0 0 0 0 0
0 0 0 0 0 0
0 0 0 0 0 0
0 0 0 0 0 0
0 0 0 0 0 0
0 0 0 0 0 0
0 0 0 0 0 0
0 0 0 0 0 0
0 0 0 0 0 0
0 0 0 0 0 0
0 0 0 0 0 0
0 0 0 0 0 0
0 0 0 0 0 0
0 0 0 0 0 0
0 0 0 0 0 0
0 0 0 0 0 0
0 0 0 0 0 0
0 0 0 0 0 0
0 0 0 0 0 0
0 0 0 0 0 0
0 0 0 0 0 0
0 0 0 0 0 0
0 0 0 0 0 0
0 0 0 0 0 0
0 0 0 0 0 0
0 0 0 0 0 0
0 0 0 0 0 0
0 0 0 0 0 0
0 0 0 0 0 0
0 0 0 0 0 0
0 0 0 0 0 0
0 0 0 0 0 0
0 0 0 0 0 0
0 0 0 0 0 0
0 0 0 0 0 0
0 0 0 0 0 0
0 0 0 0 0 0
0 0 0 0 0 0
0 0 0 0 0 0
0 0 0 0 0 0
0 0 0 0 0 0
0 0 0 0 0 0
0 0 0 0 0 0
0 0 0 0 0 0
0 0 0 0 0 0
0 0 0 0 0 0
0 0 0 0 0 0
0 0 0 0 0 0
0 0 0 0 0 0
0 0 0 0 0 0
0 0 0 0 0 0
0 0 0 0 0 0
0 0 0 0 0 0
0 0 0 0 0 0
0 0 0 0 0 0
0 0 0 0 0 0
0 0 0 0 0 0
0.000158002 0.000200184 -0.000552502 2.01274e-05 0.000205331 6.00968e-05
0.000158531 0.000199923 -0.000553883 2.46017e-05 0.000204135 5.88543e-05
0.000158983 0.000199717 -0.000555129 2.91855e-05 0.000202661 5.73523e-05
0.000159335 0.000199579 -0.000556215 3.3932e-05 0.000200897 5.55973e-05
0.000159569 0.000199472 -0.000557119 3.88613e-05 0.000198841 5.35723e-05
0.000159671 0.000199373 -0.000557801 4.39612e-05 0.000196484 5.12579e-05
0.000159631 0.000199292 -0.000558209 4.92094e-05 0.000193801 4.86309e-05
0.000159439 0.000199267 -0.000558292 5.46135e-05 0.000190759 4.57165e-05
0.000159262 0.000198421 -0.000553478 2.0369e-05 0.000209722 6.30687e-05
0.000159981 0.000197964 -0.000555036 2.49758e-05 0.000208537 6.18971e-05
0.000160625 0.000197516 -0.000556473 2.97048e-05 0.000207082 6.04884e-05
0.000161174 0.000197111 -0.000557769 3.46029e-05 0.000205319 5.88339e-05
0.00016161 0.000196762 -0.0005589 3.96881e-05 0.000203266 5.69135e-05
0.000161922 0.000196456 -0.000559822 4.49553e-05 0.000200928 5.47054e-05
0.000162101 0.000196169 -0.000560485 5.03861e-05 0.00019828 5.21843e-05
0.000162134 0.00019589 -0.000560838 5.59278e-05 0.000195265 4.93404e-05
0.000161996 0.000195639 -0.00056085 6.16706e-05 0.000191831 4.60341e-05
0.000160546 0.00019659 -0.00055443 2.05852e-05 0.000213996 6.61593e-05
0.000161461 0.000195902 -0.000556173 2.5335e-05 0.000212824 6.50545e-05
0.000162299 0.000195216 -0.00055781 3.02002e-05 0.0002114 6.37454e-05
0.000163048 0.000194566 -0.000559315 3.52355e-05 0.000209679 6.21963e-05
0.000163695 0.000193962 -0.000560665 4.04572e-05 0.000207663 6.03866e-05
0.000164226 0.000193398 -0.000561823 4.58684e-05 0.000205347 5.82911e-05
0.00016463 0.000192859 -0.000562741 5.14635e-05 0.000202705 5.58807e-05
0.000164893 0.000192333 -0.000563375 5.7239e-05 0.000199697 5.31206e-05
0.00016499 0.000191836 -0.000563661 6.31979e-05 0.000196281 4.99492e-05
0.000161853 0.000194723 -0.000555347 2.08068e-05 0.000218066 6.93303e-05
0.000162964 0.000193756 -0.00055729 2.56499e-05 0.00021694 6.83054e-05
0.000164003 0.000192819 -0.000559128 3.06439e-05 0.000215553 6.71012e-05
0.000164961 0.000191913 -0.000560843 3.5812e-05 0.000213876 6.56635e-05
0.000165824 0.000191046 -0.000562414 4.11706e-05 0.000211904 6.39706e-05
0.000166579 0.000190216 -0.000563808 4.67291e-05 0.000209622 6.1995e-05
0.000167214 0.000189413 -0.000564984 5.24906e-05 0.000207002 5.97048e-05
0.000167715 0.000188629 -0.000565897 5.84577e-05 0.000204009 5.70637e-05
0.000168057 0.000187873 -0.000566471 6.46331e-05 0.00020062 5.39863e-05
0.000163179 0.000192748 -0.000556237 2.09566e-05 0.000221971 7.25635e-05
0.00016449 0.000191527 -0.000558383 2.59155e-05 0.000220875 7.16468e-05
0.000165735 0.000190328 -0.00056042 3.10315e-05 0.000219528 7.05526e-05
0.000166908 0.000189153 -0.000562346 3.63278e-05 0.0002179 6.92323e-05
0.000167994 0.000188012 -0.000564139 4.18227e-05 0.000215978 6.76636e-05
0.000168979 0.000186907 -0.000565772 4.75298e-05 0.000213741 6.58167e-05
0.000169851 0.000185832 -0.000567207 5.34581e-05 0.000211157 6.36576e-05
0.000170597 0.000184776 -0.000568399 5.96155e-05 0.000208192 6.1148e-05
0.000171194 0.000183745 -0.00056927 6.60075e-05 0.000204838 5.81874e-05
0.000164517 0.00019071 -0.000557114 2.10634e-05 0.000225673 7.58748e-05
0.000166035 0.000189218 -0.000559448 2.61265e-05 0.00022462 7.50741e-05
0.000167493 0.000187744 -0.000561685 3.13578e-05 0.000223315 7.40951e-05
0.000168886 0.000186289 -0.000563819 3.6778e-05 0.000221738 7.28988e-05
0.000170201 0.000184863 -0.000565835 4.24072e-05 0.000219873 7.14624e-05
0.000171423 0.000183473 -0.000567708 4.82618e-05 0.000217692 6.97543e-05
0.000172539 0.000182113 -0.000569402 5.43552e-05 0.000215155 6.77379e-05
0.000173537 0.000180772 -0.000570875 6.07005e-05 0.000212229 6.53733e-05
0.000174398 0.000179453 -0.00057205 6.73088e-05 0.000208918 6.25525e-05
0.000165868 0.000188603 -0.000557969 2.11155e-05 0.000229172 7.92569e-05
0.000167596 0.000186831 -0.000560482 2.62767e-05 0.000228164 7.85818e-05
0.000169274 0.000185072 -0.000562918 3.16168e-05 0.000226903 7.77232e-05
0.000170894 0.000183323 -0.00056526 3.71561e-05 0.000225378 7.66582e-05
0.000172443 0.0001816 -0.000567497 4.29162e-05 0.000223576 7.53626e-05
0.000173907 0.000179914 -0.000569609 4.89152e-05 0.00022146 7.38034e-05
0.000175274 0.000178259 -0.000571564 5.51699e-05 0.000218983 7.19421e-05
0.000176533 0.000176629 -0.000573306 6.16549e-05 0.000216127 6.96995e-05
0.000177667 0.000175006 -0.000574816 6.84784e-05 0.000212857 6.70964e-05
0.000167227 0.000186433 -0.000558781 2.10833e-05 0.000232489 8.26858e-05
0.00016917 0.00018437 -0.000561477 2.6298e-05 0.000231553 8.21395e-05
0.000171072 0.000182309 -0.000564108 3.17373e-05 0.000230355 8.14189e-05
0.000172926 0.000180258 -0.000566688 3.74281e-05 0.000228852 8.05107e-05
0.000174718 0.000178227 -0.00056912 4.33404e-05 0.000227076 7.93574e-05
0.00017643 0.000176232 -0.00057147 4.94787e-05 0.000225035 7.79576e-05
0.000178053 0.000174272 -0.000573684 5.58884e-05 0.000222625 7.62639e-05
0.000179582 0.000172324 -0.000575706 6.26136e-05 0.0002198 7.41721e-05
0.000174981 0.000177105 -0.000568047 3.77383e-05 0.000232111 8.44417e-05
0.000177026 0.000174767 -0.00057068 4.37365e-05 0.000230537 8.33916e-05
0.000178998 0.000172455 -0.000573315 4.9923e-05 0.000228541 8.2132e-05
0.000180884 0.000170145 -0.000575774 5.64452e-05 0.000226122 8.06838e-05
0.000182683 0.000167867 -0.000578088 6.33907e-05 0.000223328 7.88164e-05
0.000157925 0.000194318 -0.000552593 2.61257e-05 0.000182105 5.59123e-05
0.00015857 0.000193937 -0.000554036 3.13789e-05 0.000180826 5.45219e-05
0.000159155 0.000193604 -0.000555365 3.67696e-05 0.000179287 5.28446e-05
0.000159659 0.000193328 -0.000556554 4.2332e-05 0.000177473 5.08772e-05
0.000160066 0.000193074 -0.000557584 4.80897e-05 0.000175388 4.86159e-05
0.000160363 0.000192817 -0.000558417 5.40495e-05 0.000173028 4.60565e-05
0.000160541 0.000192568 -0.000559007 6.02028e-05 0.000170374 4.31781e-05
0.000160594 0.000192363 -0.000559311 6.65474e-05 0.0001674 3.9978e-05
0.000158953 0.000192905 -0.000553585 2.64349e-05 0.000186415 5.93607e-05
0.000159767 0.000192369 -0.000555203 3.18308e-05 0.000185144 5.80377e-05
0.000160521 0.000191837 -0.00055672 3.73801e-05 0.000183617 5.64485e-05
0.0001612 0.000191337 -0.000558114 4.31167e-05 0.000181799 5.45763e-05
0.000161787 0.000190881 -0.000559363 4.90577e-05 0.000179709 5.24185e-05
0.000162271 0.000190458 -0.000560429 5.52107e-05 0.000177358 4.99678e-05
0.000162645 0.000190044 -0.000561264 6.15716e-05 0.000174726 4.71964e-05
0.0001629 0.000189623 -0.000561826 6.8085e-05 0.000171772 4.40708e-05
0.000163013 0.00018922 -0.000562079 7.48273e-05 0.000168436 4.04391e-05
0.000160002 0.000191431 -0.000554555 2.67014e-05 0.000190658 6.29412e-05
0.000160989 0.00019071 -0.000556354 3.22538e-05 0.000189394 6.16811e-05
0.000161916 0.000189984 -0.000558067 3.79525e-05 0.000187892 6.01944e-05
0.000162773 0.000189283 -0.000559665 4.38444e-05 0.000186108 5.84345e-05
0.000163547 0.000188618 -0.000561129 4.99464e-05 0.000184046 5.63913e-05
0.000164225 0.000187982 -0.000562423 5.62715e-05 0.000181708 5.40505e-05
0.0001648 0.000187359 -0.000563505 6.28238e-05 0.000179073 5.13831e-05
0.00016526 0.000186738 -0.000564332 6.96018e-05 0.000176107 4.83439e-05
0.000165585 0.000186131 -0.000564854 7.65936e-05 0.00017278 4.48478e-05
0.00016107 0.000189932 -0.000555488 2.69595e-05 0.00019475 6.66137e-05
0.000162232 0.000188978 -0.000557485 3.2618e-05 0.000193529 6.54383e-05
0.000163336 0.000188047 -0.000559395 3.84588e-05 0.000192057 6.40607e-05
0.000164378 0.000187136 -0.000561199 4.44999e-05 0.00019031 6.24186e-05
0.000165344 0.000186255 -0.000562878 5.07612e-05 0.000188284 6.04967e-05
0.000166222 0.000185399 -0.000564402 5.72602e-05 0.000185971 5.82751e-05
0.000167003 0.00018456 -0.000565733 6.40067e-05 0.000183348 5.57237e-05
0.000167675 0.000183725 -0.000566829 7.1004e-05 0.000180385 5.28e-05
0.000168219 0.000182903 -0.000567626 7.82453e-05 0.000177071 4.93993e-05
0.000162156 0.000188334 -0.000556393 2.71281e-05 0.000198737 7.03638e-05
0.000163494 0.000187174 -0.000558591 3.29189e-05 0.00019754 6.93058e-05
0.000164781 0.000186027 -0.000560698 3.88948e-05 0.000196103 6.80441e-05
0.000166013 0.000184897 -0.000562708 4.50791e-05 0.000194397 6.65264e-05
0.000167176 0.00018379 -0.000564604 5.14966e-05 0.000192414 6.4733e-05
0.000168259 0.000182709 -0.000566361 5.8169e-05 0.000190136 6.26409e-05
0.000169251 0.000181645 -0.000567943 6.51099e-05 0.000187538 6.02193e-05
0.000170141 0.000180586 -0.000569309 7.2326e-05 0.000184592 5.7427e-05
0.000170912 0.000179538 -0.000570389 7.9817e-05 0.000181298 5.41463e-05
0.000163252 0.00018668 -0.000557284 2.72409e-05 0.000202579 7.42133e-05
0.000164773 0.000185298 -0.000559669 3.31512e-05 0.000201421 7.32782e-05
0.000166248 0.000183927 -0.000561972 3.92554e-05 0.000200021 7.21399e-05
0.000167676 0.000182566 -0.000564188 4.55767e-05 0.000198359 7.07539e-05
0.000169041 0.000181226 -0.000566302 5.21457e-05 0.000196425 6.90976e-05
0.000170334 0.00017991 -0.000568293 5.89886e-05 0.000194194 6.7146e-05
0.000171542 0.000178613 -0.000570127 6.61219e-05 0.000191633 6.48686e-05
0.000172657 0.00017732 -0.000571763 7.35552e-05 0.000188713 6.22247e-05
0.000173663 0.000176032 -0.000573136 8.1295e-05 0.000185448 5.90902e-05
0.000164359 0.000184964 -0.000558151 2.72862e-05 0.000206278 7.81496e-05
0.000166067 0.000183354 -0.000560716 3.33097e-05 0.000205163 7.73485e-05
0.000167736 0.000181748 -0.000563215 3.95345e-05 0.000203801 7.63417e-05
0.000169364 0.000180146 -0.000565635 4.5986e-05 0.000202186 7.50957e-05
0.000170937 0.000178561 -0.000567966 5.27005e-05 0.000200308 7.35858e-05
0.000172444 0.000177003 -0.000570191 5.97088e-05 0.000198134 7.17862e-05
0.000173875 0.000175463 -0.000572278 6.703e-05 0.00019562 6.96674e-05
0.000175222 0.000173935 -0.000574177 7.46331e-05 0.000192755 6.71512e-05
0.00017647 0.000172397 -0.000575868 8.26207e-05 0.000189515 6.42431e-05
0.000165475 0.000183189 -0.000558976 2.72356e-05 0.000209856 8.21457e-05
0.000167372 0.00018134 -0.000561722 3.33253e-05 0.000208809 8.14831e-05
0.000169239 0.00017949 -0.000564415 3.9659e-05 0.000207505 8.06272e-05
0.000171073 0.00017764 -0.000567067 4.62725e-05 0.000205908 7.95515e-05
0.000172861 0.0001758 -0.000569593 5.31521e-05 0.000204054 7.81906e-05
0.000174589 0.000173988 -0.00057205 6.03183e-05 0.000201945 7.65545e-05
0.000176246 0.000172198 -0.00057439 6.782e-05 0.000199489 7.46088e-05
0.000177832 0.000170408 -0.000576561 7.56913e-05 0.000196647 7.22519e-05
0.000172804 0.000175056 -0.000568432 4.65883e-05 0.000209485 8.41037e-05
0.000174816 0.00017297 -0.000571157 5.35715e-05 0.000207814 8.28576e-05
0.000176774 0.000170898 -0.000573893 6.07986e-05 0.000205742 8.13619e-05
0.000178664 0.000168815 -0.000576472 6.84289e-05 0.000203271 7.9669e-05
0.000180489 0.000166752 -0.000578924 7.65451e-05 0.000200452 7.75487e-05
0.000156193 0.000188496 -0.00055249 3.03562e-05 0.000158954 5.53875e-05
0.000156884 0.000188 -0.000553976 3.63045e-05 0.00015759 5.42311e-05
0.000157525 0.000187542 -0.000555371 4.23909e-05 0.00015598 5.27865e-05
0.000158098 0.000187133 -0.000556644 4.86595e-05 0.000154112 5.10362e-05
0.000158586 0.000186737 -0.000557777 5.51431e-05 0.000151997 4.89843e-05
0.000158978 0.000186328 -0.000558738 6.18469e-05 0.000149633 4.66441e-05
0.000159269 0.000185918 -0.000559484 6.87531e-05 0.000147005 4.40031e-05
0.000159454 0.00018554 -0.000559988 7.58414e-05 0.000144091 4.10415e-05
0.0001571 0.00018743 -0.000553509 3.10296e-05 0.0001632 5.91046e-05
0.000157939 0.000186821 -0.000555166 3.71482e-05 0.000161843 5.80159e-05
0.000158729 0.000186208 -0.000556745 4.34177e-05 0.000160242 5.66607e-05
0.000159454 0.000185619 -0.000558218 4.98835e-05 0.000158367 5.50102e-05
0.000160098 0.000185062 -0.000559564 5.65771e-05 0.000156241 5.30699e-05
0.000160654 0.000184527 -0.000560749 6.3507e-05 0.000153876 5.08473e-05
0.000161116 0.000183991 -0.00056173 7.06564e-05 0.000151257 4.83218e-05
0.000161478 0.000183436 -0.000562476 7.7952e-05 0.000148357 4.54478e-05
0.00016172 0.000182889 -0.000562946 8.54771e-05 0.000145113 4.20589e-05
0.000158024 0.000186311 -0.000554506 3.16559e-05 0.000167432 6.29556e-05
0.000159015 0.000185564 -0.000556342 3.79584e-05 0.000166077 6.19297e-05
0.000159955 0.000184801 -0.000558113 4.44089e-05 0.000164496 6.06812e-05
0.000160836 0.000184055 -0.000559784 5.10629e-05 0.000162648 5.91511e-05
0.000161644 0.000183334 -0.000561338 5.7947e-05 0.000160542 5.73358e-05
0.00016237 0.000182631 -0.000562744 6.50751e-05 0.000158181 5.52318e-05
0.000163007 0.00018193 -0.000563963 7.24445e-05 0.00015555 5.28158e-05
0.000163548 0.00018122 -0.00056496 8.00459e-05 0.000152621 5.00394e-05
0.000163975 0.000180511 -0.000565692 8.78628e-05 0.000149376 4.67972e-05
0.000158963 0.000185179 -0.000555466 3.22746e-05 0.000171567 6.68984e-05
0.000160107 0.000184244 -0.000557498 3.87108e-05 0.000170253 6.59624e-05
0.000161202 0.000183322 -0.000559461 4.53347e-05 0.000168697 6.4828e-05
0.000162244 0.000182412 -0.000561334 5.2171e-05 0.00016688 6.34233e-05
0.00016322 0.000181522 -0.000563098 5.92449e-05 0.000164802 6.17386e-05
0.00016412 0.000180647 -0.000564728 6.65752e-05 0.000162457 5.97624e-05
0.000164938 0.000179776 -0.000566187 7.4169e-05 0.000159827 5.74695e-05
0.000165664 0.000178898 -0.000567441 8.20261e-05 0.000156892 5.48151e-05
0.000166283 0.000178018 -0.000568435 9.01359e-05 0.000153647 5.16797e-05
0.000159916 0.000183958 -0.000556396 3.28018e-05 0.000175658 7.092e-05
0.000161213 0.000182862 -0.00055863 3.93994e-05 0.000174364 7.01104e-05
0.000162468 0.000181773 -0.000560786 4.61898e-05 0.000172838 6.9098e-05
0.000163676 0.000180692 -0.000562861 5.32025e-05 0.000171055 6.78247e-05
0.000164825 0.000179625 -0.000564838 6.0464e-05 0.000169012 6.62766e-05
0.000165905 0.000178572 -0.000566693 6.79975e-05 0.000166695 6.44384e-05
0.000166907 0.000177526 -0.000568395 7.58178e-05 0.000164081 6.22837e-05
0.000167824 0.000176472 -0.000569907 8.39319e-05 0.000161151 5.97693e-05
0.000168642 0.000175413 -0.000571171 9.23357e-05 0.000157914 5.67662e-05
0.000160875 0.000182687 -0.000557313 3.3274e-05 0.000179662 7.50468e-05
0.000162331 0.000181419 -0.000559732 4.00173e-05 0.000178404 7.43682e-05
0.000163751 0.000180155 -0.000562083 4.69676e-05 0.000176911 7.34864e-05
0.00016513 0.000178893 -0.00056436 5.41507e-05 0.000175168 7.23514e-05
0.000166457 0.000177642 -0.00056655 6.15961e-05 0.000173167 7.09474e-05
0.00016772 0.000176407 -0.000568633 6.93315e-05 0.000170887 6.92578e-05
0.000168912 0.000175178 -0.000570579 7.73775e-05 0.000168301 6.72567e-05
0.000170025 0.00017394 -0.000572351 8.57483e-05 0.000165387 6.49018e-05
0.000171048 0.000172693 -0.000573894 9.44473e-05 0.000162165 6.20586e-05
0.000161842 0.00018136 -0.000558206 3.36751e-05 0.000183584 7.92642e-05
0.00016346 0.000179915 -0.000560803 4.05572e-05 0.000182367 7.8729e-05
0.000165049 0.000178468 -0.000563347 4.76605e-05 0.000180909 7.79866e-05
0.000166604 0.000177017 -0.000565826 5.50077e-05 0.000179209 7.6998e-05
0.000168114 0.000175575 -0.000568229 6.2632e-05 0.000177258 7.57465e-05
0.000169566 0.000174149 -0.000570541 7.0565e-05 0.000175027 7.42163e-05
0.000170951 0.000172731 -0.000572732 7.88333e-05 0.000172478 7.23843e-05
0.000172267 0.000171311 -0.00057476 8.74141e-05 0.000169603 7.01699e-05
0.000173501 0.000169866 -0.000576603 9.64087e-05 0.000166394 6.75675e-05
0.000162813 0.000179979 -0.000559056 3.39731e-05 0.000187445 8.35448e-05
0.000164597 0.000178347 -0.000561835 4.09468e-05 0.000186293 8.31569e-05
0.00016636 0.000176711 -0.00056457 4.81919e-05 0.000184888 8.2573e-05
0.000168096 0.000175066 -0.000567275 5.57366e-05 0.000183204 8.17634e-05
0.000169794 0.000173422 -0.000569872 6.35607e-05 0.000181277 8.06665e-05
0.000171439 0.000171799 -0.000572412 7.16849e-05 0.000179105 7.9307e-05
0.000173023 0.000170186 -0.000574848 8.01683e-05 0.000176604 7.76592e-05
0.000174547 0.00016856 -0.000577141 8.9058e-05 0.000173746 7.56178e-05
0.000169603 0.00017305 -0.00056866 5.64845e-05 0.000187126 8.66323e-05
0.000171498 0.000171222 -0.000571456 6.44468e-05 0.000185365 8.56615e-05
0.000173346 0.000169393 -0.000574267 7.2671e-05 0.00018322 8.44428e-05
0.000175134 0.000167545 -0.000576936 8.13233e-05 0.0001807 8.30546e-05
0.000176867 0.000165701 -0.000579498 9.04973e-05 0.000177862 8.12642e-05
0.000170012 0.000182726 -0.000552235 3.42085e-05 0.000135905 5.84682e-05
0.000170803 0.000182119 -0.000553785 4.05559e-05 0.000134443 5.71935e-05
0.000171556 0.000181542 -0.000555266 4.70401e-05 0.000132751 5.56001e-05
0.000172251 0.000181002 -0.000556644 5.37282e-05 0.00013082 5.36808e-05
0.000172877 0.000180467 -0.000557905 6.06535e-05 0.000128665 5.14281e-05
0.000173423 0.000179913 -0.000559018 6.78041e-05 0.000126285 4.88422e-05
0.000173885 0.000179348 -0.000559949 7.51472e-05 0.000123669 4.5907e-05
0.000174258 0.000178803 -0.000560683 8.26632e-05 0.000120801 4.26194e-05
0.000170773 0.000182008 -0.00055328 3.50223e-05 0.000140082 6.2464e-05
0.000171691 0.000181328 -0.000554996 4.15632e-05 0.000138624 6.12687e-05
0.000172571 0.000180641 -0.000556657 4.82507e-05 0.000136936 5.97802e-05
0.000173397 0.000179967 -0.000558229 5.51517e-05 0.000134994 5.79778e-05
0.000174157 0.000179315 -0.000559694 6.23029e-05 0.000132822 5.58517e-05
0.000174845 0.000178671 -0.000561023 6.97e-05 0.000130432 5.33961e-05
0.000175455 0.000178017 -0.000562179 7.7309e-05 0.000127812 5.05892e-05
0.000175983 0.000177337 -0.000563141 8.50532e-05 0.000124952 4.73969e-05
0.000176412 0.000176652 -0.00056386 9.30333e-05 0.000121788 4.3651e-05
0.000171571 0.000181252 -0.000554304 3.58374e-05 0.000144294 6.66134e-05
0.000172594 0.000180473 -0.000556194 4.2534e-05 0.000142836 6.54855e-05
0.000173602 0.000179679 -0.000558041 4.94261e-05 0.000141163 6.41147e-05
0.000174563 0.000178893 -0.000559807 5.65365e-05 0.00013924 6.24422e-05
0.000175463 0.000178121 -0.000561474 6.38946e-05 0.000137078 6.04533e-05
0.000176298 0.000177356 -0.000563016 7.1505e-05 0.000134683 5.81334e-05
0.00017706 0.000176583 -0.000564401 7.93539e-05 0.000132042 5.5455e-05
0.000177743 0.000175789 -0.000565597 8.74288e-05 0.000129136 5.23708e-05
0.000178332 0.000174985 -0.000566573 9.57266e-05 0.000125959 4.87821e-05
0.000171209 0.000181384 -0.000553109 2.99566e-05 0.000149588 7.15356e-05
0.000172413 0.000180485 -0.000555288 3.66762e-05 0.000148455 7.08537e-05
0.000173506 0.000179566 -0.000557372 4.34449e-05 0.000147045 6.98257e-05
0.000174648 0.000178659 -0.000559407 5.05336e-05 0.000145392 6.85798e-05
0.000175747 0.000177755 -0.000561369 5.78484e-05 0.000143493 6.70431e-05
0.000176793 0.00017686 -0.000563241 6.54145e-05 0.00014135 6.51978e-05
0.000177777 0.000175971 -0.000564999 7.32439e-05 0.000138962 6.30227e-05
0.000178694 0.000175074 -0.000566615 8.1337e-05 0.000136313 6.04862e-05
0.000179538 0.000174159 -0.000568057 8.96933e-05 0.000133391 5.75415e-05
0.000180294 0.000173229 -0.00056928 9.83107e-05 0.000130202 5.40726e-05
0.000171898 0.000180649 -0.000553914 3.04639e-05 0.000153778 7.57565e-05
0.000173229 0.000179629 -0.000556241 3.73431e-05 0.000152645 7.5181e-05
0.000174427 0.000178606 -0.000558525 4.42885e-05 0.000151247 7.42851e-05
0.000175706 0.00017758 -0.000560751 5.15658e-05 0.00014962 7.31713e-05
0.000176948 0.000176553 -0.00056291 5.90798e-05 0.000147749 7.17771e-05
0.000178143 0.000175531 -0.000564988 6.68541e-05 0.000145633 7.00827e-05
0.000179281 0.000174513 -0.000566966 7.49056e-05 0.000143263 6.8063e-05
0.000180358 0.000173489 -0.000568815 8.32455e-05 0.00014062 6.56832e-05
0.000181366 0.000172446 -0.000570504 9.1884e-05 0.000137693 6.28957e-05
0.000182294 0.000171385 -0.000571984 0.000100823 0.000134498 5.9574e-05
0.000172497 0.000179874 -0.000554684 3.08297e-05 0.000157894 8.00595e-05
0.000173962 0.000178732 -0.000557181 3.7861e-05 0.000156803 7.96157e-05
0.000175355 0.000177594 -0.00055965 4.50567e-05 0.000155438 7.88576e-05
0.000176776 0.000176443 -0.000562066 5.25153e-05 0.00015384 7.78836e-05
0.000178165 0.000175285 -0.000564424 6.02235e-05 0.000152003 7.66393e-05
0.000179512 0.000174131 -0.000566711 6.82041e-05 0.000149922 7.51044e-05
0.000180809 0.00017298 -0.000568909 7.64778e-05 0.000147581 7.32516e-05
0.000182048 0.000171825 -0.000570993 8.50644e-05 0.000144956 7.10441e-05
0.000183226 0.000170649 -0.000572931 9.3984e-05 0.000142034 6.84331e-05
0.000184331 0.00016945 -0.000574677 0.000103246 0.000138841 6.52869e-05
0.000174703 0.000177804 -0.000558094 3.83471e-05 0.000160947 8.41334e-05
0.00017629 0.000176529 -0.000560742 4.574e-05 0.000159614 8.35363e-05
0.000177855 0.000175246 -0.000563351 5.33732e-05 0.000158048 8.27094e-05
0.000179396 0.000173952 -0.000565906 6.12702e-05 0.000156249 8.16233e-05
0.0001809 0.000172659 -0.000568402 6.94541e-05 0.000154211 8.02573e-05
0.000182358 0.000171372 -0.000570822 7.79474e-05 0.00015191 7.85833e-05
0.000183764 0.000170081 -0.000573143 8.67771e-05 0.000149313 7.6564e-05
0.000185116 0.000168775 -0.000575329 9.59311e-05 0.000146415 7.41121e-05
0.000186405 0.000167433 -0.000577358 0.000105517 0.000143223 7.12232e-05
0.0001755 0.000176815 -0.000558967 3.87654e-05 0.00016508 8.87207e-05
0.000177228 0.000175406 -0.000561797 4.62645e-05 0.00016381 8.82795e-05
0.000178942 0.00017399 -0.000564594 5.40618e-05 0.000162293 8.76201e-05
0.000180638 0.000172556 -0.00056737 6.21809e-05 0.000160508 8.67262e-05
0.000182305 0.000171115 -0.000570057 7.05909e-05 0.000158495 8.55326e-05
0.000183928 0.000169685 -0.0005727 7.92986e-05 0.000156244 8.40495e-05
0.000185505 0.000168255 -0.000575258 8.83647e-05 0.000153685 8.22341e-05
0.000187036 0.0001668 -0.000577701 9.7852e-05 0.000150799 7.99761e-05
0.00018189 0.000171104 -0.000568771 6.30965e-05 0.000164767 9.19329e-05
0.000183725 0.000169537 -0.000571657 7.16659e-05 0.000162903 9.08838e-05
0.000185523 0.000167961 -0.000574563 8.05077e-05 0.000160671 8.95662e-05
0.000187275 0.000166355 -0.000577346 8.97729e-05 0.000158086 8.80319e-05
0.000188987 0.000164738 -0.000580046 9.95671e-05 0.000155214 8.6043e-05
0.000167782 0.000176967 -0.00055219 3.89183e-05 0.000113001 5.70606e-05
0.000168646 0.000176253 -0.000553821 4.55906e-05 0.000111438 5.54301e-05
0.000169482 0.000175559 -0.000555402 5.24093e-05 0.000109665 5.34428e-05
0.000170274 0.000174891 -0.000556902 5.94366e-05 0.000107674 5.11048e-05
0.000171012 0.00017422 -0.000558307 6.67035e-05 0.000105478 4.84006e-05
0.000171692 0.000173525 -0.000559592 7.42014e-05 0.000103079 4.53167e-05
0.000172307 0.00017281 -0.000560728 8.19005e-05 0.000100471 4.18304e-05
0.000172855 0.0001721 -0.000561708 8.97839e-05 9.76486e-05 3.79516e-05
0.000168413 0.000176596 -0.000553258 3.97078e-05 0.000117105 6.13698e-05
0.000169382 0.00017585 -0.00055505 4.65802e-05 0.000115545 5.98249e-05
0.000170323 0.00017509 -0.000556808 5.36112e-05 0.000113769 5.79501e-05
0.000171222 0.000174336 -0.000558495 6.08656e-05 0.00011176 5.57353e-05
0.000172072 0.00017359 -0.000560098 6.83732e-05 0.000109541 5.31621e-05
0.000172868 0.000172841 -0.00056159 7.61294e-05 0.000107123 5.02126e-05
0.000173606 0.000172073 -0.000562941 8.41056e-05 0.0001045 4.68584e-05
0.000174282 0.00017127 -0.000564137 9.22294e-05 0.000101676 4.30723e-05
0.000174884 0.000170452 -0.000565126 0.000100597 9.85927e-05 3.86882e-05
0.000169052 0.000176204 -0.000554305 4.04557e-05 0.000121287 6.58323e-05
0.000170127 0.000175395 -0.000556266 4.75252e-05 0.000119728 6.4379e-05
0.000171174 0.000174573 -0.000558206 5.47675e-05 0.000117962 6.26282e-05
0.000172184 0.00017375 -0.000560082 6.22392e-05 0.000115963 6.05474e-05
0.000173151 0.00017293 -0.00056188 6.99656e-05 0.000113745 5.81149e-05
0.000174067 0.000172106 -0.000563579 7.79505e-05 0.000111312 5.53059e-05
0.000174931 0.000171263 -0.000565149 8.61818e-05 0.00010866 5.20868e-05
0.000175736 0.000170391 -0.000566565 9.46494e-05 0.000105776 4.84094e-05
0.000176472 0.000169495 -0.000567804 0.000103349 0.000102667 4.41817e-05
0.000168496 0.000176671 -0.000553068 3.41314e-05 0.000126739 7.14116e-05
0.000169697 0.0001758 -0.00055531 4.11824e-05 0.000125462 7.0402e-05
0.000170879 0.000174899 -0.000557462 4.83986e-05 0.000123964 6.90688e-05
0.000172035 0.000174009 -0.000559587 5.58436e-05 0.000122213 6.74496e-05
0.00017316 0.000173115 -0.000561654 6.35269e-05 0.00012023 6.55101e-05
0.000174246 0.000172219 -0.000563651 7.14724e-05 0.000118021 6.32261e-05
0.000175287 0.000171318 -0.000565559 7.96907e-05 0.000115587 6.05676e-05
0.000176279 0.000170399 -0.000567352 8.81815e-05 0.000112918 5.7497e-05
0.000177218 0.000169451 -0.000569002 9.69449e-05 0.000110008 5.39655e-05
0.000178092 0.000168474 -0.000570476 0.000105979 0.000106873 4.98594e-05
0.000169039 0.00017625 -0.000553894 3.45564e-05 0.000131023 7.59898e-05
0.000170347 0.000175306 -0.000556283 4.17758e-05 0.000129742 7.50807e-05
0.000171636 0.00017436 -0.000558634 4.91932e-05 0.00012825 7.38896e-05
0.000172905 0.000173399 -0.000560945 5.68323e-05 0.000126519 7.24091e-05
0.000174148 0.000172429 -0.000563205 6.47213e-05 0.000124558 7.06191e-05
0.000175357 0.000171455 -0.000565404 7.2885e-05 0.000122368 6.84928e-05
0.000176526 0.000170475 -0.000567524 8.1339e-05 0.000119942 6.59965e-05
0.000177649 0.000169478 -0.000569542 9.00915e-05 0.00011727 6.30895e-05
0.000178724 0.00016845 -0.000571429 9.91508e-05 0.000114344 5.97221e-05
0.000179741 0.00016739 -0.000573146 0.000108521 0.00011119 5.5767e-05
0.000169576 0.000175799 -0.000554684 3.49083e-05 0.000135276 8.06572e-05
0.000170993 0.000174783 -0.000557242 4.22884e-05 0.000134055 7.98987e-05
0.000172397 0.000173777 -0.000559777 4.99012e-05 0.000132584 7.88341e-05
0.000173783 0.000172741 -0.000562276 5.7726e-05 0.000130878 7.75002e-05
0.000175148 0.000171691 -0.00056473 6.58147e-05 0.000128944 7.58683e-05
0.000176483 0.000170635 -0.000567132 7.41941e-05 0.000126782 7.39102e-05
0.000177782 0.000169574 -0.000569467 8.28834e-05 0.000124377 7.1589e-05
0.00017904 0.000168496 -0.000571711 9.18968e-05 0.000121712 6.88619e-05
0.000180255 0.000167386 -0.000573838 0.00010125 0.00011878 6.56781e-05
0.00018142 0.000166239 -0.000575808 0.000110957 0.000115615 6.19046e-05
0.000171641 0.000174253 -0.000558171 4.27585e-05 0.000138418 8.48183e-05
0.000173161 0.00017315 -0.000560887 5.05144e-05 0.000136965 8.38944e-05
0.000174668 0.000172033 -0.000563575 5.85163e-05 0.000135286 8.27142e-05
0.000176158 0.000170899 -0.000566224 6.67978e-05 0.000133385 8.12501e-05
0.000177622 0.000169758 -0.00056883 7.53889e-05 0.000131259 7.94714e-05
0.000179055 0.000168613 -0.000571381 8.43105e-05 0.000128885 7.73386e-05
0.000180451 0.000167453 -0.000573854 9.35811e-05 0.000126239 7.48082e-05
0.00018181 0.000166265 -0.000576221 0.000103182 0.000123316 7.17924e-05
0.000183126 0.000165028 -0.000578457 0.000113225 0.000120139 6.82841e-05
0.00017229 0.000173654 -0.000559062 4.30881e-05 0.000142814 8.97886e-05
0.000173928 0.000172468 -0.000561959 5.09545e-05 0.00014142 8.90257e-05
0.000175557 0.000171275 -0.000564833 5.9123e-05 0.000139788 8.80212e-05
0.000177176 0.000170055 -0.000567696 6.76312e-05 0.000137899 8.67608e-05
0.000178776 0.000168819 -0.000570492 7.64571e-05 0.000135796 8.51666e-05
0.000180345 0.000167588 -0.00057326 8.56056e-05 0.000133465 8.32354e-05
0.000181882 0.000166344 -0.000575964 9.51259e-05 0.000130846 8.09182e-05
0.000183389 0.000165064 -0.000578579 0.000105072 0.00012793 7.81079e-05
0.000178201 0.000169164 -0.000569108 6.84602e-05 0.000142483 9.23794e-05
0.00017994 0.000167862 -0.000572102 7.74538e-05 0.000140512 9.09418e-05
0.000181653 0.000166543 -0.000575124 8.67478e-05 0.000138193 8.91942e-05
0.000183336 0.000165183 -0.000578046 9.6476e-05 0.000135542 8.71741e-05
0.000184992 0.000163796 -0.000580908 0.000106738 0.000132634 8.46436e-05
0.000169026 0.000171207 -0.000552259 4.3263e-05 9.01625e-05 5.40348e-05
0.000170005 0.000170387 -0.000553958 5.03913e-05 8.85083e-05 5.23504e-05
0.000170968 0.000169579 -0.000555626 5.76766e-05 8.66624e-05 5.03032e-05
0.000171905 0.000168787 -0.000557232 6.51667e-05 8.46164e-05 4.78945e-05
0.000172808 0.000167984 -0.000558765 7.2897e-05 8.23859e-05 4.5118e-05
0.000173671 0.000167148 -0.000560203 8.08723e-05 7.99772e-05 4.19686e-05
0.00017449 0.000166285 -0.000561522 8.90679e-05 7.73872e-05 3.84241e-05
0.000175265 0.000165414 -0.000562725 9.74539e-05 7.46166e-05 3.44777e-05
0.000169451 0.000171181 -0.000553361 4.40641e-05 9.41987e-05 5.84192e-05
0.000170513 0.00017037 -0.000555218 5.1399e-05 9.25448e-05 5.68145e-05
0.000171561 0.00016954 -0.000557058 5.89046e-05 9.06912e-05 5.48708e-05
0.000172584 0.000168706 -0.000558847 6.6637e-05 8.86219e-05 5.25755e-05
0.000173576 0.00016787 -0.000560572 7.4626e-05 8.63615e-05 4.99232e-05
0.000174533 0.00016702 -0.000562209 8.28759e-05 8.39243e-05 4.6904e-05
0.000175452 0.000166141 -0.000563734 9.13643e-05 8.1307e-05 4.34872e-05
0.000176332 0.000165218 -0.00056514 0.000100013 7.85296e-05 3.96325e-05
0.000177164 0.00016427 -0.000566374 0.000108906 7.55327e-05 3.51695e-05
0.000169877 0.000171143 -0.00055444 4.48069e-05 9.83595e-05 6.29572e-05
0.000171024 0.000170313 -0.000556465 5.2348e-05 9.6704e-05 6.14362e-05
0.000172156 0.000169464 -0.000558484 6.00739e-05 9.48539e-05 5.96139e-05
0.000173269 0.000168606 -0.000560457 6.80359e-05 9.27872e-05 5.74509e-05
0.000174354 0.000167741 -0.000562371 7.62602e-05 9.05193e-05 5.49343e-05
0.000175409 0.00016686 -0.000564208 8.47569e-05 8.80589e-05 5.20469e-05
0.00017643 0.000165952 -0.000565944 9.35177e-05 8.54042e-05 4.87556e-05
0.000177415 0.000165005 -0.000567557 0.000102531 8.25524e-05 4.50078e-05
0.000178356 0.000164021 -0.000569035 0.000111778 7.95183e-05 4.06979e-05
0.000169065 0.000171942 -0.000553189 3.80005e-05 0.000103954 6.86733e-05
0.000170305 0.0001711 -0.000555479 4.55167e-05 0.000102569 6.76021e-05
0.000171536 0.000170226 -0.000557692 5.32129e-05 0.000100971 6.62001e-05
0.000172756 0.000169355 -0.000559893 6.11499e-05 9.91304e-05 6.45068e-05
0.00017396 0.000168471 -0.000562052 6.9334e-05 9.70725e-05 6.24831e-05
0.000175141 0.000167577 -0.000564161 7.77923e-05 9.48066e-05 6.01101e-05
0.000176295 0.000166667 -0.000566201 8.65398e-05 9.23352e-05 5.73653e-05
0.00017742 0.000165729 -0.000568151 9.55783e-05 8.96556e-05 5.42138e-05
0.000178514 0.000164751 -0.000569988 0.000104905 8.67674e-05 5.06049e-05
0.000179568 0.000163732 -0.000571689 0.000114508 8.36953e-05 4.64128e-05
0.000169408 0.000171843 -0.000554049 3.8381e-05 0.000108332 7.33343e-05
0.000170731 0.000170978 -0.000556484 4.60774e-05 0.000106942 7.23596e-05
0.000172047 0.000170105 -0.000558896 5.39868e-05 0.000105345 7.11009e-05
0.000173357 0.000169211 -0.000561279 6.21259e-05 0.00010352 6.9545e-05
0.000174655 0.0001683 -0.000563628 7.05249e-05 0.000101477 6.76683e-05
0.000175935 0.000167376 -0.000565933 7.92142e-05 9.92226e-05 6.54479e-05
0.000177192 0.000166436 -0.00056818 8.82141e-05 9.67521e-05 6.28578e-05
0.000178423 0.000165468 -0.000570347 9.75325e-05 9.40594e-05 5.98625e-05
0.000179628 0.000164459 -0.000572411 0.000107173 9.11454e-05 5.64121e-05
0.000180797 0.000163404 -0.000574343 0.000117134 8.80421e-05 5.23681e-05
0.00016974 0.000171719 -0.000554873 3.86785e-05 0.000112735 7.80917e-05
0.00017115 0.000170831 -0.000557477 4.65467e-05 0.000111406 7.72641e-05
0.000172557 0.00016995 -0.00056007 5.46626e-05 0.000109827 7.61312e-05
0.00017396 0.000169029 -0.000562639 6.2995e-05 0.000108022 7.47215e-05
0.000175355 0.000168088 -0.000565179 7.16009e-05 0.000106001 7.30009e-05
0.000176736 0.000167133 -0.000567683 8.05168e-05 0.000103767 7.09433e-05
0.000178097 0.000166163 -0.000570138 8.97679e-05 0.000101308 6.85209e-05
0.000179437 0.000165167 -0.000572525 9.93659e-05 9.86136e-05 6.56991e-05
0.000180754 0.000164125 -0.000574818 0.00010932 9.56834e-05 6.24284e-05
0.000182043 0.000163033 -0.000576991 0.000119638 9.2557e-05 5.85651e-05
0.000171566 0.000170688 -0.000558437 4.69644e-05 0.00011598 8.22743e-05
0.000173066 0.000169757 -0.000561211 5.52335e-05 0.000114415 8.12819e-05
0.000174564 0.000168808 -0.000563967 6.3749e-05 0.000112634 8.00281e-05
0.000176059 0.000167834 -0.000566698 7.2553e-05 0.000110641 7.84737e-05
0.000177544 0.000166846 -0.000569402 8.16897e-05 0.000108437 7.65896e-05
0.000179012 0.000165846 -0.000572069 9.11886e-05 0.000106002 7.43483e-05
0.000180461 0.00016482 -0.000574677 0.000101063 0.000103316 7.17176e-05
0.000181894 0.000163754 -0.000577204 0.000111283 0.000100381 6.86129e-05
0.000183306 0.000162626 -0.000579626 0.000121958 9.72303e-05 6.50145e-05
0.000171979 0.000170475 -0.000559361 4.7228e-05 0.000120642 8.73414e-05
0.000173571 0.000169513 -0.000562314 5.56147e-05 0.000119133 8.65097e-05
0.000175167 0.000168544 -0.000565254 6.43034e-05 0.000117394 8.54335e-05
0.000176765 0.000167541 -0.000568193 7.33414e-05 0.000115412 8.40829e-05
0.000178358 0.000166512 -0.000571087 8.27221e-05 0.000113233 8.23769e-05
0.000179935 0.00016548 -0.000573966 9.24626e-05 0.000110833 8.03299e-05
0.000181497 0.000164425 -0.000576798 0.000102605 0.000108165 7.79078e-05
0.000183048 0.000163323 -0.000579566 0.000113187 0.00010523 7.50064e-05
0.000177472 0.00016721 -0.00056963 7.41182e-05 0.000120324 8.98049e-05
0.000179175 0.000166174 -0.000572721 8.3678e-05 0.000118261 8.82532e-05
0.000180869 0.000165113 -0.000575848 9.35727e-05 0.000115867 8.63795e-05
0.000182548 0.000163999 -0.000578893 0.000103933 0.000113162 8.42492e-05
0.000184218 0.000162845 -0.000581896 0.000114848 0.000110229 8.16258e-05
0.000166731 0.000165456 -0.000552186 4.37991e-05 6.71813e-05 5.35341e-05
0.000167754 0.000164531 -0.000553942 5.10809e-05 6.54219e-05 5.20207e-05
0.000168771 0.000163609 -0.000555686 5.85255e-05 6.34859e-05 5.01478e-05
0.000169772 0.000162695 -0.000557386 6.61822e-05 6.13686e-05 4.7908e-05
0.000170752 0.000161761 -0.000559034 7.40893e-05 5.90905e-05 4.53018e-05
0.000171708 0.000160787 -0.000560612 8.22512e-05 5.66594e-05 4.23348e-05
0.000172639 0.000159778 -0.000562099 9.06422e-05 5.40744e-05 3.89871e-05
0.000173544 0.000158749 -0.000563515 9.92255e-05 5.13402e-05 3.52388e-05
0.000167033 0.000165772 -0.000553325 4.46609e-05 7.11506e-05 5.7937e-05
0.000168118 0.000164897 -0.000555235 5.21546e-05 6.93892e-05 5.65014e-05
0.000169196 0.000163999 -0.000557148 5.98231e-05 6.7442e-05 5.47291e-05
0.00017026 0.000163088 -0.000559026 6.7724e-05 6.5298e-05 5.26018e-05
0.000171306 0.000162163 -0.000560858 7.5893e-05 6.29831e-05 5.01212e-05
0.000172331 0.000161214 -0.000562626 8.43348e-05 6.05125e-05 4.72862e-05
0.000173334 0.000160226 -0.000564311 9.30242e-05 5.7887e-05 4.40684e-05
0.000174317 0.000159188 -0.000565915 0.000101878 5.51416e-05 4.04186e-05
0.000175274 0.000158113 -0.000567381 0.000110984 5.22172e-05 3.61592e-05
0.000167334 0.000166087 -0.000554442 4.5463e-05 7.52941e-05 6.24866e-05
0.000168481 0.000165238 -0.000556516 5.31666e-05 7.35284e-05 6.11322e-05
0.000169621 0.000164364 -0.000558603 6.1062e-05 7.15793e-05 5.94812e-05
0.00017075 0.000163472 -0.00056066 6.91991e-05 6.943e-05 5.74882e-05
0.000171864 0.000162563 -0.000562677 7.76077e-05 6.70984e-05 5.51456e-05
0.000172961 0.000161629 -0.000564638 8.6299e-05 6.45953e-05 5.24433e-05
0.00017404 0.000160657 -0.000566525 9.52648e-05 6.19235e-05 4.93509e-05
0.0001751 0.000159636 -0.000568321 0.000104493 5.90879e-05 4.58137e-05
0.000176138 0.000158569 -0.000570025 0.000113962 5.6113e-05 4.17121e-05
0.000166427 0.000167214 -0.000553188 3.85458e-05 8.10476e-05 6.80449e-05
0.000167635 0.000166404 -0.000555516 4.62315e-05 7.9541e-05 6.71374e-05
0.000168842 0.000165558 -0.000557779 5.40956e-05 7.78313e-05 6.59033e-05
0.000170045 0.000164708 -0.000560044 6.22086e-05 7.58864e-05 6.43813e-05
0.000171242 0.000163836 -0.000562283 7.05746e-05 7.37387e-05 6.25285e-05
0.000172427 0.000162945 -0.000564489 7.92219e-05 7.14005e-05 6.03308e-05
0.000173597 0.000162028 -0.000566646 8.81676e-05 6.88775e-05 5.7772e-05
0.000174752 0.000161074 -0.000568739 9.74152e-05 6.61714e-05 5.48202e-05
0.000175893 0.000160068 -0.000570748 0.000106963 6.32895e-05 5.1423e-05
0.000177014 0.000159009 -0.000572661 0.000116798 6.02645e-05 4.74439e-05
0.000166664 0.000167438 -0.000554089 3.89788e-05 8.55282e-05 7.27078e-05
0.000167932 0.000166653 -0.000556558 4.68491e-05 8.40154e-05 7.18967e-05
0.000169199 0.000165855 -0.000559017 5.49344e-05 8.22993e-05 7.08093e-05
0.000170469 0.000165028 -0.000561462 6.32567e-05 8.03647e-05 6.94249e-05
0.000171735 0.000164177 -0.000563887 7.18444e-05 7.82259e-05 6.77192e-05
0.000172993 0.000163305 -0.000566285 8.0728e-05 7.58911e-05 6.56742e-05
0.000174237 0.000162407 -0.000568643 8.993e-05 7.336e-05 6.32708e-05
0.00017547 0.000161472 -0.000570943 9.94623e-05 7.06314e-05 6.04767e-05
0.000176692 0.000160483 -0.000573169 0.000109331 6.77132e-05 5.72399e-05
0.0001779 0.000159436 -0.0005753 0.000119533 6.4645e-05 5.34141e-05
0.00016689 0.000167639 -0.000554951 3.93327e-05 9.00865e-05 7.74652e-05
0.00016822 0.00016688 -0.000557588 4.73768e-05 8.86353e-05 7.68026e-05
0.000169553 0.000166125 -0.000560227 5.56763e-05 8.69339e-05 7.58429e-05
0.00017089 0.000165322 -0.000562855 6.41996e-05 8.50151e-05 7.46056e-05
0.000172229 0.000164491 -0.000565467 7.30018e-05 8.28924e-05 7.30554e-05
0.00017356 0.000163638 -0.000568059 8.21175e-05 8.05714e-05 7.11721e-05
0.000174882 0.000162762 -0.00057062 9.1575e-05 7.80442e-05 6.89368e-05
0.000176193 0.000161848 -0.000573132 0.000101392 7.53039e-05 6.63181e-05
0.000177499 0.000160878 -0.000575577 0.000111582 7.23588e-05 6.32641e-05
0.000178795 0.000159845 -0.000577936 0.000122151 6.92553e-05 5.96245e-05
0.000168503 0.000167123 -0.000558584 4.7855e-05 9.34284e-05 8.18119e-05
0.000169903 0.000166368 -0.000561403 5.63143e-05 9.17369e-05 8.09955e-05
0.000171311 0.000165587 -0.000564215 6.503e-05 8.98381e-05 7.99155e-05
0.000172723 0.000164774 -0.000567017 7.40387e-05 8.77387e-05 7.853e-05
0.000174131 0.000163941 -0.000569806 8.33812e-05 8.54422e-05 7.68181e-05
0.000175531 0.000163088 -0.000572572 9.30909e-05 8.29308e-05 7.47638e-05
0.000176923 0.000162198 -0.000575298 0.00010319 8.01891e-05 7.23387e-05
0.000178312 0.000161257 -0.000577968 0.000113653 7.72244e-05 6.94555e-05
0.000179699 0.000160239 -0.00058056 0.000124588 7.40848e-05 6.60863e-05
0.000168783 0.000167296 -0.000559546 4.81818e-05 9.83641e-05 8.68768e-05
0.00017025 0.000166559 -0.000562542 5.67643e-05 9.6725e-05 8.6222e-05
0.000171727 0.000165815 -0.000565536 6.56604e-05 9.48654e-05 8.53207e-05
0.000173216 0.000165029 -0.00056854 7.4913e-05 9.27759e-05 8.41396e-05
0.000174705 0.000164209 -0.000571518 8.45086e-05 9.0504e-05 8.26026e-05
0.000176185 0.00016338 -0.000574492 9.44651e-05 8.80205e-05 8.07421e-05
0.000177659 0.000162517 -0.000577434 0.000104839 8.52867e-05 7.8529e-05
0.000179135 0.000161594 -0.000580338 0.000115671 8.23153e-05 7.58527e-05
0.000173707 0.000165258 -0.000570007 7.57766e-05 9.80259e-05 8.98621e-05
0.000175278 0.000164492 -0.000573183 8.55555e-05 9.58538e-05 8.84814e-05
0.000176843 0.000163688 -0.000576398 9.56743e-05 9.33671e-05 8.67885e-05
0.000178404 0.000162822 -0.000579545 0.000106277 9.05915e-05 8.48648e-05
0.000179968 0.000161904 -0.000582673 0.000117452 8.76179e-05 8.24691e-05
0.000180168 0.000159714 -0.000551941 4.41092e-05 4.42186e-05 5.70777e-05
0.000181283 0.000158686 -0.000553762 5.13372e-05 4.23444e-05 5.55517e-05
0.000182401 0.000157651 -0.000555593 5.87302e-05 4.03094e-05 5.36512e-05
0.000183515 0.000156614 -0.0005574 6.6347e-05 3.81129e-05 5.1376e-05
0.000184623 0.000155549 -0.000559174 7.42223e-05 3.57786e-05 4.87232e-05
0.000185723 0.000154438 -0.000560903 8.23515e-05 3.33153e-05 4.5695e-05
0.000186815 0.000153283 -0.000562573 9.07075e-05 3.07252e-05 4.22718e-05
0.000187899 0.000152096 -0.000564216 9.92609e-05 2.80175e-05 3.84461e-05
0.000180352 0.000160374 -0.000553106 4.50115e-05 4.81201e-05 6.16935e-05
0.00018151 0.000159436 -0.000555078 5.24538e-05 4.62418e-05 6.02502e-05
0.000182672 0.00015847 -0.000557074 6.00731e-05 4.41918e-05 5.84567e-05
0.000183831 0.000157482 -0.000559052 6.79333e-05 4.19648e-05 5.63011e-05
0.000184985 0.000156469 -0.000561003 7.60684e-05 3.95869e-05 5.37801e-05
0.000186133 0.00015542 -0.000562915 8.44761e-05 3.70732e-05 5.08891e-05
0.000187278 0.000154324 -0.000564773 9.31284e-05 3.44288e-05 4.75999e-05
0.000188418 0.000153171 -0.00056659 0.000101948 3.17049e-05 4.38707e-05
0.000189552 0.000151971 -0.000568303 0.000111032 2.88441e-05 3.95241e-05
0.000180529 0.000161042 -0.000554249 4.58607e-05 5.2246e-05 6.64632e-05
0.00018173 0.000160174 -0.000556383 5.35145e-05 5.03612e-05 6.51064e-05
0.000182936 0.000159276 -0.000558548 6.13626e-05 4.83036e-05 6.34387e-05
0.000184141 0.000158351 -0.0005607 6.94589e-05 4.60628e-05 6.14221e-05
0.000185344 0.000157399 -0.00056283 7.78316e-05 4.36584e-05 5.90448e-05
0.000186543 0.000156411 -0.000564927 8.64867e-05 4.11027e-05 5.62932e-05
0.000187741 0.000155376 -0.000566979 9.54145e-05 3.84033e-05 5.31357e-05
0.000188938 0.000154282 -0.000568972 0.000104607 3.55733e-05 4.95184e-05
0.000190131 0.000153131 -0.000570919 0.000114051 3.26476e-05 4.53285e-05
0.000179463 0.000162496 -0.000552974 3.90411e-05 5.81718e-05 7.22428e-05
0.0001807 0.000161718 -0.000555348 4.66816e-05 5.65316e-05 7.13429e-05
0.000181944 0.000160902 -0.000557669 5.44955e-05 5.47002e-05 7.01075e-05
0.000183194 0.000160073 -0.000560008 6.25634e-05 5.26412e-05 6.85735e-05
0.000184447 0.000159215 -0.000562337 7.08899e-05 5.03945e-05 6.67021e-05
0.0001857 0.000158328 -0.000564651 7.95005e-05 4.79743e-05 6.44757e-05
0.000186951 0.000157404 -0.000566938 8.84081e-05 4.53894e-05 6.18742e-05
0.000188203 0.000156433 -0.000569185 9.76164e-05 4.26464e-05 5.88635e-05
0.000189458 0.000155401 -0.000571381 0.000107128 3.976e-05 5.53911e-05
0.000190712 0.000154303 -0.000573523 0.000116935 3.67714e-05 5.13241e-05
0.000179587 0.000163044 -0.000553902 3.95288e-05 6.27537e-05 7.71384e-05
0.000180863 0.00016234 -0.000556414 4.73541e-05 6.11067e-05 7.6336e-05
0.000182149 0.000161617 -0.000558931 5.539e-05 5.9262e-05 7.52476e-05
0.000183445 0.000160859 -0.000561446 6.36695e-05 5.72085e-05 7.38558e-05
0.000184747 0.000160069 -0.000563957 7.22203e-05 5.49637e-05 7.21369e-05
0.000186052 0.000159249 -0.000566457 8.10677e-05 5.25387e-05 7.00697e-05
0.000187356 0.000158395 -0.000568938 9.02304e-05 4.99366e-05 6.76304e-05
0.000188663 0.000157492 -0.000571386 9.97216e-05 4.71614e-05 6.47834e-05
0.000189976 0.000156525 -0.000573787 0.000109554 4.42283e-05 6.14761e-05
0.000191294 0.000155486 -0.000576134 0.000119726 4.11838e-05 5.75643e-05
0.000179695 0.000163571 -0.000554791 3.99418e-05 6.74669e-05 8.21248e-05
0.000181015 0.000162942 -0.000557468 4.79393e-05 6.58836e-05 8.14758e-05
0.000182345 0.000162314 -0.000560164 5.6191e-05 6.40502e-05 8.05191e-05
0.000183689 0.000161629 -0.000562859 6.46744e-05 6.20082e-05 7.92786e-05
0.000185042 0.000160909 -0.000565554 7.34437e-05 5.97736e-05 7.77208e-05
0.0001864 0.00016016 -0.000568244 8.25253e-05 5.73549e-05 7.58223e-05
0.000187758 0.000159378 -0.000570921 9.19426e-05 5.47478e-05 7.35582e-05
0.00018912 0.000158548 -0.000573572 0.000101717 5.19511e-05 7.08927e-05
0.000190492 0.00015765 -0.000576182 0.000111869 4.89804e-05 6.77726e-05
0.000191874 0.000156675 -0.000578745 0.000122406 4.58878e-05 6.40499e-05
0.000181156 0.000163572 -0.000558489 4.84796e-05 7.08962e-05 8.67221e-05
0.000182533 0.000162991 -0.000561362 5.68915e-05 6.90684e-05 8.59131e-05
0.000183926 0.00016238 -0.00056424 6.55713e-05 6.70428e-05 8.48334e-05
0.000185332 0.000161731 -0.000567121 7.45525e-05 6.48266e-05 8.3446e-05
0.000186744 0.000161054 -0.000570003 8.38642e-05 6.24257e-05 8.17265e-05
0.000188157 0.000160348 -0.00057288 9.35336e-05 5.98261e-05 7.9651e-05
0.000189575 0.000159595 -0.000575737 0.000103588 5.7018e-05 7.71852e-05
0.000191007 0.000158777 -0.000578564 0.000114011 5.40128e-05 7.42408e-05
0.000192454 0.000157873 -0.000581343 0.000124913 5.08728e-05 7.07927e-05
0.00018129 0.00016413 -0.000559475 4.88738e-05 7.61052e-05 9.20222e-05
0.000182713 0.00016362 -0.000562524 5.74102e-05 7.43261e-05 9.13787e-05
0.000184154 0.000163102 -0.000565582 6.62724e-05 7.23359e-05 9.04816e-05
0.000185616 0.000162535 -0.000568658 7.55031e-05 7.01298e-05 8.93075e-05
0.000187086 0.000161926 -0.00057173 8.50751e-05 6.77538e-05 8.77724e-05
0.000188554 0.0001613 -0.000574808 9.49918e-05 6.51743e-05 8.58985e-05
0.000190029 0.000160628 -0.000577873 0.00010532 6.23642e-05 8.36507e-05
0.000191522 0.000159886 -0.000580927 0.000116109 5.93441e-05 8.09207e-05
0.000185891 0.000163324 -0.000570143 7.64439e-05 7.57179e-05 9.52802e-05
0.000187417 0.000162825 -0.000573411 8.6197e-05 7.34252e-05 9.39114e-05
0.000188946 0.000162281 -0.000576723 9.62846e-05 7.08357e-05 9.22189e-05
0.000190483 0.000161666 -0.000579985 0.000106849 6.79773e-05 9.02704e-05
0.000192039 0.000160986 -0.000583253 0.000117984 6.49503e-05 8.7828e-05
0.000182412 0.000153977 -0.000551589 4.53135e-05 2.13622e-05 6.21419e-05
0.000183605 0.000152845 -0.00055348 5.25549e-05 1.93782e-05 6.06103e-05
0.000184813 0.000151699 -0.000555399 5.996e-05 1.7251e-05 5.86767e-05
0.000186032 0.000150539 -0.000557314 6.75852e-05 1.49817e-05 5.63533e-05
0.00018726 0.000149343 -0.000559219 7.54663e-05 1.25957e-05 5.36327e-05
0.000188498 0.000148093 -0.000561103 8.36004e-05 1.01032e-05 5.05135e-05
0.000189747 0.000146793 -0.000562961 9.19603e-05 7.51085e-06 4.69778e-05
0.000191009 0.000145447 -0.00056483 0.000100514 4.83277e-06 4.30401e-05
0.000182437 0.000154981 -0.00055277 4.62175e-05 2.51975e-05 6.71743e-05
0.000183652 0.00015398 -0.000554807 5.36737e-05 2.32073e-05 6.57345e-05
0.000184882 0.000152946 -0.000556887 6.13052e-05 2.10595e-05 6.39203e-05
0.000186123 0.000151882 -0.000558967 6.91753e-05 1.87545e-05 6.17302e-05
0.000187374 0.00015078 -0.00056104 7.7318e-05 1.63181e-05 5.91541e-05
0.000188637 0.000149632 -0.000563099 8.57317e-05 1.37655e-05 5.61831e-05
0.000189915 0.000148427 -0.000565135 9.43887e-05 1.11064e-05 5.27901e-05
0.000191208 0.00014716 -0.000567167 0.00010321 8.40441e-06 4.89452e-05
0.00019252 0.000145833 -0.000569131 0.000112291 5.60881e-06 4.4472e-05
0.00018245 0.000156003 -0.000553927 4.70658e-05 2.93043e-05 7.23744e-05
0.000183687 0.000155116 -0.000556123 5.47338e-05 2.73063e-05 7.1031e-05
0.000184938 0.000154193 -0.000558367 6.25947e-05 2.51451e-05 6.93515e-05
0.000186203 0.000153236 -0.000560615 7.07019e-05 2.28178e-05 6.73106e-05
0.000187479 0.000152241 -0.000562862 7.90836e-05 2.03451e-05 6.48908e-05
0.000188768 0.000151199 -0.000565099 8.77462e-05 1.77414e-05 6.20728e-05
0.000190074 0.0001501 -0.000567318 9.66797e-05 1.50187e-05 5.88231e-05
0.0001914 0.000148934 -0.000569514 0.000105875 1.21981e-05 5.50885e-05
0.000192746 0.000147698 -0.000571705 0.000115318 9.32389e-06 5.07697e-05
0.000181211 0.000157784 -0.000552621 4.02285e-05 3.54021e-05 7.85682e-05
0.000182452 0.000157038 -0.000555039 4.78835e-05 3.36308e-05 7.77018e-05
0.00018371 0.000156252 -0.00055742 5.57113e-05 3.168e-05 7.64825e-05
0.000184983 0.000155444 -0.000559834 6.37925e-05 2.95122e-05 7.4946e-05
0.000186272 0.0001546 -0.000562254 7.21307e-05 2.71712e-05 7.30611e-05
0.000187574 0.000153716 -0.000564678 8.07515e-05 2.46739e-05 7.08048e-05
0.00018889 0.000152786 -0.000567097 8.9668e-05 2.20317e-05 6.81501e-05
0.000190225 0.000151799 -0.000569505 9.88831e-05 1.92563e-05 6.50589e-05
0.000191582 0.000150739 -0.000571892 0.000108399 1.63694e-05 6.14779e-05
0.000192962 0.000149603 -0.000574266 0.000118207 1.34199e-05 5.7283e-05
0.000181184 0.000158657 -0.000553563 4.0707e-05 4.00793e-05 8.39187e-05
0.000182443 0.000158032 -0.000556119 4.85479e-05 3.83021e-05 8.3153e-05
0.00018372 0.000157384 -0.000558693 5.65991e-05 3.6334e-05 8.20819e-05
0.000185016 0.000156695 -0.00056128 6.48923e-05 3.41666e-05 8.06969e-05
0.00018633 0.000155967 -0.000563877 7.34557e-05 3.18207e-05 7.89756e-05
0.000187658 0.0001552 -0.000566481 8.23144e-05 2.93103e-05 7.68917e-05
0.000189002 0.000154388 -0.000569087 9.14871e-05 2.6642e-05 7.44127e-05
0.000190365 0.000153518 -0.000571686 0.000100987 2.38249e-05 7.14967e-05
0.000191754 0.000152572 -0.000574269 0.000110824 2.08811e-05 6.80894e-05
0.000193169 0.000151542 -0.000576835 0.000120998 1.7863e-05 6.40525e-05
0.00018114 0.000159509 -0.000554466 4.11075e-05 4.49449e-05 8.93549e-05
0.000182419 0.000159008 -0.000557185 4.91219e-05 4.32341e-05 8.87522e-05
0.000183717 0.000158508 -0.000559936 5.73901e-05 4.12738e-05 8.78209e-05
0.000185037 0.000157942 -0.000562699 6.58879e-05 3.91134e-05 8.65957e-05
0.000186377 0.000157334 -0.000565476 7.46702e-05 3.67716e-05 8.50469e-05
0.000187732 0.000156688 -0.000568265 8.3764e-05 3.426e-05 8.31459e-05
0.000189103 0.000156 -0.000571061 9.31928e-05 3.15781e-05 8.08562e-05
0.000190494 0.000155253 -0.000573855 0.000102977 2.87298e-05 7.81329e-05
0.000191914 0.000154428 -0.000576636 0.000113135 2.57378e-05 7.49206e-05
0.000193365 0.000153513 -0.000579405 0.000123676 2.2659e-05 7.10774e-05
0.000182382 0.000160026 -0.000558216 4.96487e-05 4.84631e-05 9.44644e-05
0.000183702 0.000159621 -0.000561145 5.80777e-05 4.65047e-05 9.36901e-05
0.000185047 0.00015918 -0.000564088 6.67722e-05 4.43569e-05 9.26327e-05
0.000186414 0.000158694 -0.000567047 7.57667e-05 4.20283e-05 9.12661e-05
0.000187797 0.000158173 -0.000570023 8.50915e-05 3.95279e-05 8.95595e-05
0.000189194 0.000157615 -0.000573012 9.47737e-05 3.68451e-05 8.74731e-05
0.000190613 0.000156999 -0.000576004 0.000104839 3.39758e-05 8.49609e-05
0.000192065 0.000156305 -0.000578995 0.00011527 3.09344e-05 8.19321e-05
0.000193551 0.000155512 -0.000581964 0.000126176 2.77981e-05 7.83705e-05
0.000182334 0.000160971 -0.000559215 5.0026e-05 5.39399e-05 0.000100228
0.000183675 0.000160686 -0.000562317 5.85791e-05 5.20256e-05 9.96269e-05
0.000185043 0.000160395 -0.000565437 6.74555e-05 4.99098e-05 9.87594e-05
0.000186439 0.000160047 -0.000568584 7.67006e-05 4.75931e-05 9.76233e-05
0.000187853 0.00015965 -0.000571748 8.62873e-05 4.51186e-05 9.61213e-05
0.000189278 0.000159227 -0.000574934 9.62184e-05 4.2448e-05 9.42519e-05
0.000190725 0.000158748 -0.000578126 0.00010656 3.95668e-05 9.19687e-05
0.000192207 0.000158187 -0.000581333 0.000117358 3.65039e-05 8.91675e-05
0.000186452 0.000161396 -0.000570071 7.76226e-05 5.35152e-05 0.000104092
0.000187893 0.000161164 -0.00057343 8.73887e-05 5.11055e-05 0.000102775
0.000189349 0.000160881 -0.000576841 9.74926e-05 4.84221e-05 0.000101114
0.000190828 0.000160518 -0.000580223 0.000108073 4.5488e-05 9.91499e-05
0.000192343 0.000160076 -0.000583633 0.000119219 4.24122e-05 9.665e-05
0 0 0 0 0 0
0 0 0 0 0 0
0 0 0 0 0 0
0 0 0 0 0 0
0 0 0 0 0 0
0 0 0 0 0 0
0 0 0 0 0 0
0 0 0 0 0 0
0 0 0 0 0 0
0 0 0 0 0 0
0 0 0 0 0 0
0 0 0 0 0 0
0 0 0 0 0 0
0 0 0 0 0 0
0 0 0 0 0 0
0 0 0 0 0 0
0 0 0 0 0 0
0 0 0 0 0 0
0 0 0 0 0 0
0 0 0 0 0 0
0 0 0 0 0 0
0 0 0 0 0 0
0 0 0 0 0 0
0 0 0 0 0 0
0 0 0 0 0 0
0 0 0 0 0 0
0 0 0 0 0 0
0 0 0 0 0 0
0 0 0 0 0 0
0 0 0 0 0 0
0 0 0 0 0 0
0 0 0 0 0 0
0 0 0 0 0 0
0 0 0 0 0 0
0 0 0 0 0 0
0 0 0 0 0 0
0 0 0 0 0 0
0 0 0 0 0 0
0 0 0 0 0 0
0 0 0 0 0 0
0 0 0 0 0 0
0 0 0 0 0 0
0 0 0 0 0 0
0 0 0 0 0 0
0 0 0 0 0 0
0 0 0 0 0 0
0 0 0 0 0 0
0 0 0 0 0 0
0 0 0 0 0 0
0 0 0 0 0 0
0 0 0 0 0 0
0 0 0 0 0 0
0 0 0 0 0 0
0 0 0 0 0 0
0 0 0 0 0 0
0 0 0 0 0 0
0 0 0 0 0 0
0 0 0 0 0 0
0 0 0 0 0 0
0 0 0 0 0 0
0 0 0 0 0 0
0 0 0 0 0 0
0 0 0 0 0 0
0 0 0 0 0 0
0 0 0 0 0 0
0 0 0 0 0 0
0 0 0 0 0 0
0 0 0 0 0 0
0 0 0 0 0 0
0 0 0 0 0 0
0 0 0 0 0 0
0 0 0 0 0 0
0 0 0 0 0 0
0 0 0 0 0 0
0 0 0 0 0 0
0 0 0 0 0 0
0 0 0 0 0 0
0 0 0 0 0 0
0.000173984 0.000148244 -0.00055139 4.33856e-05 -1.55792e-06 6.36623e-05
0.000175244 0.000147009 -0.000553353 5.02862e-05 -3.66644e-06 6.21551e-05
0.000176529 0.000145751 -0.000555361 5.73562e-05 -5.89905e-06 6.02366e-05
0.000177837 0.000144469 -0.000557383 6.46505e-05 -8.25367e-06 5.79251e-05
0.000179172 0.000143141 -0.000559417 7.21991e-05 -1.07053e-05 5.52126e-05
0.000180535 0.000141754 -0.000561455 7.99962e-05 -1.32415e-05 5.20978e-05
0.000181927 0.000140308 -0.000563497 8.80227e-05 -1.58499e-05 4.85654e-05
0.000183351 0.000138802 -0.000565587 9.62585e-05 -1.85113e-05 4.46402e-05
0.000173816 0.000149593 -0.000552596 4.42673e-05 2.21397e-06 6.88677e-05
0.000175071 0.000148529 -0.000554702 5.13715e-05 9.67722e-08 6.74537e-05
0.000176351 0.000147428 -0.000556865 5.86585e-05 -2.16372e-06 6.5657e-05
0.000177655 0.000146286 -0.000559047 6.61861e-05 -4.56116e-06 6.34817e-05
0.000178985 0.000145096 -0.000561243 7.39831e-05 -7.07024e-06 6.09161e-05
0.000180345 0.000143848 -0.000563448 8.2045e-05 -9.67595e-06 5.79515e-05
0.000181738 0.000142536 -0.000565659 9.03505e-05 -1.23641e-05 5.45622e-05
0.000183166 0.000141153 -0.000567902 9.88331e-05 -1.5061e-05 5.07241e-05
0.000184636 0.0001397 -0.000570114 0.000107592 -1.78057e-05 4.62615e-05
0.000173632 0.000150968 -0.000553777 4.51052e-05 6.30308e-06 7.42468e-05
0.000174881 0.000150063 -0.00055604 5.24096e-05 4.17689e-06 7.29306e-05
0.000176156 0.000149116 -0.000558364 5.99129e-05 1.89682e-06 7.12695e-05
0.000177456 0.000148126 -0.000560708 6.76637e-05 -5.32163e-07 6.92454e-05
0.000178783 0.000147087 -0.000563071 7.56858e-05 -3.08796e-06 6.68391e-05
0.00018014 0.000145992 -0.000565447 8.39835e-05 -5.75478e-06 6.403e-05
0.000181531 0.00014483 -0.000567834 9.25515e-05 -8.51571e-06 6.07852e-05
0.000182963 0.000143591 -0.00057023 0.000101389 -1.13415e-05 5.70519e-05
0.000184438 0.000142271 -0.00057266 0.000110488 -1.4179e-05 5.27374e-05
0.000172212 0.000153076 -0.000552451 3.86308e-05 1.25978e-05 8.0599e-05
0.000173432 0.000152363 -0.000554916 4.5918e-05 1.06763e-05 7.97615e-05
0.000174675 0.000151607 -0.00055736 5.3372e-05 8.58727e-06 7.85671e-05
0.000175944 0.000150821 -0.000559849 6.10837e-05 6.29466e-06 7.70502e-05
0.00017724 0.00014999 -0.000562361 6.90533e-05 3.84375e-06 7.51839e-05
0.000178563 0.00014911 -0.000564895 7.73013e-05 1.25373e-06 7.29438e-05
0.000179917 0.000148174 -0.000567447 8.5839e-05 -1.46139e-06 7.03006e-05
0.000181306 0.00014717 -0.000570014 9.46735e-05 -4.28479e-06 6.72153e-05
0.00018274 0.000146084 -0.000572591 0.000103814 -7.18747e-06 6.36351e-05
0.000184218 0.000144908 -0.000575194 0.000113257 -1.01135e-05 5.94398e-05
0.000172006 0.000154275 -0.000553419 3.91199e-05 1.73687e-05 8.61429e-05
0.000173217 0.00015373 -0.000556023 4.65843e-05 1.54438e-05 8.54046e-05
0.000174452 0.000153157 -0.000558656 5.42522e-05 1.33356e-05 8.43555e-05
0.000175715 0.000152538 -0.000561314 6.21655e-05 1.1038e-05 8.29913e-05
0.000177006 0.000151871 -0.000563998 7.03494e-05 8.57488e-06 8.12907e-05
0.000178326 0.000151157 -0.000566708 7.88231e-05 5.963e-06 7.92258e-05
0.000179676 0.000150388 -0.00056944 8.76027e-05 3.21219e-06 7.67607e-05
0.000181063 0.00014955 -0.000572191 9.67055e-05 3.36797e-07 7.38515e-05
0.000182496 0.000148626 -0.000574954 0.000106151 -2.63401e-06 7.04442e-05
0.000183977 0.000147605 -0.000577737 0.000115939 -5.64231e-06 6.64033e-05
0.000171781 0.000155452 -0.000554348 3.95428e-05 2.23903e-05 9.17693e-05
0.000172984 0.00015508 -0.000557113 4.7169e-05 2.05342e-05 9.1196e-05
0.000174212 0.000154708 -0.000559922 5.50437e-05 1.84295e-05 9.02874e-05
0.00017547 0.000154261 -0.000562754 6.31522e-05 1.6134e-05 8.90839e-05
0.000176757 0.000153765 -0.000565613 7.15463e-05 1.36686e-05 8.75578e-05
0.000178072 0.000153223 -0.000568502 8.0244e-05 1.10475e-05 8.56789e-05
0.000179418 0.000152629 -0.000571419 8.9265e-05 8.27374e-06 8.34057e-05
0.000180801 0.000151965 -0.000574357 9.86357e-05 5.35679e-06 8.06901e-05
0.000182232 0.000151212 -0.000577309 0.000108385 2.3264e-06 7.74766e-05
0.000183715 0.000150356 -0.000580283 0.00011852 -7.55993e-07 7.36265e-05
0.000172736 0.000156485 -0.000558165 4.77162e-05 2.59824e-05 9.71034e-05
0.000173957 0.000156256 -0.000561153 5.57404e-05 2.38762e-05 9.63531e-05
0.000175209 0.000155985 -0.000564162 6.40381e-05 2.1589e-05 9.53174e-05
0.000176493 0.000155664 -0.000567199 7.26377e-05 1.91313e-05 9.39756e-05
0.000177804 0.0001553 -0.000570271 8.15561e-05 1.65145e-05 9.22948e-05
0.000179143 0.000154889 -0.000573376 9.08157e-05 1.37307e-05 9.02278e-05
0.000180521 0.000154409 -0.000576505 0.000100452 1.07823e-05 8.77238e-05
0.000181948 0.000153838 -0.000579659 0.000110453 7.68681e-06 8.46929e-05
0.000183431 0.000153159 -0.000582817 0.000120933 4.53677e-06 8.11226e-05
0.000172476 0.000157817 -0.000559189 4.81261e-05 3.17288e-05 0.00010306
0.000173688 0.00015776 -0.000562348 5.62671e-05 2.96604e-05 0.000102484
0.000174933 0.000157694 -0.000565532 6.47355e-05 2.74018e-05 0.000101639
0.000176213 0.000157566 -0.000568748 7.35782e-05 2.49595e-05 0.000100533
0.000177522 0.000157381 -0.000572008 8.27518e-05 2.23706e-05 9.90623e-05
0.000178855 0.000157161 -0.000575305 9.22452e-05 1.95903e-05 9.72152e-05
0.000180227 0.000156874 -0.000578628 0.00010214 1.66193e-05 9.49401e-05
0.000181649 0.000156494 -0.000581989 0.000112492 1.34964e-05 9.21377e-05
0.000175917 0.000159474 -0.000570251 7.4517e-05 3.12193e-05 0.000107201
0.000177219 0.000159509 -0.000573703 8.38533e-05 2.86731e-05 0.000105921
0.000178549 0.000159488 -0.000577216 9.35103e-05 2.58812e-05 0.000104291
0.000179917 0.000159378 -0.000580725 0.000103636 2.28548e-05 0.000102339
0.000181335 0.000159175 -0.000584277 0.000114325 1.97114e-05 9.9838e-05
0.000182179 0.000142475 -0.000551267 4.07124e-05 -2.46166e-05 6.42566e-05
0.000183544 0.000141133 -0.000553299 4.72688e-05 -2.68496e-05 6.28449e-05
0.000184945 0.000139761 -0.000555389 5.40063e-05 -2.91881e-05 6.10312e-05
0.000186383 0.000138352 -0.000557513 6.0976e-05 -3.16289e-05 5.88332e-05
0.000187862 0.000136889 -0.000559668 6.82038e-05 -3.41475e-05 5.62465e-05
0.000189384 0.000135358 -0.000561852 7.56812e-05 -3.67285e-05 5.32709e-05
0.000190954 0.000133759 -0.000564069 8.33926e-05 -3.93524e-05 4.98857e-05
0.000192574 0.000132087 -0.00056637 9.13216e-05 -4.19961e-05 4.61067e-05
0.000181877 0.000144172 -0.000552522 4.1333e-05 -2.09251e-05 6.91972e-05
0.000183218 0.00014304 -0.000554692 4.8078e-05 -2.31689e-05 6.78742e-05
0.000184595 0.000141867 -0.000556934 5.5017e-05 -2.5543e-05 6.61748e-05
0.000186009 0.000140643 -0.000559212 6.22023e-05 -2.80342e-05 6.41061e-05
0.000187465 0.00013936 -0.000561523 6.96595e-05 -3.0618e-05 6.16602e-05
0.000188965 0.000138008 -0.000563867 7.73815e-05 -3.32785e-05 5.88287e-05
0.000190514 0.000136582 -0.000566245 8.53502e-05 -3.59958e-05 5.55824e-05
0.000192118 0.000135079 -0.00056869 9.35065e-05 -3.86869e-05 5.18916e-05
0.000193786 0.000133493 -0.00057114 0.000101952 -4.13803e-05 4.75824e-05
0.00018155 0.000145901 -0.000553751 4.19086e-05 -1.687e-05 7.4295e-05
0.000182867 0.000144973 -0.000556077 4.8838e-05 -1.91245e-05 7.30648e-05
0.000184219 0.000143998 -0.000558475 5.59767e-05 -2.15249e-05 7.14971e-05
0.00018561 0.00014297 -0.00056091 6.33664e-05 -2.40574e-05 6.95742e-05
0.000187041 0.000141884 -0.000563383 7.10286e-05 -2.66987e-05 6.72805e-05
0.000188518 0.000140729 -0.000565891 7.89669e-05 -2.94305e-05 6.45971e-05
0.000190046 0.000139499 -0.000568437 8.71794e-05 -3.22305e-05 6.14895e-05
0.000191634 0.000138182 -0.000571024 9.56712e-05 -3.50612e-05 5.79039e-05
0.000193285 0.000136771 -0.000573684 0.000104437 -3.78616e-05 5.37412e-05
0.000179942 0.000148338 -0.000552433 3.55522e-05 -1.03895e-05 8.02825e-05
0.000181202 0.000147655 -0.00055494 4.24538e-05 -1.24658e-05 7.95161e-05
0.000182492 0.000146926 -0.000557444 4.95203e-05 -1.46946e-05 7.84036e-05
0.000183819 0.000146158 -0.000560004 5.68514e-05 -1.71139e-05 7.69752e-05
0.000185185 0.000145335 -0.000562602 6.44418e-05 -1.96772e-05 7.52038e-05
0.000186592 0.000144455 -0.000565241 7.23103e-05 -2.23628e-05 7.30687e-05
0.000188044 0.000143507 -0.000567919 8.04684e-05 -2.51533e-05 7.05438e-05
0.000189549 0.000142481 -0.000570638 8.89273e-05 -2.80261e-05 6.75898e-05
0.000191116 0.000141363 -0.000573396 9.77014e-05 -3.09451e-05 6.41528e-05
0.000192748 0.000140141 -0.000576217 0.000106789 -3.3848e-05 6.01073e-05
0.000179599 0.000149866 -0.000553451 3.5784e-05 -5.54269e-06 8.55249e-05
0.000180831 0.000149397 -0.0005561 4.28504e-05 -7.61915e-06 8.48537e-05
0.000182094 0.000148895 -0.000558788 5.01193e-05 -9.86929e-06 8.38833e-05
0.000183395 0.000148341 -0.000561514 5.76366e-05 -1.22995e-05 8.26021e-05
0.000184735 0.000147733 -0.000564281 6.54244e-05 -1.4883e-05 8.0989e-05
0.000186116 0.000147067 -0.00056709 7.3499e-05 -1.76e-05 7.90206e-05
0.000187543 0.000146335 -0.000569943 8.18781e-05 -2.04364e-05 7.66662e-05
0.000189023 0.000145524 -0.000572838 9.05845e-05 -2.33719e-05 7.38824e-05
0.000190566 0.000144616 -0.000575772 9.96418e-05 -2.63708e-05 7.06131e-05
0.000192177 0.000143597 -0.000578763 0.000109052 -2.93707e-05 6.67192e-05
0.000179233 0.000151369 -0.000554432 3.59553e-05 -3.82569e-07 9.08401e-05
0.000180437 0.000151123 -0.00055724 4.31675e-05 -2.38758e-06 9.03299e-05
0.000181672 0.000150874 -0.000560104 5.06298e-05 -4.63875e-06 8.94961e-05
0.000182946 0.000150543 -0.000563 5.83284e-05 -7.0721e-06 8.83697e-05
0.000184259 0.000150155 -0.000565938 6.631e-05 -9.66523e-06 8.69225e-05
0.000185614 0.000149712 -0.000568923 7.4589e-05 -1.24004e-05 8.51307e-05
0.000187014 0.000149207 -0.000571954 8.31883e-05 -1.52697e-05 8.29602e-05
0.000188467 0.000148622 -0.00057503 9.21412e-05 -1.82577e-05 8.0364e-05
0.000189985 0.000147935 -0.000578144 0.000101481 -2.13281e-05 7.72833e-05
0.000191572 0.000147132 -0.000581314 0.000111214 -2.44167e-05 7.35763e-05
0.000180021 0.000152917 -0.00055834 4.34499e-05 3.26189e-06 9.59125e-05
0.000181228 0.000152859 -0.000561385 5.10475e-05 1.00618e-06 9.52333e-05
0.000182474 0.000152756 -0.000564456 5.89229e-05 -1.42336e-06 9.42688e-05
0.000183761 0.000152595 -0.000567568 6.70948e-05 -4.01525e-06 9.29958e-05
0.000185088 0.000152384 -0.000570732 7.55751e-05 -6.75449e-06 9.13911e-05
0.000186459 0.000152115 -0.000573946 8.43911e-05 -9.64358e-06 8.94187e-05
0.000187882 0.000151767 -0.000577206 9.35876e-05 -1.26737e-05 8.70284e-05
0.000189371 0.000151312 -0.000580516 0.000103157 -1.5826e-05 8.41252e-05
0.000190933 0.000150738 -0.000583853 0.000113209 -1.89925e-05 8.06928e-05
0.000179586 0.000154639 -0.000559416 4.36025e-05 9.26032e-06 0.000101537
0.000180763 0.000154806 -0.00056263 5.13042e-05 7.03517e-06 0.000101026
0.000181978 0.000154962 -0.000565874 5.93341e-05 4.62994e-06 0.000100245
0.000183239 0.00015505 -0.000569157 6.77331e-05 2.05765e-06 9.9199e-05
0.00018454 0.000155072 -0.00057251 7.64511e-05 -6.53391e-07 9.77913e-05
0.00018588 0.00015505 -0.000575913 8.54789e-05 -3.54851e-06 9.6031e-05
0.000187273 0.000154951 -0.00057936 9.49141e-05 -6.61193e-06 9.38647e-05
0.00018873 0.000154747 -0.000582868 0.000104809 -9.79956e-06 9.11816e-05
0.000182691 0.000157519 -0.000570704 6.83761e-05 8.63576e-06 0.000105504
0.00018396 0.000157814 -0.000574247 7.72315e-05 5.94419e-06 0.000104278
0.000185272 0.000158051 -0.00057786 8.6401e-05 3.03896e-06 0.000102722
0.000186636 0.000158191 -0.00058149 9.60498e-05 -8.37676e-08 0.000100866
0.000188062 0.000158222 -0.000585178 0.000106264 -3.29997e-06 9.84747e-05
0.00018422 0.00013668 -0.000551216 4.24802e-05 -4.75516e-05 6.29536e-05
0.00018562 0.00013523 -0.000553312 4.89939e-05 -4.98958e-05 6.165e-05
0.000187062 0.000133741 -0.000555481 5.56678e-05 -5.23302e-05 5.99785e-05
0.000188551 0.000132204 -0.0005577 6.25512e-05 -5.48483e-05 5.79562e-05
0.000190093 0.000130603 -0.00055997 6.96767e-05 -5.74252e-05 5.55783e-05
0.000191693 0.000128927 -0.000562293 7.70392e-05 -6.00432e-05 5.2841e-05
0.000193356 0.000127173 -0.000564678 8.46132e-05 -6.26771e-05 4.97228e-05
0.000195088 0.000125334 -0.000567182 9.23653e-05 -6.53002e-05 4.62369e-05
0.000183858 0.000138723 -0.000552532 4.30871e-05 -4.39337e-05 6.7389e-05
0.000185213 0.000137522 -0.000554765 4.97917e-05 -4.62899e-05 6.61631e-05
0.00018661 0.000136275 -0.000557081 5.66667e-05 -4.87658e-05 6.4593e-05
0.000188053 0.000134969 -0.00055945 6.37681e-05 -5.13407e-05 6.2685e-05
0.000189549 0.00013359 -0.00056187 7.11261e-05 -5.39901e-05 6.04323e-05
0.000191104 0.000132132 -0.000564344 7.87358e-05 -5.66972e-05 5.7824e-05
0.000192723 0.000130592 -0.000566882 8.65712e-05 -5.94367e-05 5.48309e-05
0.000194413 0.000128967 -0.000569519 9.45596e-05 -6.21152e-05 5.14269e-05
0.000196189 0.000127246 -0.000572197 0.000102795 -6.47543e-05 4.74478e-05
0.000183475 0.000140804 -0.000553823 4.36352e-05 -3.99039e-05 7.19639e-05
0.000184784 0.000139852 -0.000556209 5.05278e-05 -4.2272e-05 7.0819e-05
0.000186134 0.000138847 -0.000558678 5.7607e-05 -4.47801e-05 6.93681e-05
0.000187531 0.000137781 -0.0005612 6.49182e-05 -4.7405e-05 6.75901e-05
0.00018898 0.000136645 -0.000563776 7.24859e-05 -5.01216e-05 6.54713e-05
0.000190487 0.00013543 -0.00056641 8.03141e-05 -5.29093e-05 6.29943e-05
0.000192059 0.000134129 -0.000569108 8.83944e-05 -5.57402e-05 6.01273e-05
0.000193707 0.000132732 -0.000571875 9.67224e-05 -5.85698e-05 5.68227e-05
0.00019544 0.000131229 -0.000574754 0.000105282 -6.13297e-05 5.29819e-05
0.000181847 0.00014357 -0.000552527 3.72731e-05 -3.32473e-05 7.73566e-05
0.000183073 0.000142916 -0.000555076 4.41474e-05 -3.54617e-05 7.66433e-05
0.000184334 0.000142214 -0.000557638 5.1178e-05 -3.78137e-05 7.56077e-05
0.000185636 0.000141461 -0.000560265 5.84528e-05 -4.03462e-05 7.42835e-05
0.000186985 0.000140647 -0.000562946 6.59683e-05 -4.30099e-05 7.26411e-05
0.000188385 0.000139763 -0.000565684 7.37458e-05 -4.57801e-05 7.06626e-05
0.000189843 0.000138803 -0.000568483 8.17968e-05 -4.86355e-05 6.83266e-05
0.000191366 0.000137753 -0.000571344 9.0126e-05 -5.15487e-05 6.5599e-05
0.000192967 0.0001366 -0.000574274 9.8739e-05 -5.4477e-05 6.24309e-05
0.000194653 0.000135331 -0.000577303 0.000107626 -5.73522e-05 5.86976e-05
0.000181474 0.000145426 -0.00055361 3.74618e-05 -2.83149e-05 8.20525e-05
0.000182652 0.000145032 -0.000556302 4.45028e-05 -3.05262e-05 8.14247e-05
0.000183863 0.000144601 -0.000559044 5.17371e-05 -3.29025e-05 8.05231e-05
0.000185116 0.000144111 -0.000561836 5.92004e-05 -3.54512e-05 7.93332e-05
0.000186415 0.000143558 -0.000564681 6.69149e-05 -3.81424e-05 7.78328e-05
0.000187765 0.000142939 -0.000567586 7.49013e-05 -4.09527e-05 7.60022e-05
0.000189172 0.000142244 -0.000570553 8.31772e-05 -4.38632e-05 7.38183e-05
0.000190644 0.000141458 -0.000573584 9.17577e-05 -4.68487e-05 7.12452e-05
0.000192194 0.000140563 -0.000576681 0.000100657 -4.98677e-05 6.82317e-05
0.000193831 0.000139544 -0.000579868 0.000109871 -5.28531e-05 6.46388e-05
0.000181084 0.000147254 -0.000554655 3.75753e-05 -2.30097e-05 8.68168e-05
0.000182211 0.000147132 -0.000557505 4.47678e-05 -2.51459e-05 8.6336e-05
0.000183372 0.000147008 -0.000560423 5.22004e-05 -2.75267e-05 8.55587e-05
0.000184574 0.00014679 -0.000563383 5.98461e-05 -3.00832e-05 8.45106e-05
0.000185823 0.000146509 -0.000566397 6.77546e-05 -3.27909e-05 8.31595e-05
0.000187121 0.000146164 -0.000569473 7.59475e-05 -3.56274e-05 8.14851e-05
0.000188474 0.000145746 -0.000572614 8.44481e-05 -3.85797e-05 7.94652e-05
0.000189892 0.000145237 -0.000575819 9.32801e-05 -4.16272e-05 7.70632e-05
0.000191388 0.000144614 -0.000579087 0.000102465 -4.47287e-05 7.42243e-05
0.000192973 0.000143861 -0.000582441 0.000112005 -4.78165e-05 7.08056e-05
0.000181752 0.000149316 -0.000558668 4.49903e-05 -1.92867e-05 9.1343e-05
0.000182861 0.000149428 -0.000561767 5.25643e-05 -2.1675e-05 9.07063e-05
0.000184012 0.000149491 -0.0005649 6.0387e-05 -2.42318e-05 8.98081e-05
0.000185209 0.00014949 -0.000568087 6.84837e-05 -2.69445e-05 8.86138e-05
0.000186454 0.000149429 -0.000571339 7.68793e-05 -2.97925e-05 8.71045e-05
0.000187751 0.0001493 -0.000574658 8.5603e-05 -3.27729e-05 8.52611e-05
0.000189112 0.000149082 -0.000578041 9.46848e-05 -3.58721e-05 8.30473e-05
0.000190551 0.000148742 -0.000581498 0.000104102 -3.9071e-05 8.03719e-05
0.000192079 0.000148271 -0.000585005 0.000113966 -4.2246e-05 7.72128e-05
0.000181278 0.000151426 -0.000559808 4.50692e-05 -1.30283e-05 9.63898e-05
0.000182333 0.000151816 -0.000563077 5.2748e-05 -1.53921e-05 9.59077e-05
0.000183429 0.000152193 -0.000566382 6.07287e-05 -1.79288e-05 9.51779e-05
0.000184575 0.000152495 -0.000569733 6.90557e-05 -2.06178e-05 9.41894e-05
0.000185768 0.000152725 -0.000573175 7.76928e-05 -2.34371e-05 9.28504e-05
0.000187007 0.000152899 -0.000576678 8.66366e-05 -2.64313e-05 9.11957e-05
0.000188308 0.000152986 -0.000580244 9.59644e-05 -2.9573e-05 8.91886e-05
0.000189685 0.000152955 -0.000583891 0.000105708 -3.28166e-05 8.67158e-05
0.000183917 0.000155528 -0.00057134 6.96241e-05 -1.37125e-05 9.98571e-05
0.00018505 0.00015608 -0.000574972 7.84012e-05 -1.65328e-05 9.8675e-05
0.000186233 0.000156571 -0.00057868 8.74907e-05 -1.95368e-05 9.71976e-05
0.000187477 0.000156958 -0.000582423 9.70337e-05 -2.27433e-05 9.54781e-05
0.000188793 0.000157223 -0.000586241 0.000107099 -2.6022e-05 9.32765e-05
0.000192339 0.000130911 -0.000550984 4.4416e-05 -7.05442e-05 6.53638e-05
0.000193837 0.000129353 -0.000553138 5.08138e-05 -7.30077e-05 6.42162e-05
0.000195386 0.000127747 -0.000555379 5.73417e-05 -7.5547e-05 6.27311e-05
0.000196994 0.000126082 -0.000557689 6.40501e-05 -7.81518e-05 6.09271e-05
0.000198669 0.000124344 -0.000560068 7.09759e-05 -8.07962e-05 5.88009e-05
0.000200418 0.000122524 -0.000562522 7.81182e-05 -8.3461e-05 5.63547e-05
0.000202245 0.000120617 -0.000565066 8.54466e-05 -8.6117e-05 5.35779e-05
0.000204157 0.000118611 -0.000567762 9.29201e-05 -8.87325e-05 5.04994e-05
0.000191847 0.000133296 -0.000552342 4.52633e-05 -6.69877e-05 6.96907e-05
0.000193282 0.000132028 -0.00055463 5.18566e-05 -6.94656e-05 6.86111e-05
0.000194768 0.000130709 -0.000557015 5.85897e-05 -7.20524e-05 6.7219e-05
0.000196313 0.000129321 -0.000559469 6.55219e-05 -7.47204e-05 6.55193e-05
0.000197925 0.000127849 -0.000561992 7.26863e-05 -7.74449e-05 6.35072e-05
0.00019961 0.000126286 -0.000564591 8.0081e-05 -8.02085e-05 6.11781e-05
0.000201374 0.000124631 -0.000567279 8.76762e-05 -8.29814e-05 5.85124e-05
0.000203225 0.000122886 -0.000570099 9.53903e-05 -8.56604e-05 5.54952e-05
0.000205179 0.000121031 -0.00057299 0.000103307 -8.82584e-05 5.19709e-05
0.000191325 0.000135731 -0.000553675 4.60534e-05 -6.29704e-05 7.41616e-05
0.000192697 0.000134755 -0.000556115 5.28398e-05 -6.54613e-05 7.31509e-05
0.00019412 0.000133722 -0.000558649 5.9783e-05 -6.8086e-05 7.18659e-05
0.0001956 0.000132618 -0.000561252 6.69333e-05 -7.08124e-05 7.02848e-05
0.000197146 0.000131433 -0.000563926 7.43161e-05 -7.36139e-05 6.83959e-05
0.000198764 0.000130159 -0.000566678 8.19355e-05 -7.64675e-05 6.61867e-05
0.000200462 0.000128789 -0.000569518 8.97784e-05 -7.9341e-05 6.3633e-05
0.00020225 0.000127312 -0.000572457 9.78324e-05 -8.21824e-05 6.06947e-05
0.000204142 0.000125718 -0.000575542 0.000106075 -8.49159e-05 5.72872e-05
0.000189513 0.000138825 -0.000552384 4.00287e-05 -5.61216e-05 7.93496e-05
0.000190777 0.000138201 -0.000554971 4.68142e-05 -5.84784e-05 7.87374e-05
0.000192083 0.000137524 -0.000557584 5.37402e-05 -6.09613e-05 7.78251e-05
0.00019344 0.000136789 -0.000560274 6.08845e-05 -6.36156e-05 7.66548e-05
0.000194854 0.000135983 -0.000563032 6.82462e-05 -6.63885e-05 7.51982e-05
0.000196331 0.000135098 -0.000565863 7.58469e-05 -6.92525e-05 7.34386e-05
0.00019788 0.000134126 -0.000568773 8.3696e-05 -7.21834e-05 7.13578e-05
0.000199509 0.000133053 -0.00057177 9.17923e-05 -7.51487e-05 6.89283e-05
0.00020123 0.000131867 -0.000574862 0.000100134 -7.80995e-05 6.61094e-05
0.000203054 0.000130552 -0.000578087 0.000108707 -8.09611e-05 6.27882e-05
0.000189006 0.000141007 -0.000553509 4.04659e-05 -5.10877e-05 8.39537e-05
0.000190202 0.000140689 -0.00055624 4.7421e-05 -5.34398e-05 8.34164e-05
0.000191441 0.000140329 -0.000559031 5.45524e-05 -5.59504e-05 8.2627e-05
0.00019273 0.000139904 -0.000561883 6.18898e-05 -5.86259e-05 8.15796e-05
0.000194075 0.000139408 -0.000564802 6.9457e-05 -6.14334e-05 8.02543e-05
0.000195482 0.000138837 -0.000567795 7.72746e-05 -6.43458e-05 7.86312e-05
0.000196958 0.000138179 -0.000570869 8.53564e-05 -6.73408e-05 7.66887e-05
0.000198514 0.000137419 -0.000574028 9.37098e-05 -7.03884e-05 7.43974e-05
0.000200164 0.00013654 -0.000577278 0.000102342 -7.3441e-05 7.1715e-05
0.000201918 0.000135522 -0.00058065 0.000111245 -7.64259e-05 6.85126e-05
0.000188475 0.000143159 -0.000554597 4.08204e-05 -4.56227e-05 8.86283e-05
0.000189601 0.000143163 -0.000557484 4.79351e-05 -4.78959e-05 8.82274e-05
0.00019077 0.000143163 -0.000560451 5.52708e-05 -5.04147e-05 8.75497e-05
0.000191989 0.00014306 -0.000563469 6.27951e-05 -5.31029e-05 8.66331e-05
0.000193264 0.000142886 -0.000566554 7.05617e-05 -5.59331e-05 8.54468e-05
0.000194598 0.000142639 -0.000569714 7.85941e-05 -5.88793e-05 8.39685e-05
0.000195999 0.00014231 -0.000572957 8.69098e-05 -6.19249e-05 8.21753e-05
0.000197479 0.000141879 -0.000576283 9.5522e-05 -6.50446e-05 8.0037e-05
0.000199053 0.000141323 -0.000579696 0.000104444 -6.8191e-05 7.75099e-05
0.000200732 0.000140621 -0.000583224 0.000113677 -7.12919e-05 7.44601e-05
0.000188975 0.000145734 -0.000558687 4.84074e-05 -4.18107e-05 9.31354e-05
0.000190072 0.000146019 -0.000561836 5.5892e-05 -4.43413e-05 9.25851e-05
0.000191219 0.000146249 -0.000565026 6.35967e-05 -4.70341e-05 9.1807e-05
0.000192422 0.000146407 -0.000568281 7.15564e-05 -4.98748e-05 9.07681e-05
0.000193681 0.000146497 -0.000571613 7.98006e-05 -5.28392e-05 8.94435e-05
0.000195005 0.000146512 -0.000575029 8.83501e-05 -5.59211e-05 8.78107e-05
0.000196405 0.000146425 -0.000578528 9.72202e-05 -5.91026e-05 8.58411e-05
0.000197898 0.000146201 -0.000582123 0.000106379 -6.2362e-05 8.34565e-05
0.000199497 0.000145834 -0.00058579 0.000115941 -6.55596e-05 8.06456e-05
0.000188326 0.00014823 -0.000559869 4.87286e-05 -3.52756e-05 9.80853e-05
0.000189348 0.000148842 -0.000563187 5.63226e-05 -3.77863e-05 9.76797e-05
0.00019042 0.000149442 -0.000566548 6.41924e-05 -4.04634e-05 9.70563e-05
0.00019155 0.000149962 -0.000569959 7.23927e-05 -4.32778e-05 9.62132e-05
0.000192735 0.000150401 -0.000573484 8.08907e-05 -4.62121e-05 9.50471e-05
0.000193977 0.000150774 -0.00057708 8.96732e-05 -4.93155e-05 9.35847e-05
0.000195294 0.000151048 -0.000580755 9.87977e-05 -5.25498e-05 9.17993e-05
0.000196703 0.000151191 -0.000584532 0.000108288 -5.58639e-05 8.95982e-05
0.000190645 0.000153556 -0.000571604 7.32233e-05 -3.60288e-05 0.000101749
0.000191747 0.000154368 -0.000575317 8.18706e-05 -3.89839e-05 0.000100724
0.000192909 0.000155115 -0.000579112 9.08126e-05 -4.20968e-05 9.94263e-05
0.000194144 0.000155748 -0.000582958 0.000100162 -4.54006e-05 9.79116e-05
0.000195468 0.000156249 -0.000586899 0.000109981 -4.87564e-05 9.59625e-05
0.00018423 0.000125153 -0.000550715 3.90042e-05 -9.39551e-05 6.74188e-05
0.000185789 0.000123484 -0.000552926 4.46077e-05 -9.65732e-05 6.63989e-05
0.000187408 0.000121761 -0.00055524 5.03511e-05 -9.92515e-05 6.50485e-05
0.000189098 0.000119965 -0.00055764 5.62698e-05 -0.000101978 6.33886e-05
0.000190868 0.000118088 -0.000560129 6.23922e-05 -0.000104724 6.14217e-05
0.000192728 0.000116119 -0.000562717 6.87219e-05 -0.000107468 5.91595e-05
0.000194682 0.000114055 -0.00056542 7.52478e-05 -0.000110176 5.6599e-05
0.000196736 0.00011188 -0.000568308 8.19477e-05 -0.000112811 5.37778e-05
0.000183525 0.000127885 -0.000552105 3.97289e-05 -9.04783e-05 7.18445e-05
0.000184993 0.000126547 -0.000554447 4.5497e-05 -9.31156e-05 7.08869e-05
0.000186521 0.000125152 -0.000556901 5.14188e-05 -9.585e-05 6.96244e-05
0.000188119 0.00012368 -0.000559441 5.75324e-05 -9.86472e-05 6.80637e-05
0.000189797 0.000122112 -0.000562068 6.38609e-05 -0.000101482 6.62056e-05
0.000191563 0.000120441 -0.000564792 7.04062e-05 -0.000104337 6.40548e-05
0.000193424 0.000118668 -0.000567632 7.71564e-05 -0.000107177 6.15976e-05
0.000195388 0.000116797 -0.000570635 8.40504e-05 -0.000109889 5.88214e-05
0.000197476 0.000114804 -0.000573743 9.1169e-05 -0.000112476 5.55729e-05
0.000182787 0.000130673 -0.000553469 4.04172e-05 -8.64914e-05 7.64197e-05
0.000184163 0.000129672 -0.000555962 4.63462e-05 -8.91449e-05 7.5524e-05
0.000185598 0.000128607 -0.000558561 5.24422e-05 -9.19248e-05 7.4362e-05
0.000187102 0.000127463 -0.000561245 5.8738e-05 -9.47908e-05 7.29164e-05
0.000188683 0.000126227 -0.000564017 6.52517e-05 -9.77147e-05 7.11791e-05
0.000190351 0.000124891 -0.000566888 7.19899e-05 -0.000100671 6.91426e-05
0.000192115 0.000123448 -0.000569872 7.89525e-05 -0.000103623 6.67866e-05
0.000193987 0.000121888 -0.000572985 8.61396e-05 -0.00010651 6.40713e-05
0.000195981 0.000120198 -0.000576279 9.35354e-05 -0.000109249 6.09207e-05
0.000180784 0.0001341 -0.000552174 3.51716e-05 -7.94244e-05 8.16258e-05
0.000182016 0.000133503 -0.000554798 4.10822e-05 -8.19666e-05 8.11082e-05
0.000183298 0.00013285 -0.000557461 4.71247e-05 -8.46223e-05 8.03012e-05
0.000184637 0.000132129 -0.000560213 5.33881e-05 -8.74391e-05 7.92474e-05
0.000186044 0.000131329 -0.000563047 5.98617e-05 -9.03612e-05 7.7922e-05
0.000187525 0.000130441 -0.000565972 6.65604e-05 -9.33588e-05 7.63104e-05
0.000189092 0.000129454 -0.000568995 7.34948e-05 -9.64045e-05 7.43962e-05
0.000190754 0.000128356 -0.000572129 8.06735e-05 -9.94606e-05 7.21539e-05
0.000192526 0.000127132 -0.000575386 8.81055e-05 -0.00010247 6.95444e-05
0.000194421 0.000125765 -0.000578809 9.57812e-05 -0.000105353 6.64627e-05
0.00018008 0.000136609 -0.000553332 3.55488e-05 -7.43062e-05 8.63548e-05
0.000181215 0.000136366 -0.0005561 4.16052e-05 -7.68426e-05 8.59046e-05
0.000182398 0.000136074 -0.000558939 4.78276e-05 -7.95307e-05 8.52112e-05
0.000183639 0.000135711 -0.00056185 5.42532e-05 -8.23754e-05 8.42733e-05
0.000184945 0.00013527 -0.000564841 6.09008e-05 -8.53408e-05 8.30744e-05
0.000186324 0.000134744 -0.000567923 6.77838e-05 -8.83972e-05 8.15953e-05
0.000187786 0.000134121 -0.000571104 7.49157e-05 -9.15187e-05 7.98131e-05
0.000189342 0.000133385 -0.000574394 8.23125e-05 -9.46697e-05 7.76983e-05
0.000191009 0.000132516 -0.000577799 8.99911e-05 -9.77953e-05 7.52114e-05
0.000192799 0.000131494 -0.000581359 9.7948e-05 -0.000100818 7.22311e-05
0.00017935 0.000139086 -0.000554452 3.58655e-05 -6.86954e-05 9.11515e-05
0.000180384 0.000139214 -0.000557376 4.20536e-05 -7.11511e-05 9.08347e-05
0.000181467 0.000139336 -0.000560389 4.84508e-05 -7.38536e-05 9.02457e-05
0.000182605 0.000139346 -0.000563464 5.50344e-05 -7.67174e-05 8.94317e-05
0.000183808 0.000139277 -0.000566618 6.18527e-05 -7.97133e-05 8.83666e-05
0.000185081 0.000139127 -0.000569863 6.89185e-05 -8.28131e-05 8.70284e-05
0.000186434 0.000138884 -0.000573208 7.62474e-05 -8.59966e-05 8.53892e-05
0.000187879 0.000138527 -0.000576657 8.38624e-05 -8.92326e-05 8.34166e-05
0.000189435 0.000138033 -0.000580217 9.17881e-05 -9.24663e-05 8.10698e-05
0.000191115 0.000137378 -0.000583922 0.000100026 -9.56214e-05 7.82249e-05
0.000179525 0.000142175 -0.000558607 4.24765e-05 -6.48559e-05 9.58646e-05
0.000180503 0.000142631 -0.000561804 4.89915e-05 -6.7576e-05 9.53971e-05
0.000181537 0.000143025 -0.000565049 5.57292e-05 -7.04503e-05 9.47135e-05
0.000182635 0.00014334 -0.00056837 6.27151e-05 -7.34636e-05 9.37905e-05
0.000183799 0.00014358 -0.000571783 6.99613e-05 -7.65903e-05 9.2603e-05
0.000185037 0.000143734 -0.000575297 7.74852e-05 -7.98213e-05 9.11181e-05
0.000186368 0.000143776 -0.000578913 8.53168e-05 -8.31322e-05 8.93021e-05
0.000187807 0.000143663 -0.000582648 9.3435e-05 -8.64977e-05 8.7082e-05
0.00018937 0.000143397 -0.000586478 0.000101952 -8.97613e-05 8.44602e-05
0.000178641 0.000145058 -0.000559821 4.27694e-05 -5.80583e-05 0.000100934
0.000179511 0.000145891 -0.000563186 4.93712e-05 -6.07647e-05 0.000100606
0.000180436 0.000146712 -0.0005666 5.62424e-05 -6.36295e-05 0.000100069
0.000181425 0.000147447 -0.000570069 6.34401e-05 -6.66151e-05 9.93406e-05
0.000182478 0.000148093 -0.000573677 7.09101e-05 -6.97128e-05 9.83103e-05
0.0001836 0.000148662 -0.000577367 7.86259e-05 -7.29764e-05 9.69895e-05
0.000184809 0.000149121 -0.000581153 8.66699e-05 -7.6354e-05 9.53429e-05
0.000186127 0.000149434 -0.000585061 9.50795e-05 -7.97856e-05 9.32919e-05
0.000180179 0.000151605 -0.000571739 6.4183e-05 -5.90406e-05 0.000104982
0.000181112 0.000152675 -0.000575533 7.1763e-05 -6.2184e-05 0.000104089
0.000182115 0.000153674 -0.000579415 7.96011e-05 -6.54573e-05 0.000102931
0.000183205 0.000154552 -0.000583369 8.7837e-05 -6.89084e-05 0.000101545
0.000184398 0.000155285 -0.000587431 9.65402e-05 -7.2391e-05 9.97312e-05
0.000192969 0.000119325 -0.000550547 3.27146e-05 -0.000117552 6.81403e-05
0.00019464 0.000117538 -0.00055282 3.74302e-05 -0.000120328 6.71477e-05
0.000196381 0.000115691 -0.00055521 4.23042e-05 -0.00012315 6.58402e-05
0.000198204 0.00011376 -0.000557704 4.736e-05 -0.000126004 6.42444e-05
0.000200121 0.000111735 -0.000560305 5.26162e-05 -0.000128858 6.23629e-05
0.000202141 0.00010961 -0.000563027 5.80735e-05 -0.000131687 6.02005e-05
0.000204273 0.000107377 -0.000565894 6.37312e-05 -0.000134449 5.77443e-05
0.000206524 0.000105022 -0.00056898 6.95811e-05 -0.000137106 5.50255e-05
0.000192158 0.000122406 -0.000552002 3.28751e-05 -0.000114184 7.20547e-05
0.000193721 0.00012099 -0.000554402 3.77171e-05 -0.000116983 7.11171e-05
0.000195354 0.000119512 -0.000556929 4.27331e-05 -0.000119871 6.98866e-05
0.000197068 0.000117947 -0.000559557 4.79447e-05 -0.000122804 6.8378e-05
0.000198875 0.000116275 -0.00056229 5.33636e-05 -0.000125757 6.65925e-05
0.000200784 0.000114489 -0.000565143 5.89887e-05 -0.000128709 6.45287e-05
0.000202805 0.00011259 -0.000568138 6.4819e-05 -0.00013162 6.21654e-05
0.000204948 0.000110583 -0.00057133 7.08128e-05 -0.000134368 5.94878e-05
0.000207235 0.000108441 -0.000574661 7.70526e-05 -0.000136948 5.63512e-05
0.000191304 0.000125548 -0.00055343 3.30006e-05 -0.000110256 7.60946e-05
0.000192757 0.000124515 -0.00055598 3.79653e-05 -0.000113076 7.52114e-05
0.00019428 0.00012341 -0.000558648 4.31126e-05 -0.000116017 7.40737e-05
0.000195882 0.000122218 -0.000561416 4.84601e-05 -0.00011903 7.26687e-05
0.000197574 0.000120923 -0.00056429 5.40179e-05 -0.000122084 7.09893e-05
0.000199367 0.000119517 -0.000567284 5.97917e-05 -0.00012515 6.90254e-05
0.000201272 0.000117992 -0.000570416 6.57901e-05 -0.000128186 6.67522e-05
0.000203304 0.00011634 -0.000573708 7.20251e-05 -0.000131123 6.41305e-05
0.000205477 0.000114542 -0.000577214 7.84885e-05 -0.000133871 6.10842e-05
0.000189127 0.000129311 -0.000552162 2.81782e-05 -0.000102988 8.07598e-05
0.000190411 0.000128737 -0.000554826 3.30926e-05 -0.000105726 8.02283e-05
0.000191751 0.000128103 -0.000557544 3.81384e-05 -0.00010856 7.94256e-05
0.000193159 0.000127389 -0.000560362 4.34115e-05 -0.000111547 7.83868e-05
0.000194645 0.000126587 -0.000563276 4.88918e-05 -0.000114626 7.70895e-05
0.000196219 0.000125687 -0.000566298 5.45885e-05 -0.000117766 7.5521e-05
0.000197892 0.000124676 -0.000569438 6.05125e-05 -0.000120934 7.36649e-05
0.000199676 0.000123543 -0.000572714 6.66799e-05 -0.000124087 7.14937e-05
0.000201588 0.000122273 -0.00057614 7.31086e-05 -0.000127161 6.89679e-05
0.000203642 0.000120844 -0.000579766 7.9796e-05 -0.00013007 6.59821e-05
0.00018831 0.000132153 -0.000553388 2.80108e-05 -9.78158e-05 8.49234e-05
0.000189479 0.000131977 -0.000556197 3.304e-05 -0.000100545 8.44513e-05
0.000190703 0.000131747 -0.000559088 3.82333e-05 -0.000103418 8.37531e-05
0.000191993 0.00013144 -0.000562062 4.36285e-05 -0.00010644 8.28196e-05
0.000193359 0.000131046 -0.00056513 4.92392e-05 -0.000109573 8.16349e-05
0.000194811 0.000130556 -0.000568305 5.5074e-05 -0.000112782 8.01833e-05
0.000196359 0.000129959 -0.000571599 6.11475e-05 -0.000116039 7.84446e-05
0.000198017 0.000129237 -0.000575023 6.74836e-05 -0.000119301 7.63885e-05
0.000199803 0.000128369 -0.000578589 7.41064e-05 -0.000122506 7.39738e-05
0.00020173 0.000127333 -0.00058234 8.10172e-05 -0.000125573 7.10792e-05
0.00018746 0.000134957 -0.000554576 2.77944e-05 -9.20885e-05 8.91392e-05
0.000188509 0.000135202 -0.000557541 3.29186e-05 -9.47367e-05 8.87914e-05
0.000189612 0.00013544 -0.000560605 3.82482e-05 -9.7631e-05 8.81869e-05
0.000190781 0.000135555 -0.000563741 4.37625e-05 -0.000100679 8.73653e-05
0.000192024 0.000135584 -0.000566969 4.95019e-05 -0.000103851 8.62991e-05
0.00019335 0.000135522 -0.000570304 5.54727e-05 -0.000107115 8.49717e-05
0.000194768 0.000135356 -0.000573756 6.16934e-05 -0.000110446 8.3361e-05
0.000196295 0.000135064 -0.000577334 6.81964e-05 -0.000113807 8.1434e-05
0.000197948 0.000134622 -0.000581047 7.50129e-05 -0.000117135 7.91467e-05
0.000199742 0.000134002 -0.000584933 8.21451e-05 -0.000120353 7.63749e-05
0.000187502 0.000138554 -0.000558839 3.27749e-05 -8.82636e-05 9.32138e-05
0.000188481 0.000139173 -0.000562088 3.8182e-05 -9.11808e-05 9.272e-05
0.000189526 0.000139725 -0.000565393 4.38137e-05 -9.42456e-05 9.20165e-05
0.000190642 0.000140192 -0.000568785 4.96803e-05 -9.74432e-05 9.1075e-05
0.000191838 0.000140573 -0.000572285 5.5784e-05 -0.000100745 8.98801e-05
0.000193122 0.000140857 -0.000575903 6.21477e-05 -0.000104135 8.84085e-05
0.000194511 0.000141018 -0.000579642 6.88151e-05 -0.000107585 8.66249e-05
0.000196024 0.000141006 -0.000583522 7.57682e-05 -0.000111066 8.44502e-05
0.000197679 0.000140828 -0.000587519 8.31173e-05 -0.000114405 8.18862e-05
0.000186462 0.000141829 -0.000560122 3.25116e-05 -8.12344e-05 9.76601e-05
0.000187313 0.000142878 -0.00056354 3.79726e-05 -8.41461e-05 9.72936e-05
0.000188227 0.000143912 -0.000567012 4.36957e-05 -8.7209e-05 9.67245e-05
0.000189214 0.000144854 -0.000570546 4.97287e-05 -9.03772e-05 9.5959e-05
0.000190278 0.000145698 -0.000574242 5.60078e-05 -9.3653e-05 9.49e-05
0.000191422 0.000146454 -0.000578033 6.25097e-05 -9.70885e-05 9.35781e-05
0.000192668 0.000147087 -0.000581937 6.93376e-05 -0.000100618 9.19514e-05
0.000194036 0.000147561 -0.000585981 7.6527e-05 -0.000104179 8.99267e-05
0.000187738 0.00014958 -0.000572282 4.98059e-05 -8.25115e-05 0.000100917
0.000188658 0.000150897 -0.000576164 5.61397e-05 -8.58608e-05 9.99765e-05
0.000189662 0.000152139 -0.00058014 6.27086e-05 -8.93068e-05 9.87985e-05
0.000190766 0.000153254 -0.00058421 6.96789e-05 -9.2915e-05 9.74106e-05
0.000191984 0.00015421 -0.000588399 7.71106e-05 -9.65372e-05 9.56019e-05
0.00019359 0.000113434 -0.000550412 3.29207e-05 -0.000141039 6.77038e-05
0.000195285 0.000111525 -0.000552734 3.72717e-05 -0.00014395 6.69041e-05
0.000197058 0.000109549 -0.000555185 4.17417e-05 -0.000146898 6.58488e-05
0.000198921 0.000107479 -0.000557754 4.63627e-05 -0.000149862 6.45662e-05
0.00020089 0.000105302 -0.00056045 5.11577e-05 -0.000152809 6.30531e-05
0.000202977 0.000103013 -0.000563288 5.61227e-05 -0.000155709 6.13046e-05
0.000205194 0.000100606 -0.000566299 6.12388e-05 -0.000158516 5.93053e-05
0.000207548 9.80643e-05 -0.000569559 6.64838e-05 -0.000161186 5.70886e-05
0.000192737 0.000116863 -0.000551951 3.30106e-05 -0.000137764 7.0715e-05
0.000194304 0.000115365 -0.000554398 3.7487e-05 -0.000140701 6.99551e-05
0.000195947 0.0001138 -0.000556984 4.20935e-05 -0.000143721 6.89604e-05
0.00019768 0.000112136 -0.000559684 4.68638e-05 -0.000146771 6.77464e-05
0.000199517 0.000110355 -0.000562505 5.18145e-05 -0.000149826 6.63084e-05
0.00020147 0.000108448 -0.000565467 5.69401e-05 -0.000152862 6.46364e-05
0.000203551 0.000106419 -0.000568598 6.22243e-05 -0.000155831 6.27101e-05
0.000205771 0.000104269 -0.000571955 6.76123e-05 -0.000158603 6.05252e-05
0.000208157 0.000101972 -0.00057548 7.31791e-05 -0.00016117 5.79553e-05
0.000191848 0.000120358 -0.000553466 3.30531e-05 -0.000133878 7.38218e-05
0.000193284 0.000119288 -0.000556061 3.76514e-05 -0.000136838 7.31012e-05
0.000194795 0.000118139 -0.000558785 4.23903e-05 -0.000139918 7.21806e-05
0.000196393 0.000116894 -0.000561621 4.72959e-05 -0.000143058 7.10457e-05
0.000198092 0.000115535 -0.000564579 5.2381e-05 -0.000146225 6.96875e-05
0.000199904 0.000114053 -0.000567677 5.76471e-05 -0.000149385 6.80931e-05
0.000201844 0.000112442 -0.000570937 6.30904e-05 -0.00015249 6.62412e-05
0.000203928 0.00011069 -0.000574383 6.87109e-05 -0.000155466 6.41038e-05
0.000206174 0.00010878 -0.000578076 7.44941e-05 -0.000158215 6.16129e-05
0.000189685 0.000124459 -0.000552257 2.84932e-05 -0.000126423 7.74181e-05
0.000190927 0.000123903 -0.000554951 3.30589e-05 -0.000129326 7.69895e-05
0.000192228 0.000123285 -0.000557713 3.77337e-05 -0.000132312 7.63364e-05
0.000193602 0.000122573 -0.000560584 4.25977e-05 -0.000135444 7.54953e-05
0.000195062 0.000121765 -0.000563564 4.76338e-05 -0.000138659 7.44435e-05
0.000196618 0.000120847 -0.000566666 5.28531e-05 -0.000141921 7.31696e-05
0.000198285 0.000119808 -0.000569905 5.82625e-05 -0.000145194 7.16593e-05
0.000200078 0.000118635 -0.000573301 6.38676e-05 -0.000148428 6.98907e-05
0.000202015 0.000117311 -0.000576872 6.96746e-05 -0.000151555 6.78333e-05
0.000204114 0.000115813 -0.000580673 7.56747e-05 -0.00015448 6.53894e-05
0.000188868 0.000127633 -0.000553573 2.82394e-05 -0.000121178 8.06014e-05
0.000189974 0.00012752 -0.000556414 3.29146e-05 -0.000124071 8.02189e-05
0.000191137 0.000127348 -0.000559346 3.77313e-05 -0.000127101 7.9656e-05
0.00019237 0.000127092 -0.000562371 4.27147e-05 -0.000130275 7.88998e-05
0.000193686 0.00012674 -0.000565503 4.78774e-05 -0.000133552 7.79356e-05
0.000195096 0.000126283 -0.000568755 5.32299e-05 -0.000136894 7.67511e-05
0.000196613 0.000125706 -0.000572143 5.87836e-05 -0.000140265 7.53325e-05
0.000198253 0.000124992 -0.00057568 6.45516e-05 -0.00014362 7.36575e-05
0.000200036 0.000124119 -0.000579383 7.05453e-05 -0.000146891 7.16925e-05
0.00020198 0.000123061 -0.000583299 7.67615e-05 -0.000149991 6.9323e-05
0.000188027 0.000130763 -0.000554851 2.79195e-05 -0.000115318 8.38249e-05
0.00018899 0.000131122 -0.000557848 3.26899e-05 -0.000118128 8.35466e-05
0.00019001 0.000131471 -0.000560954 3.76422e-05 -0.000121185 8.30554e-05
0.000191099 0.000131687 -0.000564141 4.27409e-05 -0.000124391 8.23895e-05
0.000192267 0.00013181 -0.00056743 4.80265e-05 -0.000127715 8.1518e-05
0.000193527 0.00013183 -0.000570839 5.351e-05 -0.000131121 8.04284e-05
0.000194888 0.000131735 -0.000574381 5.92072e-05 -0.000134577 7.91098e-05
0.00019637 0.000131503 -0.000578067 6.51379e-05 -0.000138043 7.75399e-05
0.000197992 0.000131106 -0.000581908 7.13182e-05 -0.000141451 7.56811e-05
0.000199774 0.000130515 -0.000585948 7.77478e-05 -0.000144719 7.34136e-05
0.000187978 0.000134864 -0.000559237 3.24342e-05 -0.000111461 8.69342e-05
0.000188851 0.000135643 -0.00056253 3.74652e-05 -0.000114544 8.6529e-05
0.000189791 0.000136349 -0.000565884 4.26768e-05 -0.000117772 8.59596e-05
0.000190808 0.000136961 -0.000569337 4.80816e-05 -0.000121129 8.51857e-05
0.000191912 0.000137478 -0.000572909 5.36928e-05 -0.000124581 8.41964e-05
0.000193113 0.000137888 -0.000576613 5.95318e-05 -0.000128107 8.29864e-05
0.000194429 0.000138161 -0.000580454 6.56238e-05 -0.000131673 8.1534e-05
0.000195883 0.000138244 -0.000584456 7.19346e-05 -0.000135252 7.9764e-05
0.000197495 0.000138147 -0.000588594 7.85733e-05 -0.000138654 7.76783e-05
0.00018694 0.000138531 -0.000560614 3.2043e-05 -0.000104182 9.03337e-05
0.000187661 0.000139792 -0.000564075 3.71237e-05 -0.000107266 9.00345e-05
0.000188447 0.000141034 -0.000567598 4.24263e-05 -0.000110499 8.95729e-05
0.00018931 0.000142178 -0.000571186 4.79952e-05 -0.000113825 8.89402e-05
0.000190256 0.000143216 -0.000574956 5.37795e-05 -0.000117254 8.8048e-05
0.00019129 0.000144153 -0.00057883 5.97588e-05 -0.000120834 8.69547e-05
0.000192434 0.000144956 -0.000582832 6.60099e-05 -0.000124492 8.56335e-05
0.000193712 0.000145583 -0.000586993 7.25469e-05 -0.000128165 8.39841e-05
0.000187769 0.000147473 -0.000573016 4.79246e-05 -0.000105649 9.27473e-05
0.000188545 0.000149032 -0.000576972 5.37598e-05 -0.000109175 9.19352e-05
0.00018941 0.00015051 -0.000581027 5.98063e-05 -0.000112767 9.09483e-05
0.000190384 0.000151854 -0.000585191 6.61957e-05 -0.000116509 8.98306e-05
0.000191484 0.000153029 -0.000589489 7.29644e-05 -0.000120252 8.83642e-05
0 0 0 0 0 0
0 0 0 0 0 0
0 0 0 0 0 0
0 0 0 0 0 0
0 0 0 0 0 0
0 0 0 0 0 0
0 0 0 0 0 0
0 0 0 0 0 0
0 0 0 0 0 0
0 0 0 0 0 0
0 0 0 0 0 0
0 0 0 0 0 0
0 0 0 0 0 0
0 0 0 0 0 0
0 0 0 0 0 0
0 0 0 0 0 0
0 0 0 0 0 0
0 0 0 0 0 0
0 0 0 0 0 0
0 0 0 0 0 0
0 0 0 0 0 0
0 0 0 0 0 0
0 0 0 0 0 0
0 0 0 0 0 0
0 0 0 0 0 0
0 0 0 0 0 0
0 0 0 0 0 0
0 0 0 0 0 0
0 0 0 0 0 0
0 0 0 0 0 0
0 0 0 0 0 0
0 0 0 0 0 0
0 0 0 0 0 0
0 0 0 0 0 0
0 0 0 0 0 0
0 0 0 0 0 0
0 0 0 0 0 0
0 0 0 0 0 0
0 0 0 0 0 0
0 0 0 0 0 0
0 0 0 0 0 0
0 0 0 0 0 0
0 0 0 0 0 0
0 0 0 0 0 0
0 0 0 0 0 0
0 0 0 0 0 0
0 0 0 0 0 0
0 0 0 0 0 0
0 0 0 0 0 0
0 0 0 0 0 0
0 0 0 0 0 0
0 0 0 0 0 0
0 0 0 0 0 0
0 0 0 0 0 0
0 0 0 0 0 0
0 0 0 0 0 0
0 0 0 0 0 0
0 0 0 0 0 0
0 0 0 0 0 0
0 0 0 0 0 0
0 0 0 0 0 0
0 0 0 0 0 0
0 0 0 0 0 0
0 0 0 0 0 0
0 0 0 0 0 0
0 0 0 0 0 0
0 0 0 0 0 0
0 0 0 0 0 0
0 0 0 0 0 0
0 0 0 0 0 0
0 0 0 0 0 0
0 0 0 0 0 0
0 0 0 0 0 0
0 0 0 0 0 0
0 0 0 0 0 0
0 0 0 0 0 0
0 0 0 0 0 0
0 0 0 0 0 0
0.000202196 0.000107582 -0.000550057 3.3431e-05 -0.000164642 7.15505e-05
0.000203977 0.000105552 -0.00055241 3.74348e-05 -0.000167695 7.11611e-05
0.000205844 0.000103447 -0.000554904 4.15069e-05 -0.000170775 7.05787e-05
0.00020781 0.000101235 -0.000557533 4.56838e-05 -0.000173856 6.98291e-05
0.000209895 9.89066e-05 -0.000560304 4.99948e-05 -0.000176904 6.89155e-05
0.00021211 9.64558e-05 -0.000563239 5.4439e-05 -0.000179885 6.78475e-05
0.000214467 9.38756e-05 -0.000566368 5.89891e-05 -0.000182748 6.6628e-05
0.000216974 9.11501e-05 -0.000569775 6.36145e-05 -0.000185444 6.53062e-05
0.000201241 0.000111357 -0.000551654 3.39078e-05 -0.000161438 7.42351e-05
0.000202879 0.000109779 -0.00055413 3.80407e-05 -0.000164521 7.38689e-05
0.0002046 0.000108127 -0.000556756 4.22512e-05 -0.00016768 7.33317e-05
0.00020642 0.000106368 -0.000559511 4.65791e-05 -0.000170857 7.26336e-05
0.000208357 0.000104479 -0.000562403 5.10472e-05 -0.000174022 7.1777e-05
0.000210423 0.000102451 -0.000565455 5.56533e-05 -0.000177148 7.07667e-05
0.000212627 0.00010029 -0.000568697 6.03733e-05 -0.000180186 6.95983e-05
0.000214983 9.79979e-05 -0.000572191 6.51414e-05 -0.000182996 6.8279e-05
0.000217519 9.55463e-05 -0.000575879 7.00181e-05 -0.000185561 6.66952e-05
0.000200241 0.000115206 -0.000553226 3.43459e-05 -0.000157572 7.70139e-05
0.000201733 0.0001141 -0.00055585 3.86038e-05 -0.00016068 7.6666e-05
0.000203307 0.000112909 -0.000558612 4.29522e-05 -0.000163907 7.61818e-05
0.000204977 0.000111611 -0.0005615 4.74231e-05 -0.000167182 7.55447e-05
0.000206759 0.00011019 -0.000564524 5.2032e-05 -0.000170468 7.47514e-05
0.000208666 0.000108633 -0.000567705 5.67804e-05 -0.000173731 7.38002e-05
0.000210712 0.000106935 -0.000571069 6.16569e-05 -0.000176916 7.26824e-05
0.000212914 0.000105085 -0.000574643 6.66495e-05 -0.000179943 7.138e-05
0.000215293 0.000103061 -0.00057849 7.17366e-05 -0.000182706 6.98441e-05
0.000197923 0.000119646 -0.00055206 3.05038e-05 -0.000149908 7.99759e-05
0.000199199 0.000119109 -0.00055477 3.47619e-05 -0.000152979 7.9847e-05
0.000200541 0.000118506 -0.00055756 3.9096e-05 -0.000156121 7.95477e-05
0.000201963 0.000117798 -0.000560467 4.35744e-05 -0.000159406 7.91221e-05
0.000203478 0.000116984 -0.000563495 4.81827e-05 -0.000162764 7.85494e-05
0.0002051 0.000116051 -0.000566659 5.29321e-05 -0.000166156 7.78223e-05
0.000206844 0.000114984 -0.000569977 5.7827e-05 -0.000169542 7.69345e-05
0.000208725 0.000113771 -0.00057347 6.28648e-05 -0.000172868 7.58748e-05
0.000210763 0.000112394 -0.00057716 6.80419e-05 -0.000176059 7.46248e-05
0.000212976 0.000110828 -0.000581106 7.33415e-05 -0.000179014 7.31046e-05
0.000196995 0.000123149 -0.000553435 3.06714e-05 -0.000144566 8.28356e-05
0.000198117 0.000123102 -0.000556293 3.50386e-05 -0.000147624 8.27365e-05
0.000199305 0.000122989 -0.000559251 3.95143e-05 -0.000150818 8.25089e-05
0.000200569 0.000122785 -0.000562312 4.41166e-05 -0.000154151 8.21478e-05
0.000201924 0.000122476 -0.000565489 4.88575e-05 -0.000157578 8.16436e-05
0.000203382 0.000122051 -0.0005688 5.37468e-05 -0.000161059 8.09866e-05
0.000204957 0.000121496 -0.000572261 5.87909e-05 -0.000164555 8.01679e-05
0.000206667 0.000120791 -0.000575889 6.39934e-05 -0.000168014 7.91749e-05
0.000208532 0.000119914 -0.000579703 6.93561e-05 -0.000171363 7.79876e-05
0.000210571 0.000118835 -0.000583755 7.4869e-05 -0.000174509 7.65083e-05
0.000196033 0.000126605 -0.000554771 3.07682e-05 -0.000138548 8.57343e-05
0.000196997 0.00012708 -0.000557787 3.52377e-05 -0.000141522 8.57228e-05
0.000198024 0.000127541 -0.000560919 3.98552e-05 -0.000144748 8.55448e-05
0.000199126 0.00012786 -0.00056414 4.45772e-05 -0.000148118 8.5254e-05
0.000200316 0.000128075 -0.000567473 4.94466e-05 -0.0001516 8.48231e-05
0.000201605 0.00012818 -0.000570937 5.44743e-05 -0.000155154 8.4241e-05
0.000203006 0.000128158 -0.000574548 5.96689e-05 -0.000158746 8.34981e-05
0.000204538 0.000127987 -0.00057832 6.50379e-05 -0.000162327 8.25809e-05
0.000206222 0.000127636 -0.000582264 7.05874e-05 -0.000165828 8.14671e-05
0.00020808 0.000127075 -0.000586429 7.63126e-05 -0.000169159 8.00549e-05
0.00019584 0.000131211 -0.000559235 3.5412e-05 -0.000134634 8.87661e-05
0.000196701 0.000132152 -0.000562554 4.01168e-05 -0.00013789 8.86509e-05
0.000197636 0.000133013 -0.000565943 4.49555e-05 -0.000141288 8.84354e-05
0.000198657 0.000133771 -0.000569438 4.9949e-05 -0.000144809 8.80833e-05
0.000199772 0.000134425 -0.000573062 5.51134e-05 -0.000148417 8.75815e-05
0.000200992 0.000134962 -0.000576831 6.04592e-05 -0.000152088 8.69209e-05
0.000202338 0.00013535 -0.000580753 6.59948e-05 -0.000155783 8.60887e-05
0.000203835 0.000135528 -0.000584853 7.16769e-05 -0.000159472 8.50277e-05
0.000205502 0.000135514 -0.000589105 7.76129e-05 -0.00016295 8.37614e-05
0.000194646 0.000135266 -0.00056067 3.54474e-05 -0.000127078 9.18199e-05
0.000195337 0.000136739 -0.000564159 4.02067e-05 -0.000130338 9.17946e-05
0.000196101 0.000138191 -0.000567717 4.51454e-05 -0.000133747 9.16625e-05
0.000196948 0.000139541 -0.000571342 5.03153e-05 -0.000137239 9.14298e-05
0.000197883 0.000140775 -0.000575166 5.56657e-05 -0.000140826 9.10033e-05
0.000198916 0.000141896 -0.000579103 6.1164e-05 -0.000144559 9.04298e-05
0.000200071 0.00014287 -0.000583181 6.68646e-05 -0.000148358 8.96909e-05
0.000201372 0.000143651 -0.000587433 7.27753e-05 -0.000152157 8.87155e-05
0.000195185 0.000145404 -0.000573232 5.06979e-05 -0.000128724 9.48239e-05
0.000195929 0.000147206 -0.000577241 5.61101e-05 -0.00013243 9.44491e-05
0.000196773 0.000148923 -0.000581354 6.16911e-05 -0.000136178 9.39555e-05
0.000197735 0.000150497 -0.000585591 6.754e-05 -0.000140067 9.33865e-05
0.000198837 0.000151891 -0.000589974 7.36868e-05 -0.000143944 9.25598e-05
0 0 0 0 0 0
0 0 0 0 0 0
0 0 0 0 0 0
0 0 0 0 0 0
0 0 0 0 0 0
0 0 0 0 0 0
0 0 0 0 0 0
0 0 0 0 0 0
0 0 0 0 0 0
0 0 0 0 0 0
0 0 0 0 0 0
0 0 0 0 0 0
0 0 0 0 0 0
0 0 0 0 0 0
0 0 0 0 0 0
0 0 0 0 0 0
0 0 0 0 0 0
0 0 0 0 0 0
0 0 0 0 0 0
0 0 0 0 0 0
0 0 0 0 0 0
0 0 0 0 0 0
0 0 0 0 0 0
0 0 0 0 0 0
0 0 0 0 0 0
0 0 0 0 0 0
0 0 0 0 0 0
0 0 0 0 0 0
0 0 0 0 0 0
0 0 0 0 0 0
0 0 0 0 0 0
0 0 0 0 0 0
0 0 0 0 0 0
0 0 0 0 0 0
0 0 0 0 0 0
0 0 0 0 0 0
0 0 0 0 0 0
0 0 0 0 0 0
0 0 0 0 0 0
0 0 0 0 0 0
0 0 0 0 0 0
0 0 0 0 0 0
0 0 0 0 0 0
0 0 0 0 0 0
0 0 0 0 0 0
0 0 0 0 0 0
0 0 0 0 0 0
0 0 0 0 0 0
0 0 0 0 0 0
0 0 0 0 0 0
0 0 0 0 0 0
0 0 0 0 0 0
0 0 0 0 0 0
0 0 0 0 0 0
0 0 0 0 0 0
0 0 0 0 0 0
0 0 0 0 0 0
0 0 0 0 0 0
0 0 0 0 0 0
0 0 0 0 0 0
0 0 0 0 0 0
0 0 0 0 0 0
0 0 0 0 0 0
0 0 0 0 0 0
0 0 0 0 0 0
0 0 0 0 0 0
0 0 0 0 0 0
0 0 0 0 0 0
0 0 0 0 0 0
0 0 0 0 0 0
0 0 0 0 0 0
0 0 0 0 0 0
0 0 0 0 0 0
0 0 0 0 0 0
0 0 0 0 0 0
0 0 0 0 0 0
0 0 0 0 0 0
0 0 0 0 0 0
0.000194438 0.000101746 -0.000549692 2.45627e-05 -0.000188831 7.40852e-05
0.000196278 9.959e-05 -0.000552078 2.73196e-05 -0.000192074 7.39237e-05
0.00019821 9.73528e-05 -0.000554624 3.01575e-05 -0.000195334 7.35901e-05
0.000200253 9.49966e-05 -0.000557319 3.30863e-05 -0.00019858 7.3111e-05
0.000202426 9.25109e-05 -0.000560174 3.61259e-05 -0.000201775 7.25021e-05
0.000204741 8.98917e-05 -0.000563211 3.92861e-05 -0.000204881 7.1791e-05
0.000207211 8.71317e-05 -0.000566467 4.25676e-05 -0.00020784 7.09914e-05
0.000209843 8.42149e-05 -0.000570028 4.59657e-05 -0.000210596 7.01601e-05
0.000193252 0.000105871 -0.000551329 2.48142e-05 -0.000185732 7.67971e-05
0.000194918 0.000104208 -0.000553837 2.76489e-05 -0.000189012 7.66471e-05
0.000196676 0.000102465 -0.000556512 3.05811e-05 -0.000192362 7.63455e-05
0.000198542 0.000100605 -0.000559329 3.36153e-05 -0.000195714 7.59039e-05
0.000200536 9.86025e-05 -0.000562299 3.67603e-05 -0.000199036 7.53384e-05
0.00020267 9.64499e-05 -0.000565446 4.00226e-05 -0.000202302 7.46716e-05
0.000204956 9.41515e-05 -0.000568808 4.34067e-05 -0.000205453 7.39071e-05
0.000207408 9.17078e-05 -0.000572448 4.68761e-05 -0.000208343 7.30507e-05
0.000210056 8.90928e-05 -0.000576311 5.04828e-05 -0.000210946 7.19931e-05
0.000192016 0.000110077 -0.000552943 2.50565e-05 -0.000181918 7.96082e-05
0.000193505 0.00010893 -0.000555598 2.79626e-05 -0.00018523 7.94604e-05
0.000195084 0.000107692 -0.000558405 3.09729e-05 -0.000188657 7.91985e-05
0.000196769 0.000106337 -0.00056135 3.40915e-05 -0.000192118 7.88092e-05
0.000198576 0.000104848 -0.000564447 3.7324e-05 -0.000195576 7.8299e-05
0.000200519 0.000103211 -0.000567719 4.06779e-05 -0.000198992 7.76767e-05
0.000202614 0.00010142 -0.000571196 4.41622e-05 -0.000202306 7.69395e-05
0.000204881 9.94647e-05 -0.000574908 4.77819e-05 -0.000205429 7.60686e-05
0.00020734 9.73197e-05 -0.00057892 5.15221e-05 -0.000208247 7.5027e-05
0.000189495 0.000114863 -0.000551799 2.2411e-05 -0.000174016 8.24564e-05
0.000190732 0.000114341 -0.000554528 2.52843e-05 -0.000177314 8.24824e-05
0.00019204 0.000113748 -0.000557349 2.82229e-05 -0.000180671 8.23654e-05
0.000193435 0.000113039 -0.000560297 3.13073e-05 -0.000184165 8.2148e-05
0.000194931 0.000112215 -0.00056338 3.45074e-05 -0.000187722 8.18131e-05
0.000196545 0.000111261 -0.000566612 3.78272e-05 -0.000191299 8.13591e-05
0.000198291 0.000110162 -0.000570016 4.12744e-05 -0.000194852 8.07851e-05
0.000200188 0.000108903 -0.000573615 4.48604e-05 -0.000198323 8.00833e-05
0.000202257 0.000107466 -0.000577435 4.85947e-05 -0.000201627 7.92388e-05
0.000204517 0.000105823 -0.000581537 5.24695e-05 -0.000204658 7.81823e-05
0.000188352 0.000118697 -0.000553216 2.24453e-05 -0.000168607 8.53757e-05
0.000189404 0.000118712 -0.000556093 2.53886e-05 -0.000171892 8.54175e-05
0.000190524 0.000118654 -0.000559081 2.84274e-05 -0.00017531 8.53558e-05
0.000191728 0.000118497 -0.000562181 3.15836e-05 -0.000178861 8.51885e-05
0.00019303 0.000118227 -0.000565409 3.48636e-05 -0.000182497 8.49107e-05
0.000194445 0.000117831 -0.000568785 3.82699e-05 -0.000186176 8.45157e-05
0.000195988 0.000117292 -0.000572328 4.18097e-05 -0.000189854 8.39955e-05
0.000197679 0.00011659 -0.000576057 4.54973e-05 -0.000193473 8.33382e-05
0.00019954 0.000115701 -0.000579993 4.93472e-05 -0.000196954 8.25292e-05
0.000201591 0.000114593 -0.000584191 5.33568e-05 -0.000200197 8.14825e-05
0.000187173 0.000122482 -0.000554591 2.24408e-05 -0.000162458 8.83306e-05
0.000188033 0.000123069 -0.00055763 2.54424e-05 -0.000165659 8.84521e-05
0.000188959 0.000123638 -0.00056079 2.85737e-05 -0.00016912 8.8425e-05
0.000189966 0.000124055 -0.000564049 3.18004e-05 -0.000172717 8.8314e-05
0.000191068 0.00012436 -0.00056743 3.51598e-05 -0.000176418 8.80972e-05
0.000192278 0.000124544 -0.000570956 3.86512e-05 -0.000180181 8.77659e-05
0.000193611 0.000124591 -0.000574645 4.22813e-05 -0.000183969 8.73064e-05
0.000195087 0.000124474 -0.000578512 4.60697e-05 -0.000187727 8.67024e-05
0.000196731 0.000124163 -0.000582571 5.00362e-05 -0.000191378 8.59378e-05
0.000198563 0.000123623 -0.000586873 5.41799e-05 -0.000194829 8.49263e-05
0.00018662 0.000127592 -0.000559118 2.54948e-05 -0.000158582 9.15465e-05
0.000187346 0.000128691 -0.000562467 2.86606e-05 -0.000162078 9.15695e-05
0.00018815 0.000129702 -0.000565892 3.19574e-05 -0.00016571 9.15181e-05
0.000189047 0.000130603 -0.000569433 3.53958e-05 -0.00016946 9.13673e-05
0.000190045 0.00013139 -0.000573116 3.89704e-05 -0.000173288 9.11069e-05
0.00019116 0.000132048 -0.00057696 4.26874e-05 -0.00017717 9.07146e-05
0.000192414 0.000132545 -0.000580972 4.65747e-05 -0.000181058 9.01713e-05
0.000193832 0.000132813 -0.000585183 5.06037e-05 -0.000184921 8.94289e-05
0.000195435 0.000132873 -0.000589559 5.48802e-05 -0.000188534 8.85322e-05
0.000185169 0.000132038 -0.000560593 2.54377e-05 -0.000150775 9.46485e-05
0.000185689 0.000133719 -0.000564114 2.86178e-05 -0.000154281 9.47511e-05
0.000186285 0.000135378 -0.000567709 3.19617e-05 -0.000157935 9.4768e-05
0.00018697 0.000136929 -0.000571372 3.55233e-05 -0.000161658 9.47274e-05
0.00018775 0.000138355 -0.000575256 3.92273e-05 -0.000165472 9.45349e-05
0.000188639 0.000139654 -0.000579266 4.30281e-05 -0.00016943 9.42149e-05
0.000189662 0.000140793 -0.000583432 4.70118e-05 -0.000173441 9.37348e-05
0.000190845 0.000141723 -0.000587785 5.12078e-05 -0.00017743 9.30479e-05
0.000184833 0.000143364 -0.000573303 3.56995e-05 -0.00015284 9.81362e-05
0.000185382 0.000145406 -0.000577371 3.9403e-05 -0.000156803 9.79822e-05
0.000186042 0.000147357 -0.00058155 4.32213e-05 -0.00016078 9.77304e-05
0.000186832 0.000149157 -0.000585874 4.72951e-05 -0.000164887 9.73952e-05
0.000187773 0.000150764 -0.000590349 5.16678e-05 -0.000168966 9.68275e-05
0.000203758 9.57936e-05 -0.000549441 1.47533e-05 -0.000213329 7.50004e-05
0.000205716 9.3499e-05 -0.000551874 1.60855e-05 -0.000216769 7.48034e-05
0.000207777 9.11213e-05 -0.00055448 1.75227e-05 -0.00022022 7.44557e-05
0.000209959 8.86121e-05 -0.000557251 1.90538e-05 -0.000223646 7.39917e-05
0.000212281 8.59575e-05 -0.000560199 2.06845e-05 -0.000227002 7.34252e-05
0.00021476 8.31537e-05 -0.000563349 2.24245e-05 -0.000230243 7.27736e-05
0.00021741 8.01947e-05 -0.000566746 2.4292e-05 -0.000233305 7.20384e-05
0.00022024 7.70695e-05 -0.000570476 2.63086e-05 -0.000236126 7.12721e-05
0.000202494 0.000100275 -0.000551161 1.41346e-05 -0.000210378 7.69554e-05
0.000204263 9.85135e-05 -0.000553713 1.54834e-05 -0.000213864 7.67599e-05
0.000206136 9.66643e-05 -0.000556445 1.69573e-05 -0.000217416 7.64297e-05
0.000208127 9.46884e-05 -0.000559335 1.85338e-05 -0.000220956 7.59865e-05
0.000210254 9.25597e-05 -0.000562392 2.02031e-05 -0.000224451 7.54455e-05
0.000212535 9.0269e-05 -0.000565646 2.19704e-05 -0.000227868 7.48203e-05
0.000214985 8.78201e-05 -0.000569141 2.38595e-05 -0.000231144 7.41046e-05
0.000217619 8.52072e-05 -0.000572944 2.58669e-05 -0.000234121 7.33035e-05
0.000220469 8.2411e-05 -0.000576999 2.80405e-05 -0.000236774 7.23208e-05
0.000201171 0.000104837 -0.000552859 1.35113e-05 -0.000206659 7.89786e-05
0.000202747 0.000103638 -0.000555557 1.48694e-05 -0.000210183 7.87745e-05
0.000204425 0.000102338 -0.000558418 1.63506e-05 -0.000213823 7.84718e-05
0.000206217 0.000100913 -0.000561432 1.79369e-05 -0.000217487 7.80641e-05
0.000208142 9.93422e-05 -0.000564612 1.96222e-05 -0.000221131 7.7558e-05
0.000210216 9.76123e-05 -0.000567987 2.14141e-05 -0.000224714 7.69577e-05
0.000212459 9.57148e-05 -0.00057159 2.33353e-05 -0.000228169 7.62537e-05
0.000214892 9.36369e-05 -0.000575456 2.54076e-05 -0.000231399 7.54277e-05
0.000217535 9.13523e-05 -0.000579648 2.76282e-05 -0.000234281 7.44476e-05
0.000198492 0.000109976 -0.000551775 1.1589e-05 -0.000198544 8.11056e-05
0.000199792 0.00010946 -0.000554531 1.28589e-05 -0.000202087 8.10375e-05
0.00020117 0.00010887 -0.000557393 1.41954e-05 -0.000205671 8.08516e-05
0.000202646 0.000108146 -0.000560393 1.5683e-05 -0.000209389 8.05796e-05
0.000204233 0.000107299 -0.000563541 1.72786e-05 -0.00021316 8.02082e-05
0.000205948 0.00010631 -0.000566853 1.89796e-05 -0.000216938 7.97378e-05
0.00020781 0.000105164 -0.000570355 2.07944e-05 -0.000220673 7.91658e-05
0.000209837 0.000103844 -0.000574074 2.27441e-05 -0.000224302 7.84805e-05
0.000212054 0.00010233 -0.00057804 2.48494e-05 -0.000227733 7.76664e-05
0.000214479 0.000100592 -0.000582313 2.71149e-05 -0.000230851 7.66576e-05
0.000197259 0.000114149 -0.000553278 1.07886e-05 -0.000193114 8.31954e-05
0.000198358 0.000114213 -0.000556185 1.20783e-05 -0.000196641 8.31311e-05
0.000199533 0.000114199 -0.000559213 1.34617e-05 -0.000200298 8.29861e-05
0.0002008 0.000114077 -0.000562363 1.49555e-05 -0.000204082 8.27483e-05
0.000202175 0.000113833 -0.000565654 1.65612e-05 -0.000207945 8.24146e-05
0.000203674 0.000113451 -0.000569106 1.82765e-05 -0.000211839 8.19818e-05
0.000205315 0.000112914 -0.000572743 2.01097e-05 -0.000215715 8.14433e-05
0.000207119 0.0001122 -0.000576586 2.20828e-05 -0.00021951 8.07847e-05
0.00020911 0.000111283 -0.000580659 2.42195e-05 -0.000223138 7.99889e-05
0.000211307 0.000110127 -0.000585019 2.65274e-05 -0.000226492 7.89734e-05
0.000195981 0.000118266 -0.000554739 9.96505e-06 -0.000186876 8.52988e-05
0.000196871 0.000118953 -0.000557811 1.12559e-05 -0.000190324 8.53007e-05
0.000197835 0.000119618 -0.000561011 1.26681e-05 -0.000194035 8.51727e-05
0.000198888 0.00012012 -0.000564319 1.41681e-05 -0.000197875 8.49733e-05
0.000200045 0.000120503 -0.000567761 1.57853e-05 -0.000201814 8.46791e-05
0.000201321 0.000120753 -0.00057136 1.75126e-05 -0.000205806 8.42876e-05
0.000202735 0.000120852 -0.00057514 1.9358e-05 -0.000209807 8.37891e-05
0.000204307 0.000120773 -0.000579116 2.13498e-05 -0.00021376 8.31646e-05
0.000206061 0.000120484 -0.000583306 2.35167e-05 -0.000217579 8.23936e-05
0.000208019 0.000119946 -0.000587759 2.58637e-05 -0.000221165 8.13931e-05
0.000195333 0.00012387 -0.00055939 1.04363e-05 -0.000183105 8.7504e-05
0.000196079 0.000125114 -0.000562779 1.18145e-05 -0.000186857 8.74084e-05
0.000196912 0.000126264 -0.000566253 1.33216e-05 -0.000190741 8.72497e-05
0.000197844 0.000127296 -0.000569852 1.49522e-05 -0.000194739 8.69972e-05
0.000198891 0.000128202 -0.000573606 1.66877e-05 -0.00019881 8.66523e-05
0.000200069 0.000128966 -0.000577539 1.85376e-05 -0.000202921 8.62007e-05
0.000201399 0.000129554 -0.000581657 2.05442e-05 -0.000207022 8.56169e-05
0.000202906 0.000129894 -0.000585992 2.26852e-05 -0.000211078 8.48461e-05
0.000204614 0.000130009 -0.000590507 2.50667e-05 -0.000214847 8.39362e-05
0.000193747 0.000128714 -0.000560954 9.51875e-06 -0.000175094 8.96909e-05
0.00019427 0.000130595 -0.000564519 1.08536e-05 -0.000178865 8.96561e-05
0.000194875 0.000132446 -0.000568163 1.23373e-05 -0.000182782 8.95446e-05
0.000195576 0.000134183 -0.000571879 1.4016e-05 -0.000186757 8.93761e-05
0.000196386 0.000135785 -0.000575836 1.58014e-05 -0.000190823 8.9073e-05
0.00019732 0.000137245 -0.000579934 1.76485e-05 -0.000195027 8.86745e-05
0.0001984 0.000138533 -0.000584203 1.96667e-05 -0.000199268 8.81343e-05
0.000199649 0.000139596 -0.000588672 2.18902e-05 -0.000203471 8.73899e-05
0.000193236 0.000141196 -0.000573904 1.31375e-05 -0.00017769 9.17759e-05
0.000193795 0.000143462 -0.000578045 1.48382e-05 -0.000181939 9.14852e-05
0.00019448 0.00014563 -0.000582307 1.66142e-05 -0.000186168 9.11318e-05
0.000195306 0.00014764 -0.000586734 1.86403e-05 -0.000190511 9.07077e-05
0.000196291 0.000149444 -0.000591316 2.09565e-05 -0.000194816 9.00483e-05
0.000202941 8.97413e-05 -0.000549182 1.34826e-05 -0.000237731 7.55079e-05
0.000204914 8.73013e-05 -0.000551638 1.41369e-05 -0.000241336 7.55942e-05
0.000206999 8.47764e-05 -0.000554279 1.48428e-05 -0.00024495 7.56103e-05
0.000209213 8.21076e-05 -0.000557099 1.55985e-05 -0.00024853 7.55934e-05
0.000211576 7.92766e-05 -0.000560109 1.64095e-05 -0.000252026 7.55512e-05
0.00021411 7.62787e-05 -0.000563342 1.72762e-05 -0.000255384 7.54906e-05
0.000216834 7.31101e-05 -0.000566846 1.81982e-05 -0.000258534 7.54097e-05
0.000219757 6.9767e-05 -0.00057071 1.91916e-05 -0.000261406 7.53624e-05
0.00020165 9.45782e-05 -0.000551013 1.27417e-05 -0.000234903 7.61597e-05
0.000203414 9.27118e-05 -0.000553587 1.34055e-05 -0.000238559 7.62291e-05
0.000205289 9.07487e-05 -0.000556353 1.4135e-05 -0.000242283 7.62431e-05
0.00020729 8.86486e-05 -0.000559287 1.49213e-05 -0.000245986 7.62242e-05
0.000209437 8.63849e-05 -0.000562403 1.57572e-05 -0.000249631 7.61814e-05
0.000211749 8.39479e-05 -0.000565733 1.66383e-05 -0.000253179 7.61197e-05
0.000214248 8.134e-05 -0.000569327 1.75697e-05 -0.00025656 7.60347e-05
0.00021695 7.85463e-05 -0.000573256 1.85395e-05 -0.000259608 7.5941e-05
0.000219893 7.55583e-05 -0.000577458 1.95865e-05 -0.000262301 7.57678e-05
0.000200314 9.94965e-05 -0.000552826 1.19845e-05 -0.000231253 7.68369e-05
0.000201864 9.82373e-05 -0.000555545 1.26511e-05 -0.000234953 7.68789e-05
0.000203522 9.68685e-05 -0.000558438 1.33826e-05 -0.000238774 7.68964e-05
0.000205301 9.53644e-05 -0.000561493 1.41707e-05 -0.000242611 7.68823e-05
0.000207221 9.37037e-05 -0.000564729 1.50107e-05 -0.000246417 7.68423e-05
0.000209303 9.1872e-05 -0.000568175 1.59017e-05 -0.000250143 7.67782e-05
0.000211569 8.9859e-05 -0.00057187 1.68494e-05 -0.000253717 7.66853e-05
0.000214045 8.76491e-05 -0.000575852 1.78611e-05 -0.000257038 7.6556e-05
0.000216753 8.52138e-05 -0.000580179 1.89353e-05 -0.000259972 7.63722e-05
0.000197684 0.00010499 -0.000551851 1.05885e-05 -0.000222944 7.74136e-05
0.000198933 0.000104476 -0.000554615 1.1195e-05 -0.000226687 7.75042e-05
0.000200263 0.000103881 -0.000557498 1.18312e-05 -0.000230459 7.75451e-05
0.000201696 0.000103136 -0.000560529 1.25634e-05 -0.000234367 7.75675e-05
0.000203246 0.000102257 -0.000563716 1.33525e-05 -0.000238321 7.75585e-05
0.000204933 0.000101226 -0.00056708 1.41962e-05 -0.000242271 7.75216e-05
0.000206778 0.000100024 -0.00057065 1.50957e-05 -0.000246164 7.74568e-05
0.000208803 9.86338e-05 -0.000574455 1.60574e-05 -0.000249927 7.7359e-05
0.000211035 9.70333e-05 -0.000578526 1.70869e-05 -0.000253466 7.72213e-05
0.000213498 9.51887e-05 -0.000582925 1.8186e-05 -0.000256657 7.69937e-05
0.00019648 0.000109503 -0.000553473 9.65666e-06 -0.000217464 7.80892e-05
0.000197508 0.000109612 -0.000556389 1.02728e-05 -0.00022119 7.81654e-05
0.000198612 0.000109634 -0.000559439 1.09455e-05 -0.000225046 7.82256e-05
0.000199813 0.00010954 -0.000562618 1.16771e-05 -0.000229028 7.82538e-05
0.000201128 0.000109313 -0.000565947 1.24666e-05 -0.000233084 7.82501e-05
0.000202575 0.000108937 -0.000569448 1.33129e-05 -0.000237161 7.82171e-05
0.000204175 0.000108393 -0.000573149 1.42184e-05 -0.000241207 7.81541e-05
0.000205951 0.000107657 -0.000577072 1.51907e-05 -0.000245153 7.80551e-05
0.000207929 0.0001067 -0.000581244 1.62361e-05 -0.000248907 7.79111e-05
0.000210135 0.000105485 -0.00058572 1.73578e-05 -0.000252356 7.76559e-05
0.000195244 0.000113953 -0.00055505 8.68624e-06 -0.000211113 7.87552e-05
0.00019604 0.000114734 -0.00055814 9.29788e-06 -0.000214761 7.88718e-05
0.000196913 0.000115486 -0.00056136 9.9939e-06 -0.000218682 7.89182e-05
0.000197877 0.000116067 -0.000564697 1.07235e-05 -0.000222727 7.89536e-05
0.000198948 0.000116519 -0.000568176 1.1513e-05 -0.000226869 7.89553e-05
0.000200148 0.000116826 -0.000571822 1.23599e-05 -0.000231056 7.89274e-05
0.000201495 0.000116968 -0.000575663 1.32678e-05 -0.00023524 7.88695e-05
0.000203013 0.000116918 -0.000579715 1.42475e-05 -0.000239359 7.87727e-05
0.000204726 0.000116641 -0.000583996 1.53073e-05 -0.000243322 7.86246e-05
0.000206664 0.000116093 -0.000588557 1.64486e-05 -0.000247026 7.83574e-05
0.000194534 0.000120044 -0.000559844 8.31766e-06 -0.000207377 7.95774e-05
0.000195168 0.000121426 -0.000563253 8.97562e-06 -0.000211339 7.96212e-05
0.000195888 0.000122707 -0.000566758 9.70305e-06 -0.000215435 7.96648e-05
0.00019671 0.000123861 -0.000570393 1.0492e-05 -0.000219646 7.96717e-05
0.000197655 0.000124878 -0.000574193 1.13362e-05 -0.000223923 7.96509e-05
0.000198741 0.000125738 -0.000578184 1.22424e-05 -0.00022823 7.9602e-05
0.000199991 0.000126408 -0.000582375 1.3227e-05 -0.000232511 7.95103e-05
0.000201427 0.000126809 -0.000586796 1.42453e-05 -0.000236735 7.93291e-05
0.000203083 0.000126968 -0.000591407 1.5402e-05 -0.00024064 7.91182e-05
0.000192993 0.000125286 -0.00056153 7.22318e-06 -0.000199135 8.02413e-05
0.000193381 0.000127359 -0.000565122 7.82674e-06 -0.000203123 8.03141e-05
0.00019385 0.000129393 -0.000568798 8.52223e-06 -0.000207263 8.03674e-05
0.000194416 0.000131307 -0.000572546 9.35197e-06 -0.000211453 8.04123e-05
0.000195098 0.000133077 -0.00057655 1.02405e-05 -0.000215732 8.03859e-05
0.000195915 0.00013469 -0.000580706 1.11413e-05 -0.000220143 8.03496e-05
0.000196886 0.000136116 -0.000585046 1.21298e-05 -0.00022458 8.02652e-05
0.000198035 0.000137301 -0.000589597 1.32119e-05 -0.00022897 8.00686e-05
0.000192061 0.0001389 -0.000574704 8.25645e-06 -0.000202105 8.11391e-05
0.000192469 0.000141382 -0.000578892 9.05145e-06 -0.000206597 8.10763e-05
0.000193008 0.000143755 -0.000583208 9.87482e-06 -0.00021104 8.10401e-05
0.000193697 0.000145965 -0.000587708 1.0861e-05 -0.000215584 8.10254e-05
0.000194552 0.000147956 -0.000592365 1.20174e-05 -0.000220087 8.08639e-05
0.000146492 0.000217853 -0.000552999 -1.50299e-06 0.00027588 6.08034e-05
0.00014677 0.000217977 -0.000554223 3.23699e-07 0.00027494 6.01132e-05
0.000146937 0.000218181 -0.000555243 2.23681e-06 0.000273687 5.92828e-05
0.000146967 0.000218485 -0.000556044 4.24529e-06 0.000272094 5.8307e-05
0.000146832 0.000218855 -0.000556599 6.35595e-06 0.000270143 5.71946e-05
0.000146513 0.000219263 -0.000556856 8.58197e-06 0.000267809 5.59508e-05
0.000145995 0.000219721 -0.000556745 1.09402e-05 0.00026506 5.4562e-05
0.000145264 0.000220271 -0.000556181 1.3466e-05 0.000261836 5.30419e-05
0.000148172 0.000215029 -0.000553912 -2.0135e-06 0.000280531 6.23792e-05
0.000148703 0.000214832 -0.000555325 -1.55083e-07 0.000279614 6.1723e-05
0.000149126 0.000214664 -0.000556547 1.81128e-06 0.000278393 6.09372e-05
0.000149417 0.00021457 -0.000557576 3.87664e-06 0.000276813 6.00085e-05
0.000149554 0.000214569 -0.000558382 6.03685e-06 0.000274883 5.89505e-05
0.000149517 0.000214647 -0.000558906 8.31001e-06 0.000272601 5.77663e-05
0.00014929 0.00021478 -0.000559079 1.07239e-05 0.000269927 5.6435e-05
0.000148857 0.000214967 -0.000558829 1.32574e-05 0.000266758 5.49397e-05
0.000148182 0.000215213 -0.000558142 1.59612e-05 0.000263061 5.31713e-05
0.000149894 0.000212113 -0.000554798 -2.51133e-06 0.000284899 6.40237e-05
0.000150686 0.000211545 -0.00055641 -6.14438e-07 0.000284012 6.33888e-05
0.000151369 0.000211008 -0.000557845 1.3771e-06 0.00028284 6.26611e-05
0.000151929 0.000210536 -0.0005591 3.46978e-06 0.000281325 6.1798e-05
0.000152347 0.000210144 -0.000560142 5.66529e-06 0.00027946 6.0804e-05
0.000152601 0.000209828 -0.000560924 7.98256e-06 0.00027723 5.96753e-05
0.000152674 0.000209575 -0.000561382 1.04457e-05 0.000274593 5.83937e-05
0.000152546 0.000209375 -0.000561459 1.30671e-05 0.000271487 5.69315e-05
0.000152184 0.000209252 -0.000561071 1.58342e-05 0.000267836 5.52499e-05
0.000151656 0.000209128 -0.000555654 -2.99149e-06 0.000288909 6.5708e-05
0.000152713 0.000208141 -0.000557474 -1.09173e-06 0.00028807 6.51136e-05
0.000153665 0.000207214 -0.000559122 9.20096e-07 0.000286951 6.44488e-05
0.000154503 0.000206346 -0.000560601 3.03544e-06 0.000285503 6.36544e-05
0.000155209 0.00020555 -0.000561881 5.26314e-06 0.000283709 6.27271e-05
0.000155762 0.000204827 -0.00056292 7.62274e-06 0.000281543 6.16588e-05
0.000156143 0.000204172 -0.000563665 1.01338e-05 0.000278961 6.0434e-05
0.000156331 0.000203578 -0.000564058 1.28059e-05 0.000275906 5.90308e-05
0.000156295 0.000203062 -0.000563999 1.56336e-05 0.000272328 5.73877e-05
0.000153455 0.000206002 -0.00055649 -3.51154e-06 0.000292563 6.74187e-05
0.00015478 0.000204622 -0.000558513 -1.58687e-06 0.000291772 6.68961e-05
0.000156009 0.000203288 -0.000560372 4.42422e-07 0.000290709 6.62989e-05
0.000157134 0.000202006 -0.000562073 2.5766e-06 0.000289329 6.55765e-05
0.000158136 0.000200789 -0.000563591 4.83189e-06 0.000287612 6.47193e-05
0.000158996 0.000199645 -0.00056489 7.22931e-06 0.000285522 6.37172e-05
0.000159694 0.000198571 -0.000565921 9.78512e-06 0.000283009 6.25574e-05
0.000160209 0.000197561 -0.000566627 1.25062e-05 0.000280021 6.12214e-05
0.000160511 0.000196629 -0.000566905 1.53917e-05 0.000276524 5.96322e-05
0.000155282 0.000202795 -0.000557311 -4.04195e-06 0.000295841 6.91816e-05
0.000156885 0.000200994 -0.000559525 -2.09849e-06 0.000295104 6.87333e-05
0.0001584 0.000199234 -0.000561592 -5.48119e-08 0.000294096 6.82094e-05
0.000159819 0.000197519 -0.000563513 2.09422e-06 0.000292786 6.7563e-05
0.000161125 0.000195865 -0.000565267 4.37182e-06 0.00029115 6.67802e-05
0.0001623 0.000194283 -0.000566825 6.8014e-06 0.000289145 6.58504e-05
0.000163323 0.000192772 -0.000568142 9.39782e-06 0.000286716 6.47634e-05
0.000164176 0.000191325 -0.000569161 1.21656e-05 0.000283806 6.35039e-05
0.000164828 0.000189953 -0.000569783 1.51058e-05 0.000280398 6.1985e-05
0.000157137 0.000199498 -0.000558111 -4.58523e-06 0.000298731 7.09869e-05
0.000159024 0.000197261 -0.000560508 -2.62579e-06 0.000298048 7.06221e-05
0.000160832 0.000195059 -0.00056278 -5.71872e-07 0.000297095 7.01776e-05
0.000162553 0.000192893 -0.000564917 1.58881e-06 0.000295855 6.96121e-05
0.000164172 0.000190782 -0.000566904 3.88338e-06 0.000294305 6.89086e-05
0.00016567 0.000188744 -0.000568719 6.33839e-06 0.000292394 6.80575e-05
0.000167028 0.000186779 -0.000570321 8.97027e-06 0.000290058 6.70511e-05
0.00016823 0.000184884 -0.000571635 1.17302e-05 0.00028727 6.5838e-05
0.000169246 0.000183047 -0.000572643 1.47224e-05 0.000283949 6.4464e-05
0.000159014 0.000196123 -0.000558873 -5.16155e-06 0.000301249 7.28237e-05
0.000161188 0.00019344 -0.000561448 -3.2361e-06 0.000300647 7.25478e-05
0.000163298 0.000190771 -0.00056392 -1.18969e-06 0.000299779 7.21918e-05
0.000165332 0.000188135 -0.000566313 1.02494e-06 0.00029857 7.1726e-05
0.000167273 0.000185548 -0.000568501 3.36768e-06 0.000297055 7.1102e-05
0.000169101 0.000183035 -0.000570569 5.83991e-06 0.000295246 7.03371e-05
0.000170802 0.000180596 -0.000572452 8.50083e-06 0.000293013 6.94186e-05
0.000172366 0.000178214 -0.00057407 1.13558e-05 0.000290284 6.8272e-05
0.000168153 0.000183245 -0.000567632 5.63919e-07 0.00030086 7.38917e-05
0.000170433 0.000180185 -0.000570021 2.875e-06 0.000299608 7.32985e-05
0.000172608 0.000177186 -0.000572399 5.24968e-06 0.000297873 7.25997e-05
0.000174659 0.000174219 -0.000574548 7.89002e-06 0.000295646 7.18462e-05
0.000176584 0.000171329 -0.000576493 1.08468e-05 0.000292967 7.08405e-05
0.000159592 0.000206035 -0.000552526 1.38968e-05 0.000228696 6.28475e-05
0.000160031 0.000205895 -0.000553825 1.78109e-05 0.000227598 6.22216e-05
0.000160382 0.00020582 -0.000554969 2.18062e-05 0.000226205 6.14054e-05
0.000160618 0.000205823 -0.000555931 2.59404e-05 0.000224502 6.039e-05
0.000160716 0.000205868 -0.000556686 3.02386e-05 0.000222487 5.9172e-05
0.000160661 0.000205929 -0.000557189 3.46863e-05 0.000220149 5.77543e-05
0.000160442 0.000206018 -0.000557385 3.92546e-05 0.000217456 5.61277e-05
0.000160047 0.000206177 -0.000557214 4.39417e-05 0.000214361 5.43063e-05
0.000160979 0.00020392 -0.000553487 1.43098e-05 0.000233185 6.52848e-05
0.00016163 0.000203543 -0.000554968 1.83482e-05 0.000232102 6.47158e-05
0.000162194 0.000203181 -0.000556307 2.24774e-05 0.000230735 6.39758e-05
0.000162647 0.000202873 -0.000557484 2.67457e-05 0.000229041 6.30446e-05
0.00016297 0.000202632 -0.000558473 3.1181e-05 0.000227037 6.19176e-05
0.000163149 0.000202448 -0.000559226 3.57798e-05 0.000224728 6.0594e-05
0.000163174 0.000202294 -0.000559686 4.05155e-05 0.000222081 5.90608e-05
0.000163029 0.00020216 -0.000559799 4.53237e-05 0.000219025 5.7303e-05
0.000162685 0.000202064 -0.000559533 5.02962e-05 0.000215508 5.51845e-05
0.000162397 0.00020173 -0.000554424 1.47148e-05 0.000237505 6.78163e-05
0.000163264 0.000201075 -0.000556094 1.88854e-05 0.000236442 6.72962e-05
0.000164044 0.000200431 -0.000557637 2.31427e-05 0.000235113 6.66403e-05
0.000164721 0.000199833 -0.000559029 2.75398e-05 0.00023347 6.58029e-05
0.000165278 0.000199293 -0.000560243 3.20983e-05 0.000231514 6.47752e-05
0.000165701 0.000198805 -0.000561239 3.6822e-05 0.000229237 6.35494e-05
0.000165975 0.000198353 -0.000561966 4.17006e-05 0.000226606 6.21088e-05
0.000166085 0.000197926 -0.000562372 4.67241e-05 0.000223573 6.04231e-05
0.000166002 0.000197543 -0.00056239 5.18919e-05 0.000220085 5.84304e-05
0.000163843 0.000199491 -0.000555327 1.51388e-05 0.000241568 7.04052e-05
0.000164929 0.000198511 -0.000557201 1.93974e-05 0.000240555 6.99518e-05
0.000165931 0.000197571 -0.000558947 2.37767e-05 0.000239269 6.93854e-05
0.000166839 0.000196671 -0.000560554 2.8299e-05 0.00023768 6.86457e-05
0.000167637 0.00019582 -0.000561996 3.29821e-05 0.000235778 6.77209e-05
0.000168309 0.000195018 -0.000563236 3.78356e-05 0.000233545 6.65985e-05
0.00016884 0.000194257 -0.00056423 4.28604e-05 0.000230947 6.52594e-05
0.000169214 0.000193526 -0.000564927 4.80552e-05 0.000227942 6.36743e-05
0.000169404 0.00019284 -0.000565246 5.34188e-05 0.000224497 6.17627e-05
0.000165313 0.000197135 -0.000556205 1.55116e-05 0.000245408 7.30353e-05
0.00016662 0.000195856 -0.000558283 1.98795e-05 0.00024443 7.26805e-05
0.000167852 0.000194605 -0.000560233 2.43746e-05 0.000243191 7.2209e-05
0.000168998 0.000193387 -0.000562054 2.90184e-05 0.000241658 7.15711e-05
0.000170044 0.000192213 -0.000563724 3.38271e-05 0.000239816 7.07535e-05
0.000170971 0.000191088 -0.00056521 3.88133e-05 0.000237639 6.97411e-05
0.000171766 0.000190004 -0.000566471 4.39862e-05 0.000235088 6.85131e-05
0.000172412 0.000188954 -0.000567459 4.93524e-05 0.000232124 6.70402e-05
0.000172885 0.000187946 -0.000568087 5.49128e-05 0.00022873 6.5229e-05
0.0001668 0.00019471 -0.000557071 1.58599e-05 0.000248987 7.57302e-05
0.000168336 0.00019311 -0.000559337 2.03256e-05 0.000248055 7.54789e-05
0.000169804 0.000191534 -0.00056149 2.49314e-05 0.000246864 7.51079e-05
0.000171196 0.000189985 -0.000563524 2.96939e-05 0.000245389 7.45766e-05
0.000172495 0.000188476 -0.000565421 3.46275e-05 0.000243613 7.38712e-05
0.000173685 0.000187014 -0.000567154 3.97469e-05 0.000241502 7.29759e-05
0.000174751 0.000185595 -0.000568684 4.50677e-05 0.000239011 7.18691e-05
0.000175677 0.00018421 -0.000569963 5.06042e-05 0.0002361 7.05209e-05
0.000176443 0.000182862 -0.000570909 5.63626e-05 0.000232765 6.883e-05
0.000168303 0.00019221 -0.000557915 1.61707e-05 0.000252301 7.84814e-05
0.000170073 0.000190278 -0.000560361 2.07288e-05 0.000251419 7.83428e-05
0.000171784 0.000188365 -0.000562715 2.54412e-05 0.000250275 7.80777e-05
0.000173427 0.00018647 -0.000564961 3.03191e-05 0.00024886 7.76585e-05
0.000174987 0.00018461 -0.000567084 3.53761e-05 0.000247155 7.70712e-05
0.000176446 0.000182799 -0.000569063 4.0627e-05 0.00024512 7.63005e-05
0.00017779 0.000181032 -0.000570861 4.60931e-05 0.0002427 7.53248e-05
0.000179007 0.000179303 -0.000572417 5.17518e-05 0.000239877 7.40755e-05
0.000180076 0.000177598 -0.000573715 5.77085e-05 0.000236599 7.25811e-05
0.000169817 0.000189643 -0.000558717 1.64133e-05 0.000255372 8.12719e-05
0.000171826 0.000187366 -0.000561346 2.10206e-05 0.000254565 8.12497e-05
0.000173786 0.000185095 -0.000563897 2.58318e-05 0.000253492 8.11037e-05
0.000175688 0.000182844 -0.000566388 3.08601e-05 0.000252104 8.08187e-05
0.000177517 0.000180622 -0.000568709 3.60631e-05 0.000250428 8.03486e-05
0.000179252 0.000178446 -0.00057093 4.14425e-05 0.000248477 7.97104e-05
0.000180881 0.000176317 -0.000572995 4.70493e-05 0.000246138 7.88757e-05
0.000182398 0.000174215 -0.000574839 5.29334e-05 0.000243354 7.77504e-05
0.000177977 0.000179119 -0.000567742 3.14551e-05 0.000255062 8.40472e-05
0.000180087 0.000176532 -0.000570265 3.67365e-05 0.000253608 8.3654e-05
0.000182111 0.000173981 -0.000572781 4.21537e-05 0.000251712 8.31222e-05
0.000184032 0.000171441 -0.000575097 4.78647e-05 0.000249371 8.2501e-05
0.00018585 0.000168953 -0.000577246 5.396e-05 0.000246626 8.15729e-05
SCALARS PreDamageArea int 1
LOOKUP_TABLE default
0
0
0
0
0
0
0
0
0
0
0
0
0
0
0
0
0
0
0
0
0
0
0
0
0
0
0
0
0
0
0
0
0
0
0
0
0
0
0
0
0
0
0
0
0
0
0
0
0
0
0
0
0
0
0
0
0
0
0
0
0
0
0
0
0
0
0
0
0
0
0
0
0
0
0
0
0
0
0
0
0
0
0
0
0
0
0
0
0
0
0
0
0
0
0
0
0
0
0
0
0
0
0
0
0
0
0
0
0
0
0
0
0
0
0
0
0
0
0
0
0
0
0
0
0
0
0
0
0
0
0
0
0
0
0
0
0
0
0
0
0
0
0
0
0
0
0
0
0
0
0
0
0
0
0
0
0
0
0
0
0
0
0
0
0
0
0
0
0
0
0
0
0
0
0
0
0
0
0
0
0
0
0
0
0
0
0
0
0
0
0
0
0
0
0
0
0
0
0
0
0
0
0
0
0
0
0
0
0
0
0
0
0
0
0
0
0
0
0
0
0
0
0
0
0
0
0
0
0
0
0
0
0
0
0
0
0
0
0
0
0
0
0
0
0
0
0
0
0
0
0
0
0
0
0
0
0
0
0
0
0
0
0
0
0
0
0
0
0
0
0
0
0
0
0
0
0
0
0
0
0
0
0
0
0
0
0
0
0
0
0
0
0
0
0
0
0
0
0
0
0
0
0
0
0
0
0
0
0
0
0
0
0
0
0
0
0
0
0
0
0
0
0
0
0
0
0
0
0
0
0
0
0
0
0
0
0
0
0
0
0
0
0
0
0
0
0
0
0
0
0
0
0
0
0
0
0
0
0
0
0
0
0
0
0
0
0
0
0
0
0
0
0
0
0
0
0
0
0
0
0
0
0
0
0
0
0
0
0
0
0
0
0
0
0
0
0
0
0
0
0
0
0
0
0
0
0
0
0
0
0
0
0
0
0
0
0
0
0
0
0
0
0
0
0
0
0
0
0
0
0
0
0
0
0
0
0
0
0
0
0
0
0
0
0
0
0
0
0
0
0
0
0
0
0
0
0
0
0
0
0
0
0
0
0
0
0
0
0
0
0
0
0
0
0
0
0
0
0
0
0
0
0
0
0
0
0
0
0
0
0
0
0
0
0
0
0
0
0
0
0
0
0
0
0
0
0
0
0
0
0
0
0
0
0
0
0
0
0
0
0
0
0
0
0
0
0
0
0
0
0
0
0
0
0
0
0
0
0
0
0
0
0
0
0
0
0
0
0
0
0
0
0
0
0
0
0
0
0
0
0
0
0
0
0
0
0
0
0
0
0
0
0
0
0
0
0
0
0
0
0
0
0
0
0
0
0
0
0
0
0
0
0
0
0
0
0
0
0
0
0
0
0
0
0
0
0
0
0
0
0
0
0
0
0
0
0
0
0
0
0
0
0
0
0
0
0
0
0
0
0
0
0
0
0
0
0
0
0
0
0
0
0
0
0
0
0
0
0
0
0
0
0
0
0
0
0
0
0
0
0
0
0
0
0
0
0
0
0
0
0
0
0
0
0
0
0
0
0
0
0
0
0
0
0
0
0
0
0
0
0
0
0
0
0
0
0
0
0
0
0
0
0
0
0
0
0
0
0
0
0
0
0
0
0
0
0
0
0
0
0
0
0
0
0
0
0
0
0
0
0
0
0
0
0
0
0
0
0
0
0
0
0
0
0
0
0
0
0
0
0
0
0
0
0
0
0
0
0
0
0
0
0
0
0
0
0
0
0
0
0
0
0
0
0
0
0
0
0
0
0
0
0
0
0
0
0
0
0
0
0
0
0
0
0
0
0
0
0
0
0
0
0
0
0
0
0
0
0
0
0
0
0
0
0
0
0
0
0
0
0
0
0
0
0
0
0
0
0
0
0
0
0
0
0
0
0
0
0
0
0
0
0
0
0
0
0
0
0
0
0
0
0
0
0
0
0
0
0
0
0
0
0
0
0
0
0
0
0
0
0
0
0
0
0
0
0
0
0
0
0
0
0
0
0
0
0
0
0
0
0
0
0
0
0
0
0
0
0
0
0
0
0
0
0
0
0
0
0
0
0
0
0
0
0
0
0
0
0
0
0
0
0
0
0
0
0
0
0
0
0
0
0
0
0
0
0
0
0
0
0
0
0
0
0
0
0
0
0
0
0
0
0
0
0
0
0
0
0
0
0
0
0
0
0
0
0
0
0
0
0
0
0
0
0
0
0
0
0
0
0
0
0
0
0
0
0
0
0
0
0
0
0
0
0
0
0
0
0
0
0
0
0
0
0
0
0
0
0
0
0
0
0
0
0
0
0
0
0
0
0
0
0
0
0
0
0
0
0
0
0
0
0
0
0
0
0
0
0
0
0
0
0
0
0
0
0
0
0
0
0
0
0
0
0
0
0
0
0
0
0
0
0
0
0
0
0
0
0
0
0
0
0
0
0
0
0
0
0
0
0
0
0
0
0
0
0
0
0
0
0
0
0
0
0
0
0
0
0
0
0
0
0
0
0
0
0
0
0
0
0
0
0
0
0
0
0
0
0
0
0
0
0
0
0
0
0
0
0
0
0
0
0
0
0
0
0
0
0
0
0
0
0
0
0
0
0
0
0
0
0
0
0
0
0
0
0
0
0
0
0
0
0
0
0
0
0
0
0
0
0
0
0
0
0
0
0
0
0
0
0
0
0
0
0
0
0
0
0
0
0
0
0
0
0
0
0
0
0
0
0
0
0
0
0
0
0
0
0
0
0
0
0
0
0
0
0
0
0
0
0
0
0
0
0
0
0
0
0
0
0
0
0
0
0
0
0
0
0
0
0
0
0
0
0
0
0
0
0
0
0
0
0
0
0
0
0
0
0
0
0
0
0
0
0
0
0
0
0
0
0
0
0
0
0
0
0
0
0
0
0
0
0
0
0
0
0
0
0
0
0
0
0
0
0
0
0
0
0
0
0
0
0
0
0
0
0
0
0
0
0
0
0
0
0
0
0
0
0
0
0
0
0
0
0
0
0
0
0
0
0
0
0
0
0
0
0
0
0
0
0
0
0
0
0
0
0
0
0
0
0
0
0
0
0
0
0
0
0
0
0
0
0
0
0
0
0
0
0
0
0
0
0
0
0
0
0
0
0
0
0
0
0
0
0
0
0
0
0
0
0
0
0
0
0
0
0
0
0
0
0
0
0
0
0
0
0
0
0
0
0
0
0
0
0
0
0
0
0
0
0
0
0
0
0
0
0
0
0
0
0
0
0
0
0
0
0
0
0
0
0
0
0
0
0
0
0
0
0
0
0
0
0
0
0
0
0
0
0
0
0
0
0
0
0
0
0
0
0
0
0
0
0
0
0
0
0
0
0
0
0
0
0
0
0
0
0
0
0
0
0
0
0
0
0
0
0
0
0
0
0
0
0
0
0
0
0
0
0
0
0
0
0
0
0
0
0
0
0
0
0
0
0
0
0
0
0
0
0
0
0
0
0
0
0
0
0
0
0
0
0
0
0
0
0
0
0
0
0
0
0
0
0
0
0
0
0
0
0
0
0
0
0
0
0
0
0
0
0
0
0
0
0
0
0
0
0
0
0
0
0
0
0
0
0
0
0
0
0
0
0
0
0
0
0
0
0
0
0
0
0
0
0
0
0
0
0
0
0
0
0
0
0
0
0
0
0
0
0
0
0
0
0
0
0
0
0
0
0
0
0
0
0
0
0
0
0
0
0
0
0
0
0
0
0
0
0
0
0
0
0
0
0
0
0
0
0
0
0
0
0
0
0
0
0
0
0
0
0
0
0
0
0
0
0
0
0
0
0
0
0
0
0
0
0
0
0
0
0
0
0
0
0
0
0
0
0
0
0
0
0
0
0
0
0
0
0
0
0
0
0
0
0
0
0
0
0
0
0
0
0
0
0
0
0
0
0
0
0
0
0
0
0
0
0
0
0
0
0
0
0
0
0
0
0
0
0
0
0
0
0
0
0
0
0
0
0
0
0
0
0
0
0
0
0
0
0
0
0
0
0
0
0
0
0
0
0
0
0
0
0
0
0
0
0
0
0
0
0
0
0
0
0
0
0
0
0
0
0
0
0
0
0
0
0
0
0
0
0
0
0
0
0
0
0
0
0
0
0
0
0
0
0
0
0
0
0
0
0
0
0
0
0
0
0
0
0
0
0
0
0
0
0
0
0
0
0
0
0
0
0
0
0
0
0
0
0
0
0
0
0
0
0
0
0
0
0
0
0
0
0
0
0
0
0
0
0
0
0
0
0
0
0
0
0
0
0
0
0
0
0
0
0
0
0
0
0
0
0
0
0
0
0
0
0
0
0
0
0
0
0
0
0
0
0
0
0
0
0
0
0
0
0
0
0
0
0
0
0
0
0
0
0
0
0
0
0
0
0
0
0
0
0
0
0
0
0
0
0
0
0
0
0
0
0
0
0
0
0
0
0
0
0
0
0
0
0
0
0
0
0
0
0
0
0
0
0
0
0
0
0
0
0
0
0
0
0
0
0
0
0
0
0
0
0
0
0
0
0
0
0
0
0
0
0
0
0
0
0
0
0
0
0
0
0
0
0
0
0
0
0
0
0
0
0
0
0
0
0
0
0
0
0
0
0
0
0
0
0
0
0
0
0
0
0
0
0
0
0
0
0
0
0
0
0
0
0
0
0
0
0
0
0
0
0
0
0
0
0
0
0
0
0
0
0
0
0
0
0
0
0
0
0
0
0
0
0
0
0
0
0
0
0
0
0
0
0
0
0
0
0
0
0
0
0
0
0
0
0
0
0
0
0
0
0
0
0
0
0
0
0
0
0
0
0
0
0
0
0
0
0
0
0
0
0
0
0
0
0
0
0
0
0
0
0
0
0
0
0
0
0
0
0
0
0
0
0
0
0
0
SCALARS d double 9
LOOKUP_TABLE default
0 0 0 0 0 0 0 0 0
0 0 0 0 0 0 0 0 0
0 0 0 0 0 0 0 0 0
0 0 0 0 0 0 0 0 0
0 0 0 0 0 0 0 0 0
0 0 0 0 0 0 0 0 0
0 0 0 0 0 0 0 0 0
0 0 0 0 0 0 0 0 0
0 0 0 0 0 0 0 0 0
0 0 0 0 0 0 0 0 0
0 0 0 0 0 0 0 0 0
0 0 0 0 0 0 0 0 0
0 0 0 0 0 0 0 0 0
0 0 0 0 0 0 0 0 0
0 0 0 0 0 0 0 0 0
0 0 0 0 0 0 0 0 0
0 0 0 0 0 0 0 0 0
0 0 0 0 0 0 0 0 0
0 0 0 0 0 0 0 0 0
0 0 0 0 0 0 0 0 0
0 0 0 0 0 0 0 0 0
0 0 0 0 0 0 0 0 0
0 0 0 0 0 0 0 0 0
0 0 0 0 0 0 0 0 0
0 0 0 0 0 0 0 0 0
0 0 0 0 0 0 0 0 0
0 0 0 0 0 0 0 0 0
0 0 0 0 0 0 0 0 0
0 0 0 0 0 0 0 0 0
0 0 0 0 0 0 0 0 0
0 0 0 0 0 0 0 0 0
0 0 0 0 0 0 0 0 0
0 0 0 0 0 0 0 0 0
0 0 0 0 0 0 0 0 0
0 0 0 0 0 0 0 0 0
0 0 0 0 0 0 0 0 0
0 0 0 0 0 0 0 0 0
0 0 0 0 0 0 0 0 0
0 0 0 0 0 0 0 0 0
0 0 0 0 0 0 0 0 0
0 0 0 0 0 0 0 0 0
0 0 0 0 0 0 0 0 0
0 0 0 0 0 0 0 0 0
0 0 0 0 0 0 0 0 0
0 0 0 0 0 0 0 0 0
0 0 0 0 0 0 0 0 0
0 0 0 0 0 0 0 0 0
0 0 0 0 0 0 0 0 0
0 0 0 0 0 0 0 0 0
0 0 0 0 0 0 0 0 0
0 0 0 0 0 0 0 0 0
0 0 0 0 0 0 0 0 0
0 0 0 0 0 0 0 0 0
0 0 0 0 0 0 0 0 0
0 0 0 0 0 0 0 0 0
0 0 0 0 0 0 0 0 0
0 0 0 0 0 0 0 0 0
0 0 0 0 0 0 0 0 0
0 0 0 0 0 0 0 0 0
0 0 0 0 0 0 0 0 0
0 0 0 0 0 0 0 0 0
0 0 0 0 0 0 0 0 0
0 0 0 0 0 0 0 0 0
0 0 0 0 0 0 0 0 0
0 0 0 0 0 0 0 0 0
0 0 0 0 0 0 0 0 0
0 0 0 0 0 0 0 0 0
0 0 0 0 0 0 0 0 0
0 0 0 0 0 0 0 0 0
0 0 0 0 0 0 0 0 0
0 0 0 0 0 0 0 0 0
0 0 0 0 0 0 0 0 0
0 0 0 0 0 0 0 0 0
0 0 0 0 0 0 0 0 0
0 0 0 0 0 0 0 0 0
0 0 0 0 0 0 0 0 0
0 0 0 0 0 0 0 0 0
0 0 0 0 0 0 0 0 0
0 0 0 0 0 0 0 0 0
0 0 0 0 0 0 0 0 0
0 0 0 0 0 0 0 0 0
0 0 0 0 0 0 0 0 0
0 0 0 0 0 0 0 0 0
0 0 0 0 0 0 0 0 0
0 0 0 0 0 0 0 0 0
0 0 0 0 0 0 0 0 0
0 0 0 0 0 0 0 0 0
0 0 0 0 0 0 0 0 0
0 0 0 0 0 0 0 0 0
0 0 0 0 0 0 0 0 0
0 0 0 0 0 0 0 0 0
0 0 0 0 0 0 0 0 0
0 0 0 0 0 0 0 0 0
0 0 0 0 0 0 0 0 0
0 0 0 0 0 0 0 0 0
0 0 0 0 0 0 0 0 0
0 0 0 0 0 0 0 0 0
0 0 0 0 0 0 0 0 0
0 0 0 0 0 0 0 0 0
0 0 0 0 0 0 0 0 0
0 0 0 0 0 0 0 0 0
0 0 0 0 0 0 0 0 0
0 0 0 0 0 0 0 0 0
0 0 0 0 0 0 0 0 0
0 0 0 0 0 0 0 0 0
0 0 0 0 0 0 0 0 0
0 0 0 0 0 0 0 0 0
0 0 0 0 0 0 0 0 0
0 0 0 0 0 0 0 0 0
0 0 0 0 0 0 0 0 0
0 0 0 0 0 0 0 0 0
0 0 0 0 0 0 0 0 0
0 0 0 0 0 0 0 0 0
0 0 0 0 0 0 0 0 0
0 0 0 0 0 0 0 0 0
0 0 0 0 0 0 0 0 0
0 0 0 0 0 0 0 0 0
0 0 0 0 0 0 0 0 0
0 0 0 0 0 0 0 0 0
0 0 0 0 0 0 0 0 0
0 0 0 0 0 0 0 0 0
0 0 0 0 0 0 0 0 0
0 0 0 0 0 0 0 0 0
0 0 0 0 0 0 0 0 0
0 0 0 0 0 0 0 0 0
0 0 0 0 0 0 0 0 0
0 0 0 0 0 0 0 0 0
0 0 0 0 0 0 0 0 0
0 0 0 0 0 0 0 0 0
0 0 0 0 0 0 0 0 0
0 0 0 0 0 0 0 0 0
0 0 0 0 0 0 0 0 0
0 0 0 0 0 0 0 0 0
0 0 0 0 0 0 0 0 0
0 0 0 0 0 0 0 0 0
0 0 0 0 0 0 0 0 0
0 0 0 0 0 0 0 0 0
0 0 0 0 0 0 0 0 0
0 0 0 0 0 0 0 0 0
0 0 0 0 0 0 0 0 0
0 0 0 0 0 0 0 0 0
0 0 0 0 0 0 0 0 0
0 0 0 0 0 0 0 0 0
0 0 0 0 0 0 0 0 0
0 0 0 0 0 0 0 0 0
0 0 0 0 0 0 0 0 0
0 0 0 0 0 0 0 0 0
0 0 0 0 0 0 0 0 0
0 0 0 0 0 0 0 0 0
0 0 0 0 0 0 0 0 0
0 0 0 0 0 0 0 0 0
0 0 0 0 0 0 0 0 0
0 0 0 0 0 0 0 0 0
0 0 0 0 0 0 0 0 0
0 0 0 0 0 0 0 0 0
0 0 0 0 0 0 0 0 0
0 0 0 0 0 0 0 0 0
0 0 0 0 0 0 0 0 0
0 0 0 0 0 0 0 0 0
0 0 0 0 0 0 0 0 0
0 0 0 0 0 0 0 0 0
0 0 0 0 0 0 0 0 0
0 0 0 0 0 0 0 0 0
0 0 0 0 0 0 0 0 0
0 0 0 0 0 0 0 0 0
0 0 0 0 0 0 0 0 0
0 0 0 0 0 0 0 0 0
0 0 0 0 0 0 0 0 0
0 0 0 0 0 0 0 0 0
0 0 0 0 0 0 0 0 0
0 0 0 0 0 0 0 0 0
0 0 0 0 0 0 0 0 0
0 0 0 0 0 0 0 0 0
0 0 0 0 0 0 0 0 0
0 0 0 0 0 0 0 0 0
0 0 0 0 0 0 0 0 0
0 0 0 0 0 0 0 0 0
0 0 0 0 0 0 0 0 0
0 0 0 0 0 0 0 0 0
0 0 0 0 0 0 0 0 0
0 0 0 0 0 0 0 0 0
0 0 0 0 0 0 0 0 0
0 0 0 0 0 0 0 0 0
0 0 0 0 0 0 0 0 0
0 0 0 0 0 0 0 0 0
0 0 0 0 0 0 0 0 0
0 0 0 0 0 0 0 0 0
0 0 0 0 0 0 0 0 0
0 0 0 0 0 0 0 0 0
0 0 0 0 0 0 0 0 0
0 0 0 0 0 0 0 0 0
0 0 0 0 0 0 0 0 0
0 0 0 0 0 0 0 0 0
0 0 0 0 0 0 0 0 0
0 0 0 0 0 0 0 0 0
0 0 0 0 0 0 0 0 0
0 0 0 0 0 0 0 0 0
0 0 0 0 0 0 0 0 0
0 0 0 0 0 0 0 0 0
0 0 0 0 0 0 0 0 0
0 0 0 0 0 0 0 0 0
0 0 0 0 0 0 0 0 0
0 0 0 0 0 0 0 0 0
0 0 0 0 0 0 0 0 0
0 0 0 0 0 0 0 0 0
0 0 0 0 0 0 0 0 0
0 0 0 0 0 0 0 0 0
0 0 0 0 0 0 0 0 0
0 0 0 0 0 0 0 0 0
0 0 0 0 0 0 0 0 0
0 0 0 0 0 0 0 0 0
0 0 0 0 0 0 0 0 0
0 0 0 0 0 0 0 0 0
0 0 0 0 0 0 0 0 0
0 0 0 0 0 0 0 0 0
0 0 0 0 0 0 0 0 0
0 0 0 0 0 0 0 0 0
0 0 0 0 0 0 0 0 0
0 0 0 0 0 0 0 0 0
0 0 0 0 0 0 0 0 0
0 0 0 0 0 0 0 0 0
0 0 0 0 0 0 0 0 0
0 0 0 0 0 0 0 0 0
0 0 0 0 0 0 0 0 0
0 0 0 0 0 0 0 0 0
0 0 0 0 0 0 0 0 0
0 0 0 0 0 0 0 0 0
0 0 0 0 0 0 0 0 0
0 0 0 0 0 0 0 0 0
0 0 0 0 0 0 0 0 0
0 0 0 0 0 0 0 0 0
0 0 0 0 0 0 0 0 0
0 0 0 0 0 0 0 0 0
0 0 0 0 0 0 0 0 0
0 0 0 0 0 0 0 0 0
0 0 0 0 0 0 0 0 0
0 0 0 0 0 0 0 0 0
0 0 0 0 0 0 0 0 0
0 0 0 0 0 0 0 0 0
0 0 0 0 0 0 0 0 0
0 0 0 0 0 0 0 0 0
0 0 0 0 0 0 0 0 0
0 0 0 0 0 0 0 0 0
0 0 0 0 0 0 0 0 0
0 0 0 0 0 0 0 0 0
0 0 0 0 0 0 0 0 0
0 0 0 0 0 0 0 0 0
0 0 0 0 0 0 0 0 0
0 0 0 0 0 0 0 0 0
0 0 0 0 0 0 0 0 0
0 0 0 0 0 0 0 0 0
0 0 0 0 0 0 0 0 0
0 0 0 0 0 0 0 0 0
0 0 0 0 0 0 0 0 0
0 0 0 0 0 0 0 0 0
0 0 0 0 0 0 0 0 0
0 0 0 0 0 0 0 0 0
0 0 0 0 0 0 0 0 0
0 0 0 0 0 0 0 0 0
0 0 0 0 0 0 0 0 0
0 0 0 0 0 0 0 0 0
0 0 0 0 0 0 0 0 0
0 0 0 0 0 0 0 0 0
0 0 0 0 0 0 0 0 0
0 0 0 0 0 0 0 0 0
0 0 0 0 0 0 0 0 0
0 0 0 0 0 0 0 0 0
0 0 0 0 0 0 0 0 0
0 0 0 0 0 0 0 0 0
0 0 0 0 0 0 0 0 0
0 0 0 0 0 0 0 0 0
0 0 0 0 0 0 0 0 0
0 0 0 0 0 0 0 0 0
0 0 0 0 0 0 0 0 0
0 0 0 0 0 0 0 0 0
0 0 0 0 0 0 0 0 0
0 0 0 0 0 0 0 0 0
0 0 0 0 0 0 0 0 0
0 0 0 0 0 0 0 0 0
0 0 0 0 0 0 0 0 0
0 0 0 0 0 0 0 0 0
0 0 0 0 0 0 0 0 0
0 0 0 0 0 0 0 0 0
0 0 0 0 0 0 0 0 0
0 0 0 0 0 0 0 0 0
0 0 0 0 0 0 0 0 0
0 0 0 0 0 0 0 0 0
0 0 0 0 0 0 0 0 0
0 0 0 0 0 0 0 0 0
0 0 0 0 0 0 0 0 0
0 0 0 0 0 0 0 0 0
0 0 0 0 0 0 0 0 0
0 0 0 0 0 0 0 0 0
0 0 0 0 0 0 0 0 0
0 0 0 0 0 0 0 0 0
0 0 0 0 0 0 0 0 0
0 0 0 0 0 0 0 0 0
0 0 0 0 0 0 0 0 0
0 0 0 0 0 0 0 0 0
0 0 0 0 0 0 0 0 0
0 0 0 0 0 0 0 0 0
0 0 0 0 0 0 0 0 0
0 0 0 0 0 0 0 0 0
0 0 0 0 0 0 0 0 0
0 0 0 0 0 0 0 0 0
0 0 0 0 0 0 0 0 0
0 0 0 0 0 0 0 0 0
0 0 0 0 0 0 0 0 0
0 0 0 0 0 0 0 0 0
0 0 0 0 0 0 0 0 0
0 0 0 0 0 0 0 0 0
0 0 0 0 0 0 0 0 0
0 0 0 0 0 0 0 0 0
0 0 0 0 0 0 0 0 0
0 0 0 0 0 0 0 0 0
0 0 0 0 0 0 0 0 0
0 0 0 0 0 0 0 0 0
0 0 0 0 0 0 0 0 0
0 0 0 0 0 0 0 0 0
0 0 0 0 0 0 0 0 0
0 0 0 0 0 0 0 0 0
0 0 0 0 0 0 0 0 0
0 0 0 0 0 0 0 0 0
0 0 0 0 0 0 0 0 0
0 0 0 0 0 0 0 0 0
0 0 0 0 0 0 0 0 0
0 0 0 0 0 0 0 0 0
0 0 0 0 0 0 0 0 0
0 0 0 0 0 0 0 0 0
0 0 0 0 0 0 0 0 0
0 0 0 0 0 0 0 0 0
0 0 0 0 0 0 0 0 0
0 0 0 0 0 0 0 0 0
0 0 0 0 0 0 0 0 0
0 0 0 0 0 0 0 0 0
0 0 0 0 0 0 0 0 0
0 0 0 0 0 0 0 0 0
0 0 0 0 0 0 0 0 0
0 0 0 0 0 0 0 0 0
0 0 0 0 0 0 0 0 0
0 0 0 0 0 0 0 0 0
0 0 0 0 0 0 0 0 0
0 0 0 0 0 0 0 0 0
0 0 0 0 0 0 0 0 0
0 0 0 0 0 0 0 0 0
0 0 0 0 0 0 0 0 0
0 0 0 0 0 0 0 0 0
0 0 0 0 0 0 0 0 0
0 0 0 0 0 0 0 0 0
0 0 0 0 0 0 0 0 0
0 0 0 0 0 0 0 0 0
0 0 0 0 0 0 0 0 0
0 0 0 0 0 0 0 0 0
0 0 0 0 0 0 0 0 0
0 0 0 0 0 0 0 0 0
0 0 0 0 0 0 0 0 0
0 0 0 0 0 0 0 0 0
0 0 0 0 0 0 0 0 0
0 0 0 0 0 0 0 0 0
0 0 0 0 0 0 0 0 0
0 0 0 0 0 0 0 0 0
0 0 0 0 0 0 0 0 0
0 0 0 0 0 0 0 0 0
0 0 0 0 0 0 0 0 0
0 0 0 0 0 0 0 0 0
0 0 0 0 0 0 0 0 0
0 0 0 0 0 0 0 0 0
0 0 0 0 0 0 0 0 0
0 0 0 0 0 0 0 0 0
0 0 0 0 0 0 0 0 0
0 0 0 0 0 0 0 0 0
0 0 0 0 0 0 0 0 0
0 0 0 0 0 0 0 0 0
0 0 0 0 0 0 0 0 0
0 0 0 0 0 0 0 0 0
0 0 0 0 0 0 0 0 0
0 0 0 0 0 0 0 0 0
0 0 0 0 0 0 0 0 0
0 0 0 0 0 0 0 0 0
0 0 0 0 0 0 0 0 0
0 0 0 0 0 0 0 0 0
0 0 0 0 0 0 0 0 0
0 0 0 0 0 0 0 0 0
0 0 0 0 0 0 0 0 0
0 0 0 0 0 0 0 0 0
0 0 0 0 0 0 0 0 0
0 0 0 0 0 0 0 0 0
0 0 0 0 0 0 0 0 0
0 0 0 0 0 0 0 0 0
0 0 0 0 0 0 0 0 0
0 0 0 0 0 0 0 0 0
0 0 0 0 0 0 0 0 0
0 0 0 0 0 0 0 0 0
0 0 0 0 0 0 0 0 0
0 0 0 0 0 0 0 0 0
0 0 0 0 0 0 0 0 0
0 0 0 0 0 0 0 0 0
0 0 0 0 0 0 0 0 0
0 0 0 0 0 0 0 0 0
0 0 0 0 0 0 0 0 0
0 0 0 0 0 0 0 0 0
0 0 0 0 0 0 0 0 0
0 0 0 0 0 0 0 0 0
0 0 0 0 0 0 0 0 0
0 0 0 0 0 0 0 0 0
0 0 0 0 0 0 0 0 0
0 0 0 0 0 0 0 0 0
0 0 0 0 0 0 0 0 0
0 0 0 0 0 0 0 0 0
0 0 0 0 0 0 0 0 0
0 0 0 0 0 0 0 0 0
0 0 0 0 0 0 0 0 0
0 0 0 0 0 0 0 0 0
0 0 0 0 0 0 0 0 0
0 0 0 0 0 0 0 0 0
0 0 0 0 0 0 0 0 0
0 0 0 0 0 0 0 0 0
0 0 0 0 0 0 0 0 0
0 0 0 0 0 0 0 0 0
0 0 0 0 0 0 0 0 0
0 0 0 0 0 0 0 0 0
0 0 0 0 0 0 0 0 0
0 0 0 0 0 0 0 0 0
0 0 0 0 0 0 0 0 0
0 0 0 0 0 0 0 0 0
0 0 0 0 0 0 0 0 0
0 0 0 0 0 0 0 0 0
0 0 0 0 0 0 0 0 0
0 0 0 0 0 0 0 0 0
0 0 0 0 0 0 0 0 0
0 0 0 0 0 0 0 0 0
0 0 0 0 0 0 0 0 0
0 0 0 0 0 0 0 0 0
0 0 0 0 0 0 0 0 0
0 0 0 0 0 0 0 0 0
0 0 0 0 0 0 0 0 0
0 0 0 0 0 0 0 0 0
0 0 0 0 0 0 0 0 0
0 0 0 0 0 0 0 0 0
0 0 0 0 0 0 0 0 0
0 0 0 0 0 0 0 0 0
0 0 0 0 0 0 0 0 0
0 0 0 0 0 0 0 0 0
0 0 0 0 0 0 0 0 0
0 0 0 0 0 0 0 0 0
0 0 0 0 0 0 0 0 0
0 0 0 0 0 0 0 0 0
0 0 0 0 0 0 0 0 0
0 0 0 0 0 0 0 0 0
0 0 0 0 0 0 0 0 0
0 0 0 0 0 0 0 0 0
0 0 0 0 0 0 0 0 0
0 0 0 0 0 0 0 0 0
0 0 0 0 0 0 0 0 0
0 0 0 0 0 0 0 0 0
0 0 0 0 0 0 0 0 0
0 0 0 0 0 0 0 0 0
0 0 0 0 0 0 0 0 0
0 0 0 0 0 0 0 0 0
0 0 0 0 0 0 0 0 0
0 0 0 0 0 0 0 0 0
0 0 0 0 0 0 0 0 0
0 0 0 0 0 0 0 0 0
0 0 0 0 0 0 0 0 0
0 0 0 0 0 0 0 0 0
0 0 0 0 0 0 0 0 0
0 0 0 0 0 0 0 0 0
0 0 0 0 0 0 0 0 0
0 0 0 0 0 0 0 0 0
0 0 0 0 0 0 0 0 0
0 0 0 0 0 0 0 0 0
0 0 0 0 0 0 0 0 0
0 0 0 0 0 0 0 0 0
0 0 0 0 0 0 0 0 0
0 0 0 0 0 0 0 0 0
0 0 0 0 0 0 0 0 0
0 0 0 0 0 0 0 0 0
0 0 0 0 0 0 0 0 0
0 0 0 0 0 0 0 0 0
0 0 0 0 0 0 0 0 0
0 0 0 0 0 0 0 0 0
0 0 0 0 0 0 0 0 0
0 0 0 0 0 0 0 0 0
0 0 0 0 0 0 0 0 0
0 0 0 0 0 0 0 0 0
0 0 0 0 0 0 0 0 0
0 0 0 0 0 0 0 0 0
0 0 0 0 0 0 0 0 0
0 0 0 0 0 0 0 0 0
0 0 0 0 0 0 0 0 0
0 0 0 0 0 0 0 0 0
0 0 0 0 0 0 0 0 0
0 0 0 0 0 0 0 0 0
0 0 0 0 0 0 0 0 0
0 0 0 0 0 0 0 0 0
0 0 0 0 0 0 0 0 0
0 0 0 0 0 0 0 0 0
0 0 0 0 0 0 0 0 0
0 0 0 0 0 0 0 0 0
0 0 0 0 0 0 0 0 0
0 0 0 0 0 0 0 0 0
0 0 0 0 0 0 0 0 0
0 0 0 0 0 0 0 0 0
0 0 0 0 0 0 0 0 0
0 0 0 0 0 0 0 0 0
0 0 0 0 0 0 0 0 0
0 0 0 0 0 0 0 0 0
0 0 0 0 0 0 0 0 0
0 0 0 0 0 0 0 0 0
0 0 0 0 0 0 0 0 0
0 0 0 0 0 0 0 0 0
0 0 0 0 0 0 0 0 0
0 0 0 0 0 0 0 0 0
0 0 0 0 0 0 0 0 0
0 0 0 0 0 0 0 0 0
0 0 0 0 0 0 0 0 0
0 0 0 0 0 0 0 0 0
0 0 0 0 0 0 0 0 0
0 0 0 0 0 0 0 0 0
0 0 0 0 0 0 0 0 0
0 0 0 0 0 0 0 0 0
0 0 0 0 0 0 0 0 0
0 0 0 0 0 0 0 0 0
0 0 0 0 0 0 0 0 0
0 0 0 0 0 0 0 0 0
0 0 0 0 0 0 0 0 0
0 0 0 0 0 0 0 0 0
0 0 0 0 0 0 0 0 0
0 0 0 0 0 0 0 0 0
0 0 0 0 0 0 0 0 0
0 0 0 0 0 0 0 0 0
0 0 0 0 0 0 0 0 0
0 0 0 0 0 0 0 0 0
0 0 0 0 0 0 0 0 0
0 0 0 0 0 0 0 0 0
0 0 0 0 0 0 0 0 0
0 0 0 0 0 0 0 0 0
0 0 0 0 0 0 0 0 0
0 0 0 0 0 0 0 0 0
0 0 0 0 0 0 0 0 0
0 0 0 0 0 0 0 0 0
0 0 0 0 0 0 0 0 0
0 0 0 0 0 0 0 0 0
0 0 0 0 0 0 0 0 0
0 0 0 0 0 0 0 0 0
0 0 0 0 0 0 0 0 0
0 0 0 0 0 0 0 0 0
0 0 0 0 0 0 0 0 0
0 0 0 0 0 0 0 0 0
0 0 0 0 0 0 0 0 0
0 0 0 0 0 0 0 0 0
0 0 0 0 0 0 0 0 0
0 0 0 0 0 0 0 0 0
0 0 0 0 0 0 0 0 0
0 0 0 0 0 0 0 0 0
0 0 0 0 0 0 0 0 0
0 0 0 0 0 0 0 0 0
0 0 0 0 0 0 0 0 0
0 0 0 0 0 0 0 0 0
0 0 0 0 0 0 0 0 0
0 0 0 0 0 0 0 0 0
0 0 0 0 0 0 0 0 0
0 0 0 0 0 0 0 0 0
0 0 0 0 0 0 0 0 0
0 0 0 0 0 0 0 0 0
0 0 0 0 0 0 0 0 0
0 0 0 0 0 0 0 0 0
0 0 0 0 0 0 0 0 0
0 0 0 0 0 0 0 0 0
0 0 0 0 0 0 0 0 0
0 0 0 0 0 0 0 0 0
0 0 0 0 0 0 0 0 0
0 0 0 0 0 0 0 0 0
0 0 0 0 0 0 0 0 0
0 0 0 0 0 0 0 0 0
0 0 0 0 0 0 0 0 0
0 0 0 0 0 0 0 0 0
0 0 0 0 0 0 0 0 0
0 0 0 0 0 0 0 0 0
0 0 0 0 0 0 0 0 0
0 0 0 0 0 0 0 0 0
0 0 0 0 0 0 0 0 0
0 0 0 0 0 0 0 0 0
0 0 0 0 0 0 0 0 0
0 0 0 0 0 0 0 0 0
0 0 0 0 0 0 0 0 0
0 0 0 0 0 0 0 0 0
0 0 0 0 0 0 0 0 0
0 0 0 0 0 0 0 0 0
0 0 0 0 0 0 0 0 0
0 0 0 0 0 0 0 0 0
0 0 0 0 0 0 0 0 0
0 0 0 0 0 0 0 0 0
0 0 0 0 0 0 0 0 0
0 0 0 0 0 0 0 0 0
0 0 0 0 0 0 0 0 0
0 0 0 0 0 0 0 0 0
0 0 0 0 0 0 0 0 0
0 0 0 0 0 0 0 0 0
0 0 0 0 0 0 0 0 0
0 0 0 0 0 0 0 0 0
0 0 0 0 0 0 0 0 0
0 0 0 0 0 0 0 0 0
0 0 0 0 0 0 0 0 0
0 0 0 0 0 0 0 0 0
0 0 0 0 0 0 0 0 0
0 0 0 0 0 0 0 0 0
0 0 0 0 0 0 0 0 0
0 0 0 0 0 0 0 0 0
0 0 0 0 0 0 0 0 0
0 0 0 0 0 0 0 0 0
0 0 0 0 0 0 0 0 0
0 0 0 0 0 0 0 0 0
0 0 0 0 0 0 0 0 0
0 0 0 0 0 0 0 0 0
0 0 0 0 0 0 0 0 0
0 0 0 0 0 0 0 0 0
0 0 0 0 0 0 0 0 0
0 0 0 0 0 0 0 0 0
0 0 0 0 0 0 0 0 0
0 0 0 0 0 0 0 0 0
0 0 0 0 0 0 0 0 0
0 0 0 0 0 0 0 0 0
0 0 0 0 0 0 0 0 0
0 0 0 0 0 0 0 0 0
0 0 0 0 0 0 0 0 0
0 0 0 0 0 0 0 0 0
0 0 0 0 0 0 0 0 0
0 0 0 0 0 0 0 0 0
0 0 0 0 0 0 0 0 0
0 0 0 0 0 0 0 0 0
0 0 0 0 0 0 0 0 0
0 0 0 0 0 0 0 0 0
0 0 0 0 0 0 0 0 0
0 0 0 0 0 0 0 0 0
0 0 0 0 0 0 0 0 0
0 0 0 0 0 0 0 0 0
0 0 0 0 0 0 0 0 0
0 0 0 0 0 0 0 0 0
0 0 0 0 0 0 0 0 0
0 0 0 0 0 0 0 0 0
0 0 0 0 0 0 0 0 0
0 0 0 0 0 0 0 0 0
0 0 0 0 0 0 0 0 0
0 0 0 0 0 0 0 0 0
0 0 0 0 0 0 0 0 0
0 0 0 0 0 0 0 0 0
0 0 0 0 0 0 0 0 0
0 0 0 0 0 0 0 0 0
0 0 0 0 0 0 0 0 0
0 0 0 0 0 0 0 0 0
0 0 0 0 0 0 0 0 0
0 0 0 0 0 0 0 0 0
0 0 0 0 0 0 0 0 0
0 0 0 0 0 0 0 0 0
0 0 0 0 0 0 0 0 0
0 0 0 0 0 0 0 0 0
0 0 0 0 0 0 0 0 0
0 0 0 0 0 0 0 0 0
0 0 0 0 0 0 0 0 0
0 0 0 0 0 0 0 0 0
0 0 0 0 0 0 0 0 0
0 0 0 0 0 0 0 0 0
0 0 0 0 0 0 0 0 0
0 0 0 0 0 0 0 0 0
0 0 0 0 0 0 0 0 0
0 0 0 0 0 0 0 0 0
0 0 0 0 0 0 0 0 0
0 0 0 0 0 0 0 0 0
0 0 0 0 0 0 0 0 0
0 0 0 0 0 0 0 0 0
0 0 0 0 0 0 0 0 0
0 0 0 0 0 0 0 0 0
0 0 0 0 0 0 0 0 0
0 0 0 0 0 0 0 0 0
0 0 0 0 0 0 0 0 0
0 0 0 0 0 0 0 0 0
0 0 0 0 0 0 0 0 0
0 0 0 0 0 0 0 0 0
0 0 0 0 0 0 0 0 0
0 0 0 0 0 0 0 0 0
0 0 0 0 0 0 0 0 0
0 0 0 0 0 0 0 0 0
0 0 0 0 0 0 0 0 0
0 0 0 0 0 0 0 0 0
0 0 0 0 0 0 0 0 0
0 0 0 0 0 0 0 0 0
0 0 0 0 0 0 0 0 0
0 0 0 0 0 0 0 0 0
0 0 0 0 0 0 0 0 0
0 0 0 0 0 0 0 0 0
0 0 0 0 0 0 0 0 0
0 0 0 0 0 0 0 0 0
0 0 0 0 0 0 0 0 0
0 0 0 0 0 0 0 0 0
0 0 0 0 0 0 0 0 0
0 0 0 0 0 0 0 0 0
0 0 0 0 0 0 0 0 0
0 0 0 0 0 0 0 0 0
0 0 0 0 0 0 0 0 0
0 0 0 0 0 0 0 0 0
0 0 0 0 0 0 0 0 0
0 0 0 0 0 0 0 0 0
0 0 0 0 0 0 0 0 0
0 0 0 0 0 0 0 0 0
0 0 0 0 0 0 0 0 0
0 0 0 0 0 0 0 0 0
0 0 0 0 0 0 0 0 0
0 0 0 0 0 0 0 0 0
0 0 0 0 0 0 0 0 0
0 0 0 0 0 0 0 0 0
0 0 0 0 0 0 0 0 0
0 0 0 0 0 0 0 0 0
0 0 0 0 0 0 0 0 0
0 0 0 0 0 0 0 0 0
0 0 0 0 0 0 0 0 0
0 0 0 0 0 0 0 0 0
0 0 0 0 0 0 0 0 0
0 0 0 0 0 0 0 0 0
0 0 0 0 0 0 0 0 0
0 0 0 0 0 0 0 0 0
0 0 0 0 0 0 0 0 0
0 0 0 0 0 0 0 0 0
0 0 0 0 0 0 0 0 0
0 0 0 0 0 0 0 0 0
0 0 0 0 0 0 0 0 0
0 0 0 0 0 0 0 0 0
0 0 0 0 0 0 0 0 0
0 0 0 0 0 0 0 0 0
0 0 0 0 0 0 0 0 0
0 0 0 0 0 0 0 0 0
0 0 0 0 0 0 0 0 0
0 0 0 0 0 0 0 0 0
0 0 0 0 0 0 0 0 0
0 0 0 0 0 0 0 0 0
0 0 0 0 0 0 0 0 0
0 0 0 0 0 0 0 0 0
0 0 0 0 0 0 0 0 0
0 0 0 0 0 0 0 0 0
0 0 0 0 0 0 0 0 0
0 0 0 0 0 0 0 0 0
0 0 0 0 0 0 0 0 0
0 0 0 0 0 0 0 0 0
0 0 0 0 0 0 0 0 0
0 0 0 0 0 0 0 0 0
0 0 0 0 0 0 0 0 0
0 0 0 0 0 0 0 0 0
0 0 0 0 0 0 0 0 0
0 0 0 0 0 0 0 0 0
0 0 0 0 0 0 0 0 0
0 0 0 0 0 0 0 0 0
0 0 0 0 0 0 0 0 0
0 0 0 0 0 0 0 0 0
0 0 0 0 0 0 0 0 0
0 0 0 0 0 0 0 0 0
0 0 0 0 0 0 0 0 0
0 0 0 0 0 0 0 0 0
0 0 0 0 0 0 0 0 0
0 0 0 0 0 0 0 0 0
0 0 0 0 0 0 0 0 0
0 0 0 0 0 0 0 0 0
0 0 0 0 0 0 0 0 0
0 0 0 0 0 0 0 0 0
0 0 0 0 0 0 0 0 0
0 0 0 0 0 0 0 0 0
0 0 0 0 0 0 0 0 0
0 0 0 0 0 0 0 0 0
0 0 0 0 0 0 0 0 0
0 0 0 0 0 0 0 0 0
0 0 0 0 0 0 0 0 0
0 0 0 0 0 0 0 0 0
0 0 0 0 0 0 0 0 0
0 0 0 0 0 0 0 0 0
0 0 0 0 0 0 0 0 0
0 0 0 0 0 0 0 0 0
0 0 0 0 0 0 0 0 0
0 0 0 0 0 0 0 0 0
0 0 0 0 0 0 0 0 0
0 0 0 0 0 0 0 0 0
0 0 0 0 0 0 0 0 0
0 0 0 0 0 0 0 0 0
0 0 0 0 0 0 0 0 0
0 0 0 0 0 0 0 0 0
0 0 0 0 0 0 0 0 0
0 0 0 0 0 0 0 0 0
0 0 0 0 0 0 0 0 0
0 0 0 0 0 0 0 0 0
0 0 0 0 0 0 0 0 0
0 0 0 0 0 0 0 0 0
0 0 0 0 0 0 0 0 0
0 0 0 0 0 0 0 0 0
0 0 0 0 0 0 0 0 0
0 0 0 0 0 0 0 0 0
0 0 0 0 0 0 0 0 0
0 0 0 0 0 0 0 0 0
0 0 0 0 0 0 0 0 0
0 0 0 0 0 0 0 0 0
0 0 0 0 0 0 0 0 0
0 0 0 0 0 0 0 0 0
0 0 0 0 0 0 0 0 0
0 0 0 0 0 0 0 0 0
0 0 0 0 0 0 0 0 0
0 0 0 0 0 0 0 0 0
0 0 0 0 0 0 0 0 0
0 0 0 0 0 0 0 0 0
0 0 0 0 0 0 0 0 0
0 0 0 0 0 0 0 0 0
0 0 0 0 0 0 0 0 0
0 0 0 0 0 0 0 0 0
0 0 0 0 0 0 0 0 0
0 0 0 0 0 0 0 0 0
0 0 0 0 0 0 0 0 0
0 0 0 0 0 0 0 0 0
0 0 0 0 0 0 0 0 0
0 0 0 0 0 0 0 0 0
0 0 0 0 0 0 0 0 0
0 0 0 0 0 0 0 0 0
0 0 0 0 0 0 0 0 0
0 0 0 0 0 0 0 0 0
0 0 0 0 0 0 0 0 0
0 0 0 0 0 0 0 0 0
0 0 0 0 0 0 0 0 0
0 0 0 0 0 0 0 0 0
0 0 0 0 0 0 0 0 0
0 0 0 0 0 0 0 0 0
0 0 0 0 0 0 0 0 0
0 0 0 0 0 0 0 0 0
0 0 0 0 0 0 0 0 0
0 0 0 0 0 0 0 0 0
0 0 0 0 0 0 0 0 0
0 0 0 0 0 0 0 0 0
0 0 0 0 0 0 0 0 0
0 0 0 0 0 0 0 0 0
0 0 0 0 0 0 0 0 0
0 0 0 0 0 0 0 0 0
0 0 0 0 0 0 0 0 0
0 0 0 0 0 0 0 0 0
0 0 0 0 0 0 0 0 0
0 0 0 0 0 0 0 0 0
0 0 0 0 0 0 0 0 0
0 0 0 0 0 0 0 0 0
0 0 0 0 0 0 0 0 0
0 0 0 0 0 0 0 0 0
0 0 0 0 0 0 0 0 0
0 0 0 0 0 0 0 0 0
0 0 0 0 0 0 0 0 0
0 0 0 0 0 0 0 0 0
0 0 0 0 0 0 0 0 0
0 0 0 0 0 0 0 0 0
0 0 0 0 0 0 0 0 0
0 0 0 0 0 0 0 0 0
0 0 0 0 0 0 0 0 0
0 0 0 0 0 0 0 0 0
0 0 0 0 0 0 0 0 0
0 0 0 0 0 0 0 0 0
0 0 0 0 0 0 0 0 0
0 0 0 0 0 0 0 0 0
0 0 0 0 0 0 0 0 0
0 0 0 0 0 0 0 0 0
0 0 0 0 0 0 0 0 0
0 0 0 0 0 0 0 0 0
0 0 0 0 0 0 0 0 0
0 0 0 0 0 0 0 0 0
0 0 0 0 0 0 0 0 0
0 0 0 0 0 0 0 0 0
0 0 0 0 0 0 0 0 0
0 0 0 0 0 0 0 0 0
0 0 0 0 0 0 0 0 0
0 0 0 0 0 0 0 0 0
0 0 0 0 0 0 0 0 0
0 0 0 0 0 0 0 0 0
0 0 0 0 0 0 0 0 0
0 0 0 0 0 0 0 0 0
0 0 0 0 0 0 0 0 0
0 0 0 0 0 0 0 0 0
0 0 0 0 0 0 0 0 0
0 0 0 0 0 0 0 0 0
0 0 0 0 0 0 0 0 0
0 0 0 0 0 0 0 0 0
0 0 0 0 0 0 0 0 0
0 0 0 0 0 0 0 0 0
0 0 0 0 0 0 0 0 0
0 0 0 0 0 0 0 0 0
0 0 0 0 0 0 0 0 0
0 0 0 0 0 0 0 0 0
0 0 0 0 0 0 0 0 0
0 0 0 0 0 0 0 0 0
0 0 0 0 0 0 0 0 0
0 0 0 0 0 0 0 0 0
0 0 0 0 0 0 0 0 0
0 0 0 0 0 0 0 0 0
0 0 0 0 0 0 0 0 0
0 0 0 0 0 0 0 0 0
0 0 0 0 0 0 0 0 0
0 0 0 0 0 0 0 0 0
0 0 0 0 0 0 0 0 0
0 0 0 0 0 0 0 0 0
0 0 0 0 0 0 0 0 0
0 0 0 0 0 0 0 0 0
0 0 0 0 0 0 0 0 0
0 0 0 0 0 0 0 0 0
0 0 0 0 0 0 0 0 0
0 0 0 0 0 0 0 0 0
0 0 0 0 0 0 0 0 0
0 0 0 0 0 0 0 0 0
0 0 0 0 0 0 0 0 0
0 0 0 0 0 0 0 0 0
0 0 0 0 0 0 0 0 0
0 0 0 0 0 0 0 0 0
0 0 0 0 0 0 0 0 0
0 0 0 0 0 0 0 0 0
0 0 0 0 0 0 0 0 0
0 0 0 0 0 0 0 0 0
0 0 0 0 0 0 0 0 0
0 0 0 0 0 0 0 0 0
0 0 0 0 0 0 0 0 0
0 0 0 0 0 0 0 0 0
0 0 0 0 0 0 0 0 0
0 0 0 0 0 0 0 0 0
0 0 0 0 0 0 0 0 0
0 0 0 0 0 0 0 0 0
0 0 0 0 0 0 0 0 0
0 0 0 0 0 0 0 0 0
0 0 0 0 0 0 0 0 0
0 0 0 0 0 0 0 0 0
0 0 0 0 0 0 0 0 0
0 0 0 0 0 0 0 0 0
0 0 0 0 0 0 0 0 0
0 0 0 0 0 0 0 0 0
0 0 0 0 0 0 0 0 0
0 0 0 0 0 0 0 0 0
0 0 0 0 0 0 0 0 0
0 0 0 0 0 0 0 0 0
0 0 0 0 0 0 0 0 0
0 0 0 0 0 0 0 0 0
0 0 0 0 0 0 0 0 0
0 0 0 0 0 0 0 0 0
0 0 0 0 0 0 0 0 0
0 0 0 0 0 0 0 0 0
0 0 0 0 0 0 0 0 0
0 0 0 0 0 0 0 0 0
0 0 0 0 0 0 0 0 0
0 0 0 0 0 0 0 0 0
0 0 0 0 0 0 0 0 0
0 0 0 0 0 0 0 0 0
0 0 0 0 0 0 0 0 0
0 0 0 0 0 0 0 0 0
0 0 0 0 0 0 0 0 0
0 0 0 0 0 0 0 0 0
0 0 0 0 0 0 0 0 0
0 0 0 0 0 0 0 0 0
0 0 0 0 0 0 0 0 0
0 0 0 0 0 0 0 0 0
0 0 0 0 0 0 0 0 0
0 0 0 0 0 0 0 0 0
0 0 0 0 0 0 0 0 0
0 0 0 0 0 0 0 0 0
0 0 0 0 0 0 0 0 0
0 0 0 0 0 0 0 0 0
0 0 0 0 0 0 0 0 0
0 0 0 0 0 0 0 0 0
0 0 0 0 0 0 0 0 0
0 0 0 0 0 0 0 0 0
0 0 0 0 0 0 0 0 0
0 0 0 0 0 0 0 0 0
0 0 0 0 0 0 0 0 0
0 0 0 0 0 0 0 0 0
0 0 0 0 0 0 0 0 0
0 0 0 0 0 0 0 0 0
0 0 0 0 0 0 0 0 0
0 0 0 0 0 0 0 0 0
0 0 0 0 0 0 0 0 0
0 0 0 0 0 0 0 0 0
0 0 0 0 0 0 0 0 0
0 0 0 0 0 0 0 0 0
0 0 0 0 0 0 0 0 0
0 0 0 0 0 0 0 0 0
0 0 0 0 0 0 0 0 0
0 0 0 0 0 0 0 0 0
0 0 0 0 0 0 0 0 0
0 0 0 0 0 0 0 0 0
0 0 0 0 0 0 0 0 0
0 0 0 0 0 0 0 0 0
0 0 0 0 0 0 0 0 0
0 0 0 0 0 0 0 0 0
0 0 0 0 0 0 0 0 0
0 0 0 0 0 0 0 0 0
0 0 0 0 0 0 0 0 0
0 0 0 0 0 0 0 0 0
0 0 0 0 0 0 0 0 0
0 0 0 0 0 0 0 0 0
0 0 0 0 0 0 0 0 0
0 0 0 0 0 0 0 0 0
0 0 0 0 0 0 0 0 0
0 0 0 0 0 0 0 0 0
0 0 0 0 0 0 0 0 0
0 0 0 0 0 0 0 0 0
0 0 0 0 0 0 0 0 0
0 0 0 0 0 0 0 0 0
0 0 0 0 0 0 0 0 0
0 0 0 0 0 0 0 0 0
0 0 0 0 0 0 0 0 0
0 0 0 0 0 0 0 0 0
0 0 0 0 0 0 0 0 0
0 0 0 0 0 0 0 0 0
0 0 0 0 0 0 0 0 0
0 0 0 0 0 0 0 0 0
0 0 0 0 0 0 0 0 0
0 0 0 0 0 0 0 0 0
0 0 0 0 0 0 0 0 0
0 0 0 0 0 0 0 0 0
0 0 0 0 0 0 0 0 0
0 0 0 0 0 0 0 0 0
0 0 0 0 0 0 0 0 0
0 0 0 0 0 0 0 0 0
0 0 0 0 0 0 0 0 0
0 0 0 0 0 0 0 0 0
0 0 0 0 0 0 0 0 0
0 0 0 0 0 0 0 0 0
0 0 0 0 0 0 0 0 0
0 0 0 0 0 0 0 0 0
0 0 0 0 0 0 0 0 0
0 0 0 0 0 0 0 0 0
0 0 0 0 0 0 0 0 0
0 0 0 0 0 0 0 0 0
0 0 0 0 0 0 0 0 0
0 0 0 0 0 0 0 0 0
0 0 0 0 0 0 0 0 0
0 0 0 0 0 0 0 0 0
0 0 0 0 0 0 0 0 0
0 0 0 0 0 0 0 0 0
0 0 0 0 0 0 0 0 0
0 0 0 0 0 0 0 0 0
0 0 0 0 0 0 0 0 0
0 0 0 0 0 0 0 0 0
0 0 0 0 0 0 0 0 0
0 0 0 0 0 0 0 0 0
0 0 0 0 0 0 0 0 0
0 0 0 0 0 0 0 0 0
0 0 0 0 0 0 0 0 0
0 0 0 0 0 0 0 0 0
0 0 0 0 0 0 0 0 0
0 0 0 0 0 0 0 0 0
0 0 0 0 0 0 0 0 0
0 0 0 0 0 0 0 0 0
0 0 0 0 0 0 0 0 0
0 0 0 0 0 0 0 0 0
0 0 0 0 0 0 0 0 0
0 0 0 0 0 0 0 0 0
0 0 0 0 0 0 0 0 0
0 0 0 0 0 0 0 0 0
0 0 0 0 0 0 0 0 0
0 0 0 0 0 0 0 0 0
0 0 0 0 0 0 0 0 0
0 0 0 0 0 0 0 0 0
0 0 0 0 0 0 0 0 0
0 0 0 0 0 0 0 0 0
0 0 0 0 0 0 0 0 0
0 0 0 0 0 0 0 0 0
0 0 0 0 0 0 0 0 0
0 0 0 0 0 0 0 0 0
0 0 0 0 0 0 0 0 0
0 0 0 0 0 0 0 0 0
0 0 0 0 0 0 0 0 0
0 0 0 0 0 0 0 0 0
0 0 0 0 0 0 0 0 0
0 0 0 0 0 0 0 0 0
0 0 0 0 0 0 0 0 0
0 0 0 0 0 0 0 0 0
0 0 0 0 0 0 0 0 0
0 0 0 0 0 0 0 0 0
0 0 0 0 0 0 0 0 0
0 0 0 0 0 0 0 0 0
0 0 0 0 0 0 0 0 0
0 0 0 0 0 0 0 0 0
0 0 0 0 0 0 0 0 0
0 0 0 0 0 0 0 0 0
0 0 0 0 0 0 0 0 0
0 0 0 0 0 0 0 0 0
0 0 0 0 0 0 0 0 0
0 0 0 0 0 0 0 0 0
0 0 0 0 0 0 0 0 0
0 0 0 0 0 0 0 0 0
0 0 0 0 0 0 0 0 0
0 0 0 0 0 0 0 0 0
0 0 0 0 0 0 0 0 0
0 0 0 0 0 0 0 0 0
0 0 0 0 0 0 0 0 0
0 0 0 0 0 0 0 0 0
0 0 0 0 0 0 0 0 0
0 0 0 0 0 0 0 0 0
0 0 0 0 0 0 0 0 0
0 0 0 0 0 0 0 0 0
0 0 0 0 0 0 0 0 0
0 0 0 0 0 0 0 0 0
0 0 0 0 0 0 0 0 0
0 0 0 0 0 0 0 0 0
0 0 0 0 0 0 0 0 0
0 0 0 0 0 0 0 0 0
0 0 0 0 0 0 0 0 0
0 0 0 0 0 0 0 0 0
0 0 0 0 0 0 0 0 0
0 0 0 0 0 0 0 0 0
0 0 0 0 0 0 0 0 0
0 0 0 0 0 0 0 0 0
0 0 0 0 0 0 0 0 0
0 0 0 0 0 0 0 0 0
0 0 0 0 0 0 0 0 0
0 0 0 0 0 0 0 0 0
0 0 0 0 0 0 0 0 0
0 0 0 0 0 0 0 0 0
0 0 0 0 0 0 0 0 0
0 0 0 0 0 0 0 0 0
0 0 0 0 0 0 0 0 0
0 0 0 0 0 0 0 0 0
0 0 0 0 0 0 0 0 0
0 0 0 0 0 0 0 0 0
0 0 0 0 0 0 0 0 0
0 0 0 0 0 0 0 0 0
0 0 0 0 0 0 0 0 0
0 0 0 0 0 0 0 0 0
0 0 0 0 0 0 0 0 0
0 0 0 0 0 0 0 0 0
0 0 0 0 0 0 0 0 0
0 0 0 0 0 0 0 0 0
0 0 0 0 0 0 0 0 0
0 0 0 0 0 0 0 0 0
0 0 0 0 0 0 0 0 0
0 0 0 0 0 0 0 0 0
0 0 0 0 0 0 0 0 0
0 0 0 0 0 0 0 0 0
0 0 0 0 0 0 0 0 0
0 0 0 0 0 0 0 0 0
0 0 0 0 0 0 0 0 0
0 0 0 0 0 0 0 0 0
0 0 0 0 0 0 0 0 0
0 0 0 0 0 0 0 0 0
0 0 0 0 0 0 0 0 0
0 0 0 0 0 0 0 0 0
0 0 0 0 0 0 0 0 0
0 0 0 0 0 0 0 0 0
0 0 0 0 0 0 0 0 0
0 0 0 0 0 0 0 0 0
0 0 0 0 0 0 0 0 0
0 0 0 0 0 0 0 0 0
0 0 0 0 0 0 0 0 0
0 0 0 0 0 0 0 0 0
0 0 0 0 0 0 0 0 0
0 0 0 0 0 0 0 0 0
0 0 0 0 0 0 0 0 0
0 0 0 0 0 0 0 0 0
0 0 0 0 0 0 0 0 0
0 0 0 0 0 0 0 0 0
0 0 0 0 0 0 0 0 0
0 0 0 0 0 0 0 0 0
0 0 0 0 0 0 0 0 0
0 0 0 0 0 0 0 0 0
0 0 0 0 0 0 0 0 0
0 0 0 0 0 0 0 0 0
0 0 0 0 0 0 0 0 0
0 0 0 0 0 0 0 0 0
0 0 0 0 0 0 0 0 0
0 0 0 0 0 0 0 0 0
0 0 0 0 0 0 0 0 0
0 0 0 0 0 0 0 0 0
0 0 0 0 0 0 0 0 0
0 0 0 0 0 0 0 0 0
0 0 0 0 0 0 0 0 0
0 0 0 0 0 0 0 0 0
0 0 0 0 0 0 0 0 0
0 0 0 0 0 0 0 0 0
0 0 0 0 0 0 0 0 0
0 0 0 0 0 0 0 0 0
0 0 0 0 0 0 0 0 0
0 0 0 0 0 0 0 0 0
0 0 0 0 0 0 0 0 0
0 0 0 0 0 0 0 0 0
0 0 0 0 0 0 0 0 0
0 0 0 0 0 0 0 0 0
0 0 0 0 0 0 0 0 0
0 0 0 0 0 0 0 0 0
0 0 0 0 0 0 0 0 0
0 0 0 0 0 0 0 0 0
0 0 0 0 0 0 0 0 0
0 0 0 0 0 0 0 0 0
0 0 0 0 0 0 0 0 0
0 0 0 0 0 0 0 0 0
0 0 0 0 0 0 0 0 0
0 0 0 0 0 0 0 0 0
0 0 0 0 0 0 0 0 0
0 0 0 0 0 0 0 0 0
0 0 0 0 0 0 0 0 0
0 0 0 0 0 0 0 0 0
0 0 0 0 0 0 0 0 0
0 0 0 0 0 0 0 0 0
0 0 0 0 0 0 0 0 0
0 0 0 0 0 0 0 0 0
0 0 0 0 0 0 0 0 0
0 0 0 0 0 0 0 0 0
0 0 0 0 0 0 0 0 0
0 0 0 0 0 0 0 0 0
0 0 0 0 0 0 0 0 0
0 0 0 0 0 0 0 0 0
0 0 0 0 0 0 0 0 0
0 0 0 0 0 0 0 0 0
0 0 0 0 0 0 0 0 0
0 0 0 0 0 0 0 0 0
0 0 0 0 0 0 0 0 0
0 0 0 0 0 0 0 0 0
0 0 0 0 0 0 0 0 0
0 0 0 0 0 0 0 0 0
0 0 0 0 0 0 0 0 0
0 0 0 0 0 0 0 0 0
0 0 0 0 0 0 0 0 0
0 0 0 0 0 0 0 0 0
0 0 0 0 0 0 0 0 0
0 0 0 0 0 0 0 0 0
0 0 0 0 0 0 0 0 0
0 0 0 0 0 0 0 0 0
0 0 0 0 0 0 0 0 0
0 0 0 0 0 0 0 0 0
0 0 0 0 0 0 0 0 0
0 0 0 0 0 0 0 0 0
0 0 0 0 0 0 0 0 0
0 0 0 0 0 0 0 0 0
0 0 0 0 0 0 0 0 0
0 0 0 0 0 0 0 0 0
0 0 0 0 0 0 0 0 0
0 0 0 0 0 0 0 0 0
0 0 0 0 0 0 0 0 0
0 0 0 0 0 0 0 0 0
0 0 0 0 0 0 0 0 0
0 0 0 0 0 0 0 0 0
0 0 0 0 0 0 0 0 0
0 0 0 0 0 0 0 0 0
0 0 0 0 0 0 0 0 0
0 0 0 0 0 0 0 0 0
0 0 0 0 0 0 0 0 0
0 0 0 0 0 0 0 0 0
0 0 0 0 0 0 0 0 0
0 0 0 0 0 0 0 0 0
0 0 0 0 0 0 0 0 0
0 0 0 0 0 0 0 0 0
0 0 0 0 0 0 0 0 0
0 0 0 0 0 0 0 0 0
0 0 0 0 0 0 0 0 0
0 0 0 0 0 0 0 0 0
0 0 0 0 0 0 0 0 0
0 0 0 0 0 0 0 0 0
0 0 0 0 0 0 0 0 0
0 0 0 0 0 0 0 0 0
0 0 0 0 0 0 0 0 0
0 0 0 0 0 0 0 0 0
0 0 0 0 0 0 0 0 0
0 0 0 0 0 0 0 0 0
0 0 0 0 0 0 0 0 0
0 0 0 0 0 0 0 0 0
0 0 0 0 0 0 0 0 0
0 0 0 0 0 0 0 0 0
0 0 0 0 0 0 0 0 0
0 0 0 0 0 0 0 0 0
0 0 0 0 0 0 0 0 0
0 0 0 0 0 0 0 0 0
0 0 0 0 0 0 0 0 0
0 0 0 0 0 0 0 0 0
0 0 0 0 0 0 0 0 0
0 0 0 0 0 0 0 0 0
0 0 0 0 0 0 0 0 0
0 0 0 0 0 0 0 0 0
0 0 0 0 0 0 0 0 0
0 0 0 0 0 0 0 0 0
0 0 0 0 0 0 0 0 0
0 0 0 0 0 0 0 0 0
0 0 0 0 0 0 0 0 0
0 0 0 0 0 0 0 0 0
0 0 0 0 0 0 0 0 0
0 0 0 0 0 0 0 0 0
0 0 0 0 0 0 0 0 0
0 0 0 0 0 0 0 0 0
0 0 0 0 0 0 0 0 0
0 0 0 0 0 0 0 0 0
0 0 0 0 0 0 0 0 0
0 0 0 0 0 0 0 0 0
0 0 0 0 0 0 0 0 0
0 0 0 0 0 0 0 0 0
0 0 0 0 0 0 0 0 0
0 0 0 0 0 0 0 0 0
0 0 0 0 0 0 0 0 0
0 0 0 0 0 0 0 0 0
0 0 0 0 0 0 0 0 0
0 0 0 0 0 0 0 0 0
0 0 0 0 0 0 0 0 0
0 0 0 0 0 0 0 0 0
0 0 0 0 0 0 0 0 0
0 0 0 0 0 0 0 0 0
0 0 0 0 0 0 0 0 0
0 0 0 0 0 0 0 0 0
0 0 0 0 0 0 0 0 0
0 0 0 0 0 0 0 0 0
0 0 0 0 0 0 0 0 0
0 0 0 0 0 0 0 0 0
0 0 0 0 0 0 0 0 0
0 0 0 0 0 0 0 0 0
0 0 0 0 0 0 0 0 0
0 0 0 0 0 0 0 0 0
0 0 0 0 0 0 0 0 0
0 0 0 0 0 0 0 0 0
0 0 0 0 0 0 0 0 0
0 0 0 0 0 0 0 0 0
0 0 0 0 0 0 0 0 0
0 0 0 0 0 0 0 0 0
0 0 0 0 0 0 0 0 0
0 0 0 0 0 0 0 0 0
0 0 0 0 0 0 0 0 0
0 0 0 0 0 0 0 0 0
0 0 0 0 0 0 0 0 0
0 0 0 0 0 0 0 0 0
0 0 0 0 0 0 0 0 0
0 0 0 0 0 0 0 0 0
0 0 0 0 0 0 0 0 0
0 0 0 0 0 0 0 0 0
0 0 0 0 0 0 0 0 0
0 0 0 0 0 0 0 0 0
0 0 0 0 0 0 0 0 0
0 0 0 0 0 0 0 0 0
0 0 0 0 0 0 0 0 0
0 0 0 0 0 0 0 0 0
0 0 0 0 0 0 0 0 0
0 0 0 0 0 0 0 0 0
0 0 0 0 0 0 0 0 0
0 0 0 0 0 0 0 0 0
0 0 0 0 0 0 0 0 0
0 0 0 0 0 0 0 0 0
0 0 0 0 0 0 0 0 0
0 0 0 0 0 0 0 0 0
0 0 0 0 0 0 0 0 0
0 0 0 0 0 0 0 0 0
0 0 0 0 0 0 0 0 0
0 0 0 0 0 0 0 0 0
0 0 0 0 0 0 0 0 0
0 0 0 0 0 0 0 0 0
0 0 0 0 0 0 0 0 0
0 0 0 0 0 0 0 0 0
0 0 0 0 0 0 0 0 0
0 0 0 0 0 0 0 0 0
0 0 0 0 0 0 0 0 0
0 0 0 0 0 0 0 0 0
0 0 0 0 0 0 0 0 0
0 0 0 0 0 0 0 0 0
0 0 0 0 0 0 0 0 0
0 0 0 0 0 0 0 0 0
0 0 0 0 0 0 0 0 0
0 0 0 0 0 0 0 0 0
0 0 0 0 0 0 0 0 0
0 0 0 0 0 0 0 0 0
0 0 0 0 0 0 0 0 0
0 0 0 0 0 0 0 0 0
0 0 0 0 0 0 0 0 0
0 0 0 0 0 0 0 0 0
0 0 0 0 0 0 0 0 0
0 0 0 0 0 0 0 0 0
0 0 0 0 0 0 0 0 0
0 0 0 0 0 0 0 0 0
0 0 0 0 0 0 0 0 0
0 0 0 0 0 0 0 0 0
0 0 0 0 0 0 0 0 0
0 0 0 0 0 0 0 0 0
0 0 0 0 0 0 0 0 0
0 0 0 0 0 0 0 0 0
0 0 0 0 0 0 0 0 0
0 0 0 0 0 0 0 0 0
0 0 0 0 0 0 0 0 0
0 0 0 0 0 0 0 0 0
0 0 0 0 0 0 0 0 0
0 0 0 0 0 0 0 0 0
0 0 0 0 0 0 0 0 0
0 0 0 0 0 0 0 0 0
0 0 0 0 0 0 0 0 0
0 0 0 0 0 0 0 0 0
0 0 0 0 0 0 0 0 0
0 0 0 0 0 0 0 0 0
0 0 0 0 0 0 0 0 0
0 0 0 0 0 0 0 0 0
0 0 0 0 0 0 0 0 0
0 0 0 0 0 0 0 0 0
0 0 0 0 0 0 0 0 0
0 0 0 0 0 0 0 0 0
0 0 0 0 0 0 0 0 0
0 0 0 0 0 0 0 0 0
0 0 0 0 0 0 0 0 0
0 0 0 0 0 0 0 0 0
0 0 0 0 0 0 0 0 0
0 0 0 0 0 0 0 0 0
0 0 0 0 0 0 0 0 0
0 0 0 0 0 0 0 0 0
0 0 0 0 0 0 0 0 0
0 0 0 0 0 0 0 0 0
0 0 0 0 0 0 0 0 0
0 0 0 0 0 0 0 0 0
0 0 0 0 0 0 0 0 0
0 0 0 0 0 0 0 0 0
0 0 0 0 0 0 0 0 0
0 0 0 0 0 0 0 0 0
0 0 0 0 0 0 0 0 0
0 0 0 0 0 0 0 0 0
0 0 0 0 0 0 0 0 0
0 0 0 0 0 0 0 0 0
0 0 0 0 0 0 0 0 0
0 0 0 0 0 0 0 0 0
0 0 0 0 0 0 0 0 0
0 0 0 0 0 0 0 0 0
0 0 0 0 0 0 0 0 0
0 0 0 0 0 0 0 0 0
0 0 0 0 0 0 0 0 0
0 0 0 0 0 0 0 0 0
0 0 0 0 0 0 0 0 0
0 0 0 0 0 0 0 0 0
0 0 0 0 0 0 0 0 0
0 0 0 0 0 0 0 0 0
0 0 0 0 0 0 0 0 0
0 0 0 0 0 0 0 0 0
0 0 0 0 0 0 0 0 0
0 0 0 0 0 0 0 0 0
0 0 0 0 0 0 0 0 0
0 0 0 0 0 0 0 0 0
0 0 0 0 0 0 0 0 0
0 0 0 0 0 0 0 0 0
0 0 0 0 0 0 0 0 0
0 0 0 0 0 0 0 0 0
0 0 0 0 0 0 0 0 0
0 0 0 0 0 0 0 0 0
0 0 0 0 0 0 0 0 0
0 0 0 0 0 0 0 0 0
0 0 0 0 0 0 0 0 0
0 0 0 0 0 0 0 0 0
0 0 0 0 0 0 0 0 0
0 0 0 0 0 0 0 0 0
0 0 0 0 0 0 0 0 0
0 0 0 0 0 0 0 0 0
0 0 0 0 0 0 0 0 0
0 0 0 0 0 0 0 0 0
0 0 0 0 0 0 0 0 0
0 0 0 0 0 0 0 0 0
0 0 0 0 0 0 0 0 0
0 0 0 0 0 0 0 0 0
0 0 0 0 0 0 0 0 0
0 0 0 0 0 0 0 0 0
0 0 0 0 0 0 0 0 0
0 0 0 0 0 0 0 0 0
0 0 0 0 0 0 0 0 0
0 0 0 0 0 0 0 0 0
0 0 0 0 0 0 0 0 0
0 0 0 0 0 0 0 0 0
0 0 0 0 0 0 0 0 0
0 0 0 0 0 0 0 0 0
0 0 0 0 0 0 0 0 0
0 0 0 0 0 0 0 0 0
0 0 0 0 0 0 0 0 0
0 0 0 0 0 0 0 0 0
0 0 0 0 0 0 0 0 0
0 0 0 0 0 0 0 0 0
0 0 0 0 0 0 0 0 0
0 0 0 0 0 0 0 0 0
0 0 0 0 0 0 0 0 0
0 0 0 0 0 0 0 0 0
0 0 0 0 0 0 0 0 0
0 0 0 0 0 0 0 0 0
0 0 0 0 0 0 0 0 0
0 0 0 0 0 0 0 0 0
0 0 0 0 0 0 0 0 0
0 0 0 0 0 0 0 0 0
0 0 0 0 0 0 0 0 0
0 0 0 0 0 0 0 0 0
0 0 0 0 0 0 0 0 0
0 0 0 0 0 0 0 0 0
0 0 0 0 0 0 0 0 0
0 0 0 0 0 0 0 0 0
0 0 0 0 0 0 0 0 0
0 0 0 0 0 0 0 0 0
0 0 0 0 0 0 0 0 0
0 0 0 0 0 0 0 0 0
0 0 0 0 0 0 0 0 0
0 0 0 0 0 0 0 0 0
0 0 0 0 0 0 0 0 0
0 0 0 0 0 0 0 0 0
0 0 0 0 0 0 0 0 0
0 0 0 0 0 0 0 0 0
0 0 0 0 0 0 0 0 0
0 0 0 0 0 0 0 0 0
0 0 0 0 0 0 0 0 0
0 0 0 0 0 0 0 0 0
0 0 0 0 0 0 0 0 0
0 0 0 0 0 0 0 0 0
0 0 0 0 0 0 0 0 0
0 0 0 0 0 0 0 0 0
0 0 0 0 0 0 0 0 0
0 0 0 0 0 0 0 0 0
0 0 0 0 0 0 0 0 0
0 0 0 0 0 0 0 0 0
0 0 0 0 0 0 0 0 0
0 0 0 0 0 0 0 0 0
0 0 0 0 0 0 0 0 0
0 0 0 0 0 0 0 0 0
0 0 0 0 0 0 0 0 0
0 0 0 0 0 0 0 0 0
0 0 0 0 0 0 0 0 0
0 0 0 0 0 0 0 0 0
0 0 0 0 0 0 0 0 0
0 0 0 0 0 0 0 0 0
0 0 0 0 0 0 0 0 0
0 0 0 0 0 0 0 0 0
0 0 0 0 0 0 0 0 0
0 0 0 0 0 0 0 0 0
0 0 0 0 0 0 0 0 0
0 0 0 0 0 0 0 0 0
0 0 0 0 0 0 0 0 0
0 0 0 0 0 0 0 0 0
0 0 0 0 0 0 0 0 0
0 0 0 0 0 0 0 0 0
0 0 0 0 0 0 0 0 0
0 0 0 0 0 0 0 0 0
0 0 0 0 0 0 0 0 0
0 0 0 0 0 0 0 0 0
0 0 0 0 0 0 0 0 0
0 0 0 0 0 0 0 0 0
0 0 0 0 0 0 0 0 0
0 0 0 0 0 0 0 0 0
0 0 0 0 0 0 0 0 0
0 0 0 0 0 0 0 0 0
0 0 0 0 0 0 0 0 0
0 0 0 0 0 0 0 0 0
0 0 0 0 0 0 0 0 0
0 0 0 0 0 0 0 0 0
0 0 0 0 0 0 0 0 0
0 0 0 0 0 0 0 0 0
0 0 0 0 0 0 0 0 0
0 0 0 0 0 0 0 0 0
0 0 0 0 0 0 0 0 0
0 0 0 0 0 0 0 0 0
0 0 0 0 0 0 0 0 0
0 0 0 0 0 0 0 0 0
0 0 0 0 0 0 0 0 0
0 0 0 0 0 0 0 0 0
0 0 0 0 0 0 0 0 0
0 0 0 0 0 0 0 0 0
0 0 0 0 0 0 0 0 0
0 0 0 0 0 0 0 0 0
0 0 0 0 0 0 0 0 0
0 0 0 0 0 0 0 0 0
0 0 0 0 0 0 0 0 0
0 0 0 0 0 0 0 0 0
0 0 0 0 0 0 0 0 0
0 0 0 0 0 0 0 0 0
0 0 0 0 0 0 0 0 0
0 0 0 0 0 0 0 0 0
0 0 0 0 0 0 0 0 0
0 0 0 0 0 0 0 0 0
0 0 0 0 0 0 0 0 0
0 0 0 0 0 0 0 0 0
0 0 0 0 0 0 0 0 0
0 0 0 0 0 0 0 0 0
0 0 0 0 0 0 0 0 0
0 0 0 0 0 0 0 0 0
0 0 0 0 0 0 0 0 0
0 0 0 0 0 0 0 0 0
0 0 0 0 0 0 0 0 0
0 0 0 0 0 0 0 0 0
0 0 0 0 0 0 0 0 0
0 0 0 0 0 0 0 0 0
0 0 0 0 0 0 0 0 0
0 0 0 0 0 0 0 0 0
0 0 0 0 0 0 0 0 0
0 0 0 0 0 0 0 0 0
0 0 0 0 0 0 0 0 0
0 0 0 0 0 0 0 0 0
0 0 0 0 0 0 0 0 0
0 0 0 0 0 0 0 0 0
0 0 0 0 0 0 0 0 0
0 0 0 0 0 0 0 0 0
0 0 0 0 0 0 0 0 0
0 0 0 0 0 0 0 0 0
0 0 0 0 0 0 0 0 0
0 0 0 0 0 0 0 0 0
0 0 0 0 0 0 0 0 0
0 0 0 0 0 0 0 0 0
0 0 0 0 0 0 0 0 0
0 0 0 0 0 0 0 0 0
0 0 0 0 0 0 0 0 0
0 0 0 0 0 0 0 0 0
0 0 0 0 0 0 0 0 0
0 0 0 0 0 0 0 0 0
0 0 0 0 0 0 0 0 0
0 0 0 0 0 0 0 0 0
0 0 0 0 0 0 0 0 0
0 0 0 0 0 0 0 0 0
0 0 0 0 0 0 0 0 0
0 0 0 0 0 0 0 0 0
0 0 0 0 0 0 0 0 0
0 0 0 0 0 0 0 0 0
0 0 0 0 0 0 0 0 0
0 0 0 0 0 0 0 0 0
0 0 0 0 0 0 0 0 0
0 0 0 0 0 0 0 0 0
0 0 0 0 0 0 0 0 0
0 0 0 0 0 0 0 0 0
0 0 0 0 0 0 0 0 0
0 0 0 0 0 0 0 0 0
0 0 0 0 0 0 0 0 0
0 0 0 0 0 0 0 0 0
0 0 0 0 0 0 0 0 0
0 0 0 0 0 0 0 0 0
0 0 0 0 0 0 0 0 0
0 0 0 0 0 0 0 0 0
0 0 0 0 0 0 0 0 0
0 0 0 0 0 0 0 0 0
0 0 0 0 0 0 0 0 0
0 0 0 0 0 0 0 0 0
0 0 0 0 0 0 0 0 0
0 0 0 0 0 0 0 0 0
0 0 0 0 0 0 0 0 0
0 0 0 0 0 0 0 0 0
0 0 0 0 0 0 0 0 0
0 0 0 0 0 0 0 0 0
0 0 0 0 0 0 0 0 0
0 0 0 0 0 0 0 0 0
0 0 0 0 0 0 0 0 0
0 0 0 0 0 0 0 0 0
0 0 0 0 0 0 0 0 0
0 0 0 0 0 0 0 0 0
0 0 0 0 0 0 0 0 0
0 0 0 0 0 0 0 0 0
0 0 0 0 0 0 0 0 0
0 0 0 0 0 0 0 0 0
0 0 0 0 0 0 0 0 0
0 0 0 0 0 0 0 0 0
0 0 0 0 0 0 0 0 0
0 0 0 0 0 0 0 0 0
0 0 0 0 0 0 0 0 0
0 0 0 0 0 0 0 0 0
0 0 0 0 0 0 0 0 0
0 0 0 0 0 0 0 0 0
0 0 0 0 0 0 0 0 0
0 0 0 0 0 0 0 0 0
0 0 0 0 0 0 0 0 0
0 0 0 0 0 0 0 0 0
0 0 0 0 0 0 0 0 0
0 0 0 0 0 0 0 0 0
0 0 0 0 0 0 0 0 0
0 0 0 0 0 0 0 0 0
0 0 0 0 0 0 0 0 0
0 0 0 0 0 0 0 0 0
0 0 0 0 0 0 0 0 0
0 0 0 0 0 0 0 0 0
0 0 0 0 0 0 0 0 0
0 0 0 0 0 0 0 0 0
0 0 0 0 0 0 0 0 0
0 0 0 0 0 0 0 0 0
0 0 0 0 0 0 0 0 0
0 0 0 0 0 0 0 0 0
0 0 0 0 0 0 0 0 0
0 0 0 0 0 0 0 0 0
0 0 0 0 0 0 0 0 0
0 0 0 0 0 0 0 0 0
0 0 0 0 0 0 0 0 0
0 0 0 0 0 0 0 0 0
0 0 0 0 0 0 0 0 0
0 0 0 0 0 0 0 0 0
0 0 0 0 0 0 0 0 0
0 0 0 0 0 0 0 0 0
0 0 0 0 0 0 0 0 0
0 0 0 0 0 0 0 0 0
0 0 0 0 0 0 0 0 0
0 0 0 0 0 0 0 0 0
0 0 0 0 0 0 0 0 0
0 0 0 0 0 0 0 0 0
0 0 0 0 0 0 0 0 0
0 0 0 0 0 0 0 0 0
0 0 0 0 0 0 0 0 0
0 0 0 0 0 0 0 0 0
0 0 0 0 0 0 0 0 0
0 0 0 0 0 0 0 0 0
0 0 0 0 0 0 0 0 0
0 0 0 0 0 0 0 0 0
0 0 0 0 0 0 0 0 0
0 0 0 0 0 0 0 0 0
0 0 0 0 0 0 0 0 0
0 0 0 0 0 0 0 0 0
0 0 0 0 0 0 0 0 0
0 0 0 0 0 0 0 0 0
0 0 0 0 0 0 0 0 0
0 0 0 0 0 0 0 0 0
0 0 0 0 0 0 0 0 0
0 0 0 0 0 0 0 0 0
0 0 0 0 0 0 0 0 0
0 0 0 0 0 0 0 0 0
0 0 0 0 0 0 0 0 0
0 0 0 0 0 0 0 0 0
0 0 0 0 0 0 0 0 0
0 0 0 0 0 0 0 0 0
0 0 0 0 0 0 0 0 0
0 0 0 0 0 0 0 0 0
0 0 0 0 0 0 0 0 0
0 0 0 0 0 0 0 0 0
0 0 0 0 0 0 0 0 0
0 0 0 0 0 0 0 0 0
0 0 0 0 0 0 0 0 0
0 0 0 0 0 0 0 0 0
0 0 0 0 0 0 0 0 0
0 0 0 0 0 0 0 0 0
0 0 0 0 0 0 0 0 0
0 0 0 0 0 0 0 0 0
0 0 0 0 0 0 0 0 0
0 0 0 0 0 0 0 0 0
0 0 0 0 0 0 0 0 0
0 0 0 0 0 0 0 0 0
0 0 0 0 0 0 0 0 0
0 0 0 0 0 0 0 0 0
0 0 0 0 0 0 0 0 0
0 0 0 0 0 0 0 0 0
0 0 0 0 0 0 0 0 0
0 0 0 0 0 0 0 0 0
0 0 0 0 0 0 0 0 0
0 0 0 0 0 0 0 0 0
0 0 0 0 0 0 0 0 0
0 0 0 0 0 0 0 0 0
0 0 0 0 0 0 0 0 0
0 0 0 0 0 0 0 0 0
0 0 0 0 0 0 0 0 0
0 0 0 0 0 0 0 0 0
0 0 0 0 0 0 0 0 0
0 0 0 0 0 0 0 0 0
0 0 0 0 0 0 0 0 0
0 0 0 0 0 0 0 0 0
0 0 0 0 0 0 0 0 0
0 0 0 0 0 0 0 0 0
0 0 0 0 0 0 0 0 0
0 0 0 0 0 0 0 0 0
0 0 0 0 0 0 0 0 0
0 0 0 0 0 0 0 0 0
0 0 0 0 0 0 0 0 0
0 0 0 0 0 0 0 0 0
0 0 0 0 0 0 0 0 0
0 0 0 0 0 0 0 0 0
0 0 0 0 0 0 0 0 0
0 0 0 0 0 0 0 0 0
0 0 0 0 0 0 0 0 0
0 0 0 0 0 0 0 0 0
0 0 0 0 0 0 0 0 0
0 0 0 0 0 0 0 0 0
0 0 0 0 0 0 0 0 0
0 0 0 0 0 0 0 0 0
0 0 0 0 0 0 0 0 0
0 0 0 0 0 0 0 0 0
0 0 0 0 0 0 0 0 0
0 0 0 0 0 0 0 0 0
0 0 0 0 0 0 0 0 0
0 0 0 0 0 0 0 0 0
0 0 0 0 0 0 0 0 0
0 0 0 0 0 0 0 0 0
0 0 0 0 0 0 0 0 0
0 0 0 0 0 0 0 0 0
0 0 0 0 0 0 0 0 0
0 0 0 0 0 0 0 0 0
0 0 0 0 0 0 0 0 0
0 0 0 0 0 0 0 0 0
0 0 0 0 0 0 0 0 0
0 0 0 0 0 0 0 0 0
0 0 0 0 0 0 0 0 0
0 0 0 0 0 0 0 0 0
0 0 0 0 0 0 0 0 0
0 0 0 0 0 0 0 0 0
0 0 0 0 0 0 0 0 0
0 0 0 0 0 0 0 0 0
0 0 0 0 0 0 0 0 0
0 0 0 0 0 0 0 0 0
0 0 0 0 0 0 0 0 0
0 0 0 0 0 0 0 0 0
0 0 0 0 0 0 0 0 0
0 0 0 0 0 0 0 0 0
0 0 0 0 0 0 0 0 0
0 0 0 0 0 0 0 0 0
0 0 0 0 0 0 0 0 0
0 0 0 0 0 0 0 0 0
0 0 0 0 0 0 0 0 0
0 0 0 0 0 0 0 0 0
0 0 0 0 0 0 0 0 0
0 0 0 0 0 0 0 0 0
0 0 0 0 0 0 0 0 0
0 0 0 0 0 0 0 0 0
0 0 0 0 0 0 0 0 0
0 0 0 0 0 0 0 0 0
0 0 0 0 0 0 0 0 0
0 0 0 0 0 0 0 0 0
0 0 0 0 0 0 0 0 0
0 0 0 0 0 0 0 0 0
0 0 0 0 0 0 0 0 0
0 0 0 0 0 0 0 0 0
0 0 0 0 0 0 0 0 0
0 0 0 0 0 0 0 0 0
0 0 0 0 0 0 0 0 0
0 0 0 0 0 0 0 0 0
0 0 0 0 0 0 0 0 0
0 0 0 0 0 0 0 0 0
0 0 0 0 0 0 0 0 0
0 0 0 0 0 0 0 0 0
0 0 0 0 0 0 0 0 0
0 0 0 0 0 0 0 0 0
0 0 0 0 0 0 0 0 0
0 0 0 0 0 0 0 0 0
0 0 0 0 0 0 0 0 0
0 0 0 0 0 0 0 0 0
0 0 0 0 0 0 0 0 0
0 0 0 0 0 0 0 0 0
0 0 0 0 0 0 0 0 0
0 0 0 0 0 0 0 0 0
0 0 0 0 0 0 0 0 0
0 0 0 0 0 0 0 0 0
0 0 0 0 0 0 0 0 0
0 0 0 0 0 0 0 0 0
0 0 0 0 0 0 0 0 0
0 0 0 0 0 0 0 0 0
0 0 0 0 0 0 0 0 0
0 0 0 0 0 0 0 0 0
0 0 0 0 0 0 0 0 0
0 0 0 0 0 0 0 0 0
0 0 0 0 0 0 0 0 0
0 0 0 0 0 0 0 0 0
0 0 0 0 0 0 0 0 0
0 0 0 0 0 0 0 0 0
0 0 0 0 0 0 0 0 0
0 0 0 0 0 0 0 0 0
0 0 0 0 0 0 0 0 0
0 0 0 0 0 0 0 0 0
0 0 0 0 0 0 0 0 0
0 0 0 0 0 0 0 0 0
0 0 0 0 0 0 0 0 0
0 0 0 0 0 0 0 0 0
0 0 0 0 0 0 0 0 0
0 0 0 0 0 0 0 0 0
0 0 0 0 0 0 0 0 0
0 0 0 0 0 0 0 0 0
0 0 0 0 0 0 0 0 0
0 0 0 0 0 0 0 0 0
0 0 0 0 0 0 0 0 0
0 0 0 0 0 0 0 0 0
0 0 0 0 0 0 0 0 0
0 0 0 0 0 0 0 0 0
0 0 0 0 0 0 0 0 0
0 0 0 0 0 0 0 0 0
0 0 0 0 0 0 0 0 0
0 0 0 0 0 0 0 0 0
0 0 0 0 0 0 0 0 0
0 0 0 0 0 0 0 0 0
0 0 0 0 0 0 0 0 0
0 0 0 0 0 0 0 0 0
0 0 0 0 0 0 0 0 0
0 0 0 0 0 0 0 0 0
0 0 0 0 0 0 0 0 0
0 0 0 0 0 0 0 0 0
0 0 0 0 0 0 0 0 0
0 0 0 0 0 0 0 0 0
0 0 0 0 0 0 0 0 0
0 0 0 0 0 0 0 0 0
0 0 0 0 0 0 0 0 0
0 0 0 0 0 0 0 0 0
0 0 0 0 0 0 0 0 0
0 0 0 0 0 0 0 0 0
0 0 0 0 0 0 0 0 0
0 0 0 0 0 0 0 0 0
0 0 0 0 0 0 0 0 0
0 0 0 0 0 0 0 0 0
0 0 0 0 0 0 0 0 0
0 0 0 0 0 0 0 0 0
0 0 0 0 0 0 0 0 0
0 0 0 0 0 0 0 0 0
0 0 0 0 0 0 0 0 0
0 0 0 0 0 0 0 0 0
0 0 0 0 0 0 0 0 0
0 0 0 0 0 0 0 0 0
0 0 0 0 0 0 0 0 0
0 0 0 0 0 0 0 0 0
0 0 0 0 0 0 0 0 0
0 0 0 0 0 0 0 0 0
0 0 0 0 0 0 0 0 0
0 0 0 0 0 0 0 0 0
0 0 0 0 0 0 0 0 0
0 0 0 0 0 0 0 0 0
0 0 0 0 0 0 0 0 0
0 0 0 0 0 0 0 0 0
0 0 0 0 0 0 0 0 0
0 0 0 0 0 0 0 0 0
0 0 0 0 0 0 0 0 0
0 0 0 0 0 0 0 0 0
0 0 0 0 0 0 0 0 0
0 0 0 0 0 0 0 0 0
0 0 0 0 0 0 0 0 0
0 0 0 0 0 0 0 0 0
0 0 0 0 0 0 0 0 0
0 0 0 0 0 0 0 0 0
0 0 0 0 0 0 0 0 0
0 0 0 0 0 0 0 0 0
0 0 0 0 0 0 0 0 0
0 0 0 0 0 0 0 0 0
0 0 0 0 0 0 0 0 0
0 0 0 0 0 0 0 0 0
0 0 0 0 0 0 0 0 0
0 0 0 0 0 0 0 0 0
0 0 0 0 0 0 0 0 0
0 0 0 0 0 0 0 0 0
0 0 0 0 0 0 0 0 0
0 0 0 0 0 0 0 0 0
0 0 0 0 0 0 0 0 0
0 0 0 0 0 0 0 0 0
0 0 0 0 0 0 0 0 0
0 0 0 0 0 0 0 0 0
0 0 0 0 0 0 0 0 0
0 0 0 0 0 0 0 0 0
0 0 0 0 0 0 0 0 0
0 0 0 0 0 0 0 0 0
0 0 0 0 0 0 0 0 0
0 0 0 0 0 0 0 0 0
0 0 0 0 0 0 0 0 0
0 0 0 0 0 0 0 0 0
0 0 0 0 0 0 0 0 0
0 0 0 0 0 0 0 0 0
0 0 0 0 0 0 0 0 0
0 0 0 0 0 0 0 0 0
0 0 0 0 0 0 0 0 0
0 0 0 0 0 0 0 0 0
0 0 0 0 0 0 0 0 0
0 0 0 0 0 0 0 0 0
0 0 0 0 0 0 0 0 0
0 0 0 0 0 0 0 0 0
0 0 0 0 0 0 0 0 0
0 0 0 0 0 0 0 0 0
0 0 0 0 0 0 0 0 0
0 0 0 0 0 0 0 0 0
0 0 0 0 0 0 0 0 0
0 0 0 0 0 0 0 0 0
0 0 0 0 0 0 0 0 0
0 0 0 0 0 0 0 0 0
0 0 0 0 0 0 0 0 0
0 0 0 0 0 0 0 0 0
0 0 0 0 0 0 0 0 0
0 0 0 0 0 0 0 0 0
0 0 0 0 0 0 0 0 0
0 0 0 0 0 0 0 0 0
0 0 0 0 0 0 0 0 0
0 0 0 0 0 0 0 0 0
0 0 0 0 0 0 0 0 0
0 0 0 0 0 0 0 0 0
0 0 0 0 0 0 0 0 0
0 0 0 0 0 0 0 0 0
0 0 0 0 0 0 0 0 0
0 0 0 0 0 0 0 0 0
0 0 0 0 0 0 0 0 0
0 0 0 0 0 0 0 0 0
0 0 0 0 0 0 0 0 0
0 0 0 0 0 0 0 0 0
0 0 0 0 0 0 0 0 0
0 0 0 0 0 0 0 0 0
0 0 0 0 0 0 0 0 0
0 0 0 0 0 0 0 0 0
0 0 0 0 0 0 0 0 0
0 0 0 0 0 0 0 0 0
0 0 0 0 0 0 0 0 0
0 0 0 0 0 0 0 0 0
0 0 0 0 0 0 0 0 0
0 0 0 0 0 0 0 0 0
0 0 0 0 0 0 0 0 0
0 0 0 0 0 0 0 0 0
0 0 0 0 0 0 0 0 0
0 0 0 0 0 0 0 0 0
0 0 0 0 0 0 0 0 0
0 0 0 0 0 0 0 0 0
0 0 0 0 0 0 0 0 0
0 0 0 0 0 0 0 0 0
0 0 0 0 0 0 0 0 0
0 0 0 0 0 0 0 0 0
0 0 0 0 0 0 0 0 0
0 0 0 0 0 0 0 0 0
0 0 0 0 0 0 0 0 0
0 0 0 0 0 0 0 0 0
0 0 0 0 0 0 0 0 0
0 0 0 0 0 0 0 0 0
0 0 0 0 0 0 0 0 0
0 0 0 0 0 0 0 0 0
0 0 0 0 0 0 0 0 0
0 0 0 0 0 0 0 0 0
0 0 0 0 0 0 0 0 0
0 0 0 0 0 0 0 0 0
0 0 0 0 0 0 0 0 0
0 0 0 0 0 0 0 0 0
0 0 0 0 0 0 0 0 0
0 0 0 0 0 0 0 0 0
0 0 0 0 0 0 0 0 0
0 0 0 0 0 0 0 0 0
0 0 0 0 0 0 0 0 0
0 0 0 0 0 0 0 0 0
0 0 0 0 0 0 0 0 0
0 0 0 0 0 0 0 0 0
0 0 0 0 0 0 0 0 0
0 0 0 0 0 0 0 0 0
0 0 0 0 0 0 0 0 0
0 0 0 0 0 0 0 0 0
0 0 0 0 0 0 0 0 0
0 0 0 0 0 0 0 0 0
0 0 0 0 0 0 0 0 0
0 0 0 0 0 0 0 0 0
0 0 0 0 0 0 0 0 0
0 0 0 0 0 0 0 0 0
0 0 0 0 0 0 0 0 0
0 0 0 0 0 0 0 0 0
0 0 0 0 0 0 0 0 0
0 0 0 0 0 0 0 0 0
0 0 0 0 0 0 0 0 0
0 0 0 0 0 0 0 0 0
0 0 0 0 0 0 0 0 0
0 0 0 0 0 0 0 0 0
0 0 0 0 0 0 0 0 0
0 0 0 0 0 0 0 0 0
0 0 0 0 0 0 0 0 0
0 0 0 0 0 0 0 0 0
0 0 0 0 0 0 0 0 0
0 0 0 0 0 0 0 0 0
0 0 0 0 0 0 0 0 0
0 0 0 0 0 0 0 0 0
0 0 0 0 0 0 0 0 0
0 0 0 0 0 0 0 0 0
0 0 0 0 0 0 0 0 0
0 0 0 0 0 0 0 0 0
0 0 0 0 0 0 0 0 0
0 0 0 0 0 0 0 0 0
0 0 0 0 0 0 0 0 0
0 0 0 0 0 0 0 0 0
0 0 0 0 0 0 0 0 0
0 0 0 0 0 0 0 0 0
0 0 0 0 0 0 0 0 0
0 0 0 0 0 0 0 0 0
0 0 0 0 0 0 0 0 0
0 0 0 0 0 0 0 0 0
0 0 0 0 0 0 0 0 0
0 0 0 0 0 0 0 0 0
0 0 0 0 0 0 0 0 0
0 0 0 0 0 0 0 0 0
0 0 0 0 0 0 0 0 0
0 0 0 0 0 0 0 0 0
0 0 0 0 0 0 0 0 0
0 0 0 0 0 0 0 0 0
0 0 0 0 0 0 0 0 0
0 0 0 0 0 0 0 0 0
0 0 0 0 0 0 0 0 0
0 0 0 0 0 0 0 0 0
0 0 0 0 0 0 0 0 0
0 0 0 0 0 0 0 0 0
0 0 0 0 0 0 0 0 0
0 0 0 0 0 0 0 0 0
0 0 0 0 0 0 0 0 0
0 0 0 0 0 0 0 0 0
0 0 0 0 0 0 0 0 0
0 0 0 0 0 0 0 0 0
0 0 0 0 0 0 0 0 0
0 0 0 0 0 0 0 0 0
0 0 0 0 0 0 0 0 0
0 0 0 0 0 0 0 0 0
0 0 0 0 0 0 0 0 0
0 0 0 0 0 0 0 0 0
0 0 0 0 0 0 0 0 0
0 0 0 0 0 0 0 0 0
0 0 0 0 0 0 0 0 0
0 0 0 0 0 0 0 0 0
0 0 0 0 0 0 0 0 0
0 0 0 0 0 0 0 0 0
0 0 0 0 0 0 0 0 0
0 0 0 0 0 0 0 0 0
0 0 0 0 0 0 0 0 0
0 0 0 0 0 0 0 0 0
0 0 0 0 0 0 0 0 0
0 0 0 0 0 0 0 0 0
0 0 0 0 0 0 0 0 0
0 0 0 0 0 0 0 0 0
0 0 0 0 0 0 0 0 0
0 0 0 0 0 0 0 0 0
0 0 0 0 0 0 0 0 0
0 0 0 0 0 0 0 0 0
0 0 0 0 0 0 0 0 0
0 0 0 0 0 0 0 0 0
0 0 0 0 0 0 0 0 0
0 0 0 0 0 0 0 0 0
0 0 0 0 0 0 0 0 0
0 0 0 0 0 0 0 0 0
0 0 0 0 0 0 0 0 0
0 0 0 0 0 0 0 0 0
0 0 0 0 0 0 0 0 0
0 0 0 0 0 0 0 0 0
0 0 0 0 0 0 0 0 0
0 0 0 0 0 0 0 0 0
0 0 0 0 0 0 0 0 0
0 0 0 0 0 0 0 0 0
0 0 0 0 0 0 0 0 0
0 0 0 0 0 0 0 0 0
0 0 0 0 0 0 0 0 0
0 0 0 0 0 0 0 0 0
0 0 0 0 0 0 0 0 0
0 0 0 0 0 0 0 0 0
0 0 0 0 0 0 0 0 0
0 0 0 0 0 0 0 0 0
0 0 0 0 0 0 0 0 0
0 0 0 0 0 0 0 0 0
0 0 0 0 0 0 0 0 0
0 0 0 0 0 0 0 0 0
0 0 0 0 0 0 0 0 0
0 0 0 0 0 0 0 0 0
0 0 0 0 0 0 0 0 0
0 0 0 0 0 0 0 0 0
0 0 0 0 0 0 0 0 0
0 0 0 0 0 0 0 0 0
0 0 0 0 0 0 0 0 0
0 0 0 0 0 0 0 0 0
0 0 0 0 0 0 0 0 0
0 0 0 0 0 0 0 0 0
0 0 0 0 0 0 0 0 0
0 0 0 0 0 0 0 0 0
0 0 0 0 0 0 0 0 0
0 0 0 0 0 0 0 0 0
0 0 0 0 0 0 0 0 0
0 0 0 0 0 0 0 0 0
0 0 0 0 0 0 0 0 0
0 0 0 0 0 0 0 0 0
0 0 0 0 0 0 0 0 0
0 0 0 0 0 0 0 0 0
0 0 0 0 0 0 0 0 0
0 0 0 0 0 0 0 0 0
0 0 0 0 0 0 0 0 0
0 0 0 0 0 0 0 0 0
0 0 0 0 0 0 0 0 0
0 0 0 0 0 0 0 0 0
0 0 0 0 0 0 0 0 0
0 0 0 0 0 0 0 0 0
0 0 0 0 0 0 0 0 0
0 0 0 0 0 0 0 0 0
0 0 0 0 0 0 0 0 0
0 0 0 0 0 0 0 0 0
0 0 0 0 0 0 0 0 0
0 0 0 0 0 0 0 0 0
0 0 0 0 0 0 0 0 0
0 0 0 0 0 0 0 0 0
0 0 0 0 0 0 0 0 0
0 0 0 0 0 0 0 0 0
0 0 0 0 0 0 0 0 0
0 0 0 0 0 0 0 0 0
0 0 0 0 0 0 0 0 0
0 0 0 0 0 0 0 0 0
0 0 0 0 0 0 0 0 0
0 0 0 0 0 0 0 0 0
0 0 0 0 0 0 0 0 0
0 0 0 0 0 0 0 0 0
0 0 0 0 0 0 0 0 0
0 0 0 0 0 0 0 0 0
0 0 0 0 0 0 0 0 0
SCALARS max_shear_normal_tau double 9
LOOKUP_TABLE default
0 0 0 0 0 0 0 0 0
0 0 0 0 0 0 0 0 0
0 0 0 0 0 0 0 0 0
0 0 0 0 0 0 0 0 0
0 0 0 0 0 0 0 0 0
0 0 0 0 0 0 0 0 0
0 0 0 0 0 0 0 0 0
0 0 0 0 0 0 0 0 0
0 0 0 0 0 0 0 0 0
0 0 0 0 0 0 0 0 0
0 0 0 0 0 0 0 0 0
0 0 0 0 0 0 0 0 0
0 0 0 0 0 0 0 0 0
0 0 0 0 0 0 0 0 0
0 0 0 0 0 0 0 0 0
0 0 0 0 0 0 0 0 0
0 0 0 0 0 0 0 0 0
0 0 0 0 0 0 0 0 0
0 0 0 0 0 0 0 0 0
0 0 0 0 0 0 0 0 0
0 0 0 0 0 0 0 0 0
0 0 0 0 0 0 0 0 0
0 0 0 0 0 0 0 0 0
0 0 0 0 0 0 0 0 0
0 0 0 0 0 0 0 0 0
0 0 0 0 0 0 0 0 0
0 0 0 0 0 0 0 0 0
0 0 0 0 0 0 0 0 0
0 0 0 0 0 0 0 0 0
0 0 0 0 0 0 0 0 0
0 0 0 0 0 0 0 0 0
0 0 0 0 0 0 0 0 0
0 0 0 0 0 0 0 0 0
0 0 0 0 0 0 0 0 0
0 0 0 0 0 0 0 0 0
0 0 0 0 0 0 0 0 0
0 0 0 0 0 0 0 0 0
0 0 0 0 0 0 0 0 0
0 0 0 0 0 0 0 0 0
0 0 0 0 0 0 0 0 0
0 0 0 0 0 0 0 0 0
0 0 0 0 0 0 0 0 0
0 0 0 0 0 0 0 0 0
0 0 0 0 0 0 0 0 0
0 0 0 0 0 0 0 0 0
0 0 0 0 0 0 0 0 0
0 0 0 0 0 0 0 0 0
0 0 0 0 0 0 0 0 0
0 0 0 0 0 0 0 0 0
0 0 0 0 0 0 0 0 0
0 0 0 0 0 0 0 0 0
0 0 0 0 0 0 0 0 0
0 0 0 0 0 0 0 0 0
0 0 0 0 0 0 0 0 0
0 0 0 0 0 0 0 0 0
0 0 0 0 0 0 0 0 0
0 0 0 0 0 0 0 0 0
0 0 0 0 0 0 0 0 0
0 0 0 0 0 0 0 0 0
0 0 0 0 0 0 0 0 0
0 0 0 0 0 0 0 0 0
0 0 0 0 0 0 0 0 0
0 0 0 0 0 0 0 0 0
0 0 0 0 0 0 0 0 0
0 0 0 0 0 0 0 0 0
0 0 0 0 0 0 0 0 0
0 0 0 0 0 0 0 0 0
0 0 0 0 0 0 0 0 0
0 0 0 0 0 0 0 0 0
0 0 0 0 0 0 0 0 0
0 0 0 0 0 0 0 0 0
0 0 0 0 0 0 0 0 0
0 0 0 0 0 0 0 0 0
0 0 0 0 0 0 0 0 0
0 0 0 0 0 0 0 0 0
0 0 0 0 0 0 0 0 0
0 0 0 0 0 0 0 0 0
0 0 0 0 0 0 0 0 0
0 0 0 0 0 0 0 0 0
0 0 0 0 0 0 0 0 0
0 0 0 0 0 0 0 0 0
0 0 0 0 0 0 0 0 0
0 0 0 0 0 0 0 0 0
0 0 0 0 0 0 0 0 0
0 0 0 0 0 0 0 0 0
0 0 0 0 0 0 0 0 0
0 0 0 0 0 0 0 0 0
0 0 0 0 0 0 0 0 0
0 0 0 0 0 0 0 0 0
0 0 0 0 0 0 0 0 0
0 0 0 0 0 0 0 0 0
0 0 0 0 0 0 0 0 0
0 0 0 0 0 0 0 0 0
0 0 0 0 0 0 0 0 0
0 0 0 0 0 0 0 0 0
0 0 0 0 0 0 0 0 0
0 0 0 0 0 0 0 0 0
0 0 0 0 0 0 0 0 0
0 0 0 0 0 0 0 0 0
0 0 0 0 0 0 0 0 0
0 0 0 0 0 0 0 0 0
0 0 0 0 0 0 0 0 0
0 0 0 0 0 0 0 0 0
0 0 0 0 0 0 0 0 0
0 0 0 0 0 0 0 0 0
0 0 0 0 0 0 0 0 0
0 0 0 0 0 0 0 0 0
0 0 0 0 0 0 0 0 0
0 0 0 0 0 0 0 0 0
0 0 0 0 0 0 0 0 0
0 0 0 0 0 0 0 0 0
0 0 0 0 0 0 0 0 0
0 0 0 0 0 0 0 0 0
0 0 0 0 0 0 0 0 0
0 0 0 0 0 0 0 0 0
0 0 0 0 0 0 0 0 0
0 0 0 0 0 0 0 0 0
0 0 0 0 0 0 0 0 0
0 0 0 0 0 0 0 0 0
0 0 0 0 0 0 0 0 0
0 0 0 0 0 0 0 0 0
0 0 0 0 0 0 0 0 0
0 0 0 0 0 0 0 0 0
0 0 0 0 0 0 0 0 0
0 0 0 0 0 0 0 0 0
0 0 0 0 0 0 0 0 0
0 0 0 0 0 0 0 0 0
0 0 0 0 0 0 0 0 0
0 0 0 0 0 0 0 0 0
0 0 0 0 0 0 0 0 0
0 0 0 0 0 0 0 0 0
0 0 0 0 0 0 0 0 0
0 0 0 0 0 0 0 0 0
0 0 0 0 0 0 0 0 0
0 0 0 0 0 0 0 0 0
0 0 0 0 0 0 0 0 0
0 0 0 0 0 0 0 0 0
0 0 0 0 0 0 0 0 0
0 0 0 0 0 0 0 0 0
0 0 0 0 0 0 0 0 0
0 0 0 0 0 0 0 0 0
0 0 0 0 0 0 0 0 0
0 0 0 0 0 0 0 0 0
0 0 0 0 0 0 0 0 0
0 0 0 0 0 0 0 0 0
0 0 0 0 0 0 0 0 0
0 0 0 0 0 0 0 0 0
0 0 0 0 0 0 0 0 0
0 0 0 0 0 0 0 0 0
0 0 0 0 0 0 0 0 0
0.173947 0.189601 0.17432 0.189634 0.173947 0.189601 0.17432 0.189634 0
0.201196 0.217216 0.201026 0.216827 0.201196 0.217216 0.201026 0.216827 0
0.229151 0.245735 0.228627 0.245062 0.229151 0.245735 0.228627 0.245062 0
0.258156 0.275506 0.257368 0.274554 0.258156 0.275506 0.257368 0.274554 0
0.288514 0.306703 0.287414 0.305364 0.288514 0.306703 0.287414 0.305364 0
0.320294 0.33924 0.318759 0.337406 0.320294 0.33924 0.318759 0.337406 0
0.353342 0.372927 0.351295 0.370598 0.353342 0.372927 0.351295 0.370598 0
0.387448 0.407542 0.38496 0.404898 0.387448 0.407542 0.38496 0.404898 0
0.17431 0.190377 0.173938 0.189794 0.17431 0.190377 0.173938 0.189794 0
0.202262 0.218667 0.201521 0.217703 0.202262 0.218667 0.201521 0.217703 0
0.230874 0.247821 0.229747 0.246469 0.230874 0.247821 0.229747 0.246469 0
0.260488 0.278153 0.258987 0.276466 0.260488 0.278153 0.258987 0.276466 0
0.291379 0.309855 0.289572 0.307902 0.291379 0.309855 0.289572 0.307902 0
0.323664 0.342919 0.321605 0.340714 0.323664 0.342919 0.321605 0.340714 0
0.357271 0.377232 0.35494 0.374702 0.357271 0.377232 0.35494 0.374702 0
0.392087 0.41272 0.389355 0.409633 0.392087 0.41272 0.389355 0.409633 0
0.428165 0.449738 0.424888 0.446293 0.428165 0.449738 0.424888 0.446293 0
0.176118 0.192491 0.174891 0.191097 0.176118 0.192491 0.174891 0.191097 0
0.204601 0.221317 0.203084 0.219633 0.204601 0.221317 0.203084 0.219633 0
0.233756 0.251026 0.231945 0.249039 0.233756 0.251026 0.231945 0.249039 0
0.263915 0.281863 0.261806 0.279597 0.263915 0.281863 0.261806 0.279597 0
0.295281 0.313997 0.292907 0.311486 0.295281 0.313997 0.292907 0.311486 0
0.327985 0.347491 0.325371 0.344733 0.327985 0.347491 0.325371 0.344733 0
0.362053 0.382338 0.359175 0.379275 0.362053 0.382338 0.359175 0.379275 0
0.397479 0.418566 0.394262 0.415113 0.397479 0.418566 0.394262 0.415113 0
0.434329 0.456319 0.430694 0.452423 0.434329 0.456319 0.430694 0.452423 0
0.179589 0.196084 0.177374 0.193825 0.179589 0.196084 0.177374 0.193825 0
0.208315 0.225242 0.206001 0.222818 0.208315 0.225242 0.206001 0.222818 0
0.237844 0.255351 0.235334 0.252715 0.237844 0.255351 0.235334 0.252715 0
0.268413 0.286594 0.265683 0.283736 0.268413 0.286594 0.265683 0.283736 0
0.300178 0.319115 0.297228 0.31604 0.300178 0.319115 0.297228 0.31604 0
0.333272 0.353018 0.3301 0.349709 0.333272 0.353018 0.3301 0.349709 0
0.367779 0.388369 0.364356 0.384772 0.367779 0.388369 0.364356 0.384772 0
0.403763 0.425239 0.400022 0.421277 0.403763 0.425239 0.400022 0.421277 0
0.441304 0.46373 0.43717 0.459347 0.441304 0.46373 0.43717 0.459347 0
0.184618 0.201131 0.18153 0.198041 0.184618 0.201131 0.18153 0.198041 0
0.213409 0.230445 0.2103 0.227284 0.213409 0.230445 0.2103 0.227284 0
0.243145 0.260809 0.239936 0.257519 0.243145 0.260809 0.239936 0.257519 0
0.273994 0.292356 0.270638 0.288902 0.273994 0.292356 0.270638 0.288902 0
0.306078 0.325211 0.302548 0.321571 0.306078 0.325211 0.302548 0.321571 0
0.339521 0.35949 0.335795 0.355637 0.339521 0.35949 0.335795 0.355637 0
0.374435 0.395306 0.370478 0.391189 0.374435 0.395306 0.370478 0.391189 0
0.410936 0.432776 0.406685 0.428318 0.410936 0.432776 0.406685 0.428318 0
0.449131 0.471988 0.444507 0.467115 0.449131 0.471988 0.444507 0.467115 0
0.19116 0.207592 0.187199 0.20369 0.19116 0.207592 0.187199 0.20369 0
0.219847 0.236898 0.215968 0.233021 0.219847 0.236898 0.215968 0.233021 0
0.249635 0.267381 0.245744 0.263451 0.249635 0.267381 0.245744 0.263451 0
0.280646 0.299141 0.276675 0.295099 0.280646 0.299141 0.276675 0.295099 0
0.312972 0.332269 0.308871 0.328076 0.312972 0.332269 0.308871 0.328076 0
0.346712 0.366879 0.342445 0.3625 0.346712 0.366879 0.342445 0.3625 0
0.38199 0.403117 0.377518 0.398501 0.38199 0.403117 0.377518 0.398501 0
0.418963 0.44114 0.414224 0.436209 0.418963 0.44114 0.414224 0.436209 0
0.457774 0.481057 0.452684 0.475721 0.457774 0.481057 0.452684 0.475721 0
0.199138 0.215391 0.194362 0.210729 0.199138 0.215391 0.194362 0.210729 0
0.227558 0.244544 0.222954 0.239987 0.227558 0.244544 0.222954 0.239987 0
0.257266 0.275032 0.252723 0.270485 0.257266 0.275032 0.252723 0.270485 0
0.288336 0.306916 0.283771 0.302307 0.288336 0.306916 0.283771 0.302307 0
0.320828 0.340256 0.316176 0.335532 0.320828 0.340256 0.316176 0.335532 0
0.354808 0.375142 0.350024 0.370265 0.354808 0.375142 0.350024 0.370265 0
0.390398 0.41175 0.38544 0.406665 0.390398 0.41175 0.38544 0.406665 0
0.427816 0.450373 0.422604 0.444934 0.427816 0.450373 0.422604 0.444934 0
0.467277 0.490917 0.461683 0.485127 0.467277 0.490917 0.461683 0.485127 0
0.208404 0.224449 0.202905 0.219073 0.208404 0.224449 0.202905 0.219073 0
0.236527 0.253467 0.2312 0.24816 0.236527 0.253467 0.2312 0.24816 0
0.266199 0.284038 0.26088 0.278665 0.266199 0.284038 0.26088 0.278665 0
0.297298 0.315683 0.291962 0.310501 0.297298 0.315683 0.291962 0.310501 0
0.329562 0.349097 0.324415 0.343891 0.329562 0.349097 0.324415 0.343891 0
0.363739 0.384212 0.358483 0.378879 0.363739 0.384212 0.358483 0.378879 0
0.399588 0.421132 0.394188 0.415625 0.399588 0.421132 0.394188 0.415625 0
0.437401 0.460318 0.43178 0.454493 0.437401 0.460318 0.43178 0.454493 0
0.306854 0.325401 0.301287 0.319675 0.306854 0.325401 0.301287 0.319675 0
0.339397 0.359086 0.333576 0.353168 0.339397 0.359086 0.333576 0.353168 0
0.37384 0.394464 0.367854 0.388389 0.37384 0.394464 0.367854 0.388389 0
0.409948 0.431631 0.403812 0.425422 0.409948 0.431631 0.403812 0.425422 0
0.44798 0.470974 0.441742 0.464733 0.44798 0.470974 0.441742 0.464733 0
0 0 0 0 0 0 0 0 0
0 0 0 0 0 0 0 0 0
0 0 0 0 0 0 0 0 0
0 0 0 0 0 0 0 0 0
0 0 0 0 0 0 0 0 0
0 0 0 0 0 0 0 0 0
0 0 0 0 0 0 0 0 0
0 0 0 0 0 0 0 0 0
0 0 0 0 0 0 0 0 0
0 0 0 0 0 0 0 0 0
0 0 0 0 0 0 0 0 0
0 0 0 0 0 0 0 0 0
0 0 0 0 0 0 0 0 0
0 0 0 0 0 0 0 0 0
0 0 0 0 0 0 0 0 0
0 0 0 0 0 0 0 0 0
0 0 0 0 0 0 0 0 0
0 0 0 0 0 0 0 0 0
0 0 0 0 0 0 0 0 0
0 0 0 0 0 0 0 0 0
0 0 0 0 0 0 0 0 0
0 0 0 0 0 0 0 0 0
0 0 0 0 0 0 0 0 0
0 0 0 0 0 0 0 0 0
0 0 0 0 0 0 0 0 0
0 0 0 0 0 0 0 0 0
0 0 0 0 0 0 0 0 0
0 0 0 0 0 0 0 0 0
0 0 0 0 0 0 0 0 0
0 0 0 0 0 0 0 0 0
0 0 0 0 0 0 0 0 0
0 0 0 0 0 0 0 0 0
0 0 0 0 0 0 0 0 0
0 0 0 0 0 0 0 0 0
0 0 0 0 0 0 0 0 0
0 0 0 0 0 0 0 0 0
0 0 0 0 0 0 0 0 0
0 0 0 0 0 0 0 0 0
0 0 0 0 0 0 0 0 0
0 0 0 0 0 0 0 0 0
0 0 0 0 0 0 0 0 0
0 0 0 0 0 0 0 0 0
0 0 0 0 0 0 0 0 0
0 0 0 0 0 0 0 0 0
0 0 0 0 0 0 0 0 0
0 0 0 0 0 0 0 0 0
0 0 0 0 0 0 0 0 0
0 0 0 0 0 0 0 0 0
0 0 0 0 0 0 0 0 0
0 0 0 0 0 0 0 0 0
0 0 0 0 0 0 0 0 0
0 0 0 0 0 0 0 0 0
0 0 0 0 0 0 0 0 0
0 0 0 0 0 0 0 0 0
0 0 0 0 0 0 0 0 0
0 0 0 0 0 0 0 0 0
0 0 0 0 0 0 0 0 0
0 0 0 0 0 0 0 0 0
0 0 0 0 0 0 0 0 0
0 0 0 0 0 0 0 0 0
0 0 0 0 0 0 0 0 0
0 0 0 0 0 0 0 0 0
0 0 0 0 0 0 0 0 0
0 0 0 0 0 0 0 0 0
0 0 0 0 0 0 0 0 0
0 0 0 0 0 0 0 0 0
0 0 0 0 0 0 0 0 0
0 0 0 0 0 0 0 0 0
0 0 0 0 0 0 0 0 0
0 0 0 0 0 0 0 0 0
0 0 0 0 0 0 0 0 0
0 0 0 0 0 0 0 0 0
0 0 0 0 0 0 0 0 0
0 0 0 0 0 0 0 0 0
0 0 0 0 0 0 0 0 0
0 0 0 0 0 0 0 0 0
0 0 0 0 0 0 0 0 0
0 0 0 0 0 0 0 0 0
0 0 0 0 0 0 0 0 0
0 0 0 0 0 0 0 0 0
0 0 0 0 0 0 0 0 0
0 0 0 0 0 0 0 0 0
0 0 0 0 0 0 0 0 0
0 0 0 0 0 0 0 0 0
0 0 0 0 0 0 0 0 0
0 0 0 0 0 0 0 0 0
0 0 0 0 0 0 0 0 0
0 0 0 0 0 0 0 0 0
0 0 0 0 0 0 0 0 0
0 0 0 0 0 0 0 0 0
0 0 0 0 0 0 0 0 0
0 0 0 0 0 0 0 0 0
0 0 0 0 0 0 0 0 0
0 0 0 0 0 0 0 0 0
0 0 0 0 0 0 0 0 0
0 0 0 0 0 0 0 0 0
0 0 0 0 0 0 0 0 0
0 0 0 0 0 0 0 0 0
0 0 0 0 0 0 0 0 0
0 0 0 0 0 0 0 0 0
0 0 0 0 0 0 0 0 0
0 0 0 0 0 0 0 0 0
0 0 0 0 0 0 0 0 0
0 0 0 0 0 0 0 0 0
0 0 0 0 0 0 0 0 0
0 0 0 0 0 0 0 0 0
0 0 0 0 0 0 0 0 0
0 0 0 0 0 0 0 0 0
0 0 0 0 0 0 0 0 0
0 0 0 0 0 0 0 0 0
0 0 0 0 0 0 0 0 0
0 0 0 0 0 0 0 0 0
0 0 0 0 0 0 0 0 0
0 0 0 0 0 0 0 0 0
0 0 0 0 0 0 0 0 0
0 0 0 0 0 0 0 0 0
0 0 0 0 0 0 0 0 0
0 0 0 0 0 0 0 0 0
0 0 0 0 0 0 0 0 0
0 0 0 0 0 0 0 0 0
0 0 0 0 0 0 0 0 0
0 0 0 0 0 0 0 0 0
0 0 0 0 0 0 0 0 0
0 0 0 0 0 0 0 0 0
0 0 0 0 0 0 0 0 0
0 0 0 0 0 0 0 0 0
0 0 0 0 0 0 0 0 0
0 0 0 0 0 0 0 0 0
0 0 0 0 0 0 0 0 0
0 0 0 0 0 0 0 0 0
0 0 0 0 0 0 0 0 0
0 0 0 0 0 0 0 0 0
0 0 0 0 0 0 0 0 0
0 0 0 0 0 0 0 0 0
0 0 0 0 0 0 0 0 0
0 0 0 0 0 0 0 0 0
0 0 0 0 0 0 0 0 0
0 0 0 0 0 0 0 0 0
0 0 0 0 0 0 0 0 0
0 0 0 0 0 0 0 0 0
0 0 0 0 0 0 0 0 0
0 0 0 0 0 0 0 0 0
0 0 0 0 0 0 0 0 0
0 0 0 0 0 0 0 0 0
0 0 0 0 0 0 0 0 0
0 0 0 0 0 0 0 0 0
0 0 0 0 0 0 0 0 0
0 0 0 0 0 0 0 0 0
0 0 0 0 0 0 0 0 0
0 0 0 0 0 0 0 0 0
0 0 0 0 0 0 0 0 0
0 0 0 0 0 0 0 0 0
0 0 0 0 0 0 0 0 0
0 0 0 0 0 0 0 0 0
0 0 0 0 0 0 0 0 0
0 0 0 0 0 0 0 0 0
0 0 0 0 0 0 0 0 0
0 0 0 0 0 0 0 0 0
0 0 0 0 0 0 0 0 0
0 0 0 0 0 0 0 0 0
0 0 0 0 0 0 0 0 0
0 0 0 0 0 0 0 0 0
0 0 0 0 0 0 0 0 0
0 0 0 0 0 0 0 0 0
0 0 0 0 0 0 0 0 0
0 0 0 0 0 0 0 0 0
0 0 0 0 0 0 0 0 0
0 0 0 0 0 0 0 0 0
0 0 0 0 0 0 0 0 0
0 0 0 0 0 0 0 0 0
0 0 0 0 0 0 0 0 0
0 0 0 0 0 0 0 0 0
0 0 0 0 0 0 0 0 0
0 0 0 0 0 0 0 0 0
0 0 0 0 0 0 0 0 0
0 0 0 0 0 0 0 0 0
0 0 0 0 0 0 0 0 0
0 0 0 0 0 0 0 0 0
0 0 0 0 0 0 0 0 0
0 0 0 0 0 0 0 0 0
0 0 0 0 0 0 0 0 0
0 0 0 0 0 0 0 0 0
0 0 0 0 0 0 0 0 0
0 0 0 0 0 0 0 0 0
0 0 0 0 0 0 0 0 0
0 0 0 0 0 0 0 0 0
0 0 0 0 0 0 0 0 0
0 0 0 0 0 0 0 0 0
0 0 0 0 0 0 0 0 0
0 0 0 0 0 0 0 0 0
0 0 0 0 0 0 0 0 0
0 0 0 0 0 0 0 0 0
0 0 0 0 0 0 0 0 0
0 0 0 0 0 0 0 0 0
0 0 0 0 0 0 0 0 0
0 0 0 0 0 0 0 0 0
0 0 0 0 0 0 0 0 0
0 0 0 0 0 0 0 0 0
0 0 0 0 0 0 0 0 0
0 0 0 0 0 0 0 0 0
0 0 0 0 0 0 0 0 0
0 0 0 0 0 0 0 0 0
0 0 0 0 0 0 0 0 0
0 0 0 0 0 0 0 0 0
0 0 0 0 0 0 0 0 0
0 0 0 0 0 0 0 0 0
0 0 0 0 0 0 0 0 0
0 0 0 0 0 0 0 0 0
0 0 0 0 0 0 0 0 0
0 0 0 0 0 0 0 0 0
0 0 0 0 0 0 0 0 0
0 0 0 0 0 0 0 0 0
0 0 0 0 0 0 0 0 0
0 0 0 0 0 0 0 0 0
0 0 0 0 0 0 0 0 0
0 0 0 0 0 0 0 0 0
0 0 0 0 0 0 0 0 0
0 0 0 0 0 0 0 0 0
0 0 0 0 0 0 0 0 0
0 0 0 0 0 0 0 0 0
0 0 0 0 0 0 0 0 0
0 0 0 0 0 0 0 0 0
0 0 0 0 0 0 0 0 0
0 0 0 0 0 0 0 0 0
0 0 0 0 0 0 0 0 0
0 0 0 0 0 0 0 0 0
0 0 0 0 0 0 0 0 0
0 0 0 0 0 0 0 0 0
0 0 0 0 0 0 0 0 0
0 0 0 0 0 0 0 0 0
0 0 0 0 0 0 0 0 0
0 0 0 0 0 0 0 0 0
0 0 0 0 0 0 0 0 0
0 0 0 0 0 0 0 0 0
0 0 0 0 0 0 0 0 0
0 0 0 0 0 0 0 0 0
0 0 0 0 0 0 0 0 0
0 0 0 0 0 0 0 0 0
0 0 0 0 0 0 0 0 0
0 0 0 0 0 0 0 0 0
0 0 0 0 0 0 0 0 0
0 0 0 0 0 0 0 0 0
0 0 0 0 0 0 0 0 0
0 0 0 0 0 0 0 0 0
0 0 0 0 0 0 0 0 0
0 0 0 0 0 0 0 0 0
0 0 0 0 0 0 0 0 0
0 0 0 0 0 0 0 0 0
0 0 0 0 0 0 0 0 0
0 0 0 0 0 0 0 0 0
0 0 0 0 0 0 0 0 0
0 0 0 0 0 0 0 0 0
0 0 0 0 0 0 0 0 0
0 0 0 0 0 0 0 0 0
0 0 0 0 0 0 0 0 0
0 0 0 0 0 0 0 0 0
0 0 0 0 0 0 0 0 0
0 0 0 0 0 0 0 0 0
0 0 0 0 0 0 0 0 0
0 0 0 0 0 0 0 0 0
0 0 0 0 0 0 0 0 0
0 0 0 0 0 0 0 0 0
0 0 0 0 0 0 0 0 0
0 0 0 0 0 0 0 0 0
0 0 0 0 0 0 0 0 0
0 0 0 0 0 0 0 0 0
0 0 0 0 0 0 0 0 0
0 0 0 0 0 0 0 0 0
0 0 0 0 0 0 0 0 0
0 0 0 0 0 0 0 0 0
0 0 0 0 0 0 0 0 0
0 0 0 0 0 0 0 0 0
0 0 0 0 0 0 0 0 0
0 0 0 0 0 0 0 0 0
0 0 0 0 0 0 0 0 0
0 0 0 0 0 0 0 0 0
0 0 0 0 0 0 0 0 0
0 0 0 0 0 0 0 0 0
0 0 0 0 0 0 0 0 0
0 0 0 0 0 0 0 0 0
0 0 0 0 0 0 0 0 0
0 0 0 0 0 0 0 0 0
0 0 0 0 0 0 0 0 0
0 0 0 0 0 0 0 0 0
0 0 0 0 0 0 0 0 0
0 0 0 0 0 0 0 0 0
0 0 0 0 0 0 0 0 0
0 0 0 0 0 0 0 0 0
0 0 0 0 0 0 0 0 0
0 0 0 0 0 0 0 0 0
0 0 0 0 0 0 0 0 0
0 0 0 0 0 0 0 0 0
0 0 0 0 0 0 0 0 0
0 0 0 0 0 0 0 0 0
0 0 0 0 0 0 0 0 0
0 0 0 0 0 0 0 0 0
0 0 0 0 0 0 0 0 0
0 0 0 0 0 0 0 0 0
0 0 0 0 0 0 0 0 0
0 0 0 0 0 0 0 0 0
0 0 0 0 0 0 0 0 0
0 0 0 0 0 0 0 0 0
0 0 0 0 0 0 0 0 0
0 0 0 0 0 0 0 0 0
0 0 0 0 0 0 0 0 0
0 0 0 0 0 0 0 0 0
0 0 0 0 0 0 0 0 0
0 0 0 0 0 0 0 0 0
0 0 0 0 0 0 0 0 0
0 0 0 0 0 0 0 0 0
0 0 0 0 0 0 0 0 0
0 0 0 0 0 0 0 0 0
0 0 0 0 0 0 0 0 0
0 0 0 0 0 0 0 0 0
0 0 0 0 0 0 0 0 0
0 0 0 0 0 0 0 0 0
0 0 0 0 0 0 0 0 0
0 0 0 0 0 0 0 0 0
0 0 0 0 0 0 0 0 0
0 0 0 0 0 0 0 0 0
0 0 0 0 0 0 0 0 0
0 0 0 0 0 0 0 0 0
0 0 0 0 0 0 0 0 0
0 0 0 0 0 0 0 0 0
0 0 0 0 0 0 0 0 0
0 0 0 0 0 0 0 0 0
0 0 0 0 0 0 0 0 0
0 0 0 0 0 0 0 0 0
0 0 0 0 0 0 0 0 0
0 0 0 0 0 0 0 0 0
0 0 0 0 0 0 0 0 0
0 0 0 0 0 0 0 0 0
0 0 0 0 0 0 0 0 0
0 0 0 0 0 0 0 0 0
0 0 0 0 0 0 0 0 0
0 0 0 0 0 0 0 0 0
0 0 0 0 0 0 0 0 0
0 0 0 0 0 0 0 0 0
0 0 0 0 0 0 0 0 0
0 0 0 0 0 0 0 0 0
0 0 0 0 0 0 0 0 0
0 0 0 0 0 0 0 0 0
0 0 0 0 0 0 0 0 0
0 0 0 0 0 0 0 0 0
0 0 0 0 0 0 0 0 0
0 0 0 0 0 0 0 0 0
0 0 0 0 0 0 0 0 0
0 0 0 0 0 0 0 0 0
0 0 0 0 0 0 0 0 0
0 0 0 0 0 0 0 0 0
0 0 0 0 0 0 0 0 0
0 0 0 0 0 0 0 0 0
0 0 0 0 0 0 0 0 0
0 0 0 0 0 0 0 0 0
0 0 0 0 0 0 0 0 0
0 0 0 0 0 0 0 0 0
0 0 0 0 0 0 0 0 0
0 0 0 0 0 0 0 0 0
0 0 0 0 0 0 0 0 0
0 0 0 0 0 0 0 0 0
0 0 0 0 0 0 0 0 0
0 0 0 0 0 0 0 0 0
0 0 0 0 0 0 0 0 0
0 0 0 0 0 0 0 0 0
0 0 0 0 0 0 0 0 0
0 0 0 0 0 0 0 0 0
0 0 0 0 0 0 0 0 0
0 0 0 0 0 0 0 0 0
0 0 0 0 0 0 0 0 0
0 0 0 0 0 0 0 0 0
0 0 0 0 0 0 0 0 0
0 0 0 0 0 0 0 0 0
0 0 0 0 0 0 0 0 0
0 0 0 0 0 0 0 0 0
0 0 0 0 0 0 0 0 0
0 0 0 0 0 0 0 0 0
0 0 0 0 0 0 0 0 0
0 0 0 0 0 0 0 0 0
0 0 0 0 0 0 0 0 0
0 0 0 0 0 0 0 0 0
0 0 0 0 0 0 0 0 0
0 0 0 0 0 0 0 0 0
0 0 0 0 0 0 0 0 0
0 0 0 0 0 0 0 0 0
0 0 0 0 0 0 0 0 0
0 0 0 0 0 0 0 0 0
0 0 0 0 0 0 0 0 0
0 0 0 0 0 0 0 0 0
0 0 0 0 0 0 0 0 0
0 0 0 0 0 0 0 0 0
0 0 0 0 0 0 0 0 0
0 0 0 0 0 0 0 0 0
0 0 0 0 0 0 0 0 0
0 0 0 0 0 0 0 0 0
0 0 0 0 0 0 0 0 0
0 0 0 0 0 0 0 0 0
0 0 0 0 0 0 0 0 0
0 0 0 0 0 0 0 0 0
0 0 0 0 0 0 0 0 0
0 0 0 0 0 0 0 0 0
0 0 0 0 0 0 0 0 0
0 0 0 0 0 0 0 0 0
0 0 0 0 0 0 0 0 0
0 0 0 0 0 0 0 0 0
0 0 0 0 0 0 0 0 0
0 0 0 0 0 0 0 0 0
0 0 0 0 0 0 0 0 0
0 0 0 0 0 0 0 0 0
0 0 0 0 0 0 0 0 0
0 0 0 0 0 0 0 0 0
0 0 0 0 0 0 0 0 0
0 0 0 0 0 0 0 0 0
0 0 0 0 0 0 0 0 0
0 0 0 0 0 0 0 0 0
0 0 0 0 0 0 0 0 0
0 0 0 0 0 0 0 0 0
0 0 0 0 0 0 0 0 0
0 0 0 0 0 0 0 0 0
0 0 0 0 0 0 0 0 0
0 0 0 0 0 0 0 0 0
0 0 0 0 0 0 0 0 0
0 0 0 0 0 0 0 0 0
0 0 0 0 0 0 0 0 0
0 0 0 0 0 0 0 0 0
0 0 0 0 0 0 0 0 0
0 0 0 0 0 0 0 0 0
0 0 0 0 0 0 0 0 0
0 0 0 0 0 0 0 0 0
0 0 0 0 0 0 0 0 0
0 0 0 0 0 0 0 0 0
0 0 0 0 0 0 0 0 0
0 0 0 0 0 0 0 0 0
0 0 0 0 0 0 0 0 0
0 0 0 0 0 0 0 0 0
0 0 0 0 0 0 0 0 0
0 0 0 0 0 0 0 0 0
0 0 0 0 0 0 0 0 0
0 0 0 0 0 0 0 0 0
0 0 0 0 0 0 0 0 0
0 0 0 0 0 0 0 0 0
0 0 0 0 0 0 0 0 0
0 0 0 0 0 0 0 0 0
0 0 0 0 0 0 0 0 0
0 0 0 0 0 0 0 0 0
0 0 0 0 0 0 0 0 0
0 0 0 0 0 0 0 0 0
0 0 0 0 0 0 0 0 0
0 0 0 0 0 0 0 0 0
0 0 0 0 0 0 0 0 0
0 0 0 0 0 0 0 0 0
0 0 0 0 0 0 0 0 0
0 0 0 0 0 0 0 0 0
0 0 0 0 0 0 0 0 0
0 0 0 0 0 0 0 0 0
0 0 0 0 0 0 0 0 0
0 0 0 0 0 0 0 0 0
0 0 0 0 0 0 0 0 0
0 0 0 0 0 0 0 0 0
0 0 0 0 0 0 0 0 0
0 0 0 0 0 0 0 0 0
0 0 0 0 0 0 0 0 0
0 0 0 0 0 0 0 0 0
0 0 0 0 0 0 0 0 0
0 0 0 0 0 0 0 0 0
0 0 0 0 0 0 0 0 0
0 0 0 0 0 0 0 0 0
0 0 0 0 0 0 0 0 0
0 0 0 0 0 0 0 0 0
0 0 0 0 0 0 0 0 0
0 0 0 0 0 0 0 0 0
0 0 0 0 0 0 0 0 0
0 0 0 0 0 0 0 0 0
0 0 0 0 0 0 0 0 0
0 0 0 0 0 0 0 0 0
0 0 0 0 0 0 0 0 0
0 0 0 0 0 0 0 0 0
0 0 0 0 0 0 0 0 0
0 0 0 0 0 0 0 0 0
0 0 0 0 0 0 0 0 0
0 0 0 0 0 0 0 0 0
0 0 0 0 0 0 0 0 0
0 0 0 0 0 0 0 0 0
0 0 0 0 0 0 0 0 0
0 0 0 0 0 0 0 0 0
0 0 0 0 0 0 0 0 0
0 0 0 0 0 0 0 0 0
0 0 0 0 0 0 0 0 0
0 0 0 0 0 0 0 0 0
0 0 0 0 0 0 0 0 0
0 0 0 0 0 0 0 0 0
0 0 0 0 0 0 0 0 0
0 0 0 0 0 0 0 0 0
0 0 0 0 0 0 0 0 0
0 0 0 0 0 0 0 0 0
0 0 0 0 0 0 0 0 0
0 0 0 0 0 0 0 0 0
0 0 0 0 0 0 0 0 0
0 0 0 0 0 0 0 0 0
0 0 0 0 0 0 0 0 0
0 0 0 0 0 0 0 0 0
0 0 0 0 0 0 0 0 0
0 0 0 0 0 0 0 0 0
0 0 0 0 0 0 0 0 0
0 0 0 0 0 0 0 0 0
0 0 0 0 0 0 0 0 0
0 0 0 0 0 0 0 0 0
0 0 0 0 0 0 0 0 0
0 0 0 0 0 0 0 0 0
0 0 0 0 0 0 0 0 0
0 0 0 0 0 0 0 0 0
0 0 0 0 0 0 0 0 0
0 0 0 0 0 0 0 0 0
0 0 0 0 0 0 0 0 0
0 0 0 0 0 0 0 0 0
0 0 0 0 0 0 0 0 0
0 0 0 0 0 0 0 0 0
0 0 0 0 0 0 0 0 0
0 0 0 0 0 0 0 0 0
0 0 0 0 0 0 0 0 0
0 0 0 0 0 0 0 0 0
0 0 0 0 0 0 0 0 0
0 0 0 0 0 0 0 0 0
0 0 0 0 0 0 0 0 0
0 0 0 0 0 0 0 0 0
0 0 0 0 0 0 0 0 0
0 0 0 0 0 0 0 0 0
0 0 0 0 0 0 0 0 0
0 0 0 0 0 0 0 0 0
0 0 0 0 0 0 0 0 0
0 0 0 0 0 0 0 0 0
0 0 0 0 0 0 0 0 0
0 0 0 0 0 0 0 0 0
0 0 0 0 0 0 0 0 0
0 0 0 0 0 0 0 0 0
0 0 0 0 0 0 0 0 0
0 0 0 0 0 0 0 0 0
0 0 0 0 0 0 0 0 0
0 0 0 0 0 0 0 0 0
0 0 0 0 0 0 0 0 0
0 0 0 0 0 0 0 0 0
0 0 0 0 0 0 0 0 0
0 0 0 0 0 0 0 0 0
0 0 0 0 0 0 0 0 0
0 0 0 0 0 0 0 0 0
0 0 0 0 0 0 0 0 0
0 0 0 0 0 0 0 0 0
0 0 0 0 0 0 0 0 0
0 0 0 0 0 0 0 0 0
0 0 0 0 0 0 0 0 0
0 0 0 0 0 0 0 0 0
0 0 0 0 0 0 0 0 0
0 0 0 0 0 0 0 0 0
0 0 0 0 0 0 0 0 0
0 0 0 0 0 0 0 0 0
0 0 0 0 0 0 0 0 0
0 0 0 0 0 0 0 0 0
0 0 0 0 0 0 0 0 0
0 0 0 0 0 0 0 0 0
0 0 0 0 0 0 0 0 0
0 0 0 0 0 0 0 0 0
0 0 0 0 0 0 0 0 0
0 0 0 0 0 0 0 0 0
0 0 0 0 0 0 0 0 0
0 0 0 0 0 0 0 0 0
0 0 0 0 0 0 0 0 0
0 0 0 0 0 0 0 0 0
0 0 0 0 0 0 0 0 0
0 0 0 0 0 0 0 0 0
0 0 0 0 0 0 0 0 0
0 0 0 0 0 0 0 0 0
0 0 0 0 0 0 0 0 0
0 0 0 0 0 0 0 0 0
0 0 0 0 0 0 0 0 0
0 0 0 0 0 0 0 0 0
0 0 0 0 0 0 0 0 0
0 0 0 0 0 0 0 0 0
0 0 0 0 0 0 0 0 0
0 0 0 0 0 0 0 0 0
0 0 0 0 0 0 0 0 0
0 0 0 0 0 0 0 0 0
0 0 0 0 0 0 0 0 0
0 0 0 0 0 0 0 0 0
0 0 0 0 0 0 0 0 0
0 0 0 0 0 0 0 0 0
0 0 0 0 0 0 0 0 0
0 0 0 0 0 0 0 0 0
0 0 0 0 0 0 0 0 0
0 0 0 0 0 0 0 0 0
0 0 0 0 0 0 0 0 0
0 0 0 0 0 0 0 0 0
0 0 0 0 0 0 0 0 0
0 0 0 0 0 0 0 0 0
0 0 0 0 0 0 0 0 0
0 0 0 0 0 0 0 0 0
0 0 0 0 0 0 0 0 0
0 0 0 0 0 0 0 0 0
0 0 0 0 0 0 0 0 0
0 0 0 0 0 0 0 0 0
0 0 0 0 0 0 0 0 0
0 0 0 0 0 0 0 0 0
0 0 0 0 0 0 0 0 0
0 0 0 0 0 0 0 0 0
0 0 0 0 0 0 0 0 0
0 0 0 0 0 0 0 0 0
0 0 0 0 0 0 0 0 0
0 0 0 0 0 0 0 0 0
0 0 0 0 0 0 0 0 0
0 0 0 0 0 0 0 0 0
0 0 0 0 0 0 0 0 0
0 0 0 0 0 0 0 0 0
0 0 0 0 0 0 0 0 0
0 0 0 0 0 0 0 0 0
0 0 0 0 0 0 0 0 0
0 0 0 0 0 0 0 0 0
0 0 0 0 0 0 0 0 0
0 0 0 0 0 0 0 0 0
0 0 0 0 0 0 0 0 0
0 0 0 0 0 0 0 0 0
0 0 0 0 0 0 0 0 0
0 0 0 0 0 0 0 0 0
0 0 0 0 0 0 0 0 0
0 0 0 0 0 0 0 0 0
0 0 0 0 0 0 0 0 0
0 0 0 0 0 0 0 0 0
0 0 0 0 0 0 0 0 0
0 0 0 0 0 0 0 0 0
0 0 0 0 0 0 0 0 0
0 0 0 0 0 0 0 0 0
0 0 0 0 0 0 0 0 0
0 0 0 0 0 0 0 0 0
0 0 0 0 0 0 0 0 0
0 0 0 0 0 0 0 0 0
0 0 0 0 0 0 0 0 0
0 0 0 0 0 0 0 0 0
0 0 0 0 0 0 0 0 0
0 0 0 0 0 0 0 0 0
0 0 0 0 0 0 0 0 0
0 0 0 0 0 0 0 0 0
0 0 0 0 0 0 0 0 0
0 0 0 0 0 0 0 0 0
0 0 0 0 0 0 0 0 0
0 0 0 0 0 0 0 0 0
0 0 0 0 0 0 0 0 0
0 0 0 0 0 0 0 0 0
0 0 0 0 0 0 0 0 0
0 0 0 0 0 0 0 0 0
0 0 0 0 0 0 0 0 0
0 0 0 0 0 0 0 0 0
0 0 0 0 0 0 0 0 0
0 0 0 0 0 0 0 0 0
0 0 0 0 0 0 0 0 0
0 0 0 0 0 0 0 0 0
0 0 0 0 0 0 0 0 0
0 0 0 0 0 0 0 0 0
0 0 0 0 0 0 0 0 0
0 0 0 0 0 0 0 0 0
0 0 0 0 0 0 0 0 0
0 0 0 0 0 0 0 0 0
0 0 0 0 0 0 0 0 0
0 0 0 0 0 0 0 0 0
0 0 0 0 0 0 0 0 0
0 0 0 0 0 0 0 0 0
0 0 0 0 0 0 0 0 0
0 0 0 0 0 0 0 0 0
0 0 0 0 0 0 0 0 0
0 0 0 0 0 0 0 0 0
0 0 0 0 0 0 0 0 0
0 0 0 0 0 0 0 0 0
0 0 0 0 0 0 0 0 0
0 0 0 0 0 0 0 0 0
0 0 0 0 0 0 0 0 0
0 0 0 0 0 0 0 0 0
0 0 0 0 0 0 0 0 0
0 0 0 0 0 0 0 0 0
0 0 0 0 0 0 0 0 0
0 0 0 0 0 0 0 0 0
0 0 0 0 0 0 0 0 0
0 0 0 0 0 0 0 0 0
0 0 0 0 0 0 0 0 0
0 0 0 0 0 0 0 0 0
0 0 0 0 0 0 0 0 0
0 0 0 0 0 0 0 0 0
0 0 0 0 0 0 0 0 0
0 0 0 0 0 0 0 0 0
0 0 0 0 0 0 0 0 0
0 0 0 0 0 0 0 0 0
0 0 0 0 0 0 0 0 0
0 0 0 0 0 0 0 0 0
0 0 0 0 0 0 0 0 0
0 0 0 0 0 0 0 0 0
0 0 0 0 0 0 0 0 0
0 0 0 0 0 0 0 0 0
0 0 0 0 0 0 0 0 0
0.304305 0.332616 0.304205 0.332076 0.304305 0.332616 0.304205 0.332076 0
0.353612 0.382671 0.352803 0.381559 0.353612 0.382671 0.352803 0.381559 0
0.404334 0.434471 0.403025 0.43292 0.404334 0.434471 0.403025 0.43292 0
0.457016 0.488485 0.455286 0.486507 0.457016 0.488485 0.455286 0.486507 0
0.512041 0.544936 0.509858 0.542441 0.512041 0.544936 0.509858 0.542441 0
0.569509 0.603756 0.566761 0.600628 0.569509 0.603756 0.566761 0.600628 0
0.629289 0.66481 0.625876 0.660995 0.629289 0.66481 0.625876 0.660995 0
0.69118 0.72772 0.687124 0.723403 0.69118 0.72772 0.687124 0.723403 0
0.307079 0.335844 0.305063 0.333615 0.307079 0.335844 0.305063 0.333615 0
0.357167 0.386669 0.354771 0.384029 0.357167 0.386669 0.354771 0.384029 0
0.408649 0.439209 0.405831 0.436145 0.408649 0.439209 0.405831 0.436145 0
0.46205 0.493904 0.458817 0.490456 0.46205 0.493904 0.458817 0.490456 0
0.517736 0.551006 0.514141 0.54722 0.517736 0.551006 0.514141 0.54722 0
0.575873 0.610553 0.57194 0.606406 0.575873 0.610553 0.57194 0.606406 0
0.636441 0.672502 0.632112 0.667886 0.636441 0.672502 0.632112 0.667886 0
0.699398 0.736834 0.694462 0.731311 0.699398 0.736834 0.694462 0.731311 0
0.764858 0.804007 0.759046 0.797989 0.764858 0.804007 0.759046 0.797989 0
0.313432 0.342377 0.309317 0.338187 0.313432 0.342377 0.309317 0.338187 0
0.363853 0.393593 0.359594 0.389225 0.363853 0.393593 0.359594 0.389225 0
0.415765 0.446611 0.411305 0.442008 0.415765 0.446611 0.411305 0.442008 0
0.469659 0.501792 0.464949 0.496936 0.469659 0.501792 0.464949 0.496936 0
0.525828 0.559373 0.520862 0.554257 0.525828 0.559373 0.520862 0.554257 0
0.584461 0.619469 0.579222 0.614047 0.584461 0.619469 0.579222 0.614047 0
0.645639 0.682145 0.64006 0.676316 0.645639 0.682145 0.64006 0.676316 0
0.709444 0.74754 0.703407 0.741178 0.709444 0.74754 0.703407 0.741178 0
0.776028 0.815786 0.769404 0.808769 0.776028 0.815786 0.769404 0.808769 0
0.275253 0.303002 0.268511 0.296463 0.275253 0.303002 0.268511 0.296463 0
0.323672 0.35239 0.317275 0.346181 0.323672 0.35239 0.317275 0.346181 0
0.373795 0.403557 0.367656 0.39743 0.373795 0.403557 0.367656 0.39743 0
0.425781 0.45674 0.419641 0.450555 0.425781 0.45674 0.419641 0.450555 0
0.479889 0.512183 0.473658 0.505874 0.479889 0.512183 0.473658 0.505874 0
0.53635 0.570094 0.529974 0.563613 0.53635 0.570094 0.529974 0.563613 0
0.595352 0.630629 0.588778 0.623907 0.595352 0.630629 0.588778 0.623907 0
0.657037 0.693923 0.650183 0.686857 0.657037 0.693923 0.650183 0.686857 0
0.721548 0.760155 0.7143 0.75262 0.721548 0.760155 0.7143 0.75262 0
0.789061 0.829455 0.781289 0.821322 0.789061 0.829455 0.781289 0.821322 0
0.289907 0.317089 0.281 0.308539 0.289907 0.317089 0.281 0.308539 0
0.337419 0.365759 0.329078 0.35764 0.337419 0.365759 0.329078 0.35764 0
0.386968 0.416561 0.378971 0.408683 0.386968 0.416561 0.378971 0.408683 0
0.438709 0.469626 0.43089 0.461849 0.438709 0.469626 0.43089 0.461849 0
0.492778 0.525117 0.485011 0.517337 0.492778 0.525117 0.485011 0.517337 0
0.549345 0.583208 0.541538 0.575342 0.549345 0.583208 0.541538 0.575342 0
0.608585 0.644067 0.600656 0.636027 0.608585 0.644067 0.600656 0.636027 0
0.670665 0.707868 0.662521 0.699548 0.670665 0.707868 0.662521 0.699548 0
0.735773 0.774828 0.727297 0.766101 0.735773 0.774828 0.727297 0.766101 0
0.804111 0.845088 0.795171 0.835817 0.804111 0.845088 0.795171 0.835817 0
0.308192 0.334512 0.297209 0.324061 0.308192 0.334512 0.297209 0.324061 0
0.354387 0.382318 0.344211 0.372378 0.354387 0.382318 0.344211 0.372378 0
0.40326 0.432527 0.39348 0.422953 0.40326 0.432527 0.39348 0.422953 0
0.454494 0.485233 0.445036 0.475893 0.454494 0.485233 0.445036 0.475893 0
0.508301 0.540582 0.499018 0.531345 0.508301 0.540582 0.499018 0.531345 0
0.564806 0.598713 0.555579 0.589469 0.564806 0.598713 0.555579 0.589469 0
0.624159 0.659783 0.61488 0.65043 0.624159 0.659783 0.61488 0.65043 0
0.686527 0.723986 0.677095 0.714413 0.686527 0.723986 0.677095 0.714413 0
0.752126 0.791569 0.742423 0.781648 0.752126 0.791569 0.742423 0.781648 0
0.821189 0.862703 0.811078 0.852287 0.821189 0.862703 0.811078 0.852287 0
0.374583 0.401932 0.362534 0.390245 0.374583 0.401932 0.362534 0.390245 0
0.422496 0.451314 0.411041 0.440131 0.422496 0.451314 0.411041 0.440131 0
0.473015 0.50347 0.461995 0.492625 0.473015 0.50347 0.461995 0.492625 0
0.526383 0.558524 0.515635 0.547866 0.526383 0.558524 0.515635 0.547866 0
0.582689 0.616574 0.572071 0.605976 0.582689 0.616574 0.572071 0.605976 0
0.642041 0.677746 0.631436 0.667102 0.642041 0.677746 0.631436 0.667102 0
0.704591 0.742246 0.693893 0.731442 0.704591 0.742246 0.693893 0.731442 0
0.770589 0.810392 0.759671 0.799268 0.770589 0.810392 0.759671 0.799268 0
0.84032 0.882306 0.829022 0.870742 0.84032 0.882306 0.829022 0.870742 0
0.397516 0.424077 0.383969 0.411012 0.397516 0.424077 0.383969 0.411012 0
0.444208 0.472612 0.431398 0.460029 0.444208 0.472612 0.431398 0.460029 0
0.49409 0.524338 0.481625 0.511976 0.49409 0.524338 0.481625 0.511976 0
0.547056 0.578859 0.534809 0.566831 0.547056 0.578859 0.534809 0.566831 0
0.602873 0.636689 0.590944 0.624804 0.602873 0.636689 0.590944 0.624804 0
0.662144 0.697884 0.65027 0.685994 0.662144 0.697884 0.65027 0.685994 0
0.724792 0.762583 0.71287 0.75059 0.724792 0.762583 0.71287 0.75059 0
0.791102 0.831248 0.779009 0.818957 0.791102 0.831248 0.779009 0.818957 0
0.569732 0.601444 0.556414 0.588136 0.569732 0.601444 0.556414 0.588136 0
0.625433 0.65927 0.612118 0.645926 0.625433 0.65927 0.612118 0.645926 0
0.684748 0.720531 0.671384 0.707139 0.684748 0.720531 0.671384 0.707139 0
0.747468 0.785294 0.734063 0.771881 0.747468 0.785294 0.734063 0.771881 0
0.81386 0.854101 0.800438 0.840663 0.81386 0.854101 0.800438 0.840663 0
0 0 0 0 0 0 0 0 0
0 0 0 0 0 0 0 0 0
0 0 0 0 0 0 0 0 0
0 0 0 0 0 0 0 0 0
0 0 0 0 0 0 0 0 0
0 0 0 0 0 0 0 0 0
0 0 0 0 0 0 0 0 0
0 0 0 0 0 0 0 0 0
0 0 0 0 0 0 0 0 0
0 0 0 0 0 0 0 0 0
0 0 0 0 0 0 0 0 0
0 0 0 0 0 0 0 0 0
0 0 0 0 0 0 0 0 0
0 0 0 0 0 0 0 0 0
0 0 0 0 0 0 0 0 0
0 0 0 0 0 0 0 0 0
0 0 0 0 0 0 0 0 0
0 0 0 0 0 0 0 0 0
0 0 0 0 0 0 0 0 0
0 0 0 0 0 0 0 0 0
0 0 0 0 0 0 0 0 0
0 0 0 0 0 0 0 0 0
0 0 0 0 0 0 0 0 0
0 0 0 0 0 0 0 0 0
0 0 0 0 0 0 0 0 0
0 0 0 0 0 0 0 0 0
0 0 0 0 0 0 0 0 0
0 0 0 0 0 0 0 0 0
0 0 0 0 0 0 0 0 0
0 0 0 0 0 0 0 0 0
0 0 0 0 0 0 0 0 0
0 0 0 0 0 0 0 0 0
0 0 0 0 0 0 0 0 0
0 0 0 0 0 0 0 0 0
0 0 0 0 0 0 0 0 0
0 0 0 0 0 0 0 0 0
0 0 0 0 0 0 0 0 0
0 0 0 0 0 0 0 0 0
0 0 0 0 0 0 0 0 0
0 0 0 0 0 0 0 0 0
0 0 0 0 0 0 0 0 0
0 0 0 0 0 0 0 0 0
0 0 0 0 0 0 0 0 0
0 0 0 0 0 0 0 0 0
0 0 0 0 0 0 0 0 0
0 0 0 0 0 0 0 0 0
0 0 0 0 0 0 0 0 0
0 0 0 0 0 0 0 0 0
0 0 0 0 0 0 0 0 0
0 0 0 0 0 0 0 0 0
0 0 0 0 0 0 0 0 0
0 0 0 0 0 0 0 0 0
0 0 0 0 0 0 0 0 0
0 0 0 0 0 0 0 0 0
0 0 0 0 0 0 0 0 0
0 0 0 0 0 0 0 0 0
0 0 0 0 0 0 0 0 0
0 0 0 0 0 0 0 0 0
0 0 0 0 0 0 0 0 0
0 0 0 0 0 0 0 0 0
0 0 0 0 0 0 0 0 0
0 0 0 0 0 0 0 0 0
0 0 0 0 0 0 0 0 0
0 0 0 0 0 0 0 0 0
0 0 0 0 0 0 0 0 0
0 0 0 0 0 0 0 0 0
0 0 0 0 0 0 0 0 0
0 0 0 0 0 0 0 0 0
0 0 0 0 0 0 0 0 0
0 0 0 0 0 0 0 0 0
0 0 0 0 0 0 0 0 0
0 0 0 0 0 0 0 0 0
0 0 0 0 0 0 0 0 0
0 0 0 0 0 0 0 0 0
0 0 0 0 0 0 0 0 0
0 0 0 0 0 0 0 0 0
0 0 0 0 0 0 0 0 0
0 0 0 0 0 0 0 0 0
0 0 0 0 0 0 0 0 0
0 0 0 0 0 0 0 0 0
0 0 0 0 0 0 0 0 0
0 0 0 0 0 0 0 0 0
0 0 0 0 0 0 0 0 0
0 0 0 0 0 0 0 0 0
0 0 0 0 0 0 0 0 0
0 0 0 0 0 0 0 0 0
0 0 0 0 0 0 0 0 0
0 0 0 0 0 0 0 0 0
0 0 0 0 0 0 0 0 0
0 0 0 0 0 0 0 0 0
0 0 0 0 0 0 0 0 0
0 0 0 0 0 0 0 0 0
0 0 0 0 0 0 0 0 0
0 0 0 0 0 0 0 0 0
0 0 0 0 0 0 0 0 0
0 0 0 0 0 0 0 0 0
0 0 0 0 0 0 0 0 0
0 0 0 0 0 0 0 0 0
0 0 0 0 0 0 0 0 0
0 0 0 0 0 0 0 0 0
0 0 0 0 0 0 0 0 0
0 0 0 0 0 0 0 0 0
0 0 0 0 0 0 0 0 0
0 0 0 0 0 0 0 0 0
0 0 0 0 0 0 0 0 0
0 0 0 0 0 0 0 0 0
0 0 0 0 0 0 0 0 0
0 0 0 0 0 0 0 0 0
0 0 0 0 0 0 0 0 0
0 0 0 0 0 0 0 0 0
0 0 0 0 0 0 0 0 0
0 0 0 0 0 0 0 0 0
0 0 0 0 0 0 0 0 0
0 0 0 0 0 0 0 0 0
0 0 0 0 0 0 0 0 0
0 0 0 0 0 0 0 0 0
0 0 0 0 0 0 0 0 0
0 0 0 0 0 0 0 0 0
0 0 0 0 0 0 0 0 0
0 0 0 0 0 0 0 0 0
0 0 0 0 0 0 0 0 0
0 0 0 0 0 0 0 0 0
0 0 0 0 0 0 0 0 0
0 0 0 0 0 0 0 0 0
0 0 0 0 0 0 0 0 0
0 0 0 0 0 0 0 0 0
0 0 0 0 0 0 0 0 0
0 0 0 0 0 0 0 0 0
0 0 0 0 0 0 0 0 0
0 0 0 0 0 0 0 0 0
0 0 0 0 0 0 0 0 0
0 0 0 0 0 0 0 0 0
0 0 0 0 0 0 0 0 0
0 0 0 0 0 0 0 0 0
0 0 0 0 0 0 0 0 0
0 0 0 0 0 0 0 0 0
0 0 0 0 0 0 0 0 0
0 0 0 0 0 0 0 0 0
0 0 0 0 0 0 0 0 0
0 0 0 0 0 0 0 0 0
0 0 0 0 0 0 0 0 0
0 0 0 0 0 0 0 0 0
0 0 0 0 0 0 0 0 0
0 0 0 0 0 0 0 0 0
0 0 0 0 0 0 0 0 0
0 0 0 0 0 0 0 0 0
0 0 0 0 0 0 0 0 0
0 0 0 0 0 0 0 0 0
0 0 0 0 0 0 0 0 0
0 0 0 0 0 0 0 0 0
0 0 0 0 0 0 0 0 0
0 0 0 0 0 0 0 0 0
0 0 0 0 0 0 0 0 0
0 0 0 0 0 0 0 0 0
0 0 0 0 0 0 0 0 0
0 0 0 0 0 0 0 0 0
0 0 0 0 0 0 0 0 0
0 0 0 0 0 0 0 0 0
0 0 0 0 0 0 0 0 0
0 0 0 0 0 0 0 0 0
0 0 0 0 0 0 0 0 0
0 0 0 0 0 0 0 0 0
0 0 0 0 0 0 0 0 0
0 0 0 0 0 0 0 0 0
0 0 0 0 0 0 0 0 0
0 0 0 0 0 0 0 0 0
0 0 0 0 0 0 0 0 0
0 0 0 0 0 0 0 0 0
0 0 0 0 0 0 0 0 0
0 0 0 0 0 0 0 0 0
0 0 0 0 0 0 0 0 0
0 0 0 0 0 0 0 0 0
0 0 0 0 0 0 0 0 0
0 0 0 0 0 0 0 0 0
0 0 0 0 0 0 0 0 0
0 0 0 0 0 0 0 0 0
0 0 0 0 0 0 0 0 0
0 0 0 0 0 0 0 0 0
0 0 0 0 0 0 0 0 0
0 0 0 0 0 0 0 0 0
0 0 0 0 0 0 0 0 0
0 0 0 0 0 0 0 0 0
0 0 0 0 0 0 0 0 0
0 0 0 0 0 0 0 0 0
0 0 0 0 0 0 0 0 0
0 0 0 0 0 0 0 0 0
0 0 0 0 0 0 0 0 0
0 0 0 0 0 0 0 0 0
0 0 0 0 0 0 0 0 0
0 0 0 0 0 0 0 0 0
0 0 0 0 0 0 0 0 0
0 0 0 0 0 0 0 0 0
0 0 0 0 0 0 0 0 0
0 0 0 0 0 0 0 0 0
0 0 0 0 0 0 0 0 0
0 0 0 0 0 0 0 0 0
0 0 0 0 0 0 0 0 0
0 0 0 0 0 0 0 0 0
0 0 0 0 0 0 0 0 0
0 0 0 0 0 0 0 0 0
0 0 0 0 0 0 0 0 0
0 0 0 0 0 0 0 0 0
0 0 0 0 0 0 0 0 0
0 0 0 0 0 0 0 0 0
0 0 0 0 0 0 0 0 0
0 0 0 0 0 0 0 0 0
0 0 0 0 0 0 0 0 0
0 0 0 0 0 0 0 0 0
0 0 0 0 0 0 0 0 0
0 0 0 0 0 0 0 0 0
0 0 0 0 0 0 0 0 0
0 0 0 0 0 0 0 0 0
0 0 0 0 0 0 0 0 0
0 0 0 0 0 0 0 0 0
0 0 0 0 0 0 0 0 0
0 0 0 0 0 0 0 0 0
0 0 0 0 0 0 0 0 0
0 0 0 0 0 0 0 0 0
0 0 0 0 0 0 0 0 0
0 0 0 0 0 0 0 0 0
0 0 0 0 0 0 0 0 0
0 0 0 0 0 0 0 0 0
0 0 0 0 0 0 0 0 0
0 0 0 0 0 0 0 0 0
0 0 0 0 0 0 0 0 0
0 0 0 0 0 0 0 0 0
0 0 0 0 0 0 0 0 0
0 0 0 0 0 0 0 0 0
0 0 0 0 0 0 0 0 0
0 0 0 0 0 0 0 0 0
0 0 0 0 0 0 0 0 0
0 0 0 0 0 0 0 0 0
0 0 0 0 0 0 0 0 0
0 0 0 0 0 0 0 0 0
0 0 0 0 0 0 0 0 0
0 0 0 0 0 0 0 0 0
0 0 0 0 0 0 0 0 0
0 0 0 0 0 0 0 0 0
0 0 0 0 0 0 0 0 0
0 0 0 0 0 0 0 0 0
0 0 0 0 0 0 0 0 0
0 0 0 0 0 0 0 0 0
0 0 0 0 0 0 0 0 0
0 0 0 0 0 0 0 0 0
0 0 0 0 0 0 0 0 0
0 0 0 0 0 0 0 0 0
0 0 0 0 0 0 0 0 0
0 0 0 0 0 0 0 0 0
0 0 0 0 0 0 0 0 0
0 0 0 0 0 0 0 0 0
0 0 0 0 0 0 0 0 0
0 0 0 0 0 0 0 0 0
0 0 0 0 0 0 0 0 0
0 0 0 0 0 0 0 0 0
0 0 0 0 0 0 0 0 0
0 0 0 0 0 0 0 0 0
0 0 0 0 0 0 0 0 0
0 0 0 0 0 0 0 0 0
0 0 0 0 0 0 0 0 0
0 0 0 0 0 0 0 0 0
0 0 0 0 0 0 0 0 0
0 0 0 0 0 0 0 0 0
0 0 0 0 0 0 0 0 0
0 0 0 0 0 0 0 0 0
0 0 0 0 0 0 0 0 0
0 0 0 0 0 0 0 0 0
0 0 0 0 0 0 0 0 0
0 0 0 0 0 0 0 0 0
0 0 0 0 0 0 0 0 0
0 0 0 0 0 0 0 0 0
0 0 0 0 0 0 0 0 0
0 0 0 0 0 0 0 0 0
0 0 0 0 0 0 0 0 0
0 0 0 0 0 0 0 0 0
0 0 0 0 0 0 0 0 0
0 0 0 0 0 0 0 0 0
0 0 0 0 0 0 0 0 0
0 0 0 0 0 0 0 0 0
0 0 0 0 0 0 0 0 0
0 0 0 0 0 0 0 0 0
0 0 0 0 0 0 0 0 0
0 0 0 0 0 0 0 0 0
0 0 0 0 0 0 0 0 0
0 0 0 0 0 0 0 0 0
0 0 0 0 0 0 0 0 0
0 0 0 0 0 0 0 0 0
0 0 0 0 0 0 0 0 0
0 0 0 0 0 0 0 0 0
0 0 0 0 0 0 0 0 0
0 0 0 0 0 0 0 0 0
0 0 0 0 0 0 0 0 0
0 0 0 0 0 0 0 0 0
0 0 0 0 0 0 0 0 0
0 0 0 0 0 0 0 0 0
0 0 0 0 0 0 0 0 0
0 0 0 0 0 0 0 0 0
0 0 0 0 0 0 0 0 0
0 0 0 0 0 0 0 0 0
0 0 0 0 0 0 0 0 0
0 0 0 0 0 0 0 0 0
0 0 0 0 0 0 0 0 0
0 0 0 0 0 0 0 0 0
0 0 0 0 0 0 0 0 0
0 0 0 0 0 0 0 0 0
0 0 0 0 0 0 0 0 0
0 0 0 0 0 0 0 0 0
0 0 0 0 0 0 0 0 0
0 0 0 0 0 0 0 0 0
0 0 0 0 0 0 0 0 0
0 0 0 0 0 0 0 0 0
0 0 0 0 0 0 0 0 0
0 0 0 0 0 0 0 0 0
0 0 0 0 0 0 0 0 0
0 0 0 0 0 0 0 0 0
0 0 0 0 0 0 0 0 0
0 0 0 0 0 0 0 0 0
0 0 0 0 0 0 0 0 0
0 0 0 0 0 0 0 0 0
0 0 0 0 0 0 0 0 0
0 0 0 0 0 0 0 0 0
0 0 0 0 0 0 0 0 0
0 0 0 0 0 0 0 0 0
0 0 0 0 0 0 0 0 0
0 0 0 0 0 0 0 0 0
0 0 0 0 0 0 0 0 0
0 0 0 0 0 0 0 0 0
0 0 0 0 0 0 0 0 0
0 0 0 0 0 0 0 0 0
0 0 0 0 0 0 0 0 0
0 0 0 0 0 0 0 0 0
0 0 0 0 0 0 0 0 0
0 0 0 0 0 0 0 0 0
0 0 0 0 0 0 0 0 0
0 0 0 0 0 0 0 0 0
0 0 0 0 0 0 0 0 0
0 0 0 0 0 0 0 0 0
0 0 0 0 0 0 0 0 0
0 0 0 0 0 0 0 0 0
0 0 0 0 0 0 0 0 0
0 0 0 0 0 0 0 0 0
0 0 0 0 0 0 0 0 0
0 0 0 0 0 0 0 0 0
0 0 0 0 0 0 0 0 0
0 0 0 0 0 0 0 0 0
0 0 0 0 0 0 0 0 0
0 0 0 0 0 0 0 0 0
0 0 0 0 0 0 0 0 0
0 0 0 0 0 0 0 0 0
0 0 0 0 0 0 0 0 0
0 0 0 0 0 0 0 0 0
0 0 0 0 0 0 0 0 0
0 0 0 0 0 0 0 0 0
0 0 0 0 0 0 0 0 0
0 0 0 0 0 0 0 0 0
0 0 0 0 0 0 0 0 0
0 0 0 0 0 0 0 0 0
0 0 0 0 0 0 0 0 0
0 0 0 0 0 0 0 0 0
0 0 0 0 0 0 0 0 0
0 0 0 0 0 0 0 0 0
0 0 0 0 0 0 0 0 0
0 0 0 0 0 0 0 0 0
0 0 0 0 0 0 0 0 0
0 0 0 0 0 0 0 0 0
0 0 0 0 0 0 0 0 0
0 0 0 0 0 0 0 0 0
0 0 0 0 0 0 0 0 0
0 0 0 0 0 0 0 0 0
0 0 0 0 0 0 0 0 0
0 0 0 0 0 0 0 0 0
0 0 0 0 0 0 0 0 0
0 0 0 0 0 0 0 0 0
0 0 0 0 0 0 0 0 0
0 0 0 0 0 0 0 0 0
0 0 0 0 0 0 0 0 0
0 0 0 0 0 0 0 0 0
0 0 0 0 0 0 0 0 0
0 0 0 0 0 0 0 0 0
0 0 0 0 0 0 0 0 0
0 0 0 0 0 0 0 0 0
0 0 0 0 0 0 0 0 0
0 0 0 0 0 0 0 0 0
0 0 0 0 0 0 0 0 0
0 0 0 0 0 0 0 0 0
0 0 0 0 0 0 0 0 0
0 0 0 0 0 0 0 0 0
0 0 0 0 0 0 0 0 0
0 0 0 0 0 0 0 0 0
0 0 0 0 0 0 0 0 0
0 0 0 0 0 0 0 0 0
0 0 0 0 0 0 0 0 0
0 0 0 0 0 0 0 0 0
0 0 0 0 0 0 0 0 0
0 0 0 0 0 0 0 0 0
0 0 0 0 0 0 0 0 0
0 0 0 0 0 0 0 0 0
0 0 0 0 0 0 0 0 0
0 0 0 0 0 0 0 0 0
0 0 0 0 0 0 0 0 0
0 0 0 0 0 0 0 0 0
0 0 0 0 0 0 0 0 0
0 0 0 0 0 0 0 0 0
0 0 0 0 0 0 0 0 0
0 0 0 0 0 0 0 0 0
0 0 0 0 0 0 0 0 0
0 0 0 0 0 0 0 0 0
0 0 0 0 0 0 0 0 0
0 0 0 0 0 0 0 0 0
0 0 0 0 0 0 0 0 0
0 0 0 0 0 0 0 0 0
0 0 0 0 0 0 0 0 0
0 0 0 0 0 0 0 0 0
0 0 0 0 0 0 0 0 0
0 0 0 0 0 0 0 0 0
0 0 0 0 0 0 0 0 0
0 0 0 0 0 0 0 0 0
0 0 0 0 0 0 0 0 0
0 0 0 0 0 0 0 0 0
0 0 0 0 0 0 0 0 0
0 0 0 0 0 0 0 0 0
0 0 0 0 0 0 0 0 0
0 0 0 0 0 0 0 0 0
0 0 0 0 0 0 0 0 0
0 0 0 0 0 0 0 0 0
0 0 0 0 0 0 0 0 0
0 0 0 0 0 0 0 0 0
0 0 0 0 0 0 0 0 0
0 0 0 0 0 0 0 0 0
0 0 0 0 0 0 0 0 0
0 0 0 0 0 0 0 0 0
0 0 0 0 0 0 0 0 0
0 0 0 0 0 0 0 0 0
0 0 0 0 0 0 0 0 0
0 0 0 0 0 0 0 0 0
0 0 0 0 0 0 0 0 0
0 0 0 0 0 0 0 0 0
0 0 0 0 0 0 0 0 0
0 0 0 0 0 0 0 0 0
0 0 0 0 0 0 0 0 0
0 0 0 0 0 0 0 0 0
0 0 0 0 0 0 0 0 0
0 0 0 0 0 0 0 0 0
0 0 0 0 0 0 0 0 0
0 0 0 0 0 0 0 0 0
0 0 0 0 0 0 0 0 0
0 0 0 0 0 0 0 0 0
0 0 0 0 0 0 0 0 0
0 0 0 0 0 0 0 0 0
0 0 0 0 0 0 0 0 0
0 0 0 0 0 0 0 0 0
0 0 0 0 0 0 0 0 0
0 0 0 0 0 0 0 0 0
0 0 0 0 0 0 0 0 0
0 0 0 0 0 0 0 0 0
0 0 0 0 0 0 0 0 0
0 0 0 0 0 0 0 0 0
0 0 0 0 0 0 0 0 0
0 0 0 0 0 0 0 0 0
0 0 0 0 0 0 0 0 0
0 0 0 0 0 0 0 0 0
0 0 0 0 0 0 0 0 0
0 0 0 0 0 0 0 0 0
0 0 0 0 0 0 0 0 0
0 0 0 0 0 0 0 0 0
0 0 0 0 0 0 0 0 0
0 0 0 0 0 0 0 0 0
0 0 0 0 0 0 0 0 0
0 0 0 0 0 0 0 0 0
0 0 0 0 0 0 0 0 0
0 0 0 0 0 0 0 0 0
0 0 0 0 0 0 0 0 0
0 0 0 0 0 0 0 0 0
0 0 0 0 0 0 0 0 0
0 0 0 0 0 0 0 0 0
0 0 0 0 0 0 0 0 0
0 0 0 0 0 0 0 0 0
0 0 0 0 0 0 0 0 0
0 0 0 0 0 0 0 0 0
0 0 0 0 0 0 0 0 0
0 0 0 0 0 0 0 0 0
0 0 0 0 0 0 0 0 0
0 0 0 0 0 0 0 0 0
0 0 0 0 0 0 0 0 0
0 0 0 0 0 0 0 0 0
0 0 0 0 0 0 0 0 0
0 0 0 0 0 0 0 0 0
0 0 0 0 0 0 0 0 0
0 0 0 0 0 0 0 0 0
0 0 0 0 0 0 0 0 0
0 0 0 0 0 0 0 0 0
0 0 0 0 0 0 0 0 0
0 0 0 0 0 0 0 0 0
0 0 0 0 0 0 0 0 0
0 0 0 0 0 0 0 0 0
0 0 0 0 0 0 0 0 0
0 0 0 0 0 0 0 0 0
0 0 0 0 0 0 0 0 0
0 0 0 0 0 0 0 0 0
0 0 0 0 0 0 0 0 0
0 0 0 0 0 0 0 0 0
0 0 0 0 0 0 0 0 0
0 0 0 0 0 0 0 0 0
0 0 0 0 0 0 0 0 0
0 0 0 0 0 0 0 0 0
0 0 0 0 0 0 0 0 0
0 0 0 0 0 0 0 0 0
0 0 0 0 0 0 0 0 0
0 0 0 0 0 0 0 0 0
0 0 0 0 0 0 0 0 0
0 0 0 0 0 0 0 0 0
0 0 0 0 0 0 0 0 0
0 0 0 0 0 0 0 0 0
0 0 0 0 0 0 0 0 0
0 0 0 0 0 0 0 0 0
0 0 0 0 0 0 0 0 0
0 0 0 0 0 0 0 0 0
0 0 0 0 0 0 0 0 0
0 0 0 0 0 0 0 0 0
0 0 0 0 0 0 0 0 0
0 0 0 0 0 0 0 0 0
0 0 0 0 0 0 0 0 0
0 0 0 0 0 0 0 0 0
0 0 0 0 0 0 0 0 0
0 0 0 0 0 0 0 0 0
0 0 0 0 0 0 0 0 0
0 0 0 0 0 0 0 0 0
0 0 0 0 0 0 0 0 0
0 0 0 0 0 0 0 0 0
0 0 0 0 0 0 0 0 0
0 0 0 0 0 0 0 0 0
0 0 0 0 0 0 0 0 0
0 0 0 0 0 0 0 0 0
0 0 0 0 0 0 0 0 0
0 0 0 0 0 0 0 0 0
0 0 0 0 0 0 0 0 0
0 0 0 0 0 0 0 0 0
0 0 0 0 0 0 0 0 0
0 0 0 0 0 0 0 0 0
0 0 0 0 0 0 0 0 0
0 0 0 0 0 0 0 0 0
0 0 0 0 0 0 0 0 0
0 0 0 0 0 0 0 0 0
0 0 0 0 0 0 0 0 0
0 0 0 0 0 0 0 0 0
0 0 0 0 0 0 0 0 0
0 0 0 0 0 0 0 0 0
0.172004 0.187608 0.172391 0.187664 0.172004 0.187608 0.172391 0.187664 0
0.199176 0.215173 0.19903 0.214803 0.199176 0.215173 0.19903 0.214803 0
0.227093 0.243663 0.22658 0.242978 0.227093 0.243663 0.22658 0.242978 0
0.25606 0.27336 0.255249 0.272379 0.25606 0.27336 0.255249 0.272379 0
0.286317 0.304416 0.285195 0.30308 0.286317 0.304416 0.285195 0.30308 0
0.317939 0.336788 0.316429 0.335015 0.317939 0.336788 0.316429 0.335015 0
0.350828 0.370342 0.348856 0.368088 0.350828 0.370342 0.348856 0.368088 0
0.384781 0.404723 0.382363 0.402137 0.384781 0.404723 0.382363 0.402137 0
0.172321 0.188359 0.17198 0.18779 0.172321 0.188359 0.17198 0.18779 0
0.200229 0.216624 0.199493 0.215656 0.200229 0.216624 0.199493 0.215656 0
0.228825 0.245769 0.22769 0.244406 0.228825 0.245769 0.22769 0.244406 0
0.258425 0.27606 0.256905 0.274342 0.258425 0.27606 0.256905 0.274342 0
0.28925 0.307655 0.287399 0.305638 0.28925 0.307655 0.287399 0.305638 0
0.321406 0.340572 0.319268 0.338274 0.321406 0.340572 0.319268 0.338274 0
0.354861 0.374742 0.352434 0.372122 0.354861 0.374742 0.352434 0.372122 0
0.389539 0.410089 0.3867 0.406849 0.389539 0.410089 0.3867 0.406849 0
0.425442 0.446847 0.422011 0.443293 0.425442 0.446847 0.422011 0.443293 0
0.174132 0.190476 0.172894 0.189075 0.174132 0.190476 0.172894 0.189075 0
0.202572 0.219283 0.201051 0.217592 0.202572 0.219283 0.201051 0.217592 0
0.231719 0.248988 0.229902 0.246994 0.231719 0.248988 0.229902 0.246994 0
0.261872 0.279809 0.259753 0.277522 0.261872 0.279809 0.259753 0.277522 0
0.293207 0.311881 0.290804 0.309326 0.293207 0.311881 0.290804 0.309326 0
0.325828 0.345264 0.323161 0.342442 0.325828 0.345264 0.323161 0.342442 0
0.359772 0.379978 0.356825 0.376845 0.359772 0.379978 0.356825 0.376845 0
0.395064 0.41608 0.391778 0.412562 0.395064 0.41608 0.391778 0.412562 0
0.431755 0.453574 0.428052 0.4496 0.431755 0.453574 0.428052 0.4496 0
0.149782 0.165802 0.14761 0.163566 0.149782 0.165802 0.14761 0.163566 0
0.177678 0.19411 0.175411 0.191823 0.177678 0.19411 0.175411 0.191823 0
0.206316 0.223236 0.203981 0.220793 0.206316 0.223236 0.203981 0.220793 0
0.235835 0.253343 0.233306 0.250687 0.235835 0.253343 0.233306 0.250687 0
0.266403 0.284581 0.263652 0.281698 0.266403 0.284581 0.263652 0.281698 0
0.298156 0.31707 0.295175 0.313954 0.298156 0.31707 0.295175 0.313954 0
0.331199 0.350894 0.327979 0.347527 0.331199 0.350894 0.327979 0.347527 0
0.36561 0.386127 0.362124 0.382463 0.36561 0.386127 0.362124 0.382463 0
0.401466 0.422864 0.397658 0.418838 0.401466 0.422864 0.397658 0.418838 0
0.438846 0.461126 0.434644 0.45666 0.438846 0.461126 0.434644 0.45666 0
0.154848 0.17087 0.151721 0.16776 0.154848 0.17087 0.151721 0.16776 0
0.18276 0.199224 0.179648 0.196093 0.18276 0.199224 0.179648 0.196093 0
0.211484 0.228517 0.208325 0.225304 0.211484 0.228517 0.208325 0.225304 0
0.241216 0.258882 0.237953 0.255537 0.241216 0.258882 0.237953 0.255537 0
0.272068 0.290431 0.268656 0.28692 0.272068 0.290431 0.268656 0.28692 0
0.304149 0.32327 0.300559 0.319564 0.304149 0.32327 0.300559 0.319564 0
0.337563 0.357499 0.333766 0.353565 0.337563 0.357499 0.333766 0.353565 0
0.37241 0.393221 0.368365 0.389008 0.37241 0.393221 0.368365 0.389008 0
0.408797 0.43055 0.404449 0.425999 0.408797 0.43055 0.404449 0.425999 0
0.446821 0.469538 0.442106 0.464574 0.446821 0.469538 0.442106 0.464574 0
0.161658 0.177448 0.157515 0.17347 0.161658 0.177448 0.157515 0.17347 0
0.189273 0.205775 0.185343 0.201819 0.189273 0.205775 0.185343 0.201819 0
0.218064 0.235136 0.214094 0.231151 0.218064 0.235136 0.214094 0.231151 0
0.247882 0.265633 0.243876 0.261587 0.247882 0.265633 0.243876 0.261587 0
0.278898 0.29739 0.274811 0.293236 0.278898 0.29739 0.274811 0.293236 0
0.311219 0.330513 0.307004 0.326202 0.311219 0.330513 0.307004 0.326202 0
0.34495 0.365105 0.340559 0.36059 0.34495 0.365105 0.340559 0.36059 0
0.380197 0.401282 0.375579 0.396508 0.380197 0.401282 0.375579 0.396508 0
0.417082 0.439174 0.41218 0.434077 0.417082 0.439174 0.41218 0.434077 0
0.455717 0.478839 0.450466 0.473358 0.455717 0.478839 0.450466 0.473358 0
0.19737 0.213783 0.192497 0.208983 0.19737 0.213783 0.192497 0.208983 0
0.226034 0.243085 0.221265 0.238334 0.226034 0.243085 0.221265 0.238334 0
0.255833 0.27361 0.251086 0.268855 0.255833 0.27361 0.251086 0.268855 0
0.286912 0.305482 0.28214 0.300671 0.286912 0.305482 0.28214 0.300671 0
0.319391 0.338826 0.314537 0.333895 0.319391 0.338826 0.314537 0.333895 0
0.353389 0.373743 0.348387 0.368629 0.353389 0.373743 0.348387 0.368629 0
0.389 0.410335 0.383792 0.404986 0.389 0.410335 0.383792 0.404986 0
0.426335 0.448722 0.420874 0.443096 0.426335 0.448722 0.420874 0.443096 0
0.465524 0.489057 0.459751 0.483043 0.465524 0.489057 0.459751 0.483043 0
0.206856 0.223012 0.201222 0.217546 0.206856 0.223012 0.201222 0.217546 0
0.235169 0.252208 0.229763 0.246805 0.235169 0.252208 0.229763 0.246805 0
0.264985 0.28285 0.25956 0.277362 0.264985 0.28285 0.25956 0.277362 0
0.296178 0.314724 0.290675 0.309248 0.296178 0.314724 0.290675 0.309248 0
0.328668 0.348227 0.323177 0.342667 0.328668 0.348227 0.323177 0.342667 0
0.362907 0.383457 0.357279 0.377716 0.362907 0.383457 0.357279 0.377716 0
0.398866 0.42042 0.393039 0.41447 0.398866 0.42042 0.393039 0.41447 0
0.436591 0.459229 0.430545 0.453043 0.436591 0.459229 0.430545 0.453043 0
0.306357 0.324992 0.300379 0.318943 0.306357 0.324992 0.300379 0.318943 0
0.339018 0.358711 0.332914 0.352526 0.339018 0.358711 0.332914 0.352526 0
0.373503 0.394224 0.367254 0.38788 0.373503 0.394224 0.367254 0.38788 0
0.409753 0.431455 0.403345 0.424971 0.409753 0.431455 0.403345 0.424971 0
0.447774 0.470669 0.441207 0.463951 0.447774 0.470669 0.441207 0.463951 0
0 0 0 0 0 0 0 0 0
0 0 0 0 0 0 0 0 0
0 0 0 0 0 0 0 0 0
0 0 0 0 0 0 0 0 0
0 0 0 0 0 0 0 0 0
0 0 0 0 0 0 0 0 0
0 0 0 0 0 0 0 0 0
0 0 0 0 0 0 0 0 0
0 0 0 0 0 0 0 0 0
0 0 0 0 0 0 0 0 0
0 0 0 0 0 0 0 0 0
0 0 0 0 0 0 0 0 0
0 0 0 0 0 0 0 0 0
0 0 0 0 0 0 0 0 0
0 0 0 0 0 0 0 0 0
0 0 0 0 0 0 0 0 0
0 0 0 0 0 0 0 0 0
0 0 0 0 0 0 0 0 0
0 0 0 0 0 0 0 0 0
0 0 0 0 0 0 0 0 0
0 0 0 0 0 0 0 0 0
0 0 0 0 0 0 0 0 0
0 0 0 0 0 0 0 0 0
0 0 0 0 0 0 0 0 0
0 0 0 0 0 0 0 0 0
0 0 0 0 0 0 0 0 0
0 0 0 0 0 0 0 0 0
0 0 0 0 0 0 0 0 0
0 0 0 0 0 0 0 0 0
0 0 0 0 0 0 0 0 0
0 0 0 0 0 0 0 0 0
0 0 0 0 0 0 0 0 0
0 0 0 0 0 0 0 0 0
0 0 0 0 0 0 0 0 0
0 0 0 0 0 0 0 0 0
0 0 0 0 0 0 0 0 0
0 0 0 0 0 0 0 0 0
0 0 0 0 0 0 0 0 0
0 0 0 0 0 0 0 0 0
0 0 0 0 0 0 0 0 0
0 0 0 0 0 0 0 0 0
0 0 0 0 0 0 0 0 0
0 0 0 0 0 0 0 0 0
0 0 0 0 0 0 0 0 0
0 0 0 0 0 0 0 0 0
0 0 0 0 0 0 0 0 0
0 0 0 0 0 0 0 0 0
0 0 0 0 0 0 0 0 0
0 0 0 0 0 0 0 0 0
0 0 0 0 0 0 0 0 0
0 0 0 0 0 0 0 0 0
0 0 0 0 0 0 0 0 0
0 0 0 0 0 0 0 0 0
0 0 0 0 0 0 0 0 0
0 0 0 0 0 0 0 0 0
0 0 0 0 0 0 0 0 0
0 0 0 0 0 0 0 0 0
0 0 0 0 0 0 0 0 0
0 0 0 0 0 0 0 0 0
0 0 0 0 0 0 0 0 0
0 0 0 0 0 0 0 0 0
0 0 0 0 0 0 0 0 0
0 0 0 0 0 0 0 0 0
0 0 0 0 0 0 0 0 0
0 0 0 0 0 0 0 0 0
0 0 0 0 0 0 0 0 0
0 0 0 0 0 0 0 0 0
0 0 0 0 0 0 0 0 0
0 0 0 0 0 0 0 0 0
0 0 0 0 0 0 0 0 0
0 0 0 0 0 0 0 0 0
0 0 0 0 0 0 0 0 0
0 0 0 0 0 0 0 0 0
0 0 0 0 0 0 0 0 0
0 0 0 0 0 0 0 0 0
0 0 0 0 0 0 0 0 0
0 0 0 0 0 0 0 0 0
0 0 0 0 0 0 0 0 0
0.159633 0.17435 0.157717 0.172215 0.159633 0.17435 0.157717 0.172215 0
0.185204 0.20015 0.182942 0.197755 0.185204 0.20015 0.182942 0.197755 0
0.211251 0.226639 0.20877 0.224052 0.211251 0.226639 0.20877 0.224052 0
0.238124 0.254119 0.235453 0.251321 0.238124 0.254119 0.235453 0.251321 0
0.266067 0.282721 0.263155 0.27962 0.266067 0.282721 0.263155 0.27962 0
0.295121 0.312349 0.291861 0.308839 0.295121 0.312349 0.291861 0.308839 0
0.325129 0.342817 0.321425 0.338834 0.325129 0.342817 0.321425 0.338834 0
0.355824 0.373677 0.351669 0.369327 0.355824 0.373677 0.351669 0.369327 0
0.164341 0.179245 0.161405 0.176232 0.164341 0.179245 0.161405 0.176232 0
0.190251 0.205421 0.187161 0.202202 0.190251 0.205421 0.187161 0.202202 0
0.216691 0.23232 0.213371 0.228851 0.216691 0.23232 0.213371 0.228851 0
0.243977 0.260201 0.240404 0.256493 0.243977 0.260201 0.240404 0.256493 0
0.272319 0.289204 0.268518 0.285283 0.272319 0.289204 0.268518 0.285283 0
0.301791 0.319297 0.297777 0.315147 0.301791 0.319297 0.297777 0.315147 0
0.332312 0.350366 0.328042 0.345904 0.332312 0.350366 0.328042 0.345904 0
0.363754 0.382282 0.35906 0.377146 0.363754 0.382282 0.35906 0.377146 0
0.396061 0.415188 0.390719 0.409723 0.396061 0.415188 0.390719 0.409723 0
0.170962 0.185902 0.166903 0.181836 0.170962 0.185902 0.166903 0.181836 0
0.196963 0.212244 0.192877 0.20811 0.196963 0.212244 0.192877 0.20811 0
0.22362 0.23942 0.219436 0.23515 0.22362 0.23942 0.219436 0.23515 0
0.251208 0.267614 0.24687 0.263179 0.251208 0.267614 0.24687 0.263179 0
0.279864 0.296929 0.275358 0.292322 0.279864 0.296929 0.275358 0.292322 0
0.309661 0.327382 0.304973 0.322573 0.309661 0.327382 0.304973 0.322573 0
0.340586 0.358942 0.335671 0.353857 0.340586 0.358942 0.335671 0.353857 0
0.372613 0.391611 0.367383 0.386154 0.372613 0.391611 0.367383 0.386154 0
0.405724 0.42529 0.400079 0.419357 0.405724 0.42529 0.400079 0.419357 0
0.154883 0.169077 0.149323 0.163679 0.154883 0.169077 0.149323 0.163679 0
0.179666 0.194389 0.174383 0.189267 0.179666 0.194389 0.174383 0.189267 0
0.20537 0.220641 0.200311 0.215602 0.20537 0.220641 0.200311 0.215602 0
0.232042 0.247916 0.226997 0.24284 0.232042 0.247916 0.226997 0.24284 0
0.259774 0.276296 0.254664 0.271128 0.259774 0.276296 0.254664 0.271128 0
0.288642 0.30585 0.283423 0.300553 0.288642 0.30585 0.283423 0.300553 0
0.318703 0.336613 0.313338 0.331143 0.318703 0.336613 0.313338 0.331143 0
0.349984 0.368607 0.34442 0.362892 0.349984 0.368607 0.34442 0.362892 0
0.382506 0.401864 0.376663 0.395819 0.382506 0.401864 0.376663 0.395819 0
0.41628 0.436317 0.410063 0.429832 0.41628 0.436317 0.410063 0.429832 0
0.16582 0.179677 0.159313 0.173371 0.16582 0.179677 0.159313 0.173371 0
0.19006 0.204547 0.183872 0.198487 0.19006 0.204547 0.183872 0.198487 0
0.215407 0.230579 0.209417 0.224655 0.215407 0.230579 0.209417 0.224655 0
0.241942 0.257809 0.236047 0.251927 0.241942 0.257809 0.236047 0.251927 0
0.269686 0.286266 0.263799 0.280353 0.269686 0.286266 0.263799 0.280353 0
0.298672 0.315986 0.292727 0.309985 0.298672 0.315986 0.292727 0.309985 0
0.328937 0.347008 0.322882 0.340863 0.328937 0.347008 0.322882 0.340863 0
0.360522 0.379379 0.354297 0.373023 0.360522 0.379379 0.354297 0.373023 0
0.393481 0.413157 0.387011 0.406508 0.393481 0.413157 0.387011 0.406508 0
0.427846 0.448312 0.421043 0.441267 0.427846 0.448312 0.421043 0.441267 0
0.178387 0.191786 0.170939 0.184618 0.178387 0.191786 0.170939 0.184618 0
0.201936 0.216239 0.194906 0.209308 0.201936 0.216239 0.194906 0.209308 0
0.226977 0.241996 0.220116 0.235228 0.226977 0.241996 0.220116 0.235228 0
0.253278 0.269073 0.246561 0.262405 0.253278 0.269073 0.246561 0.262405 0
0.280928 0.297515 0.274277 0.290866 0.280928 0.297515 0.274277 0.290866 0
0.309951 0.327339 0.303287 0.320636 0.309951 0.327339 0.303287 0.320636 0
0.340366 0.358571 0.333621 0.351752 0.340366 0.358571 0.333621 0.351752 0
0.372209 0.391269 0.365321 0.384267 0.372209 0.391269 0.365321 0.384267 0
0.40555 0.425513 0.398447 0.418248 0.40555 0.425513 0.398447 0.418248 0
0.440446 0.461292 0.433043 0.453676 0.440446 0.461292 0.433043 0.453676 0
0.215333 0.229408 0.207415 0.221629 0.215333 0.229408 0.207415 0.221629 0
0.239993 0.25482 0.232307 0.247249 0.239993 0.25482 0.232307 0.247249 0
0.26599 0.281665 0.258486 0.274236 0.26599 0.281665 0.258486 0.274236 0
0.293467 0.310029 0.286071 0.302651 0.293467 0.310029 0.286071 0.302651 0
0.322474 0.339916 0.315093 0.332506 0.322474 0.339916 0.315093 0.332506 0
0.353001 0.371315 0.345559 0.363813 0.353001 0.371315 0.345559 0.363813 0
0.385053 0.404279 0.377496 0.396631 0.385053 0.404279 0.377496 0.396631 0
0.418705 0.438899 0.410977 0.431045 0.418705 0.438899 0.410977 0.431045 0
0.454057 0.475283 0.446075 0.46708 0.454057 0.475283 0.446075 0.46708 0
0.22996 0.243666 0.22138 0.235319 0.22996 0.243666 0.22138 0.235319 0
0.254058 0.268726 0.245827 0.260581 0.254058 0.268726 0.245827 0.260581 0
0.279835 0.295501 0.271716 0.287368 0.279835 0.295501 0.271716 0.287368 0
0.307276 0.323763 0.299153 0.315687 0.307276 0.323763 0.299153 0.315687 0
0.336198 0.353689 0.328131 0.345593 0.336198 0.353689 0.328131 0.345593 0
0.366828 0.385237 0.358701 0.377056 0.366828 0.385237 0.358701 0.377056 0
0.399055 0.418403 0.39083 0.410114 0.399055 0.418403 0.39083 0.410114 0
0.43295 0.453348 0.424592 0.444874 0.43295 0.453348 0.424592 0.444874 0
0.322089 0.338584 0.313422 0.3299 0.322089 0.338584 0.313422 0.3299 0
0.351045 0.368596 0.342341 0.359855 0.351045 0.368596 0.342341 0.359855 0
0.3818 0.400328 0.373019 0.391474 0.3818 0.400328 0.373019 0.391474 0
0.414207 0.433606 0.405319 0.424697 0.414207 0.433606 0.405319 0.424697 0
0.448242 0.468836 0.439285 0.459768 0.448242 0.468836 0.439285 0.459768 0
0 0 0 0 0 0 0 0 0
0 0 0 0 0 0 0 0 0
0 0 0 0 0 0 0 0 0
0 0 0 0 0 0 0 0 0
0 0 0 0 0 0 0 0 0
0 0 0 0 0 0 0 0 0
0 0 0 0 0 0 0 0 0
0 0 0 0 0 0 0 0 0
0 0 0 0 0 0 0 0 0
0 0 0 0 0 0 0 0 0
0 0 0 0 0 0 0 0 0
0 0 0 0 0 0 0 0 0
0 0 0 0 0 0 0 0 0
0 0 0 0 0 0 0 0 0
0 0 0 0 0 0 0 0 0
0 0 0 0 0 0 0 0 0
0 0 0 0 0 0 0 0 0
0 0 0 0 0 0 0 0 0
0 0 0 0 0 0 0 0 0
0 0 0 0 0 0 0 0 0
0 0 0 0 0 0 0 0 0
0 0 0 0 0 0 0 0 0
0 0 0 0 0 0 0 0 0
0 0 0 0 0 0 0 0 0
0 0 0 0 0 0 0 0 0
0 0 0 0 0 0 0 0 0
0 0 0 0 0 0 0 0 0
0 0 0 0 0 0 0 0 0
0 0 0 0 0 0 0 0 0
0 0 0 0 0 0 0 0 0
0 0 0 0 0 0 0 0 0
0 0 0 0 0 0 0 0 0
0 0 0 0 0 0 0 0 0
0 0 0 0 0 0 0 0 0
0 0 0 0 0 0 0 0 0
0 0 0 0 0 0 0 0 0
0 0 0 0 0 0 0 0 0
0 0 0 0 0 0 0 0 0
0 0 0 0 0 0 0 0 0
0 0 0 0 0 0 0 0 0
0 0 0 0 0 0 0 0 0
0 0 0 0 0 0 0 0 0
0 0 0 0 0 0 0 0 0
0 0 0 0 0 0 0 0 0
0 0 0 0 0 0 0 0 0
0 0 0 0 0 0 0 0 0
0 0 0 0 0 0 0 0 0
0 0 0 0 0 0 0 0 0
0 0 0 0 0 0 0 0 0
0 0 0 0 0 0 0 0 0
0 0 0 0 0 0 0 0 0
0 0 0 0 0 0 0 0 0
0 0 0 0 0 0 0 0 0
0 0 0 0 0 0 0 0 0
0 0 0 0 0 0 0 0 0
0 0 0 0 0 0 0 0 0
0 0 0 0 0 0 0 0 0
0 0 0 0 0 0 0 0 0
0 0 0 0 0 0 0 0 0
0 0 0 0 0 0 0 0 0
0 0 0 0 0 0 0 0 0
0 0 0 0 0 0 0 0 0
0 0 0 0 0 0 0 0 0
0 0 0 0 0 0 0 0 0
0 0 0 0 0 0 0 0 0
0 0 0 0 0 0 0 0 0
0 0 0 0 0 0 0 0 0
0 0 0 0 0 0 0 0 0
0 0 0 0 0 0 0 0 0
0 0 0 0 0 0 0 0 0
0 0 0 0 0 0 0 0 0
0 0 0 0 0 0 0 0 0
0 0 0 0 0 0 0 0 0
0 0 0 0 0 0 0 0 0
0 0 0 0 0 0 0 0 0
0 0 0 0 0 0 0 0 0
0 0 0 0 0 0 0 0 0
0 0 0 0 0 0 0 0 0
0 0 0 0 0 0 0 0 0
0 0 0 0 0 0 0 0 0
0 0 0 0 0 0 0 0 0
0 0 0 0 0 0 0 0 0
0 0 0 0 0 0 0 0 0
0 0 0 0 0 0 0 0 0
0 0 0 0 0 0 0 0 0
0 0 0 0 0 0 0 0 0
0 0 0 0 0 0 0 0 0
0 0 0 0 0 0 0 0 0
0 0 0 0 0 0 0 0 0
0 0 0 0 0 0 0 0 0
0 0 0 0 0 0 0 0 0
0 0 0 0 0 0 0 0 0
0 0 0 0 0 0 0 0 0
0 0 0 0 0 0 0 0 0
0 0 0 0 0 0 0 0 0
0 0 0 0 0 0 0 0 0
0 0 0 0 0 0 0 0 0
0 0 0 0 0 0 0 0 0
0 0 0 0 0 0 0 0 0
0 0 0 0 0 0 0 0 0
0 0 0 0 0 0 0 0 0
0 0 0 0 0 0 0 0 0
0 0 0 0 0 0 0 0 0
0 0 0 0 0 0 0 0 0
0 0 0 0 0 0 0 0 0
0 0 0 0 0 0 0 0 0
0 0 0 0 0 0 0 0 0
0 0 0 0 0 0 0 0 0
0 0 0 0 0 0 0 0 0
0 0 0 0 0 0 0 0 0
0 0 0 0 0 0 0 0 0
0 0 0 0 0 0 0 0 0
0 0 0 0 0 0 0 0 0
0 0 0 0 0 0 0 0 0
0 0 0 0 0 0 0 0 0
0 0 0 0 0 0 0 0 0
0 0 0 0 0 0 0 0 0
0 0 0 0 0 0 0 0 0
0 0 0 0 0 0 0 0 0
0 0 0 0 0 0 0 0 0
0 0 0 0 0 0 0 0 0
0 0 0 0 0 0 0 0 0
0 0 0 0 0 0 0 0 0
0 0 0 0 0 0 0 0 0
0 0 0 0 0 0 0 0 0
0 0 0 0 0 0 0 0 0
0 0 0 0 0 0 0 0 0
0 0 0 0 0 0 0 0 0
0 0 0 0 0 0 0 0 0
0 0 0 0 0 0 0 0 0
0 0 0 0 0 0 0 0 0
0 0 0 0 0 0 0 0 0
0 0 0 0 0 0 0 0 0
0 0 0 0 0 0 0 0 0
0 0 0 0 0 0 0 0 0
0 0 0 0 0 0 0 0 0
0 0 0 0 0 0 0 0 0
0 0 0 0 0 0 0 0 0
0 0 0 0 0 0 0 0 0
0 0 0 0 0 0 0 0 0
0 0 0 0 0 0 0 0 0
0 0 0 0 0 0 0 0 0
0 0 0 0 0 0 0 0 0
0 0 0 0 0 0 0 0 0
0 0 0 0 0 0 0 0 0
0 0 0 0 0 0 0 0 0
0 0 0 0 0 0 0 0 0
0 0 0 0 0 0 0 0 0
0 0 0 0 0 0 0 0 0
0 0 0 0 0 0 0 0 0
0 0 0 0 0 0 0 0 0
0 0 0 0 0 0 0 0 0
0 0 0 0 0 0 0 0 0
0 0 0 0 0 0 0 0 0
0 0 0 0 0 0 0 0 0
0 0 0 0 0 0 0 0 0
0 0 0 0 0 0 0 0 0
0 0 0 0 0 0 0 0 0
0 0 0 0 0 0 0 0 0
0 0 0 0 0 0 0 0 0
0 0 0 0 0 0 0 0 0
0 0 0 0 0 0 0 0 0
0 0 0 0 0 0 0 0 0
0 0 0 0 0 0 0 0 0
0 0 0 0 0 0 0 0 0
0 0 0 0 0 0 0 0 0
0 0 0 0 0 0 0 0 0
0 0 0 0 0 0 0 0 0
0 0 0 0 0 0 0 0 0
0 0 0 0 0 0 0 0 0
0 0 0 0 0 0 0 0 0
0 0 0 0 0 0 0 0 0
0 0 0 0 0 0 0 0 0
0 0 0 0 0 0 0 0 0
0 0 0 0 0 0 0 0 0
0 0 0 0 0 0 0 0 0
0 0 0 0 0 0 0 0 0
0 0 0 0 0 0 0 0 0
0 0 0 0 0 0 0 0 0
0 0 0 0 0 0 0 0 0
0 0 0 0 0 0 0 0 0
0 0 0 0 0 0 0 0 0
0 0 0 0 0 0 0 0 0
0 0 0 0 0 0 0 0 0
0 0 0 0 0 0 0 0 0
0 0 0 0 0 0 0 0 0
0 0 0 0 0 0 0 0 0
0 0 0 0 0 0 0 0 0
0 0 0 0 0 0 0 0 0
0 0 0 0 0 0 0 0 0
0 0 0 0 0 0 0 0 0
0 0 0 0 0 0 0 0 0
0 0 0 0 0 0 0 0 0
0 0 0 0 0 0 0 0 0
0 0 0 0 0 0 0 0 0
0 0 0 0 0 0 0 0 0
0 0 0 0 0 0 0 0 0
0 0 0 0 0 0 0 0 0
0 0 0 0 0 0 0 0 0
0 0 0 0 0 0 0 0 0
0 0 0 0 0 0 0 0 0
0 0 0 0 0 0 0 0 0
0 0 0 0 0 0 0 0 0
0 0 0 0 0 0 0 0 0
0 0 0 0 0 0 0 0 0
0 0 0 0 0 0 0 0 0
0 0 0 0 0 0 0 0 0
0 0 0 0 0 0 0 0 0
0 0 0 0 0 0 0 0 0
0 0 0 0 0 0 0 0 0
0 0 0 0 0 0 0 0 0
0 0 0 0 0 0 0 0 0
0 0 0 0 0 0 0 0 0
0 0 0 0 0 0 0 0 0
0 0 0 0 0 0 0 0 0
0 0 0 0 0 0 0 0 0
0 0 0 0 0 0 0 0 0
0 0 0 0 0 0 0 0 0
0 0 0 0 0 0 0 0 0
0 0 0 0 0 0 0 0 0
0 0 0 0 0 0 0 0 0
0 0 0 0 0 0 0 0 0
0 0 0 0 0 0 0 0 0
0 0 0 0 0 0 0 0 0
0 0 0 0 0 0 0 0 0
0 0 0 0 0 0 0 0 0
0 0 0 0 0 0 0 0 0
0 0 0 0 0 0 0 0 0
0 0 0 0 0 0 0 0 0
0 0 0 0 0 0 0 0 0
0 0 0 0 0 0 0 0 0
0 0 0 0 0 0 0 0 0
0 0 0 0 0 0 0 0 0
0 0 0 0 0 0 0 0 0
0 0 0 0 0 0 0 0 0
0 0 0 0 0 0 0 0 0
0 0 0 0 0 0 0 0 0
0 0 0 0 0 0 0 0 0
0 0 0 0 0 0 0 0 0
0 0 0 0 0 0 0 0 0
0 0 0 0 0 0 0 0 0
0 0 0 0 0 0 0 0 0
0 0 0 0 0 0 0 0 0
0 0 0 0 0 0 0 0 0
0 0 0 0 0 0 0 0 0
0 0 0 0 0 0 0 0 0
0 0 0 0 0 0 0 0 0
0 0 0 0 0 0 0 0 0
0 0 0 0 0 0 0 0 0
0 0 0 0 0 0 0 0 0
0 0 0 0 0 0 0 0 0
0 0 0 0 0 0 0 0 0
0 0 0 0 0 0 0 0 0
0 0 0 0 0 0 0 0 0
0 0 0 0 0 0 0 0 0
0 0 0 0 0 0 0 0 0
0 0 0 0 0 0 0 0 0
0 0 0 0 0 0 0 0 0
0 0 0 0 0 0 0 0 0
0 0 0 0 0 0 0 0 0
0 0 0 0 0 0 0 0 0
0 0 0 0 0 0 0 0 0
0 0 0 0 0 0 0 0 0
0 0 0 0 0 0 0 0 0
0 0 0 0 0 0 0 0 0
0 0 0 0 0 0 0 0 0
0 0 0 0 0 0 0 0 0
0 0 0 0 0 0 0 0 0
0 0 0 0 0 0 0 0 0
0 0 0 0 0 0 0 0 0
0 0 0 0 0 0 0 0 0
0 0 0 0 0 0 0 0 0
0 0 0 0 0 0 0 0 0
0 0 0 0 0 0 0 0 0
0 0 0 0 0 0 0 0 0
0 0 0 0 0 0 0 0 0
0 0 0 0 0 0 0 0 0
0 0 0 0 0 0 0 0 0
0 0 0 0 0 0 0 0 0
0 0 0 0 0 0 0 0 0
0 0 0 0 0 0 0 0 0
0 0 0 0 0 0 0 0 0
0 0 0 0 0 0 0 0 0
0 0 0 0 0 0 0 0 0
0 0 0 0 0 0 0 0 0
0 0 0 0 0 0 0 0 0
0 0 0 0 0 0 0 0 0
0 0 0 0 0 0 0 0 0
0 0 0 0 0 0 0 0 0
0 0 0 0 0 0 0 0 0
0 0 0 0 0 0 0 0 0
0 0 0 0 0 0 0 0 0
0 0 0 0 0 0 0 0 0
0 0 0 0 0 0 0 0 0
0 0 0 0 0 0 0 0 0
0 0 0 0 0 0 0 0 0
0 0 0 0 0 0 0 0 0
0 0 0 0 0 0 0 0 0
0 0 0 0 0 0 0 0 0
0 0 0 0 0 0 0 0 0
0 0 0 0 0 0 0 0 0
0 0 0 0 0 0 0 0 0
0 0 0 0 0 0 0 0 0
0 0 0 0 0 0 0 0 0
0 0 0 0 0 0 0 0 0
0 0 0 0 0 0 0 0 0
0 0 0 0 0 0 0 0 0
0 0 0 0 0 0 0 0 0
0 0 0 0 0 0 0 0 0
0 0 0 0 0 0 0 0 0
0 0 0 0 0 0 0 0 0
0 0 0 0 0 0 0 0 0
0 0 0 0 0 0 0 0 0
0 0 0 0 0 0 0 0 0
0 0 0 0 0 0 0 0 0
0 0 0 0 0 0 0 0 0
0 0 0 0 0 0 0 0 0
0 0 0 0 0 0 0 0 0
0 0 0 0 0 0 0 0 0
0 0 0 0 0 0 0 0 0
0 0 0 0 0 0 0 0 0
0 0 0 0 0 0 0 0 0
0 0 0 0 0 0 0 0 0
0 0 0 0 0 0 0 0 0
0 0 0 0 0 0 0 0 0
0 0 0 0 0 0 0 0 0
0 0 0 0 0 0 0 0 0
0 0 0 0 0 0 0 0 0
0 0 0 0 0 0 0 0 0
0 0 0 0 0 0 0 0 0
0 0 0 0 0 0 0 0 0
0 0 0 0 0 0 0 0 0
0 0 0 0 0 0 0 0 0
0 0 0 0 0 0 0 0 0
0 0 0 0 0 0 0 0 0
0 0 0 0 0 0 0 0 0
0 0 0 0 0 0 0 0 0
0 0 0 0 0 0 0 0 0
0 0 0 0 0 0 0 0 0
0 0 0 0 0 0 0 0 0
0 0 0 0 0 0 0 0 0
0 0 0 0 0 0 0 0 0
0 0 0 0 0 0 0 0 0
0 0 0 0 0 0 0 0 0
0 0 0 0 0 0 0 0 0
0 0 0 0 0 0 0 0 0
0 0 0 0 0 0 0 0 0
0 0 0 0 0 0 0 0 0
0 0 0 0 0 0 0 0 0
0 0 0 0 0 0 0 0 0
0 0 0 0 0 0 0 0 0
0 0 0 0 0 0 0 0 0
0 0 0 0 0 0 0 0 0
0 0 0 0 0 0 0 0 0
0 0 0 0 0 0 0 0 0
0 0 0 0 0 0 0 0 0
0 0 0 0 0 0 0 0 0
0 0 0 0 0 0 0 0 0
0 0 0 0 0 0 0 0 0
0 0 0 0 0 0 0 0 0
0 0 0 0 0 0 0 0 0
0 0 0 0 0 0 0 0 0
0 0 0 0 0 0 0 0 0
0 0 0 0 0 0 0 0 0
0 0 0 0 0 0 0 0 0
0 0 0 0 0 0 0 0 0
0 0 0 0 0 0 0 0 0
0 0 0 0 0 0 0 0 0
0 0 0 0 0 0 0 0 0
0 0 0 0 0 0 0 0 0
0 0 0 0 0 0 0 0 0
0 0 0 0 0 0 0 0 0
0 0 0 0 0 0 0 0 0
0 0 0 0 0 0 0 0 0
0 0 0 0 0 0 0 0 0
0 0 0 0 0 0 0 0 0
0 0 0 0 0 0 0 0 0
0 0 0 0 0 0 0 0 0
0 0 0 0 0 0 0 0 0
0 0 0 0 0 0 0 0 0
0 0 0 0 0 0 0 0 0
0 0 0 0 0 0 0 0 0
0 0 0 0 0 0 0 0 0
0 0 0 0 0 0 0 0 0
SCALARS tauN double 9
LOOKUP_TABLE default
0 0 0 0 0 0 0 0 0
0 0 0 0 0 0 0 0 0
0 0 0 0 0 0 0 0 0
0 0 0 0 0 0 0 0 0
0 0 0 0 0 0 0 0 0
0 0 0 0 0 0 0 0 0
0 0 0 0 0 0 0 0 0
0 0 0 0 0 0 0 0 0
0 0 0 0 0 0 0 0 0
0 0 0 0 0 0 0 0 0
0 0 0 0 0 0 0 0 0
0 0 0 0 0 0 0 0 0
0 0 0 0 0 0 0 0 0
0 0 0 0 0 0 0 0 0
0 0 0 0 0 0 0 0 0
0 0 0 0 0 0 0 0 0
0 0 0 0 0 0 0 0 0
0 0 0 0 0 0 0 0 0
0 0 0 0 0 0 0 0 0
0 0 0 0 0 0 0 0 0
0 0 0 0 0 0 0 0 0
0 0 0 0 0 0 0 0 0
0 0 0 0 0 0 0 0 0
0 0 0 0 0 0 0 0 0
0 0 0 0 0 0 0 0 0
0 0 0 0 0 0 0 0 0
0 0 0 0 0 0 0 0 0
0 0 0 0 0 0 0 0 0
0 0 0 0 0 0 0 0 0
0 0 0 0 0 0 0 0 0
0 0 0 0 0 0 0 0 0
0 0 0 0 0 0 0 0 0
0 0 0 0 0 0 0 0 0
0 0 0 0 0 0 0 0 0
0 0 0 0 0 0 0 0 0
0 0 0 0 0 0 0 0 0
0 0 0 0 0 0 0 0 0
0 0 0 0 0 0 0 0 0
0 0 0 0 0 0 0 0 0
0 0 0 0 0 0 0 0 0
0 0 0 0 0 0 0 0 0
0 0 0 0 0 0 0 0 0
0 0 0 0 0 0 0 0 0
0 0 0 0 0 0 0 0 0
0 0 0 0 0 0 0 0 0
0 0 0 0 0 0 0 0 0
0 0 0 0 0 0 0 0 0
0 0 0 0 0 0 0 0 0
0 0 0 0 0 0 0 0 0
0 0 0 0 0 0 0 0 0
0 0 0 0 0 0 0 0 0
0 0 0 0 0 0 0 0 0
0 0 0 0 0 0 0 0 0
0 0 0 0 0 0 0 0 0
0 0 0 0 0 0 0 0 0
0 0 0 0 0 0 0 0 0
0 0 0 0 0 0 0 0 0
0 0 0 0 0 0 0 0 0
0 0 0 0 0 0 0 0 0
0 0 0 0 0 0 0 0 0
0 0 0 0 0 0 0 0 0
0 0 0 0 0 0 0 0 0
0 0 0 0 0 0 0 0 0
0 0 0 0 0 0 0 0 0
0 0 0 0 0 0 0 0 0
0 0 0 0 0 0 0 0 0
0 0 0 0 0 0 0 0 0
0 0 0 0 0 0 0 0 0
0 0 0 0 0 0 0 0 0
0 0 0 0 0 0 0 0 0
0 0 0 0 0 0 0 0 0
0 0 0 0 0 0 0 0 0
0 0 0 0 0 0 0 0 0
0 0 0 0 0 0 0 0 0
0 0 0 0 0 0 0 0 0
0 0 0 0 0 0 0 0 0
0 0 0 0 0 0 0 0 0
0 0 0 0 0 0 0 0 0
0 0 0 0 0 0 0 0 0
0 0 0 0 0 0 0 0 0
0 0 0 0 0 0 0 0 0
0 0 0 0 0 0 0 0 0
0 0 0 0 0 0 0 0 0
0 0 0 0 0 0 0 0 0
0 0 0 0 0 0 0 0 0
0 0 0 0 0 0 0 0 0
0 0 0 0 0 0 0 0 0
0 0 0 0 0 0 0 0 0
0 0 0 0 0 0 0 0 0
0 0 0 0 0 0 0 0 0
0 0 0 0 0 0 0 0 0
0 0 0 0 0 0 0 0 0
0 0 0 0 0 0 0 0 0
0 0 0 0 0 0 0 0 0
0 0 0 0 0 0 0 0 0
0 0 0 0 0 0 0 0 0
0 0 0 0 0 0 0 0 0
0 0 0 0 0 0 0 0 0
0 0 0 0 0 0 0 0 0
0 0 0 0 0 0 0 0 0
0 0 0 0 0 0 0 0 0
0 0 0 0 0 0 0 0 0
0 0 0 0 0 0 0 0 0
0 0 0 0 0 0 0 0 0
0 0 0 0 0 0 0 0 0
0 0 0 0 0 0 0 0 0
0 0 0 0 0 0 0 0 0
0 0 0 0 0 0 0 0 0
0 0 0 0 0 0 0 0 0
0 0 0 0 0 0 0 0 0
0 0 0 0 0 0 0 0 0
0 0 0 0 0 0 0 0 0
0 0 0 0 0 0 0 0 0
0 0 0 0 0 0 0 0 0
0 0 0 0 0 0 0 0 0
0 0 0 0 0 0 0 0 0
0 0 0 0 0 0 0 0 0
0 0 0 0 0 0 0 0 0
0 0 0 0 0 0 0 0 0
0 0 0 0 0 0 0 0 0
0 0 0 0 0 0 0 0 0
0 0 0 0 0 0 0 0 0
0 0 0 0 0 0 0 0 0
0 0 0 0 0 0 0 0 0
0 0 0 0 0 0 0 0 0
0 0 0 0 0 0 0 0 0
0 0 0 0 0 0 0 0 0
0 0 0 0 0 0 0 0 0
0 0 0 0 0 0 0 0 0
0 0 0 0 0 0 0 0 0
0 0 0 0 0 0 0 0 0
0 0 0 0 0 0 0 0 0
0 0 0 0 0 0 0 0 0
0 0 0 0 0 0 0 0 0
0 0 0 0 0 0 0 0 0
0 0 0 0 0 0 0 0 0
0 0 0 0 0 0 0 0 0
0 0 0 0 0 0 0 0 0
0 0 0 0 0 0 0 0 0
0 0 0 0 0 0 0 0 0
0 0 0 0 0 0 0 0 0
0 0 0 0 0 0 0 0 0
0 0 0 0 0 0 0 0 0
0 0 0 0 0 0 0 0 0
0 0 0 0 0 0 0 0 0
0 0 0 0 0 0 0 0 0
0 0 0 0 0 0 0 0 0
0 0 0 0 0 0 0 0 0
0 0 0 0 0 0 0 0 0
0 0 0 0 0 0 0 0 0
0.00292045 0.0030945 0.0033869 0.00357524 0.00292045 0.0030945 0.0033869 0.00357524 0
0.00322718 0.00346552 0.00370623 0.0039248 0.00322718 0.00346552 0.00370623 0.0039248 0
0.00362859 0.003893 0.0040763 0.00432784 0.00362859 0.003893 0.0040763 0.00432784 0
0.00407019 0.00435462 0.00450321 0.00479443 0.00407019 0.00435462 0.00450321 0.00479443 0
0.00454597 0.00485693 0.00499672 0.0053295 0.00454597 0.00485693 0.00499672 0.0053295 0
0.0050728 0.00543222 0.00556129 0.00594094 0.0050728 0.00543222 0.00556129 0.00594094 0
0.00568636 0.00611004 0.0062048 0.00663313 0.00568636 0.00611004 0.0062048 0.00663313 0
0.00640371 0.00687931 0.00692515 0.00738973 0.00640371 0.00687931 0.00692515 0.00738973 0
0.00211989 0.00229407 0.00257733 0.00274726 0.00211989 0.00229407 0.00257733 0.00274726 0
0.00242507 0.00266042 0.00287962 0.00312211 0.00242507 0.00266042 0.00287962 0.00312211 0
0.00282108 0.00308393 0.00328728 0.00355437 0.00282108 0.00308393 0.00328728 0.00355437 0
0.00325771 0.00353682 0.00373073 0.00401153 0.00325771 0.00353682 0.00373073 0.00401153 0
0.00372156 0.00402254 0.00419776 0.00449978 0.00372156 0.00402254 0.00419776 0.00449978 0
0.00422908 0.00457614 0.0047084 0.00505866 0.00422908 0.00457614 0.0047084 0.00505866 0
0.00482003 0.00523166 0.00530691 0.00572565 0.00482003 0.00523166 0.00530691 0.00572565 0
0.00551911 0.00599379 0.00601752 0.00649535 0.00551911 0.00599379 0.00601752 0.00649535 0
0.00631638 0.00683263 0.00682438 0.00735297 0.00631638 0.00683263 0.00682438 0.00735297 0
0.0013417 0.00148998 0.00178537 0.00195343 0.0013417 0.00148998 0.00178537 0.00195343 0
0.00160717 0.00183223 0.00208008 0.00231044 0.00160717 0.00183223 0.00208008 0.00231044 0
0.00198495 0.00223828 0.00246744 0.00272626 0.00198495 0.00223828 0.00246744 0.00272626 0
0.00240631 0.00268143 0.00289746 0.00317469 0.00240631 0.00268143 0.00289746 0.00317469 0
0.00286276 0.00316098 0.00335774 0.00365732 0.00286276 0.00316098 0.00335774 0.00365732 0
0.00336298 0.00370333 0.00386166 0.00420566 0.00336298 0.00370333 0.00386166 0.00420566 0
0.00393868 0.00433702 0.00444562 0.00485135 0.00393868 0.00433702 0.00444562 0.00485135 0
0.00461367 0.00507599 0.00513419 0.00560426 0.00461367 0.00507599 0.00513419 0.00560426 0
0.00538962 0.00589815 0.00592215 0.00643253 0.00538962 0.00589815 0.00592215 0.00643253 0
0.000528651 0.000660598 0.00100175 0.00114005 0.000528651 0.000660598 0.00100175 0.00114005 0
0.000766492 0.000978408 0.00125143 0.00147124 0.000766492 0.000978408 0.00125143 0.00147124 0
0.00112186 0.00136468 0.00162006 0.00186878 0.00112186 0.00136468 0.00162006 0.00186878 0
0.00152687 0.00179853 0.0020341 0.00230739 0.00152687 0.00179853 0.0020341 0.00230739 0
0.00197719 0.00227387 0.00248723 0.00278431 0.00197719 0.00227387 0.00248723 0.00278431 0
0.00247199 0.002806 0.00298429 0.00332158 0.00247199 0.002806 0.00298429 0.00332158 0
0.00303279 0.00341722 0.00355301 0.00394524 0.00303279 0.00341722 0.00355301 0.00394524 0
0.00368196 0.00412924 0.0042166 0.00467239 0.00368196 0.00412924 0.0042166 0.00467239 0
0.00443314 0.00493428 0.00498177 0.00548737 0.00443314 0.00493428 0.00498177 0.00548737 0
-0.000329955 -0.000198533 0.000168848 0.000298665 -0.000329955 -0.000198533 0.000168848 0.000298665 0
-9.85659e-05 9.88665e-05 0.0004013 0.000606928 -9.85659e-05 9.88665e-05 0.0004013 0.000606928 0
0.000233217 0.000467114 0.000746288 0.000984839 0.000233217 0.000467114 0.000746288 0.000984839 0
0.00062417 0.000892485 0.00114458 0.0014146 0.00062417 0.000892485 0.00114458 0.0014146 0
0.00106825 0.00136245 0.00159191 0.00188749 0.00106825 0.00136245 0.00159191 0.00188749 0
0.00155598 0.00188235 0.0020836 0.00241434 0.00155598 0.00188235 0.0020836 0.00241434 0
0.00209989 0.00246951 0.0026371 0.00301511 0.00209989 0.00246951 0.0026371 0.00301511 0
0.00272163 0.00315251 0.00327433 0.00371455 0.00272163 0.00315251 0.00327433 0.00371455 0
0.00344534 0.00393645 0.0040136 0.00451045 0.00344534 0.00393645 0.0040136 0.00451045 0
-0.00119974 -0.00107785 -0.000699382 -0.000570353 -0.00119974 -0.00107785 -0.000699382 -0.000570353 0
-0.00098665 -0.000802672 -0.000473597 -0.000282239 -0.00098665 -0.000802672 -0.000473597 -0.000282239 0
-0.000676341 -0.000449714 -0.000151532 7.88911e-05 -0.000676341 -0.000449714 -0.000151532 7.88911e-05 0
-0.000297573 -3.39648e-05 0.000233748 0.00050006 -0.000297573 -3.39648e-05 0.000233748 0.00050006 0
0.000138002 0.000428281 0.000674218 0.0009667 0.000138002 0.000428281 0.000674218 0.0009667 0
0.000616384 0.000933925 0.00115789 0.00148041 0.000616384 0.000933925 0.00115789 0.00148041 0
0.00114148 0.0014951 0.00169366 0.00205642 0.00114148 0.0014951 0.00169366 0.00205642 0
0.00173326 0.00214494 0.00230263 0.00272553 0.00173326 0.00214494 0.00230263 0.00272553 0
0.00242536 0.00290524 0.00301305 0.00349926 0.00242536 0.00290524 0.00301305 0.00349926 0
-0.00209004 -0.0019735 -0.0015748 -0.00145651 -0.00209004 -0.0019735 -0.0015748 -0.00145651 0
-0.0018888 -0.00171653 -0.00136863 -0.00119001 -0.0018888 -0.00171653 -0.00136863 -0.00119001 0
-0.00159769 -0.00137893 -0.00106695 -0.000843702 -0.00159769 -0.00137893 -0.00106695 -0.000843702 0
-0.00123308 -0.000977644 -0.000694062 -0.000433623 -0.00123308 -0.000977644 -0.000694062 -0.000433623 0
-0.000810934 -0.000525436 -0.000263745 2.44015e-05 -0.000810934 -0.000525436 -0.000263745 2.44015e-05 0
-0.0003423 -3.18224e-05 0.000210242 0.000524289 -0.0003423 -3.18224e-05 0.000210242 0.000524289 0
0.000166482 0.000503987 0.000727715 0.00107429 0.000166482 0.000503987 0.000727715 0.00107429 0
0.00072864 0.00112201 0.00130654 0.00171002 0.00072864 0.00112201 0.00130654 0.00171002 0
0.00138729 0.00184718 0.00198429 0.00245681 0.00138729 0.00184718 0.00198429 0.00245681 0
-0.0029886 -0.00286374 -0.002471 -0.00235292 -0.0029886 -0.00286374 -0.002471 -0.00235292 0
-0.0027816 -0.00262424 -0.00226978 -0.00210343 -0.0027816 -0.00262424 -0.00226978 -0.00210343 0
-0.00251973 -0.00232457 -0.00198959 -0.00177858 -0.00251973 -0.00232457 -0.00198959 -0.00177858 0
-0.00219016 -0.00194144 -0.00163682 -0.00138475 -0.00219016 -0.00194144 -0.00163682 -0.00138475 0
-0.00177886 -0.00149686 -0.00122 -0.000936371 -0.00177886 -0.00149686 -0.00122 -0.000936371 0
-0.00131858 -0.00101657 -0.000755264 -0.000448233 -0.00131858 -0.00101657 -0.000755264 -0.000448233 0
-0.000827626 -0.000505606 -0.000253822 7.68769e-05 -0.000827626 -0.000505606 -0.000253822 7.68769e-05 0
-0.000298034 6.62621e-05 0.00029487 0.000677509 -0.000298034 6.62621e-05 0.00029487 0.000677509 0
-0.00315441 -0.0029279 -0.00259906 -0.00235738 -0.00315441 -0.0029279 -0.00259906 -0.00235738 0
-0.00278162 -0.00252133 -0.00219964 -0.00192407 -0.00278162 -0.00252133 -0.00219964 -0.00192407 0
-0.00235223 -0.00205272 -0.00174888 -0.00144906 -0.00235223 -0.00205272 -0.00174888 -0.00144906 0
-0.00186507 -0.00154283 -0.00126181 -0.000942224 -0.00186507 -0.00154283 -0.00126181 -0.000942224 0
-0.00133728 -0.000977068 -0.000737902 -0.000379784 -0.00133728 -0.000977068 -0.000737902 -0.000379784 0
0 0 0 0 0 0 0 0 0
0 0 0 0 0 0 0 0 0
0 0 0 0 0 0 0 0 0
0 0 0 0 0 0 0 0 0
0 0 0 0 0 0 0 0 0
0 0 0 0 0 0 0 0 0
0 0 0 0 0 0 0 0 0
0 0 0 0 0 0 0 0 0
0 0 0 0 0 0 0 0 0
0 0 0 0 0 0 0 0 0
0 0 0 0 0 0 0 0 0
0 0 0 0 0 0 0 0 0
0 0 0 0 0 0 0 0 0
0 0 0 0 0 0 0 0 0
0 0 0 0 0 0 0 0 0
0 0 0 0 0 0 0 0 0
0 0 0 0 0 0 0 0 0
0 0 0 0 0 0 0 0 0
0 0 0 0 0 0 0 0 0
0 0 0 0 0 0 0 0 0
0 0 0 0 0 0 0 0 0
0 0 0 0 0 0 0 0 0
0 0 0 0 0 0 0 0 0
0 0 0 0 0 0 0 0 0
0 0 0 0 0 0 0 0 0
0 0 0 0 0 0 0 0 0
0 0 0 0 0 0 0 0 0
0 0 0 0 0 0 0 0 0
0 0 0 0 0 0 0 0 0
0 0 0 0 0 0 0 0 0
0 0 0 0 0 0 0 0 0
0 0 0 0 0 0 0 0 0
0 0 0 0 0 0 0 0 0
0 0 0 0 0 0 0 0 0
0 0 0 0 0 0 0 0 0
0 0 0 0 0 0 0 0 0
0 0 0 0 0 0 0 0 0
0 0 0 0 0 0 0 0 0
0 0 0 0 0 0 0 0 0
0 0 0 0 0 0 0 0 0
0 0 0 0 0 0 0 0 0
0 0 0 0 0 0 0 0 0
0 0 0 0 0 0 0 0 0
0 0 0 0 0 0 0 0 0
0 0 0 0 0 0 0 0 0
0 0 0 0 0 0 0 0 0
0 0 0 0 0 0 0 0 0
0 0 0 0 0 0 0 0 0
0 0 0 0 0 0 0 0 0
0 0 0 0 0 0 0 0 0
0 0 0 0 0 0 0 0 0
0 0 0 0 0 0 0 0 0
0 0 0 0 0 0 0 0 0
0 0 0 0 0 0 0 0 0
0 0 0 0 0 0 0 0 0
0 0 0 0 0 0 0 0 0
0 0 0 0 0 0 0 0 0
0 0 0 0 0 0 0 0 0
0 0 0 0 0 0 0 0 0
0 0 0 0 0 0 0 0 0
0 0 0 0 0 0 0 0 0
0 0 0 0 0 0 0 0 0
0 0 0 0 0 0 0 0 0
0 0 0 0 0 0 0 0 0
0 0 0 0 0 0 0 0 0
0 0 0 0 0 0 0 0 0
0 0 0 0 0 0 0 0 0
0 0 0 0 0 0 0 0 0
0 0 0 0 0 0 0 0 0
0 0 0 0 0 0 0 0 0
0 0 0 0 0 0 0 0 0
0 0 0 0 0 0 0 0 0
0 0 0 0 0 0 0 0 0
0 0 0 0 0 0 0 0 0
0 0 0 0 0 0 0 0 0
0 0 0 0 0 0 0 0 0
0 0 0 0 0 0 0 0 0
0 0 0 0 0 0 0 0 0
0 0 0 0 0 0 0 0 0
0 0 0 0 0 0 0 0 0
0 0 0 0 0 0 0 0 0
0 0 0 0 0 0 0 0 0
0 0 0 0 0 0 0 0 0
0 0 0 0 0 0 0 0 0
0 0 0 0 0 0 0 0 0
0 0 0 0 0 0 0 0 0
0 0 0 0 0 0 0 0 0
0 0 0 0 0 0 0 0 0
0 0 0 0 0 0 0 0 0
0 0 0 0 0 0 0 0 0
0 0 0 0 0 0 0 0 0
0 0 0 0 0 0 0 0 0
0 0 0 0 0 0 0 0 0
0 0 0 0 0 0 0 0 0
0 0 0 0 0 0 0 0 0
0 0 0 0 0 0 0 0 0
0 0 0 0 0 0 0 0 0
0 0 0 0 0 0 0 0 0
0 0 0 0 0 0 0 0 0
0 0 0 0 0 0 0 0 0
0 0 0 0 0 0 0 0 0
0 0 0 0 0 0 0 0 0
0 0 0 0 0 0 0 0 0
0 0 0 0 0 0 0 0 0
0 0 0 0 0 0 0 0 0
0 0 0 0 0 0 0 0 0
0 0 0 0 0 0 0 0 0
0 0 0 0 0 0 0 0 0
0 0 0 0 0 0 0 0 0
0 0 0 0 0 0 0 0 0
0 0 0 0 0 0 0 0 0
0 0 0 0 0 0 0 0 0
0 0 0 0 0 0 0 0 0
0 0 0 0 0 0 0 0 0
0 0 0 0 0 0 0 0 0
0 0 0 0 0 0 0 0 0
0 0 0 0 0 0 0 0 0
0 0 0 0 0 0 0 0 0
0 0 0 0 0 0 0 0 0
0 0 0 0 0 0 0 0 0
0 0 0 0 0 0 0 0 0
0 0 0 0 0 0 0 0 0
0 0 0 0 0 0 0 0 0
0 0 0 0 0 0 0 0 0
0 0 0 0 0 0 0 0 0
0 0 0 0 0 0 0 0 0
0 0 0 0 0 0 0 0 0
0 0 0 0 0 0 0 0 0
0 0 0 0 0 0 0 0 0
0 0 0 0 0 0 0 0 0
0 0 0 0 0 0 0 0 0
0 0 0 0 0 0 0 0 0
0 0 0 0 0 0 0 0 0
0 0 0 0 0 0 0 0 0
0 0 0 0 0 0 0 0 0
0 0 0 0 0 0 0 0 0
0 0 0 0 0 0 0 0 0
0 0 0 0 0 0 0 0 0
0 0 0 0 0 0 0 0 0
0 0 0 0 0 0 0 0 0
0 0 0 0 0 0 0 0 0
0 0 0 0 0 0 0 0 0
0 0 0 0 0 0 0 0 0
0 0 0 0 0 0 0 0 0
0 0 0 0 0 0 0 0 0
0 0 0 0 0 0 0 0 0
0 0 0 0 0 0 0 0 0
0 0 0 0 0 0 0 0 0
0 0 0 0 0 0 0 0 0
0 0 0 0 0 0 0 0 0
0 0 0 0 0 0 0 0 0
0 0 0 0 0 0 0 0 0
0 0 0 0 0 0 0 0 0
0 0 0 0 0 0 0 0 0
0 0 0 0 0 0 0 0 0
0 0 0 0 0 0 0 0 0
0 0 0 0 0 0 0 0 0
0 0 0 0 0 0 0 0 0
0 0 0 0 0 0 0 0 0
0 0 0 0 0 0 0 0 0
0 0 0 0 0 0 0 0 0
0 0 0 0 0 0 0 0 0
0 0 0 0 0 0 0 0 0
0 0 0 0 0 0 0 0 0
0 0 0 0 0 0 0 0 0
0 0 0 0 0 0 0 0 0
0 0 0 0 0 0 0 0 0
0 0 0 0 0 0 0 0 0
0 0 0 0 0 0 0 0 0
0 0 0 0 0 0 0 0 0
0 0 0 0 0 0 0 0 0
0 0 0 0 0 0 0 0 0
0 0 0 0 0 0 0 0 0
0 0 0 0 0 0 0 0 0
0 0 0 0 0 0 0 0 0
0 0 0 0 0 0 0 0 0
0 0 0 0 0 0 0 0 0
0 0 0 0 0 0 0 0 0
0 0 0 0 0 0 0 0 0
0 0 0 0 0 0 0 0 0
0 0 0 0 0 0 0 0 0
0 0 0 0 0 0 0 0 0
0 0 0 0 0 0 0 0 0
0 0 0 0 0 0 0 0 0
0 0 0 0 0 0 0 0 0
0 0 0 0 0 0 0 0 0
0 0 0 0 0 0 0 0 0
0 0 0 0 0 0 0 0 0
0 0 0 0 0 0 0 0 0
0 0 0 0 0 0 0 0 0
0 0 0 0 0 0 0 0 0
0 0 0 0 0 0 0 0 0
0 0 0 0 0 0 0 0 0
0 0 0 0 0 0 0 0 0
0 0 0 0 0 0 0 0 0
0 0 0 0 0 0 0 0 0
0 0 0 0 0 0 0 0 0
0 0 0 0 0 0 0 0 0
0 0 0 0 0 0 0 0 0
0 0 0 0 0 0 0 0 0
0 0 0 0 0 0 0 0 0
0 0 0 0 0 0 0 0 0
0 0 0 0 0 0 0 0 0
0 0 0 0 0 0 0 0 0
0 0 0 0 0 0 0 0 0
0 0 0 0 0 0 0 0 0
0 0 0 0 0 0 0 0 0
0 0 0 0 0 0 0 0 0
0 0 0 0 0 0 0 0 0
0 0 0 0 0 0 0 0 0
0 0 0 0 0 0 0 0 0
0 0 0 0 0 0 0 0 0
0 0 0 0 0 0 0 0 0
0 0 0 0 0 0 0 0 0
0 0 0 0 0 0 0 0 0
0 0 0 0 0 0 0 0 0
0 0 0 0 0 0 0 0 0
0 0 0 0 0 0 0 0 0
0 0 0 0 0 0 0 0 0
0 0 0 0 0 0 0 0 0
0 0 0 0 0 0 0 0 0
0 0 0 0 0 0 0 0 0
0 0 0 0 0 0 0 0 0
0 0 0 0 0 0 0 0 0
0 0 0 0 0 0 0 0 0
0 0 0 0 0 0 0 0 0
0 0 0 0 0 0 0 0 0
0 0 0 0 0 0 0 0 0
0 0 0 0 0 0 0 0 0
0 0 0 0 0 0 0 0 0
0 0 0 0 0 0 0 0 0
0 0 0 0 0 0 0 0 0
0 0 0 0 0 0 0 0 0
0 0 0 0 0 0 0 0 0
0 0 0 0 0 0 0 0 0
0 0 0 0 0 0 0 0 0
0 0 0 0 0 0 0 0 0
0 0 0 0 0 0 0 0 0
0 0 0 0 0 0 0 0 0
0 0 0 0 0 0 0 0 0
0 0 0 0 0 0 0 0 0
0 0 0 0 0 0 0 0 0
0 0 0 0 0 0 0 0 0
0 0 0 0 0 0 0 0 0
0 0 0 0 0 0 0 0 0
0 0 0 0 0 0 0 0 0
0 0 0 0 0 0 0 0 0
0 0 0 0 0 0 0 0 0
0 0 0 0 0 0 0 0 0
0 0 0 0 0 0 0 0 0
0 0 0 0 0 0 0 0 0
0 0 0 0 0 0 0 0 0
0 0 0 0 0 0 0 0 0
0 0 0 0 0 0 0 0 0
0 0 0 0 0 0 0 0 0
0 0 0 0 0 0 0 0 0
0 0 0 0 0 0 0 0 0
0 0 0 0 0 0 0 0 0
0 0 0 0 0 0 0 0 0
0 0 0 0 0 0 0 0 0
0 0 0 0 0 0 0 0 0
0 0 0 0 0 0 0 0 0
0 0 0 0 0 0 0 0 0
0 0 0 0 0 0 0 0 0
0 0 0 0 0 0 0 0 0
0 0 0 0 0 0 0 0 0
0 0 0 0 0 0 0 0 0
0 0 0 0 0 0 0 0 0
0 0 0 0 0 0 0 0 0
0 0 0 0 0 0 0 0 0
0 0 0 0 0 0 0 0 0
0 0 0 0 0 0 0 0 0
0 0 0 0 0 0 0 0 0
0 0 0 0 0 0 0 0 0
0 0 0 0 0 0 0 0 0
0 0 0 0 0 0 0 0 0
0 0 0 0 0 0 0 0 0
0 0 0 0 0 0 0 0 0
0 0 0 0 0 0 0 0 0
0 0 0 0 0 0 0 0 0
0 0 0 0 0 0 0 0 0
0 0 0 0 0 0 0 0 0
0 0 0 0 0 0 0 0 0
0 0 0 0 0 0 0 0 0
0 0 0 0 0 0 0 0 0
0 0 0 0 0 0 0 0 0
0 0 0 0 0 0 0 0 0
0 0 0 0 0 0 0 0 0
0 0 0 0 0 0 0 0 0
0 0 0 0 0 0 0 0 0
0 0 0 0 0 0 0 0 0
0 0 0 0 0 0 0 0 0
0 0 0 0 0 0 0 0 0
0 0 0 0 0 0 0 0 0
0 0 0 0 0 0 0 0 0
0 0 0 0 0 0 0 0 0
0 0 0 0 0 0 0 0 0
0 0 0 0 0 0 0 0 0
0 0 0 0 0 0 0 0 0
0 0 0 0 0 0 0 0 0
0 0 0 0 0 0 0 0 0
0 0 0 0 0 0 0 0 0
0 0 0 0 0 0 0 0 0
0 0 0 0 0 0 0 0 0
0 0 0 0 0 0 0 0 0
0 0 0 0 0 0 0 0 0
0 0 0 0 0 0 0 0 0
0 0 0 0 0 0 0 0 0
0 0 0 0 0 0 0 0 0
0 0 0 0 0 0 0 0 0
0 0 0 0 0 0 0 0 0
0 0 0 0 0 0 0 0 0
0 0 0 0 0 0 0 0 0
0 0 0 0 0 0 0 0 0
0 0 0 0 0 0 0 0 0
0 0 0 0 0 0 0 0 0
0 0 0 0 0 0 0 0 0
0 0 0 0 0 0 0 0 0
0 0 0 0 0 0 0 0 0
0 0 0 0 0 0 0 0 0
0 0 0 0 0 0 0 0 0
0 0 0 0 0 0 0 0 0
0 0 0 0 0 0 0 0 0
0 0 0 0 0 0 0 0 0
0 0 0 0 0 0 0 0 0
0 0 0 0 0 0 0 0 0
0 0 0 0 0 0 0 0 0
0 0 0 0 0 0 0 0 0
0 0 0 0 0 0 0 0 0
0 0 0 0 0 0 0 0 0
0 0 0 0 0 0 0 0 0
0 0 0 0 0 0 0 0 0
0 0 0 0 0 0 0 0 0
0 0 0 0 0 0 0 0 0
0 0 0 0 0 0 0 0 0
0 0 0 0 0 0 0 0 0
0 0 0 0 0 0 0 0 0
0 0 0 0 0 0 0 0 0
0 0 0 0 0 0 0 0 0
0 0 0 0 0 0 0 0 0
0 0 0 0 0 0 0 0 0
0 0 0 0 0 0 0 0 0
0 0 0 0 0 0 0 0 0
0 0 0 0 0 0 0 0 0
0 0 0 0 0 0 0 0 0
0 0 0 0 0 0 0 0 0
0 0 0 0 0 0 0 0 0
0 0 0 0 0 0 0 0 0
0 0 0 0 0 0 0 0 0
0 0 0 0 0 0 0 0 0
0 0 0 0 0 0 0 0 0
0 0 0 0 0 0 0 0 0
0 0 0 0 0 0 0 0 0
0 0 0 0 0 0 0 0 0
0 0 0 0 0 0 0 0 0
0 0 0 0 0 0 0 0 0
0 0 0 0 0 0 0 0 0
0 0 0 0 0 0 0 0 0
0 0 0 0 0 0 0 0 0
0 0 0 0 0 0 0 0 0
0 0 0 0 0 0 0 0 0
0 0 0 0 0 0 0 0 0
0 0 0 0 0 0 0 0 0
0 0 0 0 0 0 0 0 0
0 0 0 0 0 0 0 0 0
0 0 0 0 0 0 0 0 0
0 0 0 0 0 0 0 0 0
0 0 0 0 0 0 0 0 0
0 0 0 0 0 0 0 0 0
0 0 0 0 0 0 0 0 0
0 0 0 0 0 0 0 0 0
0 0 0 0 0 0 0 0 0
0 0 0 0 0 0 0 0 0
0 0 0 0 0 0 0 0 0
0 0 0 0 0 0 0 0 0
0 0 0 0 0 0 0 0 0
0 0 0 0 0 0 0 0 0
0 0 0 0 0 0 0 0 0
0 0 0 0 0 0 0 0 0
0 0 0 0 0 0 0 0 0
0 0 0 0 0 0 0 0 0
0 0 0 0 0 0 0 0 0
0 0 0 0 0 0 0 0 0
0 0 0 0 0 0 0 0 0
0 0 0 0 0 0 0 0 0
0 0 0 0 0 0 0 0 0
0 0 0 0 0 0 0 0 0
0 0 0 0 0 0 0 0 0
0 0 0 0 0 0 0 0 0
0 0 0 0 0 0 0 0 0
0 0 0 0 0 0 0 0 0
0 0 0 0 0 0 0 0 0
0 0 0 0 0 0 0 0 0
0 0 0 0 0 0 0 0 0
0 0 0 0 0 0 0 0 0
0 0 0 0 0 0 0 0 0
0 0 0 0 0 0 0 0 0
0 0 0 0 0 0 0 0 0
0 0 0 0 0 0 0 0 0
0 0 0 0 0 0 0 0 0
0 0 0 0 0 0 0 0 0
0 0 0 0 0 0 0 0 0
0 0 0 0 0 0 0 0 0
0 0 0 0 0 0 0 0 0
0 0 0 0 0 0 0 0 0
0 0 0 0 0 0 0 0 0
0 0 0 0 0 0 0 0 0
0 0 0 0 0 0 0 0 0
0 0 0 0 0 0 0 0 0
0 0 0 0 0 0 0 0 0
0 0 0 0 0 0 0 0 0
0 0 0 0 0 0 0 0 0
0 0 0 0 0 0 0 0 0
0 0 0 0 0 0 0 0 0
0 0 0 0 0 0 0 0 0
0 0 0 0 0 0 0 0 0
0 0 0 0 0 0 0 0 0
0 0 0 0 0 0 0 0 0
0 0 0 0 0 0 0 0 0
0 0 0 0 0 0 0 0 0
0 0 0 0 0 0 0 0 0
0 0 0 0 0 0 0 0 0
0 0 0 0 0 0 0 0 0
0 0 0 0 0 0 0 0 0
0 0 0 0 0 0 0 0 0
0 0 0 0 0 0 0 0 0
0 0 0 0 0 0 0 0 0
0 0 0 0 0 0 0 0 0
0 0 0 0 0 0 0 0 0
0 0 0 0 0 0 0 0 0
0 0 0 0 0 0 0 0 0
0 0 0 0 0 0 0 0 0
0 0 0 0 0 0 0 0 0
0 0 0 0 0 0 0 0 0
0 0 0 0 0 0 0 0 0
0 0 0 0 0 0 0 0 0
0 0 0 0 0 0 0 0 0
0 0 0 0 0 0 0 0 0
0 0 0 0 0 0 0 0 0
0 0 0 0 0 0 0 0 0
0 0 0 0 0 0 0 0 0
0 0 0 0 0 0 0 0 0
0 0 0 0 0 0 0 0 0
0 0 0 0 0 0 0 0 0
0 0 0 0 0 0 0 0 0
0 0 0 0 0 0 0 0 0
0 0 0 0 0 0 0 0 0
0 0 0 0 0 0 0 0 0
0 0 0 0 0 0 0 0 0
0 0 0 0 0 0 0 0 0
0 0 0 0 0 0 0 0 0
0 0 0 0 0 0 0 0 0
0 0 0 0 0 0 0 0 0
0 0 0 0 0 0 0 0 0
0 0 0 0 0 0 0 0 0
0 0 0 0 0 0 0 0 0
0 0 0 0 0 0 0 0 0
0 0 0 0 0 0 0 0 0
0 0 0 0 0 0 0 0 0
0 0 0 0 0 0 0 0 0
0 0 0 0 0 0 0 0 0
0 0 0 0 0 0 0 0 0
0 0 0 0 0 0 0 0 0
0 0 0 0 0 0 0 0 0
0 0 0 0 0 0 0 0 0
0 0 0 0 0 0 0 0 0
0 0 0 0 0 0 0 0 0
0 0 0 0 0 0 0 0 0
0 0 0 0 0 0 0 0 0
0 0 0 0 0 0 0 0 0
0 0 0 0 0 0 0 0 0
0 0 0 0 0 0 0 0 0
0 0 0 0 0 0 0 0 0
0 0 0 0 0 0 0 0 0
0 0 0 0 0 0 0 0 0
0 0 0 0 0 0 0 0 0
0 0 0 0 0 0 0 0 0
0 0 0 0 0 0 0 0 0
0 0 0 0 0 0 0 0 0
0 0 0 0 0 0 0 0 0
0 0 0 0 0 0 0 0 0
0 0 0 0 0 0 0 0 0
0 0 0 0 0 0 0 0 0
0 0 0 0 0 0 0 0 0
0 0 0 0 0 0 0 0 0
0 0 0 0 0 0 0 0 0
0 0 0 0 0 0 0 0 0
0 0 0 0 0 0 0 0 0
0 0 0 0 0 0 0 0 0
0 0 0 0 0 0 0 0 0
0 0 0 0 0 0 0 0 0
0 0 0 0 0 0 0 0 0
0 0 0 0 0 0 0 0 0
0 0 0 0 0 0 0 0 0
0 0 0 0 0 0 0 0 0
0 0 0 0 0 0 0 0 0
0 0 0 0 0 0 0 0 0
0 0 0 0 0 0 0 0 0
0 0 0 0 0 0 0 0 0
0 0 0 0 0 0 0 0 0
0 0 0 0 0 0 0 0 0
0 0 0 0 0 0 0 0 0
0 0 0 0 0 0 0 0 0
0 0 0 0 0 0 0 0 0
0 0 0 0 0 0 0 0 0
0 0 0 0 0 0 0 0 0
0 0 0 0 0 0 0 0 0
0 0 0 0 0 0 0 0 0
0 0 0 0 0 0 0 0 0
0 0 0 0 0 0 0 0 0
0 0 0 0 0 0 0 0 0
0 0 0 0 0 0 0 0 0
0 0 0 0 0 0 0 0 0
0 0 0 0 0 0 0 0 0
0 0 0 0 0 0 0 0 0
0 0 0 0 0 0 0 0 0
0 0 0 0 0 0 0 0 0
0 0 0 0 0 0 0 0 0
0 0 0 0 0 0 0 0 0
0 0 0 0 0 0 0 0 0
0 0 0 0 0 0 0 0 0
0 0 0 0 0 0 0 0 0
0 0 0 0 0 0 0 0 0
0 0 0 0 0 0 0 0 0
0 0 0 0 0 0 0 0 0
0 0 0 0 0 0 0 0 0
0 0 0 0 0 0 0 0 0
0 0 0 0 0 0 0 0 0
0 0 0 0 0 0 0 0 0
0 0 0 0 0 0 0 0 0
0 0 0 0 0 0 0 0 0
0 0 0 0 0 0 0 0 0
0 0 0 0 0 0 0 0 0
0 0 0 0 0 0 0 0 0
0 0 0 0 0 0 0 0 0
0 0 0 0 0 0 0 0 0
0 0 0 0 0 0 0 0 0
0 0 0 0 0 0 0 0 0
0 0 0 0 0 0 0 0 0
0 0 0 0 0 0 0 0 0
0 0 0 0 0 0 0 0 0
0 0 0 0 0 0 0 0 0
0 0 0 0 0 0 0 0 0
0 0 0 0 0 0 0 0 0
0 0 0 0 0 0 0 0 0
0 0 0 0 0 0 0 0 0
0 0 0 0 0 0 0 0 0
0 0 0 0 0 0 0 0 0
0 0 0 0 0 0 0 0 0
0 0 0 0 0 0 0 0 0
0 0 0 0 0 0 0 0 0
0 0 0 0 0 0 0 0 0
0 0 0 0 0 0 0 0 0
0 0 0 0 0 0 0 0 0
0 0 0 0 0 0 0 0 0
0 0 0 0 0 0 0 0 0
0 0 0 0 0 0 0 0 0
0 0 0 0 0 0 0 0 0
0 0 0 0 0 0 0 0 0
0 0 0 0 0 0 0 0 0
0 0 0 0 0 0 0 0 0
0 0 0 0 0 0 0 0 0
0 0 0 0 0 0 0 0 0
0 0 0 0 0 0 0 0 0
0 0 0 0 0 0 0 0 0
0 0 0 0 0 0 0 0 0
0 0 0 0 0 0 0 0 0
0 0 0 0 0 0 0 0 0
0 0 0 0 0 0 0 0 0
0 0 0 0 0 0 0 0 0
0 0 0 0 0 0 0 0 0
0 0 0 0 0 0 0 0 0
0 0 0 0 0 0 0 0 0
0 0 0 0 0 0 0 0 0
0 0 0 0 0 0 0 0 0
0 0 0 0 0 0 0 0 0
0 0 0 0 0 0 0 0 0
0 0 0 0 0 0 0 0 0
0 0 0 0 0 0 0 0 0
0 0 0 0 0 0 0 0 0
0 0 0 0 0 0 0 0 0
0 0 0 0 0 0 0 0 0
0 0 0 0 0 0 0 0 0
0 0 0 0 0 0 0 0 0
0 0 0 0 0 0 0 0 0
0 0 0 0 0 0 0 0 0
0 0 0 0 0 0 0 0 0
0 0 0 0 0 0 0 0 0
0 0 0 0 0 0 0 0 0
0 0 0 0 0 0 0 0 0
0 0 0 0 0 0 0 0 0
0 0 0 0 0 0 0 0 0
0 0 0 0 0 0 0 0 0
0 0 0 0 0 0 0 0 0
0 0 0 0 0 0 0 0 0
0 0 0 0 0 0 0 0 0
0 0 0 0 0 0 0 0 0
0 0 0 0 0 0 0 0 0
0 0 0 0 0 0 0 0 0
0 0 0 0 0 0 0 0 0
0 0 0 0 0 0 0 0 0
0 0 0 0 0 0 0 0 0
0 0 0 0 0 0 0 0 0
0 0 0 0 0 0 0 0 0
0 0 0 0 0 0 0 0 0
0 0 0 0 0 0 0 0 0
0 0 0 0 0 0 0 0 0
0 0 0 0 0 0 0 0 0
0 0 0 0 0 0 0 0 0
0 0 0 0 0 0 0 0 0
0 0 0 0 0 0 0 0 0
0 0 0 0 0 0 0 0 0
0 0 0 0 0 0 0 0 0
0 0 0 0 0 0 0 0 0
0 0 0 0 0 0 0 0 0
0 0 0 0 0 0 0 0 0
0 0 0 0 0 0 0 0 0
0 0 0 0 0 0 0 0 0
0 0 0 0 0 0 0 0 0
0 0 0 0 0 0 0 0 0
0 0 0 0 0 0 0 0 0
0 0 0 0 0 0 0 0 0
0 0 0 0 0 0 0 0 0
0 0 0 0 0 0 0 0 0
0 0 0 0 0 0 0 0 0
0 0 0 0 0 0 0 0 0
0 0 0 0 0 0 0 0 0
0 0 0 0 0 0 0 0 0
0 0 0 0 0 0 0 0 0
0 0 0 0 0 0 0 0 0
0 0 0 0 0 0 0 0 0
0 0 0 0 0 0 0 0 0
0 0 0 0 0 0 0 0 0
0 0 0 0 0 0 0 0 0
0 0 0 0 0 0 0 0 0
0 0 0 0 0 0 0 0 0
0 0 0 0 0 0 0 0 0
0 0 0 0 0 0 0 0 0
0 0 0 0 0 0 0 0 0
0 0 0 0 0 0 0 0 0
0 0 0 0 0 0 0 0 0
0 0 0 0 0 0 0 0 0
0 0 0 0 0 0 0 0 0
0 0 0 0 0 0 0 0 0
0 0 0 0 0 0 0 0 0
0 0 0 0 0 0 0 0 0
0 0 0 0 0 0 0 0 0
0 0 0 0 0 0 0 0 0
0 0 0 0 0 0 0 0 0
0 0 0 0 0 0 0 0 0
0 0 0 0 0 0 0 0 0
0 0 0 0 0 0 0 0 0
0 0 0 0 0 0 0 0 0
0 0 0 0 0 0 0 0 0
0 0 0 0 0 0 0 0 0
0 0 0 0 0 0 0 0 0
0 0 0 0 0 0 0 0 0
0 0 0 0 0 0 0 0 0
0 0 0 0 0 0 0 0 0
0 0 0 0 0 0 0 0 0
0 0 0 0 0 0 0 0 0
0 0 0 0 0 0 0 0 0
0 0 0 0 0 0 0 0 0
0 0 0 0 0 0 0 0 0
0 0 0 0 0 0 0 0 0
0 0 0 0 0 0 0 0 0
0 0 0 0 0 0 0 0 0
0 0 0 0 0 0 0 0 0
0 0 0 0 0 0 0 0 0
0 0 0 0 0 0 0 0 0
0 0 0 0 0 0 0 0 0
0 0 0 0 0 0 0 0 0
0 0 0 0 0 0 0 0 0
0 0 0 0 0 0 0 0 0
0 0 0 0 0 0 0 0 0
0 0 0 0 0 0 0 0 0
0 0 0 0 0 0 0 0 0
0 0 0 0 0 0 0 0 0
0 0 0 0 0 0 0 0 0
0 0 0 0 0 0 0 0 0
0 0 0 0 0 0 0 0 0
0 0 0 0 0 0 0 0 0
0 0 0 0 0 0 0 0 0
0 0 0 0 0 0 0 0 0
0 0 0 0 0 0 0 0 0
0 0 0 0 0 0 0 0 0
0 0 0 0 0 0 0 0 0
0 0 0 0 0 0 0 0 0
0 0 0 0 0 0 0 0 0
0 0 0 0 0 0 0 0 0
0 0 0 0 0 0 0 0 0
0 0 0 0 0 0 0 0 0
0 0 0 0 0 0 0 0 0
0.0010546 0.00125967 0.00195225 0.00218094 0.0010546 0.00125967 0.00195225 0.00218094 0
0.00140382 0.00168228 0.00233628 0.0026202 0.00140382 0.00168228 0.00233628 0.0026202 0
0.00187127 0.00221225 0.00281642 0.00316999 0.00187127 0.00221225 0.00281642 0.00316999 0
0.00244665 0.00286299 0.00341616 0.00385009 0.00244665 0.00286299 0.00341616 0.00385009 0
0.00314996 0.00364884 0.00415228 0.00467292 0.00314996 0.00364884 0.00415228 0.00467292 0
0.00399125 0.00457375 0.00503187 0.0056353 0.00399125 0.00457375 0.00503187 0.0056353 0
0.00496944 0.00562888 0.00604771 0.00672903 0.00496944 0.00562888 0.00604771 0.00672903 0
0.00609065 0.00686878 0.00720257 0.00798771 0.00609065 0.00686878 0.00720257 0.00798771 0
-0.000571953 -0.000386965 0.000371881 0.000564647 -0.000571953 -0.000386965 0.000371881 0.000564647 0
-0.000256586 7.30587e-06 0.000701524 0.000974001 -0.000256586 7.30587e-06 0.000701524 0.000974001 0
0.000184691 0.00051207 0.0011573 0.00149061 0.000184691 0.00051207 0.0011573 0.00149061 0
0.000732105 0.00112696 0.0017173 0.00212246 0.000732105 0.00112696 0.0017173 0.00212246 0
0.00139307 0.00186125 0.00239898 0.00288306 0.00139307 0.00186125 0.00239898 0.00288306 0
0.00217729 0.00272395 0.0032131 0.00377961 0.00217729 0.00272395 0.0032131 0.00377961 0
0.00309207 0.0037183 0.00416247 0.00480631 0.00309207 0.0037183 0.00416247 0.00480631 0
0.00414824 0.00487964 0.00525536 0.00601822 0.00414824 0.00487964 0.00525536 0.00601822 0
0.0053787 0.00620973 0.00653337 0.00737328 0.0053787 0.00620973 0.00653337 0.00737328 0
-0.00222658 -0.00206776 -0.00127421 -0.00109889 -0.00222658 -0.00206776 -0.00127421 -0.00109889 0
-0.00195264 -0.00170158 -0.000974861 -0.000717304 -0.00195264 -0.00170158 -0.000974861 -0.000717304 0
-0.00153497 -0.00122098 -0.000544959 -0.000223383 -0.00153497 -0.00122098 -0.000544959 -0.000223383 0
-0.00101374 -0.000636616 -9.18004e-06 0.000377498 -0.00101374 -0.000636616 -9.18004e-06 0.000377498 0
-0.000388595 5.23548e-05 0.000635283 0.00109121 -0.000388595 5.23548e-05 0.000635283 0.00109121 0
0.000343979 0.00085629 0.00139619 0.00192759 0.000343979 0.00085629 0.00139619 0.00192759 0
0.0011972 0.00178927 0.00228363 0.0028952 0.0011972 0.00178927 0.00228363 0.0028952 0
0.00219175 0.00288908 0.0033117 0.00402472 0.00219175 0.00288908 0.0033117 0.00402472 0
0.00335751 0.00414664 0.0045102 0.00532676 0.00335751 0.00414664 0.0045102 0.00532676 0
-0.0040583 -0.00398894 -0.00310649 -0.00300776 -0.0040583 -0.00398894 -0.00310649 -0.00300776 0
-0.00393682 -0.00378061 -0.00294562 -0.00279247 -0.00393682 -0.00378061 -0.00294562 -0.00279247 0
-0.00367277 -0.00343667 -0.00268212 -0.00243738 -0.00367277 -0.00343667 -0.00268212 -0.00243738 0
-0.0032815 -0.00298092 -0.00227585 -0.00196809 -0.0032815 -0.00298092 -0.00227585 -0.00196809 0
-0.00278602 -0.00242577 -0.00176654 -0.00139712 -0.00278602 -0.00242577 -0.00176654 -0.00139712 0
-0.00219497 -0.00178017 -0.00115691 -0.000727633 -0.00219497 -0.00178017 -0.00115691 -0.000727633 0
-0.00151247 -0.00103466 -0.00044664 5.06215e-05 -0.00151247 -0.00103466 -0.00044664 5.06215e-05 0
-0.000721586 -0.000165624 0.000379296 0.00095574 -0.000721586 -0.000165624 0.000379296 0.00095574 0
0.000209273 0.000873608 0.00134627 0.00202979 0.000209273 0.000873608 0.00134627 0.00202979 0
0.00131157 0.00205772 0.00248456 0.00325402 0.00131157 0.00205772 0.00248456 0.00325402 0
-0.00574259 -0.0056907 -0.0047689 -0.0047126 -0.00574259 -0.0056907 -0.0047689 -0.0047126 0
-0.00565068 -0.00550844 -0.00466676 -0.00451398 -0.00565068 -0.00550844 -0.00466676 -0.00451398 0
-0.00541251 -0.00519298 -0.00441038 -0.00418157 -0.00541251 -0.00519298 -0.00441038 -0.00418157 0
-0.0050496 -0.00476221 -0.00403165 -0.00373708 -0.0050496 -0.00476221 -0.00403165 -0.00373708 0
-0.00457915 -0.00423509 -0.00354755 -0.00319467 -0.00457915 -0.00423509 -0.00354755 -0.00319467 0
-0.004021 -0.0036321 -0.00297133 -0.00256796 -0.004021 -0.0036321 -0.00297133 -0.00256796 0
-0.00338816 -0.00294519 -0.00231069 -0.00184806 -0.00338816 -0.00294519 -0.00231069 -0.00184806 0
-0.00266044 -0.00214212 -0.00154733 -0.00100761 -0.00266044 -0.00214212 -0.00154733 -0.00100761 0
-0.00179655 -0.00116893 -0.000645415 3.24039e-06 -0.00179655 -0.00116893 -0.000645415 3.24039e-06 0
-0.00076175 -5.62511e-05 0.000427695 0.00115596 -0.00076175 -5.62511e-05 0.000427695 0.00115596 0
-0.00744796 -0.00737094 -0.0064643 -0.00640733 -0.00744796 -0.00737094 -0.0064643 -0.00640733 0
-0.00733767 -0.0072378 -0.00637095 -0.00624337 -0.00733767 -0.0072378 -0.00637095 -0.00624337 0
-0.00716383 -0.00696027 -0.00615566 -0.00594339 -0.00716383 -0.00696027 -0.00615566 -0.00594339 0
-0.00682794 -0.00655275 -0.00580501 -0.00552332 -0.00682794 -0.00655275 -0.00580501 -0.00552332 0
-0.0063809 -0.00605276 -0.00534529 -0.00500839 -0.0063809 -0.00605276 -0.00534529 -0.00500839 0
-0.00585526 -0.00549274 -0.00480155 -0.00442415 -0.00585526 -0.00549274 -0.00480155 -0.00442415 0
-0.00527251 -0.0048643 -0.00419049 -0.00376267 -0.00527251 -0.0048643 -0.00419049 -0.00376267 0
-0.00460745 -0.00412622 -0.00349009 -0.00298804 -0.00460745 -0.00412622 -0.00349009 -0.00298804 0
-0.00381088 -0.00322363 -0.0026555 -0.00204496 -0.00381088 -0.00322363 -0.0026555 -0.00204496 0
-0.00284771 -0.00218115 -0.00165135 -0.00096305 -0.00284771 -0.00218115 -0.00165135 -0.00096305 0
-0.0090626 -0.00897655 -0.00806294 -0.00797465 -0.0090626 -0.00897655 -0.00806294 -0.00797465 0
-0.00891222 -0.00872001 -0.00790711 -0.00770938 -0.00891222 -0.00872001 -0.00790711 -0.00770938 0
-0.00859639 -0.00833206 -0.00758118 -0.0073111 -0.00859639 -0.00833206 -0.00758118 -0.0073111 0
-0.00817118 -0.00786022 -0.00714401 -0.00682329 -0.00817118 -0.00786022 -0.00714401 -0.00682329 0
-0.00767956 -0.00734344 -0.00663299 -0.00628201 -0.00767956 -0.00734344 -0.00663299 -0.00628201 0
-0.00714565 -0.00676935 -0.00607159 -0.00567769 -0.00714565 -0.00676935 -0.00607159 -0.00567769 0
-0.00653826 -0.00609184 -0.00543218 -0.00496638 -0.00653826 -0.00609184 -0.00543218 -0.00496638 0
-0.00580826 -0.00526861 -0.00466442 -0.00409669 -0.00580826 -0.00526861 -0.00466442 -0.00409669 0
-0.00493106 -0.00431639 -0.00373615 -0.00308989 -0.00493106 -0.00431639 -0.00373615 -0.00308989 0
-0.0107732 -0.0106793 -0.00979223 -0.00970508 -0.0107732 -0.0106793 -0.00979223 -0.00970508 0
-0.0106214 -0.0104542 -0.00964341 -0.00945978 -0.0106214 -0.0104542 -0.00964341 -0.00945978 0
-0.0103536 -0.0101262 -0.0093436 -0.00909111 -0.0103536 -0.0101262 -0.0093436 -0.00909111 0
-0.00997528 -0.00965292 -0.0089346 -0.00862361 -0.00997528 -0.00965292 -0.0089346 -0.00862361 0
-0.00947836 -0.00916845 -0.0084472 -0.00812249 -0.00947836 -0.00916845 -0.0084472 -0.00812249 0
-0.00899013 -0.00863854 -0.00793333 -0.00756879 -0.00899013 -0.00863854 -0.00793333 -0.00756879 0
-0.00842603 -0.00800279 -0.00734657 -0.00691198 -0.00842603 -0.00800279 -0.00734657 -0.00691198 0
-0.00775569 -0.00728879 -0.0066432 -0.006131 -0.00775569 -0.00728879 -0.0066432 -0.006131 0
-0.0117018 -0.0114436 -0.0107204 -0.0104125 -0.0117018 -0.0114436 -0.0107204 -0.0104125 0
-0.0113089 -0.0110429 -0.010249 -0.00995509 -0.0113089 -0.0110429 -0.010249 -0.00995509 0
-0.010889 -0.0105587 -0.00978603 -0.00944394 -0.010889 -0.0105587 -0.00978603 -0.00944394 0
-0.0103632 -0.00996302 -0.00923841 -0.0088247 -0.0103632 -0.00996302 -0.00923841 -0.0088247 0
-0.00972056 -0.00924032 -0.00858451 -0.0081265 -0.00972056 -0.00924032 -0.00858451 -0.0081265 0
0 0 0 0 0 0 0 0 0
0 0 0 0 0 0 0 0 0
0 0 0 0 0 0 0 0 0
0 0 0 0 0 0 0 0 0
0 0 0 0 0 0 0 0 0
0 0 0 0 0 0 0 0 0
0 0 0 0 0 0 0 0 0
0 0 0 0 0 0 0 0 0
0 0 0 0 0 0 0 0 0
0 0 0 0 0 0 0 0 0
0 0 0 0 0 0 0 0 0
0 0 0 0 0 0 0 0 0
0 0 0 0 0 0 0 0 0
0 0 0 0 0 0 0 0 0
0 0 0 0 0 0 0 0 0
0 0 0 0 0 0 0 0 0
0 0 0 0 0 0 0 0 0
0 0 0 0 0 0 0 0 0
0 0 0 0 0 0 0 0 0
0 0 0 0 0 0 0 0 0
0 0 0 0 0 0 0 0 0
0 0 0 0 0 0 0 0 0
0 0 0 0 0 0 0 0 0
0 0 0 0 0 0 0 0 0
0 0 0 0 0 0 0 0 0
0 0 0 0 0 0 0 0 0
0 0 0 0 0 0 0 0 0
0 0 0 0 0 0 0 0 0
0 0 0 0 0 0 0 0 0
0 0 0 0 0 0 0 0 0
0 0 0 0 0 0 0 0 0
0 0 0 0 0 0 0 0 0
0 0 0 0 0 0 0 0 0
0 0 0 0 0 0 0 0 0
0 0 0 0 0 0 0 0 0
0 0 0 0 0 0 0 0 0
0 0 0 0 0 0 0 0 0
0 0 0 0 0 0 0 0 0
0 0 0 0 0 0 0 0 0
0 0 0 0 0 0 0 0 0
0 0 0 0 0 0 0 0 0
0 0 0 0 0 0 0 0 0
0 0 0 0 0 0 0 0 0
0 0 0 0 0 0 0 0 0
0 0 0 0 0 0 0 0 0
0 0 0 0 0 0 0 0 0
0 0 0 0 0 0 0 0 0
0 0 0 0 0 0 0 0 0
0 0 0 0 0 0 0 0 0
0 0 0 0 0 0 0 0 0
0 0 0 0 0 0 0 0 0
0 0 0 0 0 0 0 0 0
0 0 0 0 0 0 0 0 0
0 0 0 0 0 0 0 0 0
0 0 0 0 0 0 0 0 0
0 0 0 0 0 0 0 0 0
0 0 0 0 0 0 0 0 0
0 0 0 0 0 0 0 0 0
0 0 0 0 0 0 0 0 0
0 0 0 0 0 0 0 0 0
0 0 0 0 0 0 0 0 0
0 0 0 0 0 0 0 0 0
0 0 0 0 0 0 0 0 0
0 0 0 0 0 0 0 0 0
0 0 0 0 0 0 0 0 0
0 0 0 0 0 0 0 0 0
0 0 0 0 0 0 0 0 0
0 0 0 0 0 0 0 0 0
0 0 0 0 0 0 0 0 0
0 0 0 0 0 0 0 0 0
0 0 0 0 0 0 0 0 0
0 0 0 0 0 0 0 0 0
0 0 0 0 0 0 0 0 0
0 0 0 0 0 0 0 0 0
0 0 0 0 0 0 0 0 0
0 0 0 0 0 0 0 0 0
0 0 0 0 0 0 0 0 0
0 0 0 0 0 0 0 0 0
0 0 0 0 0 0 0 0 0
0 0 0 0 0 0 0 0 0
0 0 0 0 0 0 0 0 0
0 0 0 0 0 0 0 0 0
0 0 0 0 0 0 0 0 0
0 0 0 0 0 0 0 0 0
0 0 0 0 0 0 0 0 0
0 0 0 0 0 0 0 0 0
0 0 0 0 0 0 0 0 0
0 0 0 0 0 0 0 0 0
0 0 0 0 0 0 0 0 0
0 0 0 0 0 0 0 0 0
0 0 0 0 0 0 0 0 0
0 0 0 0 0 0 0 0 0
0 0 0 0 0 0 0 0 0
0 0 0 0 0 0 0 0 0
0 0 0 0 0 0 0 0 0
0 0 0 0 0 0 0 0 0
0 0 0 0 0 0 0 0 0
0 0 0 0 0 0 0 0 0
0 0 0 0 0 0 0 0 0
0 0 0 0 0 0 0 0 0
0 0 0 0 0 0 0 0 0
0 0 0 0 0 0 0 0 0
0 0 0 0 0 0 0 0 0
0 0 0 0 0 0 0 0 0
0 0 0 0 0 0 0 0 0
0 0 0 0 0 0 0 0 0
0 0 0 0 0 0 0 0 0
0 0 0 0 0 0 0 0 0
0 0 0 0 0 0 0 0 0
0 0 0 0 0 0 0 0 0
0 0 0 0 0 0 0 0 0
0 0 0 0 0 0 0 0 0
0 0 0 0 0 0 0 0 0
0 0 0 0 0 0 0 0 0
0 0 0 0 0 0 0 0 0
0 0 0 0 0 0 0 0 0
0 0 0 0 0 0 0 0 0
0 0 0 0 0 0 0 0 0
0 0 0 0 0 0 0 0 0
0 0 0 0 0 0 0 0 0
0 0 0 0 0 0 0 0 0
0 0 0 0 0 0 0 0 0
0 0 0 0 0 0 0 0 0
0 0 0 0 0 0 0 0 0
0 0 0 0 0 0 0 0 0
0 0 0 0 0 0 0 0 0
0 0 0 0 0 0 0 0 0
0 0 0 0 0 0 0 0 0
0 0 0 0 0 0 0 0 0
0 0 0 0 0 0 0 0 0
0 0 0 0 0 0 0 0 0
0 0 0 0 0 0 0 0 0
0 0 0 0 0 0 0 0 0
0 0 0 0 0 0 0 0 0
0 0 0 0 0 0 0 0 0
0 0 0 0 0 0 0 0 0
0 0 0 0 0 0 0 0 0
0 0 0 0 0 0 0 0 0
0 0 0 0 0 0 0 0 0
0 0 0 0 0 0 0 0 0
0 0 0 0 0 0 0 0 0
0 0 0 0 0 0 0 0 0
0 0 0 0 0 0 0 0 0
0 0 0 0 0 0 0 0 0
0 0 0 0 0 0 0 0 0
0 0 0 0 0 0 0 0 0
0 0 0 0 0 0 0 0 0
0 0 0 0 0 0 0 0 0
0 0 0 0 0 0 0 0 0
0 0 0 0 0 0 0 0 0
0 0 0 0 0 0 0 0 0
0 0 0 0 0 0 0 0 0
0 0 0 0 0 0 0 0 0
0 0 0 0 0 0 0 0 0
0 0 0 0 0 0 0 0 0
0 0 0 0 0 0 0 0 0
0 0 0 0 0 0 0 0 0
0 0 0 0 0 0 0 0 0
0 0 0 0 0 0 0 0 0
0 0 0 0 0 0 0 0 0
0 0 0 0 0 0 0 0 0
0 0 0 0 0 0 0 0 0
0 0 0 0 0 0 0 0 0
0 0 0 0 0 0 0 0 0
0 0 0 0 0 0 0 0 0
0 0 0 0 0 0 0 0 0
0 0 0 0 0 0 0 0 0
0 0 0 0 0 0 0 0 0
0 0 0 0 0 0 0 0 0
0 0 0 0 0 0 0 0 0
0 0 0 0 0 0 0 0 0
0 0 0 0 0 0 0 0 0
0 0 0 0 0 0 0 0 0
0 0 0 0 0 0 0 0 0
0 0 0 0 0 0 0 0 0
0 0 0 0 0 0 0 0 0
0 0 0 0 0 0 0 0 0
0 0 0 0 0 0 0 0 0
0 0 0 0 0 0 0 0 0
0 0 0 0 0 0 0 0 0
0 0 0 0 0 0 0 0 0
0 0 0 0 0 0 0 0 0
0 0 0 0 0 0 0 0 0
0 0 0 0 0 0 0 0 0
0 0 0 0 0 0 0 0 0
0 0 0 0 0 0 0 0 0
0 0 0 0 0 0 0 0 0
0 0 0 0 0 0 0 0 0
0 0 0 0 0 0 0 0 0
0 0 0 0 0 0 0 0 0
0 0 0 0 0 0 0 0 0
0 0 0 0 0 0 0 0 0
0 0 0 0 0 0 0 0 0
0 0 0 0 0 0 0 0 0
0 0 0 0 0 0 0 0 0
0 0 0 0 0 0 0 0 0
0 0 0 0 0 0 0 0 0
0 0 0 0 0 0 0 0 0
0 0 0 0 0 0 0 0 0
0 0 0 0 0 0 0 0 0
0 0 0 0 0 0 0 0 0
0 0 0 0 0 0 0 0 0
0 0 0 0 0 0 0 0 0
0 0 0 0 0 0 0 0 0
0 0 0 0 0 0 0 0 0
0 0 0 0 0 0 0 0 0
0 0 0 0 0 0 0 0 0
0 0 0 0 0 0 0 0 0
0 0 0 0 0 0 0 0 0
0 0 0 0 0 0 0 0 0
0 0 0 0 0 0 0 0 0
0 0 0 0 0 0 0 0 0
0 0 0 0 0 0 0 0 0
0 0 0 0 0 0 0 0 0
0 0 0 0 0 0 0 0 0
0 0 0 0 0 0 0 0 0
0 0 0 0 0 0 0 0 0
0 0 0 0 0 0 0 0 0
0 0 0 0 0 0 0 0 0
0 0 0 0 0 0 0 0 0
0 0 0 0 0 0 0 0 0
0 0 0 0 0 0 0 0 0
0 0 0 0 0 0 0 0 0
0 0 0 0 0 0 0 0 0
0 0 0 0 0 0 0 0 0
0 0 0 0 0 0 0 0 0
0 0 0 0 0 0 0 0 0
0 0 0 0 0 0 0 0 0
0 0 0 0 0 0 0 0 0
0 0 0 0 0 0 0 0 0
0 0 0 0 0 0 0 0 0
0 0 0 0 0 0 0 0 0
0 0 0 0 0 0 0 0 0
0 0 0 0 0 0 0 0 0
0 0 0 0 0 0 0 0 0
0 0 0 0 0 0 0 0 0
0 0 0 0 0 0 0 0 0
0 0 0 0 0 0 0 0 0
0 0 0 0 0 0 0 0 0
0 0 0 0 0 0 0 0 0
0 0 0 0 0 0 0 0 0
0 0 0 0 0 0 0 0 0
0 0 0 0 0 0 0 0 0
0 0 0 0 0 0 0 0 0
0 0 0 0 0 0 0 0 0
0 0 0 0 0 0 0 0 0
0 0 0 0 0 0 0 0 0
0 0 0 0 0 0 0 0 0
0 0 0 0 0 0 0 0 0
0 0 0 0 0 0 0 0 0
0 0 0 0 0 0 0 0 0
0 0 0 0 0 0 0 0 0
0 0 0 0 0 0 0 0 0
0 0 0 0 0 0 0 0 0
0 0 0 0 0 0 0 0 0
0 0 0 0 0 0 0 0 0
0 0 0 0 0 0 0 0 0
0 0 0 0 0 0 0 0 0
0 0 0 0 0 0 0 0 0
0 0 0 0 0 0 0 0 0
0 0 0 0 0 0 0 0 0
0 0 0 0 0 0 0 0 0
0 0 0 0 0 0 0 0 0
0 0 0 0 0 0 0 0 0
0 0 0 0 0 0 0 0 0
0 0 0 0 0 0 0 0 0
0 0 0 0 0 0 0 0 0
0 0 0 0 0 0 0 0 0
0 0 0 0 0 0 0 0 0
0 0 0 0 0 0 0 0 0
0 0 0 0 0 0 0 0 0
0 0 0 0 0 0 0 0 0
0 0 0 0 0 0 0 0 0
0 0 0 0 0 0 0 0 0
0 0 0 0 0 0 0 0 0
0 0 0 0 0 0 0 0 0
0 0 0 0 0 0 0 0 0
0 0 0 0 0 0 0 0 0
0 0 0 0 0 0 0 0 0
0 0 0 0 0 0 0 0 0
0 0 0 0 0 0 0 0 0
0 0 0 0 0 0 0 0 0
0 0 0 0 0 0 0 0 0
0 0 0 0 0 0 0 0 0
0 0 0 0 0 0 0 0 0
0 0 0 0 0 0 0 0 0
0 0 0 0 0 0 0 0 0
0 0 0 0 0 0 0 0 0
0 0 0 0 0 0 0 0 0
0 0 0 0 0 0 0 0 0
0 0 0 0 0 0 0 0 0
0 0 0 0 0 0 0 0 0
0 0 0 0 0 0 0 0 0
0 0 0 0 0 0 0 0 0
0 0 0 0 0 0 0 0 0
0 0 0 0 0 0 0 0 0
0 0 0 0 0 0 0 0 0
0 0 0 0 0 0 0 0 0
0 0 0 0 0 0 0 0 0
0 0 0 0 0 0 0 0 0
0 0 0 0 0 0 0 0 0
0 0 0 0 0 0 0 0 0
0 0 0 0 0 0 0 0 0
0 0 0 0 0 0 0 0 0
0 0 0 0 0 0 0 0 0
0 0 0 0 0 0 0 0 0
0 0 0 0 0 0 0 0 0
0 0 0 0 0 0 0 0 0
0 0 0 0 0 0 0 0 0
0 0 0 0 0 0 0 0 0
0 0 0 0 0 0 0 0 0
0 0 0 0 0 0 0 0 0
0 0 0 0 0 0 0 0 0
0 0 0 0 0 0 0 0 0
0 0 0 0 0 0 0 0 0
0 0 0 0 0 0 0 0 0
0 0 0 0 0 0 0 0 0
0 0 0 0 0 0 0 0 0
0 0 0 0 0 0 0 0 0
0 0 0 0 0 0 0 0 0
0 0 0 0 0 0 0 0 0
0 0 0 0 0 0 0 0 0
0 0 0 0 0 0 0 0 0
0 0 0 0 0 0 0 0 0
0 0 0 0 0 0 0 0 0
0 0 0 0 0 0 0 0 0
0 0 0 0 0 0 0 0 0
0 0 0 0 0 0 0 0 0
0 0 0 0 0 0 0 0 0
0 0 0 0 0 0 0 0 0
0 0 0 0 0 0 0 0 0
0 0 0 0 0 0 0 0 0
0 0 0 0 0 0 0 0 0
0 0 0 0 0 0 0 0 0
0 0 0 0 0 0 0 0 0
0 0 0 0 0 0 0 0 0
0 0 0 0 0 0 0 0 0
0 0 0 0 0 0 0 0 0
0 0 0 0 0 0 0 0 0
0 0 0 0 0 0 0 0 0
0 0 0 0 0 0 0 0 0
0 0 0 0 0 0 0 0 0
0 0 0 0 0 0 0 0 0
0 0 0 0 0 0 0 0 0
0 0 0 0 0 0 0 0 0
0 0 0 0 0 0 0 0 0
0 0 0 0 0 0 0 0 0
0 0 0 0 0 0 0 0 0
0 0 0 0 0 0 0 0 0
0 0 0 0 0 0 0 0 0
0 0 0 0 0 0 0 0 0
0 0 0 0 0 0 0 0 0
0 0 0 0 0 0 0 0 0
0 0 0 0 0 0 0 0 0
0 0 0 0 0 0 0 0 0
0 0 0 0 0 0 0 0 0
0 0 0 0 0 0 0 0 0
0 0 0 0 0 0 0 0 0
0 0 0 0 0 0 0 0 0
0 0 0 0 0 0 0 0 0
0 0 0 0 0 0 0 0 0
0 0 0 0 0 0 0 0 0
0 0 0 0 0 0 0 0 0
0 0 0 0 0 0 0 0 0
0 0 0 0 0 0 0 0 0
0 0 0 0 0 0 0 0 0
0 0 0 0 0 0 0 0 0
0 0 0 0 0 0 0 0 0
0 0 0 0 0 0 0 0 0
0 0 0 0 0 0 0 0 0
0 0 0 0 0 0 0 0 0
0 0 0 0 0 0 0 0 0
0 0 0 0 0 0 0 0 0
0 0 0 0 0 0 0 0 0
0 0 0 0 0 0 0 0 0
0 0 0 0 0 0 0 0 0
0 0 0 0 0 0 0 0 0
0 0 0 0 0 0 0 0 0
0 0 0 0 0 0 0 0 0
0 0 0 0 0 0 0 0 0
0 0 0 0 0 0 0 0 0
0 0 0 0 0 0 0 0 0
0 0 0 0 0 0 0 0 0
0 0 0 0 0 0 0 0 0
0 0 0 0 0 0 0 0 0
0 0 0 0 0 0 0 0 0
0 0 0 0 0 0 0 0 0
0 0 0 0 0 0 0 0 0
0 0 0 0 0 0 0 0 0
0 0 0 0 0 0 0 0 0
0 0 0 0 0 0 0 0 0
0 0 0 0 0 0 0 0 0
0 0 0 0 0 0 0 0 0
0 0 0 0 0 0 0 0 0
0 0 0 0 0 0 0 0 0
0 0 0 0 0 0 0 0 0
0 0 0 0 0 0 0 0 0
0 0 0 0 0 0 0 0 0
0 0 0 0 0 0 0 0 0
0 0 0 0 0 0 0 0 0
0 0 0 0 0 0 0 0 0
0 0 0 0 0 0 0 0 0
0 0 0 0 0 0 0 0 0
0 0 0 0 0 0 0 0 0
0 0 0 0 0 0 0 0 0
0 0 0 0 0 0 0 0 0
0 0 0 0 0 0 0 0 0
0 0 0 0 0 0 0 0 0
0 0 0 0 0 0 0 0 0
0 0 0 0 0 0 0 0 0
0 0 0 0 0 0 0 0 0
0 0 0 0 0 0 0 0 0
0 0 0 0 0 0 0 0 0
0 0 0 0 0 0 0 0 0
0 0 0 0 0 0 0 0 0
0 0 0 0 0 0 0 0 0
0 0 0 0 0 0 0 0 0
0 0 0 0 0 0 0 0 0
0 0 0 0 0 0 0 0 0
0 0 0 0 0 0 0 0 0
0 0 0 0 0 0 0 0 0
0 0 0 0 0 0 0 0 0
0 0 0 0 0 0 0 0 0
0 0 0 0 0 0 0 0 0
0 0 0 0 0 0 0 0 0
0 0 0 0 0 0 0 0 0
0 0 0 0 0 0 0 0 0
0 0 0 0 0 0 0 0 0
0 0 0 0 0 0 0 0 0
0 0 0 0 0 0 0 0 0
0 0 0 0 0 0 0 0 0
0 0 0 0 0 0 0 0 0
0 0 0 0 0 0 0 0 0
0 0 0 0 0 0 0 0 0
0 0 0 0 0 0 0 0 0
0 0 0 0 0 0 0 0 0
0 0 0 0 0 0 0 0 0
0 0 0 0 0 0 0 0 0
0 0 0 0 0 0 0 0 0
0 0 0 0 0 0 0 0 0
0 0 0 0 0 0 0 0 0
0 0 0 0 0 0 0 0 0
0 0 0 0 0 0 0 0 0
0 0 0 0 0 0 0 0 0
0 0 0 0 0 0 0 0 0
0 0 0 0 0 0 0 0 0
0 0 0 0 0 0 0 0 0
0 0 0 0 0 0 0 0 0
0 0 0 0 0 0 0 0 0
0 0 0 0 0 0 0 0 0
0 0 0 0 0 0 0 0 0
0 0 0 0 0 0 0 0 0
0 0 0 0 0 0 0 0 0
0 0 0 0 0 0 0 0 0
0 0 0 0 0 0 0 0 0
0 0 0 0 0 0 0 0 0
0 0 0 0 0 0 0 0 0
0 0 0 0 0 0 0 0 0
0 0 0 0 0 0 0 0 0
0 0 0 0 0 0 0 0 0
0 0 0 0 0 0 0 0 0
0 0 0 0 0 0 0 0 0
0 0 0 0 0 0 0 0 0
0 0 0 0 0 0 0 0 0
0 0 0 0 0 0 0 0 0
0 0 0 0 0 0 0 0 0
0 0 0 0 0 0 0 0 0
0 0 0 0 0 0 0 0 0
0 0 0 0 0 0 0 0 0
0 0 0 0 0 0 0 0 0
0 0 0 0 0 0 0 0 0
0 0 0 0 0 0 0 0 0
0 0 0 0 0 0 0 0 0
0 0 0 0 0 0 0 0 0
0 0 0 0 0 0 0 0 0
0 0 0 0 0 0 0 0 0
0 0 0 0 0 0 0 0 0
0 0 0 0 0 0 0 0 0
0 0 0 0 0 0 0 0 0
0 0 0 0 0 0 0 0 0
0 0 0 0 0 0 0 0 0
0 0 0 0 0 0 0 0 0
0 0 0 0 0 0 0 0 0
0 0 0 0 0 0 0 0 0
0 0 0 0 0 0 0 0 0
0 0 0 0 0 0 0 0 0
0 0 0 0 0 0 0 0 0
0 0 0 0 0 0 0 0 0
0 0 0 0 0 0 0 0 0
0 0 0 0 0 0 0 0 0
0 0 0 0 0 0 0 0 0
0 0 0 0 0 0 0 0 0
0 0 0 0 0 0 0 0 0
0 0 0 0 0 0 0 0 0
0 0 0 0 0 0 0 0 0
0 0 0 0 0 0 0 0 0
0 0 0 0 0 0 0 0 0
0 0 0 0 0 0 0 0 0
0 0 0 0 0 0 0 0 0
0 0 0 0 0 0 0 0 0
0 0 0 0 0 0 0 0 0
0 0 0 0 0 0 0 0 0
0 0 0 0 0 0 0 0 0
0 0 0 0 0 0 0 0 0
0 0 0 0 0 0 0 0 0
0 0 0 0 0 0 0 0 0
0 0 0 0 0 0 0 0 0
0 0 0 0 0 0 0 0 0
0 0 0 0 0 0 0 0 0
0 0 0 0 0 0 0 0 0
0 0 0 0 0 0 0 0 0
0 0 0 0 0 0 0 0 0
0 0 0 0 0 0 0 0 0
0 0 0 0 0 0 0 0 0
0 0 0 0 0 0 0 0 0
0 0 0 0 0 0 0 0 0
0 0 0 0 0 0 0 0 0
0 0 0 0 0 0 0 0 0
0 0 0 0 0 0 0 0 0
0 0 0 0 0 0 0 0 0
0 0 0 0 0 0 0 0 0
0 0 0 0 0 0 0 0 0
0 0 0 0 0 0 0 0 0
0 0 0 0 0 0 0 0 0
0 0 0 0 0 0 0 0 0
0 0 0 0 0 0 0 0 0
0 0 0 0 0 0 0 0 0
0 0 0 0 0 0 0 0 0
0 0 0 0 0 0 0 0 0
0 0 0 0 0 0 0 0 0
0 0 0 0 0 0 0 0 0
0 0 0 0 0 0 0 0 0
0 0 0 0 0 0 0 0 0
0 0 0 0 0 0 0 0 0
0 0 0 0 0 0 0 0 0
0 0 0 0 0 0 0 0 0
0 0 0 0 0 0 0 0 0
0 0 0 0 0 0 0 0 0
0 0 0 0 0 0 0 0 0
0 0 0 0 0 0 0 0 0
0 0 0 0 0 0 0 0 0
0 0 0 0 0 0 0 0 0
0 0 0 0 0 0 0 0 0
0 0 0 0 0 0 0 0 0
0 0 0 0 0 0 0 0 0
0 0 0 0 0 0 0 0 0
0.0005647 0.000695975 0.00100047 0.00113537 0.0005647 0.000695975 0.00100047 0.00113537 0
0.000773642 0.0009038 0.00121988 0.00136421 0.000773642 0.0009038 0.00121988 0.00136421 0
0.00098999 0.0011519 0.00146374 0.00164692 0.00098999 0.0011519 0.00146374 0.00164692 0
0.00126903 0.00149128 0.00177645 0.00201015 0.00126903 0.00149128 0.00177645 0.00201015 0
0.00165069 0.00193591 0.00217522 0.00246318 0.00165069 0.00193591 0.00217522 0.00246318 0
0.00213363 0.00246864 0.00266247 0.00299754 0.00213363 0.00246864 0.00266247 0.00299754 0
0.00269283 0.00305856 0.00322854 0.00361116 0.00269283 0.00305856 0.00322854 0.00361116 0
0.00331656 0.00375221 0.00388564 0.00434758 0.00331656 0.00375221 0.00388564 0.00434758 0
-0.000281409 -0.000168627 0.000217665 0.000342687 -0.000281409 -0.000168627 0.000217665 0.000342687 0
-0.000102993 1.45542e-05 0.000414974 0.000537617 -0.000102993 1.45542e-05 0.000414974 0.000537617 0
9.16271e-05 0.000243321 0.000617438 0.000770553 9.16271e-05 0.000243321 0.000617438 0.000770553 0
0.00035054 0.000558354 0.000881322 0.00109626 0.00035054 0.000558354 0.000881322 0.00109626 0
0.000704979 0.000972507 0.0012503 0.00152963 0.000704979 0.000972507 0.0012503 0.00152963 0
0.00115512 0.0014697 0.00172242 0.00205151 0.00115512 0.0014697 0.00172242 0.00205151 0
0.00167682 0.00201992 0.00226878 0.00262347 0.00167682 0.00201992 0.00226878 0.00262347 0
0.00225428 0.00265197 0.00287016 0.00328813 0.00225428 0.00265197 0.00287016 0.00328813 0
0.00292499 0.00338241 0.00356901 0.00402551 0.00292499 0.00338241 0.00356901 0.00402551 0
-0.00115873 -0.00106108 -0.000653597 -0.000548464 -0.00115873 -0.00106108 -0.000653597 -0.000548464 0
-0.00100298 -0.000889294 -0.00048692 -0.0003721 -0.00100298 -0.000889294 -0.00048692 -0.0003721 0
-0.000816296 -0.000669962 -0.000297165 -0.00014763 -0.000816296 -0.000669962 -0.000297165 -0.00014763 0
-0.000569906 -0.000374049 -4.36216e-05 0.000158718 -0.000569906 -0.000374049 -4.36216e-05 0.000158718 0
-0.000240528 5.76171e-06 0.000299472 0.000557764 -0.000240528 5.76171e-06 0.000299472 0.000557764 0
0.000169885 0.000458142 0.000732287 0.00103552 0.000169885 0.000458142 0.000732287 0.00103552 0
0.000645894 0.00096576 0.00123427 0.00156762 0.000645894 0.00096576 0.00123427 0.00156762 0
0.00118339 0.00156244 0.00179367 0.0021805 0.00118339 0.00156244 0.00179367 0.0021805 0
0.00181571 0.0022422 0.00244555 0.00289445 0.00181571 0.0022422 0.00244555 0.00289445 0
-0.00210058 -0.00206364 -0.00162304 -0.00156909 -0.00210058 -0.00206364 -0.00162304 -0.00156909 0
-0.00203826 -0.00195978 -0.00153294 -0.00144273 -0.00203826 -0.00195978 -0.00153294 -0.00144273 0
-0.00191119 -0.00180285 -0.00138834 -0.0012767 -0.00191119 -0.00180285 -0.00138834 -0.0012767 0
-0.00173453 -0.0015939 -0.00120574 -0.00106212 -0.00173453 -0.0015939 -0.00120574 -0.00106212 0
-0.00150106 -0.00131718 -0.000965343 -0.000774772 -0.00150106 -0.00131718 -0.000965343 -0.000774772 0
-0.00119698 -0.000972747 -0.000647075 -0.000410269 -0.00119698 -0.000972747 -0.000647075 -0.000410269 0
-0.000827982 -0.000567827 -0.000254469 2.18694e-05 -0.000827982 -0.000567827 -0.000254469 2.18694e-05 0
-0.000400667 -0.000105827 0.000200767 0.000509919 -0.000400667 -0.000105827 0.000200767 0.000509919 0
9.45271e-05 0.000455007 0.000720223 0.00109181 9.45271e-05 0.000455007 0.000720223 0.00109181 0
0.000689047 0.00108569 0.00133627 0.00174831 0.000689047 0.00108569 0.00133627 0.00174831 0
-0.00296335 -0.00294096 -0.00246218 -0.00243398 -0.00296335 -0.00294096 -0.00246218 -0.00243398 0
-0.00292652 -0.00286236 -0.0024146 -0.0023434 -0.00292652 -0.00286236 -0.0024146 -0.0023434 0
-0.00282311 -0.00272473 -0.00229906 -0.00219457 -0.00282311 -0.00272473 -0.00229906 -0.00219457 0
-0.00266342 -0.00253048 -0.00212905 -0.00199159 -0.00266342 -0.00253048 -0.00212905 -0.00199159 0
-0.00244533 -0.00227297 -0.00190209 -0.00172341 -0.00244533 -0.00227297 -0.00190209 -0.00172341 0
-0.00216583 -0.00196364 -0.00160897 -0.00139434 -0.00216583 -0.00196364 -0.00160897 -0.00139434 0
-0.0018384 -0.00160705 -0.00125804 -0.00101029 -0.0018384 -0.00160705 -0.00125804 -0.00101029 0
-0.00146142 -0.00119372 -0.000852355 -0.000568986 -0.00146142 -0.00119372 -0.000852355 -0.000568986 0
-0.00101308 -0.000676009 -0.000376934 -2.60823e-05 -0.00101308 -0.000676009 -0.000376934 -2.60823e-05 0
-0.000462417 -9.43881e-05 0.000199278 0.000583727 -0.000462417 -9.43881e-05 0.000199278 0.000583727 0
-0.00383827 -0.00379656 -0.00333432 -0.00330858 -0.00383827 -0.00379656 -0.00333432 -0.00330858 0
-0.0037873 -0.00375581 -0.00329699 -0.00324375 -0.0037873 -0.00375581 -0.00329699 -0.00324375 0
-0.00373463 -0.00365186 -0.00321085 -0.00311857 -0.00373463 -0.00365186 -0.00321085 -0.00311857 0
-0.0035996 -0.00347449 -0.00306097 -0.00293162 -0.0035996 -0.00347449 -0.00306097 -0.00293162 0
-0.0033966 -0.00323467 -0.00284975 -0.00268217 -0.0033966 -0.00323467 -0.00284975 -0.00268217 0
-0.00314042 -0.00296114 -0.00258062 -0.0023882 -0.00314042 -0.00296114 -0.00258062 -0.0023882 0
-0.00285642 -0.00265606 -0.00227162 -0.00205328 -0.00285642 -0.00265606 -0.00227162 -0.00205328 0
-0.00253271 -0.00229232 -0.00191714 -0.00166129 -0.00253271 -0.00229232 -0.00191714 -0.00166129 0
-0.00213216 -0.00182072 -0.00148945 -0.00116328 -0.00213216 -0.00182072 -0.00148945 -0.00116328 0
-0.00162579 -0.00127958 -0.000958149 -0.000600725 -0.00162579 -0.00127958 -0.000958149 -0.000600725 0
-0.00467596 -0.0046609 -0.00415916 -0.00413816 -0.00467596 -0.0046609 -0.00415916 -0.00413816 0
-0.00465093 -0.00458156 -0.0041232 -0.00404683 -0.00465093 -0.00458156 -0.0041232 -0.00404683 0
-0.0045377 -0.00442108 -0.00399835 -0.0038769 -0.0045377 -0.00442108 -0.00399835 -0.0038769 0
-0.00435056 -0.00419902 -0.00380214 -0.00364478 -0.00435056 -0.00419902 -0.00380214 -0.00364478 0
-0.00411822 -0.00396376 -0.00355618 -0.00338734 -0.00411822 -0.00396376 -0.00355618 -0.00338734 0
-0.00388047 -0.00371199 -0.00329165 -0.00310493 -0.00388047 -0.00371199 -0.00329165 -0.00310493 0
-0.00361059 -0.00339609 -0.00299101 -0.00276199 -0.00361059 -0.00339609 -0.00299101 -0.00276199 0
-0.00324959 -0.00294698 -0.00260876 -0.00230392 -0.00324959 -0.00294698 -0.00260876 -0.00230392 0
-0.00277545 -0.0024812 -0.00211819 -0.00178921 -0.00277545 -0.0024812 -0.00211819 -0.00178921 0
-0.00557983 -0.00555838 -0.00505865 -0.00504371 -0.00557983 -0.00555838 -0.00505865 -0.00504371 0
-0.00555257 -0.00550043 -0.00503621 -0.00497357 -0.00555257 -0.00550043 -0.00503621 -0.00497357 0
-0.00547069 -0.0053747 -0.00493475 -0.00482517 -0.00547069 -0.0053747 -0.00493475 -0.00482517 0
-0.00530736 -0.00514284 -0.00475666 -0.00460344 -0.00530736 -0.00514284 -0.00475666 -0.00460344 0
-0.00506706 -0.00493805 -0.00452609 -0.00438253 -0.00506706 -0.00493805 -0.00452609 -0.00438253 0
-0.00487762 -0.00474462 -0.0043087 -0.00415485 -0.00487762 -0.00474462 -0.0043087 -0.00415485 0
-0.00466382 -0.00446824 -0.00406234 -0.00385704 -0.00466382 -0.00446824 -0.00406234 -0.00385704 0
-0.00434287 -0.00407671 -0.00371806 -0.00342605 -0.00434287 -0.00407671 -0.00371806 -0.00342605 0
-0.00624966 -0.00614574 -0.00570954 -0.00555842 -0.00624966 -0.00614574 -0.00570954 -0.00555842 0
-0.00610476 -0.00600938 -0.00549229 -0.00537639 -0.00610476 -0.00600938 -0.00549229 -0.00537639 0
-0.00595673 -0.00581024 -0.00532152 -0.00519068 -0.00595673 -0.00581024 -0.00532152 -0.00519068 0
-0.00573177 -0.0055546 -0.00511353 -0.00492568 -0.00573177 -0.0055546 -0.00511353 -0.00492568 0
-0.0054397 -0.00518187 -0.00480668 -0.00454985 -0.0054397 -0.00518187 -0.00480668 -0.00454985 0
0 0 0 0 0 0 0 0 0
0 0 0 0 0 0 0 0 0
0 0 0 0 0 0 0 0 0
0 0 0 0 0 0 0 0 0
0 0 0 0 0 0 0 0 0
0 0 0 0 0 0 0 0 0
0 0 0 0 0 0 0 0 0
0 0 0 0 0 0 0 0 0
0 0 0 0 0 0 0 0 0
0 0 0 0 0 0 0 0 0
0 0 0 0 0 0 0 0 0
0 0 0 0 0 0 0 0 0
0 0 0 0 0 0 0 0 0
0 0 0 0 0 0 0 0 0
0 0 0 0 0 0 0 0 0
0 0 0 0 0 0 0 0 0
0 0 0 0 0 0 0 0 0
0 0 0 0 0 0 0 0 0
0 0 0 0 0 0 0 0 0
0 0 0 0 0 0 0 0 0
0 0 0 0 0 0 0 0 0
0 0 0 0 0 0 0 0 0
0 0 0 0 0 0 0 0 0
0 0 0 0 0 0 0 0 0
0 0 0 0 0 0 0 0 0
0 0 0 0 0 0 0 0 0
0 0 0 0 0 0 0 0 0
0 0 0 0 0 0 0 0 0
0 0 0 0 0 0 0 0 0
0 0 0 0 0 0 0 0 0
0 0 0 0 0 0 0 0 0
0 0 0 0 0 0 0 0 0
0 0 0 0 0 0 0 0 0
0 0 0 0 0 0 0 0 0
0 0 0 0 0 0 0 0 0
0 0 0 0 0 0 0 0 0
0 0 0 0 0 0 0 0 0
0 0 0 0 0 0 0 0 0
0 0 0 0 0 0 0 0 0
0 0 0 0 0 0 0 0 0
0 0 0 0 0 0 0 0 0
0 0 0 0 0 0 0 0 0
0 0 0 0 0 0 0 0 0
0 0 0 0 0 0 0 0 0
0 0 0 0 0 0 0 0 0
0 0 0 0 0 0 0 0 0
0 0 0 0 0 0 0 0 0
0 0 0 0 0 0 0 0 0
0 0 0 0 0 0 0 0 0
0 0 0 0 0 0 0 0 0
0 0 0 0 0 0 0 0 0
0 0 0 0 0 0 0 0 0
0 0 0 0 0 0 0 0 0
0 0 0 0 0 0 0 0 0
0 0 0 0 0 0 0 0 0
0 0 0 0 0 0 0 0 0
0 0 0 0 0 0 0 0 0
0 0 0 0 0 0 0 0 0
0 0 0 0 0 0 0 0 0
0 0 0 0 0 0 0 0 0
0 0 0 0 0 0 0 0 0
0 0 0 0 0 0 0 0 0
0 0 0 0 0 0 0 0 0
0 0 0 0 0 0 0 0 0
0 0 0 0 0 0 0 0 0
0 0 0 0 0 0 0 0 0
0 0 0 0 0 0 0 0 0
0 0 0 0 0 0 0 0 0
0 0 0 0 0 0 0 0 0
0 0 0 0 0 0 0 0 0
0 0 0 0 0 0 0 0 0
0 0 0 0 0 0 0 0 0
0 0 0 0 0 0 0 0 0
0 0 0 0 0 0 0 0 0
0 0 0 0 0 0 0 0 0
0 0 0 0 0 0 0 0 0
0 0 0 0 0 0 0 0 0
0 0 0 0 0 0 0 0 0
-0.00209245 -0.00205526 -0.00160366 -0.00155145 -0.00209245 -0.00205526 -0.00160366 -0.00155145 0
-0.0020489 -0.00202078 -0.00153372 -0.00149044 -0.0020489 -0.00202078 -0.00153372 -0.00149044 0
-0.00201001 -0.00195369 -0.00146611 -0.0013889 -0.00201001 -0.00195369 -0.00146611 -0.0013889 0
-0.00191419 -0.00180029 -0.00133793 -0.00121467 -0.00191419 -0.00180029 -0.00133793 -0.00121467 0
-0.00172337 -0.00155727 -0.00113404 -0.000968379 -0.00172337 -0.00155727 -0.00113404 -0.000968379 0
-0.00145283 -0.00125592 -0.000864137 -0.000668702 -0.00145283 -0.00125592 -0.000864137 -0.000668702 0
-0.00114122 -0.00093908 -0.000547951 -0.000329398 -0.00114122 -0.00093908 -0.000547951 -0.000329398 0
-0.000809825 -0.000565138 -0.000189033 6.77968e-05 -0.000809825 -0.000565138 -0.000189033 6.77968e-05 0
-0.00302359 -0.00300051 -0.00247622 -0.00244715 -0.00302359 -0.00300051 -0.00247622 -0.00244715 0
-0.00300296 -0.00298313 -0.0024465 -0.00242498 -0.00300296 -0.00298313 -0.0024465 -0.00242498 0
-0.00297896 -0.00293035 -0.00241995 -0.00237163 -0.00297896 -0.00293035 -0.00241995 -0.00237163 0
-0.00289946 -0.00279897 -0.00233789 -0.00223044 -0.00289946 -0.00279897 -0.00233789 -0.00223044 0
-0.0027333 -0.00258177 -0.00215795 -0.00199601 -0.0027333 -0.00258177 -0.00215795 -0.00199601 0
-0.00248954 -0.0023083 -0.00189525 -0.00170254 -0.00248954 -0.0023083 -0.00189525 -0.00170254 0
-0.00220625 -0.00201957 -0.00159335 -0.00140017 -0.00220625 -0.00201957 -0.00159335 -0.00140017 0
-0.00190727 -0.00168959 -0.00127898 -0.00104522 -0.00190727 -0.00168959 -0.00127898 -0.00104522 0
-0.0015561 -0.00130306 -0.000906331 -0.000656659 -0.0015561 -0.00130306 -0.000906331 -0.000656659 0
-0.00399622 -0.00398286 -0.00343399 -0.00341541 -0.00399622 -0.00398286 -0.00343399 -0.00341541 0
-0.00398864 -0.00396659 -0.00341986 -0.0034002 -0.00398864 -0.00396659 -0.00341986 -0.0034002 0
-0.00396294 -0.00391609 -0.00339669 -0.00334881 -0.00396294 -0.00391609 -0.00339669 -0.00334881 0
-0.00389063 -0.00380102 -0.00332046 -0.00322509 -0.00389063 -0.00380102 -0.00332046 -0.00322509 0
-0.00374789 -0.00361718 -0.00316496 -0.00302217 -0.00374789 -0.00361718 -0.00316496 -0.00302217 0
-0.00354215 -0.00338418 -0.00293722 -0.00276567 -0.00354215 -0.00338418 -0.00293722 -0.00276567 0
-0.00329786 -0.00312761 -0.00267019 -0.00249005 -0.00329786 -0.00312761 -0.00267019 -0.00249005 0
-0.00302558 -0.00281579 -0.00238338 -0.00217255 -0.00302558 -0.00281579 -0.00238338 -0.00217255 0
-0.00269453 -0.00246279 -0.00204433 -0.00179652 -0.00269453 -0.00246279 -0.00204433 -0.00179652 0
-0.00493587 -0.00496153 -0.0043942 -0.00440001 -0.00493587 -0.00496153 -0.0043942 -0.00440001 0
-0.0049861 -0.00498274 -0.004415 -0.00440601 -0.0049861 -0.00498274 -0.004415 -0.00440601 0
-0.00499244 -0.00496972 -0.00441342 -0.00439085 -0.00499244 -0.00496972 -0.00441342 -0.00439085 0
-0.00496714 -0.00492224 -0.0043877 -0.00434196 -0.00496714 -0.00492224 -0.0043877 -0.00434196 0
-0.00490195 -0.00482255 -0.00431893 -0.00423392 -0.00490195 -0.00482255 -0.00431893 -0.00423392 0
-0.00478183 -0.00467253 -0.00418629 -0.0040649 -0.00478183 -0.00467253 -0.00418629 -0.0040649 0
-0.00461571 -0.00448345 -0.00399773 -0.00385065 -0.00461571 -0.00448345 -0.00399773 -0.00385065 0
-0.00441444 -0.00426271 -0.0037718 -0.00360952 -0.00441444 -0.00426271 -0.0037718 -0.00360952 0
-0.00417235 -0.00397244 -0.00351228 -0.00330581 -0.00417235 -0.00397244 -0.00351228 -0.00330581 0
-0.00386243 -0.00364755 -0.00318991 -0.00296739 -0.00386243 -0.00364755 -0.00318991 -0.00296739 0
-0.00590232 -0.005945 -0.00534215 -0.00537796 -0.00590232 -0.005945 -0.00534215 -0.00537796 0
-0.0059803 -0.00598823 -0.00540815 -0.0054096 -0.0059803 -0.00598823 -0.00540815 -0.0054096 0
-0.006005 -0.00598908 -0.005422 -0.00540134 -0.006005 -0.00598908 -0.005422 -0.00540134 0
-0.00599078 -0.00594929 -0.00540027 -0.00535679 -0.00599078 -0.00594929 -0.00540027 -0.00535679 0
-0.00593428 -0.00586413 -0.00533886 -0.00526374 -0.00593428 -0.00586413 -0.00533886 -0.00526374 0
-0.00583536 -0.00574738 -0.00522832 -0.00512828 -0.00583536 -0.00574738 -0.00522832 -0.00512828 0
-0.00570894 -0.00560319 -0.00507943 -0.00495857 -0.00570894 -0.00560319 -0.00507943 -0.00495857 0
-0.00555258 -0.00542184 -0.00489742 -0.00475447 -0.00555258 -0.00542184 -0.00489742 -0.00475447 0
-0.00534582 -0.00516086 -0.00467014 -0.00447635 -0.00534582 -0.00516086 -0.00467014 -0.00447635 0
-0.00506396 -0.00486622 -0.00437182 -0.00416395 -0.00506396 -0.00486622 -0.00437182 -0.00416395 0
-0.00688917 -0.00690908 -0.00631879 -0.00635746 -0.00688917 -0.00690908 -0.00631879 -0.00635746 0
-0.00694837 -0.00698919 -0.00639534 -0.00641407 -0.00694837 -0.00698919 -0.00639534 -0.00641407 0
-0.00702369 -0.00702229 -0.0064369 -0.00642641 -0.00702369 -0.00702229 -0.0064369 -0.00642641 0
-0.00703105 -0.00699306 -0.00643089 -0.00639114 -0.00703105 -0.00699306 -0.00643089 -0.00639114 0
-0.00698271 -0.00692029 -0.00637831 -0.00631184 -0.00698271 -0.00692029 -0.00637831 -0.00631184 0
-0.00690341 -0.00683841 -0.0062882 -0.0062099 -0.00690341 -0.00683841 -0.0062882 -0.0062099 0
-0.00681989 -0.00674343 -0.00617977 -0.00608621 -0.00681989 -0.00674343 -0.00617977 -0.00608621 0
-0.00671176 -0.00660096 -0.00604371 -0.00592189 -0.00671176 -0.00660096 -0.00604371 -0.00592189 0
-0.00653971 -0.00637224 -0.0058523 -0.00567471 -0.00653971 -0.00637224 -0.0058523 -0.00567471 0
-0.00628654 -0.00609847 -0.00558315 -0.00539105 -0.00628654 -0.00609847 -0.00558315 -0.00539105 0
-0.0079465 -0.00800828 -0.00736602 -0.00741861 -0.0079465 -0.00800828 -0.00736602 -0.00741861 0
-0.00805558 -0.00806738 -0.00745974 -0.00746456 -0.00805558 -0.00806738 -0.00745974 -0.00746456 0
-0.00808193 -0.00804554 -0.0074761 -0.00743926 -0.00808193 -0.00804554 -0.0074761 -0.00743926 0
-0.00803909 -0.00798448 -0.0074307 -0.00737171 -0.00803909 -0.00798448 -0.0074307 -0.00737171 0
-0.00798085 -0.0079427 -0.00736028 -0.00730629 -0.00798085 -0.0079427 -0.00736028 -0.00730629 0
-0.0079462 -0.00790124 -0.00729687 -0.0072337 -0.0079462 -0.00790124 -0.00729687 -0.0072337 0
-0.0078886 -0.00779614 -0.00721015 -0.00710747 -0.0078886 -0.00779614 -0.00721015 -0.00710747 0
-0.00773859 -0.00756034 -0.00704958 -0.00688221 -0.00773859 -0.00756034 -0.00704958 -0.00688221 0
-0.00749278 -0.00736196 -0.00680312 -0.00663176 -0.00749278 -0.00736196 -0.00680312 -0.00663176 0
-0.00895671 -0.00902064 -0.00837437 -0.00843942 -0.00895671 -0.00902064 -0.00837437 -0.00843942 0
-0.00907353 -0.00909796 -0.00848989 -0.00850716 -0.00907353 -0.00909796 -0.00848989 -0.00850716 0
-0.00912163 -0.00909681 -0.00852497 -0.00849202 -0.00912163 -0.00909681 -0.00852497 -0.00849202 0
-0.00909915 -0.00905597 -0.0084885 -0.00843835 -0.00909915 -0.00905597 -0.0084885 -0.00843835 0
-0.00906731 -0.00905744 -0.00844082 -0.00841471 -0.00906731 -0.00905744 -0.00844082 -0.00841471 0
-0.00908383 -0.00907165 -0.0084278 -0.00839672 -0.00908383 -0.00907165 -0.0084278 -0.00839672 0
-0.00907354 -0.00898616 -0.00839092 -0.00830277 -0.00907354 -0.00898616 -0.00839092 -0.00830277 0
-0.00893656 -0.00877268 -0.00824749 -0.00807041 -0.00893656 -0.00877268 -0.00824749 -0.00807041 0
-0.0101379 -0.0101412 -0.00954277 -0.00951412 -0.0101379 -0.0101412 -0.00954277 -0.00951412 0
-0.0101798 -0.0101967 -0.00953503 -0.00953688 -0.0101798 -0.0101967 -0.00953503 -0.00953688 0
-0.0102313 -0.0102135 -0.0095689 -0.00956045 -0.0102313 -0.0102135 -0.0095689 -0.00956045 0
-0.010222 -0.010157 -0.00956608 -0.00948505 -0.010222 -0.010157 -0.00956608 -0.00948505 0
-0.010119 -0.00996272 -0.00944001 -0.00928186 -0.010119 -0.00996272 -0.00944001 -0.00928186 0
0 0 0 0 0 0 0 0 0
0 0 0 0 0 0 0 0 0
0 0 0 0 0 0 0 0 0
0 0 0 0 0 0 0 0 0
0 0 0 0 0 0 0 0 0
0 0 0 0 0 0 0 0 0
0 0 0 0 0 0 0 0 0
0 0 0 0 0 0 0 0 0
0 0 0 0 0 0 0 0 0
0 0 0 0 0 0 0 0 0
0 0 0 0 0 0 0 0 0
0 0 0 0 0 0 0 0 0
0 0 0 0 0 0 0 0 0
0 0 0 0 0 0 0 0 0
0 0 0 0 0 0 0 0 0
0 0 0 0 0 0 0 0 0
0 0 0 0 0 0 0 0 0
0 0 0 0 0 0 0 0 0
0 0 0 0 0 0 0 0 0
0 0 0 0 0 0 0 0 0
0 0 0 0 0 0 0 0 0
0 0 0 0 0 0 0 0 0
0 0 0 0 0 0 0 0 0
0 0 0 0 0 0 0 0 0
0 0 0 0 0 0 0 0 0
0 0 0 0 0 0 0 0 0
0 0 0 0 0 0 0 0 0
0 0 0 0 0 0 0 0 0
0 0 0 0 0 0 0 0 0
0 0 0 0 0 0 0 0 0
0 0 0 0 0 0 0 0 0
0 0 0 0 0 0 0 0 0
0 0 0 0 0 0 0 0 0
0 0 0 0 0 0 0 0 0
0 0 0 0 0 0 0 0 0
0 0 0 0 0 0 0 0 0
0 0 0 0 0 0 0 0 0
0 0 0 0 0 0 0 0 0
0 0 0 0 0 0 0 0 0
0 0 0 0 0 0 0 0 0
0 0 0 0 0 0 0 0 0
0 0 0 0 0 0 0 0 0
0 0 0 0 0 0 0 0 0
0 0 0 0 0 0 0 0 0
0 0 0 0 0 0 0 0 0
0 0 0 0 0 0 0 0 0
0 0 0 0 0 0 0 0 0
0 0 0 0 0 0 0 0 0
0 0 0 0 0 0 0 0 0
0 0 0 0 0 0 0 0 0
0 0 0 0 0 0 0 0 0
0 0 0 0 0 0 0 0 0
0 0 0 0 0 0 0 0 0
0 0 0 0 0 0 0 0 0
0 0 0 0 0 0 0 0 0
0 0 0 0 0 0 0 0 0
0 0 0 0 0 0 0 0 0
0 0 0 0 0 0 0 0 0
0 0 0 0 0 0 0 0 0
0 0 0 0 0 0 0 0 0
0 0 0 0 0 0 0 0 0
0 0 0 0 0 0 0 0 0
0 0 0 0 0 0 0 0 0
0 0 0 0 0 0 0 0 0
0 0 0 0 0 0 0 0 0
0 0 0 0 0 0 0 0 0
0 0 0 0 0 0 0 0 0
0 0 0 0 0 0 0 0 0
0 0 0 0 0 0 0 0 0
0 0 0 0 0 0 0 0 0
0 0 0 0 0 0 0 0 0
0 0 0 0 0 0 0 0 0
0 0 0 0 0 0 0 0 0
0 0 0 0 0 0 0 0 0
0 0 0 0 0 0 0 0 0
0 0 0 0 0 0 0 0 0
0 0 0 0 0 0 0 0 0
0 0 0 0 0 0 0 0 0
0 0 0 0 0 0 0 0 0
0 0 0 0 0 0 0 0 0
0 0 0 0 0 0 0 0 0
0 0 0 0 0 0 0 0 0
0 0 0 0 0 0 0 0 0
0 0 0 0 0 0 0 0 0
0 0 0 0 0 0 0 0 0
0 0 0 0 0 0 0 0 0
0 0 0 0 0 0 0 0 0
0 0 0 0 0 0 0 0 0
0 0 0 0 0 0 0 0 0
0 0 0 0 0 0 0 0 0
0 0 0 0 0 0 0 0 0
0 0 0 0 0 0 0 0 0
0 0 0 0 0 0 0 0 0
0 0 0 0 0 0 0 0 0
0 0 0 0 0 0 0 0 0
0 0 0 0 0 0 0 0 0
0 0 0 0 0 0 0 0 0
0 0 0 0 0 0 0 0 0
0 0 0 0 0 0 0 0 0
0 0 0 0 0 0 0 0 0
0 0 0 0 0 0 0 0 0
0 0 0 0 0 0 0 0 0
0 0 0 0 0 0 0 0 0
0 0 0 0 0 0 0 0 0
0 0 0 0 0 0 0 0 0
0 0 0 0 0 0 0 0 0
0 0 0 0 0 0 0 0 0
0 0 0 0 0 0 0 0 0
0 0 0 0 0 0 0 0 0
0 0 0 0 0 0 0 0 0
0 0 0 0 0 0 0 0 0
0 0 0 0 0 0 0 0 0
0 0 0 0 0 0 0 0 0
0 0 0 0 0 0 0 0 0
0 0 0 0 0 0 0 0 0
0 0 0 0 0 0 0 0 0
0 0 0 0 0 0 0 0 0
0 0 0 0 0 0 0 0 0
0 0 0 0 0 0 0 0 0
0 0 0 0 0 0 0 0 0
0 0 0 0 0 0 0 0 0
0 0 0 0 0 0 0 0 0
0 0 0 0 0 0 0 0 0
0 0 0 0 0 0 0 0 0
0 0 0 0 0 0 0 0 0
0 0 0 0 0 0 0 0 0
0 0 0 0 0 0 0 0 0
0 0 0 0 0 0 0 0 0
0 0 0 0 0 0 0 0 0
0 0 0 0 0 0 0 0 0
0 0 0 0 0 0 0 0 0
0 0 0 0 0 0 0 0 0
0 0 0 0 0 0 0 0 0
0 0 0 0 0 0 0 0 0
0 0 0 0 0 0 0 0 0
0 0 0 0 0 0 0 0 0
0 0 0 0 0 0 0 0 0
0 0 0 0 0 0 0 0 0
0 0 0 0 0 0 0 0 0
0 0 0 0 0 0 0 0 0
0 0 0 0 0 0 0 0 0
0 0 0 0 0 0 0 0 0
0 0 0 0 0 0 0 0 0
0 0 0 0 0 0 0 0 0
0 0 0 0 0 0 0 0 0
0 0 0 0 0 0 0 0 0
0 0 0 0 0 0 0 0 0
0 0 0 0 0 0 0 0 0
0 0 0 0 0 0 0 0 0
0 0 0 0 0 0 0 0 0
0 0 0 0 0 0 0 0 0
0 0 0 0 0 0 0 0 0
0 0 0 0 0 0 0 0 0
0 0 0 0 0 0 0 0 0
0 0 0 0 0 0 0 0 0
0 0 0 0 0 0 0 0 0
0 0 0 0 0 0 0 0 0
0 0 0 0 0 0 0 0 0
0 0 0 0 0 0 0 0 0
0 0 0 0 0 0 0 0 0
0 0 0 0 0 0 0 0 0
0 0 0 0 0 0 0 0 0
0 0 0 0 0 0 0 0 0
0 0 0 0 0 0 0 0 0
0 0 0 0 0 0 0 0 0
0 0 0 0 0 0 0 0 0
0 0 0 0 0 0 0 0 0
0 0 0 0 0 0 0 0 0
0 0 0 0 0 0 0 0 0
0 0 0 0 0 0 0 0 0
0 0 0 0 0 0 0 0 0
0 0 0 0 0 0 0 0 0
0 0 0 0 0 0 0 0 0
0 0 0 0 0 0 0 0 0
0 0 0 0 0 0 0 0 0
0 0 0 0 0 0 0 0 0
0 0 0 0 0 0 0 0 0
0 0 0 0 0 0 0 0 0
0 0 0 0 0 0 0 0 0
0 0 0 0 0 0 0 0 0
0 0 0 0 0 0 0 0 0
0 0 0 0 0 0 0 0 0
0 0 0 0 0 0 0 0 0
0 0 0 0 0 0 0 0 0
0 0 0 0 0 0 0 0 0
0 0 0 0 0 0 0 0 0
0 0 0 0 0 0 0 0 0
0 0 0 0 0 0 0 0 0
0 0 0 0 0 0 0 0 0
0 0 0 0 0 0 0 0 0
0 0 0 0 0 0 0 0 0
0 0 0 0 0 0 0 0 0
0 0 0 0 0 0 0 0 0
0 0 0 0 0 0 0 0 0
0 0 0 0 0 0 0 0 0
0 0 0 0 0 0 0 0 0
0 0 0 0 0 0 0 0 0
0 0 0 0 0 0 0 0 0
0 0 0 0 0 0 0 0 0
0 0 0 0 0 0 0 0 0
0 0 0 0 0 0 0 0 0
0 0 0 0 0 0 0 0 0
0 0 0 0 0 0 0 0 0
0 0 0 0 0 0 0 0 0
0 0 0 0 0 0 0 0 0
0 0 0 0 0 0 0 0 0
0 0 0 0 0 0 0 0 0
0 0 0 0 0 0 0 0 0
0 0 0 0 0 0 0 0 0
0 0 0 0 0 0 0 0 0
0 0 0 0 0 0 0 0 0
0 0 0 0 0 0 0 0 0
0 0 0 0 0 0 0 0 0
0 0 0 0 0 0 0 0 0
0 0 0 0 0 0 0 0 0
0 0 0 0 0 0 0 0 0
0 0 0 0 0 0 0 0 0
0 0 0 0 0 0 0 0 0
0 0 0 0 0 0 0 0 0
0 0 0 0 0 0 0 0 0
0 0 0 0 0 0 0 0 0
0 0 0 0 0 0 0 0 0
0 0 0 0 0 0 0 0 0
0 0 0 0 0 0 0 0 0
0 0 0 0 0 0 0 0 0
0 0 0 0 0 0 0 0 0
0 0 0 0 0 0 0 0 0
0 0 0 0 0 0 0 0 0
0 0 0 0 0 0 0 0 0
0 0 0 0 0 0 0 0 0
0 0 0 0 0 0 0 0 0
0 0 0 0 0 0 0 0 0
0 0 0 0 0 0 0 0 0
0 0 0 0 0 0 0 0 0
0 0 0 0 0 0 0 0 0
0 0 0 0 0 0 0 0 0
0 0 0 0 0 0 0 0 0
0 0 0 0 0 0 0 0 0
0 0 0 0 0 0 0 0 0
0 0 0 0 0 0 0 0 0
0 0 0 0 0 0 0 0 0
0 0 0 0 0 0 0 0 0
0 0 0 0 0 0 0 0 0
0 0 0 0 0 0 0 0 0
0 0 0 0 0 0 0 0 0
0 0 0 0 0 0 0 0 0
0 0 0 0 0 0 0 0 0
0 0 0 0 0 0 0 0 0
0 0 0 0 0 0 0 0 0
0 0 0 0 0 0 0 0 0
0 0 0 0 0 0 0 0 0
0 0 0 0 0 0 0 0 0
0 0 0 0 0 0 0 0 0
0 0 0 0 0 0 0 0 0
0 0 0 0 0 0 0 0 0
0 0 0 0 0 0 0 0 0
0 0 0 0 0 0 0 0 0
0 0 0 0 0 0 0 0 0
0 0 0 0 0 0 0 0 0
0 0 0 0 0 0 0 0 0
0 0 0 0 0 0 0 0 0
0 0 0 0 0 0 0 0 0
0 0 0 0 0 0 0 0 0
0 0 0 0 0 0 0 0 0
0 0 0 0 0 0 0 0 0
0 0 0 0 0 0 0 0 0
0 0 0 0 0 0 0 0 0
0 0 0 0 0 0 0 0 0
0 0 0 0 0 0 0 0 0
0 0 0 0 0 0 0 0 0
0 0 0 0 0 0 0 0 0
0 0 0 0 0 0 0 0 0
0 0 0 0 0 0 0 0 0
0 0 0 0 0 0 0 0 0
0 0 0 0 0 0 0 0 0
0 0 0 0 0 0 0 0 0
0 0 0 0 0 0 0 0 0
0 0 0 0 0 0 0 0 0
0 0 0 0 0 0 0 0 0
0 0 0 0 0 0 0 0 0
0 0 0 0 0 0 0 0 0
0 0 0 0 0 0 0 0 0
0 0 0 0 0 0 0 0 0
0 0 0 0 0 0 0 0 0
0 0 0 0 0 0 0 0 0
0 0 0 0 0 0 0 0 0
0 0 0 0 0 0 0 0 0
0 0 0 0 0 0 0 0 0
0 0 0 0 0 0 0 0 0
0 0 0 0 0 0 0 0 0
0 0 0 0 0 0 0 0 0
0 0 0 0 0 0 0 0 0
0 0 0 0 0 0 0 0 0
0 0 0 0 0 0 0 0 0
0 0 0 0 0 0 0 0 0
0 0 0 0 0 0 0 0 0
0 0 0 0 0 0 0 0 0
0 0 0 0 0 0 0 0 0
0 0 0 0 0 0 0 0 0
0 0 0 0 0 0 0 0 0
0 0 0 0 0 0 0 0 0
0 0 0 0 0 0 0 0 0
0 0 0 0 0 0 0 0 0
0 0 0 0 0 0 0 0 0
0 0 0 0 0 0 0 0 0
0 0 0 0 0 0 0 0 0
0 0 0 0 0 0 0 0 0
0 0 0 0 0 0 0 0 0
0 0 0 0 0 0 0 0 0
0 0 0 0 0 0 0 0 0
0 0 0 0 0 0 0 0 0
0 0 0 0 0 0 0 0 0
0 0 0 0 0 0 0 0 0
0 0 0 0 0 0 0 0 0
0 0 0 0 0 0 0 0 0
0 0 0 0 0 0 0 0 0
0 0 0 0 0 0 0 0 0
0 0 0 0 0 0 0 0 0
0 0 0 0 0 0 0 0 0
0 0 0 0 0 0 0 0 0
0 0 0 0 0 0 0 0 0
0 0 0 0 0 0 0 0 0
0 0 0 0 0 0 0 0 0
0 0 0 0 0 0 0 0 0
0 0 0 0 0 0 0 0 0
0 0 0 0 0 0 0 0 0
0 0 0 0 0 0 0 0 0
0 0 0 0 0 0 0 0 0
0 0 0 0 0 0 0 0 0
0 0 0 0 0 0 0 0 0
0 0 0 0 0 0 0 0 0
0 0 0 0 0 0 0 0 0
0 0 0 0 0 0 0 0 0
0 0 0 0 0 0 0 0 0
0 0 0 0 0 0 0 0 0
0 0 0 0 0 0 0 0 0
0 0 0 0 0 0 0 0 0
0 0 0 0 0 0 0 0 0
0 0 0 0 0 0 0 0 0
0 0 0 0 0 0 0 0 0
0 0 0 0 0 0 0 0 0
0 0 0 0 0 0 0 0 0
0 0 0 0 0 0 0 0 0
0 0 0 0 0 0 0 0 0
0 0 0 0 0 0 0 0 0
0 0 0 0 0 0 0 0 0
0 0 0 0 0 0 0 0 0
0 0 0 0 0 0 0 0 0
0 0 0 0 0 0 0 0 0
0 0 0 0 0 0 0 0 0
0 0 0 0 0 0 0 0 0
0 0 0 0 0 0 0 0 0
0 0 0 0 0 0 0 0 0
0 0 0 0 0 0 0 0 0
0 0 0 0 0 0 0 0 0
0 0 0 0 0 0 0 0 0
0 0 0 0 0 0 0 0 0
0 0 0 0 0 0 0 0 0
0 0 0 0 0 0 0 0 0
0 0 0 0 0 0 0 0 0
0 0 0 0 0 0 0 0 0
0 0 0 0 0 0 0 0 0
0 0 0 0 0 0 0 0 0
0 0 0 0 0 0 0 0 0
0 0 0 0 0 0 0 0 0
0 0 0 0 0 0 0 0 0
0 0 0 0 0 0 0 0 0
0 0 0 0 0 0 0 0 0
0 0 0 0 0 0 0 0 0
0 0 0 0 0 0 0 0 0
0 0 0 0 0 0 0 0 0
0 0 0 0 0 0 0 0 0
0 0 0 0 0 0 0 0 0
0 0 0 0 0 0 0 0 0
0 0 0 0 0 0 0 0 0
0 0 0 0 0 0 0 0 0
0 0 0 0 0 0 0 0 0
0 0 0 0 0 0 0 0 0
0 0 0 0 0 0 0 0 0
0 0 0 0 0 0 0 0 0
0 0 0 0 0 0 0 0 0
0 0 0 0 0 0 0 0 0
0 0 0 0 0 0 0 0 0
0 0 0 0 0 0 0 0 0
SCALARS tauS double 9
LOOKUP_TABLE default
0 0 0 0 0 0 0 0 0
0 0 0 0 0 0 0 0 0
0 0 0 0 0 0 0 0 0
0 0 0 0 0 0 0 0 0
0 0 0 0 0 0 0 0 0
0 0 0 0 0 0 0 0 0
0 0 0 0 0 0 0 0 0
0 0 0 0 0 0 0 0 0
0 0 0 0 0 0 0 0 0
0 0 0 0 0 0 0 0 0
0 0 0 0 0 0 0 0 0
0 0 0 0 0 0 0 0 0
0 0 0 0 0 0 0 0 0
0 0 0 0 0 0 0 0 0
0 0 0 0 0 0 0 0 0
0 0 0 0 0 0 0 0 0
0 0 0 0 0 0 0 0 0
0 0 0 0 0 0 0 0 0
0 0 0 0 0 0 0 0 0
0 0 0 0 0 0 0 0 0
0 0 0 0 0 0 0 0 0
0 0 0 0 0 0 0 0 0
0 0 0 0 0 0 0 0 0
0 0 0 0 0 0 0 0 0
0 0 0 0 0 0 0 0 0
0 0 0 0 0 0 0 0 0
0 0 0 0 0 0 0 0 0
0 0 0 0 0 0 0 0 0
0 0 0 0 0 0 0 0 0
0 0 0 0 0 0 0 0 0
0 0 0 0 0 0 0 0 0
0 0 0 0 0 0 0 0 0
0 0 0 0 0 0 0 0 0
0 0 0 0 0 0 0 0 0
0 0 0 0 0 0 0 0 0
0 0 0 0 0 0 0 0 0
0 0 0 0 0 0 0 0 0
0 0 0 0 0 0 0 0 0
0 0 0 0 0 0 0 0 0
0 0 0 0 0 0 0 0 0
0 0 0 0 0 0 0 0 0
0 0 0 0 0 0 0 0 0
0 0 0 0 0 0 0 0 0
0 0 0 0 0 0 0 0 0
0 0 0 0 0 0 0 0 0
0 0 0 0 0 0 0 0 0
0 0 0 0 0 0 0 0 0
0 0 0 0 0 0 0 0 0
0 0 0 0 0 0 0 0 0
0 0 0 0 0 0 0 0 0
0 0 0 0 0 0 0 0 0
0 0 0 0 0 0 0 0 0
0 0 0 0 0 0 0 0 0
0 0 0 0 0 0 0 0 0
0 0 0 0 0 0 0 0 0
0 0 0 0 0 0 0 0 0
0 0 0 0 0 0 0 0 0
0 0 0 0 0 0 0 0 0
0 0 0 0 0 0 0 0 0
0 0 0 0 0 0 0 0 0
0 0 0 0 0 0 0 0 0
0 0 0 0 0 0 0 0 0
0 0 0 0 0 0 0 0 0
0 0 0 0 0 0 0 0 0
0 0 0 0 0 0 0 0 0
0 0 0 0 0 0 0 0 0
0 0 0 0 0 0 0 0 0
0 0 0 0 0 0 0 0 0
0 0 0 0 0 0 0 0 0
0 0 0 0 0 0 0 0 0
0 0 0 0 0 0 0 0 0
0 0 0 0 0 0 0 0 0
0 0 0 0 0 0 0 0 0
0 0 0 0 0 0 0 0 0
0 0 0 0 0 0 0 0 0
0 0 0 0 0 0 0 0 0
0 0 0 0 0 0 0 0 0
0 0 0 0 0 0 0 0 0
0 0 0 0 0 0 0 0 0
0 0 0 0 0 0 0 0 0
0 0 0 0 0 0 0 0 0
0 0 0 0 0 0 0 0 0
0 0 0 0 0 0 0 0 0
0 0 0 0 0 0 0 0 0
0 0 0 0 0 0 0 0 0
0 0 0 0 0 0 0 0 0
0 0 0 0 0 0 0 0 0
0 0 0 0 0 0 0 0 0
0 0 0 0 0 0 0 0 0
0 0 0 0 0 0 0 0 0
0 0 0 0 0 0 0 0 0
0 0 0 0 0 0 0 0 0
0 0 0 0 0 0 0 0 0
0 0 0 0 0 0 0 0 0
0 0 0 0 0 0 0 0 0
0 0 0 0 0 0 0 0 0
0 0 0 0 0 0 0 0 0
0 0 0 0 0 0 0 0 0
0 0 0 0 0 0 0 0 0
0 0 0 0 0 0 0 0 0
0 0 0 0 0 0 0 0 0
0 0 0 0 0 0 0 0 0
0 0 0 0 0 0 0 0 0
0 0 0 0 0 0 0 0 0
0 0 0 0 0 0 0 0 0
0 0 0 0 0 0 0 0 0
0 0 0 0 0 0 0 0 0
0 0 0 0 0 0 0 0 0
0 0 0 0 0 0 0 0 0
0 0 0 0 0 0 0 0 0
0 0 0 0 0 0 0 0 0
0 0 0 0 0 0 0 0 0
0 0 0 0 0 0 0 0 0
0 0 0 0 0 0 0 0 0
0 0 0 0 0 0 0 0 0
0 0 0 0 0 0 0 0 0
0 0 0 0 0 0 0 0 0
0 0 0 0 0 0 0 0 0
0 0 0 0 0 0 0 0 0
0 0 0 0 0 0 0 0 0
0 0 0 0 0 0 0 0 0
0 0 0 0 0 0 0 0 0
0 0 0 0 0 0 0 0 0
0 0 0 0 0 0 0 0 0
0 0 0 0 0 0 0 0 0
0 0 0 0 0 0 0 0 0
0 0 0 0 0 0 0 0 0
0 0 0 0 0 0 0 0 0
0 0 0 0 0 0 0 0 0
0 0 0 0 0 0 0 0 0
0 0 0 0 0 0 0 0 0
0 0 0 0 0 0 0 0 0
0 0 0 0 0 0 0 0 0
0 0 0 0 0 0 0 0 0
0 0 0 0 0 0 0 0 0
0 0 0 0 0 0 0 0 0
0 0 0 0 0 0 0 0 0
0 0 0 0 0 0 0 0 0
0 0 0 0 0 0 0 0 0
0 0 0 0 0 0 0 0 0
0 0 0 0 0 0 0 0 0
0 0 0 0 0 0 0 0 0
0 0 0 0 0 0 0 0 0
0 0 0 0 0 0 0 0 0
0 0 0 0 0 0 0 0 0
0 0 0 0 0 0 0 0 0
0 0 0 0 0 0 0 0 0
0 0 0 0 0 0 0 0 0
0 0 0 0 0 0 0 0 0
0 0 0 0 0 0 0 0 0
0.164622 0.179671 0.161526 0.176261 0.164622 0.179671 0.161526 0.176261 0
0.19074 0.205935 0.187123 0.202063 0.19074 0.205935 0.187123 0.202063 0
0.217188 0.232737 0.21314 0.228463 0.217188 0.232737 0.21314 0.228463 0
0.244312 0.260384 0.239858 0.255665 0.244312 0.260384 0.239858 0.255665 0
0.272355 0.288989 0.267411 0.283691 0.272355 0.288989 0.267411 0.283691 0
0.30133 0.318414 0.295746 0.3124 0.30133 0.318414 0.295746 0.3124 0
0.33103 0.348412 0.324698 0.341643 0.33103 0.348412 0.324698 0.341643 0
0.361162 0.378613 0.354112 0.371234 0.361162 0.378613 0.354112 0.371234 0
0.169786 0.185302 0.166838 0.182096 0.169786 0.185302 0.166838 0.182096 0
0.196727 0.212424 0.193316 0.208714 0.196727 0.212424 0.193316 0.208714 0
0.224052 0.240122 0.220115 0.235865 0.224052 0.240122 0.220115 0.235865 0
0.252075 0.268658 0.247589 0.263869 0.252075 0.268658 0.247589 0.263869 0
0.281007 0.298159 0.276003 0.29287 0.281007 0.298159 0.276003 0.29287 0
0.310899 0.328553 0.305395 0.322747 0.310899 0.328553 0.305395 0.322747 0
0.34162 0.359664 0.335569 0.353247 0.34162 0.359664 0.335569 0.353247 0
0.372981 0.391318 0.366224 0.384001 0.372981 0.391318 0.366224 0.384001 0
0.404907 0.423692 0.397256 0.415691 0.404907 0.423692 0.397256 0.415691 0
0.174706 0.190698 0.171896 0.187609 0.174706 0.190698 0.171896 0.187609 0
0.202481 0.218682 0.199185 0.215098 0.202481 0.218682 0.199185 0.215098 0
0.230691 0.247299 0.226888 0.243189 0.230691 0.247299 0.226888 0.243189 0
0.259639 0.276748 0.255306 0.272112 0.259639 0.276748 0.255306 0.272112 0
0.289475 0.307138 0.28462 0.301985 0.289475 0.307138 0.28462 0.301985 0
0.320264 0.338464 0.314887 0.332769 0.320264 0.338464 0.314887 0.332769 0
0.351965 0.37065 0.346018 0.364332 0.351965 0.37065 0.346018 0.364332 0
0.384494 0.403632 0.377881 0.396584 0.384494 0.403632 0.377881 0.396584 0
0.417802 0.437378 0.410418 0.42951 0.417802 0.437378 0.410418 0.42951 0
0.179532 0.195911 0.176753 0.192923 0.179532 0.195911 0.176753 0.192923 0
0.208012 0.224695 0.204848 0.221256 0.208012 0.224695 0.204848 0.221256 0
0.237068 0.254189 0.23342 0.250248 0.237068 0.254189 0.23342 0.250248 0
0.266909 0.284539 0.26275 0.28008 0.266909 0.284539 0.26275 0.28008 0
0.297651 0.315842 0.292969 0.310853 0.297651 0.315842 0.292969 0.310853 0
0.32937 0.348138 0.324148 0.342586 0.32937 0.348138 0.324148 0.342586 0
0.362086 0.381422 0.356274 0.375233 0.362086 0.381422 0.356274 0.375233 0
0.395781 0.415676 0.389295 0.408752 0.395781 0.415676 0.389295 0.408752 0
0.430433 0.450855 0.423171 0.443104 0.430433 0.450855 0.423171 0.443104 0
0.18411 0.200871 0.181503 0.19804 0.18411 0.200871 0.181503 0.19804 0
0.21328 0.230423 0.210272 0.227152 0.21328 0.230423 0.210272 0.227152 0
0.243145 0.26076 0.239675 0.257007 0.243145 0.26076 0.239675 0.257007 0
0.27385 0.291998 0.269884 0.287734 0.27385 0.291998 0.269884 0.287734 0
0.305496 0.324227 0.301009 0.319427 0.305496 0.324227 0.301009 0.319427 0
0.338165 0.357515 0.333128 0.352141 0.338165 0.357515 0.333128 0.352141 0
0.371916 0.39191 0.36628 0.385894 0.371916 0.39191 0.36628 0.385894 0
0.406789 0.427442 0.400472 0.420688 0.406789 0.427442 0.400472 0.420688 0
0.442793 0.464078 0.435695 0.456479 0.442793 0.464078 0.435695 0.456479 0
0.188394 0.20553 0.185955 0.202877 0.188394 0.20553 0.185955 0.202877 0
0.218237 0.235819 0.215414 0.232745 0.218237 0.235819 0.215414 0.232745 0
0.248877 0.26697 0.24561 0.26343 0.248877 0.26697 0.24561 0.26343 0
0.280423 0.299083 0.276674 0.295039 0.280423 0.299083 0.276674 0.295039 0
0.312967 0.33224 0.308701 0.327661 0.312967 0.33224 0.308701 0.327661 0
0.346591 0.366526 0.341774 0.361371 0.346591 0.366526 0.341774 0.361371 0
0.381381 0.402032 0.375964 0.396237 0.381381 0.402032 0.375964 0.396237 0
0.417429 0.438841 0.411335 0.432309 0.417429 0.438841 0.411335 0.432309 0
0.454791 0.476954 0.447913 0.469567 0.454791 0.476954 0.447913 0.469567 0
0.192356 0.209835 0.190108 0.207393 0.192356 0.209835 0.190108 0.207393 0
0.222824 0.240832 0.220221 0.237984 0.222824 0.240832 0.220221 0.237984 0
0.254216 0.272775 0.251181 0.269474 0.254216 0.272775 0.251181 0.269474 0
0.286583 0.305747 0.283077 0.301952 0.286583 0.305747 0.283077 0.301952 0
0.320013 0.339824 0.315998 0.335499 0.320013 0.339824 0.315998 0.335499 0
0.354582 0.375093 0.350024 0.370203 0.354582 0.375093 0.350024 0.370203 0
0.390396 0.411696 0.385249 0.406176 0.390396 0.411696 0.385249 0.406176 0
0.427629 0.44986 0.421796 0.443545 0.427629 0.44986 0.421796 0.443545 0
0.466413 0.489407 0.45975 0.482273 0.466413 0.489407 0.45975 0.482273 0
0.195931 0.213824 0.193914 0.211556 0.195931 0.213824 0.193914 0.211556 0
0.227137 0.245614 0.224675 0.242874 0.227137 0.245614 0.224675 0.242874 0
0.259371 0.278478 0.256408 0.275186 0.259371 0.278478 0.256408 0.275186 0
0.292577 0.31199 0.289127 0.308435 0.292577 0.31199 0.289127 0.308435 0
0.326542 0.346889 0.322837 0.342875 0.326542 0.346889 0.322837 0.342875 0
0.36205 0.383125 0.357804 0.378555 0.36205 0.383125 0.357804 0.378555 0
0.398865 0.420793 0.394045 0.415612 0.398865 0.420793 0.394045 0.415612 0
0.437257 0.460309 0.431772 0.454352 0.437257 0.460309 0.431772 0.454352 0
0.297711 0.317755 0.294875 0.314485 0.297711 0.317755 0.294875 0.314485 0
0.332761 0.353714 0.329199 0.349792 0.332761 0.353714 0.329199 0.349792 0
0.369318 0.390996 0.365134 0.386457 0.369318 0.390996 0.365134 0.386457 0
0.407171 0.429683 0.402381 0.424563 0.407171 0.429683 0.402381 0.424563 0
0.446559 0.470151 0.441219 0.464542 0.446559 0.470151 0.441219 0.464542 0
0 0 0 0 0 0 0 0 0
0 0 0 0 0 0 0 0 0
0 0 0 0 0 0 0 0 0
0 0 0 0 0 0 0 0 0
0 0 0 0 0 0 0 0 0
0 0 0 0 0 0 0 0 0
0 0 0 0 0 0 0 0 0
0 0 0 0 0 0 0 0 0
0 0 0 0 0 0 0 0 0
0 0 0 0 0 0 0 0 0
0 0 0 0 0 0 0 0 0
0 0 0 0 0 0 0 0 0
0 0 0 0 0 0 0 0 0
0 0 0 0 0 0 0 0 0
0 0 0 0 0 0 0 0 0
0 0 0 0 0 0 0 0 0
0 0 0 0 0 0 0 0 0
0 0 0 0 0 0 0 0 0
0 0 0 0 0 0 0 0 0
0 0 0 0 0 0 0 0 0
0 0 0 0 0 0 0 0 0
0 0 0 0 0 0 0 0 0
0 0 0 0 0 0 0 0 0
0 0 0 0 0 0 0 0 0
0 0 0 0 0 0 0 0 0
0 0 0 0 0 0 0 0 0
0 0 0 0 0 0 0 0 0
0 0 0 0 0 0 0 0 0
0 0 0 0 0 0 0 0 0
0 0 0 0 0 0 0 0 0
0 0 0 0 0 0 0 0 0
0 0 0 0 0 0 0 0 0
0 0 0 0 0 0 0 0 0
0 0 0 0 0 0 0 0 0
0 0 0 0 0 0 0 0 0
0 0 0 0 0 0 0 0 0
0 0 0 0 0 0 0 0 0
0 0 0 0 0 0 0 0 0
0 0 0 0 0 0 0 0 0
0 0 0 0 0 0 0 0 0
0 0 0 0 0 0 0 0 0
0 0 0 0 0 0 0 0 0
0 0 0 0 0 0 0 0 0
0 0 0 0 0 0 0 0 0
0 0 0 0 0 0 0 0 0
0 0 0 0 0 0 0 0 0
0 0 0 0 0 0 0 0 0
0 0 0 0 0 0 0 0 0
0 0 0 0 0 0 0 0 0
0 0 0 0 0 0 0 0 0
0 0 0 0 0 0 0 0 0
0 0 0 0 0 0 0 0 0
0 0 0 0 0 0 0 0 0
0 0 0 0 0 0 0 0 0
0 0 0 0 0 0 0 0 0
0 0 0 0 0 0 0 0 0
0 0 0 0 0 0 0 0 0
0 0 0 0 0 0 0 0 0
0 0 0 0 0 0 0 0 0
0 0 0 0 0 0 0 0 0
0 0 0 0 0 0 0 0 0
0 0 0 0 0 0 0 0 0
0 0 0 0 0 0 0 0 0
0 0 0 0 0 0 0 0 0
0 0 0 0 0 0 0 0 0
0 0 0 0 0 0 0 0 0
0 0 0 0 0 0 0 0 0
0 0 0 0 0 0 0 0 0
0 0 0 0 0 0 0 0 0
0 0 0 0 0 0 0 0 0
0 0 0 0 0 0 0 0 0
0 0 0 0 0 0 0 0 0
0 0 0 0 0 0 0 0 0
0 0 0 0 0 0 0 0 0
0 0 0 0 0 0 0 0 0
0 0 0 0 0 0 0 0 0
0 0 0 0 0 0 0 0 0
0 0 0 0 0 0 0 0 0
0 0 0 0 0 0 0 0 0
0 0 0 0 0 0 0 0 0
0 0 0 0 0 0 0 0 0
0 0 0 0 0 0 0 0 0
0 0 0 0 0 0 0 0 0
0 0 0 0 0 0 0 0 0
0 0 0 0 0 0 0 0 0
0 0 0 0 0 0 0 0 0
0 0 0 0 0 0 0 0 0
0 0 0 0 0 0 0 0 0
0 0 0 0 0 0 0 0 0
0 0 0 0 0 0 0 0 0
0 0 0 0 0 0 0 0 0
0 0 0 0 0 0 0 0 0
0 0 0 0 0 0 0 0 0
0 0 0 0 0 0 0 0 0
0 0 0 0 0 0 0 0 0
0 0 0 0 0 0 0 0 0
0 0 0 0 0 0 0 0 0
0 0 0 0 0 0 0 0 0
0 0 0 0 0 0 0 0 0
0 0 0 0 0 0 0 0 0
0 0 0 0 0 0 0 0 0
0 0 0 0 0 0 0 0 0
0 0 0 0 0 0 0 0 0
0 0 0 0 0 0 0 0 0
0 0 0 0 0 0 0 0 0
0 0 0 0 0 0 0 0 0
0 0 0 0 0 0 0 0 0
0 0 0 0 0 0 0 0 0
0 0 0 0 0 0 0 0 0
0 0 0 0 0 0 0 0 0
0 0 0 0 0 0 0 0 0
0 0 0 0 0 0 0 0 0
0 0 0 0 0 0 0 0 0
0 0 0 0 0 0 0 0 0
0 0 0 0 0 0 0 0 0
0 0 0 0 0 0 0 0 0
0 0 0 0 0 0 0 0 0
0 0 0 0 0 0 0 0 0
0 0 0 0 0 0 0 0 0
0 0 0 0 0 0 0 0 0
0 0 0 0 0 0 0 0 0
0 0 0 0 0 0 0 0 0
0 0 0 0 0 0 0 0 0
0 0 0 0 0 0 0 0 0
0 0 0 0 0 0 0 0 0
0 0 0 0 0 0 0 0 0
0 0 0 0 0 0 0 0 0
0 0 0 0 0 0 0 0 0
0 0 0 0 0 0 0 0 0
0 0 0 0 0 0 0 0 0
0 0 0 0 0 0 0 0 0
0 0 0 0 0 0 0 0 0
0 0 0 0 0 0 0 0 0
0 0 0 0 0 0 0 0 0
0 0 0 0 0 0 0 0 0
0 0 0 0 0 0 0 0 0
0 0 0 0 0 0 0 0 0
0 0 0 0 0 0 0 0 0
0 0 0 0 0 0 0 0 0
0 0 0 0 0 0 0 0 0
0 0 0 0 0 0 0 0 0
0 0 0 0 0 0 0 0 0
0 0 0 0 0 0 0 0 0
0 0 0 0 0 0 0 0 0
0 0 0 0 0 0 0 0 0
0 0 0 0 0 0 0 0 0
0 0 0 0 0 0 0 0 0
0 0 0 0 0 0 0 0 0
0 0 0 0 0 0 0 0 0
0 0 0 0 0 0 0 0 0
0 0 0 0 0 0 0 0 0
0 0 0 0 0 0 0 0 0
0 0 0 0 0 0 0 0 0
0 0 0 0 0 0 0 0 0
0 0 0 0 0 0 0 0 0
0 0 0 0 0 0 0 0 0
0 0 0 0 0 0 0 0 0
0 0 0 0 0 0 0 0 0
0 0 0 0 0 0 0 0 0
0 0 0 0 0 0 0 0 0
0 0 0 0 0 0 0 0 0
0 0 0 0 0 0 0 0 0
0 0 0 0 0 0 0 0 0
0 0 0 0 0 0 0 0 0
0 0 0 0 0 0 0 0 0
0 0 0 0 0 0 0 0 0
0 0 0 0 0 0 0 0 0
0 0 0 0 0 0 0 0 0
0 0 0 0 0 0 0 0 0
0 0 0 0 0 0 0 0 0
0 0 0 0 0 0 0 0 0
0 0 0 0 0 0 0 0 0
0 0 0 0 0 0 0 0 0
0 0 0 0 0 0 0 0 0
0 0 0 0 0 0 0 0 0
0 0 0 0 0 0 0 0 0
0 0 0 0 0 0 0 0 0
0 0 0 0 0 0 0 0 0
0 0 0 0 0 0 0 0 0
0 0 0 0 0 0 0 0 0
0 0 0 0 0 0 0 0 0
0 0 0 0 0 0 0 0 0
0 0 0 0 0 0 0 0 0
0 0 0 0 0 0 0 0 0
0 0 0 0 0 0 0 0 0
0 0 0 0 0 0 0 0 0
0 0 0 0 0 0 0 0 0
0 0 0 0 0 0 0 0 0
0 0 0 0 0 0 0 0 0
0 0 0 0 0 0 0 0 0
0 0 0 0 0 0 0 0 0
0 0 0 0 0 0 0 0 0
0 0 0 0 0 0 0 0 0
0 0 0 0 0 0 0 0 0
0 0 0 0 0 0 0 0 0
0 0 0 0 0 0 0 0 0
0 0 0 0 0 0 0 0 0
0 0 0 0 0 0 0 0 0
0 0 0 0 0 0 0 0 0
0 0 0 0 0 0 0 0 0
0 0 0 0 0 0 0 0 0
0 0 0 0 0 0 0 0 0
0 0 0 0 0 0 0 0 0
0 0 0 0 0 0 0 0 0
0 0 0 0 0 0 0 0 0
0 0 0 0 0 0 0 0 0
0 0 0 0 0 0 0 0 0
0 0 0 0 0 0 0 0 0
0 0 0 0 0 0 0 0 0
0 0 0 0 0 0 0 0 0
0 0 0 0 0 0 0 0 0
0 0 0 0 0 0 0 0 0
0 0 0 0 0 0 0 0 0
0 0 0 0 0 0 0 0 0
0 0 0 0 0 0 0 0 0
0 0 0 0 0 0 0 0 0
0 0 0 0 0 0 0 0 0
0 0 0 0 0 0 0 0 0
0 0 0 0 0 0 0 0 0
0 0 0 0 0 0 0 0 0
0 0 0 0 0 0 0 0 0
0 0 0 0 0 0 0 0 0
0 0 0 0 0 0 0 0 0
0 0 0 0 0 0 0 0 0
0 0 0 0 0 0 0 0 0
0 0 0 0 0 0 0 0 0
0 0 0 0 0 0 0 0 0
0 0 0 0 0 0 0 0 0
0 0 0 0 0 0 0 0 0
0 0 0 0 0 0 0 0 0
0 0 0 0 0 0 0 0 0
0 0 0 0 0 0 0 0 0
0 0 0 0 0 0 0 0 0
0 0 0 0 0 0 0 0 0
0 0 0 0 0 0 0 0 0
0 0 0 0 0 0 0 0 0
0 0 0 0 0 0 0 0 0
0 0 0 0 0 0 0 0 0
0 0 0 0 0 0 0 0 0
0 0 0 0 0 0 0 0 0
0 0 0 0 0 0 0 0 0
0 0 0 0 0 0 0 0 0
0 0 0 0 0 0 0 0 0
0 0 0 0 0 0 0 0 0
0 0 0 0 0 0 0 0 0
0 0 0 0 0 0 0 0 0
0 0 0 0 0 0 0 0 0
0 0 0 0 0 0 0 0 0
0 0 0 0 0 0 0 0 0
0 0 0 0 0 0 0 0 0
0 0 0 0 0 0 0 0 0
0 0 0 0 0 0 0 0 0
0 0 0 0 0 0 0 0 0
0 0 0 0 0 0 0 0 0
0 0 0 0 0 0 0 0 0
0 0 0 0 0 0 0 0 0
0 0 0 0 0 0 0 0 0
0 0 0 0 0 0 0 0 0
0 0 0 0 0 0 0 0 0
0 0 0 0 0 0 0 0 0
0 0 0 0 0 0 0 0 0
0 0 0 0 0 0 0 0 0
0 0 0 0 0 0 0 0 0
0 0 0 0 0 0 0 0 0
0 0 0 0 0 0 0 0 0
0 0 0 0 0 0 0 0 0
0 0 0 0 0 0 0 0 0
0 0 0 0 0 0 0 0 0
0 0 0 0 0 0 0 0 0
0 0 0 0 0 0 0 0 0
0 0 0 0 0 0 0 0 0
0 0 0 0 0 0 0 0 0
0 0 0 0 0 0 0 0 0
0 0 0 0 0 0 0 0 0
0 0 0 0 0 0 0 0 0
0 0 0 0 0 0 0 0 0
0 0 0 0 0 0 0 0 0
0 0 0 0 0 0 0 0 0
0 0 0 0 0 0 0 0 0
0 0 0 0 0 0 0 0 0
0 0 0 0 0 0 0 0 0
0 0 0 0 0 0 0 0 0
0 0 0 0 0 0 0 0 0
0 0 0 0 0 0 0 0 0
0 0 0 0 0 0 0 0 0
0 0 0 0 0 0 0 0 0
0 0 0 0 0 0 0 0 0
0 0 0 0 0 0 0 0 0
0 0 0 0 0 0 0 0 0
0 0 0 0 0 0 0 0 0
0 0 0 0 0 0 0 0 0
0 0 0 0 0 0 0 0 0
0 0 0 0 0 0 0 0 0
0 0 0 0 0 0 0 0 0
0 0 0 0 0 0 0 0 0
0 0 0 0 0 0 0 0 0
0 0 0 0 0 0 0 0 0
0 0 0 0 0 0 0 0 0
0 0 0 0 0 0 0 0 0
0 0 0 0 0 0 0 0 0
0 0 0 0 0 0 0 0 0
0 0 0 0 0 0 0 0 0
0 0 0 0 0 0 0 0 0
0 0 0 0 0 0 0 0 0
0 0 0 0 0 0 0 0 0
0 0 0 0 0 0 0 0 0
0 0 0 0 0 0 0 0 0
0 0 0 0 0 0 0 0 0
0 0 0 0 0 0 0 0 0
0 0 0 0 0 0 0 0 0
0 0 0 0 0 0 0 0 0
0 0 0 0 0 0 0 0 0
0 0 0 0 0 0 0 0 0
0 0 0 0 0 0 0 0 0
0 0 0 0 0 0 0 0 0
0 0 0 0 0 0 0 0 0
0 0 0 0 0 0 0 0 0
0 0 0 0 0 0 0 0 0
0 0 0 0 0 0 0 0 0
0 0 0 0 0 0 0 0 0
0 0 0 0 0 0 0 0 0
0 0 0 0 0 0 0 0 0
0 0 0 0 0 0 0 0 0
0 0 0 0 0 0 0 0 0
0 0 0 0 0 0 0 0 0
0 0 0 0 0 0 0 0 0
0 0 0 0 0 0 0 0 0
0 0 0 0 0 0 0 0 0
0 0 0 0 0 0 0 0 0
0 0 0 0 0 0 0 0 0
0 0 0 0 0 0 0 0 0
0 0 0 0 0 0 0 0 0
0 0 0 0 0 0 0 0 0
0 0 0 0 0 0 0 0 0
0 0 0 0 0 0 0 0 0
0 0 0 0 0 0 0 0 0
0 0 0 0 0 0 0 0 0
0 0 0 0 0 0 0 0 0
0 0 0 0 0 0 0 0 0
0 0 0 0 0 0 0 0 0
0 0 0 0 0 0 0 0 0
0 0 0 0 0 0 0 0 0
0 0 0 0 0 0 0 0 0
0 0 0 0 0 0 0 0 0
0 0 0 0 0 0 0 0 0
0 0 0 0 0 0 0 0 0
0 0 0 0 0 0 0 0 0
0 0 0 0 0 0 0 0 0
0 0 0 0 0 0 0 0 0
0 0 0 0 0 0 0 0 0
0 0 0 0 0 0 0 0 0
0 0 0 0 0 0 0 0 0
0 0 0 0 0 0 0 0 0
0 0 0 0 0 0 0 0 0
0 0 0 0 0 0 0 0 0
0 0 0 0 0 0 0 0 0
0 0 0 0 0 0 0 0 0
0 0 0 0 0 0 0 0 0
0 0 0 0 0 0 0 0 0
0 0 0 0 0 0 0 0 0
0 0 0 0 0 0 0 0 0
0 0 0 0 0 0 0 0 0
0 0 0 0 0 0 0 0 0
0 0 0 0 0 0 0 0 0
0 0 0 0 0 0 0 0 0
0 0 0 0 0 0 0 0 0
0 0 0 0 0 0 0 0 0
0 0 0 0 0 0 0 0 0
0 0 0 0 0 0 0 0 0
0 0 0 0 0 0 0 0 0
0 0 0 0 0 0 0 0 0
0 0 0 0 0 0 0 0 0
0 0 0 0 0 0 0 0 0
0 0 0 0 0 0 0 0 0
0 0 0 0 0 0 0 0 0
0 0 0 0 0 0 0 0 0
0 0 0 0 0 0 0 0 0
0 0 0 0 0 0 0 0 0
0 0 0 0 0 0 0 0 0
0 0 0 0 0 0 0 0 0
0 0 0 0 0 0 0 0 0
0 0 0 0 0 0 0 0 0
0 0 0 0 0 0 0 0 0
0 0 0 0 0 0 0 0 0
0 0 0 0 0 0 0 0 0
0 0 0 0 0 0 0 0 0
0 0 0 0 0 0 0 0 0
0 0 0 0 0 0 0 0 0
0 0 0 0 0 0 0 0 0
0 0 0 0 0 0 0 0 0
0 0 0 0 0 0 0 0 0
0 0 0 0 0 0 0 0 0
0 0 0 0 0 0 0 0 0
0 0 0 0 0 0 0 0 0
0 0 0 0 0 0 0 0 0
0 0 0 0 0 0 0 0 0
0 0 0 0 0 0 0 0 0
0 0 0 0 0 0 0 0 0
0 0 0 0 0 0 0 0 0
0 0 0 0 0 0 0 0 0
0 0 0 0 0 0 0 0 0
0 0 0 0 0 0 0 0 0
0 0 0 0 0 0 0 0 0
0 0 0 0 0 0 0 0 0
0 0 0 0 0 0 0 0 0
0 0 0 0 0 0 0 0 0
0 0 0 0 0 0 0 0 0
0 0 0 0 0 0 0 0 0
0 0 0 0 0 0 0 0 0
0 0 0 0 0 0 0 0 0
0 0 0 0 0 0 0 0 0
0 0 0 0 0 0 0 0 0
0 0 0 0 0 0 0 0 0
0 0 0 0 0 0 0 0 0
0 0 0 0 0 0 0 0 0
0 0 0 0 0 0 0 0 0
0 0 0 0 0 0 0 0 0
0 0 0 0 0 0 0 0 0
0 0 0 0 0 0 0 0 0
0 0 0 0 0 0 0 0 0
0 0 0 0 0 0 0 0 0
0 0 0 0 0 0 0 0 0
0 0 0 0 0 0 0 0 0
0 0 0 0 0 0 0 0 0
0 0 0 0 0 0 0 0 0
0 0 0 0 0 0 0 0 0
0 0 0 0 0 0 0 0 0
0 0 0 0 0 0 0 0 0
0 0 0 0 0 0 0 0 0
0 0 0 0 0 0 0 0 0
0 0 0 0 0 0 0 0 0
0 0 0 0 0 0 0 0 0
0 0 0 0 0 0 0 0 0
0 0 0 0 0 0 0 0 0
0 0 0 0 0 0 0 0 0
0 0 0 0 0 0 0 0 0
0 0 0 0 0 0 0 0 0
0 0 0 0 0 0 0 0 0
0 0 0 0 0 0 0 0 0
0 0 0 0 0 0 0 0 0
0 0 0 0 0 0 0 0 0
0 0 0 0 0 0 0 0 0
0 0 0 0 0 0 0 0 0
0 0 0 0 0 0 0 0 0
0 0 0 0 0 0 0 0 0
0 0 0 0 0 0 0 0 0
0 0 0 0 0 0 0 0 0
0 0 0 0 0 0 0 0 0
0 0 0 0 0 0 0 0 0
0 0 0 0 0 0 0 0 0
0 0 0 0 0 0 0 0 0
0 0 0 0 0 0 0 0 0
0 0 0 0 0 0 0 0 0
0 0 0 0 0 0 0 0 0
0 0 0 0 0 0 0 0 0
0 0 0 0 0 0 0 0 0
0 0 0 0 0 0 0 0 0
0 0 0 0 0 0 0 0 0
0 0 0 0 0 0 0 0 0
0 0 0 0 0 0 0 0 0
0 0 0 0 0 0 0 0 0
0 0 0 0 0 0 0 0 0
0 0 0 0 0 0 0 0 0
0 0 0 0 0 0 0 0 0
0 0 0 0 0 0 0 0 0
0 0 0 0 0 0 0 0 0
0 0 0 0 0 0 0 0 0
0 0 0 0 0 0 0 0 0
0 0 0 0 0 0 0 0 0
0 0 0 0 0 0 0 0 0
0 0 0 0 0 0 0 0 0
0 0 0 0 0 0 0 0 0
0 0 0 0 0 0 0 0 0
0 0 0 0 0 0 0 0 0
0 0 0 0 0 0 0 0 0
0 0 0 0 0 0 0 0 0
0 0 0 0 0 0 0 0 0
0 0 0 0 0 0 0 0 0
0 0 0 0 0 0 0 0 0
0 0 0 0 0 0 0 0 0
0 0 0 0 0 0 0 0 0
0 0 0 0 0 0 0 0 0
0 0 0 0 0 0 0 0 0
0 0 0 0 0 0 0 0 0
0 0 0 0 0 0 0 0 0
0 0 0 0 0 0 0 0 0
0 0 0 0 0 0 0 0 0
0 0 0 0 0 0 0 0 0
0 0 0 0 0 0 0 0 0
0 0 0 0 0 0 0 0 0
0 0 0 0 0 0 0 0 0
0 0 0 0 0 0 0 0 0
0 0 0 0 0 0 0 0 0
0 0 0 0 0 0 0 0 0
0 0 0 0 0 0 0 0 0
0 0 0 0 0 0 0 0 0
0 0 0 0 0 0 0 0 0
0 0 0 0 0 0 0 0 0
0 0 0 0 0 0 0 0 0
0 0 0 0 0 0 0 0 0
0 0 0 0 0 0 0 0 0
0 0 0 0 0 0 0 0 0
0 0 0 0 0 0 0 0 0
0 0 0 0 0 0 0 0 0
0 0 0 0 0 0 0 0 0
0 0 0 0 0 0 0 0 0
0 0 0 0 0 0 0 0 0
0 0 0 0 0 0 0 0 0
0 0 0 0 0 0 0 0 0
0 0 0 0 0 0 0 0 0
0 0 0 0 0 0 0 0 0
0 0 0 0 0 0 0 0 0
0 0 0 0 0 0 0 0 0
0 0 0 0 0 0 0 0 0
0 0 0 0 0 0 0 0 0
0 0 0 0 0 0 0 0 0
0 0 0 0 0 0 0 0 0
0 0 0 0 0 0 0 0 0
0 0 0 0 0 0 0 0 0
0 0 0 0 0 0 0 0 0
0 0 0 0 0 0 0 0 0
0 0 0 0 0 0 0 0 0
0 0 0 0 0 0 0 0 0
0 0 0 0 0 0 0 0 0
0 0 0 0 0 0 0 0 0
0 0 0 0 0 0 0 0 0
0 0 0 0 0 0 0 0 0
0 0 0 0 0 0 0 0 0
0 0 0 0 0 0 0 0 0
0 0 0 0 0 0 0 0 0
0 0 0 0 0 0 0 0 0
0 0 0 0 0 0 0 0 0
0 0 0 0 0 0 0 0 0
0 0 0 0 0 0 0 0 0
0 0 0 0 0 0 0 0 0
0 0 0 0 0 0 0 0 0
0 0 0 0 0 0 0 0 0
0 0 0 0 0 0 0 0 0
0 0 0 0 0 0 0 0 0
0 0 0 0 0 0 0 0 0
0 0 0 0 0 0 0 0 0
0 0 0 0 0 0 0 0 0
0 0 0 0 0 0 0 0 0
0 0 0 0 0 0 0 0 0
0 0 0 0 0 0 0 0 0
0 0 0 0 0 0 0 0 0
0 0 0 0 0 0 0 0 0
0 0 0 0 0 0 0 0 0
0 0 0 0 0 0 0 0 0
0 0 0 0 0 0 0 0 0
0 0 0 0 0 0 0 0 0
0 0 0 0 0 0 0 0 0
0 0 0 0 0 0 0 0 0
0 0 0 0 0 0 0 0 0
0 0 0 0 0 0 0 0 0
0 0 0 0 0 0 0 0 0
0 0 0 0 0 0 0 0 0
0 0 0 0 0 0 0 0 0
0 0 0 0 0 0 0 0 0
0 0 0 0 0 0 0 0 0
0 0 0 0 0 0 0 0 0
0 0 0 0 0 0 0 0 0
0 0 0 0 0 0 0 0 0
0 0 0 0 0 0 0 0 0
0 0 0 0 0 0 0 0 0
0 0 0 0 0 0 0 0 0
0 0 0 0 0 0 0 0 0
0 0 0 0 0 0 0 0 0
0 0 0 0 0 0 0 0 0
0 0 0 0 0 0 0 0 0
0 0 0 0 0 0 0 0 0
0 0 0 0 0 0 0 0 0
0 0 0 0 0 0 0 0 0
0 0 0 0 0 0 0 0 0
0 0 0 0 0 0 0 0 0
0 0 0 0 0 0 0 0 0
0 0 0 0 0 0 0 0 0
0 0 0 0 0 0 0 0 0
0 0 0 0 0 0 0 0 0
0 0 0 0 0 0 0 0 0
0 0 0 0 0 0 0 0 0
0 0 0 0 0 0 0 0 0
0 0 0 0 0 0 0 0 0
0 0 0 0 0 0 0 0 0
0 0 0 0 0 0 0 0 0
0 0 0 0 0 0 0 0 0
0 0 0 0 0 0 0 0 0
0 0 0 0 0 0 0 0 0
0 0 0 0 0 0 0 0 0
0 0 0 0 0 0 0 0 0
0 0 0 0 0 0 0 0 0
0 0 0 0 0 0 0 0 0
0 0 0 0 0 0 0 0 0
0 0 0 0 0 0 0 0 0
0 0 0 0 0 0 0 0 0
0 0 0 0 0 0 0 0 0
0 0 0 0 0 0 0 0 0
0 0 0 0 0 0 0 0 0
0 0 0 0 0 0 0 0 0
0 0 0 0 0 0 0 0 0
0 0 0 0 0 0 0 0 0
0 0 0 0 0 0 0 0 0
0 0 0 0 0 0 0 0 0
0 0 0 0 0 0 0 0 0
0 0 0 0 0 0 0 0 0
0 0 0 0 0 0 0 0 0
0 0 0 0 0 0 0 0 0
0 0 0 0 0 0 0 0 0
0 0 0 0 0 0 0 0 0
0 0 0 0 0 0 0 0 0
0 0 0 0 0 0 0 0 0
0 0 0 0 0 0 0 0 0
0 0 0 0 0 0 0 0 0
0 0 0 0 0 0 0 0 0
0 0 0 0 0 0 0 0 0
0 0 0 0 0 0 0 0 0
0 0 0 0 0 0 0 0 0
0 0 0 0 0 0 0 0 0
0 0 0 0 0 0 0 0 0
0 0 0 0 0 0 0 0 0
0 0 0 0 0 0 0 0 0
0 0 0 0 0 0 0 0 0
0 0 0 0 0 0 0 0 0
0 0 0 0 0 0 0 0 0
0 0 0 0 0 0 0 0 0
0 0 0 0 0 0 0 0 0
0 0 0 0 0 0 0 0 0
0 0 0 0 0 0 0 0 0
0 0 0 0 0 0 0 0 0
0 0 0 0 0 0 0 0 0
0 0 0 0 0 0 0 0 0
0 0 0 0 0 0 0 0 0
0 0 0 0 0 0 0 0 0
0 0 0 0 0 0 0 0 0
0 0 0 0 0 0 0 0 0
0 0 0 0 0 0 0 0 0
0 0 0 0 0 0 0 0 0
0 0 0 0 0 0 0 0 0
0 0 0 0 0 0 0 0 0
0 0 0 0 0 0 0 0 0
0 0 0 0 0 0 0 0 0
0 0 0 0 0 0 0 0 0
0 0 0 0 0 0 0 0 0
0 0 0 0 0 0 0 0 0
0 0 0 0 0 0 0 0 0
0 0 0 0 0 0 0 0 0
0 0 0 0 0 0 0 0 0
0 0 0 0 0 0 0 0 0
0 0 0 0 0 0 0 0 0
0 0 0 0 0 0 0 0 0
0 0 0 0 0 0 0 0 0
0 0 0 0 0 0 0 0 0
0 0 0 0 0 0 0 0 0
0 0 0 0 0 0 0 0 0
0 0 0 0 0 0 0 0 0
0 0 0 0 0 0 0 0 0
0 0 0 0 0 0 0 0 0
0 0 0 0 0 0 0 0 0
0 0 0 0 0 0 0 0 0
0 0 0 0 0 0 0 0 0
0 0 0 0 0 0 0 0 0
0 0 0 0 0 0 0 0 0
0 0 0 0 0 0 0 0 0
0 0 0 0 0 0 0 0 0
0 0 0 0 0 0 0 0 0
0 0 0 0 0 0 0 0 0
0 0 0 0 0 0 0 0 0
0 0 0 0 0 0 0 0 0
0 0 0 0 0 0 0 0 0
0 0 0 0 0 0 0 0 0
0 0 0 0 0 0 0 0 0
0 0 0 0 0 0 0 0 0
0 0 0 0 0 0 0 0 0
0 0 0 0 0 0 0 0 0
0 0 0 0 0 0 0 0 0
0 0 0 0 0 0 0 0 0
0 0 0 0 0 0 0 0 0
0 0 0 0 0 0 0 0 0
0 0 0 0 0 0 0 0 0
0 0 0 0 0 0 0 0 0
0 0 0 0 0 0 0 0 0
0 0 0 0 0 0 0 0 0
0 0 0 0 0 0 0 0 0
0 0 0 0 0 0 0 0 0
0 0 0 0 0 0 0 0 0
0 0 0 0 0 0 0 0 0
0 0 0 0 0 0 0 0 0
0 0 0 0 0 0 0 0 0
0 0 0 0 0 0 0 0 0
0 0 0 0 0 0 0 0 0
0 0 0 0 0 0 0 0 0
0 0 0 0 0 0 0 0 0
0 0 0 0 0 0 0 0 0
0.296343 0.323604 0.291097 0.317827 0.296343 0.323604 0.291097 0.317827 0
0.343702 0.371351 0.337562 0.364747 0.343702 0.371351 0.337562 0.364747 0
0.391844 0.420185 0.384905 0.412792 0.391844 0.420185 0.384905 0.412792 0
0.44126 0.4705 0.433518 0.462255 0.44126 0.4705 0.433518 0.462255 0
0.492254 0.52245 0.483605 0.513196 0.492254 0.52245 0.483605 0.513196 0
0.544861 0.575895 0.535127 0.565454 0.544861 0.575895 0.535127 0.565454 0
0.598861 0.63057 0.587885 0.618841 0.598861 0.63057 0.587885 0.618841 0
0.653879 0.685851 0.641652 0.673015 0.653879 0.685851 0.641652 0.673015 0
0.30508 0.333155 0.300092 0.327714 0.30508 0.333155 0.300092 0.327714 0
0.353873 0.3824 0.348076 0.376085 0.353873 0.3824 0.348076 0.376085 0
0.403551 0.432809 0.396845 0.425553 0.403551 0.432809 0.396845 0.425553 0
0.454562 0.484731 0.446904 0.476528 0.454562 0.484731 0.446904 0.476528 0
0.507177 0.53833 0.498577 0.529191 0.507177 0.53833 0.498577 0.529191 0
0.561474 0.593549 0.551928 0.583431 0.561474 0.593549 0.551928 0.583431 0
0.617326 0.650211 0.606758 0.638984 0.617326 0.650211 0.606758 0.638984 0
0.674532 0.708095 0.662699 0.695262 0.674532 0.708095 0.662699 0.695262 0
0.732971 0.767368 0.719548 0.753336 0.732971 0.767368 0.719548 0.753336 0
0.313432 0.342309 0.308656 0.337068 0.313432 0.342309 0.308656 0.337068 0
0.363638 0.393032 0.358044 0.386943 0.363638 0.393032 0.358044 0.386943 0
0.414838 0.445022 0.408374 0.438029 0.414838 0.445022 0.408374 0.438029 0
0.467456 0.498565 0.460072 0.49064 0.467456 0.498565 0.460072 0.49064 0
0.521703 0.553809 0.513378 0.544932 0.521703 0.553809 0.513378 0.544932 0
0.577675 0.610771 0.568378 0.600881 0.577675 0.610771 0.568378 0.600881 0
0.635345 0.669386 0.624993 0.658364 0.635345 0.669386 0.624993 0.658364 0
0.694647 0.729622 0.683101 0.717311 0.694647 0.729622 0.683101 0.717311 0
0.755527 0.791325 0.742621 0.777558 0.755527 0.791325 0.742621 0.777558 0
0.271287 0.300199 0.267277 0.295783 0.271287 0.300199 0.267277 0.295783 0
0.321589 0.351119 0.316897 0.346074 0.321589 0.351119 0.316897 0.346074 0
0.372993 0.403223 0.367643 0.397395 0.372993 0.403223 0.367643 0.397395 0
0.425663 0.45674 0.419472 0.450037 0.425663 0.45674 0.419472 0.450037 0
0.479841 0.511878 0.472755 0.504257 0.479841 0.511878 0.472755 0.504257 0
0.53571 0.568785 0.527689 0.560204 0.53571 0.568785 0.527689 0.560204 0
0.593387 0.62753 0.58438 0.617916 0.593387 0.62753 0.58438 0.617916 0
0.652917 0.688132 0.642832 0.677368 0.652917 0.688132 0.642832 0.677368 0
0.714312 0.75062 0.703016 0.738554 0.714312 0.75062 0.703016 0.738554 0
0.777566 0.814874 0.764898 0.801333 0.777566 0.814874 0.764898 0.801333 0
0.277715 0.307311 0.274082 0.303285 0.277715 0.307311 0.274082 0.303285 0
0.329214 0.359457 0.324888 0.354704 0.329214 0.359457 0.324888 0.354704 0
0.381888 0.412927 0.376808 0.407384 0.381888 0.412927 0.376808 0.407384 0
0.43598 0.467922 0.430085 0.461532 0.43598 0.467922 0.430085 0.461532 0
0.491675 0.524628 0.48491 0.517336 0.491675 0.524628 0.48491 0.517336 0
0.549152 0.583201 0.541462 0.574948 0.549152 0.583201 0.541462 0.574948 0
0.608549 0.643753 0.599865 0.634455 0.608549 0.643753 0.599865 0.634455 0
0.669962 0.706364 0.660189 0.695906 0.669962 0.706364 0.660189 0.695906 0
0.733468 0.771116 0.722476 0.75935 0.733468 0.771116 0.722476 0.75935 0
0.799111 0.837946 0.786739 0.824691 0.799111 0.837946 0.786739 0.824691 0
0.283636 0.31383 0.280271 0.310133 0.283636 0.31383 0.280271 0.310133 0
0.336239 0.36727 0.332252 0.362821 0.336239 0.36727 0.332252 0.362821 0
0.390275 0.422097 0.385493 0.416866 0.390275 0.422097 0.385493 0.416866 0
0.445742 0.478523 0.440172 0.472473 0.445742 0.478523 0.440172 0.472473 0
0.502912 0.536766 0.496497 0.529833 0.502912 0.536766 0.496497 0.529833 0
0.561976 0.596999 0.554648 0.589109 0.561976 0.596999 0.554648 0.589109 0
0.623093 0.659362 0.614773 0.650427 0.623093 0.659362 0.614773 0.650427 0
0.686396 0.723985 0.676985 0.713889 0.686396 0.723985 0.676985 0.713889 0
0.752014 0.791004 0.741385 0.779601 0.752014 0.791004 0.741385 0.779601 0
0.820052 0.860423 0.808041 0.847525 0.820052 0.860423 0.808041 0.847525 0
0.342855 0.374579 0.339075 0.370415 0.342855 0.374579 0.339075 0.370415 0
0.398113 0.430687 0.393651 0.425795 0.398113 0.430687 0.393651 0.425795 0
0.454905 0.488497 0.449686 0.482813 0.454905 0.488497 0.449686 0.482813 0
0.513506 0.548242 0.507466 0.541695 0.513506 0.548242 0.507466 0.541695 0
0.574128 0.610116 0.567193 0.602625 0.574128 0.610116 0.567193 0.602625 0
0.63695 0.674276 0.629033 0.665751 0.63695 0.674276 0.629033 0.665751 0
0.702127 0.740893 0.693132 0.73122 0.702127 0.740893 0.693132 0.73122 0
0.769852 0.810204 0.759642 0.799205 0.769852 0.810204 0.759642 0.799205 0
0.840307 0.882196 0.828699 0.869716 0.840307 0.882196 0.828699 0.869716 0
0.348936 0.381303 0.34549 0.377489 0.348936 0.381303 0.34549 0.377489 0
0.405365 0.43874 0.401245 0.434149 0.405365 0.43874 0.401245 0.434149 0
0.463576 0.498056 0.45862 0.492575 0.463576 0.498056 0.45862 0.492575 0
0.523636 0.559041 0.517833 0.552885 0.523636 0.559041 0.517833 0.552885 0
0.585523 0.622467 0.579035 0.615428 0.585523 0.622467 0.579035 0.615428 0
0.650035 0.688409 0.642573 0.680344 0.650035 0.688409 0.642573 0.680344 0
0.717064 0.756979 0.708537 0.747792 0.717064 0.756979 0.708537 0.747792 0
0.786861 0.828588 0.777143 0.818076 0.786861 0.828588 0.777143 0.818076 0
0.532719 0.5691 0.527617 0.563379 0.532719 0.5691 0.527617 0.563379 0
0.596322 0.634317 0.590148 0.627522 0.596322 0.634317 0.590148 0.627522 0
0.662659 0.7021 0.65541 0.694233 0.662659 0.7021 0.65541 0.694233 0
0.731533 0.772505 0.72322 0.763596 0.731533 0.772505 0.72322 0.763596 0
0.80319 0.846053 0.793837 0.836081 0.80319 0.846053 0.793837 0.836081 0
0 0 0 0 0 0 0 0 0
0 0 0 0 0 0 0 0 0
0 0 0 0 0 0 0 0 0
0 0 0 0 0 0 0 0 0
0 0 0 0 0 0 0 0 0
0 0 0 0 0 0 0 0 0
0 0 0 0 0 0 0 0 0
0 0 0 0 0 0 0 0 0
0 0 0 0 0 0 0 0 0
0 0 0 0 0 0 0 0 0
0 0 0 0 0 0 0 0 0
0 0 0 0 0 0 0 0 0
0 0 0 0 0 0 0 0 0
0 0 0 0 0 0 0 0 0
0 0 0 0 0 0 0 0 0
0 0 0 0 0 0 0 0 0
0 0 0 0 0 0 0 0 0
0 0 0 0 0 0 0 0 0
0 0 0 0 0 0 0 0 0
0 0 0 0 0 0 0 0 0
0 0 0 0 0 0 0 0 0
0 0 0 0 0 0 0 0 0
0 0 0 0 0 0 0 0 0
0 0 0 0 0 0 0 0 0
0 0 0 0 0 0 0 0 0
0 0 0 0 0 0 0 0 0
0 0 0 0 0 0 0 0 0
0 0 0 0 0 0 0 0 0
0 0 0 0 0 0 0 0 0
0 0 0 0 0 0 0 0 0
0 0 0 0 0 0 0 0 0
0 0 0 0 0 0 0 0 0
0 0 0 0 0 0 0 0 0
0 0 0 0 0 0 0 0 0
0 0 0 0 0 0 0 0 0
0 0 0 0 0 0 0 0 0
0 0 0 0 0 0 0 0 0
0 0 0 0 0 0 0 0 0
0 0 0 0 0 0 0 0 0
0 0 0 0 0 0 0 0 0
0 0 0 0 0 0 0 0 0
0 0 0 0 0 0 0 0 0
0 0 0 0 0 0 0 0 0
0 0 0 0 0 0 0 0 0
0 0 0 0 0 0 0 0 0
0 0 0 0 0 0 0 0 0
0 0 0 0 0 0 0 0 0
0 0 0 0 0 0 0 0 0
0 0 0 0 0 0 0 0 0
0 0 0 0 0 0 0 0 0
0 0 0 0 0 0 0 0 0
0 0 0 0 0 0 0 0 0
0 0 0 0 0 0 0 0 0
0 0 0 0 0 0 0 0 0
0 0 0 0 0 0 0 0 0
0 0 0 0 0 0 0 0 0
0 0 0 0 0 0 0 0 0
0 0 0 0 0 0 0 0 0
0 0 0 0 0 0 0 0 0
0 0 0 0 0 0 0 0 0
0 0 0 0 0 0 0 0 0
0 0 0 0 0 0 0 0 0
0 0 0 0 0 0 0 0 0
0 0 0 0 0 0 0 0 0
0 0 0 0 0 0 0 0 0
0 0 0 0 0 0 0 0 0
0 0 0 0 0 0 0 0 0
0 0 0 0 0 0 0 0 0
0 0 0 0 0 0 0 0 0
0 0 0 0 0 0 0 0 0
0 0 0 0 0 0 0 0 0
0 0 0 0 0 0 0 0 0
0 0 0 0 0 0 0 0 0
0 0 0 0 0 0 0 0 0
0 0 0 0 0 0 0 0 0
0 0 0 0 0 0 0 0 0
0 0 0 0 0 0 0 0 0
0 0 0 0 0 0 0 0 0
0 0 0 0 0 0 0 0 0
0 0 0 0 0 0 0 0 0
0 0 0 0 0 0 0 0 0
0 0 0 0 0 0 0 0 0
0 0 0 0 0 0 0 0 0
0 0 0 0 0 0 0 0 0
0 0 0 0 0 0 0 0 0
0 0 0 0 0 0 0 0 0
0 0 0 0 0 0 0 0 0
0 0 0 0 0 0 0 0 0
0 0 0 0 0 0 0 0 0
0 0 0 0 0 0 0 0 0
0 0 0 0 0 0 0 0 0
0 0 0 0 0 0 0 0 0
0 0 0 0 0 0 0 0 0
0 0 0 0 0 0 0 0 0
0 0 0 0 0 0 0 0 0
0 0 0 0 0 0 0 0 0
0 0 0 0 0 0 0 0 0
0 0 0 0 0 0 0 0 0
0 0 0 0 0 0 0 0 0
0 0 0 0 0 0 0 0 0
0 0 0 0 0 0 0 0 0
0 0 0 0 0 0 0 0 0
0 0 0 0 0 0 0 0 0
0 0 0 0 0 0 0 0 0
0 0 0 0 0 0 0 0 0
0 0 0 0 0 0 0 0 0
0 0 0 0 0 0 0 0 0
0 0 0 0 0 0 0 0 0
0 0 0 0 0 0 0 0 0
0 0 0 0 0 0 0 0 0
0 0 0 0 0 0 0 0 0
0 0 0 0 0 0 0 0 0
0 0 0 0 0 0 0 0 0
0 0 0 0 0 0 0 0 0
0 0 0 0 0 0 0 0 0
0 0 0 0 0 0 0 0 0
0 0 0 0 0 0 0 0 0
0 0 0 0 0 0 0 0 0
0 0 0 0 0 0 0 0 0
0 0 0 0 0 0 0 0 0
0 0 0 0 0 0 0 0 0
0 0 0 0 0 0 0 0 0
0 0 0 0 0 0 0 0 0
0 0 0 0 0 0 0 0 0
0 0 0 0 0 0 0 0 0
0 0 0 0 0 0 0 0 0
0 0 0 0 0 0 0 0 0
0 0 0 0 0 0 0 0 0
0 0 0 0 0 0 0 0 0
0 0 0 0 0 0 0 0 0
0 0 0 0 0 0 0 0 0
0 0 0 0 0 0 0 0 0
0 0 0 0 0 0 0 0 0
0 0 0 0 0 0 0 0 0
0 0 0 0 0 0 0 0 0
0 0 0 0 0 0 0 0 0
0 0 0 0 0 0 0 0 0
0 0 0 0 0 0 0 0 0
0 0 0 0 0 0 0 0 0
0 0 0 0 0 0 0 0 0
0 0 0 0 0 0 0 0 0
0 0 0 0 0 0 0 0 0
0 0 0 0 0 0 0 0 0
0 0 0 0 0 0 0 0 0
0 0 0 0 0 0 0 0 0
0 0 0 0 0 0 0 0 0
0 0 0 0 0 0 0 0 0
0 0 0 0 0 0 0 0 0
0 0 0 0 0 0 0 0 0
0 0 0 0 0 0 0 0 0
0 0 0 0 0 0 0 0 0
0 0 0 0 0 0 0 0 0
0 0 0 0 0 0 0 0 0
0 0 0 0 0 0 0 0 0
0 0 0 0 0 0 0 0 0
0 0 0 0 0 0 0 0 0
0 0 0 0 0 0 0 0 0
0 0 0 0 0 0 0 0 0
0 0 0 0 0 0 0 0 0
0 0 0 0 0 0 0 0 0
0 0 0 0 0 0 0 0 0
0 0 0 0 0 0 0 0 0
0 0 0 0 0 0 0 0 0
0 0 0 0 0 0 0 0 0
0 0 0 0 0 0 0 0 0
0 0 0 0 0 0 0 0 0
0 0 0 0 0 0 0 0 0
0 0 0 0 0 0 0 0 0
0 0 0 0 0 0 0 0 0
0 0 0 0 0 0 0 0 0
0 0 0 0 0 0 0 0 0
0 0 0 0 0 0 0 0 0
0 0 0 0 0 0 0 0 0
0 0 0 0 0 0 0 0 0
0 0 0 0 0 0 0 0 0
0 0 0 0 0 0 0 0 0
0 0 0 0 0 0 0 0 0
0 0 0 0 0 0 0 0 0
0 0 0 0 0 0 0 0 0
0 0 0 0 0 0 0 0 0
0 0 0 0 0 0 0 0 0
0 0 0 0 0 0 0 0 0
0 0 0 0 0 0 0 0 0
0 0 0 0 0 0 0 0 0
0 0 0 0 0 0 0 0 0
0 0 0 0 0 0 0 0 0
0 0 0 0 0 0 0 0 0
0 0 0 0 0 0 0 0 0
0 0 0 0 0 0 0 0 0
0 0 0 0 0 0 0 0 0
0 0 0 0 0 0 0 0 0
0 0 0 0 0 0 0 0 0
0 0 0 0 0 0 0 0 0
0 0 0 0 0 0 0 0 0
0 0 0 0 0 0 0 0 0
0 0 0 0 0 0 0 0 0
0 0 0 0 0 0 0 0 0
0 0 0 0 0 0 0 0 0
0 0 0 0 0 0 0 0 0
0 0 0 0 0 0 0 0 0
0 0 0 0 0 0 0 0 0
0 0 0 0 0 0 0 0 0
0 0 0 0 0 0 0 0 0
0 0 0 0 0 0 0 0 0
0 0 0 0 0 0 0 0 0
0 0 0 0 0 0 0 0 0
0 0 0 0 0 0 0 0 0
0 0 0 0 0 0 0 0 0
0 0 0 0 0 0 0 0 0
0 0 0 0 0 0 0 0 0
0 0 0 0 0 0 0 0 0
0 0 0 0 0 0 0 0 0
0 0 0 0 0 0 0 0 0
0 0 0 0 0 0 0 0 0
0 0 0 0 0 0 0 0 0
0 0 0 0 0 0 0 0 0
0 0 0 0 0 0 0 0 0
0 0 0 0 0 0 0 0 0
0 0 0 0 0 0 0 0 0
0 0 0 0 0 0 0 0 0
0 0 0 0 0 0 0 0 0
0 0 0 0 0 0 0 0 0
0 0 0 0 0 0 0 0 0
0 0 0 0 0 0 0 0 0
0 0 0 0 0 0 0 0 0
0 0 0 0 0 0 0 0 0
0 0 0 0 0 0 0 0 0
0 0 0 0 0 0 0 0 0
0 0 0 0 0 0 0 0 0
0 0 0 0 0 0 0 0 0
0 0 0 0 0 0 0 0 0
0 0 0 0 0 0 0 0 0
0 0 0 0 0 0 0 0 0
0 0 0 0 0 0 0 0 0
0 0 0 0 0 0 0 0 0
0 0 0 0 0 0 0 0 0
0 0 0 0 0 0 0 0 0
0 0 0 0 0 0 0 0 0
0 0 0 0 0 0 0 0 0
0 0 0 0 0 0 0 0 0
0 0 0 0 0 0 0 0 0
0 0 0 0 0 0 0 0 0
0 0 0 0 0 0 0 0 0
0 0 0 0 0 0 0 0 0
0 0 0 0 0 0 0 0 0
0 0 0 0 0 0 0 0 0
0 0 0 0 0 0 0 0 0
0 0 0 0 0 0 0 0 0
0 0 0 0 0 0 0 0 0
0 0 0 0 0 0 0 0 0
0 0 0 0 0 0 0 0 0
0 0 0 0 0 0 0 0 0
0 0 0 0 0 0 0 0 0
0 0 0 0 0 0 0 0 0
0 0 0 0 0 0 0 0 0
0 0 0 0 0 0 0 0 0
0 0 0 0 0 0 0 0 0
0 0 0 0 0 0 0 0 0
0 0 0 0 0 0 0 0 0
0 0 0 0 0 0 0 0 0
0 0 0 0 0 0 0 0 0
0 0 0 0 0 0 0 0 0
0 0 0 0 0 0 0 0 0
0 0 0 0 0 0 0 0 0
0 0 0 0 0 0 0 0 0
0 0 0 0 0 0 0 0 0
0 0 0 0 0 0 0 0 0
0 0 0 0 0 0 0 0 0
0 0 0 0 0 0 0 0 0
0 0 0 0 0 0 0 0 0
0 0 0 0 0 0 0 0 0
0 0 0 0 0 0 0 0 0
0 0 0 0 0 0 0 0 0
0 0 0 0 0 0 0 0 0
0 0 0 0 0 0 0 0 0
0 0 0 0 0 0 0 0 0
0 0 0 0 0 0 0 0 0
0 0 0 0 0 0 0 0 0
0 0 0 0 0 0 0 0 0
0 0 0 0 0 0 0 0 0
0 0 0 0 0 0 0 0 0
0 0 0 0 0 0 0 0 0
0 0 0 0 0 0 0 0 0
0 0 0 0 0 0 0 0 0
0 0 0 0 0 0 0 0 0
0 0 0 0 0 0 0 0 0
0 0 0 0 0 0 0 0 0
0 0 0 0 0 0 0 0 0
0 0 0 0 0 0 0 0 0
0 0 0 0 0 0 0 0 0
0 0 0 0 0 0 0 0 0
0 0 0 0 0 0 0 0 0
0 0 0 0 0 0 0 0 0
0 0 0 0 0 0 0 0 0
0 0 0 0 0 0 0 0 0
0 0 0 0 0 0 0 0 0
0 0 0 0 0 0 0 0 0
0 0 0 0 0 0 0 0 0
0 0 0 0 0 0 0 0 0
0 0 0 0 0 0 0 0 0
0 0 0 0 0 0 0 0 0
0 0 0 0 0 0 0 0 0
0 0 0 0 0 0 0 0 0
0 0 0 0 0 0 0 0 0
0 0 0 0 0 0 0 0 0
0 0 0 0 0 0 0 0 0
0 0 0 0 0 0 0 0 0
0 0 0 0 0 0 0 0 0
0 0 0 0 0 0 0 0 0
0 0 0 0 0 0 0 0 0
0 0 0 0 0 0 0 0 0
0 0 0 0 0 0 0 0 0
0 0 0 0 0 0 0 0 0
0 0 0 0 0 0 0 0 0
0 0 0 0 0 0 0 0 0
0 0 0 0 0 0 0 0 0
0 0 0 0 0 0 0 0 0
0 0 0 0 0 0 0 0 0
0 0 0 0 0 0 0 0 0
0 0 0 0 0 0 0 0 0
0 0 0 0 0 0 0 0 0
0 0 0 0 0 0 0 0 0
0 0 0 0 0 0 0 0 0
0 0 0 0 0 0 0 0 0
0 0 0 0 0 0 0 0 0
0 0 0 0 0 0 0 0 0
0 0 0 0 0 0 0 0 0
0 0 0 0 0 0 0 0 0
0 0 0 0 0 0 0 0 0
0 0 0 0 0 0 0 0 0
0 0 0 0 0 0 0 0 0
0 0 0 0 0 0 0 0 0
0 0 0 0 0 0 0 0 0
0 0 0 0 0 0 0 0 0
0 0 0 0 0 0 0 0 0
0 0 0 0 0 0 0 0 0
0 0 0 0 0 0 0 0 0
0 0 0 0 0 0 0 0 0
0 0 0 0 0 0 0 0 0
0 0 0 0 0 0 0 0 0
0 0 0 0 0 0 0 0 0
0 0 0 0 0 0 0 0 0
0 0 0 0 0 0 0 0 0
0 0 0 0 0 0 0 0 0
0 0 0 0 0 0 0 0 0
0 0 0 0 0 0 0 0 0
0 0 0 0 0 0 0 0 0
0 0 0 0 0 0 0 0 0
0 0 0 0 0 0 0 0 0
0 0 0 0 0 0 0 0 0
0 0 0 0 0 0 0 0 0
0 0 0 0 0 0 0 0 0
0 0 0 0 0 0 0 0 0
0 0 0 0 0 0 0 0 0
0 0 0 0 0 0 0 0 0
0 0 0 0 0 0 0 0 0
0 0 0 0 0 0 0 0 0
0 0 0 0 0 0 0 0 0
0 0 0 0 0 0 0 0 0
0 0 0 0 0 0 0 0 0
0 0 0 0 0 0 0 0 0
0 0 0 0 0 0 0 0 0
0 0 0 0 0 0 0 0 0
0 0 0 0 0 0 0 0 0
0 0 0 0 0 0 0 0 0
0 0 0 0 0 0 0 0 0
0 0 0 0 0 0 0 0 0
0 0 0 0 0 0 0 0 0
0 0 0 0 0 0 0 0 0
0 0 0 0 0 0 0 0 0
0 0 0 0 0 0 0 0 0
0 0 0 0 0 0 0 0 0
0 0 0 0 0 0 0 0 0
0 0 0 0 0 0 0 0 0
0 0 0 0 0 0 0 0 0
0 0 0 0 0 0 0 0 0
0 0 0 0 0 0 0 0 0
0 0 0 0 0 0 0 0 0
0 0 0 0 0 0 0 0 0
0 0 0 0 0 0 0 0 0
0 0 0 0 0 0 0 0 0
0 0 0 0 0 0 0 0 0
0 0 0 0 0 0 0 0 0
0 0 0 0 0 0 0 0 0
0 0 0 0 0 0 0 0 0
0 0 0 0 0 0 0 0 0
0 0 0 0 0 0 0 0 0
0 0 0 0 0 0 0 0 0
0 0 0 0 0 0 0 0 0
0 0 0 0 0 0 0 0 0
0 0 0 0 0 0 0 0 0
0 0 0 0 0 0 0 0 0
0 0 0 0 0 0 0 0 0
0 0 0 0 0 0 0 0 0
0 0 0 0 0 0 0 0 0
0 0 0 0 0 0 0 0 0
0 0 0 0 0 0 0 0 0
0 0 0 0 0 0 0 0 0
0 0 0 0 0 0 0 0 0
0 0 0 0 0 0 0 0 0
0 0 0 0 0 0 0 0 0
0 0 0 0 0 0 0 0 0
0 0 0 0 0 0 0 0 0
0 0 0 0 0 0 0 0 0
0 0 0 0 0 0 0 0 0
0 0 0 0 0 0 0 0 0
0 0 0 0 0 0 0 0 0
0 0 0 0 0 0 0 0 0
0 0 0 0 0 0 0 0 0
0 0 0 0 0 0 0 0 0
0 0 0 0 0 0 0 0 0
0 0 0 0 0 0 0 0 0
0 0 0 0 0 0 0 0 0
0 0 0 0 0 0 0 0 0
0 0 0 0 0 0 0 0 0
0 0 0 0 0 0 0 0 0
0 0 0 0 0 0 0 0 0
0 0 0 0 0 0 0 0 0
0 0 0 0 0 0 0 0 0
0 0 0 0 0 0 0 0 0
0 0 0 0 0 0 0 0 0
0 0 0 0 0 0 0 0 0
0 0 0 0 0 0 0 0 0
0 0 0 0 0 0 0 0 0
0 0 0 0 0 0 0 0 0
0 0 0 0 0 0 0 0 0
0 0 0 0 0 0 0 0 0
0 0 0 0 0 0 0 0 0
0 0 0 0 0 0 0 0 0
0 0 0 0 0 0 0 0 0
0 0 0 0 0 0 0 0 0
0 0 0 0 0 0 0 0 0
0 0 0 0 0 0 0 0 0
0 0 0 0 0 0 0 0 0
0 0 0 0 0 0 0 0 0
0 0 0 0 0 0 0 0 0
0 0 0 0 0 0 0 0 0
0 0 0 0 0 0 0 0 0
0 0 0 0 0 0 0 0 0
0 0 0 0 0 0 0 0 0
0 0 0 0 0 0 0 0 0
0 0 0 0 0 0 0 0 0
0 0 0 0 0 0 0 0 0
0 0 0 0 0 0 0 0 0
0 0 0 0 0 0 0 0 0
0 0 0 0 0 0 0 0 0
0 0 0 0 0 0 0 0 0
0 0 0 0 0 0 0 0 0
0 0 0 0 0 0 0 0 0
0 0 0 0 0 0 0 0 0
0 0 0 0 0 0 0 0 0
0 0 0 0 0 0 0 0 0
0 0 0 0 0 0 0 0 0
0 0 0 0 0 0 0 0 0
0 0 0 0 0 0 0 0 0
0 0 0 0 0 0 0 0 0
0 0 0 0 0 0 0 0 0
0 0 0 0 0 0 0 0 0
0 0 0 0 0 0 0 0 0
0 0 0 0 0 0 0 0 0
0 0 0 0 0 0 0 0 0
0 0 0 0 0 0 0 0 0
0 0 0 0 0 0 0 0 0
0 0 0 0 0 0 0 0 0
0 0 0 0 0 0 0 0 0
0 0 0 0 0 0 0 0 0
0 0 0 0 0 0 0 0 0
0 0 0 0 0 0 0 0 0
0 0 0 0 0 0 0 0 0
0 0 0 0 0 0 0 0 0
0 0 0 0 0 0 0 0 0
0 0 0 0 0 0 0 0 0
0 0 0 0 0 0 0 0 0
0 0 0 0 0 0 0 0 0
0 0 0 0 0 0 0 0 0
0 0 0 0 0 0 0 0 0
0 0 0 0 0 0 0 0 0
0 0 0 0 0 0 0 0 0
0 0 0 0 0 0 0 0 0
0 0 0 0 0 0 0 0 0
0 0 0 0 0 0 0 0 0
0 0 0 0 0 0 0 0 0
0 0 0 0 0 0 0 0 0
0 0 0 0 0 0 0 0 0
0 0 0 0 0 0 0 0 0
0 0 0 0 0 0 0 0 0
0 0 0 0 0 0 0 0 0
0 0 0 0 0 0 0 0 0
0 0 0 0 0 0 0 0 0
0 0 0 0 0 0 0 0 0
0 0 0 0 0 0 0 0 0
0 0 0 0 0 0 0 0 0
0 0 0 0 0 0 0 0 0
0 0 0 0 0 0 0 0 0
0 0 0 0 0 0 0 0 0
0 0 0 0 0 0 0 0 0
0 0 0 0 0 0 0 0 0
0 0 0 0 0 0 0 0 0
0 0 0 0 0 0 0 0 0
0 0 0 0 0 0 0 0 0
0 0 0 0 0 0 0 0 0
0 0 0 0 0 0 0 0 0
0 0 0 0 0 0 0 0 0
0 0 0 0 0 0 0 0 0
0 0 0 0 0 0 0 0 0
0 0 0 0 0 0 0 0 0
0 0 0 0 0 0 0 0 0
0 0 0 0 0 0 0 0 0
0 0 0 0 0 0 0 0 0
0 0 0 0 0 0 0 0 0
0 0 0 0 0 0 0 0 0
0 0 0 0 0 0 0 0 0
0 0 0 0 0 0 0 0 0
0 0 0 0 0 0 0 0 0
0 0 0 0 0 0 0 0 0
0 0 0 0 0 0 0 0 0
0 0 0 0 0 0 0 0 0
0 0 0 0 0 0 0 0 0
0 0 0 0 0 0 0 0 0
0 0 0 0 0 0 0 0 0
0 0 0 0 0 0 0 0 0
0 0 0 0 0 0 0 0 0
0 0 0 0 0 0 0 0 0
0 0 0 0 0 0 0 0 0
0 0 0 0 0 0 0 0 0
0 0 0 0 0 0 0 0 0
0 0 0 0 0 0 0 0 0
0 0 0 0 0 0 0 0 0
0 0 0 0 0 0 0 0 0
0 0 0 0 0 0 0 0 0
0 0 0 0 0 0 0 0 0
0 0 0 0 0 0 0 0 0
0 0 0 0 0 0 0 0 0
0 0 0 0 0 0 0 0 0
0 0 0 0 0 0 0 0 0
0 0 0 0 0 0 0 0 0
0 0 0 0 0 0 0 0 0
0 0 0 0 0 0 0 0 0
0 0 0 0 0 0 0 0 0
0 0 0 0 0 0 0 0 0
0 0 0 0 0 0 0 0 0
0 0 0 0 0 0 0 0 0
0 0 0 0 0 0 0 0 0
0 0 0 0 0 0 0 0 0
0 0 0 0 0 0 0 0 0
0 0 0 0 0 0 0 0 0
0.162631 0.177661 0.159505 0.174224 0.162631 0.177661 0.159505 0.174224 0
0.188721 0.203911 0.185081 0.200024 0.188721 0.203911 0.185081 0.200024 0
0.215157 0.230694 0.211096 0.226402 0.215157 0.230694 0.211096 0.226402 0
0.242247 0.258275 0.237775 0.25354 0.242247 0.258275 0.237775 0.25354 0
0.270204 0.286765 0.26525 0.28148 0.270204 0.286765 0.26525 0.28148 0
0.299054 0.316065 0.2935 0.310111 0.299054 0.316065 0.2935 0.310111 0
0.328635 0.345968 0.322378 0.33928 0.328635 0.345968 0.322378 0.33928 0
0.358654 0.37598 0.351685 0.368675 0.358654 0.37598 0.351685 0.368675 0
0.167782 0.183288 0.164851 0.180092 0.167782 0.183288 0.164851 0.180092 0
0.194709 0.210406 0.191304 0.206695 0.194709 0.210406 0.191304 0.206695 0
0.222032 0.2381 0.21809 0.233832 0.222032 0.2381 0.21809 0.233832 0
0.250041 0.266597 0.245537 0.261778 0.250041 0.266597 0.245537 0.261778 0
0.278913 0.296005 0.273869 0.290662 0.278913 0.296005 0.273869 0.290662 0
0.308697 0.326279 0.30313 0.320402 0.308697 0.326279 0.30313 0.320402 0
0.339297 0.35728 0.333174 0.350797 0.339297 0.35728 0.333174 0.350797 0
0.370555 0.388841 0.363717 0.38139 0.370555 0.388841 0.363717 0.38139 0
0.402363 0.42102 0.394581 0.412943 0.402363 0.42102 0.394581 0.412943 0
0.172724 0.188692 0.169894 0.185594 0.172724 0.188692 0.169894 0.185594 0
0.200466 0.216668 0.197166 0.21308 0.200466 0.216668 0.197166 0.21308 0
0.228678 0.245287 0.224871 0.241172 0.228678 0.245287 0.224871 0.241172 0
0.257625 0.274721 0.253282 0.270068 0.257625 0.274721 0.253282 0.270068 0
0.287429 0.305053 0.28255 0.299865 0.287429 0.305053 0.28255 0.299865 0
0.318142 0.336282 0.312723 0.330538 0.318142 0.336282 0.312723 0.330538 0
0.349737 0.368359 0.343739 0.361991 0.349737 0.368359 0.343739 0.361991 0
0.382164 0.401259 0.375504 0.39417 0.382164 0.401259 0.375504 0.39417 0
0.415362 0.4348 0.407938 0.426883 0.415362 0.4348 0.407938 0.426883 0
0.149778 0.165791 0.147329 0.163114 0.149778 0.165791 0.147329 0.163114 0
0.177624 0.193942 0.174797 0.190929 0.177624 0.193942 0.174797 0.190929 0
0.20602 0.222701 0.20284 0.219247 0.20602 0.222701 0.20284 0.219247 0
0.235075 0.252201 0.231413 0.248244 0.235075 0.252201 0.231413 0.248244 0
0.264921 0.28255 0.260745 0.278068 0.264921 0.28255 0.260745 0.278068 0
0.295651 0.313818 0.290942 0.308794 0.295651 0.313818 0.290942 0.308794 0
0.327319 0.34604 0.322057 0.340439 0.327319 0.34604 0.322057 0.340439 0
0.359947 0.379222 0.354084 0.37298 0.359947 0.379222 0.354084 0.37298 0
0.393538 0.413377 0.387001 0.40641 0.393538 0.413377 0.387001 0.40641 0
0.42807 0.448371 0.420762 0.440563 0.42807 0.448371 0.420762 0.440563 0
0.153693 0.170109 0.151483 0.167665 0.153693 0.170109 0.151483 0.167665 0
0.182238 0.198956 0.179618 0.196092 0.182238 0.198956 0.179618 0.196092 0
0.21135 0.228492 0.2083 0.225178 0.21135 0.228492 0.2083 0.225178 0
0.241216 0.258839 0.237702 0.255041 0.241216 0.258839 0.237702 0.255041 0
0.271933 0.290085 0.26792 0.285771 0.271933 0.290085 0.26792 0.285771 0
0.30358 0.322298 0.299039 0.317438 0.30358 0.322298 0.299039 0.317438 0
0.33622 0.355535 0.331116 0.350087 0.33622 0.355535 0.331116 0.350087 0
0.369904 0.389845 0.364188 0.383744 0.369904 0.389845 0.364188 0.383744 0
0.404679 0.425265 0.398278 0.418433 0.404679 0.425265 0.398278 0.418433 0
0.440548 0.461716 0.433376 0.454044 0.440548 0.461716 0.433376 0.454044 0
0.15733 0.174067 0.155258 0.171824 0.15733 0.174067 0.155258 0.171824 0
0.18649 0.203694 0.184078 0.200992 0.18649 0.203694 0.184078 0.200992 0
0.216433 0.234031 0.213528 0.230863 0.216433 0.234031 0.213528 0.230863 0
0.247098 0.265201 0.243734 0.261562 0.247098 0.265201 0.243734 0.261562 0
0.27866 0.297326 0.274811 0.293182 0.27866 0.297326 0.274811 0.293182 0
0.311212 0.330486 0.306843 0.325795 0.311212 0.330486 0.306843 0.325795 0
0.344832 0.364754 0.339896 0.359467 0.344832 0.364754 0.339896 0.359467 0
0.37959 0.400204 0.374033 0.394257 0.37959 0.400204 0.374033 0.394257 0
0.41556 0.436902 0.409312 0.430217 0.41556 0.436902 0.409312 0.430217 0
0.452775 0.474797 0.44575 0.46728 0.452775 0.474797 0.44575 0.46728 0
0.190563 0.208204 0.188226 0.205625 0.190563 0.208204 0.188226 0.205625 0
0.221269 0.239321 0.218505 0.236296 0.221269 0.239321 0.218505 0.236296 0
0.252724 0.271292 0.249506 0.267808 0.252724 0.271292 0.249506 0.267808 0
0.285105 0.304277 0.281417 0.300298 0.285105 0.304277 0.281417 0.300298 0
0.318553 0.338387 0.31435 0.33386 0.318553 0.338387 0.31435 0.33386 0
0.353161 0.373694 0.348387 0.368567 0.353161 0.373694 0.348387 0.368567 0
0.388999 0.410281 0.383601 0.404498 0.388999 0.410281 0.383601 0.404498 0
0.426149 0.448221 0.420073 0.441728 0.426149 0.448221 0.420073 0.441728 0
0.464682 0.487584 0.45785 0.48024 0.464682 0.487584 0.45785 0.48024 0
0.19435 0.21235 0.192201 0.210004 0.19435 0.21235 0.192201 0.210004 0
0.225728 0.244276 0.223202 0.241457 0.225728 0.244276 0.223202 0.241457 0
0.258067 0.277199 0.255016 0.273807 0.258067 0.277199 0.255016 0.273807 0
0.291371 0.310961 0.287771 0.307133 0.291371 0.310961 0.287771 0.307133 0
0.3256 0.346008 0.321567 0.341641 0.3256 0.346008 0.321567 0.341641 0
0.361223 0.382384 0.3566 0.377396 0.361223 0.382384 0.3566 0.377396 0
0.398156 0.420086 0.392899 0.414458 0.398156 0.420086 0.392899 0.414458 0
0.436448 0.459219 0.430537 0.452908 0.436448 0.459219 0.430537 0.452908 0
0.297115 0.317269 0.293872 0.313674 0.297115 0.317269 0.293872 0.313674 0
0.332333 0.353334 0.328483 0.349139 0.332333 0.353334 0.328483 0.349139 0
0.368997 0.39079 0.364543 0.385971 0.368997 0.39079 0.364543 0.385971 0
0.407006 0.429515 0.401934 0.42412 0.407006 0.429515 0.401934 0.42412 0
0.446348 0.469831 0.440683 0.463753 0.446348 0.469831 0.440683 0.463753 0
0 0 0 0 0 0 0 0 0
0 0 0 0 0 0 0 0 0
0 0 0 0 0 0 0 0 0
0 0 0 0 0 0 0 0 0
0 0 0 0 0 0 0 0 0
0 0 0 0 0 0 0 0 0
0 0 0 0 0 0 0 0 0
0 0 0 0 0 0 0 0 0
0 0 0 0 0 0 0 0 0
0 0 0 0 0 0 0 0 0
0 0 0 0 0 0 0 0 0
0 0 0 0 0 0 0 0 0
0 0 0 0 0 0 0 0 0
0 0 0 0 0 0 0 0 0
0 0 0 0 0 0 0 0 0
0 0 0 0 0 0 0 0 0
0 0 0 0 0 0 0 0 0
0 0 0 0 0 0 0 0 0
0 0 0 0 0 0 0 0 0
0 0 0 0 0 0 0 0 0
0 0 0 0 0 0 0 0 0
0 0 0 0 0 0 0 0 0
0 0 0 0 0 0 0 0 0
0 0 0 0 0 0 0 0 0
0 0 0 0 0 0 0 0 0
0 0 0 0 0 0 0 0 0
0 0 0 0 0 0 0 0 0
0 0 0 0 0 0 0 0 0
0 0 0 0 0 0 0 0 0
0 0 0 0 0 0 0 0 0
0 0 0 0 0 0 0 0 0
0 0 0 0 0 0 0 0 0
0 0 0 0 0 0 0 0 0
0 0 0 0 0 0 0 0 0
0 0 0 0 0 0 0 0 0
0 0 0 0 0 0 0 0 0
0 0 0 0 0 0 0 0 0
0 0 0 0 0 0 0 0 0
0 0 0 0 0 0 0 0 0
0 0 0 0 0 0 0 0 0
0 0 0 0 0 0 0 0 0
0 0 0 0 0 0 0 0 0
0 0 0 0 0 0 0 0 0
0 0 0 0 0 0 0 0 0
0 0 0 0 0 0 0 0 0
0 0 0 0 0 0 0 0 0
0 0 0 0 0 0 0 0 0
0 0 0 0 0 0 0 0 0
0 0 0 0 0 0 0 0 0
0 0 0 0 0 0 0 0 0
0 0 0 0 0 0 0 0 0
0 0 0 0 0 0 0 0 0
0 0 0 0 0 0 0 0 0
0 0 0 0 0 0 0 0 0
0 0 0 0 0 0 0 0 0
0 0 0 0 0 0 0 0 0
0 0 0 0 0 0 0 0 0
0 0 0 0 0 0 0 0 0
0 0 0 0 0 0 0 0 0
0 0 0 0 0 0 0 0 0
0 0 0 0 0 0 0 0 0
0 0 0 0 0 0 0 0 0
0 0 0 0 0 0 0 0 0
0 0 0 0 0 0 0 0 0
0 0 0 0 0 0 0 0 0
0 0 0 0 0 0 0 0 0
0 0 0 0 0 0 0 0 0
0 0 0 0 0 0 0 0 0
0 0 0 0 0 0 0 0 0
0 0 0 0 0 0 0 0 0
0 0 0 0 0 0 0 0 0
0 0 0 0 0 0 0 0 0
0 0 0 0 0 0 0 0 0
0 0 0 0 0 0 0 0 0
0 0 0 0 0 0 0 0 0
0 0 0 0 0 0 0 0 0
0 0 0 0 0 0 0 0 0
0 0 0 0 0 0 0 0 0
0.15918 0.173718 0.156125 0.170356 0.15918 0.173718 0.156125 0.170356 0
0.184411 0.199089 0.180851 0.195294 0.184411 0.199089 0.180851 0.195294 0
0.209954 0.224961 0.205993 0.220781 0.209954 0.224961 0.205993 0.220781 0
0.236119 0.2516 0.231769 0.247001 0.236119 0.2516 0.231769 0.247001 0
0.263125 0.279132 0.258318 0.274006 0.263125 0.279132 0.258318 0.274006 0
0.291013 0.307466 0.285627 0.301692 0.291013 0.307466 0.285627 0.301692 0
0.319625 0.336392 0.313556 0.329906 0.319625 0.336392 0.313556 0.329906 0
0.348663 0.36542 0.341908 0.358349 0.348663 0.36542 0.341908 0.358349 0
0.164214 0.179207 0.161348 0.17609 0.164214 0.179207 0.161348 0.17609 0
0.190246 0.205412 0.186929 0.201801 0.190246 0.205412 0.186929 0.201801 0
0.216644 0.232162 0.212809 0.228011 0.216644 0.232162 0.212809 0.228011 0
0.243695 0.259685 0.239316 0.255 0.243695 0.259685 0.239316 0.255 0
0.271583 0.288099 0.266681 0.28291 0.271583 0.288099 0.266681 0.28291 0
0.300365 0.317363 0.294964 0.311667 0.300365 0.317363 0.294964 0.311667 0
0.329949 0.347338 0.32402 0.341066 0.329949 0.347338 0.32402 0.341066 0
0.360172 0.377846 0.353559 0.370647 0.360172 0.377846 0.353559 0.370647 0
0.39092 0.408964 0.383403 0.401163 0.39092 0.408964 0.383403 0.401163 0
0.169049 0.184485 0.166277 0.181456 0.169049 0.184485 0.166277 0.181456 0
0.195863 0.211516 0.192639 0.208015 0.195863 0.211516 0.192639 0.208015 0
0.223117 0.23916 0.219406 0.23515 0.223117 0.23916 0.219406 0.23515 0
0.251075 0.267588 0.246846 0.263059 0.251075 0.267588 0.246846 0.263059 0
0.279864 0.296891 0.275116 0.291846 0.279864 0.296891 0.275116 0.291846 0
0.309538 0.327068 0.304272 0.321491 0.309538 0.327068 0.304272 0.321491 0
0.340071 0.358068 0.334251 0.351895 0.340071 0.358068 0.334251 0.351895 0
0.371407 0.389856 0.364956 0.382996 0.371407 0.389856 0.364956 0.382996 0
0.403486 0.422273 0.396304 0.414623 0.403486 0.422273 0.396304 0.414623 0
0.146968 0.162432 0.144551 0.159794 0.146968 0.162432 0.144551 0.159794 0
0.173861 0.189623 0.17108 0.186672 0.173861 0.189623 0.17108 0.186672 0
0.20129 0.217402 0.19818 0.21403 0.20129 0.217402 0.19818 0.21403 0
0.229354 0.245894 0.225782 0.242038 0.229354 0.245894 0.225782 0.242038 0
0.258179 0.275205 0.254111 0.270843 0.258179 0.275205 0.254111 0.270843 0
0.28786 0.305409 0.283279 0.300525 0.28786 0.305409 0.283279 0.300525 0
0.318452 0.336537 0.313338 0.3311 0.318452 0.336537 0.313338 0.3311 0
0.349972 0.368592 0.344284 0.362542 0.349972 0.368592 0.344284 0.362542 0
0.38242 0.401581 0.376088 0.394837 0.38242 0.401581 0.376088 0.394837 0
0.415772 0.435384 0.408704 0.427838 0.415772 0.435384 0.408704 0.427838 0
0.150823 0.166676 0.148646 0.164274 0.150823 0.166676 0.148646 0.164274 0
0.178389 0.194535 0.175818 0.191728 0.178389 0.194535 0.175818 0.191728 0
0.206504 0.223058 0.203518 0.219819 0.206504 0.223058 0.203518 0.219819 0
0.235346 0.252364 0.231914 0.248659 0.235346 0.252364 0.231914 0.248659 0
0.265009 0.28254 0.261098 0.278338 0.265009 0.28254 0.261098 0.278338 0
0.295574 0.313653 0.291153 0.308926 0.295574 0.313653 0.291153 0.308926 0
0.327099 0.345755 0.322138 0.340463 0.327099 0.345755 0.322138 0.340463 0
0.359632 0.378888 0.354084 0.372972 0.359632 0.378888 0.354084 0.372972 0
0.39321 0.413084 0.387008 0.40647 0.39321 0.413084 0.387008 0.40647 0
0.427839 0.448279 0.4209 0.440862 0.427839 0.448279 0.4209 0.440862 0
0.154402 0.17057 0.152361 0.16836 0.154402 0.17057 0.152361 0.16836 0
0.182569 0.199181 0.180195 0.196529 0.182569 0.199181 0.180195 0.196529 0
0.211481 0.228473 0.208635 0.225374 0.211481 0.228473 0.208635 0.225374 0
0.24109 0.258568 0.237802 0.255016 0.24109 0.258568 0.237802 0.255016 0
0.271562 0.289588 0.26781 0.285552 0.271562 0.289588 0.26781 0.285552 0
0.302999 0.321614 0.298745 0.317051 0.302999 0.321614 0.298745 0.317051 0
0.335469 0.354706 0.330669 0.34957 0.335469 0.354706 0.330669 0.34957 0
0.369031 0.38893 0.363635 0.383163 0.369031 0.38893 0.363635 0.383163 0
0.403751 0.424346 0.397695 0.417873 0.403751 0.424346 0.397695 0.417873 0
0.439664 0.460919 0.432867 0.453653 0.439664 0.460919 0.432867 0.453653 0
0.186565 0.203606 0.184271 0.201074 0.186565 0.203606 0.184271 0.201074 0
0.216222 0.233651 0.21351 0.230687 0.216222 0.233651 0.21351 0.230687 0
0.246589 0.264511 0.243441 0.261108 0.246589 0.264511 0.243441 0.261108 0
0.277847 0.296359 0.274248 0.29248 0.277847 0.296359 0.274248 0.29248 0
0.310146 0.329302 0.306051 0.324894 0.310146 0.329302 0.306051 0.324894 0
0.34357 0.363395 0.338922 0.358408 0.34357 0.363395 0.338922 0.358408 0
0.378167 0.398703 0.372922 0.393092 0.378167 0.398703 0.372922 0.393092 0
0.414012 0.435306 0.408122 0.429015 0.414012 0.435306 0.408122 0.429015 0
0.451185 0.473279 0.444571 0.466177 0.451185 0.473279 0.444571 0.466177 0
0.190285 0.207667 0.188171 0.205368 0.190285 0.207667 0.188171 0.205368 0
0.220582 0.238487 0.218112 0.235736 0.220582 0.238487 0.218112 0.235736 0
0.2518 0.270268 0.248824 0.266961 0.2518 0.270268 0.248824 0.266961 0
0.283949 0.302862 0.280442 0.299136 0.283949 0.302862 0.280442 0.299136 0
0.316999 0.33671 0.313075 0.332464 0.316999 0.33671 0.313075 0.332464 0
0.351402 0.371832 0.34691 0.366988 0.351402 0.371832 0.34691 0.366988 0
0.387052 0.408207 0.38195 0.40275 0.387052 0.408207 0.38195 0.40275 0
0.423989 0.44595 0.418261 0.43984 0.423989 0.44595 0.418261 0.43984 0
0.289566 0.309023 0.286389 0.305506 0.289566 0.309023 0.286389 0.305506 0
0.323568 0.343851 0.319805 0.339756 0.323568 0.343851 0.319805 0.339756 0
0.358977 0.380022 0.35463 0.375319 0.358977 0.380022 0.35463 0.375319 0
0.395666 0.417362 0.390723 0.412119 0.395666 0.417362 0.390723 0.412119 0
0.43359 0.45623 0.428092 0.450338 0.43359 0.45623 0.428092 0.450338 0
0 0 0 0 0 0 0 0 0
0 0 0 0 0 0 0 0 0
0 0 0 0 0 0 0 0 0
0 0 0 0 0 0 0 0 0
0 0 0 0 0 0 0 0 0
0 0 0 0 0 0 0 0 0
0 0 0 0 0 0 0 0 0
0 0 0 0 0 0 0 0 0
0 0 0 0 0 0 0 0 0
0 0 0 0 0 0 0 0 0
0 0 0 0 0 0 0 0 0
0 0 0 0 0 0 0 0 0
0 0 0 0 0 0 0 0 0
0 0 0 0 0 0 0 0 0
0 0 0 0 0 0 0 0 0
0 0 0 0 0 0 0 0 0
0 0 0 0 0 0 0 0 0
0 0 0 0 0 0 0 0 0
0 0 0 0 0 0 0 0 0
0 0 0 0 0 0 0 0 0
0 0 0 0 0 0 0 0 0
0 0 0 0 0 0 0 0 0
0 0 0 0 0 0 0 0 0
0 0 0 0 0 0 0 0 0
0 0 0 0 0 0 0 0 0
0 0 0 0 0 0 0 0 0
0 0 0 0 0 0 0 0 0
0 0 0 0 0 0 0 0 0
0 0 0 0 0 0 0 0 0
0 0 0 0 0 0 0 0 0
0 0 0 0 0 0 0 0 0
0 0 0 0 0 0 0 0 0
0 0 0 0 0 0 0 0 0
0 0 0 0 0 0 0 0 0
0 0 0 0 0 0 0 0 0
0 0 0 0 0 0 0 0 0
0 0 0 0 0 0 0 0 0
0 0 0 0 0 0 0 0 0
0 0 0 0 0 0 0 0 0
0 0 0 0 0 0 0 0 0
0 0 0 0 0 0 0 0 0
0 0 0 0 0 0 0 0 0
0 0 0 0 0 0 0 0 0
0 0 0 0 0 0 0 0 0
0 0 0 0 0 0 0 0 0
0 0 0 0 0 0 0 0 0
0 0 0 0 0 0 0 0 0
0 0 0 0 0 0 0 0 0
0 0 0 0 0 0 0 0 0
0 0 0 0 0 0 0 0 0
0 0 0 0 0 0 0 0 0
0 0 0 0 0 0 0 0 0
0 0 0 0 0 0 0 0 0
0 0 0 0 0 0 0 0 0
0 0 0 0 0 0 0 0 0
0 0 0 0 0 0 0 0 0
0 0 0 0 0 0 0 0 0
0 0 0 0 0 0 0 0 0
0 0 0 0 0 0 0 0 0
0 0 0 0 0 0 0 0 0
0 0 0 0 0 0 0 0 0
0 0 0 0 0 0 0 0 0
0 0 0 0 0 0 0 0 0
0 0 0 0 0 0 0 0 0
0 0 0 0 0 0 0 0 0
0 0 0 0 0 0 0 0 0
0 0 0 0 0 0 0 0 0
0 0 0 0 0 0 0 0 0
0 0 0 0 0 0 0 0 0
0 0 0 0 0 0 0 0 0
0 0 0 0 0 0 0 0 0
0 0 0 0 0 0 0 0 0
0 0 0 0 0 0 0 0 0
0 0 0 0 0 0 0 0 0
0 0 0 0 0 0 0 0 0
0 0 0 0 0 0 0 0 0
0 0 0 0 0 0 0 0 0
0 0 0 0 0 0 0 0 0
0 0 0 0 0 0 0 0 0
0 0 0 0 0 0 0 0 0
0 0 0 0 0 0 0 0 0
0 0 0 0 0 0 0 0 0
0 0 0 0 0 0 0 0 0
0 0 0 0 0 0 0 0 0
0 0 0 0 0 0 0 0 0
0 0 0 0 0 0 0 0 0
0 0 0 0 0 0 0 0 0
0 0 0 0 0 0 0 0 0
0 0 0 0 0 0 0 0 0
0 0 0 0 0 0 0 0 0
0 0 0 0 0 0 0 0 0
0 0 0 0 0 0 0 0 0
0 0 0 0 0 0 0 0 0
0 0 0 0 0 0 0 0 0
0 0 0 0 0 0 0 0 0
0 0 0 0 0 0 0 0 0
0 0 0 0 0 0 0 0 0
0 0 0 0 0 0 0 0 0
0 0 0 0 0 0 0 0 0
0 0 0 0 0 0 0 0 0
0 0 0 0 0 0 0 0 0
0 0 0 0 0 0 0 0 0
0 0 0 0 0 0 0 0 0
0 0 0 0 0 0 0 0 0
0 0 0 0 0 0 0 0 0
0 0 0 0 0 0 0 0 0
0 0 0 0 0 0 0 0 0
0 0 0 0 0 0 0 0 0
0 0 0 0 0 0 0 0 0
0 0 0 0 0 0 0 0 0
0 0 0 0 0 0 0 0 0
0 0 0 0 0 0 0 0 0
0 0 0 0 0 0 0 0 0
0 0 0 0 0 0 0 0 0
0 0 0 0 0 0 0 0 0
0 0 0 0 0 0 0 0 0
0 0 0 0 0 0 0 0 0
0 0 0 0 0 0 0 0 0
0 0 0 0 0 0 0 0 0
0 0 0 0 0 0 0 0 0
0 0 0 0 0 0 0 0 0
0 0 0 0 0 0 0 0 0
0 0 0 0 0 0 0 0 0
0 0 0 0 0 0 0 0 0
0 0 0 0 0 0 0 0 0
0 0 0 0 0 0 0 0 0
0 0 0 0 0 0 0 0 0
0 0 0 0 0 0 0 0 0
0 0 0 0 0 0 0 0 0
0 0 0 0 0 0 0 0 0
0 0 0 0 0 0 0 0 0
0 0 0 0 0 0 0 0 0
0 0 0 0 0 0 0 0 0
0 0 0 0 0 0 0 0 0
0 0 0 0 0 0 0 0 0
0 0 0 0 0 0 0 0 0
0 0 0 0 0 0 0 0 0
0 0 0 0 0 0 0 0 0
0 0 0 0 0 0 0 0 0
0 0 0 0 0 0 0 0 0
0 0 0 0 0 0 0 0 0
0 0 0 0 0 0 0 0 0
0 0 0 0 0 0 0 0 0
0 0 0 0 0 0 0 0 0
0 0 0 0 0 0 0 0 0
0 0 0 0 0 0 0 0 0
0 0 0 0 0 0 0 0 0
0 0 0 0 0 0 0 0 0
0 0 0 0 0 0 0 0 0
0 0 0 0 0 0 0 0 0
0 0 0 0 0 0 0 0 0
0 0 0 0 0 0 0 0 0
0 0 0 0 0 0 0 0 0
0 0 0 0 0 0 0 0 0
0 0 0 0 0 0 0 0 0
0 0 0 0 0 0 0 0 0
0 0 0 0 0 0 0 0 0
0 0 0 0 0 0 0 0 0
0 0 0 0 0 0 0 0 0
0 0 0 0 0 0 0 0 0
0 0 0 0 0 0 0 0 0
0 0 0 0 0 0 0 0 0
0 0 0 0 0 0 0 0 0
0 0 0 0 0 0 0 0 0
0 0 0 0 0 0 0 0 0
0 0 0 0 0 0 0 0 0
0 0 0 0 0 0 0 0 0
0 0 0 0 0 0 0 0 0
0 0 0 0 0 0 0 0 0
0 0 0 0 0 0 0 0 0
0 0 0 0 0 0 0 0 0
0 0 0 0 0 0 0 0 0
0 0 0 0 0 0 0 0 0
0 0 0 0 0 0 0 0 0
0 0 0 0 0 0 0 0 0
0 0 0 0 0 0 0 0 0
0 0 0 0 0 0 0 0 0
0 0 0 0 0 0 0 0 0
0 0 0 0 0 0 0 0 0
0 0 0 0 0 0 0 0 0
0 0 0 0 0 0 0 0 0
0 0 0 0 0 0 0 0 0
0 0 0 0 0 0 0 0 0
0 0 0 0 0 0 0 0 0
0 0 0 0 0 0 0 0 0
0 0 0 0 0 0 0 0 0
0 0 0 0 0 0 0 0 0
0 0 0 0 0 0 0 0 0
0 0 0 0 0 0 0 0 0
0 0 0 0 0 0 0 0 0
0 0 0 0 0 0 0 0 0
0 0 0 0 0 0 0 0 0
0 0 0 0 0 0 0 0 0
0 0 0 0 0 0 0 0 0
0 0 0 0 0 0 0 0 0
0 0 0 0 0 0 0 0 0
0 0 0 0 0 0 0 0 0
0 0 0 0 0 0 0 0 0
0 0 0 0 0 0 0 0 0
0 0 0 0 0 0 0 0 0
0 0 0 0 0 0 0 0 0
0 0 0 0 0 0 0 0 0
0 0 0 0 0 0 0 0 0
0 0 0 0 0 0 0 0 0
0 0 0 0 0 0 0 0 0
0 0 0 0 0 0 0 0 0
0 0 0 0 0 0 0 0 0
0 0 0 0 0 0 0 0 0
0 0 0 0 0 0 0 0 0
0 0 0 0 0 0 0 0 0
0 0 0 0 0 0 0 0 0
0 0 0 0 0 0 0 0 0
0 0 0 0 0 0 0 0 0
0 0 0 0 0 0 0 0 0
0 0 0 0 0 0 0 0 0
0 0 0 0 0 0 0 0 0
0 0 0 0 0 0 0 0 0
0 0 0 0 0 0 0 0 0
0 0 0 0 0 0 0 0 0
0 0 0 0 0 0 0 0 0
0 0 0 0 0 0 0 0 0
0 0 0 0 0 0 0 0 0
0 0 0 0 0 0 0 0 0
0 0 0 0 0 0 0 0 0
0 0 0 0 0 0 0 0 0
0 0 0 0 0 0 0 0 0
0 0 0 0 0 0 0 0 0
0 0 0 0 0 0 0 0 0
0 0 0 0 0 0 0 0 0
0 0 0 0 0 0 0 0 0
0 0 0 0 0 0 0 0 0
0 0 0 0 0 0 0 0 0
0 0 0 0 0 0 0 0 0
0 0 0 0 0 0 0 0 0
0 0 0 0 0 0 0 0 0
0 0 0 0 0 0 0 0 0
0 0 0 0 0 0 0 0 0
0 0 0 0 0 0 0 0 0
0 0 0 0 0 0 0 0 0
0 0 0 0 0 0 0 0 0
0 0 0 0 0 0 0 0 0
0 0 0 0 0 0 0 0 0
0 0 0 0 0 0 0 0 0
0 0 0 0 0 0 0 0 0
0 0 0 0 0 0 0 0 0
0 0 0 0 0 0 0 0 0
0 0 0 0 0 0 0 0 0
0 0 0 0 0 0 0 0 0
0 0 0 0 0 0 0 0 0
0 0 0 0 0 0 0 0 0
0 0 0 0 0 0 0 0 0
0 0 0 0 0 0 0 0 0
0 0 0 0 0 0 0 0 0
0 0 0 0 0 0 0 0 0
0 0 0 0 0 0 0 0 0
0 0 0 0 0 0 0 0 0
0 0 0 0 0 0 0 0 0
0 0 0 0 0 0 0 0 0
0 0 0 0 0 0 0 0 0
0 0 0 0 0 0 0 0 0
0 0 0 0 0 0 0 0 0
0 0 0 0 0 0 0 0 0
0 0 0 0 0 0 0 0 0
0 0 0 0 0 0 0 0 0
0 0 0 0 0 0 0 0 0
0 0 0 0 0 0 0 0 0
0 0 0 0 0 0 0 0 0
0 0 0 0 0 0 0 0 0
0 0 0 0 0 0 0 0 0
0 0 0 0 0 0 0 0 0
0 0 0 0 0 0 0 0 0
0 0 0 0 0 0 0 0 0
0 0 0 0 0 0 0 0 0
0 0 0 0 0 0 0 0 0
0 0 0 0 0 0 0 0 0
0 0 0 0 0 0 0 0 0
0 0 0 0 0 0 0 0 0
0 0 0 0 0 0 0 0 0
0 0 0 0 0 0 0 0 0
0 0 0 0 0 0 0 0 0
0 0 0 0 0 0 0 0 0
0 0 0 0 0 0 0 0 0
0 0 0 0 0 0 0 0 0
0 0 0 0 0 0 0 0 0
0 0 0 0 0 0 0 0 0
0 0 0 0 0 0 0 0 0
0 0 0 0 0 0 0 0 0
0 0 0 0 0 0 0 0 0
0 0 0 0 0 0 0 0 0
0 0 0 0 0 0 0 0 0
0 0 0 0 0 0 0 0 0
0 0 0 0 0 0 0 0 0
0 0 0 0 0 0 0 0 0
0 0 0 0 0 0 0 0 0
0 0 0 0 0 0 0 0 0
0 0 0 0 0 0 0 0 0
0 0 0 0 0 0 0 0 0
0 0 0 0 0 0 0 0 0
0 0 0 0 0 0 0 0 0
0 0 0 0 0 0 0 0 0
0 0 0 0 0 0 0 0 0
0 0 0 0 0 0 0 0 0
0 0 0 0 0 0 0 0 0
0 0 0 0 0 0 0 0 0
0 0 0 0 0 0 0 0 0
0 0 0 0 0 0 0 0 0
0 0 0 0 0 0 0 0 0
0 0 0 0 0 0 0 0 0
0 0 0 0 0 0 0 0 0
0 0 0 0 0 0 0 0 0
0 0 0 0 0 0 0 0 0
0 0 0 0 0 0 0 0 0
0 0 0 0 0 0 0 0 0
0 0 0 0 0 0 0 0 0
0 0 0 0 0 0 0 0 0
0 0 0 0 0 0 0 0 0
0 0 0 0 0 0 0 0 0
0 0 0 0 0 0 0 0 0
0 0 0 0 0 0 0 0 0
0 0 0 0 0 0 0 0 0
0 0 0 0 0 0 0 0 0
0 0 0 0 0 0 0 0 0
0 0 0 0 0 0 0 0 0
0 0 0 0 0 0 0 0 0
0 0 0 0 0 0 0 0 0
0 0 0 0 0 0 0 0 0
0 0 0 0 0 0 0 0 0
0 0 0 0 0 0 0 0 0
0 0 0 0 0 0 0 0 0
0 0 0 0 0 0 0 0 0
0 0 0 0 0 0 0 0 0
0 0 0 0 0 0 0 0 0
0 0 0 0 0 0 0 0 0
0 0 0 0 0 0 0 0 0
0 0 0 0 0 0 0 0 0
0 0 0 0 0 0 0 0 0
0 0 0 0 0 0 0 0 0
0 0 0 0 0 0 0 0 0
0 0 0 0 0 0 0 0 0
0 0 0 0 0 0 0 0 0
0 0 0 0 0 0 0 0 0
0 0 0 0 0 0 0 0 0
0 0 0 0 0 0 0 0 0
0 0 0 0 0 0 0 0 0
0 0 0 0 0 0 0 0 0
0 0 0 0 0 0 0 0 0
0 0 0 0 0 0 0 0 0
0 0 0 0 0 0 0 0 0
0 0 0 0 0 0 0 0 0
0 0 0 0 0 0 0 0 0
0 0 0 0 0 0 0 0 0
0 0 0 0 0 0 0 0 0
0 0 0 0 0 0 0 0 0
0 0 0 0 0 0 0 0 0
0 0 0 0 0 0 0 0 0
0 0 0 0 0 0 0 0 0
0 0 0 0 0 0 0 0 0
0 0 0 0 0 0 0 0 0
0 0 0 0 0 0 0 0 0
0 0 0 0 0 0 0 0 0
0 0 0 0 0 0 0 0 0
0 0 0 0 0 0 0 0 0
0 0 0 0 0 0 0 0 0
0 0 0 0 0 0 0 0 0
0 0 0 0 0 0 0 0 0
0 0 0 0 0 0 0 0 0
0 0 0 0 0 0 0 0 0
0 0 0 0 0 0 0 0 0
0 0 0 0 0 0 0 0 0
0 0 0 0 0 0 0 0 0
0 0 0 0 0 0 0 0 0
0 0 0 0 0 0 0 0 0
0 0 0 0 0 0 0 0 0
0 0 0 0 0 0 0 0 0
0 0 0 0 0 0 0 0 0
0 0 0 0 0 0 0 0 0
0 0 0 0 0 0 0 0 0
0 0 0 0 0 0 0 0 0
0 0 0 0 0 0 0 0 0
0 0 0 0 0 0 0 0 0
0 0 0 0 0 0 0 0 0
0 0 0 0 0 0 0 0 0
0 0 0 0 0 0 0 0 0
0 0 0 0 0 0 0 0 0
SCALARS tauT double 9
LOOKUP_TABLE default
0 0 0 0 0 0 0 0 0
0 0 0 0 0 0 0 0 0
0 0 0 0 0 0 0 0 0
0 0 0 0 0 0 0 0 0
0 0 0 0 0 0 0 0 0
0 0 0 0 0 0 0 0 0
0 0 0 0 0 0 0 0 0
0 0 0 0 0 0 0 0 0
0 0 0 0 0 0 0 0 0
0 0 0 0 0 0 0 0 0
0 0 0 0 0 0 0 0 0
0 0 0 0 0 0 0 0 0
0 0 0 0 0 0 0 0 0
0 0 0 0 0 0 0 0 0
0 0 0 0 0 0 0 0 0
0 0 0 0 0 0 0 0 0
0 0 0 0 0 0 0 0 0
0 0 0 0 0 0 0 0 0
0 0 0 0 0 0 0 0 0
0 0 0 0 0 0 0 0 0
0 0 0 0 0 0 0 0 0
0 0 0 0 0 0 0 0 0
0 0 0 0 0 0 0 0 0
0 0 0 0 0 0 0 0 0
0 0 0 0 0 0 0 0 0
0 0 0 0 0 0 0 0 0
0 0 0 0 0 0 0 0 0
0 0 0 0 0 0 0 0 0
0 0 0 0 0 0 0 0 0
0 0 0 0 0 0 0 0 0
0 0 0 0 0 0 0 0 0
0 0 0 0 0 0 0 0 0
0 0 0 0 0 0 0 0 0
0 0 0 0 0 0 0 0 0
0 0 0 0 0 0 0 0 0
0 0 0 0 0 0 0 0 0
0 0 0 0 0 0 0 0 0
0 0 0 0 0 0 0 0 0
0 0 0 0 0 0 0 0 0
0 0 0 0 0 0 0 0 0
0 0 0 0 0 0 0 0 0
0 0 0 0 0 0 0 0 0
0 0 0 0 0 0 0 0 0
0 0 0 0 0 0 0 0 0
0 0 0 0 0 0 0 0 0
0 0 0 0 0 0 0 0 0
0 0 0 0 0 0 0 0 0
0 0 0 0 0 0 0 0 0
0 0 0 0 0 0 0 0 0
0 0 0 0 0 0 0 0 0
0 0 0 0 0 0 0 0 0
0 0 0 0 0 0 0 0 0
0 0 0 0 0 0 0 0 0
0 0 0 0 0 0 0 0 0
0 0 0 0 0 0 0 0 0
0 0 0 0 0 0 0 0 0
0 0 0 0 0 0 0 0 0
0 0 0 0 0 0 0 0 0
0 0 0 0 0 0 0 0 0
0 0 0 0 0 0 0 0 0
0 0 0 0 0 0 0 0 0
0 0 0 0 0 0 0 0 0
0 0 0 0 0 0 0 0 0
0 0 0 0 0 0 0 0 0
0 0 0 0 0 0 0 0 0
0 0 0 0 0 0 0 0 0
0 0 0 0 0 0 0 0 0
0 0 0 0 0 0 0 0 0
0 0 0 0 0 0 0 0 0
0 0 0 0 0 0 0 0 0
0 0 0 0 0 0 0 0 0
0 0 0 0 0 0 0 0 0
0 0 0 0 0 0 0 0 0
0 0 0 0 0 0 0 0 0
0 0 0 0 0 0 0 0 0
0 0 0 0 0 0 0 0 0
0 0 0 0 0 0 0 0 0
0 0 0 0 0 0 0 0 0
0 0 0 0 0 0 0 0 0
0 0 0 0 0 0 0 0 0
0 0 0 0 0 0 0 0 0
0 0 0 0 0 0 0 0 0
0 0 0 0 0 0 0 0 0
0 0 0 0 0 0 0 0 0
0 0 0 0 0 0 0 0 0
0 0 0 0 0 0 0 0 0
0 0 0 0 0 0 0 0 0
0 0 0 0 0 0 0 0 0
0 0 0 0 0 0 0 0 0
0 0 0 0 0 0 0 0 0
0 0 0 0 0 0 0 0 0
0 0 0 0 0 0 0 0 0
0 0 0 0 0 0 0 0 0
0 0 0 0 0 0 0 0 0
0 0 0 0 0 0 0 0 0
0 0 0 0 0 0 0 0 0
0 0 0 0 0 0 0 0 0
0 0 0 0 0 0 0 0 0
0 0 0 0 0 0 0 0 0
0 0 0 0 0 0 0 0 0
0 0 0 0 0 0 0 0 0
0 0 0 0 0 0 0 0 0
0 0 0 0 0 0 0 0 0
0 0 0 0 0 0 0 0 0
0 0 0 0 0 0 0 0 0
0 0 0 0 0 0 0 0 0
0 0 0 0 0 0 0 0 0
0 0 0 0 0 0 0 0 0
0 0 0 0 0 0 0 0 0
0 0 0 0 0 0 0 0 0
0 0 0 0 0 0 0 0 0
0 0 0 0 0 0 0 0 0
0 0 0 0 0 0 0 0 0
0 0 0 0 0 0 0 0 0
0 0 0 0 0 0 0 0 0
0 0 0 0 0 0 0 0 0
0 0 0 0 0 0 0 0 0
0 0 0 0 0 0 0 0 0
0 0 0 0 0 0 0 0 0
0 0 0 0 0 0 0 0 0
0 0 0 0 0 0 0 0 0
0 0 0 0 0 0 0 0 0
0 0 0 0 0 0 0 0 0
0 0 0 0 0 0 0 0 0
0 0 0 0 0 0 0 0 0
0 0 0 0 0 0 0 0 0
0 0 0 0 0 0 0 0 0
0 0 0 0 0 0 0 0 0
0 0 0 0 0 0 0 0 0
0 0 0 0 0 0 0 0 0
0 0 0 0 0 0 0 0 0
0 0 0 0 0 0 0 0 0
0 0 0 0 0 0 0 0 0
0 0 0 0 0 0 0 0 0
0 0 0 0 0 0 0 0 0
0 0 0 0 0 0 0 0 0
0 0 0 0 0 0 0 0 0
0 0 0 0 0 0 0 0 0
0 0 0 0 0 0 0 0 0
0 0 0 0 0 0 0 0 0
0 0 0 0 0 0 0 0 0
0 0 0 0 0 0 0 0 0
0 0 0 0 0 0 0 0 0
0 0 0 0 0 0 0 0 0
0 0 0 0 0 0 0 0 0
0 0 0 0 0 0 0 0 0
0 0 0 0 0 0 0 0 0
0 0 0 0 0 0 0 0 0
0 0 0 0 0 0 0 0 0
0 0 0 0 0 0 0 0 0
0.0561884 0.0605574 0.0655496 0.0699519 0.0561884 0.0605574 0.0655496 0.0699519 0
0.064016 0.0690933 0.0734606 0.0786417 0.064016 0.0690933 0.0734606 0.0786417 0
0.073072 0.078862 0.0827143 0.088657 0.073072 0.078862 0.0827143 0.088657 0
0.0834044 0.0900214 0.0933099 0.100076 0.0834044 0.0900214 0.0933099 0.100076 0
0.0951987 0.102723 0.10535 0.112989 0.0951987 0.102723 0.10535 0.112989 0
0.108574 0.117031 0.118917 0.12747 0.108574 0.117031 0.118917 0.12747 0
0.123572 0.13298 0.134087 0.143609 0.123572 0.13298 0.134087 0.143609 0
0.140278 0.150807 0.150992 0.161641 0.140278 0.150807 0.150992 0.161641 0
0.0394547 0.0436642 0.049189 0.0535057 0.0394547 0.0436642 0.049189 0.0535057 0
0.0469935 0.0518774 0.0569157 0.0619127 0.0469935 0.0518774 0.0569157 0.0619127 0
0.0557091 0.0612907 0.0658263 0.0715189 0.0557091 0.0612907 0.0658263 0.0715189 0
0.0656709 0.0720533 0.0759876 0.082501 0.0656709 0.0720533 0.0759876 0.082501 0
0.0770536 0.0843296 0.0876044 0.095031 0.0770536 0.0843296 0.0876044 0.095031 0
0.0900008 0.098216 0.100813 0.109179 0.0900008 0.098216 0.100813 0.109179 0
0.104588 0.113779 0.115653 0.124972 0.104588 0.113779 0.115653 0.124972 0
0.120905 0.131179 0.1322 0.142628 0.120905 0.131179 0.1322 0.142628 0
0.139198 0.15083 0.150724 0.162414 0.139198 0.15083 0.150724 0.162414 0
0.0222575 0.0262155 0.0322308 0.0363436 0.0222575 0.0262155 0.0322308 0.0363436 0
0.0293759 0.0340497 0.0396055 0.0444021 0.0293759 0.0340497 0.0396055 0.0444021 0
0.0377272 0.0430976 0.0481699 0.0536645 0.0377272 0.0430976 0.0481699 0.0536645 0
0.0473128 0.0534555 0.0579762 0.0642584 0.0473128 0.0534555 0.0579762 0.0642584 0
0.0582693 0.0652754 0.0691806 0.0763431 0.0582693 0.0652754 0.0691806 0.0763431 0
0.0707474 0.0786885 0.0819307 0.0900313 0.0707474 0.0786885 0.0819307 0.0900313 0
0.0848698 0.0938141 0.0963242 0.105414 0.0848698 0.0938141 0.0963242 0.105414 0
0.100765 0.11081 0.112465 0.122636 0.100765 0.11081 0.112465 0.122636 0
0.118671 0.130105 0.130591 0.142154 0.118671 0.130105 0.130591 0.142154 0
0.00453497 0.00824422 0.0148286 0.0186778 0.00453497 0.00824422 0.0148286 0.0186778 0
0.0112325 0.0156849 0.0217643 0.0263452 0.0112325 0.0156849 0.0217643 0.0263452 0
0.0191966 0.0243359 0.0299534 0.0352279 0.0191966 0.0243359 0.0299534 0.0352279 0
0.0283723 0.034258 0.0393687 0.0454044 0.0283723 0.034258 0.0393687 0.0454044 0
0.0388727 0.0455916 0.0501352 0.0570216 0.0388727 0.0455916 0.0501352 0.0570216 0
0.0508498 0.058494 0.0624047 0.0702228 0.0508498 0.058494 0.0624047 0.0702228 0
0.0644638 0.073127 0.0763168 0.0851459 0.0644638 0.073127 0.0763168 0.0851459 0
0.0798831 0.0896766 0.0920173 0.10196 0.0798831 0.0896766 0.0920173 0.10196 0
0.0973487 0.108516 0.109745 0.121072 0.0973487 0.108516 0.109745 0.121072 0
-0.0136893 -0.0102286 -0.00311436 0.000490046 -0.0136893 -0.0102286 -0.00311436 0.000490046 0
-0.00741788 -0.00320177 0.00340382 0.00775773 -0.00741788 -0.00320177 0.00340382 0.00775773 0
0.000132347 0.00502274 0.0111954 0.016231 0.000132347 0.00502274 0.0111954 0.016231 0
0.00886623 0.0144739 0.0201871 0.0259574 0.00886623 0.0144739 0.0201871 0.0259574 0
0.0188732 0.0252822 0.0304825 0.0370727 0.0188732 0.0252822 0.0304825 0.0370727 0
0.0303076 0.0376262 0.0422344 0.049744 0.0303076 0.0376262 0.0422344 0.049744 0
0.0433603 0.0517058 0.0556166 0.0641494 0.0433603 0.0517058 0.0556166 0.0641494 0
0.0582372 0.0677347 0.0708137 0.080487 0.0582372 0.0677347 0.0708137 0.080487 0
0.075187 0.0860495 0.0880692 0.0991107 0.075187 0.0860495 0.0880692 0.0991107 0
-0.0323982 -0.0291878 -0.021544 -0.0181897 -0.0323982 -0.0291878 -0.021544 -0.0181897 0
-0.0265593 -0.0225904 -0.015456 -0.0113438 -0.0265593 -0.0225904 -0.015456 -0.0113438 0
-0.0194441 -0.0148197 -0.00808841 -0.00330897 -0.0194441 -0.0148197 -0.00808841 -0.00330897 0
-0.0111835 -0.00587619 0.000448138 0.00593094 -0.0111835 -0.00587619 0.000448138 0.00593094 0
-0.00171027 0.00436154 0.0102333 0.0165025 -0.00171027 0.00436154 0.0102333 0.0165025 0
0.009132 0.0160912 0.0214225 0.0285927 0.009132 0.0160912 0.0214225 0.0285927 0
0.0215623 0.0295488 0.0342186 0.0424167 0.0215623 0.0295488 0.0342186 0.0424167 0
0.0358233 0.0449779 0.048843 0.0582005 0.0358233 0.0449779 0.048843 0.0582005 0
0.0521788 0.0626972 0.06555 0.0762713 0.0521788 0.0626972 0.06555 0.0762713 0
-0.0515295 -0.0486058 -0.0404411 -0.0373469 -0.0515295 -0.0486058 -0.0404411 -0.0373469 0
-0.046173 -0.042452 -0.0347996 -0.0309363 -0.046173 -0.042452 -0.0347996 -0.0309363 0
-0.0395016 -0.035164 -0.0278724 -0.0233671 -0.0395016 -0.035164 -0.0278724 -0.0233671 0
-0.0317514 -0.0267676 -0.019824 -0.0146512 -0.0317514 -0.0267676 -0.019824 -0.0146512 0
-0.0228537 -0.0171467 -0.01059 -0.00466975 -0.0228537 -0.0171467 -0.01059 -0.00466975 0
-0.0126549 -0.00609172 -1.47081e-05 0.00678091 -0.0126549 -0.00609172 -1.47081e-05 0.00678091 0
-0.000913606 0.0066686 0.0121313 0.0199518 -0.000913606 0.0066686 0.0121313 0.0199518 0
0.0126731 0.0214945 0.0261125 0.0351226 0.0126731 0.0214945 0.0261125 0.0351226 0
0.028408 0.0384749 0.0422058 0.0525478 0.028408 0.0384749 0.0422058 0.0525478 0
-0.0710179 -0.0682394 -0.059731 -0.0568926 -0.0710179 -0.0682394 -0.059731 -0.0568926 0
-0.0659843 -0.0626034 -0.0545387 -0.0509478 -0.0659843 -0.0626034 -0.0545387 -0.0509478 0
-0.0599066 -0.0559216 -0.0480964 -0.043899 -0.0599066 -0.0559216 -0.0480964 -0.043899 0
-0.052771 -0.0481502 -0.0405923 -0.0357572 -0.052771 -0.0481502 -0.0405923 -0.0357572 0
-0.0445134 -0.0392002 -0.0319578 -0.0264144 -0.0445134 -0.0392002 -0.0319578 -0.0264144 0
-0.0350118 -0.0288837 -0.0220483 -0.0156649 -0.0350118 -0.0288837 -0.0220483 -0.0156649 0
-0.024028 -0.0168916 -0.0106201 -0.00322219 -0.024028 -0.0168916 -0.0106201 -0.00322219 0
-0.0112055 -0.0028078 0.00265432 0.0113106 -0.0112055 -0.0028078 0.00265432 0.0113106 0
-0.0743444 -0.0701244 -0.0618278 -0.0573726 -0.0743444 -0.0701244 -0.0618278 -0.0573726 0
-0.0667831 -0.0618764 -0.0538593 -0.0487176 -0.0667831 -0.0618764 -0.0538593 -0.0487176 0
-0.0579658 -0.0521899 -0.044652 -0.0386876 -0.0579658 -0.0521899 -0.044652 -0.0386876 0
-0.0476334 -0.0409617 -0.0339636 -0.0270227 -0.0476334 -0.0409617 -0.0339636 -0.0270227 0
-0.0356546 -0.0278275 -0.02149 -0.0133156 -0.0356546 -0.0278275 -0.02149 -0.0133156 0
0 0 0 0 0 0 0 0 0
0 0 0 0 0 0 0 0 0
0 0 0 0 0 0 0 0 0
0 0 0 0 0 0 0 0 0
0 0 0 0 0 0 0 0 0
0 0 0 0 0 0 0 0 0
0 0 0 0 0 0 0 0 0
0 0 0 0 0 0 0 0 0
0 0 0 0 0 0 0 0 0
0 0 0 0 0 0 0 0 0
0 0 0 0 0 0 0 0 0
0 0 0 0 0 0 0 0 0
0 0 0 0 0 0 0 0 0
0 0 0 0 0 0 0 0 0
0 0 0 0 0 0 0 0 0
0 0 0 0 0 0 0 0 0
0 0 0 0 0 0 0 0 0
0 0 0 0 0 0 0 0 0
0 0 0 0 0 0 0 0 0
0 0 0 0 0 0 0 0 0
0 0 0 0 0 0 0 0 0
0 0 0 0 0 0 0 0 0
0 0 0 0 0 0 0 0 0
0 0 0 0 0 0 0 0 0
0 0 0 0 0 0 0 0 0
0 0 0 0 0 0 0 0 0
0 0 0 0 0 0 0 0 0
0 0 0 0 0 0 0 0 0
0 0 0 0 0 0 0 0 0
0 0 0 0 0 0 0 0 0
0 0 0 0 0 0 0 0 0
0 0 0 0 0 0 0 0 0
0 0 0 0 0 0 0 0 0
0 0 0 0 0 0 0 0 0
0 0 0 0 0 0 0 0 0
0 0 0 0 0 0 0 0 0
0 0 0 0 0 0 0 0 0
0 0 0 0 0 0 0 0 0
0 0 0 0 0 0 0 0 0
0 0 0 0 0 0 0 0 0
0 0 0 0 0 0 0 0 0
0 0 0 0 0 0 0 0 0
0 0 0 0 0 0 0 0 0
0 0 0 0 0 0 0 0 0
0 0 0 0 0 0 0 0 0
0 0 0 0 0 0 0 0 0
0 0 0 0 0 0 0 0 0
0 0 0 0 0 0 0 0 0
0 0 0 0 0 0 0 0 0
0 0 0 0 0 0 0 0 0
0 0 0 0 0 0 0 0 0
0 0 0 0 0 0 0 0 0
0 0 0 0 0 0 0 0 0
0 0 0 0 0 0 0 0 0
0 0 0 0 0 0 0 0 0
0 0 0 0 0 0 0 0 0
0 0 0 0 0 0 0 0 0
0 0 0 0 0 0 0 0 0
0 0 0 0 0 0 0 0 0
0 0 0 0 0 0 0 0 0
0 0 0 0 0 0 0 0 0
0 0 0 0 0 0 0 0 0
0 0 0 0 0 0 0 0 0
0 0 0 0 0 0 0 0 0
0 0 0 0 0 0 0 0 0
0 0 0 0 0 0 0 0 0
0 0 0 0 0 0 0 0 0
0 0 0 0 0 0 0 0 0
0 0 0 0 0 0 0 0 0
0 0 0 0 0 0 0 0 0
0 0 0 0 0 0 0 0 0
0 0 0 0 0 0 0 0 0
0 0 0 0 0 0 0 0 0
0 0 0 0 0 0 0 0 0
0 0 0 0 0 0 0 0 0
0 0 0 0 0 0 0 0 0
0 0 0 0 0 0 0 0 0
0 0 0 0 0 0 0 0 0
0 0 0 0 0 0 0 0 0
0 0 0 0 0 0 0 0 0
0 0 0 0 0 0 0 0 0
0 0 0 0 0 0 0 0 0
0 0 0 0 0 0 0 0 0
0 0 0 0 0 0 0 0 0
0 0 0 0 0 0 0 0 0
0 0 0 0 0 0 0 0 0
0 0 0 0 0 0 0 0 0
0 0 0 0 0 0 0 0 0
0 0 0 0 0 0 0 0 0
0 0 0 0 0 0 0 0 0
0 0 0 0 0 0 0 0 0
0 0 0 0 0 0 0 0 0
0 0 0 0 0 0 0 0 0
0 0 0 0 0 0 0 0 0
0 0 0 0 0 0 0 0 0
0 0 0 0 0 0 0 0 0
0 0 0 0 0 0 0 0 0
0 0 0 0 0 0 0 0 0
0 0 0 0 0 0 0 0 0
0 0 0 0 0 0 0 0 0
0 0 0 0 0 0 0 0 0
0 0 0 0 0 0 0 0 0
0 0 0 0 0 0 0 0 0
0 0 0 0 0 0 0 0 0
0 0 0 0 0 0 0 0 0
0 0 0 0 0 0 0 0 0
0 0 0 0 0 0 0 0 0
0 0 0 0 0 0 0 0 0
0 0 0 0 0 0 0 0 0
0 0 0 0 0 0 0 0 0
0 0 0 0 0 0 0 0 0
0 0 0 0 0 0 0 0 0
0 0 0 0 0 0 0 0 0
0 0 0 0 0 0 0 0 0
0 0 0 0 0 0 0 0 0
0 0 0 0 0 0 0 0 0
0 0 0 0 0 0 0 0 0
0 0 0 0 0 0 0 0 0
0 0 0 0 0 0 0 0 0
0 0 0 0 0 0 0 0 0
0 0 0 0 0 0 0 0 0
0 0 0 0 0 0 0 0 0
0 0 0 0 0 0 0 0 0
0 0 0 0 0 0 0 0 0
0 0 0 0 0 0 0 0 0
0 0 0 0 0 0 0 0 0
0 0 0 0 0 0 0 0 0
0 0 0 0 0 0 0 0 0
0 0 0 0 0 0 0 0 0
0 0 0 0 0 0 0 0 0
0 0 0 0 0 0 0 0 0
0 0 0 0 0 0 0 0 0
0 0 0 0 0 0 0 0 0
0 0 0 0 0 0 0 0 0
0 0 0 0 0 0 0 0 0
0 0 0 0 0 0 0 0 0
0 0 0 0 0 0 0 0 0
0 0 0 0 0 0 0 0 0
0 0 0 0 0 0 0 0 0
0 0 0 0 0 0 0 0 0
0 0 0 0 0 0 0 0 0
0 0 0 0 0 0 0 0 0
0 0 0 0 0 0 0 0 0
0 0 0 0 0 0 0 0 0
0 0 0 0 0 0 0 0 0
0 0 0 0 0 0 0 0 0
0 0 0 0 0 0 0 0 0
0 0 0 0 0 0 0 0 0
0 0 0 0 0 0 0 0 0
0 0 0 0 0 0 0 0 0
0 0 0 0 0 0 0 0 0
0 0 0 0 0 0 0 0 0
0 0 0 0 0 0 0 0 0
0 0 0 0 0 0 0 0 0
0 0 0 0 0 0 0 0 0
0 0 0 0 0 0 0 0 0
0 0 0 0 0 0 0 0 0
0 0 0 0 0 0 0 0 0
0 0 0 0 0 0 0 0 0
0 0 0 0 0 0 0 0 0
0 0 0 0 0 0 0 0 0
0 0 0 0 0 0 0 0 0
0 0 0 0 0 0 0 0 0
0 0 0 0 0 0 0 0 0
0 0 0 0 0 0 0 0 0
0 0 0 0 0 0 0 0 0
0 0 0 0 0 0 0 0 0
0 0 0 0 0 0 0 0 0
0 0 0 0 0 0 0 0 0
0 0 0 0 0 0 0 0 0
0 0 0 0 0 0 0 0 0
0 0 0 0 0 0 0 0 0
0 0 0 0 0 0 0 0 0
0 0 0 0 0 0 0 0 0
0 0 0 0 0 0 0 0 0
0 0 0 0 0 0 0 0 0
0 0 0 0 0 0 0 0 0
0 0 0 0 0 0 0 0 0
0 0 0 0 0 0 0 0 0
0 0 0 0 0 0 0 0 0
0 0 0 0 0 0 0 0 0
0 0 0 0 0 0 0 0 0
0 0 0 0 0 0 0 0 0
0 0 0 0 0 0 0 0 0
0 0 0 0 0 0 0 0 0
0 0 0 0 0 0 0 0 0
0 0 0 0 0 0 0 0 0
0 0 0 0 0 0 0 0 0
0 0 0 0 0 0 0 0 0
0 0 0 0 0 0 0 0 0
0 0 0 0 0 0 0 0 0
0 0 0 0 0 0 0 0 0
0 0 0 0 0 0 0 0 0
0 0 0 0 0 0 0 0 0
0 0 0 0 0 0 0 0 0
0 0 0 0 0 0 0 0 0
0 0 0 0 0 0 0 0 0
0 0 0 0 0 0 0 0 0
0 0 0 0 0 0 0 0 0
0 0 0 0 0 0 0 0 0
0 0 0 0 0 0 0 0 0
0 0 0 0 0 0 0 0 0
0 0 0 0 0 0 0 0 0
0 0 0 0 0 0 0 0 0
0 0 0 0 0 0 0 0 0
0 0 0 0 0 0 0 0 0
0 0 0 0 0 0 0 0 0
0 0 0 0 0 0 0 0 0
0 0 0 0 0 0 0 0 0
0 0 0 0 0 0 0 0 0
0 0 0 0 0 0 0 0 0
0 0 0 0 0 0 0 0 0
0 0 0 0 0 0 0 0 0
0 0 0 0 0 0 0 0 0
0 0 0 0 0 0 0 0 0
0 0 0 0 0 0 0 0 0
0 0 0 0 0 0 0 0 0
0 0 0 0 0 0 0 0 0
0 0 0 0 0 0 0 0 0
0 0 0 0 0 0 0 0 0
0 0 0 0 0 0 0 0 0
0 0 0 0 0 0 0 0 0
0 0 0 0 0 0 0 0 0
0 0 0 0 0 0 0 0 0
0 0 0 0 0 0 0 0 0
0 0 0 0 0 0 0 0 0
0 0 0 0 0 0 0 0 0
0 0 0 0 0 0 0 0 0
0 0 0 0 0 0 0 0 0
0 0 0 0 0 0 0 0 0
0 0 0 0 0 0 0 0 0
0 0 0 0 0 0 0 0 0
0 0 0 0 0 0 0 0 0
0 0 0 0 0 0 0 0 0
0 0 0 0 0 0 0 0 0
0 0 0 0 0 0 0 0 0
0 0 0 0 0 0 0 0 0
0 0 0 0 0 0 0 0 0
0 0 0 0 0 0 0 0 0
0 0 0 0 0 0 0 0 0
0 0 0 0 0 0 0 0 0
0 0 0 0 0 0 0 0 0
0 0 0 0 0 0 0 0 0
0 0 0 0 0 0 0 0 0
0 0 0 0 0 0 0 0 0
0 0 0 0 0 0 0 0 0
0 0 0 0 0 0 0 0 0
0 0 0 0 0 0 0 0 0
0 0 0 0 0 0 0 0 0
0 0 0 0 0 0 0 0 0
0 0 0 0 0 0 0 0 0
0 0 0 0 0 0 0 0 0
0 0 0 0 0 0 0 0 0
0 0 0 0 0 0 0 0 0
0 0 0 0 0 0 0 0 0
0 0 0 0 0 0 0 0 0
0 0 0 0 0 0 0 0 0
0 0 0 0 0 0 0 0 0
0 0 0 0 0 0 0 0 0
0 0 0 0 0 0 0 0 0
0 0 0 0 0 0 0 0 0
0 0 0 0 0 0 0 0 0
0 0 0 0 0 0 0 0 0
0 0 0 0 0 0 0 0 0
0 0 0 0 0 0 0 0 0
0 0 0 0 0 0 0 0 0
0 0 0 0 0 0 0 0 0
0 0 0 0 0 0 0 0 0
0 0 0 0 0 0 0 0 0
0 0 0 0 0 0 0 0 0
0 0 0 0 0 0 0 0 0
0 0 0 0 0 0 0 0 0
0 0 0 0 0 0 0 0 0
0 0 0 0 0 0 0 0 0
0 0 0 0 0 0 0 0 0
0 0 0 0 0 0 0 0 0
0 0 0 0 0 0 0 0 0
0 0 0 0 0 0 0 0 0
0 0 0 0 0 0 0 0 0
0 0 0 0 0 0 0 0 0
0 0 0 0 0 0 0 0 0
0 0 0 0 0 0 0 0 0
0 0 0 0 0 0 0 0 0
0 0 0 0 0 0 0 0 0
0 0 0 0 0 0 0 0 0
0 0 0 0 0 0 0 0 0
0 0 0 0 0 0 0 0 0
0 0 0 0 0 0 0 0 0
0 0 0 0 0 0 0 0 0
0 0 0 0 0 0 0 0 0
0 0 0 0 0 0 0 0 0
0 0 0 0 0 0 0 0 0
0 0 0 0 0 0 0 0 0
0 0 0 0 0 0 0 0 0
0 0 0 0 0 0 0 0 0
0 0 0 0 0 0 0 0 0
0 0 0 0 0 0 0 0 0
0 0 0 0 0 0 0 0 0
0 0 0 0 0 0 0 0 0
0 0 0 0 0 0 0 0 0
0 0 0 0 0 0 0 0 0
0 0 0 0 0 0 0 0 0
0 0 0 0 0 0 0 0 0
0 0 0 0 0 0 0 0 0
0 0 0 0 0 0 0 0 0
0 0 0 0 0 0 0 0 0
0 0 0 0 0 0 0 0 0
0 0 0 0 0 0 0 0 0
0 0 0 0 0 0 0 0 0
0 0 0 0 0 0 0 0 0
0 0 0 0 0 0 0 0 0
0 0 0 0 0 0 0 0 0
0 0 0 0 0 0 0 0 0
0 0 0 0 0 0 0 0 0
0 0 0 0 0 0 0 0 0
0 0 0 0 0 0 0 0 0
0 0 0 0 0 0 0 0 0
0 0 0 0 0 0 0 0 0
0 0 0 0 0 0 0 0 0
0 0 0 0 0 0 0 0 0
0 0 0 0 0 0 0 0 0
0 0 0 0 0 0 0 0 0
0 0 0 0 0 0 0 0 0
0 0 0 0 0 0 0 0 0
0 0 0 0 0 0 0 0 0
0 0 0 0 0 0 0 0 0
0 0 0 0 0 0 0 0 0
0 0 0 0 0 0 0 0 0
0 0 0 0 0 0 0 0 0
0 0 0 0 0 0 0 0 0
0 0 0 0 0 0 0 0 0
0 0 0 0 0 0 0 0 0
0 0 0 0 0 0 0 0 0
0 0 0 0 0 0 0 0 0
0 0 0 0 0 0 0 0 0
0 0 0 0 0 0 0 0 0
0 0 0 0 0 0 0 0 0
0 0 0 0 0 0 0 0 0
0 0 0 0 0 0 0 0 0
0 0 0 0 0 0 0 0 0
0 0 0 0 0 0 0 0 0
0 0 0 0 0 0 0 0 0
0 0 0 0 0 0 0 0 0
0 0 0 0 0 0 0 0 0
0 0 0 0 0 0 0 0 0
0 0 0 0 0 0 0 0 0
0 0 0 0 0 0 0 0 0
0 0 0 0 0 0 0 0 0
0 0 0 0 0 0 0 0 0
0 0 0 0 0 0 0 0 0
0 0 0 0 0 0 0 0 0
0 0 0 0 0 0 0 0 0
0 0 0 0 0 0 0 0 0
0 0 0 0 0 0 0 0 0
0 0 0 0 0 0 0 0 0
0 0 0 0 0 0 0 0 0
0 0 0 0 0 0 0 0 0
0 0 0 0 0 0 0 0 0
0 0 0 0 0 0 0 0 0
0 0 0 0 0 0 0 0 0
0 0 0 0 0 0 0 0 0
0 0 0 0 0 0 0 0 0
0 0 0 0 0 0 0 0 0
0 0 0 0 0 0 0 0 0
0 0 0 0 0 0 0 0 0
0 0 0 0 0 0 0 0 0
0 0 0 0 0 0 0 0 0
0 0 0 0 0 0 0 0 0
0 0 0 0 0 0 0 0 0
0 0 0 0 0 0 0 0 0
0 0 0 0 0 0 0 0 0
0 0 0 0 0 0 0 0 0
0 0 0 0 0 0 0 0 0
0 0 0 0 0 0 0 0 0
0 0 0 0 0 0 0 0 0
0 0 0 0 0 0 0 0 0
0 0 0 0 0 0 0 0 0
0 0 0 0 0 0 0 0 0
0 0 0 0 0 0 0 0 0
0 0 0 0 0 0 0 0 0
0 0 0 0 0 0 0 0 0
0 0 0 0 0 0 0 0 0
0 0 0 0 0 0 0 0 0
0 0 0 0 0 0 0 0 0
0 0 0 0 0 0 0 0 0
0 0 0 0 0 0 0 0 0
0 0 0 0 0 0 0 0 0
0 0 0 0 0 0 0 0 0
0 0 0 0 0 0 0 0 0
0 0 0 0 0 0 0 0 0
0 0 0 0 0 0 0 0 0
0 0 0 0 0 0 0 0 0
0 0 0 0 0 0 0 0 0
0 0 0 0 0 0 0 0 0
0 0 0 0 0 0 0 0 0
0 0 0 0 0 0 0 0 0
0 0 0 0 0 0 0 0 0
0 0 0 0 0 0 0 0 0
0 0 0 0 0 0 0 0 0
0 0 0 0 0 0 0 0 0
0 0 0 0 0 0 0 0 0
0 0 0 0 0 0 0 0 0
0 0 0 0 0 0 0 0 0
0 0 0 0 0 0 0 0 0
0 0 0 0 0 0 0 0 0
0 0 0 0 0 0 0 0 0
0 0 0 0 0 0 0 0 0
0 0 0 0 0 0 0 0 0
0 0 0 0 0 0 0 0 0
0 0 0 0 0 0 0 0 0
0 0 0 0 0 0 0 0 0
0 0 0 0 0 0 0 0 0
0 0 0 0 0 0 0 0 0
0 0 0 0 0 0 0 0 0
0 0 0 0 0 0 0 0 0
0 0 0 0 0 0 0 0 0
0 0 0 0 0 0 0 0 0
0 0 0 0 0 0 0 0 0
0 0 0 0 0 0 0 0 0
0 0 0 0 0 0 0 0 0
0 0 0 0 0 0 0 0 0
0 0 0 0 0 0 0 0 0
0 0 0 0 0 0 0 0 0
0 0 0 0 0 0 0 0 0
0 0 0 0 0 0 0 0 0
0 0 0 0 0 0 0 0 0
0 0 0 0 0 0 0 0 0
0 0 0 0 0 0 0 0 0
0 0 0 0 0 0 0 0 0
0 0 0 0 0 0 0 0 0
0 0 0 0 0 0 0 0 0
0 0 0 0 0 0 0 0 0
0 0 0 0 0 0 0 0 0
0 0 0 0 0 0 0 0 0
0 0 0 0 0 0 0 0 0
0 0 0 0 0 0 0 0 0
0 0 0 0 0 0 0 0 0
0 0 0 0 0 0 0 0 0
0 0 0 0 0 0 0 0 0
0 0 0 0 0 0 0 0 0
0 0 0 0 0 0 0 0 0
0 0 0 0 0 0 0 0 0
0 0 0 0 0 0 0 0 0
0 0 0 0 0 0 0 0 0
0 0 0 0 0 0 0 0 0
0 0 0 0 0 0 0 0 0
0 0 0 0 0 0 0 0 0
0 0 0 0 0 0 0 0 0
0 0 0 0 0 0 0 0 0
0 0 0 0 0 0 0 0 0
0 0 0 0 0 0 0 0 0
0 0 0 0 0 0 0 0 0
0 0 0 0 0 0 0 0 0
0 0 0 0 0 0 0 0 0
0 0 0 0 0 0 0 0 0
0 0 0 0 0 0 0 0 0
0 0 0 0 0 0 0 0 0
0 0 0 0 0 0 0 0 0
0 0 0 0 0 0 0 0 0
0 0 0 0 0 0 0 0 0
0 0 0 0 0 0 0 0 0
0 0 0 0 0 0 0 0 0
0 0 0 0 0 0 0 0 0
0 0 0 0 0 0 0 0 0
0 0 0 0 0 0 0 0 0
0 0 0 0 0 0 0 0 0
0 0 0 0 0 0 0 0 0
0 0 0 0 0 0 0 0 0
0 0 0 0 0 0 0 0 0
0 0 0 0 0 0 0 0 0
0 0 0 0 0 0 0 0 0
0 0 0 0 0 0 0 0 0
0 0 0 0 0 0 0 0 0
0 0 0 0 0 0 0 0 0
0 0 0 0 0 0 0 0 0
0 0 0 0 0 0 0 0 0
0 0 0 0 0 0 0 0 0
0 0 0 0 0 0 0 0 0
0 0 0 0 0 0 0 0 0
0 0 0 0 0 0 0 0 0
0 0 0 0 0 0 0 0 0
0 0 0 0 0 0 0 0 0
0 0 0 0 0 0 0 0 0
0 0 0 0 0 0 0 0 0
0 0 0 0 0 0 0 0 0
0 0 0 0 0 0 0 0 0
0 0 0 0 0 0 0 0 0
0 0 0 0 0 0 0 0 0
0 0 0 0 0 0 0 0 0
0 0 0 0 0 0 0 0 0
0 0 0 0 0 0 0 0 0
0 0 0 0 0 0 0 0 0
0 0 0 0 0 0 0 0 0
0 0 0 0 0 0 0 0 0
0 0 0 0 0 0 0 0 0
0 0 0 0 0 0 0 0 0
0 0 0 0 0 0 0 0 0
0 0 0 0 0 0 0 0 0
0 0 0 0 0 0 0 0 0
0 0 0 0 0 0 0 0 0
0 0 0 0 0 0 0 0 0
0 0 0 0 0 0 0 0 0
0 0 0 0 0 0 0 0 0
0 0 0 0 0 0 0 0 0
0 0 0 0 0 0 0 0 0
0 0 0 0 0 0 0 0 0
0 0 0 0 0 0 0 0 0
0 0 0 0 0 0 0 0 0
0 0 0 0 0 0 0 0 0
0 0 0 0 0 0 0 0 0
0 0 0 0 0 0 0 0 0
0 0 0 0 0 0 0 0 0
0 0 0 0 0 0 0 0 0
0 0 0 0 0 0 0 0 0
0 0 0 0 0 0 0 0 0
0 0 0 0 0 0 0 0 0
0 0 0 0 0 0 0 0 0
0 0 0 0 0 0 0 0 0
0 0 0 0 0 0 0 0 0
0 0 0 0 0 0 0 0 0
0 0 0 0 0 0 0 0 0
0 0 0 0 0 0 0 0 0
0 0 0 0 0 0 0 0 0
0 0 0 0 0 0 0 0 0
0 0 0 0 0 0 0 0 0
0 0 0 0 0 0 0 0 0
0 0 0 0 0 0 0 0 0
0 0 0 0 0 0 0 0 0
0 0 0 0 0 0 0 0 0
0 0 0 0 0 0 0 0 0
0 0 0 0 0 0 0 0 0
0 0 0 0 0 0 0 0 0
0 0 0 0 0 0 0 0 0
0 0 0 0 0 0 0 0 0
0 0 0 0 0 0 0 0 0
0 0 0 0 0 0 0 0 0
0 0 0 0 0 0 0 0 0
0 0 0 0 0 0 0 0 0
0 0 0 0 0 0 0 0 0
0 0 0 0 0 0 0 0 0
0 0 0 0 0 0 0 0 0
0 0 0 0 0 0 0 0 0
0 0 0 0 0 0 0 0 0
0 0 0 0 0 0 0 0 0
0 0 0 0 0 0 0 0 0
0 0 0 0 0 0 0 0 0
0 0 0 0 0 0 0 0 0
0 0 0 0 0 0 0 0 0
0 0 0 0 0 0 0 0 0
0 0 0 0 0 0 0 0 0
0 0 0 0 0 0 0 0 0
0 0 0 0 0 0 0 0 0
0 0 0 0 0 0 0 0 0
0 0 0 0 0 0 0 0 0
0 0 0 0 0 0 0 0 0
0 0 0 0 0 0 0 0 0
0 0 0 0 0 0 0 0 0
0 0 0 0 0 0 0 0 0
0 0 0 0 0 0 0 0 0
0 0 0 0 0 0 0 0 0
0 0 0 0 0 0 0 0 0
0 0 0 0 0 0 0 0 0
0 0 0 0 0 0 0 0 0
0 0 0 0 0 0 0 0 0
0 0 0 0 0 0 0 0 0
0 0 0 0 0 0 0 0 0
0 0 0 0 0 0 0 0 0
0 0 0 0 0 0 0 0 0
0 0 0 0 0 0 0 0 0
0 0 0 0 0 0 0 0 0
0 0 0 0 0 0 0 0 0
0 0 0 0 0 0 0 0 0
0 0 0 0 0 0 0 0 0
0 0 0 0 0 0 0 0 0
0 0 0 0 0 0 0 0 0
0 0 0 0 0 0 0 0 0
0 0 0 0 0 0 0 0 0
0 0 0 0 0 0 0 0 0
0 0 0 0 0 0 0 0 0
0 0 0 0 0 0 0 0 0
0 0 0 0 0 0 0 0 0
0 0 0 0 0 0 0 0 0
0 0 0 0 0 0 0 0 0
0 0 0 0 0 0 0 0 0
0 0 0 0 0 0 0 0 0
0 0 0 0 0 0 0 0 0
0 0 0 0 0 0 0 0 0
0 0 0 0 0 0 0 0 0
0 0 0 0 0 0 0 0 0
0 0 0 0 0 0 0 0 0
0 0 0 0 0 0 0 0 0
0 0 0 0 0 0 0 0 0
0 0 0 0 0 0 0 0 0
0 0 0 0 0 0 0 0 0
0 0 0 0 0 0 0 0 0
0 0 0 0 0 0 0 0 0
0 0 0 0 0 0 0 0 0
0 0 0 0 0 0 0 0 0
0 0 0 0 0 0 0 0 0
0 0 0 0 0 0 0 0 0
0 0 0 0 0 0 0 0 0
0 0 0 0 0 0 0 0 0
0 0 0 0 0 0 0 0 0
0 0 0 0 0 0 0 0 0
0 0 0 0 0 0 0 0 0
0 0 0 0 0 0 0 0 0
0 0 0 0 0 0 0 0 0
0 0 0 0 0 0 0 0 0
0 0 0 0 0 0 0 0 0
0 0 0 0 0 0 0 0 0
0 0 0 0 0 0 0 0 0
0 0 0 0 0 0 0 0 0
0 0 0 0 0 0 0 0 0
0 0 0 0 0 0 0 0 0
0 0 0 0 0 0 0 0 0
0 0 0 0 0 0 0 0 0
0 0 0 0 0 0 0 0 0
0 0 0 0 0 0 0 0 0
0 0 0 0 0 0 0 0 0
0 0 0 0 0 0 0 0 0
0 0 0 0 0 0 0 0 0
0 0 0 0 0 0 0 0 0
0 0 0 0 0 0 0 0 0
0 0 0 0 0 0 0 0 0
0 0 0 0 0 0 0 0 0
0 0 0 0 0 0 0 0 0
0 0 0 0 0 0 0 0 0
0 0 0 0 0 0 0 0 0
0 0 0 0 0 0 0 0 0
0 0 0 0 0 0 0 0 0
0 0 0 0 0 0 0 0 0
0 0 0 0 0 0 0 0 0
0 0 0 0 0 0 0 0 0
0 0 0 0 0 0 0 0 0
0 0 0 0 0 0 0 0 0
0 0 0 0 0 0 0 0 0
0 0 0 0 0 0 0 0 0
0 0 0 0 0 0 0 0 0
0 0 0 0 0 0 0 0 0
0 0 0 0 0 0 0 0 0
0 0 0 0 0 0 0 0 0
0 0 0 0 0 0 0 0 0
0 0 0 0 0 0 0 0 0
0 0 0 0 0 0 0 0 0
0 0 0 0 0 0 0 0 0
0 0 0 0 0 0 0 0 0
0 0 0 0 0 0 0 0 0
0 0 0 0 0 0 0 0 0
0 0 0 0 0 0 0 0 0
0 0 0 0 0 0 0 0 0
0 0 0 0 0 0 0 0 0
0 0 0 0 0 0 0 0 0
0 0 0 0 0 0 0 0 0
0 0 0 0 0 0 0 0 0
0 0 0 0 0 0 0 0 0
0 0 0 0 0 0 0 0 0
0 0 0 0 0 0 0 0 0
0 0 0 0 0 0 0 0 0
0 0 0 0 0 0 0 0 0
0 0 0 0 0 0 0 0 0
0 0 0 0 0 0 0 0 0
0 0 0 0 0 0 0 0 0
0 0 0 0 0 0 0 0 0
0 0 0 0 0 0 0 0 0
0 0 0 0 0 0 0 0 0
0 0 0 0 0 0 0 0 0
0 0 0 0 0 0 0 0 0
0 0 0 0 0 0 0 0 0
0 0 0 0 0 0 0 0 0
0 0 0 0 0 0 0 0 0
0 0 0 0 0 0 0 0 0
0 0 0 0 0 0 0 0 0
0 0 0 0 0 0 0 0 0
0 0 0 0 0 0 0 0 0
0 0 0 0 0 0 0 0 0
0 0 0 0 0 0 0 0 0
0 0 0 0 0 0 0 0 0
0 0 0 0 0 0 0 0 0
0 0 0 0 0 0 0 0 0
0 0 0 0 0 0 0 0 0
0 0 0 0 0 0 0 0 0
0 0 0 0 0 0 0 0 0
0 0 0 0 0 0 0 0 0
0 0 0 0 0 0 0 0 0
0 0 0 0 0 0 0 0 0
0 0 0 0 0 0 0 0 0
0 0 0 0 0 0 0 0 0
0 0 0 0 0 0 0 0 0
0 0 0 0 0 0 0 0 0
0 0 0 0 0 0 0 0 0
0 0 0 0 0 0 0 0 0
0 0 0 0 0 0 0 0 0
0 0 0 0 0 0 0 0 0
0.0691546 0.0769028 0.0883351 0.0962308 0.0691546 0.0769028 0.0883351 0.0962308 0
0.0831291 0.0923867 0.102577 0.112013 0.0831291 0.0923867 0.102577 0.112013 0
0.0997209 0.110495 0.119488 0.130468 0.0997209 0.110495 0.119488 0.130468 0
0.118967 0.13133 0.139097 0.151687 0.118967 0.13133 0.139097 0.151687 0
0.140966 0.154924 0.161497 0.175706 0.140966 0.154924 0.161497 0.175706 0
0.16573 0.18129 0.186701 0.202526 0.16573 0.18129 0.186701 0.202526 0
0.193316 0.210604 0.214738 0.232272 0.193316 0.210604 0.214738 0.232272 0
0.223993 0.243279 0.24581 0.26526 0.223993 0.243279 0.24581 0.26526 0
0.0349743 0.0424144 0.0548435 0.0624684 0.0349743 0.0424144 0.0548435 0.0624684 0
0.0483973 0.0572985 0.0685965 0.0777094 0.0483973 0.0572985 0.0685965 0.0777094 0
0.0643487 0.0747041 0.0849288 0.0955347 0.0643487 0.0747041 0.0849288 0.0955347 0
0.0828499 0.0947439 0.103875 0.116051 0.0828499 0.0947439 0.103875 0.116051 0
0.104031 0.117506 0.125546 0.139306 0.104031 0.117506 0.125546 0.139306 0
0.127972 0.143086 0.149969 0.165338 0.127972 0.143086 0.149969 0.165338 0
0.154807 0.171711 0.17723 0.194349 0.154807 0.171711 0.17723 0.194349 0
0.184834 0.203778 0.207625 0.226774 0.184834 0.203778 0.207625 0.226774 0
0.218545 0.239944 0.241664 0.263193 0.218545 0.239944 0.241664 0.263193 0
-0.000224466 0.00681517 0.0202053 0.0274873 -0.000224466 0.00681517 0.0202053 0.0274873 0
0.0125053 0.0210071 0.0333519 0.042088 0.0125053 0.0210071 0.0333519 0.042088 0
0.0277437 0.0376418 0.0490078 0.0591723 0.0277437 0.0376418 0.0490078 0.0591723 0
0.0454352 0.0568236 0.0671704 0.078852 0.0454352 0.0568236 0.0671704 0.078852 0
0.0657382 0.0786998 0.087983 0.101243 0.0657382 0.0786998 0.087983 0.101243 0
0.0888037 0.103442 0.111558 0.126474 0.0888037 0.103442 0.111558 0.126474 0
0.114834 0.131316 0.13806 0.154792 0.114834 0.131316 0.13806 0.154792 0
0.14414 0.162692 0.167793 0.186575 0.14414 0.162692 0.167793 0.186575 0
0.177195 0.198269 0.201238 0.222513 0.177195 0.198269 0.201238 0.222513 0
-0.0465581 -0.041125 -0.025711 -0.0200676 -0.0465581 -0.041125 -0.025711 -0.0200676 0
-0.0366611 -0.0299023 -0.0154758 -0.0085776 -0.0366611 -0.0299023 -0.0154758 -0.0085776 0
-0.0244746 -0.0164092 -0.00300555 0.00531513 -0.0244746 -0.0164092 -0.00300555 0.00531513 0
-0.0100106 -0.000599351 0.011911 0.021606 -0.0100106 -0.000599351 0.011911 0.021606 0
0.00682147 0.0176793 0.0292435 0.0404099 0.00682147 0.0176793 0.0292435 0.0404099 0
0.0262002 0.0386169 0.0491599 0.0618941 0.0262002 0.0386169 0.0491599 0.0618941 0
0.0483294 0.0624429 0.0718353 0.0862567 0.0483294 0.0624429 0.0718353 0.0862567 0
0.0734638 0.0894561 0.0974964 0.113779 0.0734638 0.0894561 0.0974964 0.113779 0
0.101932 0.12002 0.126461 0.144825 0.101932 0.12002 0.126461 0.144825 0
0.134197 0.154838 0.159197 0.1801 0.134197 0.154838 0.159197 0.1801 0
-0.08319 -0.0781337 -0.0619716 -0.0566971 -0.08319 -0.0781337 -0.0619716 -0.0566971 0
-0.073956 -0.0676021 -0.0523452 -0.0457335 -0.073956 -0.0676021 -0.0523452 -0.0457335 0
-0.0624954 -0.0549017 -0.0404316 -0.0325624 -0.0624954 -0.0549017 -0.0404316 -0.0325624 0
-0.0488652 -0.0399716 -0.0263148 -0.0171196 -0.0488652 -0.0399716 -0.0263148 -0.0171196 0
-0.0329465 -0.0226519 -0.00986404 0.000758789 -0.0329465 -0.0226519 -0.00986404 0.000758789 0
-0.0145516 -0.00272036 0.00910441 0.0212777 -0.0145516 -0.00272036 0.00910441 0.0212777 0
0.00656534 0.0200988 0.0308132 0.0446873 0.00656534 0.0200988 0.0308132 0.0446873 0
0.0307017 0.0461324 0.0555363 0.0712988 0.0307017 0.0461324 0.0555363 0.0712988 0
0.0582036 0.0757495 0.0836093 0.101477 0.0582036 0.0757495 0.0836093 0.101477 0
0.0895322 0.109641 0.115494 0.135921 0.0895322 0.109641 0.115494 0.135921 0
-0.120554 -0.115796 -0.0988993 -0.0939828 -0.120554 -0.115796 -0.0988993 -0.0939828 0
-0.111952 -0.106209 -0.0899421 -0.0838225 -0.111952 -0.106209 -0.0899421 -0.0838225 0
-0.101509 -0.0944151 -0.0788782 -0.0714935 -0.101509 -0.0944151 -0.0788782 -0.0714935 0
-0.0887627 -0.0804184 -0.0656177 -0.0569535 -0.0887627 -0.0804184 -0.0656177 -0.0569535 0
-0.0738151 -0.064123 -0.0501044 -0.0400607 -0.0738151 -0.064123 -0.0501044 -0.0400607 0
-0.0564753 -0.0452776 -0.0321486 -0.0205803 -0.0564753 -0.0452776 -0.0321486 -0.0205803 0
-0.0364582 -0.0235646 -0.0114878 0.00178135 -0.0364582 -0.0235646 -0.0114878 0.00178135 0
-0.0134292 0.00136443 0.0121918 0.0273612 -0.0134292 0.00136443 0.0121918 0.0273612 0
0.0129721 0.0298891 0.0392427 0.0565321 0.0129721 0.0298891 0.0392427 0.0565321 0
0.0432054 0.0626689 0.0701257 0.0899742 0.0432054 0.0626689 0.0701257 0.0899742 0
-0.150872 -0.14574 -0.128293 -0.122816 -0.150872 -0.14574 -0.128293 -0.122816 0
-0.141454 -0.134881 -0.118294 -0.111419 -0.141454 -0.134881 -0.118294 -0.111419 0
-0.129633 -0.121872 -0.105935 -0.0978346 -0.129633 -0.121872 -0.105935 -0.0978346 0
-0.115719 -0.106674 -0.0914191 -0.0819963 -0.115719 -0.106674 -0.0914191 -0.0819963 0
-0.0995144 -0.0890017 -0.0745513 -0.0636381 -0.0995144 -0.0890017 -0.0745513 -0.0636381 0
-0.0806892 -0.0684951 -0.055029 -0.0424251 -0.0806892 -0.0684951 -0.055029 -0.0424251 0
-0.0588788 -0.0448037 -0.0325039 -0.0180052 -0.0588788 -0.0448037 -0.0325039 -0.0180052 0
-0.0337021 -0.0174488 -0.00660785 0.0100297 -0.0337021 -0.0174488 -0.00660785 0.0100297 0
-0.00468459 0.0139347 0.0231224 0.0422547 -0.00468459 0.0139347 0.0231224 0.0422547 0
-0.190428 -0.185606 -0.167536 -0.162581 -0.190428 -0.185606 -0.167536 -0.162581 0
-0.181658 -0.175697 -0.15845 -0.152123 -0.181658 -0.175697 -0.15845 -0.152123 0
-0.170944 -0.163921 -0.147072 -0.139601 -0.170944 -0.163921 -0.147072 -0.139601 0
-0.158353 -0.150167 -0.133677 -0.124965 -0.158353 -0.150167 -0.133677 -0.124965 0
-0.143592 -0.133819 -0.11804 -0.107834 -0.143592 -0.133819 -0.11804 -0.107834 0
-0.126052 -0.114612 -0.0997487 -0.0878679 -0.126052 -0.114612 -0.0997487 -0.0878679 0
-0.105561 -0.0922779 -0.0784864 -0.0647386 -0.105561 -0.0922779 -0.0784864 -0.0647386 0
-0.0817972 -0.0664484 -0.0538841 -0.037978 -0.0817972 -0.0664484 -0.0538841 -0.037978 0
-0.202003 -0.194577 -0.176685 -0.168844 -0.202003 -0.194577 -0.176685 -0.168844 0
-0.18859 -0.179665 -0.162522 -0.153093 -0.18859 -0.179665 -0.162522 -0.153093 0
-0.17252 -0.161927 -0.145581 -0.134487 -0.17252 -0.161927 -0.145581 -0.134487 0
-0.15352 -0.141146 -0.125699 -0.112785 -0.15352 -0.141146 -0.125699 -0.112785 0
-0.131353 -0.116974 -0.102591 -0.0876527 -0.131353 -0.116974 -0.102591 -0.0876527 0
0 0 0 0 0 0 0 0 0
0 0 0 0 0 0 0 0 0
0 0 0 0 0 0 0 0 0
0 0 0 0 0 0 0 0 0
0 0 0 0 0 0 0 0 0
0 0 0 0 0 0 0 0 0
0 0 0 0 0 0 0 0 0
0 0 0 0 0 0 0 0 0
0 0 0 0 0 0 0 0 0
0 0 0 0 0 0 0 0 0
0 0 0 0 0 0 0 0 0
0 0 0 0 0 0 0 0 0
0 0 0 0 0 0 0 0 0
0 0 0 0 0 0 0 0 0
0 0 0 0 0 0 0 0 0
0 0 0 0 0 0 0 0 0
0 0 0 0 0 0 0 0 0
0 0 0 0 0 0 0 0 0
0 0 0 0 0 0 0 0 0
0 0 0 0 0 0 0 0 0
0 0 0 0 0 0 0 0 0
0 0 0 0 0 0 0 0 0
0 0 0 0 0 0 0 0 0
0 0 0 0 0 0 0 0 0
0 0 0 0 0 0 0 0 0
0 0 0 0 0 0 0 0 0
0 0 0 0 0 0 0 0 0
0 0 0 0 0 0 0 0 0
0 0 0 0 0 0 0 0 0
0 0 0 0 0 0 0 0 0
0 0 0 0 0 0 0 0 0
0 0 0 0 0 0 0 0 0
0 0 0 0 0 0 0 0 0
0 0 0 0 0 0 0 0 0
0 0 0 0 0 0 0 0 0
0 0 0 0 0 0 0 0 0
0 0 0 0 0 0 0 0 0
0 0 0 0 0 0 0 0 0
0 0 0 0 0 0 0 0 0
0 0 0 0 0 0 0 0 0
0 0 0 0 0 0 0 0 0
0 0 0 0 0 0 0 0 0
0 0 0 0 0 0 0 0 0
0 0 0 0 0 0 0 0 0
0 0 0 0 0 0 0 0 0
0 0 0 0 0 0 0 0 0
0 0 0 0 0 0 0 0 0
0 0 0 0 0 0 0 0 0
0 0 0 0 0 0 0 0 0
0 0 0 0 0 0 0 0 0
0 0 0 0 0 0 0 0 0
0 0 0 0 0 0 0 0 0
0 0 0 0 0 0 0 0 0
0 0 0 0 0 0 0 0 0
0 0 0 0 0 0 0 0 0
0 0 0 0 0 0 0 0 0
0 0 0 0 0 0 0 0 0
0 0 0 0 0 0 0 0 0
0 0 0 0 0 0 0 0 0
0 0 0 0 0 0 0 0 0
0 0 0 0 0 0 0 0 0
0 0 0 0 0 0 0 0 0
0 0 0 0 0 0 0 0 0
0 0 0 0 0 0 0 0 0
0 0 0 0 0 0 0 0 0
0 0 0 0 0 0 0 0 0
0 0 0 0 0 0 0 0 0
0 0 0 0 0 0 0 0 0
0 0 0 0 0 0 0 0 0
0 0 0 0 0 0 0 0 0
0 0 0 0 0 0 0 0 0
0 0 0 0 0 0 0 0 0
0 0 0 0 0 0 0 0 0
0 0 0 0 0 0 0 0 0
0 0 0 0 0 0 0 0 0
0 0 0 0 0 0 0 0 0
0 0 0 0 0 0 0 0 0
0 0 0 0 0 0 0 0 0
0 0 0 0 0 0 0 0 0
0 0 0 0 0 0 0 0 0
0 0 0 0 0 0 0 0 0
0 0 0 0 0 0 0 0 0
0 0 0 0 0 0 0 0 0
0 0 0 0 0 0 0 0 0
0 0 0 0 0 0 0 0 0
0 0 0 0 0 0 0 0 0
0 0 0 0 0 0 0 0 0
0 0 0 0 0 0 0 0 0
0 0 0 0 0 0 0 0 0
0 0 0 0 0 0 0 0 0
0 0 0 0 0 0 0 0 0
0 0 0 0 0 0 0 0 0
0 0 0 0 0 0 0 0 0
0 0 0 0 0 0 0 0 0
0 0 0 0 0 0 0 0 0
0 0 0 0 0 0 0 0 0
0 0 0 0 0 0 0 0 0
0 0 0 0 0 0 0 0 0
0 0 0 0 0 0 0 0 0
0 0 0 0 0 0 0 0 0
0 0 0 0 0 0 0 0 0
0 0 0 0 0 0 0 0 0
0 0 0 0 0 0 0 0 0
0 0 0 0 0 0 0 0 0
0 0 0 0 0 0 0 0 0
0 0 0 0 0 0 0 0 0
0 0 0 0 0 0 0 0 0
0 0 0 0 0 0 0 0 0
0 0 0 0 0 0 0 0 0
0 0 0 0 0 0 0 0 0
0 0 0 0 0 0 0 0 0
0 0 0 0 0 0 0 0 0
0 0 0 0 0 0 0 0 0
0 0 0 0 0 0 0 0 0
0 0 0 0 0 0 0 0 0
0 0 0 0 0 0 0 0 0
0 0 0 0 0 0 0 0 0
0 0 0 0 0 0 0 0 0
0 0 0 0 0 0 0 0 0
0 0 0 0 0 0 0 0 0
0 0 0 0 0 0 0 0 0
0 0 0 0 0 0 0 0 0
0 0 0 0 0 0 0 0 0
0 0 0 0 0 0 0 0 0
0 0 0 0 0 0 0 0 0
0 0 0 0 0 0 0 0 0
0 0 0 0 0 0 0 0 0
0 0 0 0 0 0 0 0 0
0 0 0 0 0 0 0 0 0
0 0 0 0 0 0 0 0 0
0 0 0 0 0 0 0 0 0
0 0 0 0 0 0 0 0 0
0 0 0 0 0 0 0 0 0
0 0 0 0 0 0 0 0 0
0 0 0 0 0 0 0 0 0
0 0 0 0 0 0 0 0 0
0 0 0 0 0 0 0 0 0
0 0 0 0 0 0 0 0 0
0 0 0 0 0 0 0 0 0
0 0 0 0 0 0 0 0 0
0 0 0 0 0 0 0 0 0
0 0 0 0 0 0 0 0 0
0 0 0 0 0 0 0 0 0
0 0 0 0 0 0 0 0 0
0 0 0 0 0 0 0 0 0
0 0 0 0 0 0 0 0 0
0 0 0 0 0 0 0 0 0
0 0 0 0 0 0 0 0 0
0 0 0 0 0 0 0 0 0
0 0 0 0 0 0 0 0 0
0 0 0 0 0 0 0 0 0
0 0 0 0 0 0 0 0 0
0 0 0 0 0 0 0 0 0
0 0 0 0 0 0 0 0 0
0 0 0 0 0 0 0 0 0
0 0 0 0 0 0 0 0 0
0 0 0 0 0 0 0 0 0
0 0 0 0 0 0 0 0 0
0 0 0 0 0 0 0 0 0
0 0 0 0 0 0 0 0 0
0 0 0 0 0 0 0 0 0
0 0 0 0 0 0 0 0 0
0 0 0 0 0 0 0 0 0
0 0 0 0 0 0 0 0 0
0 0 0 0 0 0 0 0 0
0 0 0 0 0 0 0 0 0
0 0 0 0 0 0 0 0 0
0 0 0 0 0 0 0 0 0
0 0 0 0 0 0 0 0 0
0 0 0 0 0 0 0 0 0
0 0 0 0 0 0 0 0 0
0 0 0 0 0 0 0 0 0
0 0 0 0 0 0 0 0 0
0 0 0 0 0 0 0 0 0
0 0 0 0 0 0 0 0 0
0 0 0 0 0 0 0 0 0
0 0 0 0 0 0 0 0 0
0 0 0 0 0 0 0 0 0
0 0 0 0 0 0 0 0 0
0 0 0 0 0 0 0 0 0
0 0 0 0 0 0 0 0 0
0 0 0 0 0 0 0 0 0
0 0 0 0 0 0 0 0 0
0 0 0 0 0 0 0 0 0
0 0 0 0 0 0 0 0 0
0 0 0 0 0 0 0 0 0
0 0 0 0 0 0 0 0 0
0 0 0 0 0 0 0 0 0
0 0 0 0 0 0 0 0 0
0 0 0 0 0 0 0 0 0
0 0 0 0 0 0 0 0 0
0 0 0 0 0 0 0 0 0
0 0 0 0 0 0 0 0 0
0 0 0 0 0 0 0 0 0
0 0 0 0 0 0 0 0 0
0 0 0 0 0 0 0 0 0
0 0 0 0 0 0 0 0 0
0 0 0 0 0 0 0 0 0
0 0 0 0 0 0 0 0 0
0 0 0 0 0 0 0 0 0
0 0 0 0 0 0 0 0 0
0 0 0 0 0 0 0 0 0
0 0 0 0 0 0 0 0 0
0 0 0 0 0 0 0 0 0
0 0 0 0 0 0 0 0 0
0 0 0 0 0 0 0 0 0
0 0 0 0 0 0 0 0 0
0 0 0 0 0 0 0 0 0
0 0 0 0 0 0 0 0 0
0 0 0 0 0 0 0 0 0
0 0 0 0 0 0 0 0 0
0 0 0 0 0 0 0 0 0
0 0 0 0 0 0 0 0 0
0 0 0 0 0 0 0 0 0
0 0 0 0 0 0 0 0 0
0 0 0 0 0 0 0 0 0
0 0 0 0 0 0 0 0 0
0 0 0 0 0 0 0 0 0
0 0 0 0 0 0 0 0 0
0 0 0 0 0 0 0 0 0
0 0 0 0 0 0 0 0 0
0 0 0 0 0 0 0 0 0
0 0 0 0 0 0 0 0 0
0 0 0 0 0 0 0 0 0
0 0 0 0 0 0 0 0 0
0 0 0 0 0 0 0 0 0
0 0 0 0 0 0 0 0 0
0 0 0 0 0 0 0 0 0
0 0 0 0 0 0 0 0 0
0 0 0 0 0 0 0 0 0
0 0 0 0 0 0 0 0 0
0 0 0 0 0 0 0 0 0
0 0 0 0 0 0 0 0 0
0 0 0 0 0 0 0 0 0
0 0 0 0 0 0 0 0 0
0 0 0 0 0 0 0 0 0
0 0 0 0 0 0 0 0 0
0 0 0 0 0 0 0 0 0
0 0 0 0 0 0 0 0 0
0 0 0 0 0 0 0 0 0
0 0 0 0 0 0 0 0 0
0 0 0 0 0 0 0 0 0
0 0 0 0 0 0 0 0 0
0 0 0 0 0 0 0 0 0
0 0 0 0 0 0 0 0 0
0 0 0 0 0 0 0 0 0
0 0 0 0 0 0 0 0 0
0 0 0 0 0 0 0 0 0
0 0 0 0 0 0 0 0 0
0 0 0 0 0 0 0 0 0
0 0 0 0 0 0 0 0 0
0 0 0 0 0 0 0 0 0
0 0 0 0 0 0 0 0 0
0 0 0 0 0 0 0 0 0
0 0 0 0 0 0 0 0 0
0 0 0 0 0 0 0 0 0
0 0 0 0 0 0 0 0 0
0 0 0 0 0 0 0 0 0
0 0 0 0 0 0 0 0 0
0 0 0 0 0 0 0 0 0
0 0 0 0 0 0 0 0 0
0 0 0 0 0 0 0 0 0
0 0 0 0 0 0 0 0 0
0 0 0 0 0 0 0 0 0
0 0 0 0 0 0 0 0 0
0 0 0 0 0 0 0 0 0
0 0 0 0 0 0 0 0 0
0 0 0 0 0 0 0 0 0
0 0 0 0 0 0 0 0 0
0 0 0 0 0 0 0 0 0
0 0 0 0 0 0 0 0 0
0 0 0 0 0 0 0 0 0
0 0 0 0 0 0 0 0 0
0 0 0 0 0 0 0 0 0
0 0 0 0 0 0 0 0 0
0 0 0 0 0 0 0 0 0
0 0 0 0 0 0 0 0 0
0 0 0 0 0 0 0 0 0
0 0 0 0 0 0 0 0 0
0 0 0 0 0 0 0 0 0
0 0 0 0 0 0 0 0 0
0 0 0 0 0 0 0 0 0
0 0 0 0 0 0 0 0 0
0 0 0 0 0 0 0 0 0
0 0 0 0 0 0 0 0 0
0 0 0 0 0 0 0 0 0
0 0 0 0 0 0 0 0 0
0 0 0 0 0 0 0 0 0
0 0 0 0 0 0 0 0 0
0 0 0 0 0 0 0 0 0
0 0 0 0 0 0 0 0 0
0 0 0 0 0 0 0 0 0
0 0 0 0 0 0 0 0 0
0 0 0 0 0 0 0 0 0
0 0 0 0 0 0 0 0 0
0 0 0 0 0 0 0 0 0
0 0 0 0 0 0 0 0 0
0 0 0 0 0 0 0 0 0
0 0 0 0 0 0 0 0 0
0 0 0 0 0 0 0 0 0
0 0 0 0 0 0 0 0 0
0 0 0 0 0 0 0 0 0
0 0 0 0 0 0 0 0 0
0 0 0 0 0 0 0 0 0
0 0 0 0 0 0 0 0 0
0 0 0 0 0 0 0 0 0
0 0 0 0 0 0 0 0 0
0 0 0 0 0 0 0 0 0
0 0 0 0 0 0 0 0 0
0 0 0 0 0 0 0 0 0
0 0 0 0 0 0 0 0 0
0 0 0 0 0 0 0 0 0
0 0 0 0 0 0 0 0 0
0 0 0 0 0 0 0 0 0
0 0 0 0 0 0 0 0 0
0 0 0 0 0 0 0 0 0
0 0 0 0 0 0 0 0 0
0 0 0 0 0 0 0 0 0
0 0 0 0 0 0 0 0 0
0 0 0 0 0 0 0 0 0
0 0 0 0 0 0 0 0 0
0 0 0 0 0 0 0 0 0
0 0 0 0 0 0 0 0 0
0 0 0 0 0 0 0 0 0
0 0 0 0 0 0 0 0 0
0 0 0 0 0 0 0 0 0
0 0 0 0 0 0 0 0 0
0 0 0 0 0 0 0 0 0
0 0 0 0 0 0 0 0 0
0 0 0 0 0 0 0 0 0
0 0 0 0 0 0 0 0 0
0 0 0 0 0 0 0 0 0
0 0 0 0 0 0 0 0 0
0 0 0 0 0 0 0 0 0
0 0 0 0 0 0 0 0 0
0 0 0 0 0 0 0 0 0
0 0 0 0 0 0 0 0 0
0 0 0 0 0 0 0 0 0
0 0 0 0 0 0 0 0 0
0 0 0 0 0 0 0 0 0
0 0 0 0 0 0 0 0 0
0 0 0 0 0 0 0 0 0
0 0 0 0 0 0 0 0 0
0 0 0 0 0 0 0 0 0
0 0 0 0 0 0 0 0 0
0 0 0 0 0 0 0 0 0
0 0 0 0 0 0 0 0 0
0 0 0 0 0 0 0 0 0
0 0 0 0 0 0 0 0 0
0 0 0 0 0 0 0 0 0
0 0 0 0 0 0 0 0 0
0 0 0 0 0 0 0 0 0
0 0 0 0 0 0 0 0 0
0 0 0 0 0 0 0 0 0
0 0 0 0 0 0 0 0 0
0 0 0 0 0 0 0 0 0
0 0 0 0 0 0 0 0 0
0 0 0 0 0 0 0 0 0
0 0 0 0 0 0 0 0 0
0 0 0 0 0 0 0 0 0
0 0 0 0 0 0 0 0 0
0 0 0 0 0 0 0 0 0
0 0 0 0 0 0 0 0 0
0 0 0 0 0 0 0 0 0
0 0 0 0 0 0 0 0 0
0 0 0 0 0 0 0 0 0
0 0 0 0 0 0 0 0 0
0 0 0 0 0 0 0 0 0
0 0 0 0 0 0 0 0 0
0 0 0 0 0 0 0 0 0
0 0 0 0 0 0 0 0 0
0 0 0 0 0 0 0 0 0
0 0 0 0 0 0 0 0 0
0 0 0 0 0 0 0 0 0
0 0 0 0 0 0 0 0 0
0 0 0 0 0 0 0 0 0
0 0 0 0 0 0 0 0 0
0 0 0 0 0 0 0 0 0
0 0 0 0 0 0 0 0 0
0 0 0 0 0 0 0 0 0
0 0 0 0 0 0 0 0 0
0 0 0 0 0 0 0 0 0
0 0 0 0 0 0 0 0 0
0 0 0 0 0 0 0 0 0
0 0 0 0 0 0 0 0 0
0 0 0 0 0 0 0 0 0
0 0 0 0 0 0 0 0 0
0 0 0 0 0 0 0 0 0
0 0 0 0 0 0 0 0 0
0 0 0 0 0 0 0 0 0
0 0 0 0 0 0 0 0 0
0 0 0 0 0 0 0 0 0
0 0 0 0 0 0 0 0 0
0 0 0 0 0 0 0 0 0
0 0 0 0 0 0 0 0 0
0 0 0 0 0 0 0 0 0
0 0 0 0 0 0 0 0 0
0 0 0 0 0 0 0 0 0
0 0 0 0 0 0 0 0 0
0 0 0 0 0 0 0 0 0
0 0 0 0 0 0 0 0 0
0 0 0 0 0 0 0 0 0
0 0 0 0 0 0 0 0 0
0 0 0 0 0 0 0 0 0
0 0 0 0 0 0 0 0 0
0 0 0 0 0 0 0 0 0
0 0 0 0 0 0 0 0 0
0 0 0 0 0 0 0 0 0
0 0 0 0 0 0 0 0 0
0 0 0 0 0 0 0 0 0
0 0 0 0 0 0 0 0 0
0 0 0 0 0 0 0 0 0
0 0 0 0 0 0 0 0 0
0 0 0 0 0 0 0 0 0
0 0 0 0 0 0 0 0 0
0 0 0 0 0 0 0 0 0
0 0 0 0 0 0 0 0 0
0 0 0 0 0 0 0 0 0
0 0 0 0 0 0 0 0 0
0 0 0 0 0 0 0 0 0
0 0 0 0 0 0 0 0 0
0 0 0 0 0 0 0 0 0
0 0 0 0 0 0 0 0 0
0 0 0 0 0 0 0 0 0
0 0 0 0 0 0 0 0 0
0 0 0 0 0 0 0 0 0
0 0 0 0 0 0 0 0 0
0 0 0 0 0 0 0 0 0
0 0 0 0 0 0 0 0 0
0 0 0 0 0 0 0 0 0
0 0 0 0 0 0 0 0 0
0 0 0 0 0 0 0 0 0
0 0 0 0 0 0 0 0 0
0 0 0 0 0 0 0 0 0
0 0 0 0 0 0 0 0 0
0 0 0 0 0 0 0 0 0
0 0 0 0 0 0 0 0 0
0 0 0 0 0 0 0 0 0
0 0 0 0 0 0 0 0 0
0 0 0 0 0 0 0 0 0
0 0 0 0 0 0 0 0 0
0 0 0 0 0 0 0 0 0
0 0 0 0 0 0 0 0 0
0 0 0 0 0 0 0 0 0
0 0 0 0 0 0 0 0 0
0 0 0 0 0 0 0 0 0
0 0 0 0 0 0 0 0 0
0 0 0 0 0 0 0 0 0
0 0 0 0 0 0 0 0 0
0 0 0 0 0 0 0 0 0
0 0 0 0 0 0 0 0 0
0 0 0 0 0 0 0 0 0
0 0 0 0 0 0 0 0 0
0 0 0 0 0 0 0 0 0
0 0 0 0 0 0 0 0 0
0 0 0 0 0 0 0 0 0
0 0 0 0 0 0 0 0 0
0 0 0 0 0 0 0 0 0
0 0 0 0 0 0 0 0 0
0 0 0 0 0 0 0 0 0
0 0 0 0 0 0 0 0 0
0 0 0 0 0 0 0 0 0
0 0 0 0 0 0 0 0 0
0 0 0 0 0 0 0 0 0
0 0 0 0 0 0 0 0 0
0 0 0 0 0 0 0 0 0
0 0 0 0 0 0 0 0 0
0 0 0 0 0 0 0 0 0
0 0 0 0 0 0 0 0 0
0 0 0 0 0 0 0 0 0
0 0 0 0 0 0 0 0 0
0 0 0 0 0 0 0 0 0
0 0 0 0 0 0 0 0 0
0 0 0 0 0 0 0 0 0
0 0 0 0 0 0 0 0 0
0 0 0 0 0 0 0 0 0
0 0 0 0 0 0 0 0 0
0 0 0 0 0 0 0 0 0
0 0 0 0 0 0 0 0 0
0 0 0 0 0 0 0 0 0
0 0 0 0 0 0 0 0 0
0 0 0 0 0 0 0 0 0
0 0 0 0 0 0 0 0 0
0 0 0 0 0 0 0 0 0
0 0 0 0 0 0 0 0 0
0 0 0 0 0 0 0 0 0
0 0 0 0 0 0 0 0 0
0 0 0 0 0 0 0 0 0
0 0 0 0 0 0 0 0 0
0 0 0 0 0 0 0 0 0
0 0 0 0 0 0 0 0 0
0 0 0 0 0 0 0 0 0
0 0 0 0 0 0 0 0 0
0 0 0 0 0 0 0 0 0
0 0 0 0 0 0 0 0 0
0 0 0 0 0 0 0 0 0
0 0 0 0 0 0 0 0 0
0 0 0 0 0 0 0 0 0
0 0 0 0 0 0 0 0 0
0 0 0 0 0 0 0 0 0
0 0 0 0 0 0 0 0 0
0 0 0 0 0 0 0 0 0
0 0 0 0 0 0 0 0 0
0 0 0 0 0 0 0 0 0
0 0 0 0 0 0 0 0 0
0 0 0 0 0 0 0 0 0
0 0 0 0 0 0 0 0 0
0 0 0 0 0 0 0 0 0
0 0 0 0 0 0 0 0 0
0 0 0 0 0 0 0 0 0
0 0 0 0 0 0 0 0 0
0 0 0 0 0 0 0 0 0
0 0 0 0 0 0 0 0 0
0 0 0 0 0 0 0 0 0
0 0 0 0 0 0 0 0 0
0 0 0 0 0 0 0 0 0
0 0 0 0 0 0 0 0 0
0 0 0 0 0 0 0 0 0
0 0 0 0 0 0 0 0 0
0 0 0 0 0 0 0 0 0
0 0 0 0 0 0 0 0 0
0 0 0 0 0 0 0 0 0
0 0 0 0 0 0 0 0 0
0 0 0 0 0 0 0 0 0
0 0 0 0 0 0 0 0 0
0 0 0 0 0 0 0 0 0
0 0 0 0 0 0 0 0 0
0 0 0 0 0 0 0 0 0
0 0 0 0 0 0 0 0 0
0 0 0 0 0 0 0 0 0
0 0 0 0 0 0 0 0 0
0 0 0 0 0 0 0 0 0
0 0 0 0 0 0 0 0 0
0 0 0 0 0 0 0 0 0
0 0 0 0 0 0 0 0 0
0 0 0 0 0 0 0 0 0
0 0 0 0 0 0 0 0 0
0 0 0 0 0 0 0 0 0
0 0 0 0 0 0 0 0 0
0 0 0 0 0 0 0 0 0
0 0 0 0 0 0 0 0 0
0 0 0 0 0 0 0 0 0
0 0 0 0 0 0 0 0 0
0 0 0 0 0 0 0 0 0
0 0 0 0 0 0 0 0 0
0 0 0 0 0 0 0 0 0
0.0560052 0.0602783 0.0653981 0.0697404 0.0560052 0.0602783 0.0653981 0.0697404 0
0.0636813 0.0687028 0.073198 0.0782993 0.0636813 0.0687028 0.073198 0.0782993 0
0.0726568 0.078435 0.0823213 0.0882054 0.0726568 0.078435 0.0823213 0.0882054 0
0.0829633 0.0895536 0.0928197 0.0995393 0.0829633 0.0895536 0.0928197 0.0995393 0
0.0946955 0.10215 0.104778 0.112369 0.0946955 0.10215 0.104778 0.112369 0
0.107944 0.116316 0.118258 0.126753 0.107944 0.116316 0.118258 0.126753 0
0.122798 0.132133 0.133317 0.142753 0.122798 0.132133 0.133317 0.142753 0
0.139368 0.149799 0.150065 0.160603 0.139368 0.149799 0.150065 0.160603 0
0.0392882 0.0434107 0.0490019 0.0532154 0.0392882 0.0434107 0.0490019 0.0532154 0
0.0466914 0.0515297 0.0565705 0.0615208 0.0466914 0.0515297 0.0565705 0.0615208 0
0.0553424 0.0609179 0.0654182 0.071113 0.0553424 0.0609179 0.0654182 0.071113 0
0.0652913 0.0716614 0.0755762 0.0820721 0.0652913 0.0716614 0.0755762 0.0820721 0
0.0766383 0.0838622 0.0871432 0.0944989 0.0766383 0.0838622 0.0871432 0.0944989 0
0.0894871 0.0976277 0.100222 0.108498 0.0894871 0.0976277 0.100222 0.108498 0
0.103945 0.11306 0.114913 0.124161 0.103945 0.11306 0.114913 0.124161 0
0.12012 0.130292 0.131328 0.14166 0.12012 0.130292 0.131328 0.14166 0
0.138222 0.149715 0.149666 0.161204 0.138222 0.149715 0.149666 0.161204 0
0.0220977 0.0260091 0.0320718 0.0361126 0.0220977 0.0260091 0.0320718 0.0361126 0
0.0291357 0.0337639 0.0393316 0.0440828 0.0291357 0.0337639 0.0393316 0.0440828 0
0.0374178 0.0427693 0.0478297 0.0533125 0.0374178 0.0427693 0.0478297 0.0533125 0
0.046976 0.0531146 0.0576166 0.0638903 0.046976 0.0531146 0.0576166 0.0638903 0
0.057919 0.0649033 0.068795 0.0759187 0.057919 0.0649033 0.068795 0.0759187 0
0.0703493 0.0782412 0.0814688 0.0895057 0.0703493 0.0782412 0.0814688 0.0895057 0
0.0843773 0.0932473 0.0957473 0.104761 0.0843773 0.0932473 0.0957473 0.104761 0
0.100131 0.110065 0.111744 0.121808 0.100131 0.110065 0.111744 0.121808 0
0.11784 0.129145 0.129676 0.141106 0.11784 0.129145 0.129676 0.141106 0
-0.000999008 0.0019477 0.00910196 0.0121544 -0.000999008 0.0019477 0.00910196 0.0121544 0
0.00438394 0.0080911 0.014671 0.0184923 0.00438394 0.0080911 0.014671 0.0184923 0
0.0110554 0.0154444 0.0215501 0.0260806 0.0110554 0.0154444 0.0215501 0.0260806 0
0.0189213 0.024029 0.0296615 0.0349118 0.0189213 0.024029 0.0296615 0.0349118 0
0.0280554 0.0339452 0.0390435 0.0450784 0.0280554 0.0339452 0.0390435 0.0450784 0
0.0385646 0.0452926 0.0498057 0.0566832 0.0385646 0.0452926 0.0498057 0.0566832 0
0.0505461 0.0581684 0.0620491 0.0698291 0.0505461 0.0581684 0.0620491 0.0698291 0
0.0641051 0.0727001 0.0758828 0.0846398 0.0641051 0.0727001 0.0758828 0.0846398 0
0.079389 0.0890671 0.0914437 0.101274 0.079389 0.0890671 0.0914437 0.101274 0
0.0966547 0.107706 0.108973 0.120176 0.0966547 0.107706 0.108973 0.120176 0
-0.0188828 -0.0161054 -0.00850414 -0.00563185 -0.0188828 -0.0161054 -0.00850414 -0.00563185 0
-0.013812 -0.0103256 -0.003256 0.000360719 -0.013812 -0.0103256 -0.003256 0.000360719 0
-0.00753697 -0.00340705 0.00325227 0.00753321 -0.00753697 -0.00340705 0.00325227 0.00753321 0
-0.00012274 0.00471782 0.0109301 0.0159272 -0.00012274 0.00471782 0.0109301 0.0159272 0
0.00854856 0.0141712 0.0198723 0.0256508 0.00854856 0.0141712 0.0198723 0.0256508 0
0.0185924 0.0250458 0.0301876 0.0368011 0.0185924 0.0250458 0.0301876 0.0368011 0
0.0300908 0.037418 0.0419679 0.0494681 0.0300908 0.037418 0.0419679 0.0494681 0
0.0431327 0.0514165 0.0553133 0.0637805 0.0431327 0.0514165 0.0553133 0.0637805 0
0.0578784 0.0672478 0.0703771 0.0799308 0.0578784 0.0672478 0.0703771 0.0799308 0
0.074609 0.0853504 0.0874273 0.098354 0.074609 0.0853504 0.0874273 0.098354 0
-0.0371583 -0.0344732 -0.0265674 -0.023841 -0.0371583 -0.0344732 -0.0265674 -0.023841 0
-0.032338 -0.0291915 -0.0216126 -0.0182529 -0.032338 -0.0291915 -0.0216126 -0.0182529 0
-0.0266271 -0.0227696 -0.0155526 -0.0115369 -0.0266271 -0.0227696 -0.0155526 -0.0115369 0
-0.0196927 -0.015146 -0.00833893 -0.00361987 -0.0196927 -0.015146 -0.00833893 -0.00361987 0
-0.0115273 -0.00618973 0.000122778 0.00562649 -0.0115273 -0.00618973 0.000122778 0.00562649 0
-0.00197983 0.00418191 0.00995934 0.0162909 -0.00197983 0.00418191 0.00995934 0.0162909 0
0.00900138 0.0160045 0.0212421 0.0284352 0.00900138 0.0160045 0.0212421 0.0284352 0
0.021471 0.0294007 0.0340478 0.0421866 0.021471 0.0294007 0.0340478 0.0421866 0
0.0356004 0.0446075 0.0485415 0.0577635 0.0356004 0.0446075 0.0485415 0.0577635 0
0.051705 0.0620883 0.065017 0.0756118 0.051705 0.0620883 0.065017 0.0756118 0
-0.0513892 -0.0485198 -0.0403249 -0.0373105 -0.0513892 -0.0485198 -0.0403249 -0.0373105 0
-0.0461676 -0.0426125 -0.03484 -0.0311067 -0.0461676 -0.0426125 -0.03484 -0.0311067 0
-0.0397634 -0.0355366 -0.0281239 -0.02371 -0.0397634 -0.0355366 -0.0281239 -0.02371 0
-0.0321443 -0.0271053 -0.0201858 -0.0149736 -0.0321443 -0.0271053 -0.0201858 -0.0149736 0
-0.0231161 -0.0172583 -0.0108564 -0.00482253 -0.0231161 -0.0172583 -0.0108564 -0.00482253 0
-0.0126816 -0.00603734 -0.000104104 0.00675104 -0.0126816 -0.00603734 -0.000104104 0.00675104 0
-0.000851941 0.00666904 0.0121023 0.0198655 -0.000851941 0.00666904 0.0121023 0.0198655 0
0.012579 0.0212035 0.0259453 0.0347913 0.012579 0.0212035 0.0259453 0.0347913 0
0.0279947 0.0379243 0.0417641 0.0519682 0.0279947 0.0379243 0.0417641 0.0519682 0
-0.0708361 -0.0681309 -0.0595731 -0.0567872 -0.0708361 -0.0681309 -0.0595731 -0.0567872 0
-0.0659644 -0.0627523 -0.0545171 -0.0511025 -0.0659644 -0.0627523 -0.0545171 -0.0511025 0
-0.0601509 -0.0562574 -0.0483562 -0.0442697 -0.0601509 -0.0562574 -0.0483562 -0.0442697 0
-0.0531418 -0.0485251 -0.0409876 -0.036109 -0.0531418 -0.0485251 -0.0409876 -0.036109 0
-0.0448031 -0.0392529 -0.0322264 -0.0264991 -0.0448031 -0.0392529 -0.0322264 -0.0264991 0
-0.0349286 -0.0286665 -0.0220287 -0.0155443 -0.0349286 -0.0286665 -0.0220287 -0.0155443 0
-0.0237977 -0.0167595 -0.010489 -0.00316323 -0.0237977 -0.0167595 -0.010489 -0.00316323 0
-0.0111989 -0.00304602 0.00260684 0.0110446 -0.0111989 -0.00304602 0.00260684 0.0110446 0
-0.074683 -0.0704271 -0.0621833 -0.0577343 -0.074683 -0.0704271 -0.0621833 -0.0577343 0
-0.0669961 -0.0618801 -0.0541341 -0.0487486 -0.0669961 -0.0618801 -0.0541341 -0.0487486 0
-0.0578399 -0.0519194 -0.0445404 -0.0384303 -0.0578399 -0.0519194 -0.0445404 -0.0384303 0
-0.0473733 -0.0408742 -0.0336988 -0.026883 -0.0473733 -0.0408742 -0.0336988 -0.026883 0
-0.0357014 -0.0280684 -0.0214833 -0.0135471 -0.0357014 -0.0280684 -0.0214833 -0.0135471 0
0 0 0 0 0 0 0 0 0
0 0 0 0 0 0 0 0 0
0 0 0 0 0 0 0 0 0
0 0 0 0 0 0 0 0 0
0 0 0 0 0 0 0 0 0
0 0 0 0 0 0 0 0 0
0 0 0 0 0 0 0 0 0
0 0 0 0 0 0 0 0 0
0 0 0 0 0 0 0 0 0
0 0 0 0 0 0 0 0 0
0 0 0 0 0 0 0 0 0
0 0 0 0 0 0 0 0 0
0 0 0 0 0 0 0 0 0
0 0 0 0 0 0 0 0 0
0 0 0 0 0 0 0 0 0
0 0 0 0 0 0 0 0 0
0 0 0 0 0 0 0 0 0
0 0 0 0 0 0 0 0 0
0 0 0 0 0 0 0 0 0
0 0 0 0 0 0 0 0 0
0 0 0 0 0 0 0 0 0
0 0 0 0 0 0 0 0 0
0 0 0 0 0 0 0 0 0
0 0 0 0 0 0 0 0 0
0 0 0 0 0 0 0 0 0
0 0 0 0 0 0 0 0 0
0 0 0 0 0 0 0 0 0
0 0 0 0 0 0 0 0 0
0 0 0 0 0 0 0 0 0
0 0 0 0 0 0 0 0 0
0 0 0 0 0 0 0 0 0
0 0 0 0 0 0 0 0 0
0 0 0 0 0 0 0 0 0
0 0 0 0 0 0 0 0 0
0 0 0 0 0 0 0 0 0
0 0 0 0 0 0 0 0 0
0 0 0 0 0 0 0 0 0
0 0 0 0 0 0 0 0 0
0 0 0 0 0 0 0 0 0
0 0 0 0 0 0 0 0 0
0 0 0 0 0 0 0 0 0
0 0 0 0 0 0 0 0 0
0 0 0 0 0 0 0 0 0
0 0 0 0 0 0 0 0 0
0 0 0 0 0 0 0 0 0
0 0 0 0 0 0 0 0 0
0 0 0 0 0 0 0 0 0
0 0 0 0 0 0 0 0 0
0 0 0 0 0 0 0 0 0
0 0 0 0 0 0 0 0 0
0 0 0 0 0 0 0 0 0
0 0 0 0 0 0 0 0 0
0 0 0 0 0 0 0 0 0
0 0 0 0 0 0 0 0 0
0 0 0 0 0 0 0 0 0
0 0 0 0 0 0 0 0 0
0 0 0 0 0 0 0 0 0
0 0 0 0 0 0 0 0 0
0 0 0 0 0 0 0 0 0
0 0 0 0 0 0 0 0 0
0 0 0 0 0 0 0 0 0
0 0 0 0 0 0 0 0 0
0 0 0 0 0 0 0 0 0
0 0 0 0 0 0 0 0 0
0 0 0 0 0 0 0 0 0
0 0 0 0 0 0 0 0 0
0 0 0 0 0 0 0 0 0
0 0 0 0 0 0 0 0 0
0 0 0 0 0 0 0 0 0
0 0 0 0 0 0 0 0 0
0 0 0 0 0 0 0 0 0
0 0 0 0 0 0 0 0 0
0 0 0 0 0 0 0 0 0
0 0 0 0 0 0 0 0 0
0 0 0 0 0 0 0 0 0
0 0 0 0 0 0 0 0 0
0 0 0 0 0 0 0 0 0
0 0 0 0 0 0 0 0 0
0.0120191 0.0148237 0.0223542 0.0252368 0.0120191 0.0148237 0.0223542 0.0252368 0
0.0171181 0.0205795 0.0275822 0.0311051 0.0171181 0.0205795 0.0275822 0.0311051 0
0.0233704 0.0275311 0.0339372 0.0381487 0.0233704 0.0275311 0.0339372 0.0381487 0
0.0308324 0.0356883 0.0414881 0.0463972 0.0308324 0.0356883 0.0414881 0.0463972 0
0.0394593 0.044903 0.0502201 0.0557525 0.0394593 0.044903 0.0502201 0.0557525 0
0.0490721 0.0550161 0.0599967 0.0660571 0.0490721 0.0550161 0.0599967 0.0660571 0
0.0595677 0.0660567 0.0706858 0.0772692 0.0595677 0.0660567 0.0706858 0.0772692 0
0.071028 0.0781194 0.0822779 0.0893771 0.071028 0.0781194 0.0822779 0.0893771 0
-0.00644588 -0.0037205 0.00429502 0.00705686 -0.00644588 -0.0037205 0.00429502 0.00705686 0
-0.00149598 0.00185365 0.00931838 0.0127327 -0.00149598 0.00185365 0.00931838 0.0127327 0
0.00454602 0.00854937 0.0154856 0.0195899 0.00454602 0.00854937 0.0154856 0.0195899 0
0.0117212 0.0163806 0.0228458 0.0276341 0.0117212 0.0163806 0.0228458 0.0276341 0
0.0200077 0.0252547 0.031352 0.0367186 0.0200077 0.0252547 0.031352 0.0367186 0
0.0292967 0.0350899 0.0408329 0.0467046 0.0292967 0.0350899 0.0408329 0.0467046 0
0.0395565 0.0459645 0.0512122 0.0576534 0.0395565 0.0459645 0.0512122 0.0576534 0
0.0509233 0.058062 0.0626108 0.0697121 0.0509233 0.058062 0.0626108 0.0697121 0
0.063609 0.0716248 0.0752592 0.0833129 0.063609 0.0716248 0.0752592 0.0833129 0
-0.0255066 -0.0229125 -0.0144385 -0.0117587 -0.0255066 -0.0229125 -0.0144385 -0.0117587 0
-0.0207834 -0.0175633 -0.00957026 -0.00627334 -0.0207834 -0.0175633 -0.00957026 -0.00627334 0
-0.0149866 -0.0111696 -0.00362874 0.000296933 -0.0149866 -0.0111696 -0.00362874 0.000296933 0
-0.00814846 -0.00371409 0.00340531 0.0079692 -0.00814846 -0.00371409 0.00340531 0.0079692 0
-0.000246517 0.00478999 0.0115286 0.0166864 -0.000246517 0.00478999 0.0115286 0.0166864 0
0.00869998 0.0143433 0.020673 0.0264042 0.00869998 0.0143433 0.020673 0.0264042 0
0.0187226 0.025042 0.030836 0.0372104 0.0187226 0.025042 0.030836 0.0372104 0
0.0299495 0.0370363 0.0421553 0.0492893 0.0299495 0.0370363 0.0421553 0.0492893 0
0.0425608 0.0505671 0.0548297 0.0628319 0.0425608 0.0505671 0.0548297 0.0628319 0
-0.0488782 -0.0469334 -0.0374496 -0.0354494 -0.0488782 -0.0469334 -0.0374496 -0.0354494 0
-0.0452982 -0.0427777 -0.0337829 -0.0312322 -0.0452982 -0.0427777 -0.0337829 -0.0312322 0
-0.0407316 -0.0376642 -0.0291419 -0.025984 -0.0407316 -0.0376642 -0.0291419 -0.025984 0
-0.0352169 -0.0316003 -0.0234607 -0.0197273 -0.0352169 -0.0316003 -0.0234607 -0.0197273 0
-0.0287361 -0.0245299 -0.0167721 -0.0124343 -0.0287361 -0.0245299 -0.0167721 -0.0124343 0
-0.0212257 -0.0164072 -0.00903573 -0.00409092 -0.0212257 -0.0164072 -0.00903573 -0.00409092 0
-0.012641 -0.00717263 -0.000240612 0.00533144 -0.012641 -0.00717263 -0.000240612 0.00533144 0
-0.00290477 0.00328486 0.00966629 0.0159353 -0.00290477 0.00328486 0.00966629 0.0159353 0
0.00810475 0.0150821 0.0208087 0.0278526 0.00810475 0.0150821 0.0208087 0.0278526 0
0.0205526 0.0285207 0.0333578 0.0413541 0.0205526 0.0285207 0.0333578 0.0413541 0
-0.0689112 -0.0671036 -0.0573149 -0.0554223 -0.0689112 -0.0671036 -0.0573149 -0.0554223 0
-0.0655755 -0.0632102 -0.0538248 -0.0513546 -0.0655755 -0.0632102 -0.0538248 -0.0513546 0
-0.0612894 -0.0584091 -0.0493545 -0.0463623 -0.0612894 -0.0584091 -0.0493545 -0.0463623 0
-0.0561089 -0.0527074 -0.0439753 -0.0404484 -0.0561089 -0.0527074 -0.0439753 -0.0404484 0
-0.050009 -0.0460409 -0.0376536 -0.0335473 -0.050009 -0.0460409 -0.0376536 -0.0335473 0
-0.0429096 -0.0383254 -0.0303153 -0.0255942 -0.0429096 -0.0383254 -0.0303153 -0.0255942 0
-0.0347203 -0.0294575 -0.0218944 -0.0165097 -0.0347203 -0.0294575 -0.0218944 -0.0165097 0
-0.0253267 -0.0193056 -0.0122971 -0.0061748 -0.0253267 -0.0193056 -0.0122971 -0.0061748 0
-0.0145989 -0.00776236 -0.00140023 0.00552063 -0.0145989 -0.00776236 -0.00140023 0.00552063 0
-0.00238099 0.0054844 0.0109573 0.0188895 -0.00238099 0.0054844 0.0109573 0.0188895 0
-0.089343 -0.0876802 -0.0774998 -0.0757544 -0.089343 -0.0876802 -0.0774998 -0.0757544 0
-0.0862961 -0.0841792 -0.0742841 -0.0720141 -0.0862961 -0.0841792 -0.0742841 -0.0720141 0
-0.0824277 -0.0797614 -0.0701605 -0.0673683 -0.0824277 -0.0797614 -0.0701605 -0.0673683 0
-0.0776238 -0.0744522 -0.0651356 -0.0618301 -0.0776238 -0.0744522 -0.0651356 -0.0618301 0
-0.0719322 -0.0682213 -0.059206 -0.0553446 -0.0719322 -0.0682213 -0.059206 -0.0553446 0
-0.0652791 -0.060954 -0.0522916 -0.0478143 -0.0652791 -0.060954 -0.0522916 -0.0478143 0
-0.05753 -0.0525026 -0.0442838 -0.0391176 -0.05753 -0.0525026 -0.0442838 -0.0391176 0
-0.0485333 -0.0427179 -0.0350526 -0.0291146 -0.0485333 -0.0427179 -0.0350526 -0.0291146 0
-0.0381504 -0.0314881 -0.0244641 -0.0176978 -0.0381504 -0.0314881 -0.0244641 -0.0176978 0
-0.0262374 -0.0185546 -0.0123669 -0.0045693 -0.0262374 -0.0185546 -0.0123669 -0.0045693 0
-0.107526 -0.105701 -0.0952113 -0.0932143 -0.107526 -0.105701 -0.0952113 -0.0932143 0
-0.104136 -0.10169 -0.0915409 -0.0889679 -0.104136 -0.10169 -0.0915409 -0.0889679 0
-0.0997216 -0.0967941 -0.0869019 -0.0838324 -0.0997216 -0.0967941 -0.0869019 -0.0838324 0
-0.0944687 -0.091045 -0.0813931 -0.0778003 -0.0944687 -0.091045 -0.0813931 -0.0778003 0
-0.0883142 -0.084279 -0.074945 -0.0707392 -0.0883142 -0.084279 -0.074945 -0.0707392 0
-0.081054 -0.0762802 -0.0673978 -0.0624764 -0.081054 -0.0762802 -0.0673978 -0.0624764 0
-0.0724918 -0.066917 -0.0585819 -0.0528648 -0.0724918 -0.066917 -0.0585819 -0.0528648 0
-0.0625113 -0.0560506 -0.0483636 -0.0417841 -0.0625113 -0.0560506 -0.0483636 -0.0417841 0
-0.0509831 -0.0435991 -0.0366047 -0.0290337 -0.0509831 -0.0435991 -0.0366047 -0.0290337 0
-0.129125 -0.127467 -0.116621 -0.114888 -0.129125 -0.127467 -0.116621 -0.114888 0
-0.126052 -0.123846 -0.113393 -0.111045 -0.126052 -0.123846 -0.113393 -0.111045 0
-0.122085 -0.119485 -0.10916 -0.106359 -0.122085 -0.119485 -0.10916 -0.106359 0
-0.117436 -0.114443 -0.104139 -0.100877 -0.117436 -0.114443 -0.104139 -0.100877 0
-0.111987 -0.108272 -0.0982535 -0.0943507 -0.111987 -0.108272 -0.0982535 -0.0943507 0
-0.105258 -0.100742 -0.0912143 -0.0865498 -0.105258 -0.100742 -0.0912143 -0.0865498 0
-0.0971367 -0.0918048 -0.0828397 -0.077369 -0.0971367 -0.0918048 -0.0828397 -0.077369 0
-0.0876324 -0.0815654 -0.0730522 -0.0667298 -0.0876324 -0.0815654 -0.0730522 -0.0667298 0
-0.141042 -0.138364 -0.127337 -0.124501 -0.141042 -0.138364 -0.127337 -0.124501 0
-0.136149 -0.132778 -0.122155 -0.118583 -0.136149 -0.132778 -0.122155 -0.118583 0
-0.130025 -0.125878 -0.115673 -0.111297 -0.130025 -0.125878 -0.115673 -0.111297 0
-0.12254 -0.117569 -0.107792 -0.102595 -0.12254 -0.117569 -0.107792 -0.102595 0
-0.11367 -0.107989 -0.098535 -0.0926409 -0.11367 -0.107989 -0.098535 -0.0926409 0
0 0 0 0 0 0 0 0 0
0 0 0 0 0 0 0 0 0
0 0 0 0 0 0 0 0 0
0 0 0 0 0 0 0 0 0
0 0 0 0 0 0 0 0 0
0 0 0 0 0 0 0 0 0
0 0 0 0 0 0 0 0 0
0 0 0 0 0 0 0 0 0
0 0 0 0 0 0 0 0 0
0 0 0 0 0 0 0 0 0
0 0 0 0 0 0 0 0 0
0 0 0 0 0 0 0 0 0
0 0 0 0 0 0 0 0 0
0 0 0 0 0 0 0 0 0
0 0 0 0 0 0 0 0 0
0 0 0 0 0 0 0 0 0
0 0 0 0 0 0 0 0 0
0 0 0 0 0 0 0 0 0
0 0 0 0 0 0 0 0 0
0 0 0 0 0 0 0 0 0
0 0 0 0 0 0 0 0 0
0 0 0 0 0 0 0 0 0
0 0 0 0 0 0 0 0 0
0 0 0 0 0 0 0 0 0
0 0 0 0 0 0 0 0 0
0 0 0 0 0 0 0 0 0
0 0 0 0 0 0 0 0 0
0 0 0 0 0 0 0 0 0
0 0 0 0 0 0 0 0 0
0 0 0 0 0 0 0 0 0
0 0 0 0 0 0 0 0 0
0 0 0 0 0 0 0 0 0
0 0 0 0 0 0 0 0 0
0 0 0 0 0 0 0 0 0
0 0 0 0 0 0 0 0 0
0 0 0 0 0 0 0 0 0
0 0 0 0 0 0 0 0 0
0 0 0 0 0 0 0 0 0
0 0 0 0 0 0 0 0 0
0 0 0 0 0 0 0 0 0
0 0 0 0 0 0 0 0 0
0 0 0 0 0 0 0 0 0
0 0 0 0 0 0 0 0 0
0 0 0 0 0 0 0 0 0
0 0 0 0 0 0 0 0 0
0 0 0 0 0 0 0 0 0
0 0 0 0 0 0 0 0 0
0 0 0 0 0 0 0 0 0
0 0 0 0 0 0 0 0 0
0 0 0 0 0 0 0 0 0
0 0 0 0 0 0 0 0 0
0 0 0 0 0 0 0 0 0
0 0 0 0 0 0 0 0 0
0 0 0 0 0 0 0 0 0
0 0 0 0 0 0 0 0 0
0 0 0 0 0 0 0 0 0
0 0 0 0 0 0 0 0 0
0 0 0 0 0 0 0 0 0
0 0 0 0 0 0 0 0 0
0 0 0 0 0 0 0 0 0
0 0 0 0 0 0 0 0 0
0 0 0 0 0 0 0 0 0
0 0 0 0 0 0 0 0 0
0 0 0 0 0 0 0 0 0
0 0 0 0 0 0 0 0 0
0 0 0 0 0 0 0 0 0
0 0 0 0 0 0 0 0 0
0 0 0 0 0 0 0 0 0
0 0 0 0 0 0 0 0 0
0 0 0 0 0 0 0 0 0
0 0 0 0 0 0 0 0 0
0 0 0 0 0 0 0 0 0
0 0 0 0 0 0 0 0 0
0 0 0 0 0 0 0 0 0
0 0 0 0 0 0 0 0 0
0 0 0 0 0 0 0 0 0
0 0 0 0 0 0 0 0 0
0 0 0 0 0 0 0 0 0
0 0 0 0 0 0 0 0 0
0 0 0 0 0 0 0 0 0
0 0 0 0 0 0 0 0 0
0 0 0 0 0 0 0 0 0
0 0 0 0 0 0 0 0 0
0 0 0 0 0 0 0 0 0
0 0 0 0 0 0 0 0 0
0 0 0 0 0 0 0 0 0
0 0 0 0 0 0 0 0 0
0 0 0 0 0 0 0 0 0
0 0 0 0 0 0 0 0 0
0 0 0 0 0 0 0 0 0
0 0 0 0 0 0 0 0 0
0 0 0 0 0 0 0 0 0
0 0 0 0 0 0 0 0 0
0 0 0 0 0 0 0 0 0
0 0 0 0 0 0 0 0 0
0 0 0 0 0 0 0 0 0
0 0 0 0 0 0 0 0 0
0 0 0 0 0 0 0 0 0
0 0 0 0 0 0 0 0 0
0 0 0 0 0 0 0 0 0
0 0 0 0 0 0 0 0 0
0 0 0 0 0 0 0 0 0
0 0 0 0 0 0 0 0 0
0 0 0 0 0 0 0 0 0
0 0 0 0 0 0 0 0 0
0 0 0 0 0 0 0 0 0
0 0 0 0 0 0 0 0 0
0 0 0 0 0 0 0 0 0
0 0 0 0 0 0 0 0 0
0 0 0 0 0 0 0 0 0
0 0 0 0 0 0 0 0 0
0 0 0 0 0 0 0 0 0
0 0 0 0 0 0 0 0 0
0 0 0 0 0 0 0 0 0
0 0 0 0 0 0 0 0 0
0 0 0 0 0 0 0 0 0
0 0 0 0 0 0 0 0 0
0 0 0 0 0 0 0 0 0
0 0 0 0 0 0 0 0 0
0 0 0 0 0 0 0 0 0
0 0 0 0 0 0 0 0 0
0 0 0 0 0 0 0 0 0
0 0 0 0 0 0 0 0 0
0 0 0 0 0 0 0 0 0
0 0 0 0 0 0 0 0 0
0 0 0 0 0 0 0 0 0
0 0 0 0 0 0 0 0 0
0 0 0 0 0 0 0 0 0
0 0 0 0 0 0 0 0 0
0 0 0 0 0 0 0 0 0
0 0 0 0 0 0 0 0 0
0 0 0 0 0 0 0 0 0
0 0 0 0 0 0 0 0 0
0 0 0 0 0 0 0 0 0
0 0 0 0 0 0 0 0 0
0 0 0 0 0 0 0 0 0
0 0 0 0 0 0 0 0 0
0 0 0 0 0 0 0 0 0
0 0 0 0 0 0 0 0 0
0 0 0 0 0 0 0 0 0
0 0 0 0 0 0 0 0 0
0 0 0 0 0 0 0 0 0
0 0 0 0 0 0 0 0 0
0 0 0 0 0 0 0 0 0
0 0 0 0 0 0 0 0 0
0 0 0 0 0 0 0 0 0
0 0 0 0 0 0 0 0 0
0 0 0 0 0 0 0 0 0
0 0 0 0 0 0 0 0 0
0 0 0 0 0 0 0 0 0
0 0 0 0 0 0 0 0 0
0 0 0 0 0 0 0 0 0
0 0 0 0 0 0 0 0 0
0 0 0 0 0 0 0 0 0
0 0 0 0 0 0 0 0 0
0 0 0 0 0 0 0 0 0
0 0 0 0 0 0 0 0 0
0 0 0 0 0 0 0 0 0
0 0 0 0 0 0 0 0 0
0 0 0 0 0 0 0 0 0
0 0 0 0 0 0 0 0 0
0 0 0 0 0 0 0 0 0
0 0 0 0 0 0 0 0 0
0 0 0 0 0 0 0 0 0
0 0 0 0 0 0 0 0 0
0 0 0 0 0 0 0 0 0
0 0 0 0 0 0 0 0 0
0 0 0 0 0 0 0 0 0
0 0 0 0 0 0 0 0 0
0 0 0 0 0 0 0 0 0
0 0 0 0 0 0 0 0 0
0 0 0 0 0 0 0 0 0
0 0 0 0 0 0 0 0 0
0 0 0 0 0 0 0 0 0
0 0 0 0 0 0 0 0 0
0 0 0 0 0 0 0 0 0
0 0 0 0 0 0 0 0 0
0 0 0 0 0 0 0 0 0
0 0 0 0 0 0 0 0 0
0 0 0 0 0 0 0 0 0
0 0 0 0 0 0 0 0 0
0 0 0 0 0 0 0 0 0
0 0 0 0 0 0 0 0 0
0 0 0 0 0 0 0 0 0
0 0 0 0 0 0 0 0 0
0 0 0 0 0 0 0 0 0
0 0 0 0 0 0 0 0 0
0 0 0 0 0 0 0 0 0
0 0 0 0 0 0 0 0 0
0 0 0 0 0 0 0 0 0
0 0 0 0 0 0 0 0 0
0 0 0 0 0 0 0 0 0
0 0 0 0 0 0 0 0 0
0 0 0 0 0 0 0 0 0
0 0 0 0 0 0 0 0 0
0 0 0 0 0 0 0 0 0
0 0 0 0 0 0 0 0 0
0 0 0 0 0 0 0 0 0
0 0 0 0 0 0 0 0 0
0 0 0 0 0 0 0 0 0
0 0 0 0 0 0 0 0 0
0 0 0 0 0 0 0 0 0
0 0 0 0 0 0 0 0 0
0 0 0 0 0 0 0 0 0
0 0 0 0 0 0 0 0 0
0 0 0 0 0 0 0 0 0
0 0 0 0 0 0 0 0 0
0 0 0 0 0 0 0 0 0
0 0 0 0 0 0 0 0 0
0 0 0 0 0 0 0 0 0
0 0 0 0 0 0 0 0 0
0 0 0 0 0 0 0 0 0
0 0 0 0 0 0 0 0 0
0 0 0 0 0 0 0 0 0
0 0 0 0 0 0 0 0 0
0 0 0 0 0 0 0 0 0
0 0 0 0 0 0 0 0 0
0 0 0 0 0 0 0 0 0
0 0 0 0 0 0 0 0 0
0 0 0 0 0 0 0 0 0
0 0 0 0 0 0 0 0 0
0 0 0 0 0 0 0 0 0
0 0 0 0 0 0 0 0 0
0 0 0 0 0 0 0 0 0
0 0 0 0 0 0 0 0 0
0 0 0 0 0 0 0 0 0
0 0 0 0 0 0 0 0 0
0 0 0 0 0 0 0 0 0
0 0 0 0 0 0 0 0 0
0 0 0 0 0 0 0 0 0
0 0 0 0 0 0 0 0 0
0 0 0 0 0 0 0 0 0
0 0 0 0 0 0 0 0 0
0 0 0 0 0 0 0 0 0
0 0 0 0 0 0 0 0 0
0 0 0 0 0 0 0 0 0
0 0 0 0 0 0 0 0 0
0 0 0 0 0 0 0 0 0
0 0 0 0 0 0 0 0 0
0 0 0 0 0 0 0 0 0
0 0 0 0 0 0 0 0 0
0 0 0 0 0 0 0 0 0
0 0 0 0 0 0 0 0 0
0 0 0 0 0 0 0 0 0
0 0 0 0 0 0 0 0 0
0 0 0 0 0 0 0 0 0
0 0 0 0 0 0 0 0 0
0 0 0 0 0 0 0 0 0
0 0 0 0 0 0 0 0 0
0 0 0 0 0 0 0 0 0
0 0 0 0 0 0 0 0 0
0 0 0 0 0 0 0 0 0
0 0 0 0 0 0 0 0 0
0 0 0 0 0 0 0 0 0
0 0 0 0 0 0 0 0 0
0 0 0 0 0 0 0 0 0
0 0 0 0 0 0 0 0 0
0 0 0 0 0 0 0 0 0
0 0 0 0 0 0 0 0 0
0 0 0 0 0 0 0 0 0
0 0 0 0 0 0 0 0 0
0 0 0 0 0 0 0 0 0
0 0 0 0 0 0 0 0 0
0 0 0 0 0 0 0 0 0
0 0 0 0 0 0 0 0 0
0 0 0 0 0 0 0 0 0
0 0 0 0 0 0 0 0 0
0 0 0 0 0 0 0 0 0
0 0 0 0 0 0 0 0 0
0 0 0 0 0 0 0 0 0
0 0 0 0 0 0 0 0 0
0 0 0 0 0 0 0 0 0
0 0 0 0 0 0 0 0 0
0 0 0 0 0 0 0 0 0
0 0 0 0 0 0 0 0 0
0 0 0 0 0 0 0 0 0
0 0 0 0 0 0 0 0 0
0 0 0 0 0 0 0 0 0
0 0 0 0 0 0 0 0 0
0 0 0 0 0 0 0 0 0
0 0 0 0 0 0 0 0 0
0 0 0 0 0 0 0 0 0
0 0 0 0 0 0 0 0 0
0 0 0 0 0 0 0 0 0
0 0 0 0 0 0 0 0 0
0 0 0 0 0 0 0 0 0
0 0 0 0 0 0 0 0 0
0 0 0 0 0 0 0 0 0
0 0 0 0 0 0 0 0 0
0 0 0 0 0 0 0 0 0
0 0 0 0 0 0 0 0 0
0 0 0 0 0 0 0 0 0
0 0 0 0 0 0 0 0 0
0 0 0 0 0 0 0 0 0
0 0 0 0 0 0 0 0 0
0 0 0 0 0 0 0 0 0
0 0 0 0 0 0 0 0 0
0 0 0 0 0 0 0 0 0
0 0 0 0 0 0 0 0 0
0 0 0 0 0 0 0 0 0
0 0 0 0 0 0 0 0 0
0 0 0 0 0 0 0 0 0
0 0 0 0 0 0 0 0 0
0 0 0 0 0 0 0 0 0
0 0 0 0 0 0 0 0 0
0 0 0 0 0 0 0 0 0
0 0 0 0 0 0 0 0 0
0 0 0 0 0 0 0 0 0
0 0 0 0 0 0 0 0 0
0 0 0 0 0 0 0 0 0
0 0 0 0 0 0 0 0 0
0 0 0 0 0 0 0 0 0
0 0 0 0 0 0 0 0 0
0 0 0 0 0 0 0 0 0
0 0 0 0 0 0 0 0 0
0 0 0 0 0 0 0 0 0
0 0 0 0 0 0 0 0 0
0 0 0 0 0 0 0 0 0
0 0 0 0 0 0 0 0 0
0 0 0 0 0 0 0 0 0
0 0 0 0 0 0 0 0 0
0 0 0 0 0 0 0 0 0
0 0 0 0 0 0 0 0 0
0 0 0 0 0 0 0 0 0
0 0 0 0 0 0 0 0 0
0 0 0 0 0 0 0 0 0
0 0 0 0 0 0 0 0 0
0 0 0 0 0 0 0 0 0
0 0 0 0 0 0 0 0 0
0 0 0 0 0 0 0 0 0
0 0 0 0 0 0 0 0 0
0 0 0 0 0 0 0 0 0
0 0 0 0 0 0 0 0 0
0 0 0 0 0 0 0 0 0
0 0 0 0 0 0 0 0 0
0 0 0 0 0 0 0 0 0
0 0 0 0 0 0 0 0 0
0 0 0 0 0 0 0 0 0
0 0 0 0 0 0 0 0 0
0 0 0 0 0 0 0 0 0
0 0 0 0 0 0 0 0 0
0 0 0 0 0 0 0 0 0
0 0 0 0 0 0 0 0 0
0 0 0 0 0 0 0 0 0
0 0 0 0 0 0 0 0 0
0 0 0 0 0 0 0 0 0
0 0 0 0 0 0 0 0 0
0 0 0 0 0 0 0 0 0
0 0 0 0 0 0 0 0 0
0 0 0 0 0 0 0 0 0
0 0 0 0 0 0 0 0 0
0 0 0 0 0 0 0 0 0
0 0 0 0 0 0 0 0 0
0 0 0 0 0 0 0 0 0
0 0 0 0 0 0 0 0 0
0 0 0 0 0 0 0 0 0
0 0 0 0 0 0 0 0 0
0 0 0 0 0 0 0 0 0
0 0 0 0 0 0 0 0 0
0 0 0 0 0 0 0 0 0
0 0 0 0 0 0 0 0 0
0 0 0 0 0 0 0 0 0
0 0 0 0 0 0 0 0 0
0 0 0 0 0 0 0 0 0
0 0 0 0 0 0 0 0 0
0 0 0 0 0 0 0 0 0
0 0 0 0 0 0 0 0 0
0 0 0 0 0 0 0 0 0
0 0 0 0 0 0 0 0 0
0 0 0 0 0 0 0 0 0
0 0 0 0 0 0 0 0 0
0 0 0 0 0 0 0 0 0
0 0 0 0 0 0 0 0 0
0 0 0 0 0 0 0 0 0
0 0 0 0 0 0 0 0 0
0 0 0 0 0 0 0 0 0
0 0 0 0 0 0 0 0 0
0 0 0 0 0 0 0 0 0
0 0 0 0 0 0 0 0 0
0 0 0 0 0 0 0 0 0
0 0 0 0 0 0 0 0 0
0 0 0 0 0 0 0 0 0
0 0 0 0 0 0 0 0 0
0 0 0 0 0 0 0 0 0
SCALARS F_CZ double 9
LOOKUP_TABLE default
0 0 0 0 0 0 0 0 0
0 0 0 0 0 0 0 0 0
0 0 0 0 0 0 0 0 0
0 0 0 0 0 0 0 0 0
0 0 0 0 0 0 0 0 0
0 0 0 0 0 0 0 0 0
0 0 0 0 0 0 0 0 0
0 0 0 0 0 0 0 0 0
0 0 0 0 0 0 0 0 0
0 0 0 0 0 0 0 0 0
0 0 0 0 0 0 0 0 0
0 0 0 0 0 0 0 0 0
0 0 0 0 0 0 0 0 0
0 0 0 0 0 0 0 0 0
0 0 0 0 0 0 0 0 0
0 0 0 0 0 0 0 0 0
0 0 0 0 0 0 0 0 0
0 0 0 0 0 0 0 0 0
0 0 0 0 0 0 0 0 0
0 0 0 0 0 0 0 0 0
0 0 0 0 0 0 0 0 0
0 0 0 0 0 0 0 0 0
0 0 0 0 0 0 0 0 0
0 0 0 0 0 0 0 0 0
0 0 0 0 0 0 0 0 0
0 0 0 0 0 0 0 0 0
0 0 0 0 0 0 0 0 0
0 0 0 0 0 0 0 0 0
0 0 0 0 0 0 0 0 0
0 0 0 0 0 0 0 0 0
0 0 0 0 0 0 0 0 0
0 0 0 0 0 0 0 0 0
0 0 0 0 0 0 0 0 0
0 0 0 0 0 0 0 0 0
0 0 0 0 0 0 0 0 0
0 0 0 0 0 0 0 0 0
0 0 0 0 0 0 0 0 0
0 0 0 0 0 0 0 0 0
0 0 0 0 0 0 0 0 0
0 0 0 0 0 0 0 0 0
0 0 0 0 0 0 0 0 0
0 0 0 0 0 0 0 0 0
0 0 0 0 0 0 0 0 0
0 0 0 0 0 0 0 0 0
0 0 0 0 0 0 0 0 0
0 0 0 0 0 0 0 0 0
0 0 0 0 0 0 0 0 0
0 0 0 0 0 0 0 0 0
0 0 0 0 0 0 0 0 0
0 0 0 0 0 0 0 0 0
0 0 0 0 0 0 0 0 0
0 0 0 0 0 0 0 0 0
0 0 0 0 0 0 0 0 0
0 0 0 0 0 0 0 0 0
0 0 0 0 0 0 0 0 0
0 0 0 0 0 0 0 0 0
0 0 0 0 0 0 0 0 0
0 0 0 0 0 0 0 0 0
0 0 0 0 0 0 0 0 0
0 0 0 0 0 0 0 0 0
0 0 0 0 0 0 0 0 0
0 0 0 0 0 0 0 0 0
0 0 0 0 0 0 0 0 0
0 0 0 0 0 0 0 0 0
0 0 0 0 0 0 0 0 0
0 0 0 0 0 0 0 0 0
0 0 0 0 0 0 0 0 0
0 0 0 0 0 0 0 0 0
0 0 0 0 0 0 0 0 0
0 0 0 0 0 0 0 0 0
0 0 0 0 0 0 0 0 0
0 0 0 0 0 0 0 0 0
0 0 0 0 0 0 0 0 0
0 0 0 0 0 0 0 0 0
0 0 0 0 0 0 0 0 0
0 0 0 0 0 0 0 0 0
0 0 0 0 0 0 0 0 0
0 0 0 0 0 0 0 0 0
0 0 0 0 0 0 0 0 0
0 0 0 0 0 0 0 0 0
0 0 0 0 0 0 0 0 0
0 0 0 0 0 0 0 0 0
0 0 0 0 0 0 0 0 0
0 0 0 0 0 0 0 0 0
0 0 0 0 0 0 0 0 0
0 0 0 0 0 0 0 0 0
0 0 0 0 0 0 0 0 0
0 0 0 0 0 0 0 0 0
0 0 0 0 0 0 0 0 0
0 0 0 0 0 0 0 0 0
0 0 0 0 0 0 0 0 0
0 0 0 0 0 0 0 0 0
0 0 0 0 0 0 0 0 0
0 0 0 0 0 0 0 0 0
0 0 0 0 0 0 0 0 0
0 0 0 0 0 0 0 0 0
0 0 0 0 0 0 0 0 0
0 0 0 0 0 0 0 0 0
0 0 0 0 0 0 0 0 0
0 0 0 0 0 0 0 0 0
0 0 0 0 0 0 0 0 0
0 0 0 0 0 0 0 0 0
0 0 0 0 0 0 0 0 0
0 0 0 0 0 0 0 0 0
0 0 0 0 0 0 0 0 0
0 0 0 0 0 0 0 0 0
0 0 0 0 0 0 0 0 0
0 0 0 0 0 0 0 0 0
0 0 0 0 0 0 0 0 0
0 0 0 0 0 0 0 0 0
0 0 0 0 0 0 0 0 0
0 0 0 0 0 0 0 0 0
0 0 0 0 0 0 0 0 0
0 0 0 0 0 0 0 0 0
0 0 0 0 0 0 0 0 0
0 0 0 0 0 0 0 0 0
0 0 0 0 0 0 0 0 0
0 0 0 0 0 0 0 0 0
0 0 0 0 0 0 0 0 0
0 0 0 0 0 0 0 0 0
0 0 0 0 0 0 0 0 0
0 0 0 0 0 0 0 0 0
0 0 0 0 0 0 0 0 0
0 0 0 0 0 0 0 0 0
0 0 0 0 0 0 0 0 0
0 0 0 0 0 0 0 0 0
0 0 0 0 0 0 0 0 0
0 0 0 0 0 0 0 0 0
0 0 0 0 0 0 0 0 0
0 0 0 0 0 0 0 0 0
0 0 0 0 0 0 0 0 0
0 0 0 0 0 0 0 0 0
0 0 0 0 0 0 0 0 0
0 0 0 0 0 0 0 0 0
0 0 0 0 0 0 0 0 0
0 0 0 0 0 0 0 0 0
0 0 0 0 0 0 0 0 0
0 0 0 0 0 0 0 0 0
0 0 0 0 0 0 0 0 0
0 0 0 0 0 0 0 0 0
0 0 0 0 0 0 0 0 0
0 0 0 0 0 0 0 0 0
0 0 0 0 0 0 0 0 0
0 0 0 0 0 0 0 0 0
0 0 0 0 0 0 0 0 0
0 0 0 0 0 0 0 0 0
0 0 0 0 0 0 0 0 0
0 0 0 0 0 0 0 0 0
0 0 0 0 0 0 0 0 0
0 0 0 0 0 0 0 0 0
0.00210383 0.00229464 0.00208651 0.00227323 0.00210383 0.00229464 0.00208651 0.00227323 0
0.00243548 0.00262944 0.00241151 0.00260251 0.00243548 0.00262944 0.00241151 0.00260251 0
0.00277351 0.00297316 0.00274464 0.00294194 0.00277351 0.00297316 0.00274464 0.00294194 0
0.00312222 0.00332984 0.00308917 0.00329412 0.00312222 0.00332984 0.00308917 0.00329412 0
0.00348499 0.00370128 0.00344695 0.00365957 0.00348499 0.00370128 0.00344695 0.00365957 0
0.00386233 0.00408609 0.00381763 0.00403687 0.00386233 0.00408609 0.00381763 0.00403687 0
0.004252 0.00448157 0.00419951 0.00442461 0.004252 0.00448157 0.00419951 0.00442461 0
0.0046509 0.00488401 0.00459123 0.00482138 0.0046509 0.00488401 0.00459123 0.00482138 0
0.00213912 0.00233542 0.00211792 0.00231129 0.00213912 0.00233542 0.00211792 0.00231129 0
0.00248029 0.00267979 0.0024539 0.00265014 0.00248029 0.00267979 0.0024539 0.00265014 0
0.00282789 0.00303305 0.00279581 0.00299757 0.00282789 0.00303305 0.00279581 0.00299757 0
0.003186 0.00339877 0.00314817 0.00335789 0.003186 0.00339877 0.00314817 0.00335789 0
0.00355763 0.00377892 0.00351466 0.00373327 0.00355763 0.00377892 0.00351466 0.00373327 0
0.00394381 0.00417303 0.00389616 0.00412259 0.00394381 0.00417303 0.00389616 0.00412259 0
0.0043433 0.00457928 0.00429055 0.00452304 0.0043433 0.00457928 0.00429055 0.00452304 0
0.0047542 0.00499615 0.00469459 0.00493087 0.0047542 0.00499615 0.00469459 0.00493087 0
0.00517639 0.00542691 0.00510786 0.0053552 0.00517639 0.00542691 0.00510786 0.0053552 0
0.00218179 0.00238299 0.00215624 0.00235464 0.00218179 0.00238299 0.00215624 0.00235464 0
0.00253151 0.00273612 0.00250109 0.00270283 0.00253151 0.00273612 0.00250109 0.00270283 0
0.00288806 0.0030986 0.00285262 0.00306013 0.00288806 0.0030986 0.00285262 0.00306013 0
0.00325538 0.0034732 0.00321474 0.00342968 0.00325538 0.0034732 0.00321474 0.00342968 0
0.00363564 0.00386164 0.00359006 0.00381334 0.00363564 0.00386164 0.00359006 0.00381334 0
0.00403006 0.00426425 0.00397971 0.00421101 0.00403006 0.00426425 0.00397971 0.00421101 0
0.00443854 0.00468054 0.00438297 0.00462151 0.00443854 0.00468054 0.00438297 0.00462151 0
0.00486052 0.00511027 0.00479869 0.00504426 0.00486052 0.00511027 0.00479869 0.00504426 0
0.00529609 0.00555411 0.00522686 0.00548025 0.00529609 0.00555411 0.00522686 0.00548025 0
0.0022338 0.00243825 0.00220257 0.00240539 0.0022338 0.00243825 0.00220257 0.00240539 0
0.00258956 0.00279854 0.00255522 0.00276177 0.00258956 0.00279854 0.00255522 0.00276177 0
0.00295382 0.0031691 0.00291518 0.0031278 0.00295382 0.0031691 0.00291518 0.0031278 0
0.00332936 0.00355195 0.0032861 0.00350597 0.00332936 0.00355195 0.0032861 0.00350597 0
0.00371786 0.00394858 0.00366989 0.00389789 0.00371786 0.00394858 0.00366989 0.00389789 0
0.0041206 0.00435989 0.00406783 0.00430416 0.0041206 0.00435989 0.00406783 0.00430416 0
0.00453822 0.00478622 0.00448015 0.0047247 0.00453822 0.00478622 0.00448015 0.0047247 0
0.00497101 0.00522793 0.00490671 0.0051595 0.00497101 0.00522793 0.00490671 0.0051595 0
0.0054193 0.00568532 0.00534768 0.00560909 0.0054193 0.00568532 0.00534768 0.00560909 0
0.00229339 0.00250045 0.00225813 0.00246371 0.00229339 0.00250045 0.00225813 0.00246371 0
0.00265405 0.00286669 0.00261604 0.00282666 0.00265405 0.00286669 0.00261604 0.00282666 0
0.00302483 0.00324426 0.0029832 0.00320031 0.00302483 0.00324426 0.0029832 0.00320031 0
0.00340767 0.0036347 0.00336194 0.00358644 0.00340767 0.0036347 0.00336194 0.00358644 0
0.00380395 0.00403934 0.00375378 0.00398649 0.00380395 0.00403934 0.00375378 0.00398649 0
0.00421493 0.00445931 0.00416003 0.00440147 0.00421493 0.00445931 0.00416003 0.00440147 0
0.00464169 0.00489562 0.00458152 0.00483203 0.00464169 0.00489562 0.00458152 0.00483203 0
0.00508516 0.00534913 0.00501884 0.00527876 0.00508516 0.00534913 0.00501884 0.00527876 0
0.00554606 0.00582018 0.00547248 0.0057419 0.00554606 0.00582018 0.00547248 0.0057419 0
0.00236005 0.00256905 0.0023207 0.00252867 0.00236005 0.00256905 0.0023207 0.00252867 0
0.00272446 0.00294005 0.0026831 0.00289707 0.00272446 0.00294005 0.0026831 0.00289707 0
0.0031006 0.00332365 0.00305628 0.0032773 0.0031006 0.00332365 0.00305628 0.0032773 0
0.0034899 0.00372106 0.00344195 0.00367077 0.0034899 0.00372106 0.00344195 0.00367077 0
0.00389348 0.00413339 0.00384138 0.0040787 0.00389348 0.00413339 0.00384138 0.0040787 0
0.00431246 0.00456183 0.00425578 0.00450229 0.00431246 0.00456183 0.00425578 0.00450229 0
0.00474815 0.00500786 0.00468634 0.00494274 0.00474815 0.00500786 0.00468634 0.00494274 0
0.00520206 0.00547295 0.00513426 0.00540117 0.00520206 0.00547295 0.00513426 0.00540117 0
0.00567542 0.00595777 0.00560045 0.00587804 0.00567542 0.00595777 0.00560045 0.00587804 0
0.00243331 0.0026434 0.00239022 0.00259979 0.00243331 0.0026434 0.00239022 0.00259979 0
0.00280008 0.00301801 0.0027558 0.00297245 0.00280008 0.00301801 0.0027558 0.00297245 0
0.00318058 0.00340676 0.0031339 0.00335833 0.00318058 0.00340676 0.0031339 0.00335833 0
0.00357556 0.00381052 0.00352569 0.0037585 0.00357556 0.00381052 0.00352569 0.0037585 0
0.0039859 0.0042301 0.0039322 0.00417395 0.0039859 0.0042301 0.0039322 0.00417395 0
0.00441249 0.00466661 0.00435445 0.00460586 0.00441249 0.00466661 0.00435445 0.00460586 0
0.00485671 0.00512199 0.0047938 0.0050559 0.00485671 0.00512199 0.0047938 0.0050559 0
0.005321 0.00559948 0.0052521 0.00552609 0.005321 0.00559948 0.0052521 0.00552609 0
0.00580748 0.00609736 0.00573091 0.00601655 0.00580748 0.00609736 0.00573091 0.00601655 0
0.00251217 0.00272348 0.00246598 0.00267655 0.00251217 0.00272348 0.00246598 0.00267655 0
0.00288161 0.00310221 0.0028338 0.00305278 0.00288161 0.00310221 0.0028338 0.00305278 0
0.0032672 0.00349732 0.0032163 0.003444 0.0032672 0.00349732 0.0032163 0.003444 0
0.00366773 0.00390311 0.00361361 0.00384926 0.00366773 0.00390311 0.00361361 0.00384926 0
0.00408016 0.00432848 0.00402554 0.00427149 0.00408016 0.00432848 0.00402554 0.00427149 0
0.00451402 0.00477265 0.00445524 0.00471129 0.00451402 0.00477265 0.00445524 0.00471129 0
0.00496632 0.00523685 0.00490293 0.00517047 0.00496632 0.00523685 0.00490293 0.00517047 0
0.00544051 0.00572649 0.00537148 0.00565317 0.00544051 0.00572649 0.00537148 0.00565317 0
0.00375797 0.00399835 0.00370638 0.00394304 0.00375797 0.00399835 0.00370638 0.00394304 0
0.004179 0.00443213 0.00412126 0.0043715 0.004179 0.00443213 0.00412126 0.0043715 0
0.0046212 0.00488464 0.00455848 0.00481909 0.0046212 0.00488464 0.00455848 0.00481909 0
0.00508177 0.00535693 0.00501423 0.0052868 0.00508177 0.00535693 0.00501423 0.0052868 0
0.00556376 0.00585373 0.00549203 0.00578023 0.00556376 0.00585373 0.00549203 0.00578023 0
0 0 0 0 0 0 0 0 0
0 0 0 0 0 0 0 0 0
0 0 0 0 0 0 0 0 0
0 0 0 0 0 0 0 0 0
0 0 0 0 0 0 0 0 0
0 0 0 0 0 0 0 0 0
0 0 0 0 0 0 0 0 0
0 0 0 0 0 0 0 0 0
0 0 0 0 0 0 0 0 0
0 0 0 0 0 0 0 0 0
0 0 0 0 0 0 0 0 0
0 0 0 0 0 0 0 0 0
0 0 0 0 0 0 0 0 0
0 0 0 0 0 0 0 0 0
0 0 0 0 0 0 0 0 0
0 0 0 0 0 0 0 0 0
0 0 0 0 0 0 0 0 0
0 0 0 0 0 0 0 0 0
0 0 0 0 0 0 0 0 0
0 0 0 0 0 0 0 0 0
0 0 0 0 0 0 0 0 0
0 0 0 0 0 0 0 0 0
0 0 0 0 0 0 0 0 0
0 0 0 0 0 0 0 0 0
0 0 0 0 0 0 0 0 0
0 0 0 0 0 0 0 0 0
0 0 0 0 0 0 0 0 0
0 0 0 0 0 0 0 0 0
0 0 0 0 0 0 0 0 0
0 0 0 0 0 0 0 0 0
0 0 0 0 0 0 0 0 0
0 0 0 0 0 0 0 0 0
0 0 0 0 0 0 0 0 0
0 0 0 0 0 0 0 0 0
0 0 0 0 0 0 0 0 0
0 0 0 0 0 0 0 0 0
0 0 0 0 0 0 0 0 0
0 0 0 0 0 0 0 0 0
0 0 0 0 0 0 0 0 0
0 0 0 0 0 0 0 0 0
0 0 0 0 0 0 0 0 0
0 0 0 0 0 0 0 0 0
0 0 0 0 0 0 0 0 0
0 0 0 0 0 0 0 0 0
0 0 0 0 0 0 0 0 0
0 0 0 0 0 0 0 0 0
0 0 0 0 0 0 0 0 0
0 0 0 0 0 0 0 0 0
0 0 0 0 0 0 0 0 0
0 0 0 0 0 0 0 0 0
0 0 0 0 0 0 0 0 0
0 0 0 0 0 0 0 0 0
0 0 0 0 0 0 0 0 0
0 0 0 0 0 0 0 0 0
0 0 0 0 0 0 0 0 0
0 0 0 0 0 0 0 0 0
0 0 0 0 0 0 0 0 0
0 0 0 0 0 0 0 0 0
0 0 0 0 0 0 0 0 0
0 0 0 0 0 0 0 0 0
0 0 0 0 0 0 0 0 0
0 0 0 0 0 0 0 0 0
0 0 0 0 0 0 0 0 0
0 0 0 0 0 0 0 0 0
0 0 0 0 0 0 0 0 0
0 0 0 0 0 0 0 0 0
0 0 0 0 0 0 0 0 0
0 0 0 0 0 0 0 0 0
0 0 0 0 0 0 0 0 0
0 0 0 0 0 0 0 0 0
0 0 0 0 0 0 0 0 0
0 0 0 0 0 0 0 0 0
0 0 0 0 0 0 0 0 0
0 0 0 0 0 0 0 0 0
0 0 0 0 0 0 0 0 0
0 0 0 0 0 0 0 0 0
0 0 0 0 0 0 0 0 0
0 0 0 0 0 0 0 0 0
0 0 0 0 0 0 0 0 0
0 0 0 0 0 0 0 0 0
0 0 0 0 0 0 0 0 0
0 0 0 0 0 0 0 0 0
0 0 0 0 0 0 0 0 0
0 0 0 0 0 0 0 0 0
0 0 0 0 0 0 0 0 0
0 0 0 0 0 0 0 0 0
0 0 0 0 0 0 0 0 0
0 0 0 0 0 0 0 0 0
0 0 0 0 0 0 0 0 0
0 0 0 0 0 0 0 0 0
0 0 0 0 0 0 0 0 0
0 0 0 0 0 0 0 0 0
0 0 0 0 0 0 0 0 0
0 0 0 0 0 0 0 0 0
0 0 0 0 0 0 0 0 0
0 0 0 0 0 0 0 0 0
0 0 0 0 0 0 0 0 0
0 0 0 0 0 0 0 0 0
0 0 0 0 0 0 0 0 0
0 0 0 0 0 0 0 0 0
0 0 0 0 0 0 0 0 0
0 0 0 0 0 0 0 0 0
0 0 0 0 0 0 0 0 0
0 0 0 0 0 0 0 0 0
0 0 0 0 0 0 0 0 0
0 0 0 0 0 0 0 0 0
0 0 0 0 0 0 0 0 0
0 0 0 0 0 0 0 0 0
0 0 0 0 0 0 0 0 0
0 0 0 0 0 0 0 0 0
0 0 0 0 0 0 0 0 0
0 0 0 0 0 0 0 0 0
0 0 0 0 0 0 0 0 0
0 0 0 0 0 0 0 0 0
0 0 0 0 0 0 0 0 0
0 0 0 0 0 0 0 0 0
0 0 0 0 0 0 0 0 0
0 0 0 0 0 0 0 0 0
0 0 0 0 0 0 0 0 0
0 0 0 0 0 0 0 0 0
0 0 0 0 0 0 0 0 0
0 0 0 0 0 0 0 0 0
0 0 0 0 0 0 0 0 0
0 0 0 0 0 0 0 0 0
0 0 0 0 0 0 0 0 0
0 0 0 0 0 0 0 0 0
0 0 0 0 0 0 0 0 0
0 0 0 0 0 0 0 0 0
0 0 0 0 0 0 0 0 0
0 0 0 0 0 0 0 0 0
0 0 0 0 0 0 0 0 0
0 0 0 0 0 0 0 0 0
0 0 0 0 0 0 0 0 0
0 0 0 0 0 0 0 0 0
0 0 0 0 0 0 0 0 0
0 0 0 0 0 0 0 0 0
0 0 0 0 0 0 0 0 0
0 0 0 0 0 0 0 0 0
0 0 0 0 0 0 0 0 0
0 0 0 0 0 0 0 0 0
0 0 0 0 0 0 0 0 0
0 0 0 0 0 0 0 0 0
0 0 0 0 0 0 0 0 0
0 0 0 0 0 0 0 0 0
0 0 0 0 0 0 0 0 0
0 0 0 0 0 0 0 0 0
0 0 0 0 0 0 0 0 0
0 0 0 0 0 0 0 0 0
0 0 0 0 0 0 0 0 0
0 0 0 0 0 0 0 0 0
0 0 0 0 0 0 0 0 0
0 0 0 0 0 0 0 0 0
0 0 0 0 0 0 0 0 0
0 0 0 0 0 0 0 0 0
0 0 0 0 0 0 0 0 0
0 0 0 0 0 0 0 0 0
0 0 0 0 0 0 0 0 0
0 0 0 0 0 0 0 0 0
0 0 0 0 0 0 0 0 0
0 0 0 0 0 0 0 0 0
0 0 0 0 0 0 0 0 0
0 0 0 0 0 0 0 0 0
0 0 0 0 0 0 0 0 0
0 0 0 0 0 0 0 0 0
0 0 0 0 0 0 0 0 0
0 0 0 0 0 0 0 0 0
0 0 0 0 0 0 0 0 0
0 0 0 0 0 0 0 0 0
0 0 0 0 0 0 0 0 0
0 0 0 0 0 0 0 0 0
0 0 0 0 0 0 0 0 0
0 0 0 0 0 0 0 0 0
0 0 0 0 0 0 0 0 0
0 0 0 0 0 0 0 0 0
0 0 0 0 0 0 0 0 0
0 0 0 0 0 0 0 0 0
0 0 0 0 0 0 0 0 0
0 0 0 0 0 0 0 0 0
0 0 0 0 0 0 0 0 0
0 0 0 0 0 0 0 0 0
0 0 0 0 0 0 0 0 0
0 0 0 0 0 0 0 0 0
0 0 0 0 0 0 0 0 0
0 0 0 0 0 0 0 0 0
0 0 0 0 0 0 0 0 0
0 0 0 0 0 0 0 0 0
0 0 0 0 0 0 0 0 0
0 0 0 0 0 0 0 0 0
0 0 0 0 0 0 0 0 0
0 0 0 0 0 0 0 0 0
0 0 0 0 0 0 0 0 0
0 0 0 0 0 0 0 0 0
0 0 0 0 0 0 0 0 0
0 0 0 0 0 0 0 0 0
0 0 0 0 0 0 0 0 0
0 0 0 0 0 0 0 0 0
0 0 0 0 0 0 0 0 0
0 0 0 0 0 0 0 0 0
0 0 0 0 0 0 0 0 0
0 0 0 0 0 0 0 0 0
0 0 0 0 0 0 0 0 0
0 0 0 0 0 0 0 0 0
0 0 0 0 0 0 0 0 0
0 0 0 0 0 0 0 0 0
0 0 0 0 0 0 0 0 0
0 0 0 0 0 0 0 0 0
0 0 0 0 0 0 0 0 0
0 0 0 0 0 0 0 0 0
0 0 0 0 0 0 0 0 0
0 0 0 0 0 0 0 0 0
0 0 0 0 0 0 0 0 0
0 0 0 0 0 0 0 0 0
0 0 0 0 0 0 0 0 0
0 0 0 0 0 0 0 0 0
0 0 0 0 0 0 0 0 0
0 0 0 0 0 0 0 0 0
0 0 0 0 0 0 0 0 0
0 0 0 0 0 0 0 0 0
0 0 0 0 0 0 0 0 0
0 0 0 0 0 0 0 0 0
0 0 0 0 0 0 0 0 0
0 0 0 0 0 0 0 0 0
0 0 0 0 0 0 0 0 0
0 0 0 0 0 0 0 0 0
0 0 0 0 0 0 0 0 0
0 0 0 0 0 0 0 0 0
0 0 0 0 0 0 0 0 0
0 0 0 0 0 0 0 0 0
0 0 0 0 0 0 0 0 0
0 0 0 0 0 0 0 0 0
0 0 0 0 0 0 0 0 0
0 0 0 0 0 0 0 0 0
0 0 0 0 0 0 0 0 0
0 0 0 0 0 0 0 0 0
0 0 0 0 0 0 0 0 0
0 0 0 0 0 0 0 0 0
0 0 0 0 0 0 0 0 0
0 0 0 0 0 0 0 0 0
0 0 0 0 0 0 0 0 0
0 0 0 0 0 0 0 0 0
0 0 0 0 0 0 0 0 0
0 0 0 0 0 0 0 0 0
0 0 0 0 0 0 0 0 0
0 0 0 0 0 0 0 0 0
0 0 0 0 0 0 0 0 0
0 0 0 0 0 0 0 0 0
0 0 0 0 0 0 0 0 0
0 0 0 0 0 0 0 0 0
0 0 0 0 0 0 0 0 0
0 0 0 0 0 0 0 0 0
0 0 0 0 0 0 0 0 0
0 0 0 0 0 0 0 0 0
0 0 0 0 0 0 0 0 0
0 0 0 0 0 0 0 0 0
0 0 0 0 0 0 0 0 0
0 0 0 0 0 0 0 0 0
0 0 0 0 0 0 0 0 0
0 0 0 0 0 0 0 0 0
0 0 0 0 0 0 0 0 0
0 0 0 0 0 0 0 0 0
0 0 0 0 0 0 0 0 0
0 0 0 0 0 0 0 0 0
0 0 0 0 0 0 0 0 0
0 0 0 0 0 0 0 0 0
0 0 0 0 0 0 0 0 0
0 0 0 0 0 0 0 0 0
0 0 0 0 0 0 0 0 0
0 0 0 0 0 0 0 0 0
0 0 0 0 0 0 0 0 0
0 0 0 0 0 0 0 0 0
0 0 0 0 0 0 0 0 0
0 0 0 0 0 0 0 0 0
0 0 0 0 0 0 0 0 0
0 0 0 0 0 0 0 0 0
0 0 0 0 0 0 0 0 0
0 0 0 0 0 0 0 0 0
0 0 0 0 0 0 0 0 0
0 0 0 0 0 0 0 0 0
0 0 0 0 0 0 0 0 0
0 0 0 0 0 0 0 0 0
0 0 0 0 0 0 0 0 0
0 0 0 0 0 0 0 0 0
0 0 0 0 0 0 0 0 0
0 0 0 0 0 0 0 0 0
0 0 0 0 0 0 0 0 0
0 0 0 0 0 0 0 0 0
0 0 0 0 0 0 0 0 0
0 0 0 0 0 0 0 0 0
0 0 0 0 0 0 0 0 0
0 0 0 0 0 0 0 0 0
0 0 0 0 0 0 0 0 0
0 0 0 0 0 0 0 0 0
0 0 0 0 0 0 0 0 0
0 0 0 0 0 0 0 0 0
0 0 0 0 0 0 0 0 0
0 0 0 0 0 0 0 0 0
0 0 0 0 0 0 0 0 0
0 0 0 0 0 0 0 0 0
0 0 0 0 0 0 0 0 0
0 0 0 0 0 0 0 0 0
0 0 0 0 0 0 0 0 0
0 0 0 0 0 0 0 0 0
0 0 0 0 0 0 0 0 0
0 0 0 0 0 0 0 0 0
0 0 0 0 0 0 0 0 0
0 0 0 0 0 0 0 0 0
0 0 0 0 0 0 0 0 0
0 0 0 0 0 0 0 0 0
0 0 0 0 0 0 0 0 0
0 0 0 0 0 0 0 0 0
0 0 0 0 0 0 0 0 0
0 0 0 0 0 0 0 0 0
0 0 0 0 0 0 0 0 0
0 0 0 0 0 0 0 0 0
0 0 0 0 0 0 0 0 0
0 0 0 0 0 0 0 0 0
0 0 0 0 0 0 0 0 0
0 0 0 0 0 0 0 0 0
0 0 0 0 0 0 0 0 0
0 0 0 0 0 0 0 0 0
0 0 0 0 0 0 0 0 0
0 0 0 0 0 0 0 0 0
0 0 0 0 0 0 0 0 0
0 0 0 0 0 0 0 0 0
0 0 0 0 0 0 0 0 0
0 0 0 0 0 0 0 0 0
0 0 0 0 0 0 0 0 0
0 0 0 0 0 0 0 0 0
0 0 0 0 0 0 0 0 0
0 0 0 0 0 0 0 0 0
0 0 0 0 0 0 0 0 0
0 0 0 0 0 0 0 0 0
0 0 0 0 0 0 0 0 0
0 0 0 0 0 0 0 0 0
0 0 0 0 0 0 0 0 0
0 0 0 0 0 0 0 0 0
0 0 0 0 0 0 0 0 0
0 0 0 0 0 0 0 0 0
0 0 0 0 0 0 0 0 0
0 0 0 0 0 0 0 0 0
0 0 0 0 0 0 0 0 0
0 0 0 0 0 0 0 0 0
0 0 0 0 0 0 0 0 0
0 0 0 0 0 0 0 0 0
0 0 0 0 0 0 0 0 0
0 0 0 0 0 0 0 0 0
0 0 0 0 0 0 0 0 0
0 0 0 0 0 0 0 0 0
0 0 0 0 0 0 0 0 0
0 0 0 0 0 0 0 0 0
0 0 0 0 0 0 0 0 0
0 0 0 0 0 0 0 0 0
0 0 0 0 0 0 0 0 0
0 0 0 0 0 0 0 0 0
0 0 0 0 0 0 0 0 0
0 0 0 0 0 0 0 0 0
0 0 0 0 0 0 0 0 0
0 0 0 0 0 0 0 0 0
0 0 0 0 0 0 0 0 0
0 0 0 0 0 0 0 0 0
0 0 0 0 0 0 0 0 0
0 0 0 0 0 0 0 0 0
0 0 0 0 0 0 0 0 0
0 0 0 0 0 0 0 0 0
0 0 0 0 0 0 0 0 0
0 0 0 0 0 0 0 0 0
0 0 0 0 0 0 0 0 0
0 0 0 0 0 0 0 0 0
0 0 0 0 0 0 0 0 0
0 0 0 0 0 0 0 0 0
0 0 0 0 0 0 0 0 0
0 0 0 0 0 0 0 0 0
0 0 0 0 0 0 0 0 0
0 0 0 0 0 0 0 0 0
0 0 0 0 0 0 0 0 0
0 0 0 0 0 0 0 0 0
0 0 0 0 0 0 0 0 0
0 0 0 0 0 0 0 0 0
0 0 0 0 0 0 0 0 0
0 0 0 0 0 0 0 0 0
0 0 0 0 0 0 0 0 0
0 0 0 0 0 0 0 0 0
0 0 0 0 0 0 0 0 0
0 0 0 0 0 0 0 0 0
0 0 0 0 0 0 0 0 0
0 0 0 0 0 0 0 0 0
0 0 0 0 0 0 0 0 0
0 0 0 0 0 0 0 0 0
0 0 0 0 0 0 0 0 0
0 0 0 0 0 0 0 0 0
0 0 0 0 0 0 0 0 0
0 0 0 0 0 0 0 0 0
0 0 0 0 0 0 0 0 0
0 0 0 0 0 0 0 0 0
0 0 0 0 0 0 0 0 0
0 0 0 0 0 0 0 0 0
0 0 0 0 0 0 0 0 0
0 0 0 0 0 0 0 0 0
0 0 0 0 0 0 0 0 0
0 0 0 0 0 0 0 0 0
0 0 0 0 0 0 0 0 0
0 0 0 0 0 0 0 0 0
0 0 0 0 0 0 0 0 0
0 0 0 0 0 0 0 0 0
0 0 0 0 0 0 0 0 0
0 0 0 0 0 0 0 0 0
0 0 0 0 0 0 0 0 0
0 0 0 0 0 0 0 0 0
0 0 0 0 0 0 0 0 0
0 0 0 0 0 0 0 0 0
0 0 0 0 0 0 0 0 0
0 0 0 0 0 0 0 0 0
0 0 0 0 0 0 0 0 0
0 0 0 0 0 0 0 0 0
0 0 0 0 0 0 0 0 0
0 0 0 0 0 0 0 0 0
0 0 0 0 0 0 0 0 0
0 0 0 0 0 0 0 0 0
0 0 0 0 0 0 0 0 0
0 0 0 0 0 0 0 0 0
0 0 0 0 0 0 0 0 0
0 0 0 0 0 0 0 0 0
0 0 0 0 0 0 0 0 0
0 0 0 0 0 0 0 0 0
0 0 0 0 0 0 0 0 0
0 0 0 0 0 0 0 0 0
0 0 0 0 0 0 0 0 0
0 0 0 0 0 0 0 0 0
0 0 0 0 0 0 0 0 0
0 0 0 0 0 0 0 0 0
0 0 0 0 0 0 0 0 0
0 0 0 0 0 0 0 0 0
0 0 0 0 0 0 0 0 0
0 0 0 0 0 0 0 0 0
0 0 0 0 0 0 0 0 0
0 0 0 0 0 0 0 0 0
0 0 0 0 0 0 0 0 0
0 0 0 0 0 0 0 0 0
0 0 0 0 0 0 0 0 0
0 0 0 0 0 0 0 0 0
0 0 0 0 0 0 0 0 0
0 0 0 0 0 0 0 0 0
0 0 0 0 0 0 0 0 0
0 0 0 0 0 0 0 0 0
0 0 0 0 0 0 0 0 0
0 0 0 0 0 0 0 0 0
0 0 0 0 0 0 0 0 0
0 0 0 0 0 0 0 0 0
0 0 0 0 0 0 0 0 0
0 0 0 0 0 0 0 0 0
0 0 0 0 0 0 0 0 0
0 0 0 0 0 0 0 0 0
0 0 0 0 0 0 0 0 0
0 0 0 0 0 0 0 0 0
0 0 0 0 0 0 0 0 0
0 0 0 0 0 0 0 0 0
0 0 0 0 0 0 0 0 0
0 0 0 0 0 0 0 0 0
0 0 0 0 0 0 0 0 0
0 0 0 0 0 0 0 0 0
0 0 0 0 0 0 0 0 0
0 0 0 0 0 0 0 0 0
0 0 0 0 0 0 0 0 0
0 0 0 0 0 0 0 0 0
0 0 0 0 0 0 0 0 0
0 0 0 0 0 0 0 0 0
0 0 0 0 0 0 0 0 0
0 0 0 0 0 0 0 0 0
0 0 0 0 0 0 0 0 0
0 0 0 0 0 0 0 0 0
0 0 0 0 0 0 0 0 0
0 0 0 0 0 0 0 0 0
0 0 0 0 0 0 0 0 0
0 0 0 0 0 0 0 0 0
0 0 0 0 0 0 0 0 0
0 0 0 0 0 0 0 0 0
0 0 0 0 0 0 0 0 0
0 0 0 0 0 0 0 0 0
0 0 0 0 0 0 0 0 0
0 0 0 0 0 0 0 0 0
0 0 0 0 0 0 0 0 0
0 0 0 0 0 0 0 0 0
0 0 0 0 0 0 0 0 0
0 0 0 0 0 0 0 0 0
0 0 0 0 0 0 0 0 0
0 0 0 0 0 0 0 0 0
0 0 0 0 0 0 0 0 0
0 0 0 0 0 0 0 0 0
0 0 0 0 0 0 0 0 0
0 0 0 0 0 0 0 0 0
0 0 0 0 0 0 0 0 0
0 0 0 0 0 0 0 0 0
0 0 0 0 0 0 0 0 0
0 0 0 0 0 0 0 0 0
0 0 0 0 0 0 0 0 0
0 0 0 0 0 0 0 0 0
0 0 0 0 0 0 0 0 0
0 0 0 0 0 0 0 0 0
0 0 0 0 0 0 0 0 0
0 0 0 0 0 0 0 0 0
0 0 0 0 0 0 0 0 0
0 0 0 0 0 0 0 0 0
0 0 0 0 0 0 0 0 0
0 0 0 0 0 0 0 0 0
0 0 0 0 0 0 0 0 0
0 0 0 0 0 0 0 0 0
0 0 0 0 0 0 0 0 0
0 0 0 0 0 0 0 0 0
0 0 0 0 0 0 0 0 0
0 0 0 0 0 0 0 0 0
0 0 0 0 0 0 0 0 0
0 0 0 0 0 0 0 0 0
0 0 0 0 0 0 0 0 0
0 0 0 0 0 0 0 0 0
0 0 0 0 0 0 0 0 0
0 0 0 0 0 0 0 0 0
0 0 0 0 0 0 0 0 0
0 0 0 0 0 0 0 0 0
0 0 0 0 0 0 0 0 0
0 0 0 0 0 0 0 0 0
0 0 0 0 0 0 0 0 0
0 0 0 0 0 0 0 0 0
0 0 0 0 0 0 0 0 0
0 0 0 0 0 0 0 0 0
0 0 0 0 0 0 0 0 0
0 0 0 0 0 0 0 0 0
0 0 0 0 0 0 0 0 0
0 0 0 0 0 0 0 0 0
0 0 0 0 0 0 0 0 0
0 0 0 0 0 0 0 0 0
0 0 0 0 0 0 0 0 0
0 0 0 0 0 0 0 0 0
0 0 0 0 0 0 0 0 0
0 0 0 0 0 0 0 0 0
0 0 0 0 0 0 0 0 0
0 0 0 0 0 0 0 0 0
0 0 0 0 0 0 0 0 0
0 0 0 0 0 0 0 0 0
0 0 0 0 0 0 0 0 0
0 0 0 0 0 0 0 0 0
0 0 0 0 0 0 0 0 0
0 0 0 0 0 0 0 0 0
0 0 0 0 0 0 0 0 0
0 0 0 0 0 0 0 0 0
0 0 0 0 0 0 0 0 0
0 0 0 0 0 0 0 0 0
0 0 0 0 0 0 0 0 0
0 0 0 0 0 0 0 0 0
0 0 0 0 0 0 0 0 0
0 0 0 0 0 0 0 0 0
0 0 0 0 0 0 0 0 0
0 0 0 0 0 0 0 0 0
0 0 0 0 0 0 0 0 0
0 0 0 0 0 0 0 0 0
0 0 0 0 0 0 0 0 0
0 0 0 0 0 0 0 0 0
0 0 0 0 0 0 0 0 0
0 0 0 0 0 0 0 0 0
0 0 0 0 0 0 0 0 0
0 0 0 0 0 0 0 0 0
0 0 0 0 0 0 0 0 0
0 0 0 0 0 0 0 0 0
0 0 0 0 0 0 0 0 0
0 0 0 0 0 0 0 0 0
0 0 0 0 0 0 0 0 0
0 0 0 0 0 0 0 0 0
0 0 0 0 0 0 0 0 0
0 0 0 0 0 0 0 0 0
0 0 0 0 0 0 0 0 0
0 0 0 0 0 0 0 0 0
0 0 0 0 0 0 0 0 0
0 0 0 0 0 0 0 0 0
0 0 0 0 0 0 0 0 0
0 0 0 0 0 0 0 0 0
0 0 0 0 0 0 0 0 0
0 0 0 0 0 0 0 0 0
0 0 0 0 0 0 0 0 0
0 0 0 0 0 0 0 0 0
0 0 0 0 0 0 0 0 0
0 0 0 0 0 0 0 0 0
0 0 0 0 0 0 0 0 0
0 0 0 0 0 0 0 0 0
0 0 0 0 0 0 0 0 0
0 0 0 0 0 0 0 0 0
0 0 0 0 0 0 0 0 0
0 0 0 0 0 0 0 0 0
0 0 0 0 0 0 0 0 0
0 0 0 0 0 0 0 0 0
0 0 0 0 0 0 0 0 0
0 0 0 0 0 0 0 0 0
0 0 0 0 0 0 0 0 0
0 0 0 0 0 0 0 0 0
0 0 0 0 0 0 0 0 0
0 0 0 0 0 0 0 0 0
0 0 0 0 0 0 0 0 0
0 0 0 0 0 0 0 0 0
0 0 0 0 0 0 0 0 0
0 0 0 0 0 0 0 0 0
0 0 0 0 0 0 0 0 0
0 0 0 0 0 0 0 0 0
0 0 0 0 0 0 0 0 0
0 0 0 0 0 0 0 0 0
0 0 0 0 0 0 0 0 0
0 0 0 0 0 0 0 0 0
0 0 0 0 0 0 0 0 0
0 0 0 0 0 0 0 0 0
0 0 0 0 0 0 0 0 0
0 0 0 0 0 0 0 0 0
0 0 0 0 0 0 0 0 0
0 0 0 0 0 0 0 0 0
0 0 0 0 0 0 0 0 0
0 0 0 0 0 0 0 0 0
0 0 0 0 0 0 0 0 0
0 0 0 0 0 0 0 0 0
0 0 0 0 0 0 0 0 0
0 0 0 0 0 0 0 0 0
0 0 0 0 0 0 0 0 0
0 0 0 0 0 0 0 0 0
0 0 0 0 0 0 0 0 0
0 0 0 0 0 0 0 0 0
0 0 0 0 0 0 0 0 0
0 0 0 0 0 0 0 0 0
0 0 0 0 0 0 0 0 0
0 0 0 0 0 0 0 0 0
0 0 0 0 0 0 0 0 0
0 0 0 0 0 0 0 0 0
0 0 0 0 0 0 0 0 0
0 0 0 0 0 0 0 0 0
0 0 0 0 0 0 0 0 0
0 0 0 0 0 0 0 0 0
0 0 0 0 0 0 0 0 0
0 0 0 0 0 0 0 0 0
0 0 0 0 0 0 0 0 0
0 0 0 0 0 0 0 0 0
0 0 0 0 0 0 0 0 0
0 0 0 0 0 0 0 0 0
0 0 0 0 0 0 0 0 0
0 0 0 0 0 0 0 0 0
0 0 0 0 0 0 0 0 0
0 0 0 0 0 0 0 0 0
0 0 0 0 0 0 0 0 0
0 0 0 0 0 0 0 0 0
0 0 0 0 0 0 0 0 0
0 0 0 0 0 0 0 0 0
0 0 0 0 0 0 0 0 0
0 0 0 0 0 0 0 0 0
0 0 0 0 0 0 0 0 0
0 0 0 0 0 0 0 0 0
0 0 0 0 0 0 0 0 0
0 0 0 0 0 0 0 0 0
0 0 0 0 0 0 0 0 0
0 0 0 0 0 0 0 0 0
0 0 0 0 0 0 0 0 0
0 0 0 0 0 0 0 0 0
0 0 0 0 0 0 0 0 0
0 0 0 0 0 0 0 0 0
0 0 0 0 0 0 0 0 0
0 0 0 0 0 0 0 0 0
0 0 0 0 0 0 0 0 0
0 0 0 0 0 0 0 0 0
0 0 0 0 0 0 0 0 0
0 0 0 0 0 0 0 0 0
0 0 0 0 0 0 0 0 0
0 0 0 0 0 0 0 0 0
0 0 0 0 0 0 0 0 0
0 0 0 0 0 0 0 0 0
0 0 0 0 0 0 0 0 0
0 0 0 0 0 0 0 0 0
0 0 0 0 0 0 0 0 0
0 0 0 0 0 0 0 0 0
0 0 0 0 0 0 0 0 0
0 0 0 0 0 0 0 0 0
0 0 0 0 0 0 0 0 0
0 0 0 0 0 0 0 0 0
0 0 0 0 0 0 0 0 0
0 0 0 0 0 0 0 0 0
0 0 0 0 0 0 0 0 0
0 0 0 0 0 0 0 0 0
0 0 0 0 0 0 0 0 0
0 0 0 0 0 0 0 0 0
0 0 0 0 0 0 0 0 0
0 0 0 0 0 0 0 0 0
0 0 0 0 0 0 0 0 0
0 0 0 0 0 0 0 0 0
0 0 0 0 0 0 0 0 0
0 0 0 0 0 0 0 0 0
0 0 0 0 0 0 0 0 0
0 0 0 0 0 0 0 0 0
0 0 0 0 0 0 0 0 0
0 0 0 0 0 0 0 0 0
0 0 0 0 0 0 0 0 0
0 0 0 0 0 0 0 0 0
0 0 0 0 0 0 0 0 0
0.00373373 0.0040791 0.00369931 0.00403863 0.00373373 0.0040791 0.00369931 0.00403863 0
0.00433446 0.0046868 0.00429004 0.00463761 0.00433446 0.0046868 0.00429004 0.00463761 0
0.00494871 0.00531197 0.00489619 0.00525512 0.00494871 0.00531197 0.00489619 0.00525512 0
0.00558292 0.00595997 0.00552278 0.00589516 0.00558292 0.00595997 0.00552278 0.00589516 0
0.00624136 0.00663315 0.00617276 0.00655886 0.00624136 0.00663315 0.00617276 0.00655886 0
0.00692489 0.00733023 0.00684605 0.00724464 0.00692489 0.00733023 0.00684605 0.00724464 0
0.00763133 0.00804871 0.00754067 0.0079509 0.00763133 0.00804871 0.00754067 0.0079509 0
0.0083571 0.00878238 0.00825473 0.00867465 0.0083571 0.00878238 0.00825473 0.00867465 0
0.00380709 0.00416042 0.00376259 0.00411172 0.00380709 0.00416042 0.00376259 0.00411172 0
0.00442172 0.00478236 0.00436973 0.00472558 0.00442172 0.00478236 0.00436973 0.00472558 0
0.00505038 0.00542206 0.00499001 0.00535669 0.00505038 0.00542206 0.00499001 0.00535669 0
0.00569911 0.0060844 0.00563015 0.00601067 0.00569911 0.0060844 0.00563015 0.00601067 0
0.00637186 0.00677198 0.0062947 0.00669025 0.00637186 0.00677198 0.0062947 0.00669025 0
0.00707014 0.00748467 0.00698494 0.00739456 0.00707014 0.00748467 0.00698494 0.00739456 0
0.00779303 0.00822107 0.00769898 0.00812114 0.00779303 0.00822107 0.00769898 0.00812114 0
0.00853902 0.00897973 0.00843332 0.00886416 0.00853902 0.00897973 0.00843332 0.00886416 0
0.00930804 0.00976446 0.00918703 0.00963842 0.00930804 0.00976446 0.00918703 0.00963842 0
0.00389933 0.00425895 0.00384373 0.00419987 0.00389933 0.00425895 0.00384373 0.00419987 0
0.00452514 0.00489283 0.00446336 0.00482717 0.00452514 0.00489283 0.00446336 0.00482717 0
0.00516625 0.00554563 0.0050976 0.00547269 0.00516625 0.00554563 0.0050976 0.00547269 0
0.00582832 0.00622135 0.00575221 0.00614086 0.00582832 0.00622135 0.00575221 0.00614086 0
0.00651448 0.00692238 0.00643076 0.00683419 0.00651448 0.00692238 0.00643076 0.00683419 0
0.00722649 0.00764952 0.00713488 0.00755301 0.00722649 0.00764952 0.00713488 0.00755301 0
0.00796468 0.00840276 0.00786425 0.00829657 0.00796468 0.00840276 0.00786425 0.00829657 0
0.00872912 0.00918276 0.00861831 0.00906514 0.00872912 0.00918276 0.00861831 0.00906514 0
0.00952039 0.00998933 0.00939742 0.00985854 0.00952039 0.00998933 0.00939742 0.00985854 0
0.00339868 0.00375143 0.00333252 0.00368386 0.00339868 0.00375143 0.00333252 0.00368386 0
0.00401326 0.0043758 0.00394472 0.00430608 0.00401326 0.0043758 0.00394472 0.00430608 0
0.00464513 0.00501841 0.00457384 0.00494406 0.00464513 0.00501841 0.00457384 0.00494406 0
0.00529628 0.00568217 0.00521948 0.00560175 0.00529628 0.00568217 0.00521948 0.00560175 0
0.00596981 0.00636984 0.00588662 0.0062827 0.00596981 0.00636984 0.00588662 0.0062827 0
0.00666828 0.00708365 0.00657813 0.00698923 0.00666828 0.00708365 0.00657813 0.00698923 0
0.00739357 0.00782497 0.00729582 0.00772241 0.00739357 0.00782497 0.00729582 0.00772241 0
0.0081468 0.00859474 0.0080404 0.00848268 0.0081468 0.00859474 0.0080404 0.00848268 0
0.00892895 0.00939422 0.00881237 0.00927096 0.00892895 0.00939422 0.00881237 0.00927096 0
0.00974102 0.0102234 0.00961249 0.0100871 0.00974102 0.0102234 0.00961249 0.0100871 0
0.00352802 0.00388161 0.0034511 0.00380444 0.00352802 0.00388161 0.0034511 0.00380444 0
0.00414465 0.00450949 0.00406684 0.0044303 0.00414465 0.00450949 0.00406684 0.0044303 0
0.00478125 0.00515878 0.0047007 0.00507594 0.00478125 0.00515878 0.0047007 0.00507594 0
0.00544019 0.00583147 0.00535541 0.00574371 0.00544019 0.00583147 0.00535541 0.00574371 0
0.00612339 0.00652968 0.00603324 0.00643601 0.00612339 0.00652968 0.00603324 0.00643601 0
0.00683301 0.00725546 0.00673657 0.00715499 0.00683301 0.00725546 0.00673657 0.00715499 0
0.00757094 0.00801049 0.00746729 0.00790217 0.00757094 0.00801049 0.00746729 0.00790217 0
0.00833881 0.00879635 0.00822676 0.00867879 0.00833881 0.00879635 0.00822676 0.00867879 0
0.00913823 0.00961485 0.00901627 0.00948638 0.00913823 0.00961485 0.00901627 0.00948638 0
0.0099707 0.0104664 0.00983702 0.0103251 0.0099707 0.0104664 0.00983702 0.0103251 0
0.00367706 0.0040287 0.00358858 0.00394172 0.00367706 0.0040287 0.00358858 0.00394172 0
0.00429196 0.00465916 0.00420497 0.00457081 0.00429196 0.00465916 0.00420497 0.00457081 0
0.00493289 0.00531341 0.00484345 0.00522239 0.00493289 0.00531341 0.00484345 0.00522239 0
0.00559752 0.00599313 0.00550505 0.00589828 0.00559752 0.00599313 0.00550505 0.00589828 0
0.00628868 0.00670047 0.00619182 0.00660053 0.00628868 0.00670047 0.00619182 0.00660053 0
0.00700824 0.00743731 0.00690579 0.00733109 0.00700824 0.00743731 0.00690579 0.00733109 0
0.00775809 0.00820545 0.00764885 0.00809175 0.00775809 0.00820545 0.00764885 0.00809175 0
0.00854003 0.00900684 0.00842274 0.00888425 0.00854003 0.00900684 0.00842274 0.00888425 0
0.00935616 0.00984383 0.0092293 0.00971063 0.00935616 0.00984383 0.0092293 0.00971063 0
0.0102085 0.0107175 0.0100702 0.0105716 0.0102085 0.0107175 0.0100702 0.0105716 0
0.00445733 0.00482481 0.00435957 0.0047272 0.00445733 0.00482481 0.00435957 0.0047272 0
0.00509931 0.00548161 0.00500143 0.00538284 0.00509931 0.00548161 0.00500143 0.00538284 0
0.00576763 0.0061666 0.00566786 0.006065 0.00576763 0.0061666 0.00566786 0.006065 0
0.00646514 0.00688172 0.00636189 0.00677579 0.00646514 0.00688172 0.00636189 0.00677579 0
0.0071935 0.00762868 0.00708531 0.00751703 0.0071935 0.00762868 0.00708531 0.00751703 0
0.00795439 0.00840911 0.00783993 0.00829047 0.00795439 0.00840911 0.00783993 0.00829047 0
0.00874963 0.00922529 0.0086276 0.00909821 0.00874963 0.00922529 0.0086276 0.00909821 0
0.00958189 0.0100806 0.00945062 0.00994296 0.00958189 0.0100806 0.00945062 0.00994296 0
0.010454 0.0109757 0.0103114 0.0108257 0.010454 0.0109757 0.0103114 0.0108257 0
0.00463791 0.00500354 0.00453191 0.00489887 0.00463791 0.00500354 0.00453191 0.00489887 0
0.00527815 0.00566239 0.00517348 0.00555652 0.00527815 0.00566239 0.00517348 0.00555652 0
0.00595065 0.00635369 0.00584341 0.00624394 0.00595065 0.00635369 0.00584341 0.00624394 0
0.00665451 0.00707316 0.00654353 0.00696137 0.00665451 0.00707316 0.00654353 0.00696137 0
0.00738775 0.00782859 0.0072745 0.00771212 0.00738775 0.00782859 0.0072745 0.00771212 0
0.00815892 0.00862061 0.00803983 0.00849754 0.00815892 0.00862061 0.00803983 0.00849754 0
0.0089667 0.00945064 0.00884046 0.0093197 0.0089667 0.00945064 0.00884046 0.0093197 0
0.0098143 0.010324 0.00967931 0.0101827 0.0098143 0.010324 0.00967931 0.0101827 0
0.00684998 0.00727392 0.00673656 0.00715686 0.00684998 0.00727392 0.00673656 0.00715686 0
0.00759288 0.00804035 0.00747302 0.00791649 0.00759288 0.00804035 0.00747302 0.00791649 0
0.00837568 0.00884436 0.00824887 0.00871349 0.00837568 0.00884436 0.00824887 0.00871349 0
0.00919558 0.00968651 0.00906181 0.00954888 0.00919558 0.00968651 0.00906181 0.00954888 0
0.0100556 0.0105733 0.00991509 0.0104286 0.0100556 0.0105733 0.00991509 0.0104286 0
0 0 0 0 0 0 0 0 0
0 0 0 0 0 0 0 0 0
0 0 0 0 0 0 0 0 0
0 0 0 0 0 0 0 0 0
0 0 0 0 0 0 0 0 0
0 0 0 0 0 0 0 0 0
0 0 0 0 0 0 0 0 0
0 0 0 0 0 0 0 0 0
0 0 0 0 0 0 0 0 0
0 0 0 0 0 0 0 0 0
0 0 0 0 0 0 0 0 0
0 0 0 0 0 0 0 0 0
0 0 0 0 0 0 0 0 0
0 0 0 0 0 0 0 0 0
0 0 0 0 0 0 0 0 0
0 0 0 0 0 0 0 0 0
0 0 0 0 0 0 0 0 0
0 0 0 0 0 0 0 0 0
0 0 0 0 0 0 0 0 0
0 0 0 0 0 0 0 0 0
0 0 0 0 0 0 0 0 0
0 0 0 0 0 0 0 0 0
0 0 0 0 0 0 0 0 0
0 0 0 0 0 0 0 0 0
0 0 0 0 0 0 0 0 0
0 0 0 0 0 0 0 0 0
0 0 0 0 0 0 0 0 0
0 0 0 0 0 0 0 0 0
0 0 0 0 0 0 0 0 0
0 0 0 0 0 0 0 0 0
0 0 0 0 0 0 0 0 0
0 0 0 0 0 0 0 0 0
0 0 0 0 0 0 0 0 0
0 0 0 0 0 0 0 0 0
0 0 0 0 0 0 0 0 0
0 0 0 0 0 0 0 0 0
0 0 0 0 0 0 0 0 0
0 0 0 0 0 0 0 0 0
0 0 0 0 0 0 0 0 0
0 0 0 0 0 0 0 0 0
0 0 0 0 0 0 0 0 0
0 0 0 0 0 0 0 0 0
0 0 0 0 0 0 0 0 0
0 0 0 0 0 0 0 0 0
0 0 0 0 0 0 0 0 0
0 0 0 0 0 0 0 0 0
0 0 0 0 0 0 0 0 0
0 0 0 0 0 0 0 0 0
0 0 0 0 0 0 0 0 0
0 0 0 0 0 0 0 0 0
0 0 0 0 0 0 0 0 0
0 0 0 0 0 0 0 0 0
0 0 0 0 0 0 0 0 0
0 0 0 0 0 0 0 0 0
0 0 0 0 0 0 0 0 0
0 0 0 0 0 0 0 0 0
0 0 0 0 0 0 0 0 0
0 0 0 0 0 0 0 0 0
0 0 0 0 0 0 0 0 0
0 0 0 0 0 0 0 0 0
0 0 0 0 0 0 0 0 0
0 0 0 0 0 0 0 0 0
0 0 0 0 0 0 0 0 0
0 0 0 0 0 0 0 0 0
0 0 0 0 0 0 0 0 0
0 0 0 0 0 0 0 0 0
0 0 0 0 0 0 0 0 0
0 0 0 0 0 0 0 0 0
0 0 0 0 0 0 0 0 0
0 0 0 0 0 0 0 0 0
0 0 0 0 0 0 0 0 0
0 0 0 0 0 0 0 0 0
0 0 0 0 0 0 0 0 0
0 0 0 0 0 0 0 0 0
0 0 0 0 0 0 0 0 0
0 0 0 0 0 0 0 0 0
0 0 0 0 0 0 0 0 0
0 0 0 0 0 0 0 0 0
0 0 0 0 0 0 0 0 0
0 0 0 0 0 0 0 0 0
0 0 0 0 0 0 0 0 0
0 0 0 0 0 0 0 0 0
0 0 0 0 0 0 0 0 0
0 0 0 0 0 0 0 0 0
0 0 0 0 0 0 0 0 0
0 0 0 0 0 0 0 0 0
0 0 0 0 0 0 0 0 0
0 0 0 0 0 0 0 0 0
0 0 0 0 0 0 0 0 0
0 0 0 0 0 0 0 0 0
0 0 0 0 0 0 0 0 0
0 0 0 0 0 0 0 0 0
0 0 0 0 0 0 0 0 0
0 0 0 0 0 0 0 0 0
0 0 0 0 0 0 0 0 0
0 0 0 0 0 0 0 0 0
0 0 0 0 0 0 0 0 0
0 0 0 0 0 0 0 0 0
0 0 0 0 0 0 0 0 0
0 0 0 0 0 0 0 0 0
0 0 0 0 0 0 0 0 0
0 0 0 0 0 0 0 0 0
0 0 0 0 0 0 0 0 0
0 0 0 0 0 0 0 0 0
0 0 0 0 0 0 0 0 0
0 0 0 0 0 0 0 0 0
0 0 0 0 0 0 0 0 0
0 0 0 0 0 0 0 0 0
0 0 0 0 0 0 0 0 0
0 0 0 0 0 0 0 0 0
0 0 0 0 0 0 0 0 0
0 0 0 0 0 0 0 0 0
0 0 0 0 0 0 0 0 0
0 0 0 0 0 0 0 0 0
0 0 0 0 0 0 0 0 0
0 0 0 0 0 0 0 0 0
0 0 0 0 0 0 0 0 0
0 0 0 0 0 0 0 0 0
0 0 0 0 0 0 0 0 0
0 0 0 0 0 0 0 0 0
0 0 0 0 0 0 0 0 0
0 0 0 0 0 0 0 0 0
0 0 0 0 0 0 0 0 0
0 0 0 0 0 0 0 0 0
0 0 0 0 0 0 0 0 0
0 0 0 0 0 0 0 0 0
0 0 0 0 0 0 0 0 0
0 0 0 0 0 0 0 0 0
0 0 0 0 0 0 0 0 0
0 0 0 0 0 0 0 0 0
0 0 0 0 0 0 0 0 0
0 0 0 0 0 0 0 0 0
0 0 0 0 0 0 0 0 0
0 0 0 0 0 0 0 0 0
0 0 0 0 0 0 0 0 0
0 0 0 0 0 0 0 0 0
0 0 0 0 0 0 0 0 0
0 0 0 0 0 0 0 0 0
0 0 0 0 0 0 0 0 0
0 0 0 0 0 0 0 0 0
0 0 0 0 0 0 0 0 0
0 0 0 0 0 0 0 0 0
0 0 0 0 0 0 0 0 0
0 0 0 0 0 0 0 0 0
0 0 0 0 0 0 0 0 0
0 0 0 0 0 0 0 0 0
0 0 0 0 0 0 0 0 0
0 0 0 0 0 0 0 0 0
0 0 0 0 0 0 0 0 0
0 0 0 0 0 0 0 0 0
0 0 0 0 0 0 0 0 0
0 0 0 0 0 0 0 0 0
0 0 0 0 0 0 0 0 0
0 0 0 0 0 0 0 0 0
0 0 0 0 0 0 0 0 0
0 0 0 0 0 0 0 0 0
0 0 0 0 0 0 0 0 0
0 0 0 0 0 0 0 0 0
0 0 0 0 0 0 0 0 0
0 0 0 0 0 0 0 0 0
0 0 0 0 0 0 0 0 0
0 0 0 0 0 0 0 0 0
0 0 0 0 0 0 0 0 0
0 0 0 0 0 0 0 0 0
0 0 0 0 0 0 0 0 0
0 0 0 0 0 0 0 0 0
0 0 0 0 0 0 0 0 0
0 0 0 0 0 0 0 0 0
0 0 0 0 0 0 0 0 0
0 0 0 0 0 0 0 0 0
0 0 0 0 0 0 0 0 0
0 0 0 0 0 0 0 0 0
0 0 0 0 0 0 0 0 0
0 0 0 0 0 0 0 0 0
0 0 0 0 0 0 0 0 0
0 0 0 0 0 0 0 0 0
0 0 0 0 0 0 0 0 0
0 0 0 0 0 0 0 0 0
0 0 0 0 0 0 0 0 0
0 0 0 0 0 0 0 0 0
0 0 0 0 0 0 0 0 0
0 0 0 0 0 0 0 0 0
0 0 0 0 0 0 0 0 0
0 0 0 0 0 0 0 0 0
0 0 0 0 0 0 0 0 0
0 0 0 0 0 0 0 0 0
0 0 0 0 0 0 0 0 0
0 0 0 0 0 0 0 0 0
0 0 0 0 0 0 0 0 0
0 0 0 0 0 0 0 0 0
0 0 0 0 0 0 0 0 0
0 0 0 0 0 0 0 0 0
0 0 0 0 0 0 0 0 0
0 0 0 0 0 0 0 0 0
0 0 0 0 0 0 0 0 0
0 0 0 0 0 0 0 0 0
0 0 0 0 0 0 0 0 0
0 0 0 0 0 0 0 0 0
0 0 0 0 0 0 0 0 0
0 0 0 0 0 0 0 0 0
0 0 0 0 0 0 0 0 0
0 0 0 0 0 0 0 0 0
0 0 0 0 0 0 0 0 0
0 0 0 0 0 0 0 0 0
0 0 0 0 0 0 0 0 0
0 0 0 0 0 0 0 0 0
0 0 0 0 0 0 0 0 0
0 0 0 0 0 0 0 0 0
0 0 0 0 0 0 0 0 0
0 0 0 0 0 0 0 0 0
0 0 0 0 0 0 0 0 0
0 0 0 0 0 0 0 0 0
0 0 0 0 0 0 0 0 0
0 0 0 0 0 0 0 0 0
0 0 0 0 0 0 0 0 0
0 0 0 0 0 0 0 0 0
0 0 0 0 0 0 0 0 0
0 0 0 0 0 0 0 0 0
0 0 0 0 0 0 0 0 0
0 0 0 0 0 0 0 0 0
0 0 0 0 0 0 0 0 0
0 0 0 0 0 0 0 0 0
0 0 0 0 0 0 0 0 0
0 0 0 0 0 0 0 0 0
0 0 0 0 0 0 0 0 0
0 0 0 0 0 0 0 0 0
0 0 0 0 0 0 0 0 0
0 0 0 0 0 0 0 0 0
0 0 0 0 0 0 0 0 0
0 0 0 0 0 0 0 0 0
0 0 0 0 0 0 0 0 0
0 0 0 0 0 0 0 0 0
0 0 0 0 0 0 0 0 0
0 0 0 0 0 0 0 0 0
0 0 0 0 0 0 0 0 0
0 0 0 0 0 0 0 0 0
0 0 0 0 0 0 0 0 0
0 0 0 0 0 0 0 0 0
0 0 0 0 0 0 0 0 0
0 0 0 0 0 0 0 0 0
0 0 0 0 0 0 0 0 0
0 0 0 0 0 0 0 0 0
0 0 0 0 0 0 0 0 0
0 0 0 0 0 0 0 0 0
0 0 0 0 0 0 0 0 0
0 0 0 0 0 0 0 0 0
0 0 0 0 0 0 0 0 0
0 0 0 0 0 0 0 0 0
0 0 0 0 0 0 0 0 0
0 0 0 0 0 0 0 0 0
0 0 0 0 0 0 0 0 0
0 0 0 0 0 0 0 0 0
0 0 0 0 0 0 0 0 0
0 0 0 0 0 0 0 0 0
0 0 0 0 0 0 0 0 0
0 0 0 0 0 0 0 0 0
0 0 0 0 0 0 0 0 0
0 0 0 0 0 0 0 0 0
0 0 0 0 0 0 0 0 0
0 0 0 0 0 0 0 0 0
0 0 0 0 0 0 0 0 0
0 0 0 0 0 0 0 0 0
0 0 0 0 0 0 0 0 0
0 0 0 0 0 0 0 0 0
0 0 0 0 0 0 0 0 0
0 0 0 0 0 0 0 0 0
0 0 0 0 0 0 0 0 0
0 0 0 0 0 0 0 0 0
0 0 0 0 0 0 0 0 0
0 0 0 0 0 0 0 0 0
0 0 0 0 0 0 0 0 0
0 0 0 0 0 0 0 0 0
0 0 0 0 0 0 0 0 0
0 0 0 0 0 0 0 0 0
0 0 0 0 0 0 0 0 0
0 0 0 0 0 0 0 0 0
0 0 0 0 0 0 0 0 0
0 0 0 0 0 0 0 0 0
0 0 0 0 0 0 0 0 0
0 0 0 0 0 0 0 0 0
0 0 0 0 0 0 0 0 0
0 0 0 0 0 0 0 0 0
0 0 0 0 0 0 0 0 0
0 0 0 0 0 0 0 0 0
0 0 0 0 0 0 0 0 0
0 0 0 0 0 0 0 0 0
0 0 0 0 0 0 0 0 0
0 0 0 0 0 0 0 0 0
0 0 0 0 0 0 0 0 0
0 0 0 0 0 0 0 0 0
0 0 0 0 0 0 0 0 0
0 0 0 0 0 0 0 0 0
0 0 0 0 0 0 0 0 0
0 0 0 0 0 0 0 0 0
0 0 0 0 0 0 0 0 0
0 0 0 0 0 0 0 0 0
0 0 0 0 0 0 0 0 0
0 0 0 0 0 0 0 0 0
0 0 0 0 0 0 0 0 0
0 0 0 0 0 0 0 0 0
0 0 0 0 0 0 0 0 0
0 0 0 0 0 0 0 0 0
0 0 0 0 0 0 0 0 0
0 0 0 0 0 0 0 0 0
0 0 0 0 0 0 0 0 0
0 0 0 0 0 0 0 0 0
0 0 0 0 0 0 0 0 0
0 0 0 0 0 0 0 0 0
0 0 0 0 0 0 0 0 0
0 0 0 0 0 0 0 0 0
0 0 0 0 0 0 0 0 0
0 0 0 0 0 0 0 0 0
0 0 0 0 0 0 0 0 0
0 0 0 0 0 0 0 0 0
0 0 0 0 0 0 0 0 0
0 0 0 0 0 0 0 0 0
0 0 0 0 0 0 0 0 0
0 0 0 0 0 0 0 0 0
0 0 0 0 0 0 0 0 0
0 0 0 0 0 0 0 0 0
0 0 0 0 0 0 0 0 0
0 0 0 0 0 0 0 0 0
0 0 0 0 0 0 0 0 0
0 0 0 0 0 0 0 0 0
0 0 0 0 0 0 0 0 0
0 0 0 0 0 0 0 0 0
0 0 0 0 0 0 0 0 0
0 0 0 0 0 0 0 0 0
0 0 0 0 0 0 0 0 0
0 0 0 0 0 0 0 0 0
0 0 0 0 0 0 0 0 0
0 0 0 0 0 0 0 0 0
0 0 0 0 0 0 0 0 0
0 0 0 0 0 0 0 0 0
0 0 0 0 0 0 0 0 0
0 0 0 0 0 0 0 0 0
0 0 0 0 0 0 0 0 0
0 0 0 0 0 0 0 0 0
0 0 0 0 0 0 0 0 0
0 0 0 0 0 0 0 0 0
0 0 0 0 0 0 0 0 0
0 0 0 0 0 0 0 0 0
0 0 0 0 0 0 0 0 0
0 0 0 0 0 0 0 0 0
0 0 0 0 0 0 0 0 0
0 0 0 0 0 0 0 0 0
0 0 0 0 0 0 0 0 0
0 0 0 0 0 0 0 0 0
0 0 0 0 0 0 0 0 0
0 0 0 0 0 0 0 0 0
0 0 0 0 0 0 0 0 0
0 0 0 0 0 0 0 0 0
0 0 0 0 0 0 0 0 0
0 0 0 0 0 0 0 0 0
0 0 0 0 0 0 0 0 0
0 0 0 0 0 0 0 0 0
0 0 0 0 0 0 0 0 0
0 0 0 0 0 0 0 0 0
0 0 0 0 0 0 0 0 0
0 0 0 0 0 0 0 0 0
0 0 0 0 0 0 0 0 0
0 0 0 0 0 0 0 0 0
0 0 0 0 0 0 0 0 0
0 0 0 0 0 0 0 0 0
0 0 0 0 0 0 0 0 0
0 0 0 0 0 0 0 0 0
0 0 0 0 0 0 0 0 0
0 0 0 0 0 0 0 0 0
0 0 0 0 0 0 0 0 0
0 0 0 0 0 0 0 0 0
0 0 0 0 0 0 0 0 0
0 0 0 0 0 0 0 0 0
0 0 0 0 0 0 0 0 0
0 0 0 0 0 0 0 0 0
0 0 0 0 0 0 0 0 0
0 0 0 0 0 0 0 0 0
0 0 0 0 0 0 0 0 0
0 0 0 0 0 0 0 0 0
0 0 0 0 0 0 0 0 0
0 0 0 0 0 0 0 0 0
0 0 0 0 0 0 0 0 0
0 0 0 0 0 0 0 0 0
0 0 0 0 0 0 0 0 0
0 0 0 0 0 0 0 0 0
0 0 0 0 0 0 0 0 0
0 0 0 0 0 0 0 0 0
0 0 0 0 0 0 0 0 0
0 0 0 0 0 0 0 0 0
0 0 0 0 0 0 0 0 0
0 0 0 0 0 0 0 0 0
0 0 0 0 0 0 0 0 0
0 0 0 0 0 0 0 0 0
0 0 0 0 0 0 0 0 0
0 0 0 0 0 0 0 0 0
0 0 0 0 0 0 0 0 0
0 0 0 0 0 0 0 0 0
0 0 0 0 0 0 0 0 0
0 0 0 0 0 0 0 0 0
0 0 0 0 0 0 0 0 0
0 0 0 0 0 0 0 0 0
0 0 0 0 0 0 0 0 0
0 0 0 0 0 0 0 0 0
0 0 0 0 0 0 0 0 0
0 0 0 0 0 0 0 0 0
0 0 0 0 0 0 0 0 0
0 0 0 0 0 0 0 0 0
0 0 0 0 0 0 0 0 0
0 0 0 0 0 0 0 0 0
0 0 0 0 0 0 0 0 0
0 0 0 0 0 0 0 0 0
0 0 0 0 0 0 0 0 0
0 0 0 0 0 0 0 0 0
0 0 0 0 0 0 0 0 0
0 0 0 0 0 0 0 0 0
0 0 0 0 0 0 0 0 0
0 0 0 0 0 0 0 0 0
0 0 0 0 0 0 0 0 0
0 0 0 0 0 0 0 0 0
0 0 0 0 0 0 0 0 0
0 0 0 0 0 0 0 0 0
0 0 0 0 0 0 0 0 0
0 0 0 0 0 0 0 0 0
0 0 0 0 0 0 0 0 0
0 0 0 0 0 0 0 0 0
0 0 0 0 0 0 0 0 0
0 0 0 0 0 0 0 0 0
0 0 0 0 0 0 0 0 0
0 0 0 0 0 0 0 0 0
0 0 0 0 0 0 0 0 0
0 0 0 0 0 0 0 0 0
0 0 0 0 0 0 0 0 0
0 0 0 0 0 0 0 0 0
0 0 0 0 0 0 0 0 0
0 0 0 0 0 0 0 0 0
0 0 0 0 0 0 0 0 0
0 0 0 0 0 0 0 0 0
0 0 0 0 0 0 0 0 0
0 0 0 0 0 0 0 0 0
0 0 0 0 0 0 0 0 0
0 0 0 0 0 0 0 0 0
0 0 0 0 0 0 0 0 0
0 0 0 0 0 0 0 0 0
0 0 0 0 0 0 0 0 0
0 0 0 0 0 0 0 0 0
0 0 0 0 0 0 0 0 0
0 0 0 0 0 0 0 0 0
0 0 0 0 0 0 0 0 0
0 0 0 0 0 0 0 0 0
0 0 0 0 0 0 0 0 0
0 0 0 0 0 0 0 0 0
0 0 0 0 0 0 0 0 0
0 0 0 0 0 0 0 0 0
0 0 0 0 0 0 0 0 0
0 0 0 0 0 0 0 0 0
0 0 0 0 0 0 0 0 0
0 0 0 0 0 0 0 0 0
0 0 0 0 0 0 0 0 0
0 0 0 0 0 0 0 0 0
0 0 0 0 0 0 0 0 0
0 0 0 0 0 0 0 0 0
0 0 0 0 0 0 0 0 0
0 0 0 0 0 0 0 0 0
0 0 0 0 0 0 0 0 0
0 0 0 0 0 0 0 0 0
0 0 0 0 0 0 0 0 0
0 0 0 0 0 0 0 0 0
0 0 0 0 0 0 0 0 0
0 0 0 0 0 0 0 0 0
0 0 0 0 0 0 0 0 0
0 0 0 0 0 0 0 0 0
0 0 0 0 0 0 0 0 0
0 0 0 0 0 0 0 0 0
0 0 0 0 0 0 0 0 0
0 0 0 0 0 0 0 0 0
0 0 0 0 0 0 0 0 0
0 0 0 0 0 0 0 0 0
0 0 0 0 0 0 0 0 0
0 0 0 0 0 0 0 0 0
0 0 0 0 0 0 0 0 0
0 0 0 0 0 0 0 0 0
0 0 0 0 0 0 0 0 0
0 0 0 0 0 0 0 0 0
0 0 0 0 0 0 0 0 0
0 0 0 0 0 0 0 0 0
0 0 0 0 0 0 0 0 0
0 0 0 0 0 0 0 0 0
0 0 0 0 0 0 0 0 0
0 0 0 0 0 0 0 0 0
0 0 0 0 0 0 0 0 0
0 0 0 0 0 0 0 0 0
0 0 0 0 0 0 0 0 0
0 0 0 0 0 0 0 0 0
0 0 0 0 0 0 0 0 0
0 0 0 0 0 0 0 0 0
0 0 0 0 0 0 0 0 0
0 0 0 0 0 0 0 0 0
0 0 0 0 0 0 0 0 0
0 0 0 0 0 0 0 0 0
0 0 0 0 0 0 0 0 0
0 0 0 0 0 0 0 0 0
0 0 0 0 0 0 0 0 0
0 0 0 0 0 0 0 0 0
0 0 0 0 0 0 0 0 0
0 0 0 0 0 0 0 0 0
0 0 0 0 0 0 0 0 0
0 0 0 0 0 0 0 0 0
0 0 0 0 0 0 0 0 0
0 0 0 0 0 0 0 0 0
0 0 0 0 0 0 0 0 0
0 0 0 0 0 0 0 0 0
0 0 0 0 0 0 0 0 0
0 0 0 0 0 0 0 0 0
0 0 0 0 0 0 0 0 0
0 0 0 0 0 0 0 0 0
0 0 0 0 0 0 0 0 0
0 0 0 0 0 0 0 0 0
0 0 0 0 0 0 0 0 0
0 0 0 0 0 0 0 0 0
0 0 0 0 0 0 0 0 0
0 0 0 0 0 0 0 0 0
0 0 0 0 0 0 0 0 0
0 0 0 0 0 0 0 0 0
0 0 0 0 0 0 0 0 0
0 0 0 0 0 0 0 0 0
0 0 0 0 0 0 0 0 0
0 0 0 0 0 0 0 0 0
0 0 0 0 0 0 0 0 0
0 0 0 0 0 0 0 0 0
0 0 0 0 0 0 0 0 0
0 0 0 0 0 0 0 0 0
0 0 0 0 0 0 0 0 0
0 0 0 0 0 0 0 0 0
0 0 0 0 0 0 0 0 0
0 0 0 0 0 0 0 0 0
0 0 0 0 0 0 0 0 0
0 0 0 0 0 0 0 0 0
0 0 0 0 0 0 0 0 0
0 0 0 0 0 0 0 0 0
0 0 0 0 0 0 0 0 0
0 0 0 0 0 0 0 0 0
0 0 0 0 0 0 0 0 0
0 0 0 0 0 0 0 0 0
0 0 0 0 0 0 0 0 0
0 0 0 0 0 0 0 0 0
0 0 0 0 0 0 0 0 0
0 0 0 0 0 0 0 0 0
0.00207906 0.00226944 0.00206156 0.00224793 0.00207906 0.00226944 0.00206156 0.00224793 0
0.00241005 0.00260383 0.00238601 0.00257685 0.00241005 0.00260383 0.00238601 0.00257685 0
0.00274776 0.00294721 0.0027188 0.00291575 0.00274776 0.00294721 0.0027188 0.00291575 0
0.00309599 0.00330301 0.00306262 0.00326695 0.00309599 0.00330301 0.00306262 0.00326695 0
0.00345756 0.00367283 0.00341928 0.00363116 0.00345756 0.00367283 0.00341928 0.00363116 0
0.00383312 0.00405582 0.00378871 0.0040073 0.00383312 0.00405582 0.00378871 0.0040073 0
0.00422105 0.00444984 0.00416942 0.0043938 0.00422105 0.00444984 0.00416942 0.0043938 0
0.00461825 0.00484963 0.00455947 0.00478776 0.00461825 0.00484963 0.00455947 0.00478776 0
0.00211412 0.00231017 0.00209314 0.00228612 0.00211412 0.00231017 0.00209314 0.00228612 0
0.00245491 0.00265433 0.00242852 0.00262459 0.00245491 0.00265433 0.00242852 0.00262459 0
0.00280238 0.00300747 0.00277015 0.00297179 0.00280238 0.00300747 0.00277015 0.00297179 0
0.00316027 0.00337266 0.00312215 0.00333134 0.00316027 0.00337266 0.00312215 0.00333134 0
0.00353108 0.00375155 0.00348753 0.0037051 0.00353108 0.00375155 0.00348753 0.0037051 0
0.00391576 0.00414396 0.00386718 0.00409245 0.00391576 0.00414396 0.00386718 0.00409245 0
0.00431352 0.00454861 0.00425969 0.00449134 0.00431352 0.00454861 0.00425969 0.00449134 0
0.00472288 0.00496397 0.00466206 0.00489686 0.00472288 0.00496397 0.00466206 0.00489686 0
0.0051432 0.00539186 0.00507286 0.00531896 0.0051432 0.00539186 0.00507286 0.00531896 0
0.0021571 0.00235794 0.00213126 0.00232942 0.0021571 0.00235794 0.00213126 0.00232942 0
0.00250632 0.00271087 0.00247576 0.00267745 0.00250632 0.00271087 0.00247576 0.00267745 0
0.00286279 0.00307331 0.00282721 0.00303468 0.00286279 0.00307331 0.00282721 0.00303468 0
0.00323002 0.00344767 0.00318919 0.00340385 0.00323002 0.00344767 0.00318919 0.00340385 0
0.00360985 0.00383531 0.00356387 0.00378646 0.00360985 0.00383531 0.00356387 0.00378646 0
0.00400324 0.0042366 0.00395224 0.0041826 0.00400324 0.0042366 0.00395224 0.0041826 0
0.00441025 0.00465134 0.00435388 0.0045915 0.00441025 0.00465134 0.00435388 0.0045915 0
0.00483071 0.00507973 0.0047681 0.00501301 0.00483071 0.00507973 0.0047681 0.00501301 0
0.00526457 0.00552063 0.00519461 0.00544593 0.00526457 0.00552063 0.00519461 0.00544593 0
0.00186351 0.00206274 0.0018346 0.00203196 0.00186351 0.00206274 0.0018346 0.00203196 0
0.00221019 0.00241383 0.00217824 0.00238056 0.00221019 0.00241383 0.00217824 0.00238056 0
0.00256482 0.00277373 0.00253018 0.00273667 0.00256482 0.00277373 0.00253018 0.00273667 0
0.00292898 0.00314426 0.00289006 0.00310268 0.00292898 0.00314426 0.00289006 0.00310268 0
0.0033045 0.00352703 0.00326092 0.00348068 0.0033045 0.00352703 0.00326092 0.00348068 0
0.0036928 0.0039232 0.0036444 0.00387196 0.0036928 0.0039232 0.0036444 0.00387196 0
0.00409486 0.0043335 0.00404147 0.00427705 0.00409486 0.0043335 0.00404147 0.00427705 0
0.00451129 0.00475842 0.00445244 0.00469609 0.00451129 0.00475842 0.00445244 0.00469609 0
0.00494258 0.00519863 0.00487748 0.00512949 0.00494258 0.00519863 0.00487748 0.00512949 0
0.00538907 0.00565339 0.0053167 0.00557624 0.00538907 0.00565339 0.0053167 0.00557624 0
0.00191915 0.00212102 0.00188616 0.0020866 0.00191915 0.00212102 0.00188616 0.0020866 0
0.00227048 0.00247693 0.0022349 0.00243965 0.00227048 0.00247693 0.0022349 0.00243965 0
0.0026303 0.00284289 0.00259165 0.00280219 0.0026303 0.00284289 0.00259165 0.00280219 0
0.00300102 0.00322048 0.00295871 0.00317583 0.00300102 0.00322048 0.00295871 0.00317583 0
0.00338389 0.00361093 0.00333745 0.00356193 0.00338389 0.00361093 0.00333745 0.00356193 0
0.00378011 0.00401532 0.00372917 0.00396161 0.00378011 0.00401532 0.00372917 0.00396161 0
0.00419068 0.00443461 0.00413485 0.00437572 0.00419068 0.00443461 0.00413485 0.00437572 0
0.00461654 0.00486973 0.00455527 0.00480496 0.00461654 0.00486973 0.00455527 0.00480496 0
0.00505863 0.00532162 0.00499113 0.00525013 0.00505863 0.00532162 0.00499113 0.00525013 0
0.00551758 0.00579008 0.00544291 0.00571071 0.00551758 0.00579008 0.00544291 0.00571071 0
0.00198342 0.00218593 0.00194522 0.00214765 0.00198342 0.00218593 0.00194522 0.00214765 0
0.0023369 0.00254673 0.00229781 0.00250562 0.0023369 0.00254673 0.00229781 0.00250562 0
0.00270251 0.00291829 0.00266 0.00287399 0.00270251 0.00291829 0.00266 0.00287399 0
0.00307894 0.00330204 0.00303323 0.00325429 0.00307894 0.00330204 0.00303323 0.00325429 0
0.0034683 0.00369946 0.00341895 0.00364778 0.0034683 0.00369946 0.00341895 0.00364778 0
0.00387185 0.00411171 0.00381834 0.00405554 0.00387185 0.00411171 0.00381834 0.00405554 0
0.0042907 0.00453988 0.00423244 0.0044786 0.0042907 0.00453988 0.00423244 0.0044786 0
0.00472594 0.00498513 0.00466228 0.00491801 0.00472594 0.00498513 0.00466228 0.00491801 0
0.00517876 0.00544866 0.00510892 0.00537482 0.00517876 0.00544866 0.00510892 0.00537482 0
0.00565006 0.00593049 0.0055731 0.00584898 0.00565006 0.00593049 0.0055731 0.00584898 0
0.00241172 0.00262378 0.00236741 0.00257838 0.00241172 0.00262378 0.00236741 0.00257838 0
0.00278142 0.00299999 0.00273504 0.00295205 0.00278142 0.00299999 0.00273504 0.00295205 0
0.00316281 0.00338907 0.00311365 0.00333815 0.00316281 0.00338907 0.00311365 0.00333815 0
0.00355787 0.00379278 0.00350552 0.00373831 0.00355787 0.00379278 0.00350552 0.00373831 0
0.00396819 0.00421255 0.003912 0.00415378 0.00396819 0.00421255 0.003912 0.00415378 0
0.00439508 0.00464944 0.00433428 0.00458566 0.00439508 0.00464944 0.00433428 0.00458566 0
0.00483953 0.00510456 0.00477343 0.00503511 0.00483953 0.00510456 0.00477343 0.00503511 0
0.00530272 0.00557912 0.00523069 0.00550341 0.00530272 0.00557912 0.00523069 0.00550341 0
0.0057859 0.00607449 0.00570708 0.00599092 0.0057859 0.00607449 0.00570708 0.00599092 0
0.0024934 0.00270602 0.00244548 0.00265798 0.0024934 0.00270602 0.00244548 0.00265798 0
0.00286502 0.00308662 0.00281624 0.00303604 0.00286502 0.00308662 0.00281624 0.00303604 0
0.00325208 0.00348247 0.0031999 0.00342775 0.00325208 0.00348247 0.0031999 0.00342775 0
0.00365372 0.00389118 0.00359758 0.00383373 0.00365372 0.00389118 0.00359758 0.00383373 0
0.00406915 0.00431798 0.00401029 0.00425654 0.00406915 0.00431798 0.00401029 0.00425654 0
0.00450408 0.00476369 0.00444057 0.00469713 0.00450408 0.00476369 0.00444057 0.00469713 0
0.00495774 0.00522831 0.00488891 0.00515633 0.00495774 0.00522831 0.00488891 0.00515633 0
0.00543071 0.00571317 0.00535631 0.00563532 0.00543071 0.00571317 0.00535631 0.00563532 0
0.00375175 0.00399333 0.00369501 0.00393393 0.00375175 0.00399333 0.00369501 0.00393393 0
0.00417451 0.00442796 0.00411314 0.00436389 0.00417451 0.00442796 0.00411314 0.00436389 0
0.00461762 0.00488234 0.0045515 0.0048133 0.00461762 0.00488234 0.0045515 0.0048133 0
0.00507999 0.0053552 0.00500893 0.00528159 0.00507999 0.0053552 0.00500893 0.00528159 0
0.00556156 0.00585018 0.00548569 0.00577073 0.00556156 0.00585018 0.00548569 0.00577073 0
0 0 0 0 0 0 0 0 0
0 0 0 0 0 0 0 0 0
0 0 0 0 0 0 0 0 0
0 0 0 0 0 0 0 0 0
0 0 0 0 0 0 0 0 0
0 0 0 0 0 0 0 0 0
0 0 0 0 0 0 0 0 0
0 0 0 0 0 0 0 0 0
0 0 0 0 0 0 0 0 0
0 0 0 0 0 0 0 0 0
0 0 0 0 0 0 0 0 0
0 0 0 0 0 0 0 0 0
0 0 0 0 0 0 0 0 0
0 0 0 0 0 0 0 0 0
0 0 0 0 0 0 0 0 0
0 0 0 0 0 0 0 0 0
0 0 0 0 0 0 0 0 0
0 0 0 0 0 0 0 0 0
0 0 0 0 0 0 0 0 0
0 0 0 0 0 0 0 0 0
0 0 0 0 0 0 0 0 0
0 0 0 0 0 0 0 0 0
0 0 0 0 0 0 0 0 0
0 0 0 0 0 0 0 0 0
0 0 0 0 0 0 0 0 0
0 0 0 0 0 0 0 0 0
0 0 0 0 0 0 0 0 0
0 0 0 0 0 0 0 0 0
0 0 0 0 0 0 0 0 0
0 0 0 0 0 0 0 0 0
0 0 0 0 0 0 0 0 0
0 0 0 0 0 0 0 0 0
0 0 0 0 0 0 0 0 0
0 0 0 0 0 0 0 0 0
0 0 0 0 0 0 0 0 0
0 0 0 0 0 0 0 0 0
0 0 0 0 0 0 0 0 0
0 0 0 0 0 0 0 0 0
0 0 0 0 0 0 0 0 0
0 0 0 0 0 0 0 0 0
0 0 0 0 0 0 0 0 0
0 0 0 0 0 0 0 0 0
0 0 0 0 0 0 0 0 0
0 0 0 0 0 0 0 0 0
0 0 0 0 0 0 0 0 0
0 0 0 0 0 0 0 0 0
0 0 0 0 0 0 0 0 0
0 0 0 0 0 0 0 0 0
0 0 0 0 0 0 0 0 0
0 0 0 0 0 0 0 0 0
0 0 0 0 0 0 0 0 0
0 0 0 0 0 0 0 0 0
0 0 0 0 0 0 0 0 0
0 0 0 0 0 0 0 0 0
0 0 0 0 0 0 0 0 0
0 0 0 0 0 0 0 0 0
0 0 0 0 0 0 0 0 0
0 0 0 0 0 0 0 0 0
0 0 0 0 0 0 0 0 0
0 0 0 0 0 0 0 0 0
0 0 0 0 0 0 0 0 0
0 0 0 0 0 0 0 0 0
0 0 0 0 0 0 0 0 0
0 0 0 0 0 0 0 0 0
0 0 0 0 0 0 0 0 0
0 0 0 0 0 0 0 0 0
0 0 0 0 0 0 0 0 0
0 0 0 0 0 0 0 0 0
0 0 0 0 0 0 0 0 0
0 0 0 0 0 0 0 0 0
0 0 0 0 0 0 0 0 0
0 0 0 0 0 0 0 0 0
0 0 0 0 0 0 0 0 0
0 0 0 0 0 0 0 0 0
0 0 0 0 0 0 0 0 0
0 0 0 0 0 0 0 0 0
0 0 0 0 0 0 0 0 0
0 0 0 0 0 0 0 0 0
0.0019831 0.00216499 0.00195174 0.00213033 0.0019831 0.00216499 0.00195174 0.00213033 0
0.00229896 0.00248312 0.00226226 0.00244411 0.00229896 0.00248312 0.00226226 0.00244411 0
0.00261966 0.00280859 0.00257907 0.00276595 0.00261966 0.00280859 0.00257907 0.00276595 0
0.00294932 0.00314492 0.00290507 0.00309832 0.00294932 0.00314492 0.00290507 0.00309832 0
0.00329079 0.00349372 0.00324216 0.00344191 0.00329079 0.00349372 0.00324216 0.00344191 0
0.00364458 0.00385383 0.00359015 0.00379541 0.00364458 0.00385383 0.00359015 0.00379541 0
0.00400876 0.00422279 0.00394728 0.00415697 0.00400876 0.00422279 0.00394728 0.00415697 0
0.0043798 0.00459475 0.00431122 0.00452299 0.0043798 0.00459475 0.00431122 0.00452299 0
0.00204399 0.00222995 0.00200781 0.00219168 0.00204399 0.00222995 0.00200781 0.00219168 0
0.00236707 0.00255574 0.00232704 0.00251303 0.00236707 0.00255574 0.00232704 0.00251303 0
0.00269568 0.00288936 0.00265091 0.00284165 0.00269568 0.00288936 0.00265091 0.00284165 0
0.00303354 0.00323382 0.00298373 0.00318122 0.00303354 0.00323382 0.00298373 0.00318122 0
0.00338311 0.00359071 0.00332854 0.00353357 0.00338311 0.00359071 0.00332854 0.00353357 0
0.00374518 0.00395961 0.00368611 0.00389783 0.00374518 0.00395961 0.00368611 0.00389783 0
0.0041187 0.00433892 0.00405469 0.00427155 0.0041187 0.00433892 0.00405469 0.00427155 0
0.00450184 0.00472674 0.00443089 0.00464936 0.00450184 0.00472674 0.00443089 0.00464936 0
0.00489354 0.0051244 0.00481288 0.00504119 0.00489354 0.0051244 0.00481288 0.00504119 0
0.00211489 0.00230394 0.00207268 0.00226002 0.00211489 0.00230394 0.00207268 0.00226002 0
0.00244359 0.00263609 0.00239829 0.0025887 0.00244359 0.00263609 0.00239829 0.0025887 0
0.00277906 0.00297718 0.00273001 0.00292566 0.00277906 0.00297718 0.00273001 0.00292566 0
0.00312464 0.0033294 0.00307129 0.00327352 0.00312464 0.0033294 0.00307129 0.00327352 0
0.00348195 0.00369395 0.00342421 0.00363368 0.00348195 0.00369395 0.00342421 0.00363368 0
0.00385176 0.00407093 0.00378957 0.004006 0.00385176 0.00407093 0.00378957 0.004006 0
0.00423386 0.00445983 0.00416671 0.00438937 0.00423386 0.00445983 0.00416671 0.00438937 0
0.00462771 0.00486042 0.00455458 0.0047833 0.00462771 0.00486042 0.00455458 0.0047833 0
0.00503281 0.0052711 0.00495248 0.00518602 0.00503281 0.0052711 0.00495248 0.00518602 0
0.00187647 0.00206108 0.00182735 0.0020116 0.00187647 0.00206108 0.00182735 0.0020116 0
0.00219816 0.00238796 0.0021485 0.00233821 0.00219816 0.00238796 0.0021485 0.00233821 0
0.00252898 0.00272437 0.0024786 0.00267243 0.00252898 0.00272437 0.0024786 0.00267243 0
0.00286975 0.00307153 0.0028165 0.00301625 0.00286975 0.00307153 0.0028165 0.00301625 0
0.00322181 0.00343061 0.00316496 0.00337149 0.00322181 0.00343061 0.00316496 0.00337149 0
0.00358619 0.00380246 0.00352534 0.00373917 0.00358619 0.00380246 0.00352534 0.00373917 0
0.00396357 0.00418749 0.00389838 0.00411956 0.00396357 0.00418749 0.00389838 0.00411956 0
0.00435422 0.00458584 0.00428409 0.00451246 0.00435422 0.00458584 0.00428409 0.00451246 0
0.00475826 0.00499774 0.00468228 0.00491788 0.00475826 0.00499774 0.00468228 0.00491788 0
0.00517559 0.00542204 0.00509259 0.00533434 0.00517559 0.00542204 0.00509259 0.00533434 0
0.00196793 0.00215265 0.00191415 0.00209888 0.00196793 0.00215265 0.00191415 0.00209888 0
0.00229012 0.00248078 0.00223611 0.00242616 0.00229012 0.00248078 0.00223611 0.00242616 0
0.00262292 0.00282047 0.00256763 0.00276402 0.00262292 0.00282047 0.00256763 0.00276402 0
0.00296775 0.00317253 0.00291027 0.00311339 0.00296775 0.00317253 0.00291027 0.00311339 0
0.00332523 0.00353762 0.00326475 0.00347511 0.00332523 0.00353762 0.00326475 0.00347511 0
0.00369602 0.00391636 0.00363191 0.00384992 0.00369602 0.00391636 0.00363191 0.00384992 0
0.00408068 0.00430927 0.00401241 0.00423831 0.00408068 0.00430927 0.00401241 0.00423831 0
0.00447974 0.0047169 0.00440663 0.0046406 0.00447974 0.0047169 0.00440663 0.0046406 0
0.00489374 0.00513977 0.00481491 0.00505719 0.00489374 0.00513977 0.00481491 0.00505719 0
0.00532292 0.00557731 0.0052373 0.00548714 0.00532292 0.00557731 0.0052373 0.00548714 0
0.0020688 0.00225204 0.00200937 0.00219368 0.0020688 0.00225204 0.00200937 0.00219368 0
0.00238954 0.00258169 0.00233122 0.00252245 0.00238954 0.00258169 0.00233122 0.00252245 0
0.002725 0.00292421 0.00266507 0.00286337 0.002725 0.00292421 0.00266507 0.00286337 0
0.003073 0.00328018 0.00301134 0.0032172 0.003073 0.00328018 0.00301134 0.0032172 0
0.00343493 0.00365049 0.00337082 0.0035846 0.00343493 0.00365049 0.00337082 0.0035846 0
0.00381147 0.00403569 0.00374411 0.00396612 0.00381147 0.00403569 0.00374411 0.00396612 0
0.00420309 0.00443625 0.00413176 0.00436229 0.00420309 0.00443625 0.00413176 0.00436229 0
0.00461036 0.00485291 0.00453431 0.00477377 0.00461036 0.00485291 0.00453431 0.00477377 0
0.00503407 0.0052865 0.00495245 0.0052012 0.00503407 0.0052865 0.00495245 0.0052012 0
0.00547476 0.00573673 0.00538654 0.00564417 0.00547476 0.00573673 0.00538654 0.00564417 0
0.00249821 0.00269106 0.00243428 0.00262686 0.00249821 0.00269106 0.00243428 0.00262686 0
0.00283508 0.00303552 0.00277054 0.00297032 0.00283508 0.00303552 0.00277054 0.00297032 0
0.00318545 0.0033945 0.00311963 0.00332766 0.00318545 0.0033945 0.00311963 0.00332766 0
0.00355098 0.00376936 0.00348318 0.00369997 0.00355098 0.00376936 0.00348318 0.00369997 0
0.00393273 0.00416067 0.00386199 0.00408779 0.00393273 0.00416067 0.00386199 0.00408779 0
0.00433106 0.00456861 0.00425647 0.00449151 0.00433106 0.00456861 0.00425647 0.00449151 0
0.0047462 0.00499384 0.00466711 0.00491186 0.0047462 0.00499384 0.00466711 0.00491186 0
0.00517902 0.00543735 0.00509476 0.00534976 0.00517902 0.00543735 0.00509476 0.00534976 0
0.0056306 0.00590028 0.00554014 0.00580533 0.0056306 0.00590028 0.00554014 0.00580533 0
0.0026142 0.002806 0.00254641 0.00273906 0.0026142 0.002806 0.00254641 0.00273906 0
0.00295018 0.00315206 0.00288321 0.00308421 0.00295018 0.00315206 0.00288321 0.00308421 0
0.00330365 0.00351572 0.00323475 0.00344488 0.00330365 0.00351572 0.00323475 0.00344488 0
0.00367401 0.00389425 0.0036021 0.00382139 0.00367401 0.00389425 0.0036021 0.00382139 0
0.00405965 0.00429128 0.00398567 0.00421517 0.00405965 0.00429128 0.00398567 0.00421517 0
0.00446462 0.00470654 0.0043868 0.0046262 0.00446462 0.00470654 0.0043868 0.0046262 0
0.00488744 0.00513975 0.00480521 0.00505488 0.00488744 0.00513975 0.00480521 0.00505488 0
0.00532867 0.0055925 0.00524167 0.00550236 0.00532867 0.0055925 0.00524167 0.00550236 0
0.00380075 0.00402411 0.00372719 0.00394853 0.00380075 0.00402411 0.00372719 0.00394853 0
0.00419204 0.00442743 0.00411492 0.00434813 0.00419204 0.00442743 0.00411492 0.00434813 0
0.00460377 0.00485016 0.00452273 0.00476652 0.00460377 0.00485016 0.00452273 0.00476652 0
0.00503404 0.00529001 0.00494872 0.00520271 0.00503404 0.00529001 0.00494872 0.00520271 0
0.00548227 0.00575158 0.00539309 0.00565925 0.00548227 0.00575158 0.00539309 0.00565925 0
0 0 0 0 0 0 0 0 0
0 0 0 0 0 0 0 0 0
0 0 0 0 0 0 0 0 0
0 0 0 0 0 0 0 0 0
0 0 0 0 0 0 0 0 0
0 0 0 0 0 0 0 0 0
0 0 0 0 0 0 0 0 0
0 0 0 0 0 0 0 0 0
0 0 0 0 0 0 0 0 0
0 0 0 0 0 0 0 0 0
0 0 0 0 0 0 0 0 0
0 0 0 0 0 0 0 0 0
0 0 0 0 0 0 0 0 0
0 0 0 0 0 0 0 0 0
0 0 0 0 0 0 0 0 0
0 0 0 0 0 0 0 0 0
0 0 0 0 0 0 0 0 0
0 0 0 0 0 0 0 0 0
0 0 0 0 0 0 0 0 0
0 0 0 0 0 0 0 0 0
0 0 0 0 0 0 0 0 0
0 0 0 0 0 0 0 0 0
0 0 0 0 0 0 0 0 0
0 0 0 0 0 0 0 0 0
0 0 0 0 0 0 0 0 0
0 0 0 0 0 0 0 0 0
0 0 0 0 0 0 0 0 0
0 0 0 0 0 0 0 0 0
0 0 0 0 0 0 0 0 0
0 0 0 0 0 0 0 0 0
0 0 0 0 0 0 0 0 0
0 0 0 0 0 0 0 0 0
0 0 0 0 0 0 0 0 0
0 0 0 0 0 0 0 0 0
0 0 0 0 0 0 0 0 0
0 0 0 0 0 0 0 0 0
0 0 0 0 0 0 0 0 0
0 0 0 0 0 0 0 0 0
0 0 0 0 0 0 0 0 0
0 0 0 0 0 0 0 0 0
0 0 0 0 0 0 0 0 0
0 0 0 0 0 0 0 0 0
0 0 0 0 0 0 0 0 0
0 0 0 0 0 0 0 0 0
0 0 0 0 0 0 0 0 0
0 0 0 0 0 0 0 0 0
0 0 0 0 0 0 0 0 0
0 0 0 0 0 0 0 0 0
0 0 0 0 0 0 0 0 0
0 0 0 0 0 0 0 0 0
0 0 0 0 0 0 0 0 0
0 0 0 0 0 0 0 0 0
0 0 0 0 0 0 0 0 0
0 0 0 0 0 0 0 0 0
0 0 0 0 0 0 0 0 0
0 0 0 0 0 0 0 0 0
0 0 0 0 0 0 0 0 0
0 0 0 0 0 0 0 0 0
0 0 0 0 0 0 0 0 0
0 0 0 0 0 0 0 0 0
0 0 0 0 0 0 0 0 0
0 0 0 0 0 0 0 0 0
0 0 0 0 0 0 0 0 0
0 0 0 0 0 0 0 0 0
0 0 0 0 0 0 0 0 0
0 0 0 0 0 0 0 0 0
0 0 0 0 0 0 0 0 0
0 0 0 0 0 0 0 0 0
0 0 0 0 0 0 0 0 0
0 0 0 0 0 0 0 0 0
0 0 0 0 0 0 0 0 0
0 0 0 0 0 0 0 0 0
0 0 0 0 0 0 0 0 0
0 0 0 0 0 0 0 0 0
0 0 0 0 0 0 0 0 0
0 0 0 0 0 0 0 0 0
0 0 0 0 0 0 0 0 0
0 0 0 0 0 0 0 0 0
0 0 0 0 0 0 0 0 0
0 0 0 0 0 0 0 0 0
0 0 0 0 0 0 0 0 0
0 0 0 0 0 0 0 0 0
0 0 0 0 0 0 0 0 0
0 0 0 0 0 0 0 0 0
0 0 0 0 0 0 0 0 0
0 0 0 0 0 0 0 0 0
0 0 0 0 0 0 0 0 0
0 0 0 0 0 0 0 0 0
0 0 0 0 0 0 0 0 0
0 0 0 0 0 0 0 0 0
0 0 0 0 0 0 0 0 0
0 0 0 0 0 0 0 0 0
0 0 0 0 0 0 0 0 0
0 0 0 0 0 0 0 0 0
0 0 0 0 0 0 0 0 0
0 0 0 0 0 0 0 0 0
0 0 0 0 0 0 0 0 0
0 0 0 0 0 0 0 0 0
0 0 0 0 0 0 0 0 0
0 0 0 0 0 0 0 0 0
0 0 0 0 0 0 0 0 0
0 0 0 0 0 0 0 0 0
0 0 0 0 0 0 0 0 0
0 0 0 0 0 0 0 0 0
0 0 0 0 0 0 0 0 0
0 0 0 0 0 0 0 0 0
0 0 0 0 0 0 0 0 0
0 0 0 0 0 0 0 0 0
0 0 0 0 0 0 0 0 0
0 0 0 0 0 0 0 0 0
0 0 0 0 0 0 0 0 0
0 0 0 0 0 0 0 0 0
0 0 0 0 0 0 0 0 0
0 0 0 0 0 0 0 0 0
0 0 0 0 0 0 0 0 0
0 0 0 0 0 0 0 0 0
0 0 0 0 0 0 0 0 0
0 0 0 0 0 0 0 0 0
0 0 0 0 0 0 0 0 0
0 0 0 0 0 0 0 0 0
0 0 0 0 0 0 0 0 0
0 0 0 0 0 0 0 0 0
0 0 0 0 0 0 0 0 0
0 0 0 0 0 0 0 0 0
0 0 0 0 0 0 0 0 0
0 0 0 0 0 0 0 0 0
0 0 0 0 0 0 0 0 0
0 0 0 0 0 0 0 0 0
0 0 0 0 0 0 0 0 0
0 0 0 0 0 0 0 0 0
0 0 0 0 0 0 0 0 0
0 0 0 0 0 0 0 0 0
0 0 0 0 0 0 0 0 0
0 0 0 0 0 0 0 0 0
0 0 0 0 0 0 0 0 0
0 0 0 0 0 0 0 0 0
0 0 0 0 0 0 0 0 0
0 0 0 0 0 0 0 0 0
0 0 0 0 0 0 0 0 0
0 0 0 0 0 0 0 0 0
0 0 0 0 0 0 0 0 0
0 0 0 0 0 0 0 0 0
0 0 0 0 0 0 0 0 0
0 0 0 0 0 0 0 0 0
0 0 0 0 0 0 0 0 0
0 0 0 0 0 0 0 0 0
0 0 0 0 0 0 0 0 0
0 0 0 0 0 0 0 0 0
0 0 0 0 0 0 0 0 0
0 0 0 0 0 0 0 0 0
0 0 0 0 0 0 0 0 0
0 0 0 0 0 0 0 0 0
0 0 0 0 0 0 0 0 0
0 0 0 0 0 0 0 0 0
0 0 0 0 0 0 0 0 0
0 0 0 0 0 0 0 0 0
0 0 0 0 0 0 0 0 0
0 0 0 0 0 0 0 0 0
0 0 0 0 0 0 0 0 0
0 0 0 0 0 0 0 0 0
0 0 0 0 0 0 0 0 0
0 0 0 0 0 0 0 0 0
0 0 0 0 0 0 0 0 0
0 0 0 0 0 0 0 0 0
0 0 0 0 0 0 0 0 0
0 0 0 0 0 0 0 0 0
0 0 0 0 0 0 0 0 0
0 0 0 0 0 0 0 0 0
0 0 0 0 0 0 0 0 0
0 0 0 0 0 0 0 0 0
0 0 0 0 0 0 0 0 0
0 0 0 0 0 0 0 0 0
0 0 0 0 0 0 0 0 0
0 0 0 0 0 0 0 0 0
0 0 0 0 0 0 0 0 0
0 0 0 0 0 0 0 0 0
0 0 0 0 0 0 0 0 0
0 0 0 0 0 0 0 0 0
0 0 0 0 0 0 0 0 0
0 0 0 0 0 0 0 0 0
0 0 0 0 0 0 0 0 0
0 0 0 0 0 0 0 0 0
0 0 0 0 0 0 0 0 0
0 0 0 0 0 0 0 0 0
0 0 0 0 0 0 0 0 0
0 0 0 0 0 0 0 0 0
0 0 0 0 0 0 0 0 0
0 0 0 0 0 0 0 0 0
0 0 0 0 0 0 0 0 0
0 0 0 0 0 0 0 0 0
0 0 0 0 0 0 0 0 0
0 0 0 0 0 0 0 0 0
0 0 0 0 0 0 0 0 0
0 0 0 0 0 0 0 0 0
0 0 0 0 0 0 0 0 0
0 0 0 0 0 0 0 0 0
0 0 0 0 0 0 0 0 0
0 0 0 0 0 0 0 0 0
0 0 0 0 0 0 0 0 0
0 0 0 0 0 0 0 0 0
0 0 0 0 0 0 0 0 0
0 0 0 0 0 0 0 0 0
0 0 0 0 0 0 0 0 0
0 0 0 0 0 0 0 0 0
0 0 0 0 0 0 0 0 0
0 0 0 0 0 0 0 0 0
0 0 0 0 0 0 0 0 0
0 0 0 0 0 0 0 0 0
0 0 0 0 0 0 0 0 0
0 0 0 0 0 0 0 0 0
0 0 0 0 0 0 0 0 0
0 0 0 0 0 0 0 0 0
0 0 0 0 0 0 0 0 0
0 0 0 0 0 0 0 0 0
0 0 0 0 0 0 0 0 0
0 0 0 0 0 0 0 0 0
0 0 0 0 0 0 0 0 0
0 0 0 0 0 0 0 0 0
0 0 0 0 0 0 0 0 0
0 0 0 0 0 0 0 0 0
0 0 0 0 0 0 0 0 0
0 0 0 0 0 0 0 0 0
0 0 0 0 0 0 0 0 0
0 0 0 0 0 0 0 0 0
0 0 0 0 0 0 0 0 0
0 0 0 0 0 0 0 0 0
0 0 0 0 0 0 0 0 0
0 0 0 0 0 0 0 0 0
0 0 0 0 0 0 0 0 0
0 0 0 0 0 0 0 0 0
0 0 0 0 0 0 0 0 0
0 0 0 0 0 0 0 0 0
0 0 0 0 0 0 0 0 0
0 0 0 0 0 0 0 0 0
0 0 0 0 0 0 0 0 0
0 0 0 0 0 0 0 0 0
0 0 0 0 0 0 0 0 0
0 0 0 0 0 0 0 0 0
0 0 0 0 0 0 0 0 0
0 0 0 0 0 0 0 0 0
0 0 0 0 0 0 0 0 0
0 0 0 0 0 0 0 0 0
0 0 0 0 0 0 0 0 0
0 0 0 0 0 0 0 0 0
0 0 0 0 0 0 0 0 0
0 0 0 0 0 0 0 0 0
0 0 0 0 0 0 0 0 0
0 0 0 0 0 0 0 0 0
0 0 0 0 0 0 0 0 0
0 0 0 0 0 0 0 0 0
0 0 0 0 0 0 0 0 0
0 0 0 0 0 0 0 0 0
0 0 0 0 0 0 0 0 0
0 0 0 0 0 0 0 0 0
0 0 0 0 0 0 0 0 0
0 0 0 0 0 0 0 0 0
0 0 0 0 0 0 0 0 0
0 0 0 0 0 0 0 0 0
0 0 0 0 0 0 0 0 0
0 0 0 0 0 0 0 0 0
0 0 0 0 0 0 0 0 0
0 0 0 0 0 0 0 0 0
0 0 0 0 0 0 0 0 0
0 0 0 0 0 0 0 0 0
0 0 0 0 0 0 0 0 0
0 0 0 0 0 0 0 0 0
0 0 0 0 0 0 0 0 0
0 0 0 0 0 0 0 0 0
0 0 0 0 0 0 0 0 0
0 0 0 0 0 0 0 0 0
0 0 0 0 0 0 0 0 0
0 0 0 0 0 0 0 0 0
0 0 0 0 0 0 0 0 0
0 0 0 0 0 0 0 0 0
0 0 0 0 0 0 0 0 0
0 0 0 0 0 0 0 0 0
0 0 0 0 0 0 0 0 0
0 0 0 0 0 0 0 0 0
0 0 0 0 0 0 0 0 0
0 0 0 0 0 0 0 0 0
0 0 0 0 0 0 0 0 0
0 0 0 0 0 0 0 0 0
0 0 0 0 0 0 0 0 0
0 0 0 0 0 0 0 0 0
0 0 0 0 0 0 0 0 0
0 0 0 0 0 0 0 0 0
0 0 0 0 0 0 0 0 0
0 0 0 0 0 0 0 0 0
0 0 0 0 0 0 0 0 0
0 0 0 0 0 0 0 0 0
0 0 0 0 0 0 0 0 0
0 0 0 0 0 0 0 0 0
0 0 0 0 0 0 0 0 0
0 0 0 0 0 0 0 0 0
0 0 0 0 0 0 0 0 0
0 0 0 0 0 0 0 0 0
0 0 0 0 0 0 0 0 0
0 0 0 0 0 0 0 0 0
0 0 0 0 0 0 0 0 0
0 0 0 0 0 0 0 0 0
0 0 0 0 0 0 0 0 0
0 0 0 0 0 0 0 0 0
0 0 0 0 0 0 0 0 0
0 0 0 0 0 0 0 0 0
0 0 0 0 0 0 0 0 0
0 0 0 0 0 0 0 0 0
0 0 0 0 0 0 0 0 0
0 0 0 0 0 0 0 0 0
0 0 0 0 0 0 0 0 0
0 0 0 0 0 0 0 0 0
0 0 0 0 0 0 0 0 0
0 0 0 0 0 0 0 0 0
0 0 0 0 0 0 0 0 0
0 0 0 0 0 0 0 0 0
0 0 0 0 0 0 0 0 0
0 0 0 0 0 0 0 0 0
0 0 0 0 0 0 0 0 0
0 0 0 0 0 0 0 0 0
0 0 0 0 0 0 0 0 0
0 0 0 0 0 0 0 0 0
0 0 0 0 0 0 0 0 0
0 0 0 0 0 0 0 0 0
0 0 0 0 0 0 0 0 0
0 0 0 0 0 0 0 0 0
0 0 0 0 0 0 0 0 0
0 0 0 0 0 0 0 0 0
0 0 0 0 0 0 0 0 0
0 0 0 0 0 0 0 0 0
0 0 0 0 0 0 0 0 0
0 0 0 0 0 0 0 0 0
0 0 0 0 0 0 0 0 0
0 0 0 0 0 0 0 0 0
0 0 0 0 0 0 0 0 0
0 0 0 0 0 0 0 0 0
0 0 0 0 0 0 0 0 0
0 0 0 0 0 0 0 0 0
0 0 0 0 0 0 0 0 0
0 0 0 0 0 0 0 0 0
0 0 0 0 0 0 0 0 0
0 0 0 0 0 0 0 0 0
0 0 0 0 0 0 0 0 0
0 0 0 0 0 0 0 0 0
0 0 0 0 0 0 0 0 0
0 0 0 0 0 0 0 0 0
0 0 0 0 0 0 0 0 0
0 0 0 0 0 0 0 0 0
0 0 0 0 0 0 0 0 0
0 0 0 0 0 0 0 0 0
0 0 0 0 0 0 0 0 0
0 0 0 0 0 0 0 0 0
0 0 0 0 0 0 0 0 0
0 0 0 0 0 0 0 0 0
0 0 0 0 0 0 0 0 0
0 0 0 0 0 0 0 0 0
0 0 0 0 0 0 0 0 0
0 0 0 0 0 0 0 0 0
0 0 0 0 0 0 0 0 0
0 0 0 0 0 0 0 0 0
0 0 0 0 0 0 0 0 0
0 0 0 0 0 0 0 0 0
0 0 0 0 0 0 0 0 0
0 0 0 0 0 0 0 0 0
0 0 0 0 0 0 0 0 0
0 0 0 0 0 0 0 0 0
0 0 0 0 0 0 0 0 0
0 0 0 0 0 0 0 0 0
0 0 0 0 0 0 0 0 0
0 0 0 0 0 0 0 0 0
0 0 0 0 0 0 0 0 0
0 0 0 0 0 0 0 0 0
0 0 0 0 0 0 0 0 0
0 0 0 0 0 0 0 0 0
0 0 0 0 0 0 0 0 0
0 0 0 0 0 0 0 0 0
0 0 0 0 0 0 0 0 0
0 0 0 0 0 0 0 0 0
0 0 0 0 0 0 0 0 0
0 0 0 0 0 0 0 0 0
0 0 0 0 0 0 0 0 0
0 0 0 0 0 0 0 0 0
0 0 0 0 0 0 0 0 0
0 0 0 0 0 0 0 0 0
0 0 0 0 0 0 0 0 0
0 0 0 0 0 0 0 0 0
SCALARS F_MT double 1
LOOKUP_TABLE default
0
0
0
0
0
0
0
0
0
0
0
0
0
0
0
0
0
0
0
0
0
0
0
0
0
0
0
0
0
0
0
0
0
0
0
0
0
0
0
0
0
0
0
0
0
0
0
0
0
0
0
0
0
0
0
0
0
0
0
0
0
0
0
0
0
0
0
0
0
0
0
0
0
0
0
0
0
0
0
0
0
0
0
0
0
0
0
0
0
0
0
0
0
0
0
0
0
0
0
0
0
0
0
0
0
0
0
0
0
0
0
0
0
0
0
0
0
0
0
0
0
0
0
0
0
0
0
0
0
0
0
0
0
0
0
0
0
0
0
0
0
0
0
0
0
0
0
0
0
0
0
0
0
0
0
0
0
0
0
0
0
0
0
0
0
0
0
0
0
0
0
0
0
0
0
0
0
0
0
0
0
0
0
0
0
0
0
0
0
0
0
0
0
0
0
0
0
0
0
0
0
0
0
0
0
0
0
0
0
0
0
0
0
0
0
0
0
0
0
0
0
0
0
0
0
0
0
0
0
0
0
0
0
0
0
0
0
0
0
0
0
0
0
0
0
0
0
0
0
0
0
0
0
0
0
0
0
0
0
0
0
0
0
0
0
0
0
0
0
0
0
0
0
0
0
0
0
0
0
0
0
0
0
0
0
0
0
0
0
0
0
0
0
0
0
0
0
0
0
0
0
0
0
0
0
0
0
0
0
0
0
0
0
0
0
0
0
0
0
0
0
0
0
0
0
0
0
0
0
0
0
0
0
0
0
0
0
0
0
0
0
0
0
0
0
0
0
0
0
0
0
0
0
0
0
0
0
0
0
0
0
0
0
0
0
0
0
0
0
0
0
0
0
0
0
0
0
0
0
0
0
0
0
0
0
0
0
0
0
0
0
0
0
0
0
0
0
0
0
0
0
0
0
0
0
0
0
0
0
0
0
0
0
0
0
0
0
0
0
0
0
0
0
0
0
0
0
0
0
0
0
0
0
0
0
0
0
0
0
0
0
0
0
0
0
0
0
0
0
0
6.39121e-05
6.21301e-05
6.01934e-05
5.80971e-05
0
0
0
0
6.78064e-05
6.59984e-05
6.40344e-05
0
0
0
0
0
0
7.18893e-05
7.00587e-05
0
0
0
0
0
0
0
7.76686e-05
7.60734e-05
0
0
0
0
0
0
0
0
8.20473e-05
0
0
0
0
0
0
0
0
0
8.65027e-05
0
0
0
0
0
0
0
0
0
0
0
0
0
0
0
0
0
0
0
0
0
0
0
0
0
0
0
0
0
0
0
0
0
0
0
0
0
0
0
0
0
0
0
0
0
0
0
0
0
0
0
0
0
0
0
0
0
0
0
0
0
0
0
0
0
0
0
0
0
0
0
0
0
0
0
0
0
0
0
0
0
0
0
0
0
0
0
0
0
0
0
0
0
0
0
0
0
0
0
0
0
0
0
0
0
0
0
0
0
0
0
0
0
0
0
0
0
0
0
0
0
0
0
0
0
0
0
0
0
0
0
0
0
0
0
0
0
0
0
0
0
0
0
0
0
0
0
0
0
0
0
0
0
0
0
0
0
0
0
0
0
0
0
0
0
0
0
0
0
0
0
0
0
0
0
0
0
0
0
0
0
0
0
0
0
0
0
0
0
0
0
0
0
0
0
0
0
0
0
0
0
0
0
0
0
0
0
0
0
0
0
0
0
0
0
0
0
0
0
0
0
0
0
0
0
0
0
0
0
0
0
0
0
0
0
0
0
0
0
0
0
0
0
0
0
0
0
0
0
0
0
0
0
0
0
0
0
0
0
0
0
0
0
0
0
0
0
0
0
0
0
0
0
0
0
0
0
0
0
0
0
0
0
0
0
0
0
0
0
0
0
0
0
0
0
0
0
0
0
0
0
0
0
0
0
0
0
0
0
0
0
0
0
0
0
0
0
0
0
0
0
0
0
0
0
0
0
0
0
0
0
0
0
0
0
0
0
0
0
0
0
0
0
0
0
0
0
0
0
0
0
0
0
0
0
0
0
0
0
0
0
0
0
0
0
0
0
0
0
0
0
0
0
0
0
0
0
0
0
0
0
0
0
0
0
0
0
0
0
0
0
0
0
0
0
0
0
0
0
0
0
0
0
0
0
0
0
0
0
0
0
0
0
0
0
0
0
0
0
0
0
0
0
0
0
0
0
0
0
0
0
0
0
0
0
0
0
0
0
0
0
0
0
0
0
0
0
0
0
0
0
0
0
0
0
0
0
0
0
0
0
0
0
0
0
0
0
0
0
0
0
0
0
0
0
0
0
0
0
0
0
0
0
0
0
0
0
0
0
0
0
0
0
0
0
0
0
0
0
0
0
0
0
0
0
0
0
0
0
0
0
0
0
0
0
0
0
0
0
0
0
0
0
0
0
0
0
0
0
0
0
0
0
0
0
0
0
0
0
0
0
0
0
0
0
0
0
0
0
0
0
0
0
0
0
0
0
0
0
0
0
0
0
0
0
0
0
0
0
0
0
0
0
0
0
0
0
0
0
0
0
0
0
0
0
0
0
0
0
0
0
0
0
0
0
0
0
0
0
0
0
0
0
0
0
0
0
0
0
0
0
0
0
0
0
0
0
0
0
0
0
0
0
0
0
0
0
0
0
0
0
0
0
0
0
0
0
0
0
0
0
0
0
0
0
0
0
0
0
0
0
0
0
0
0
0
0
0
0
0
0
0
0
0
0
0
0
0
0
0
0
0
0
0
0
0
0
0
0
0
0
0
0
0
0
0
0
0
0
0
0
0
0
0
0
0
0
0
0
0
0
0
0
0
0
0
0
0
0
0
0
0
0
0
0
0
0
0
0
0
0
0
0
0
0
0
0
0
0
0
0
0
0
0
0
0
0
0
0
0
0
0
0
0
0
0
0
0
0
0
0
0
0
0
0
0
0
0
0
0
0
0
0
0
0
0
0
0
0
0
0
0
0
0
0
0
0
0
0
0
0
0
0
0
0
0
0
0
0
0
0
0
0
0
0
0
0
0
0
0
0
0
0
0
0
0
0
0
0
0
0
0
0
0
0
0
0
0
0
0
0
0
0
0
0
0
0
0
0
0
0
0
0
0
0
0
0
0
0
0
0
0
0
0
0
0
0
0
0
0
0
0
0
0
0
0
0
0
0
0
0
0
0
0
0
0
0
0
0
0
0
0
0
0
0
0
0
0
0
0
0
0
0
0
0
0
0
0
0
0
0
0
0
0
0
0
0
0
0
0
0
0
0
0
0
0
0
0
0
0
0
0
0
0
0
0
0
0
0
0
0
0
0
0
0
0
0
0
0
0
0
0
0
0
0
0
0
0
0
0
0
0
0
0
0
0
0
0
0
0
0
0
0
0
0
0
0
0
0
0
0
0
0
0
0
0
0
0
0
0
0
0
0
0
0
0
0
0
0
0
0
0
0
0
0
0
0
0
0
0
0
0
0
0
0
0
0
0
0
0
0
0
0
0
0
0
0
0
0
0
0
0
0
0
0
0
0
0
0
0
0
0
0
0
0
0
0
0
0
0
0
0
0
0
0
0
0
0
0
0
0
0
0
0
0
0
0
0
0
0
0
0
0
0
0
0
0
0
0
0
0
0
0
0
0
0
0
0
0
0
0
0
0
0
0
0
0
0
0
0
0
0
0
0
0
0
0
0
0
0
0
0
0
0
0
0
0
0
0
0
0
0
0
0
0
0
0
0
0
0
0
0
0
0
0
0
0
0
0
0
0
0
0
0
0
0
0
0
0
0
0
0
0
0
0
0
0
0
0
0
0
0
0
0
0
0
0
0
0
0
0
0
0
0
0
0
0
0
0
0
0
0
0
0
0
0
0
0
0
0
0
0
0
0
0
0
0
0
0
0
0
0
0
0
0
0
0
0
0
0
0
0
0
0
0
0
0
0
0
0
0
0
0
0
0
0
0
0
0
0
0
0
0
0
0
0
0
0
0
0
0
0
0
0
0
0
0
0
0
0
0
0
0
0
0
0
0
0
0
0
0
0
0
0
0
0
0
0
0
0
0
0
0
0
0
0
0
0
0
0
0
0
0
0
0
0
0
0
0
0
0
0
0
0
0
0
0
0
0
0
0
0
0
0
0
0
0
0
0
0
0
0
0
0
0
0
0
0
0
0
0
0
0
0
0
0
0
0
0
0
0
0
0
0
0
0
0
0
0
0
0
0
0
0
0
0
0
0
0
0
0
0
0
0
0
0
0
0
0
0
0
0
0
0
0
0
0
0
0
0
0
0
0
0
0
0
0
0
0
0
0
0
0
0
0
0
0
0
0
0
0
0
0
0
0
0
0
0
0
0
0
0
0
0
0
0
0
0
0
0
0
0
0
0
0
0
0
0
0
0
0
0
0
0
0
0
0
0
0
0
0
0
0
0
0
0
0
0
0
0
0
0
0
0
0
0
0
0
0
0
0
0
0
0
0
0
0
0
0
0
0
0
0
0
0
0
0
0
0
0
0
0
0
0
0
0
0
0
0
0
0
0
0
0
0
0
0
0
0
0
0
0
0
0
0
0
0
0
0
0
0
0
0
0
0
0
0
0
0
0
0
0
0
0
0
0
0
0
0
0
0
0
0
0
0
0
0
0
0
0
0
0
0
0
0
0
0
0
0
0
0
0
0
0
0
0
0
0
0
0
0
0
0
0
0
0
0
0
0
0
0
0
0
0
0
0
0
0
0
0
0
0
0
0
0
0
0
0
0
0
0
0
0
0
0
0
0
0
0
0
0
0
0
0
0
0
0
0
0
0
0
0
0
0
0
0
0
0
0.000193767
0.000191195
0.000188254
0.000184934
0.000181209
0.000177063
0.000172494
0.000167509
0.000199355
0.000196619
0.000193482
0.000189906
0.000185935
0.000181586
0.00017682
0.000171556
0.000165746
0.000204924
0.000202044
0.000198797
0.000195125
0.000191042
0.000186543
0.00018159
0.000176121
0.000170096
0.000210338
0.000207393
0.000204102
0.000200409
0.000196308
0.000191772
0.000186757
0.000181207
0.000175101
0.000215604
0.000212649
0.000209386
0.000205755
0.000201734
0.000197281
0.000192339
0.000186849
0.000180804
0.000220678
0.000217794
0.000214636
0.000211155
0.000207322
0.000203078
0.00019835
0
0
0.00022555
0.000222812
0.000219836
0.000216599
0.000213069
0
0
0
0
0.000230265
0.000227792
0.000225123
0
0
0
0
0
0
0
0
0
0
SCALARS F_MC double 1
LOOKUP_TABLE default
-0.00183547
-0.00186206
-0.00188591
-0.00190669
-0.00192566
-0.00194312
-0.00195768
-0.00196678
-0.0018832
-0.00192221
-0.0019604
-0.00199728
-0.00203176
-0.00206318
-0.00209152
-0.00211618
-0.00213816
-0.00193683
-0.00199017
-0.00204278
-0.0020943
-0.00214396
-0.00219116
-0.00223567
-0.00227743
-0.00231493
-0.00199632
-0.00206578
-0.00213331
-0.00219996
-0.00226511
-0.00232829
-0.00238923
-0.0024477
-0.00250176
-0.00206483
-0.00214909
-0.00223198
-0.00231421
-0.00239524
-0.00247469
-0.00255233
-0.00262792
-0.00269924
-0.00214037
-0.00224011
-0.00233879
-0.00243704
-0.00253434
-0.00263039
-0.00272507
-0.00281819
-0.0029075
-0.00222346
-0.00233876
-0.00245367
-0.00256841
-0.00268239
-0.0027954
-0.00290746
-0.00301718
-0.00312636
-0.002313
-0.00244364
-0.00257486
-0.00270826
-0.00283937
-0.00296967
-0.00309944
-0.00322808
-0.00285623
-0.0030007
-0.00315005
-0.00330012
-0.00344942
-0.0155984
-0.0156424
-0.0156803
-0.0157115
-0.015736
-0.0157528
-0.0157596
-0.015753
-0.0156451
-0.0156972
-0.0157446
-0.0157865
-0.015822
-0.0158494
-0.0158672
-0.0158732
-0.015867
-0.0156921
-0.0157533
-0.0158103
-0.0158623
-0.0159083
-0.015947
-0.0159767
-0.0159959
-0.0160019
-0.0157388
-0.0158102
-0.015877
-0.0159392
-0.0159959
-0.0160459
-0.0160877
-0.0161198
-0.0161389
-0.0157868
-0.0158679
-0.0159446
-0.0160171
-0.0160846
-0.016146
-0.0161999
-0.016245
-0.0162777
-0.0158358
-0.0159264
-0.0160131
-0.0160959
-0.0161742
-0.0162471
-0.0163133
-0.0163714
-0.0164181
-0.0158857
-0.0159854
-0.0160821
-0.0161754
-0.0162646
-0.016349
-0.0164276
-0.016498
-0.0165604
-0.0159355
-0.0160446
-0.0161514
-0.0162566
-0.0163557
-0.0164516
-0.0165426
-0.0166261
-0.0163369
-0.0164454
-0.0165549
-0.0166586
-0.0167564
0
0
0
0
0
0
0
0
0
0
0
0
0
0
0
0
0
0
0
0
0
0
0
0
0
0
0
0
0
0
0
0
0
0
0
0
0
0
0
0
0
0
0
0
0
0
0
0
0
0
0
0
0
0
0
0
0
0
0
0
0
0
0
0
0
0
0
0
0
0
0
0
0
0
0
-0.00354975
-0.00359876
-0.00364693
-0.00369378
-0.00374039
-0.00378699
-0.00383238
-0.00387446
-0.0035658
-0.00362264
-0.00368051
-0.0037385
-0.0037957
-0.0038516
-0.00390624
-0.00395965
-0.00401138
-0.00358456
-0.00365057
-0.003718
-0.00378577
-0.00385322
-0.00391992
-0.00398574
-0.00405065
-0.00411344
-0.00360562
-0.00368241
-0.00375968
-0.00383751
-0.00391539
-0.00399295
-0.00407005
-0.00414656
-0.00422093
-0.00363128
-0.00371816
-0.00380553
-0.00389369
-0.00398218
-0.00407074
-0.00415924
-0.00424755
-0.00433395
-0.00366084
-0.00375781
-0.00385554
-0.00395427
-0.00405359
-0.00415329
-0.00425333
-0.00435364
-0.00445256
-0.0036943
-0.00380131
-0.00390965
-0.00401924
-0.0041296
-0.00424059
-0.00435231
-0.00446398
-0.00457654
-0.00373074
-0.00384789
-0.00396699
-0.0040887
-0.00421017
-0.0043326
-0.00445614
-0.00458072
-0.00416155
-0.00429192
-0.00442735
-0.00456463
-0.00470285
-0.00795272
-0.00797195
-0.00798493
-0.00799087
-0.00799086
-0.00798509
-0.00797202
-0.00794915
-0.00805408
-0.00807981
-0.00810119
-0.00811654
-0.00812544
-0.00812767
-0.00812279
-0.00811012
-0.00808764
-0.00815587
-0.00818925
-0.00821913
-0.0082434
-0.00826154
-0.00827316
-0.00827771
-0.00827443
-0.00826163
-0.00825566
-0.00829909
-0.00833782
-0.00837129
-0.00839895
-0.00842025
-0.00843459
-0.00844123
-0.00843856
-0.00835675
-0.00840917
-0.00845705
-0.0085
-0.00853745
-0.00856875
-0.00859323
-0.0086102
-0.00861816
-0.0084577
-0.00851932
-0.00857659
-0.00862931
-0.00867684
-0.00871845
-0.00875341
-0.00878108
-0.00880024
-0.00855849
-0.00862932
-0.00869622
-0.00875898
-0.00881689
-0.00886913
-0.00891489
-0.0089533
-0.00898451
-0.00865884
-0.00873954
-0.00881652
-0.00888972
-0.00895739
-0.00902055
-0.00907739
-0.00912711
-0.00901954
-0.00909825
-0.00917322
-0.00924144
-0.00930308
-0.0159463
-0.0160007
-0.0160517
-0.0160983
-0.0161407
-0.0161783
-0.0162093
-0.0162322
-0.0159878
-0.0160483
-0.0161067
-0.0161616
-0.0162125
-0.0162582
-0.0162977
-0.0163302
-0.0163537
-0.0160291
-0.0160964
-0.0161623
-0.0162251
-0.0162841
-0.0163385
-0.0163872
-0.0164291
-0.0164626
-0.016069
-0.0161445
-0.0162181
-0.0162888
-0.0163562
-0.0164194
-0.0164774
-0.016529
-0.0165724
-0.0161091
-0.0161927
-0.016274
-0.0163528
-0.0164285
-0.0165005
-0.0165679
-0.0166295
-0.0166831
-0.0161496
-0.0162407
-0.0163298
-0.0164166
-0.0165009
-0.0165818
-0.0166586
-0.0167302
-0.0167945
-0.01619
-0.0162884
-0.0163853
-0.0164804
-0.0165731
-0.016663
-0.0167494
-0.0168306
-0.0169065
-0.0162298
-0.0163356
-0.0164403
-0.0165445
-0.0166451
-0.016744
-0.0168399
-0.0169315
-0.0166071
-0.0167151
-0.0168247
-0.0169303
-0.0170327
0
0
0
0
2.99592e-05
-7.58063e-06
-4.37413e-05
-7.69974e-05
0
0
0
1.79906e-05
-2.65901e-05
-6.96058e-05
-0.000111281
-0.000151974
-0.000190066
0
0
1.92971e-05
-3.2971e-05
-8.40068e-05
-0.000133724
-0.00018221
-0.000229482
-0.000274805
0
0
3.18925e-05
-2.72701e-05
-8.58343e-05
-0.000143443
-0.000199952
-0.000255377
-0.000309733
-0.000362224
0
5.76532e-05
-1.0093e-05
-7.55051e-05
-0.000140554
-0.000204877
-0.000268287
-0.000330779
-0.000392405
-0.000452371
0
1.91154e-05
-5.35086e-05
-0.000125356
-0.000197082
-0.000268279
-0.000338715
-0.000408401
-0.000477468
-0.000545254
-1.99566e-05
-9.82953e-05
-0.000176755
-0.000255365
-0.000333616
-0.000411208
-0.000488205
-0.000564418
-0.000640507
-5.96693e-05
-0.000144568
-0.000229618
-0.000315569
-0.000400855
-0.000485735
-0.000570138
-0.00065442
-0.000376601
-0.00046781
-0.000560841
-0.000653915
-0.00074679
-0.00520611
-0.00527575
-0.00534624
-0.00541693
-0.00548859
-0.00556144
-0.00563468
-0.00570744
-0.0051908
-0.00526375
-0.00533911
-0.00541586
-0.00549341
-0.00557144
-0.00564993
-0.00572908
-0.00580773
-0.00517472
-0.00525225
-0.00533241
-0.0054142
-0.00549717
-0.00558103
-0.00566571
-0.00575114
-0.0058367
-0.00507664
-0.00515804
-0.005241
-0.00532605
-0.00541294
-0.00550131
-0.00559093
-0.00568174
-0.00577363
-0.00586572
-0.00505665
-0.00514244
-0.00523
-0.00532
-0.00541204
-0.0055058
-0.00560113
-0.00569801
-0.00579636
-0.00589513
-0.00503727
-0.00512723
-0.00521922
-0.00531423
-0.00541147
-0.00551063
-0.00561162
-0.00571451
-0.0058193
-0.00592497
-0.00511092
-0.00520861
-0.0053087
-0.0054112
-0.00551577
-0.00562238
-0.00573123
-0.00584202
-0.00595495
-0.00509569
-0.00519801
-0.00530281
-0.00541121
-0.00552122
-0.00563338
-0.00574812
-0.00586571
-0.00541056
-0.00552387
-0.0056427
-0.0057647
-0.00588947
-0.00754575
-0.00757545
-0.00760201
-0.00762457
-0.00764416
-0.00766111
-0.00767471
-0.0076844
-0.0076101
-0.00764173
-0.00767148
-0.00769801
-0.00772131
-0.00774145
-0.00775834
-0.00777267
-0.00778187
-0.00767569
-0.00771035
-0.00774349
-0.00777362
-0.00780065
-0.00782453
-0.00784518
-0.00786246
-0.00787625
-0.00769805
-0.00774093
-0.00778074
-0.00781744
-0.0078513
-0.00788219
-0.00790997
-0.00793453
-0.00795579
-0.00797357
-0.00776446
-0.00780999
-0.0078529
-0.00789329
-0.00793102
-0.00796591
-0.00799773
-0.00802635
-0.00805173
-0.00807373
-0.00783133
-0.00788074
-0.00792677
-0.00797098
-0.00801272
-0.00805175
-0.00808776
-0.00812058
-0.00815023
-0.00817672
-0.00795183
-0.00800232
-0.00805045
-0.00809635
-0.00813969
-0.00818004
-0.00821716
-0.00825098
-0.00828212
-0.0080255
-0.00808025
-0.00813213
-0.00818218
-0.00822969
-0.00827451
-0.00831603
-0.0083546
-0.0082694
-0.008321
-0.00837068
-0.00841673
-0.00846044
-0.016233
-0.0162982
-0.0163627
-0.0164253
-0.0164862
-0.0165451
-0.0166013
-0.016655
-0.0162685
-0.0163378
-0.0164074
-0.0164758
-0.0165426
-0.0166074
-0.0166697
-0.0167296
-0.0167846
-0.0163031
-0.0163773
-0.0164522
-0.0165262
-0.0165988
-0.0166697
-0.0167383
-0.016804
-0.0168669
-0.0162534
-0.016336
-0.0164164
-0.0164968
-0.0165764
-0.0166549
-0.0167319
-0.0168069
-0.0168794
-0.0169489
-0.0162821
-0.0163688
-0.016455
-0.0165409
-0.0166263
-0.0167107
-0.0167939
-0.0168754
-0.0169547
-0.017031
-0.0163098
-0.0164015
-0.0164929
-0.0165844
-0.0166755
-0.016766
-0.0168555
-0.0169436
-0.0170297
-0.0171132
-0.0164326
-0.01653
-0.0166271
-0.016724
-0.0168205
-0.0169164
-0.017011
-0.0171041
-0.0171949
-0.0164635
-0.0165663
-0.0166688
-0.0167719
-0.0168742
-0.0169764
-0.0170777
-0.0171781
-0.0168179
-0.0169255
-0.0170352
-0.0171433
-0.0172509
-0.000647377
-0.000706386
-0.00076573
-0.000824742
-0.000884391
-0.000945214
-0.00100682
-0.00106932
-0.000637735
-0.000695108
-0.000754026
-0.000813577
-0.000873726
-0.000934654
-0.000996554
-0.00106006
-0.00112354
-0.000627228
-0.000684051
-0.000742712
-0.000802193
-0.000862439
-0.000923574
-0.000985795
-0.00104927
-0.00111427
-0.000558377
-0.000615463
-0.000673013
-0.000731378
-0.000790726
-0.000850976
-0.000912216
-0.000974662
-0.00103856
-0.00110406
-0.000549249
-0.000605274
-0.000662022
-0.000720053
-0.000779215
-0.000839388
-0.000900627
-0.000963184
-0.00102739
-0.00109335
-0.000540345
-0.000595673
-0.000651101
-0.000708759
-0.0007677
-0.000827724
-0.000888851
-0.000951392
-0.00101578
-0.00108217
-0.000584116
-0.000640266
-0.000697523
-0.000756224
-0.000816042
-0.00087694
-0.000939322
-0.00100358
-0.0010702
-0.000574819
-0.000630636
-0.000686619
-0.000744752
-0.000804408
-0.000864949
-0.000927013
-0.00099149
-0.000732696
-0.000790539
-0.000851164
-0.000913728
-0.000978767
-0.000846773
-0.000909619
-0.000973292
-0.00103719
-0.00110215
-0.00116869
-0.00123657
-0.00130629
-0.000826472
-0.000886317
-0.000948004
-0.00101078
-0.00107471
-0.00114002
-0.00120688
-0.00127595
-0.00134574
-0.000805035
-0.000862808
-0.000922723
-0.000983884
-0.00104633
-0.00111022
-0.00117579
-0.00124325
-0.00131309
-0.000726014
-0.000782171
-0.000838995
-0.000897031
-0.000956451
-0.00101725
-0.00107959
-0.00114371
-0.00120992
-0.00127861
-0.000706965
-0.000760445
-0.000814917
-0.000870973
-0.00092854
-0.000987565
-0.00104817
-0.00111066
-0.00117544
-0.00124284
-0.000688154
-0.000739261
-0.000790611
-0.000844592
-0.000900208
-0.000957327
-0.00101603
-0.00107671
-0.00113986
-0.00120584
-0.000715599
-0.000766109
-0.000817932
-0.000871524
-0.000926617
-0.000983247
-0.00104189
-0.00110313
-0.00116733
-0.000694332
-0.000742793
-0.000791407
-0.000842416
-0.000895524
-0.000949881
-0.00100627
-0.0010657
-0.000812426
-0.000861909
-0.000914294
-0.000969087
-0.00102702
0
0
0
0
0
0
0
0
0
0
0
0
0
0
0
0
0
0
0
0
0
0
0
0
0
0
0
0
0
0
0
0
0
0
0
0
0
0
0
0
0
0
0
0
0
0
0
0
0
0
0
0
0
0
0
0
0
0
0
0
0
0
0
0
0
0
0
0
0
0
0
0
0
0
0
0
0
0
-0.0164084
-0.0164819
-0.0165565
-0.0166312
-0.0167061
-0.0167813
-0.0168565
-0.0169336
-0.016439
-0.0165151
-0.0165931
-0.0166717
-0.0167506
-0.0168299
-0.0169094
-0.0169902
-0.0170695
-0.0164685
-0.016548
-0.0166297
-0.016712
-0.0167949
-0.0168783
-0.0169621
-0.0170462
-0.0171316
-0.0164113
-0.0164963
-0.0165804
-0.0166658
-0.016752
-0.0168389
-0.0169265
-0.0170145
-0.017103
-0.0171925
-0.0164359
-0.0165236
-0.016612
-0.0167013
-0.0167914
-0.0168824
-0.0169742
-0.0170666
-0.0171595
-0.0172533
-0.0164597
-0.0165507
-0.0166427
-0.0167358
-0.01683
-0.0169251
-0.0170212
-0.017118
-0.0172154
-0.0173138
-0.0165757
-0.0166722
-0.0167694
-0.0168676
-0.0169669
-0.0170672
-0.0171685
-0.0172707
-0.0173733
-0.0166008
-0.0167012
-0.0168018
-0.0169038
-0.0170075
-0.0171122
-0.0172178
-0.017325
-0.0169382
-0.0170458
-0.0171556
-0.0172657
-0.0173775
-0.00704099
-0.00708431
-0.00712809
-0.00717193
-0.00721655
-0.00726245
-0.00730994
-0.00736058
-0.00705998
-0.00709971
-0.0071403
-0.0071813
-0.00722315
-0.00726622
-0.00731089
-0.00735889
-0.00740835
-0.00708163
-0.00711835
-0.007156
-0.00719397
-0.00723268
-0.0072725
-0.00731392
-0.00735756
-0.00740506
-0.00706975
-0.00710556
-0.00714044
-0.00717506
-0.00720994
-0.00724545
-0.00728197
-0.00732001
-0.00736024
-0.00740418
-0.00710215
-0.00713443
-0.00716612
-0.00719763
-0.00722935
-0.00726161
-0.00729475
-0.00732927
-0.00736592
-0.00740611
-0.00713827
-0.00716795
-0.00719552
-0.00722385
-0.00725237
-0.00728132
-0.00731098
-0.00734184
-0.00737471
-0.00741102
-0.007203
-0.00722878
-0.00725386
-0.00727913
-0.00730474
-0.00733083
-0.00735785
-0.00738686
-0.00741872
-0.00724406
-0.00726699
-0.00728799
-0.00730936
-0.00733206
-0.00735447
-0.00737745
-0.00740251
-0.00734383
-0.00736237
-0.00738114
-0.00739992
-0.00742121
-0.00802477
-0.00812871
-0.00823582
-0.00834582
-0.00845883
-0.00857499
-0.00869426
-0.00881787
-0.00795631
-0.00805612
-0.00815999
-0.00826734
-0.00837817
-0.00849254
-0.00861034
-0.00873136
-0.0088545
-0.00788176
-0.0079779
-0.00807855
-0.00818293
-0.008291
-0.0084028
-0.00851828
-0.00863726
-0.00876012
-0.00771116
-0.00780107
-0.00789372
-0.00799084
-0.00809188
-0.00819681
-0.00830566
-0.00841844
-0.00853508
-0.00865583
-0.00762898
-0.00771443
-0.00780348
-0.00789675
-0.00799411
-0.0080955
-0.008201
-0.00831069
-0.00842456
-0.0085428
-0.00754306
-0.00762323
-0.00770706
-0.00779619
-0.00788953
-0.007987
-0.00808872
-0.00819488
-0.00830555
-0.00842091
-0.00752318
-0.0076044
-0.0076891
-0.00777809
-0.00787122
-0.00796872
-0.0080709
-0.0081786
-0.00829007
-0.0074209
-0.00749745
-0.00757637
-0.00765967
-0.00774815
-0.00784094
-0.00793867
-0.00804203
-0.0075334
-0.00761644
-0.0077044
-0.00779786
-0.00789676
-0.00160684
-0.00168504
-0.00176581
-0.00184918
-0.00193557
-0.00202537
-0.00211896
-0.00221797
-0.00154377
-0.00161361
-0.00168638
-0.00176214
-0.00184139
-0.00192443
-0.00201145
-0.00210315
-0.00219878
-0.00147882
-0.00154054
-0.00160547
-0.00167344
-0.00174484
-0.00182002
-0.00189934
-0.00198322
-0.00207293
-0.00136013
-0.0014122
-0.00146604
-0.00152276
-0.00158254
-0.00164572
-0.00171269
-0.00178389
-0.00185988
-0.00194189
-0.00130153
-0.00134484
-0.00139018
-0.00143834
-0.00148957
-0.00154416
-0.00160251
-0.00166515
-0.00173276
-0.00180651
-0.0012439
-0.00127811
-0.00131306
-0.00135232
-0.00139466
-0.0014403
-0.00148961
-0.00154321
-0.00160192
-0.0016669
-0.00120679
-0.00123478
-0.00126481
-0.00129796
-0.00133427
-0.00137409
-0.00141817
-0.00146804
-0.00152323
-0.00113857
-0.00115756
-0.00117684
-0.0011993
-0.00122625
-0.0012561
-0.00129012
-0.00132981
-0.00109877
-0.00111532
-0.00113498
-0.00115889
-0.00118844
-0.0165869
-0.0166708
-0.0167581
-0.0168482
-0.0169413
-0.0170377
-0.0171382
-0.0172455
-0.0166106
-0.0166953
-0.0167838
-0.0168751
-0.0169697
-0.0170677
-0.0171699
-0.0172778
-0.0173892
-0.0166333
-0.0167195
-0.0168094
-0.0169022
-0.0169981
-0.0170976
-0.0172012
-0.0173093
-0.017424
-0.0165675
-0.0166547
-0.0167431
-0.0168345
-0.0169288
-0.0170263
-0.0171273
-0.0172323
-0.0173418
-0.0174574
-0.0165872
-0.0166754
-0.0167659
-0.016859
-0.0169548
-0.0170539
-0.0171564
-0.0172629
-0.0173737
-0.0174903
-0.0166065
-0.0166962
-0.0167879
-0.0168826
-0.01698
-0.0170807
-0.0171849
-0.0172929
-0.017405
-0.0175226
-0.0167138
-0.0168087
-0.0169051
-0.0170042
-0.0171065
-0.0172123
-0.0173218
-0.017436
-0.0175538
-0.0167326
-0.0168294
-0.0169269
-0.0170264
-0.0171312
-0.0172386
-0.0173496
-0.0174652
-0.0170473
-0.017154
-0.0172635
-0.0173759
-0.0174925
-0.00662307
-0.00667767
-0.00673527
-0.00679626
-0.00686122
-0.0069308
-0.0070061
-0.00708978
-0.00660567
-0.0066523
-0.00670178
-0.00675457
-0.0068115
-0.00687321
-0.00694051
-0.00701573
-0.00709788
-0.00659228
-0.00663112
-0.00667257
-0.00671704
-0.00676533
-0.00681823
-0.00687667
-0.00694192
-0.00701663
-0.0065537
-0.00658363
-0.00661466
-0.0066478
-0.00668369
-0.00672312
-0.00676694
-0.00681616
-0.00687206
-0.00693723
-0.00655847
-0.00658031
-0.0066032
-0.00662777
-0.00665483
-0.00668517
-0.00671963
-0.00675923
-0.00680531
-0.00686034
-0.00657014
-0.0065842
-0.00659704
-0.00661278
-0.00663078
-0.00665179
-0.00667656
-0.00670614
-0.00674193
-0.00678632
-0.00659035
-0.00659643
-0.00660309
-0.00661183
-0.00662328
-0.00663806
-0.00665718
-0.00668276
-0.00671549
-0.00660533
-0.0066029
-0.00659924
-0.00659739
-0.00659998
-0.00660443
-0.00661261
-0.00662676
-0.00658936
-0.00658166
-0.00657589
-0.00657279
-0.00657532
-0.00962415
-0.00974783
-0.00987579
-0.0100083
-0.0101452
-0.0102866
-0.0104328
-0.0105854
-0.00952703
-0.00964254
-0.00976312
-0.00988841
-0.0100187
-0.0101542
-0.0102949
-0.0104402
-0.0105893
-0.00942098
-0.00952831
-0.00964127
-0.00975919
-0.00988227
-0.0100107
-0.0101444
-0.0102832
-0.0104279
-0.00921046
-0.00930579
-0.00940458
-0.00950936
-0.00961932
-0.00973458
-0.0098553
-0.00998155
-0.0101133
-0.0102512
-0.00909415
-0.00918037
-0.00927115
-0.00936723
-0.00946863
-0.00957544
-0.00968786
-0.00980601
-0.00992994
-0.0100604
-0.00897202
-0.00904769
-0.00912787
-0.00921473
-0.00930699
-0.00940472
-0.00950815
-0.00961754
-0.00973298
-0.00985524
-0.00890165
-0.0089746
-0.00905173
-0.00913427
-0.00922226
-0.00931602
-0.0094159
-0.00952364
-0.0096359
-0.00875143
-0.00881466
-0.00888037
-0.00895044
-0.00902795
-0.00911127
-0.00920093
-0.00929793
-0.00875441
-0.0088225
-0.00889459
-0.00897345
-0.00905886
0
0
0
0
0
0
0
0
0
0
0
0
0
0
0
0
0
0
0
0
0
0
0
0
0
0
0
0
0
0
0
0
0
0
0
0
0
0
0
0
0
0
0
0
0
0
0
0
0
0
0
0
0
0
0
0
0
0
0
0
0
0
0
0
0
0
0
0
0
0
0
0
0
0
0
0
0
0
-0.00230763
-0.00240145
-0.00249939
-0.00260238
-0.00271072
-0.00282481
-0.00294544
-0.00307477
-0.00220167
-0.00228166
-0.00236589
-0.0024551
-0.00255015
-0.00265155
-0.0027596
-0.00287535
-0.00299831
-0.00209355
-0.00215942
-0.00222976
-0.00230501
-0.0023859
-0.00247305
-0.00256703
-0.00266857
-0.00277958
-0.00193604
-0.00198399
-0.00203485
-0.00209065
-0.00215127
-0.0022174
-0.00228971
-0.00236894
-0.00245598
-0.00255279
-0.0018384
-0.00187162
-0.00190811
-0.00194874
-0.00199412
-0.00204487
-0.00210169
-0.00216544
-0.00223714
-0.00231877
-0.00174296
-0.0017605
-0.00177931
-0.00180421
-0.00183376
-0.0018685
-0.00190914
-0.00195663
-0.00201215
-0.00207767
-0.0016431
-0.00164862
-0.00165722
-0.00167037
-0.00168848
-0.00171221
-0.00174263
-0.00178244
-0.00183025
-0.00152957
-0.00151932
-0.00150966
-0.00150388
-0.00150502
-0.00151104
-0.00152353
-0.00154466
-0.00133449
-0.00131892
-0.00130697
-0.00130098
-0.0013027
0
0
0
0
0
0
0
0
0
0
0
0
0
0
0
0
0
0
0
0
0
0
0
0
0
0
0
0
0
0
0
0
0
0
0
0
0
0
0
0
0
0
0
0
0
0
0
0
0
0
0
0
0
0
0
0
0
0
0
0
0
0
0
0
0
0
0
0
0
0
0
0
0
0
0
0
0
0
-0.0166983
-0.0167908
-0.0168889
-0.0169925
-0.0171021
-0.0172183
-0.0173425
-0.0174783
-0.016715
-0.0168065
-0.0169037
-0.0170062
-0.0171146
-0.0172297
-0.0173527
-0.0174862
-0.0176276
-0.0167312
-0.0168223
-0.0169187
-0.0170202
-0.0171275
-0.0172415
-0.0173631
-0.0174935
-0.0176353
-0.0166596
-0.0167471
-0.0168379
-0.0169336
-0.0170342
-0.0171405
-0.0172533
-0.0173735
-0.0175021
-0.0176416
-0.016675
-0.0167621
-0.0168531
-0.0169481
-0.017048
-0.0171533
-0.017265
-0.0173838
-0.0175106
-0.0176477
-0.0166911
-0.0167778
-0.0168677
-0.0169622
-0.0170613
-0.0171657
-0.0172763
-0.0173937
-0.0175187
-0.0176534
-0.0167902
-0.0168815
-0.0169755
-0.0170739
-0.0171775
-0.017287
-0.017403
-0.0175273
-0.0176583
-0.0168045
-0.0168959
-0.0169888
-0.0170843
-0.0171883
-0.0172969
-0.0174115
-0.0175337
-0.0170942
-0.0171984
-0.0173062
-0.0174195
-0.0175387
-0.00617814
-0.00624413
-0.00631518
-0.00639285
-0.00647801
-0.00657163
-0.0066754
-0.00679239
-0.00612356
-0.00617713
-0.00623552
-0.00630005
-0.00637192
-0.0064522
-0.00654223
-0.00664534
-0.00676035
-0.00607482
-0.00611575
-0.00616102
-0.00621192
-0.00626969
-0.00633559
-0.00641113
-0.00649823
-0.00660026
-0.00600968
-0.0060334
-0.00606034
-0.00609197
-0.00612878
-0.00617203
-0.00622307
-0.0062835
-0.00635522
-0.00644169
-0.00598618
-0.00599733
-0.00601135
-0.00602887
-0.00605114
-0.00607941
-0.00611507
-0.00615972
-0.00621529
-0.00628515
-0.00597294
-0.0059713
-0.00596917
-0.00597216
-0.00597944
-0.00599229
-0.00601202
-0.0060402
-0.00607881
-0.00613111
-0.0059484
-0.00593426
-0.00592226
-0.00591414
-0.00591112
-0.00591437
-0.00592534
-0.00594729
-0.00598062
-0.0059369
-0.00590875
-0.00588015
-0.00585461
-0.0058364
-0.00582255
-0.00581554
-0.00581826
-0.00580316
-0.00576856
-0.00573797
-0.00571269
-0.0056954
-0.0112386
-0.0113826
-0.011532
-0.0116876
-0.0118496
-0.0120178
-0.0121925
-0.0123751
-0.0111144
-0.0112465
-0.0113852
-0.0115298
-0.0116809
-0.0118389
-0.0120037
-0.0121753
-0.0123518
-0.0109789
-0.0110985
-0.0112253
-0.0113583
-0.011498
-0.0116446
-0.0117981
-0.0119586
-0.0121264
-0.0107298
-0.0108315
-0.0109374
-0.0110515
-0.0111721
-0.0112995
-0.0114339
-0.0115756
-0.0117244
-0.0118813
-0.0105807
-0.0106689
-0.010763
-0.0108637
-0.010971
-0.0110853
-0.0112067
-0.0113355
-0.0114719
-0.0116167
-0.0104236
-0.0104965
-0.010575
-0.0106616
-0.0107548
-0.010855
-0.0109625
-0.0110776
-0.0112005
-0.0113321
-0.0103069
-0.0103732
-0.0104449
-0.0105232
-0.0106084
-0.010701
-0.0108014
-0.0109121
-0.011028
-0.0101101
-0.0101618
-0.0102169
-0.0102763
-0.0103453
-0.010422
-0.0105066
-0.0106004
-0.0100125
-0.0100684
-0.0101279
-0.0101955
-0.0102705
-0.00837282
-0.00838136
-0.00838076
-0.00837026
-0.00835067
-0.0083218
-0.00828148
-0.0082258
-0.0085127
-0.00853252
-0.00854539
-0.00854954
-0.00854414
-0.00852855
-0.00850186
-0.00846156
-0.00840737
-0.00865125
-0.00868423
-0.0087108
-0.00872924
-0.00873865
-0.00873814
-0.00872662
-0.0087027
-0.00866334
-0.00878677
-0.00883494
-0.00887574
-0.00890892
-0.00893352
-0.00894853
-0.00895274
-0.0089448
-0.00892179
-0.00892212
-0.00898437
-0.00903983
-0.00908816
-0.00912838
-0.00915937
-0.00917988
-0.00918856
-0.00918268
-0.00905528
-0.00913218
-0.00920268
-0.00926657
-0.00932283
-0.00937028
-0.00940762
-0.00943352
-0.00944559
-0.00918633
-0.00927798
-0.00936387
-0.00944371
-0.00951647
-0.00958085
-0.00963552
-0.00967881
-0.00971035
-0.00931468
-0.00942162
-0.00952375
-0.00962043
-0.00970884
-0.0097906
-0.00986306
-0.00992429
-0.00979433
-0.00990036
-0.0100007
-0.0100912
-0.0101715
0
0
0
0
0
0
0
0
0
0
0
0
0
0
0
0
0
0
0
0
0
0
0
0
0
0
0
0
0
0
0
0
0
0
0
0
0
0
0
0
0
0
0
0
0
0
0
0
0
0
0
0.000141378
7.38894e-05
0
0
0
0
0
0.000129519
3.96748e-05
-4.67804e-05
-0.00013063
0
0
0
0.000182761
7.35598e-05
-3.38723e-05
-0.000138818
-0.000241072
4.58876e-05
-7.70556e-05
-0.000200663
-0.00032246
-0.000441332
SCALARS F_FT double 1
LOOKUP_TABLE default
0
0
0
0
0
0
0
0
0
0
0
0
0
0
0
0
0
0
0
0
0
0
0
0
0
0
0
0
0
0
0
0
0
0
0
0
0
0
0
0
0
0
0
0
0
0
0
0
0
0
0
0
0
0
0
0
0
0
0
0
0
0
0
0
0
0
0
0
0
0
0
0
0
0
0
0.000376813
0.000374659
0.000372087
0.000369097
0.000365623
0.000361616
0.000357062
0.00035197
0.000381208
0.000378614
0.000375529
0.000371937
0.0003679
0.000363424
0.000358424
0.000352771
0.00034643
0.000385261
0.00038218
0.000378635
0.000374585
0.00037006
0.000365046
0.000359476
0.000353261
0.000346355
0.000388832
0.000385265
0.000381264
0.000376766
0.000371772
0.000366258
0.000360161
0.000353405
0.000345971
0.000391842
0.000387829
0.00038338
0.00037844
0.000373
0.000367023
0.00036044
0.000353179
0.000345245
0.000394292
0.000389837
0.000384945
0.000379572
0.000373709
0.000367304
0.000360278
0.000352551
0.000344148
0.000396138
0.000391253
0.000385923
0.000380128
0.000373864
0.000367068
0.000359641
0.000351559
0.000342701
0.000397421
0.000392166
0.000386447
0.000380173
0.000373433
0.000366282
0.000358497
0.00034995
0.000379573
0.000372806
0.000365278
0.000356949
0.000347962
0
0
0
0
0
0
0
0
0
0
0
0
0
0
0
0
0
0
0
0
0
0
0
0
0
0
0
0
0
0
0
0
0
0
0
0
0
0
0
0
0
0
0
0
0
0
0
0
0
0
0
0
0
0
0
0
0
0
0
0
0
0
0
0
0
0
0
0
0
0
0
0
0
0
0
0
0
0
0
0
0
0
0
0
0
0
0
0
0
0
0
0
0
0
0
0
0
0
0
0
0
0
0
0
0
0
0
0
0
0
0
0
0
0
0
0
0
0
0
0
0
0
0
0
0
0
0
0
0
0
0
0
0
0
0
0
0
0
0
0
0
0
0
0
0
0
0
0
0
0
0
0
0
0
0
0
0
0
0
0
0
0
0
0
0
0
0
0
0
0
0
0
0
0
0
0
0
0
0
0
0
0
0
0
0
0
0
0
0
0
0
0
0
0
0
0
0
0
0
0
0
0
0
0
0
0
0
0
0
0
0
0
0
0
0
0
0
0
0
0
0
0
0
0
0
0.000206103
0.000203523
0.000200745
0.000197779
0.000194595
0.000191175
0.000187532
0.000183714
0.000209376
0.000206592
0.000203547
0.000200252
0.000196758
0.000193074
0.000189173
0.000185027
0.000180623
0.0002127
0.000209674
0.000206384
0.000202837
0.000199064
0.000195073
0.000190844
0.000186352
0.000181616
0.000216028
0.000212745
0.000209211
0.000205412
0.000201369
0.000197084
0.00019254
0.000187719
0.000182648
0.000219319
0.000215794
0.000212019
0.00020797
0.000203665
0.0001991
0.000194255
0.000189112
0.000183711
0.000222566
0.000218813
0.000214796
0.000210501
0.000205942
0.000201111
0.000195979
0.000190526
0.000184799
0.000225767
0.000221793
0.000217534
0.000212994
0.000208191
0.000203108
0.000197705
0.000191983
0.000185925
0.000228947
0.000224781
0.000220305
0.000215486
0.000210403
0.000205084
0.000199425
0.000193385
0.000217946
0.000212801
0.000207209
0.000201175
0.000194818
0
0
0
0
0
0
0
0
0
0
0
0
0
0
0
0
0
0
0
0
0
0
0
0
0
0
0
0
0
0
0
0
0
0
0
0
0
0
0
0
0
0
0
0
0
0
0
0
0
0
0
0
0
0
0
0
0
0
0
0
0
0
0
0
0
0
0
0
0
0
0
0
0
0
0
0
0
0
0
0
0
0
0
0
0
0
0
0
0
0
0
0
0
0
0
0
0
0
0
0
0
0
0
0
0
0
0
0
0
0
0
0
0
0
0
0
0
0
0
0
0
0
0
0
0
0
0
0
0
0
0
0
0
0
0
0
0
0
0
0
0
0
0
0
0
0
0
0
0
0
0
0
0
0
0
0
0
0
0
0
0
0
0
0
0
0
0
0
0
0
0
0
0
0
0
0
0
0
0
0
0
0
0
0
0
0
0
0
0
0
0
0
0
0
0
0
0
0
0
0
0
0
0
0
0
0
0
0
0
0
0
0
0
0
0
0
0
0
0
0
0
0
0
0
0
0
0
0
0
0
0
0
0
0
0.000104094
0.000101982
9.98337e-05
9.76626e-05
9.54531e-05
9.31961e-05
9.09086e-05
8.86214e-05
0.000106289
0.000104165
0.000101963
9.97006e-05
9.73993e-05
9.50639e-05
9.26916e-05
9.02927e-05
8.78765e-05
0.000108686
0.000106516
0.00010426
0.000101931
9.95486e-05
9.71201e-05
9.46456e-05
9.21281e-05
8.95922e-05
0.000113358
0.000111265
0.000109051
0.000106741
0.000104346
0.000101884
9.93643e-05
9.67869e-05
9.41548e-05
9.14938e-05
0.000116161
0.000114024
0.000111783
0.00010942
0.000106959
0.00010442
0.000101811
9.91309e-05
9.63817e-05
9.35913e-05
0.00011913
0.000116989
0.000114726
0.00011231
0.000109784
0.00010717
0.000104475
0.000101694
9.88255e-05
9.5902e-05
0.000120238
0.000117895
0.000115426
0.000112835
0.00011015
0.000107373
0.000104492
0.000101513
9.84498e-05
0.000123665
0.000121296
0.000118801
0.000116142
0.000113375
0.000110521
0.000107543
0.000104439
0.00011974
0.000116986
0.000114033
0.000110891
0.000107642
0
0
0
0
0
0
0
0
0
0
0
0
0
0
0
0
0
0
0
0
0
0
0
0
0
0
0
0
0
0
0
0
0
0
0
0
0
0
0
0
0
0
0
0
0
0
0
0
0
0
0
0
0
0
0
0
0
0
0
0
0
0
0
0
0
0
0
0
0
0
0
0
0
0
0
0
0
0
0
0
0
0
0
0
0
0
0
0
0
0
0
0
0
0
0
0
0
0
0
0
0
0
0
0
0
0
0
0
0
0
0
0
0
0
0
0
0
0
0
0
0
0
0
0
0
0
0
0
0
0
0
0
0
0
0
0
0
0
0
0
0
0
0
0
0
0
0
0
0
0
0
0
0
0
0
0
0
0
0
0
0
0
0
0
0
0
0
0
0
0
0
0
0
0
0
0
0
0
0
0
0
0
0
0
0
0
0
0
0
0
0
0
0
0
0
0
0
0
0
0
0
0
0
0
0
0
0
0
0
0
0
0
0
0
0
0
0
0
0
0
0
0
0
0
0
0
0
0
0
0
0
0
0
0
7.00475e-05
6.87868e-05
6.75651e-05
6.639e-05
6.52467e-05
6.41277e-05
6.30392e-05
6.19838e-05
7.13797e-05
7.02163e-05
6.90711e-05
6.7951e-05
6.68567e-05
6.57861e-05
6.47396e-05
6.37086e-05
6.27055e-05
7.28606e-05
7.17783e-05
7.07023e-05
6.96429e-05
6.86043e-05
6.75871e-05
6.65896e-05
6.56082e-05
6.46369e-05
7.55147e-05
7.45117e-05
7.34975e-05
7.24931e-05
7.14962e-05
7.05142e-05
6.95494e-05
6.85994e-05
6.76584e-05
6.67197e-05
7.72251e-05
7.63159e-05
7.54011e-05
7.44712e-05
7.35386e-05
7.26144e-05
7.17027e-05
7.07999e-05
6.98981e-05
6.89914e-05
7.91188e-05
7.83163e-05
7.75197e-05
7.66669e-05
7.58007e-05
7.49365e-05
7.40798e-05
7.32253e-05
7.23624e-05
7.14871e-05
8.06341e-05
7.98866e-05
7.91138e-05
7.83163e-05
7.75151e-05
7.67172e-05
7.59132e-05
7.50923e-05
7.42497e-05
8.31545e-05
8.24956e-05
8.18366e-05
8.11264e-05
8.0388e-05
7.96545e-05
7.89049e-05
7.81269e-05
8.42911e-05
8.36641e-05
8.29966e-05
8.2272e-05
8.15146e-05
0
0
0
0
0
0
0
0
0
0
0
0
0
0
0
0
0
0
0
0
0
0
0
0
0
0
0
0
0
0
0
0
0
0
0
0
0
0
0
0
0
0
0
0
0
0
0
0
0
0
0
0
0
0
0
0
0
0
0
0
0
0
0
0
0
0
0
0
0
0
0
0
0
0
0
0
0
0
0
0
0
0
0
0
0
0
0
0
0
0
0
0
0
0
0
0
0
0
0
0
0
0
0
0
0
0
0
0
0
0
0
0
0
0
0
0
0
0
0
0
0
0
0
0
0
0
0
0
0
0
0
0
0
0
0
0
0
0
0
0
0
0
0
0
0
0
0
0
0
0
0
0
0
0
0
0
0
0
0
0
0
0
0
0
0
0
0
0
0
0
0
0
0
0
0
0
0
0
0
0
0
0
0
0
0
0
0
0
0
0
0
0
0
0
0
0
0
0
0
0
0
0
0
0
0
0
0
0
0
0
0
0
0
0
0
0
0
0
0
0
0
0
0
0
0
0
0
0
0
0
0
0
0
0
8.0492e-05
8.09991e-05
8.15888e-05
8.22473e-05
8.2952e-05
8.36857e-05
8.442e-05
8.51134e-05
8.05574e-05
8.12621e-05
8.20643e-05
8.29315e-05
8.38398e-05
8.47754e-05
8.57176e-05
8.65787e-05
8.73451e-05
8.04938e-05
8.14017e-05
8.24094e-05
8.34899e-05
8.46209e-05
8.57836e-05
8.69503e-05
8.80704e-05
8.90629e-05
7.92884e-05
8.0318e-05
8.14303e-05
8.26527e-05
8.39523e-05
8.53094e-05
8.67037e-05
8.81043e-05
8.94603e-05
9.0693e-05
7.87902e-05
8.00377e-05
8.13884e-05
8.28353e-05
8.43608e-05
8.59494e-05
8.75824e-05
8.92279e-05
9.08338e-05
9.23242e-05
7.8244e-05
7.96922e-05
8.13257e-05
8.30073e-05
8.47669e-05
8.65942e-05
8.84756e-05
9.03792e-05
9.22502e-05
9.40155e-05
7.9463e-05
8.1301e-05
8.3229e-05
8.52314e-05
8.73067e-05
8.94492e-05
9.16269e-05
9.37873e-05
9.58378e-05
7.92802e-05
8.13568e-05
8.35718e-05
8.58411e-05
8.81592e-05
9.05797e-05
9.30517e-05
9.55122e-05
8.66422e-05
8.92654e-05
9.19753e-05
9.47549e-05
9.75125e-05
0
0
0
0
0
0
0
0
0
0
0
0
0
0
0
0
0
0
0
0
0
0
0
0
0
0
0
0
0
0
0
0
0
0
0
0
0
0
0
0
0
0
0
0
0
0
0
0
0
0
0
0
0
0
0
0
0
0
0
0
0
0
0
0
0
0
0
0
0
0
0
0
0
0
0
0
0
0
0
0
0
0
0
0
0
0
0
0
0
0
0
0
0
0
0
0
0
0
0
0
0
0
0
0
0
0
0
0
0
0
0
0
0
0
0
0
0
0
0
0
0
0
0
0
0
0
0
0
0
0
0
0
0
0
0
0
0
0
0
0
0
0
0
0
0
0
0
0
0
0
0
0
0
0
0
0
0
0
0
0
0
0
0
0
0
0
0
0
0
0
0
0
0
0
0
0
0
0
0
0
0
0
0
0
0
0
0
0
0
0
0
0
0
0
0
0
0
0
0
0
0
0
0
0
0
0
0
0
0
0
0
0
0
0
0
0
0
0
0
0
0
0
0
0
0
0
0
0
0
0
0
0
0
0
0
0
0
0
0
0
0
0
0
0
0
0
0
0
0
0
0
0
0
0
0
0
0
0
0
0
0
0
0
0
0
0
0
0
0
0
0
0
0
0
0
0
0
0
0
0
0
0
0
0
0
0
0
0
0
0
0
0
0
0
0
0
0
0
0
0
0
0
0
0
0
0
0
0
0
0
0
0
0
0
0
0
0
0
0
0
0
0
0
0
0
0
0
0
0
0
0
0
0
0
0
0
0
0
0
0
0
0
0
0
0
0
0
0
0
0
0
0
0
0
0
0
0
0
0
0
0
0
0
0
0
0
0
0
0
0
0
0
0
0
0
0
0
0
0
0
0
0
0
0
0
0
0
0
0
0
0.000157661
0.000160747
0.000163926
0.000167139
0.000170332
0.000173453
0.000176415
0.000179121
0.000156395
0.000159735
0.000163224
0.000166754
0.000170271
0.000173734
0.000177068
0.000180047
0.000182621
0.000154458
0.000158073
0.000161874
0.00016575
0.000169639
0.000173483
0.000177196
0.000180639
0.000183618
0.000147969
0.000151804
0.000155751
0.000159884
0.000164118
0.000168391
0.000172636
0.000176761
0.000180632
0.000184067
0.000144407
0.000148514
0.000152815
0.0001573
0.000161909
0.00016658
0.000171248
0.00017582
0.000180164
0.000184106
0.000140261
0.000144602
0.000149327
0.000154187
0.000159188
0.000164278
0.000169395
0.000174453
0.000179316
0.000183816
0.000140302
0.00014537
0.000150629
0.000156045
0.000161574
0.000167173
0.000172759
0.000178225
0.000183292
0.000135647
0.000141094
0.000146812
0.000152639
0.000158579
0.000164699
0.000170866
0.000176942
0.000148968
0.00015551
0.000162129
0.000168904
0.000175608
0
0
0
0
0
0
0
0
0
0
0
0
0
0
0
0
0
0
0
0
0
0
0
0
0
0
0
0
0
0
0
0
0
0
0
0
0
0
0
0
0
0
0
0
0
0
0
0
0
0
0
0
0
0
0
0
0
0
0
0
0
0
0
0
0
0
0
0
0
0
0
0
0
0
0
0
0
0
0
0
0
0
0
0
0
0
0
0
0
0
0
0
0
0
0
0
0
0
0
0
0
0
0
0
0
0
0
0
0
0
0
0
0
0
0
0
0
0
0
0
0
0
0
0
0
0
0
0
0
0
0
0
0
0
0
0
0
0
0
0
0
0
0
0
0
0
0
0
0
0
0
0
0
0
0
0
0
0
0
0
0
0
0
0
0
0
0
0
0
0
0
0
0
0
0
0
0
0
0
0
0
0
0
0
0
0
0
0
0
0
0
0
0
0
0
0
0
0
0
0
0
0
0
0
0
0
0
0
0
0
0
0
0
0
0
0
0
0
0
0
0
0
0
0
0
0
0
0
0
0
0
0
0
0
0
0
0
0
0
0
0
0
0
0
0
0
0
0
0
0
0
0
0
0
0
0
0
0
0
0
0
0
0
0
0
0
0
0
0
0
0
0
0
0
0
0
0
0
0
0
0
0
0
0
0
0
0
0
0
0
0
0
0
0
0
0
0
0
0
0
0
0
0
0
0
0
SCALARS F_FC double 1
LOOKUP_TABLE default
0.000892243
0.000892406
0.000890753
0.000887112
0.000881419
0.000873527
0.000863115
0.000849669
0.000917522
0.000919388
0.000919626
0.000917945
0.000914211
0.000908259
0.000899822
0.000888364
0.000873885
0.000942403
0.000946243
0.000948533
0.000948986
0.000947426
0.000943638
0.000937332
0.000928171
0.000915629
0.000966579
0.000972679
0.000977157
0.000979877
0.000980632
0.000979175
0.000975198
0.00096836
0.000958139
0.000990274
0.000998593
0.00100538
0.00101049
0.00101371
0.00101476
0.00101331
0.00100901
0.00100135
0.00101322
0.00102387
0.00103307
0.0010407
0.00104652
0.00105025
0.00105152
0.00104998
0.00104515
0.00103534
0.0010484
0.00106011
0.00107037
0.00107895
0.00108552
0.00108971
0.00109114
0.0010895
0.00105654
0.00107214
0.00108659
0.00109963
0.00111083
0.00112041
0.00112769
0.00113216
0.00112798
0.00114259
0.00115541
0.00116571
0.00117347
0
0
0
0
0
0
0
0
0
0
0
0
0
0
0
0
0
0
0
0
0
0
0
0
0
0
0
0
0
0
0
0
0
0
0
0
0
0
0
0
0
0
0
0
0
0
0
0
0
0
0
0
0
0
0
0
0
0
0
0
0
0
0
0
0
0
0
0
0
0
0
0
0
0
0
0
0
0
0
0
0
0
0
0
0
0
0
0
0
0
0
0
0
0
0
0
0
0
0
0
0
0
0
0
0
0
0
0
0
0
0
0
0
0
0
0
0
0
0
0
0
0
0
0
0
0
0
0
0
0
0
0
0
0
0
0
0
0
0
0
0
0
0
0
0
0
0
0
0
0
0.000705767
0.000706408
0.00070584
0.000703925
0.000700699
0.000696116
0.000689967
0.000681954
0.000724002
0.000725642
0.000726236
0.000725536
0.000723488
0.000720032
0.000715038
0.000708295
0.000699536
0.000742311
0.000745093
0.000746927
0.000747521
0.000746787
0.00074463
0.000740902
0.000735419
0.000727887
0.000760336
0.000764555
0.000767713
0.00076968
0.000770349
0.000769591
0.000767248
0.000763135
0.000756973
0.000778397
0.00078398
0.000788539
0.000791959
0.000794119
0.000794867
0.000794025
0.000791409
0.000786759
0.000796297
0.000803316
0.000809347
0.000814299
0.000818041
0.0008204
0.000821177
0.000820181
0.000817195
0.000814012
0.000822509
0.000830076
0.000836638
0.000842055
0.000846132
0.000848643
0.000849393
0.000848267
0.000831515
0.000841635
0.000850871
0.000859104
0.000866097
0.000871996
0.000876351
0.000878898
0.000881341
0.000890435
0.000898308
0.000904454
0.000908943
8.32066e-05
8.60928e-05
8.90988e-05
9.22095e-05
9.54434e-05
9.87972e-05
0.000102232
0.000105691
8.18782e-05
8.50348e-05
8.83753e-05
9.1889e-05
9.55344e-05
9.92788e-05
0.000103117
0.000107059
0.000111099
8.06524e-05
8.41141e-05
8.77794e-05
9.16389e-05
9.56666e-05
9.98414e-05
0.000104158
0.000108618
0.000113183
7.9551e-05
8.33441e-05
8.73407e-05
9.15548e-05
9.59713e-05
0.000100579
0.000105378
0.000110366
0.000115481
7.86052e-05
8.2725e-05
8.70601e-05
9.16382e-05
9.64512e-05
0.000101499
0.000106786
0.000112315
0.000118008
7.78213e-05
8.22569e-05
8.69391e-05
9.18913e-05
9.71101e-05
0.000102604
0.000108389
0.000114474
0.000120778
7.71902e-05
8.19395e-05
8.69793e-05
9.23173e-05
9.7952e-05
0.000103902
0.000110196
0.000116812
0.000123791
7.66721e-05
8.17252e-05
8.71163e-05
9.29055e-05
9.89821e-05
0.000105398
0.000112214
0.000119452
9.36389e-05
0.000100008
0.000106972
0.000114422
0.000122325
0
0
0
0
0
0
0
0
0
0
0
0
0
0
0
0
0
0
0
0
0
0
0
0
0
0
0
0
0
0
0
0
0
0
0
0
0
0
0
0
0
0
0
0
0
0
0
0
0
0
0
0
0
0
0
0
0
0
0
0
0
0
0
0
0
0
0
0
0
0
0
0
0
0
0
0.00269441
0.00270923
0.00272324
0.00273612
0.0027477
0.0027577
0.00276575
0.00277167
0.00270675
0.00272329
0.00273919
0.00275411
0.00276786
0.00278012
0.00279053
0.00279884
0.00280447
0.00271898
0.00273733
0.00275521
0.00277219
0.00278809
0.00280263
0.00281546
0.00282623
0.00283457
0.00270945
0.00273086
0.00275129
0.00277118
0.00279026
0.00280835
0.00282521
0.00284052
0.00285392
0.00286488
0.00271957
0.00274255
0.00276512
0.00278704
0.00280825
0.00282858
0.00284782
0.00286565
0.00288172
0.00289545
0.00272944
0.00275425
0.00277877
0.00280275
0.00282611
0.00284871
0.00287036
0.00289077
0.00290956
0.0029262
0.00276575
0.00279219
0.00281825
0.00284378
0.00286868
0.00289279
0.00291581
0.00293733
0.00295711
0.00277691
0.00280532
0.00283344
0.0028614
0.00288844
0.00291502
0.00294069
0.00296507
0.00287849
0.00290773
0.00293721
0.00296547
0.0029928
0.00054647
0.000547558
0.000547982
0.00054763
0.000546565
0.00054479
0.000542213
0.000538758
0.000559015
0.000560549
0.000561515
0.000561741
0.000561229
0.00055997
0.00055792
0.000555106
0.000551205
0.000571893
0.000573973
0.000575531
0.000576371
0.000576474
0.000575813
0.000574339
0.000571994
0.000568717
0.000581263
0.000584845
0.000587748
0.000589944
0.000591441
0.000592207
0.000592198
0.000591359
0.000589635
0.000586966
0.000594222
0.000598346
0.000601869
0.000604745
0.000606945
0.000608424
0.000609123
0.000608977
0.000607933
0.000605939
0.00060726
0.00061214
0.000616329
0.000619927
0.000622873
0.000625118
0.000626583
0.00062719
0.000626884
0.000625643
0.000626162
0.000631121
0.000635478
0.000639219
0.000642285
0.000644575
0.000645992
0.000646474
0.000646053
0.000640528
0.000646333
0.000651502
0.000656055
0.000659918
0.000663094
0.000665377
0.000666719
0.000673258
0.000678148
0.000682268
0.000685363
0.000687638
0.000210003
0.000216173
0.000222619
0.000229312
0.000236265
0.000243477
0.000250909
0.000258536
0.000206567
0.000212914
0.000219622
0.000226657
0.000233973
0.000241541
0.000249353
0.00025739
0.000265622
0.000202987
0.000209561
0.000216517
0.000223826
0.000231456
0.000239389
0.000247616
0.000256127
0.000264875
0.000192861
0.000199329
0.000206113
0.00021331
0.000220883
0.000228813
0.000237092
0.000245716
0.000254676
0.000263897
0.000188904
0.000195556
0.000202568
0.000209997
0.000217825
0.000226042
0.000234648
0.000243651
0.000253044
0.00026274
0.000184942
0.000191725
0.000198926
0.000206578
0.000214651
0.000223139
0.000232055
0.000241418
0.00025123
0.000261401
0.000187746
0.000195186
0.000203054
0.000211361
0.000220105
0.000229311
0.000239017
0.000249211
0.000259872
0.00018374
0.000191328
0.000199364
0.000207942
0.00021694
0.000226418
0.000236446
0.00024705
0.000204344
0.000213416
0.000223235
0.000233682
0.000244701
0
0
0
0
0
0
0
0
0
0
0
0
0
0
0
0
0
0
0
0
0
0
0
0
0
0
0
0
0
0
0
0
0
0
0
0
0
0
0
0
0
0
0
0
0
0
0
0
0
0
0
0
0
0
0
0
0
0
0
0
0
0
0
0
0
0
0
0
0
0
0
0
0
0
0
0
0
0
0.00269643
0.00271389
0.00273133
0.0027484
0.00276503
0.0027811
0.00279644
0.00281137
0.00270992
0.00272893
0.00274808
0.00276695
0.00278546
0.00280346
0.0028208
0.00283759
0.00285307
0.0027233
0.00274397
0.00276491
0.00278562
0.00280603
0.00282602
0.00284542
0.0028641
0.0028821
0.00271311
0.00273632
0.00275895
0.00278172
0.00280433
0.0028267
0.00284873
0.00287026
0.00289113
0.00291125
0.00272447
0.00274913
0.0027738
0.00279845
0.002823
0.00284739
0.00287152
0.00289522
0.00291835
0.00294072
0.00273553
0.00276193
0.00278848
0.00281504
0.00284157
0.00286803
0.0028943
0.00292025
0.00294569
0.00297046
0.00277446
0.00280291
0.00283143
0.00285999
0.00288855
0.00291702
0.00294526
0.00297311
0.00300035
0.00278673
0.00281707
0.00284753
0.00287823
0.00290888
0.0029396
0.00297017
0.00300056
0.00289605
0.00292885
0.00296214
0.002995
0.00302788
0.00269687
0.00271504
0.00273337
0.00275152
0.00276945
0.00278706
0.00280427
0.00282147
0.00271064
0.00273031
0.0027503
0.00277019
0.00278992
0.00280939
0.00282851
0.00284745
0.00286546
0.00272428
0.00274559
0.00276731
0.00278899
0.00281056
0.00283194
0.00285304
0.00287374
0.0028942
0.00271391
0.00273757
0.0027608
0.00278431
0.00280783
0.00283131
0.00285466
0.00287779
0.00290059
0.00292305
0.00272556
0.00275065
0.0027759
0.00280124
0.00282666
0.00285209
0.00287748
0.0029027
0.00292765
0.00295224
0.0027369
0.00276371
0.00279081
0.00281804
0.00284539
0.00287283
0.0029003
0.00292768
0.00295484
0.00298171
0.00277648
0.00280548
0.00283463
0.00286396
0.00289346
0.00292307
0.00295266
0.00298215
0.00301132
0.00278903
0.00281988
0.00285094
0.00288233
0.00291391
0.00294571
0.00297756
0.00300949
0.0029003
0.00293401
0.0029683
0.00300237
0.00303667
0
0
0
0
0
0
0
0
0
0
0
0
0
0
0
0
0
0
0
0
0
0
0
0
0
0
0
0
0
0
0
0
0
0
0
0
0
0
0
0
0
0
0
0
0
0
0
0
0
0
0
0
0
0
0
0
0
0
0
0
0
0
0
0
0
0
0
0
0
0
0
0
0
0
0
0
0
0
0
0
0
0
0
0
0
0
0
0
0
0
0
0
0
0
0
0
0
0
0
0
0
0
0
0
0
0
0
0
0
0
0
0
0
0
0
0
0
0
0
0
0
0
0
0
0
0
0
0
0
0
0
0
0
0
0
0
0
0
0
0
0
0
0
0
0
0
0
0
0
0
0
0
0
0
0
0
0.000446767
0.000458625
0.000471015
0.000483912
0.000497313
0.000511224
0.000525625
0.000540605
0.000439259
0.000450919
0.000463208
0.000476069
0.000489483
0.000503448
0.000517951
0.0005329
0.00054823
0.000431016
0.000442514
0.000454687
0.000467467
0.000480837
0.000494793
0.000509325
0.000524391
0.000539958
0.000411253
0.000422067
0.000433381
0.000445406
0.000458062
0.00047134
0.000485239
0.000499752
0.000514849
0.000530477
0.00040178
0.00041235
0.000423522
0.000435365
0.00044786
0.000460998
0.000474788
0.000489233
0.000504311
0.00051996
0.000391825
0.000402037
0.000412946
0.000424576
0.000436869
0.00044982
0.00046345
0.000477777
0.000492784
0.000508412
0.000390887
0.000401665
0.000413054
0.000425107
0.000437823
0.000451242
0.000465398
0.00048034
0.000495857
0.000379358
0.000389841
0.000400877
0.000412604
0.000425031
0.000438186
0.000452123
0.000466866
0.000399256
0.000411313
0.00042421
0.000437973
0.000452489
0.000320399
0.000322069
0.000323744
0.000325413
0.000327138
0.000328973
0.000330984
0.000333339
0.000325436
0.000326891
0.000328336
0.00032977
0.00033125
0.000332822
0.000334549
0.000336665
0.000339024
0.000331107
0.000332377
0.000333616
0.000334816
0.000336035
0.000337326
0.000338759
0.000340436
0.000342561
0.000336074
0.000337413
0.000338589
0.000339625
0.000340599
0.000341568
0.000342586
0.000343725
0.000345086
0.00034686
0.000343447
0.000344587
0.000345567
0.000346402
0.000347158
0.000347887
0.00034864
0.000349485
0.000350525
0.000351938
0.000351542
0.000352617
0.000353351
0.00035399
0.000354533
0.000355032
0.000355526
0.000356077
0.00035679
0.000357843
0.000361353
0.000361985
0.00036243
0.00036277
0.00036305
0.000363292
0.000363545
0.000363915
0.00036458
0.000371023
0.000371509
0.000371728
0.000371849
0.000371991
0.000371985
0.000371933
0.000371995
0.000381966
0.000381856
0.000381623
0.000381227
0.000380988
0.00269812
0.00271917
0.00274102
0.00276349
0.00278661
0.00281044
0.00283512
0.00286135
0.00271295
0.00273534
0.00275865
0.00278262
0.00280725
0.00283262
0.00285886
0.00288641
0.00291458
0.00272763
0.00275155
0.0027764
0.00280191
0.00282813
0.00285513
0.002883
0.00291185
0.00294215
0.00271658
0.00274202
0.0027677
0.00279416
0.0028213
0.00284918
0.00287787
0.00290744
0.00293797
0.00296981
0.00272936
0.00275624
0.00278374
0.00281188
0.00284071
0.00287032
0.00290077
0.0029321
0.00296438
0.00299786
0.00274185
0.00277033
0.0027996
0.00282948
0.00286006
0.00289146
0.00292373
0.0029569
0.00299099
0.00302624
0.00278403
0.00281522
0.00284688
0.00287928
0.00291252
0.00294668
0.00298175
0.00301786
0.00305475
0.00279764
0.00283058
0.00286403
0.00289811
0.00293343
0.00296955
0.00300658
0.00304473
0.0029167
0.00295403
0.00299232
0.00303132
0.00307137
0
0
0
0
0
0
0
0
0
0
0
0
0
0
0
0
0
0
0
0
0
0
0
0
0
0
0
0
0
0
0
0
0
0
0
0
0
0
0
0
0
0
0
0
0
0
0
0
0
0
0
0
0
0
0
0
0
0
0
0
0
0
0
0
0
0
0
0
0
0
0
0
0
0
0
0
0
0
0.000701808
0.000719595
0.000738175
0.000757554
0.000777721
0.00079868
0.000820431
0.000843148
0.000689968
0.000707058
0.000725058
0.000743886
0.000763564
0.00078412
0.000805532
0.000827637
0.000850325
0.000676678
0.00069308
0.000710464
0.00072872
0.000747857
0.000767887
0.000788791
0.000810495
0.000832974
0.000646878
0.000661902
0.000677598
0.000694308
0.000711919
0.000730433
0.00074986
0.000770185
0.000791352
0.00081334
0.000631353
0.000645574
0.000660622
0.000676601
0.000693498
0.000711313
0.000730057
0.000749728
0.000770282
0.0007917
0.000614755
0.000627978
0.000642172
0.000657371
0.000673489
0.000690527
0.000708512
0.000727452
0.000747314
0.000768082
0.000608702
0.000622284
0.000636656
0.000651934
0.000668122
0.00068527
0.000703404
0.000722663
0.000742571
0.000588631
0.000601376
0.000614771
0.000628938
0.00064416
0.000660395
0.000677655
0.00069598
0.000604345
0.000618767
0.000633995
0.000650356
0.00066766
0.000216636
0.000218401
0.00022038
0.000222629
0.000225222
0.00022824
0.000231809
0.00023615
0.000218575
0.000219895
0.000221381
0.000223109
0.000225159
0.000227606
0.00023056
0.000234298
0.000238787
0.000221239
0.000222127
0.000223128
0.000224328
0.00022581
0.00022766
0.000229994
0.000232969
0.000236856
0.000224338
0.000224728
0.000225171
0.000225683
0.000226354
0.000227272
0.000228527
0.000230234
0.000232546
0.000235716
0.000229131
0.000229101
0.000229077
0.000229091
0.000229231
0.000229585
0.000230243
0.000231315
0.000232951
0.000235383
0.000234861
0.000234479
0.000233897
0.000233402
0.000233007
0.000232796
0.000232851
0.000233277
0.000234219
0.000235901
0.000240675
0.000239687
0.000238672
0.000237735
0.000236956
0.0002364
0.000236162
0.000236393
0.000237298
0.000247951
0.000246474
0.00024488
0.00024337
0.000242124
0.000240945
0.000240018
0.000239527
0.000250194
0.000248281
0.000246524
0.000244892
0.00024367
0
0
0
0
0
0
0
0
0
0
0
0
0
0
0
0
0
0
0
0
0
0
0
0
0
0
0
0
0
0
0
0
0
0
0
0
0
0
0
0
0
0
0
0
0
0
0
0
0
0
0
0
0
0
0
0
0
0
0
0
0
0
0
0
0
0
0
0
0
0
0
0
0
0
0
0
0
0
0.00269771
0.0027212
0.00274613
0.00277245
0.00280027
0.00282981
0.00286145
0.00289607
0.00271374
0.00273841
0.00276464
0.00279222
0.00282127
0.00285204
0.00288486
0.00292041
0.00295806
0.0027296
0.00275571
0.00278328
0.0028122
0.0028426
0.00287471
0.00290881
0.00294521
0.00298459
0.00271836
0.00274524
0.00277297
0.00280199
0.00283233
0.00286416
0.00289769
0.00293315
0.00297081
0.00301128
0.00273242
0.00276072
0.00279013
0.00282068
0.00285253
0.00288587
0.00292089
0.0029578
0.0029968
0.00303844
0.00274617
0.00277603
0.00280712
0.00283928
0.00287272
0.00290764
0.00294424
0.00298267
0.00302309
0.003066
0.00279088
0.00282387
0.00285771
0.0028928
0.00292938
0.00296764
0.00300767
0.00304979
0.00309373
0.0028057
0.0028404
0.00287594
0.00291235
0.00295101
0.00299102
0.00303274
0.0030765
0.00293184
0.00297241
0.00301428
0.00305775
0.00310297
0
0
0
0
0
0
0
0
0
0
0
0
0
0
0
0
0
0
0
0
0
0
0
0
0
0
0
0
0
0
0
0
0
0
0
0
0
0
0
0
0
0
0
0
0
0
0
0
0
0
0
0
0
0
0
0
0
0
0
0
0
0
0
0
0
0
0
0
0
0
0
0
0
0
0
0
0
0
0
0
0
0
0
0
0
0
0
0
0
0
0
0
0
0
0
0
0
0
0
0
0
0
0
0
0
0
0
0
0
0
0
0
0
0
0
0
0
0
0
0
0
0
0
0
0
0
0
0
0
0
0
0
0
0
0
0
0
0
0
0
0
0
0
0
0
0
0
0
0
0
0
0
0
0
0
0
0.0010215
0.00104663
0.0010729
0.00110038
0.00112904
0.00115886
0.00118986
0.00122222
0.00100452
0.00102829
0.00105338
0.00107964
0.00110712
0.00113588
0.00116589
0.00119693
0.0012288
0.000985157
0.00100753
0.00103132
0.00105634
0.0010826
0.00111014
0.00113892
0.00116884
0.00119983
0.000943221
0.000963286
0.000984227
0.00100664
0.0010303
0.00105522
0.00108143
0.00110889
0.00113753
0.00116731
0.000920231
0.000938738
0.000958403
0.000979343
0.00100155
0.00102502
0.00104979
0.00107583
0.00110308
0.00113153
0.000895351
0.000912055
0.000930095
0.000949494
0.000970148
0.000992069
0.00101529
0.00103981
0.00106556
0.00109256
0.000882635
0.000899367
0.00091716
0.000936179
0.000956443
0.000978017
0.00100091
0.00102538
0.00105057
0.000851732
0.000866914
0.000882945
0.000899838
0.000918257
0.000938089
0.000959276
0.000981886
0.000860931
0.000878065
0.000895951
0.000915304
0.000935832
0.000130434
0.000132055
0.000133974
0.000136304
0.000139146
0.000142615
0.000146872
0.000152147
0.000130142
0.000131201
0.000132508
0.000134182
0.000136317
0.000139013
0.000142418
0.000146845
0.000152288
0.000130607
0.000131106
0.000131789
0.000132787
0.000134196
0.000136125
0.00013872
0.00014217
0.000146756
0.000132269
0.000131949
0.000131816
0.000131869
0.000132192
0.000132885
0.000134057
0.000135848
0.000138431
0.000142072
0.000134935
0.0001341
0.000133373
0.000132785
0.000132431
0.00013241
0.000132829
0.000133817
0.000135533
0.000138224
0.000138597
0.000137269
0.000135826
0.000134584
0.000133544
0.000132806
0.000132468
0.000132646
0.000133493
0.000135229
0.000141243
0.000139237
0.000137318
0.000135577
0.000134112
0.000133009
0.000132365
0.000132336
0.000133117
0.000146298
0.000143642
0.000140975
0.00013849
0.000136382
0.000134497
0.000133005
0.000132065
0.000142534
0.000139566
0.000136945
0.000134627
0.000132771
1.32063e-05
1.3944e-05
1.47051e-05
1.54865e-05
1.63005e-05
1.7147e-05
1.80061e-05
1.88461e-05
1.29843e-05
1.38919e-05
1.48553e-05
1.58797e-05
1.69451e-05
1.80339e-05
1.91434e-05
2.02819e-05
2.14555e-05
1.28813e-05
1.39813e-05
1.51512e-05
1.63989e-05
1.77129e-05
1.90818e-05
2.05028e-05
2.198e-05
2.34956e-05
1.29103e-05
1.42246e-05
1.56164e-05
1.71068e-05
1.86899e-05
2.03608e-05
2.2119e-05
2.39669e-05
2.58717e-05
1.31005e-05
1.46288e-05
1.62615e-05
1.80177e-05
1.98955e-05
2.18958e-05
2.40226e-05
2.62796e-05
2.86241e-05
1.34424e-05
1.52035e-05
1.71003e-05
1.91497e-05
2.13523e-05
2.37146e-05
2.62473e-05
2.89582e-05
3.18005e-05
1.3948e-05
1.59605e-05
1.81493e-05
2.05241e-05
2.30866e-05
2.5849e-05
2.88305e-05
3.20109e-05
3.5444e-05
1.46075e-05
1.68844e-05
1.93843e-05
2.21559e-05
2.51287e-05
2.83344e-05
3.18129e-05
3.55775e-05
2.40706e-05
2.73782e-05
3.11104e-05
3.52067e-05
3.96475e-05
0.00269378
0.00270635
0.0027173
0.00272637
0.00273332
0.00273771
0.00273898
0.00273649
0.00270486
0.00271932
0.00273233
0.00274368
0.00275309
0.00276007
0.00276405
0.00276448
0.00276097
0.00271581
0.00273224
0.00274741
0.00276103
0.00277283
0.00278237
0.00278914
0.00279261
0.00279204
0.00272646
0.00274505
0.0027624
0.00277832
0.00279254
0.00280469
0.00281428
0.0028208
0.00282336
0.00273694
0.00275772
0.00277724
0.00279547
0.00281215
0.00282694
0.0028394
0.00284901
0.00285482
0.00274738
0.00277019
0.00279191
0.00281245
0.0028316
0.00284906
0.00286442
0.00287716
0.00288637
0.00275766
0.00278245
0.00280636
0.00282922
0.00285084
0.00287099
0.00288928
0.00290502
0.00291806
0.00276759
0.00279438
0.00282046
0.00284599
0.00286982
0.00289266
0.00291389
0.00293279
0.00286215
0.00288821
0.00291427
0.00293836
0.00296067
SCALARS F_3 double 1
LOOKUP_TABLE default
0.000420476
0.000473444
0.000529927
0.000590546
0.000655162
0.000723502
0.000795856
0.000872242
0.000387498
0.000441571
0.000499714
0.000561856
0.000627493
0.000696761
0.000770464
0.000846928
0.000932328
0.000354163
0.000409994
0.000468334
0.000530606
0.000596618
0.000666682
0.000741485
0.000821645
0.000907214
0.000321221
0.000376799
0.000435101
0.000497329
0.000563604
0.000634343
0.000710084
0.000791264
0.000878942
0.000286715
0.000342077
0.000400126
0.000462131
0.000528491
0.000599693
0.000676144
0.000758146
0.000847459
0.000251469
0.000306041
0.000363551
0.0004251
0.000491313
0.000562719
0.000639627
0.000722219
0.000812663
0.000215762
0.000268971
0.000325537
0.00038636
0.000452154
0.000523455
0.000600534
0.000682147
0.00077137
0.000179044
0.000227678
0.000282138
0.00034415
0.000411166
0.000481939
0.000558849
0.000643912
0.00030704
0.000372359
0.000437399
0.000509624
0.000596871
0.00127314
0.00144847
0.00163177
0.00182413
0.00202574
0.00223611
0.00245479
0.00268185
0.00124878
0.00143218
0.00162324
0.00182267
0.00203072
0.00224764
0.00247353
0.00270564
0.00294974
0.00123237
0.00142365
0.00162082
0.00182575
0.00203901
0.00226129
0.00249313
0.00273467
0.00298559
0.00122656
0.00142201
0.00162414
0.00183372
0.00205165
0.00227893
0.0025163
0.00276404
0.0030223
0.00122868
0.001428
0.00163391
0.00184722
0.00206909
0.00230077
0.00254313
0.00279657
0.00306157
0.00124079
0.00144227
0.00165072
0.00186674
0.00209172
0.00232704
0.00257375
0.00283238
0.00310353
0.00126303
0.00146521
0.00167496
0.00189269
0.00211983
0.00235793
0.00260825
0.00286881
0.00314535
0.00129416
0.0014933
0.00170277
0.00192366
0.00215366
0.00239355
0.00264664
0.00291441
0.00196879
0.00219699
0.00243161
0.00268441
0.0029588
0
0
0
0
0
0
0
0
0
0
0
0
0
0
0
0
0
0
0
0
0
0
0
0
0
0
0
0
0
0
0
0
0
0
0
0
0
0
0
0
0
0
0
0
0
0
0
0
0
0
0
0
0
0
0
0
0
0
0
0
0
0
0
0
0
0
0
0
0
0
0
0
0
0
0
0.00192458
0.00220042
0.00248642
0.0027853
0.00309853
0.00342589
0.00376664
0.00412066
0.00190148
0.00218429
0.00247685
0.00278199
0.00310125
0.00343491
0.00378249
0.00414125
0.00451919
0.0018895
0.00217864
0.00247633
0.00278627
0.0031099
0.00344797
0.0038008
0.00416891
0.00455375
0.00189242
0.00218329
0.00248461
0.00279821
0.00312551
0.00346758
0.00382522
0.00419931
0.00459154
0.00190699
0.00219907
0.00250239
0.00281843
0.00314859
0.00349409
0.00385599
0.00423542
0.0046343
0.00193552
0.00222656
0.00253021
0.00284744
0.00317955
0.00352774
0.00389321
0.00427731
0.00468215
0.00197784
0.00226605
0.00256839
0.00288554
0.00321862
0.00356867
0.00393693
0.00432256
0.00473243
0.00203221
0.00231384
0.00261336
0.00293144
0.00326584
0.00361687
0.00398703
0.00437928
0.0029939
0.00332512
0.00367103
0.00404034
0.00443761
0.00228387
0.00260505
0.00293949
0.0032887
0.00365393
0.00403555
0.0044335
0.00484768
0.00224402
0.0025743
0.00291721
0.00327478
0.00364812
0.0040379
0.00444443
0.00486535
0.00530814
0.00221612
0.00255494
0.00290462
0.00326853
0.00364801
0.0040442
0.00445796
0.00489012
0.00534174
0.00220476
0.00254716
0.00290191
0.00327081
0.00365549
0.00405744
0.00447785
0.00491772
0.00537861
0.00220704
0.00255227
0.0029102
0.00328261
0.00367136
0.00407819
0.00450447
0.00495131
0.00542058
0.00222604
0.00257138
0.00293048
0.00330475
0.00369627
0.00410695
0.00453818
0.00499115
0.00546794
0.00226217
0.00260526
0.00296344
0.00333789
0.00373078
0.0041441
0.00457924
0.0050351
0.00551829
0.00231409
0.00265048
0.00300571
0.003381
0.00377525
0.0041899
0.00462777
0.00509132
0.00344364
0.00383477
0.00424401
0.00468099
0.00515018
0.00246022
0.00281547
0.00318422
0.00356857
0.00396997
0.00438826
0.00482262
0.00527226
0.0024396
0.00280708
0.00318694
0.00358186
0.00399356
0.00442245
0.00486791
0.00532666
0.00580646
0.00243345
0.00281236
0.00320181
0.0036057
0.00402579
0.0044631
0.00491792
0.00539056
0.00588193
0.00244621
0.00283135
0.00322857
0.00364006
0.00406766
0.00451284
0.0049765
0.00545938
0.0059627
0.00247424
0.00286487
0.00326792
0.00368551
0.00411958
0.00457189
0.00504375
0.00553624
0.0060508
0.00252015
0.00291342
0.00332033
0.00374244
0.0041818
0.00464034
0.00511964
0.00562105
0.00614622
0.00258348
0.00297714
0.00338597
0.00381104
0.00425442
0.00471815
0.005204
0.00571114
0.00624618
0.00266212
0.00305186
0.00346075
0.0038897
0.0043373
0.00480509
0.00529648
0.00581442
0.00398733
0.00443473
0.0049002
0.00539411
0.00592103
0.00257517
0.00295758
0.00335294
0.0037648
0.00419518
0.00464345
0.00510813
0.00558835
0.00257092
0.00296524
0.00337128
0.00379318
0.00423342
0.00469208
0.00516775
0.00565686
0.00616823
0.00258682
0.00298888
0.00340424
0.00383488
0.00428303
0.00474948
0.00523405
0.00573698
0.00625996
0.0022278
0.00262618
0.00302857
0.00345123
0.00388917
0.00434441
0.00481818
0.00531117
0.00582423
0.00635911
0.00227645
0.00267812
0.00308473
0.00351263
0.00395636
0.00441774
0.00489823
0.00539907
0.00592164
0.00646776
0.00234227
0.0027442
0.00315743
0.00358857
0.00403659
0.00450308
0.00498952
0.00549753
0.00602895
0.00658578
0.00283129
0.00324634
0.00367885
0.00412972
0.00460025
0.0050918
0.00560619
0.00614325
0.00671018
0.00293644
0.00334667
0.00377894
0.00423377
0.00470877
0.00520452
0.00572442
0.00627233
0.00435696
0.00483179
0.00532613
0.00584934
0.00640639
0.00279843
0.00320578
0.00362736
0.00406643
0.00452516
0.00500352
0.00550052
0.00601533
0.00278731
0.00320554
0.00363694
0.00408558
0.00455378
0.00504193
0.0055492
0.00607241
0.00662043
0.00279546
0.00322223
0.00366189
0.00411838
0.00459387
0.00508935
0.00560498
0.00614138
0.00670039
0.00240789
0.00282613
0.00325611
0.00370188
0.00416464
0.00464644
0.00514864
0.00567209
0.00621791
0.00678816
0.00245415
0.00287398
0.00330796
0.00375761
0.00422496
0.00471195
0.00522011
0.0057507
0.0063052
0.00688587
0.00252436
0.00294274
0.0033781
0.00382943
0.00429969
0.00479068
0.00530392
0.00584083
0.00640323
0.0069936
0.00303482
0.00346645
0.00391735
0.00438888
0.00488266
0.00540001
0.00594235
0.00650934
0.0071086
0.00314325
0.00356805
0.0040168
0.0044907
0.00498766
0.00550809
0.00605484
0.00663148
0.00461369
0.00510906
0.00562693
0.00617556
0.00675991
0.00304105
0.00347414
0.00392304
0.00438999
0.00487708
0.00538476
0.00591225
0.0064583
0.00301833
0.00346403
0.00392437
0.00440273
0.00490113
0.00542023
0.00595957
0.00651586
0.00709741
0.00301274
0.0034691
0.00393937
0.00442721
0.00493469
0.00546301
0.00601253
0.00658382
0.00717821
0.00257916
0.0030281
0.00348977
0.00396789
0.00446361
0.00497913
0.00551603
0.00607523
0.0066577
0.00726525
0.00260575
0.00305917
0.0035271
0.00401084
0.0045127
0.00503504
0.00557969
0.00614787
0.00674081
0.00736069
0.00265581
0.00311025
0.00358181
0.00406888
0.00457505
0.00510286
0.00565428
0.0062306
0.00683322
0.00746463
0.00318454
0.00365425
0.00414236
0.00465098
0.00518283
0.00573992
0.00632343
0.00693246
0.00757446
0.00327538
0.00373955
0.00422675
0.00473885
0.00527502
0.0058366
0.00642617
0.00704647
0.00484798
0.00538368
0.00594358
0.00653591
0.00716532
0.00301266
0.00345032
0.00390452
0.00437751
0.00487129
0.00538599
0.00592066
0.00647392
0.00299051
0.00344223
0.00390901
0.00439423
0.00490004
0.00542694
0.00597421
0.00653843
0.00712811
0.00298619
0.00344989
0.00392782
0.00442352
0.00493919
0.00547595
0.0060341
0.00661418
0.00721749
0.00254557
0.0030035
0.00347381
0.00396076
0.00446537
0.00498988
0.00553591
0.00610443
0.00669647
0.00731374
0.00257318
0.00303702
0.00351497
0.00400871
0.00452048
0.00505265
0.00560714
0.00618536
0.00678871
0.00741916
0.00262511
0.00309113
0.00357401
0.00407225
0.00458938
0.00512787
0.00568987
0.00627701
0.00689093
0.00753385
0.00316895
0.00365121
0.0041517
0.00467235
0.00521576
0.0057842
0.00637936
0.00700052
0.00765506
0.00326373
0.00374152
0.00424221
0.0047675
0.00531629
0.00589005
0.00649221
0.00712555
0.00488409
0.00543314
0.00600619
0.00661233
0.00725602
0.00292011
0.00335649
0.00380909
0.00428085
0.00477388
0.00528801
0.00582234
0.0063758
0.00290655
0.00335588
0.00381999
0.0043028
0.00480668
0.00533189
0.00587767
0.00644091
0.00703064
0.00291481
0.00337448
0.00384839
0.00434038
0.00485274
0.00538646
0.00594186
0.00651977
0.00712197
0.00249637
0.00294857
0.00341277
0.00389407
0.0043935
0.00491324
0.00545477
0.00601914
0.00660772
0.00722251
0.002547
0.00300205
0.00347161
0.00395784
0.00446287
0.00498875
0.0055372
0.00610977
0.00670825
0.00733479
0.0026253
0.00307938
0.00355137
0.00404016
0.00454895
0.00507963
0.005634
0.00621393
0.00682151
0.00745902
0.00318311
0.00365196
0.0041411
0.00465187
0.005186
0.00574524
0.00633159
0.00694473
0.00759241
0.00330566
0.00376791
0.00425535
0.00476942
0.00530771
0.00587077
0.00646255
0.00708628
0.00491022
0.00544706
0.00600846
0.00660343
0.00723633
0.00284113
0.00327974
0.00373327
0.00420505
0.00469774
0.00521169
0.00574611
0.00629957
0.0028506
0.00329866
0.00376066
0.00424087
0.00474207
0.00526486
0.00580858
0.00636997
0.00695783
0.00288815
0.00334223
0.00381056
0.00429699
0.00480399
0.00533275
0.00588367
0.0064576
0.00705598
0.00251581
0.00295683
0.00341068
0.00388252
0.0043731
0.00488455
0.00541839
0.0059757
0.00655784
0.00716652
0.00261241
0.00304998
0.00350436
0.00397705
0.00446975
0.00498425
0.00552217
0.006085
0.00667446
0.00729242
0.00273986
0.00317104
0.00362299
0.00409416
0.0045871
0.00510327
0.00564424
0.00621168
0.00680759
0.00743395
0.00332119
0.00376571
0.00423336
0.00472488
0.00524147
0.00578448
0.00635562
0.00695429
0.0075884
0.00349135
0.00392579
0.00438835
0.00488035
0.00539834
0.00594248
0.00651643
0.00712298
0.00506146
0.00557525
0.00611541
0.00669053
0.00730391
0
0
0
0
0
0
0
0
0
0
0
0
0
0
0
0
0
0
0
0
0
0
0
0
0
0
0
0
0
0
0
0
0
0
0
0
0
0
0
0
0
0
0
0
0
0
0
0
0
0
0
0
0
0
0
0
0
0
0
0
0
0
0
0
0
0
0
0
0
0
0
0
0
0
0
0
0
0
0.00263149
0.00304942
0.00348242
0.00393398
0.0044066
0.00490055
0.00541561
0.00595093
0.00265022
0.00307479
0.00351379
0.00397139
0.00445014
0.00495058
0.00547248
0.00601327
0.00658199
0.00270297
0.00313008
0.00357232
0.00403327
0.00451512
0.00501899
0.00554561
0.00609632
0.00667294
0.00238249
0.00279195
0.00321508
0.00365749
0.00411954
0.00460297
0.00510915
0.00563942
0.00619557
0.00677959
0.00250812
0.00290976
0.00332967
0.00376956
0.00423066
0.00471421
0.00522155
0.00575439
0.00631495
0.00690515
0.0026674
0.00305902
0.00347292
0.00390811
0.00436654
0.00484888
0.00535629
0.00589071
0.00645469
0.00705011
0.00323969
0.00364322
0.00407209
0.00452652
0.00500659
0.00551312
0.00604822
0.00661171
0.00721175
0.00344164
0.00383317
0.00425453
0.0047073
0.00518655
0.00569144
0.00622643
0.00679477
0.00491593
0.00538847
0.00588737
0.00642161
0.00699439
0.00241199
0.00280897
0.00322199
0.0036542
0.00410776
0.00458276
0.00507928
0.00559682
0.00241078
0.00281435
0.00323313
0.00367091
0.00413001
0.0046108
0.00511331
0.00563554
0.00618683
0.002443
0.00284889
0.00327047
0.00371095
0.00417243
0.00465597
0.00516253
0.0056939
0.00625219
0.00212323
0.00251126
0.0029128
0.00333396
0.00377483
0.00423708
0.00472209
0.0052315
0.00576744
0.00633216
0.00222932
0.00260869
0.00300643
0.0034243
0.00386337
0.00432476
0.00480995
0.00532097
0.00586035
0.00643018
0.00237055
0.00273849
0.00312919
0.00354141
0.00397678
0.00443584
0.00491994
0.00543146
0.0059732
0.00654703
0.00290062
0.00327969
0.00368455
0.00411475
0.00457023
0.00505215
0.00556315
0.0061031
0.00668018
0.00308506
0.00345083
0.0038468
0.00427406
0.00472735
0.00520622
0.0057159
0.00625932
0.00446192
0.00490663
0.00537794
0.00588568
0.00643238
0.00246948
0.00286239
0.00327007
0.00369531
0.00414047
0.00460579
0.00509072
0.00559381
0.00246208
0.00286391
0.00327937
0.00371226
0.00416502
0.00463806
0.00513092
0.00564075
0.00617622
0.00247966
0.00288724
0.00330851
0.00374692
0.00420467
0.00468281
0.00518186
0.00570296
0.00624759
0.00212984
0.00252551
0.00293276
0.0033572
0.0037992
0.00426066
0.00474302
0.00524748
0.00577563
0.00632924
0.0022007
0.00259325
0.0030012
0.00342627
0.00386992
0.00433375
0.00481935
0.00532839
0.00586275
0.00642431
0.00230079
0.00268698
0.00309267
0.00351611
0.00395958
0.00442441
0.00491225
0.005425
0.00596478
0.00653337
0.00280846
0.00320676
0.00362667
0.00406833
0.00453286
0.00502197
0.00553762
0.00607887
0.00665378
0.00294887
0.003337
0.00375147
0.00419344
0.00465904
0.00514856
0.00566637
0.00621426
0.00434323
0.00480303
0.00528794
0.00580655
0.00636078
0.00249205
0.00287588
0.00327171
0.00368255
0.00411103
0.00455755
0.00502104
0.00549933
0.00251021
0.00290272
0.00330636
0.00372519
0.00416176
0.00461658
0.00508873
0.00557458
0.00608179
0.00255239
0.00295067
0.00336048
0.00378545
0.00422777
0.00468838
0.00516735
0.00566512
0.0061824
0.00223373
0.00262143
0.00301958
0.00343313
0.00386246
0.00430939
0.00477511
0.00526034
0.00576602
0.00629323
0.00232462
0.00271009
0.00310965
0.00352472
0.00395669
0.00440709
0.00487718
0.00536804
0.00588095
0.00641719
0.00244076
0.00282183
0.00322059
0.00363526
0.00406832
0.00452107
0.00499477
0.00549063
0.00601013
0.00655463
0.00295837
0.00335173
0.00376443
0.0041972
0.00465131
0.00512792
0.00562815
0.00615041
0.00670273
0.00311052
0.00349589
0.00390516
0.00434039
0.00479762
0.00527657
0.00578055
0.00631089
0.00450599
0.00495938
0.00543592
0.00594257
0.006481
0.00207417
0.00240939
0.00275685
0.00311892
0.00349783
0.0038942
0.00430801
0.00473799
0.00209721
0.00243703
0.00278876
0.00315537
0.00353891
0.00394003
0.00435882
0.00479277
0.00524927
0.00215254
0.00249301
0.00284616
0.00321453
0.00359982
0.00400307
0.00442505
0.00486689
0.00532949
0.00191772
0.00224146
0.00257651
0.00292832
0.00329638
0.00368197
0.00408622
0.00451035
0.00495585
0.00542392
0.00204056
0.00235601
0.00268716
0.00303535
0.00340131
0.00378585
0.00419002
0.00461529
0.00506347
0.00553578
0.0021927
0.00249876
0.00282376
0.00316668
0.00352916
0.00391153
0.00431466
0.00474019
0.00519019
0.00566575
0.00266945
0.00298459
0.00332123
0.00367929
0.0040587
0.00446002
0.00488507
0.00533273
0.00581117
0.00285755
0.00316193
0.00349127
0.00384817
0.0042267
0.00462569
0.00504966
0.00550065
0.00404278
0.00441338
0.00480602
0.00522902
0.00568395
0.00164081
0.00192478
0.00222278
0.00253632
0.00286698
0.00321529
0.00358201
0.00396674
0.001623
0.00190958
0.00220989
0.00252589
0.00285888
0.00320941
0.00357833
0.00396447
0.00437556
0.00163732
0.00192207
0.00222106
0.00253596
0.00286799
0.00321814
0.0035878
0.00397895
0.00439319
0.00142213
0.00168608
0.00196246
0.00225688
0.00256825
0.00289746
0.00324566
0.00361458
0.00400633
0.00442285
0.00151118
0.00176265
0.00203148
0.00231855
0.00262414
0.00294872
0.00329337
0.00366003
0.00405102
0.00446814
0.00163308
0.00187046
0.00212861
0.00240626
0.0027043
0.00302264
0.00336225
0.00372528
0.00411424
0.00453048
0.00200858
0.00225228
0.00251937
0.00280866
0.00311953
0.00345286
0.00381113
0.0041934
0.00460781
0.00216612
0.00239524
0.00265056
0.00293398
0.00323912
0.00356533
0.003918
0.00429894
0.00308718
0.00337917
0.00369404
0.00404116
0.00442128
0.00159195
0.00185202
0.00212315
0.00240704
0.00270548
0.00301877
0.00334664
0.00368785
0.00157134
0.00183651
0.00211213
0.00240061
0.00270346
0.00302096
0.00335306
0.00369762
0.00406161
0.00156888
0.00183662
0.00211487
0.00240583
0.00271085
0.00303064
0.00336586
0.00371759
0.00408697
0.00133114
0.0015873
0.00185233
0.00213109
0.00242297
0.0027291
0.00305045
0.00338811
0.00374346
0.00411803
0.00136916
0.00162074
0.00188471
0.00216194
0.00245317
0.00275925
0.00308128
0.00342063
0.00377886
0.00415756
0.00142959
0.00167412
0.00193433
0.00220821
0.00249728
0.00280213
0.00312391
0.00346417
0.00382455
0.0042064
0.00174956
0.00200127
0.00227035
0.0025559
0.00285837
0.00317901
0.00351942
0.00387784
0.00426208
0.00183844
0.00207977
0.00234205
0.0026266
0.00292842
0.00324719
0.00358712
0.00394883
0.00271805
0.00301095
0.00332307
0.00366178
0.00402711
0
0
0
0
0
0
0
0
0
0
0
0
0
0
0
0
0
0
0
0
0
0
0
0
0
0
0
0
0
0
0
0
0
0
0
0
0
0
0
0
0
0
0
0
0
0
0
0
0
0
0
0
0
0
0
0
0
0
0
0
0
0
0
0
0
0
0
0
0
0
0
0
0
0
0
0
0
0
0.00151635
0.00175004
0.00198986
0.00223806
0.0024967
0.002766
0.00304476
0.00333104
0.00153862
0.00177757
0.0020224
0.00227593
0.00253991
0.00281454
0.00309889
0.00338978
0.00369243
0.00157685
0.00181895
0.00206755
0.002325
0.0025926
0.00287083
0.00315953
0.0034587
0.00376826
0.00139778
0.00163247
0.00187312
0.0021239
0.00238408
0.00265462
0.00293612
0.00322888
0.00353332
0.00384963
0.00146553
0.00169825
0.00194013
0.0021917
0.00245355
0.00272635
0.00301071
0.00330722
0.0036165
0.00393891
0.00154787
0.00177803
0.00201965
0.00227094
0.00253354
0.00280796
0.00309478
0.00339469
0.00370847
0.00403642
0.00187364
0.00211124
0.00236147
0.00262403
0.00289951
0.00318844
0.00349142
0.00380583
0.00413931
0.00197619
0.00220836
0.00245624
0.00272221
0.00300111
0.00329191
0.00359761
0.00391834
0.00283614
0.00311027
0.00339873
0.00370711
0.00403503
0
0
0
0
0
0
0
0
0
0
0
0
0
0
0
0
0
0
0
0
0
0
0
0
0
0
0
0
0
0
0
0
0
0
0
0
0
0
0
0
0
0
0
0
0
0
0
0
0
0
0
0
0
0
0
0
0
0
0
0
0
0
0
0
0
0
0
0
0
0
0
0
0
0
0
0
0
0
0.0009
0.00105585
0.00121807
0.00138773
0.0015664
0.00175481
0.00195317
0.00216086
0.000932431
0.00108659
0.00124797
0.00141752
0.00159613
0.00178442
0.0019829
0.00218998
0.00240991
0.000993283
0.00114208
0.00129955
0.001466
0.00164202
0.0018283
0.00202563
0.0022348
0.00245575
0.000947576
0.00107976
0.00121943
0.00137128
0.00153326
0.0017056
0.00188887
0.00208398
0.00229186
0.00251272
0.0010595
0.00118264
0.00131676
0.00146221
0.00161893
0.00178682
0.00196628
0.00215825
0.00236393
0.00258349
0.00118771
0.00130422
0.00143172
0.00157076
0.00172202
0.00188513
0.00206023
0.00224846
0.00245132
0.00266873
0.00144269
0.00156202
0.00169513
0.00184122
0.00199963
0.00217015
0.00235432
0.00255018
0.00276593
0.0015882
0.00170089
0.00182788
0.00197305
0.00212925
0.00229529
0.00247521
0.00267046
0.00212272
0.00226956
0.00242823
0.00260599
0.00280243
0.000244968
0.000319416
0.000404411
0.000499224
0.000604126
0.00071938
0.000846123
0.000984298
0.000230551
0.000288598
0.000362059
0.000448864
0.000547367
0.000657013
0.000778973
0.000913206
0.00106447
0.000275729
0.000306446
0.000356836
0.000425205
0.000509553
0.0006087
0.000722985
0.000853469
0.00100063
0.000362835
0.000360382
0.000367753
0.000393411
0.000438103
0.000502035
0.000584633
0.000685835
0.000806024
0.00094579
0.000476138
0.00046342
0.000458568
0.000465474
0.00048821
0.000529523
0.000590967
0.000673667
0.000778528
0.000905772
0.000596065
0.000580781
0.000567306
0.000562216
0.000568602
0.000590089
0.000629813
0.000690937
0.000776174
0.000885896
0.000705944
0.000687495
0.000675227
0.000670761
0.00067744
0.000698514
0.000738536
0.000798261
0.000888109
0.000832791
0.000813179
0.000796404
0.000787903
0.000784816
0.000791746
0.000813701
0.000855122
0.000916809
0.000903121
0.000897906
0.000908828
0.000936523
9.51539e-05
0.000124034
0.000159987
0.00020227
0.000250664
0.000304879
0.000365077
0.000430728
7.25131e-05
9.01631e-05
0.000120394
0.000160318
0.000207341
0.000260211
0.000319135
0.000383513
0.00045736
8.29544e-05
7.7755e-05
9.10443e-05
0.000121363
0.000163248
0.000213388
0.000270972
0.000336321
0.000410178
0.000138698
0.000116481
9.53607e-05
8.48768e-05
9.42235e-05
0.000124113
0.000168249
0.000222761
0.000286441
0.000360405
0.000186799
0.000160279
0.000133438
0.000108664
9.34899e-05
9.92887e-05
0.000129076
0.00017644
0.000236512
0.000308903
0.000237318
0.000211592
0.000180777
0.000150473
0.000121942
0.000102959
0.00010608
0.000136791
0.000188711
0.000256783
0.000264007
0.000232808
0.000200526
0.000166679
0.000134947
0.000112999
0.000114688
0.000144439
0.00020291
0.000317413
0.000288694
0.000256372
0.000221102
0.000182344
0.000147946
0.000123409
0.000123752
0.000275939
0.00023471
0.000195259
0.000159428
0.000131645
0.000916345
0.00103113
0.00115349
0.0012836
0.00142114
0.00156624
0.00171978
0.00188262
0.000857736
0.000975619
0.00110155
0.00123513
0.00137551
0.00152323
0.00167996
0.00184461
0.00202286
0.000800741
0.000922274
0.00104989
0.00118489
0.00132703
0.00147719
0.00163681
0.00180694
0.00198754
0.000747797
0.00087005
0.000998665
0.00113449
0.00127797
0.00143015
0.0015922
0.00176488
0.0019491
0.000697686
0.000820284
0.000949091
0.00108504
0.00122915
0.00138265
0.00154649
0.00172118
0.0019082
0.000653302
0.000774798
0.000902662
0.00103775
0.00118156
0.00133547
0.0015003
0.00167634
0.00186526
0.000617215
0.00073575
0.000861101
0.000994091
0.00113641
0.00128959
0.00145443
0.00162887
0.0018178
0.000591134
0.000701728
0.000821935
0.000953847
0.00109525
0.00124621
0.00140986
0.0015872
0.000928411
0.00106357
0.0012046
0.00136245
0.00154148
0.00158963
0.00182256
0.0020625
0.00231249
0.00257385
0.00284558
0.00312602
0.00341463
0.00158982
0.00183111
0.00207888
0.00233599
0.00260417
0.00288322
0.00317172
0.003466
0.00377344
0.00159978
0.00184884
0.00210332
0.0023667
0.00264042
0.00292487
0.00321963
0.00352443
0.00384002
0.00162213
0.00187493
0.0021349
0.00240369
0.00268255
0.00297224
0.00327301
0.0035851
0.00390933
0.00165314
0.00190953
0.00217373
0.00244704
0.00273056
0.00302521
0.0033317
0.00365068
0.0039831
0.00169437
0.00195261
0.00221984
0.00249679
0.0027844
0.00308359
0.0033954
0.00372087
0.00406112
0.00174507
0.00200391
0.00227307
0.00255282
0.00284389
0.00314712
0.00346375
0.00379265
0.00414029
0.0018032
0.0020594
0.00232943
0.00261343
0.00290864
0.00321535
0.00353622
0.00387408
0.00268673
0.00298173
0.00328592
0.00360891
0.00395479
SCALARS DeltaMax double 9
LOOKUP_TABLE default
0 0 0 0 0 0 0 0 0
0 0 0 0 0 0 0 0 0
0 0 0 0 0 0 0 0 0
0 0 0 0 0 0 0 0 0
0 0 0 0 0 0 0 0 0
0 0 0 0 0 0 0 0 0
0 0 0 0 0 0 0 0 0
0 0 0 0 0 0 0 0 0
0 0 0 0 0 0 0 0 0
0 0 0 0 0 0 0 0 0
0 0 0 0 0 0 0 0 0
0 0 0 0 0 0 0 0 0
0 0 0 0 0 0 0 0 0
0 0 0 0 0 0 0 0 0
0 0 0 0 0 0 0 0 0
0 0 0 0 0 0 0 0 0
0 0 0 0 0 0 0 0 0
0 0 0 0 0 0 0 0 0
0 0 0 0 0 0 0 0 0
0 0 0 0 0 0 0 0 0
0 0 0 0 0 0 0 0 0
0 0 0 0 0 0 0 0 0
0 0 0 0 0 0 0 0 0
0 0 0 0 0 0 0 0 0
0 0 0 0 0 0 0 0 0
0 0 0 0 0 0 0 0 0
0 0 0 0 0 0 0 0 0
0 0 0 0 0 0 0 0 0
0 0 0 0 0 0 0 0 0
0 0 0 0 0 0 0 0 0
0 0 0 0 0 0 0 0 0
0 0 0 0 0 0 0 0 0
0 0 0 0 0 0 0 0 0
0 0 0 0 0 0 0 0 0
0 0 0 0 0 0 0 0 0
0 0 0 0 0 0 0 0 0
0 0 0 0 0 0 0 0 0
0 0 0 0 0 0 0 0 0
0 0 0 0 0 0 0 0 0
0 0 0 0 0 0 0 0 0
0 0 0 0 0 0 0 0 0
0 0 0 0 0 0 0 0 0
0 0 0 0 0 0 0 0 0
0 0 0 0 0 0 0 0 0
0 0 0 0 0 0 0 0 0
0 0 0 0 0 0 0 0 0
0 0 0 0 0 0 0 0 0
0 0 0 0 0 0 0 0 0
0 0 0 0 0 0 0 0 0
0 0 0 0 0 0 0 0 0
0 0 0 0 0 0 0 0 0
0 0 0 0 0 0 0 0 0
0 0 0 0 0 0 0 0 0
0 0 0 0 0 0 0 0 0
0 0 0 0 0 0 0 0 0
0 0 0 0 0 0 0 0 0
0 0 0 0 0 0 0 0 0
0 0 0 0 0 0 0 0 0
0 0 0 0 0 0 0 0 0
0 0 0 0 0 0 0 0 0
0 0 0 0 0 0 0 0 0
0 0 0 0 0 0 0 0 0
0 0 0 0 0 0 0 0 0
0 0 0 0 0 0 0 0 0
0 0 0 0 0 0 0 0 0
0 0 0 0 0 0 0 0 0
0 0 0 0 0 0 0 0 0
0 0 0 0 0 0 0 0 0
0 0 0 0 0 0 0 0 0
0 0 0 0 0 0 0 0 0
0 0 0 0 0 0 0 0 0
0 0 0 0 0 0 0 0 0
0 0 0 0 0 0 0 0 0
0 0 0 0 0 0 0 0 0
0 0 0 0 0 0 0 0 0
0 0 0 0 0 0 0 0 0
0 0 0 0 0 0 0 0 0
0 0 0 0 0 0 0 0 0
0 0 0 0 0 0 0 0 0
0 0 0 0 0 0 0 0 0
0 0 0 0 0 0 0 0 0
0 0 0 0 0 0 0 0 0
0 0 0 0 0 0 0 0 0
0 0 0 0 0 0 0 0 0
0 0 0 0 0 0 0 0 0
0 0 0 0 0 0 0 0 0
0 0 0 0 0 0 0 0 0
0 0 0 0 0 0 0 0 0
0 0 0 0 0 0 0 0 0
0 0 0 0 0 0 0 0 0
0 0 0 0 0 0 0 0 0
0 0 0 0 0 0 0 0 0
0 0 0 0 0 0 0 0 0
0 0 0 0 0 0 0 0 0
0 0 0 0 0 0 0 0 0
0 0 0 0 0 0 0 0 0
0 0 0 0 0 0 0 0 0
0 0 0 0 0 0 0 0 0
0 0 0 0 0 0 0 0 0
0 0 0 0 0 0 0 0 0
0 0 0 0 0 0 0 0 0
0 0 0 0 0 0 0 0 0
0 0 0 0 0 0 0 0 0
0 0 0 0 0 0 0 0 0
0 0 0 0 0 0 0 0 0
0 0 0 0 0 0 0 0 0
0 0 0 0 0 0 0 0 0
0 0 0 0 0 0 0 0 0
0 0 0 0 0 0 0 0 0
0 0 0 0 0 0 0 0 0
0 0 0 0 0 0 0 0 0
0 0 0 0 0 0 0 0 0
0 0 0 0 0 0 0 0 0
0 0 0 0 0 0 0 0 0
0 0 0 0 0 0 0 0 0
0 0 0 0 0 0 0 0 0
0 0 0 0 0 0 0 0 0
0 0 0 0 0 0 0 0 0
0 0 0 0 0 0 0 0 0
0 0 0 0 0 0 0 0 0
0 0 0 0 0 0 0 0 0
0 0 0 0 0 0 0 0 0
0 0 0 0 0 0 0 0 0
0 0 0 0 0 0 0 0 0
0 0 0 0 0 0 0 0 0
0 0 0 0 0 0 0 0 0
0 0 0 0 0 0 0 0 0
0 0 0 0 0 0 0 0 0
0 0 0 0 0 0 0 0 0
0 0 0 0 0 0 0 0 0
0 0 0 0 0 0 0 0 0
0 0 0 0 0 0 0 0 0
0 0 0 0 0 0 0 0 0
0 0 0 0 0 0 0 0 0
0 0 0 0 0 0 0 0 0
0 0 0 0 0 0 0 0 0
0 0 0 0 0 0 0 0 0
0 0 0 0 0 0 0 0 0
0 0 0 0 0 0 0 0 0
0 0 0 0 0 0 0 0 0
0 0 0 0 0 0 0 0 0
0 0 0 0 0 0 0 0 0
0 0 0 0 0 0 0 0 0
0 0 0 0 0 0 0 0 0
0 0 0 0 0 0 0 0 0
0 0 0 0 0 0 0 0 0
0 0 0 0 0 0 0 0 0
0 0 0 0 0 0 0 0 0
0 0 0 0 0 0 0 0 0
0 0 0 0 0 0 0 0 0
1.73971e-07 1.89627e-07 1.74353e-07 1.89668e-07 1.73971e-07 1.89627e-07 1.74353e-07 1.89668e-07 0
2.01222e-07 2.17244e-07 2.0106e-07 2.16863e-07 2.01222e-07 2.17244e-07 2.0106e-07 2.16863e-07 0
2.29179e-07 2.45766e-07 2.28664e-07 2.451e-07 2.29179e-07 2.45766e-07 2.28664e-07 2.451e-07 0
2.58188e-07 2.75541e-07 2.57408e-07 2.74596e-07 2.58188e-07 2.75541e-07 2.57408e-07 2.74596e-07 0
2.8855e-07 3.06741e-07 2.87458e-07 3.05411e-07 2.8855e-07 3.06741e-07 2.87458e-07 3.05411e-07 0
3.20334e-07 3.39284e-07 3.18807e-07 3.37458e-07 3.20334e-07 3.39284e-07 3.18807e-07 3.37458e-07 0
3.53388e-07 3.72977e-07 3.5135e-07 3.70658e-07 3.53388e-07 3.72977e-07 3.5135e-07 3.70658e-07 0
3.87501e-07 4.076e-07 3.85022e-07 4.04966e-07 3.87501e-07 4.076e-07 3.85022e-07 4.04966e-07 0
1.74322e-07 1.90391e-07 1.73957e-07 1.89814e-07 1.74322e-07 1.90391e-07 1.73957e-07 1.89814e-07 0
2.02277e-07 2.18683e-07 2.01541e-07 2.17725e-07 2.02277e-07 2.18683e-07 2.01541e-07 2.17725e-07 0
2.30891e-07 2.4784e-07 2.2977e-07 2.46495e-07 2.30891e-07 2.4784e-07 2.2977e-07 2.46495e-07 0
2.60509e-07 2.78175e-07 2.59014e-07 2.76495e-07 2.60509e-07 2.78175e-07 2.59014e-07 2.76495e-07 0
2.91403e-07 3.09881e-07 2.89602e-07 3.07935e-07 2.91403e-07 3.09881e-07 2.89602e-07 3.07935e-07 0
3.23691e-07 3.4295e-07 3.21639e-07 3.40751e-07 3.23691e-07 3.4295e-07 3.21639e-07 3.40751e-07 0
3.57304e-07 3.77268e-07 3.5498e-07 3.74745e-07 3.57304e-07 3.77268e-07 3.5498e-07 3.74745e-07 0
3.92126e-07 4.12764e-07 3.89401e-07 4.09685e-07 3.92126e-07 4.12764e-07 3.89401e-07 4.09685e-07 0
4.28212e-07 4.4979e-07 4.24943e-07 4.46354e-07 4.28212e-07 4.4979e-07 4.24943e-07 4.46354e-07 0
1.76123e-07 1.92497e-07 1.749e-07 1.91107e-07 1.76123e-07 1.92497e-07 1.749e-07 1.91107e-07 0
2.04607e-07 2.21325e-07 2.03095e-07 2.19645e-07 2.04607e-07 2.21325e-07 2.03095e-07 2.19645e-07 0
2.33764e-07 2.51036e-07 2.31959e-07 2.49054e-07 2.33764e-07 2.51036e-07 2.31959e-07 2.49054e-07 0
2.63926e-07 2.81876e-07 2.61822e-07 2.79615e-07 2.63926e-07 2.81876e-07 2.61822e-07 2.79615e-07 0
2.95295e-07 3.14013e-07 2.92926e-07 3.11507e-07 2.95295e-07 3.14013e-07 2.92926e-07 3.11507e-07 0
3.28003e-07 3.4751e-07 3.25394e-07 3.44758e-07 3.28003e-07 3.4751e-07 3.25394e-07 3.44758e-07 0
3.62074e-07 3.82363e-07 3.59202e-07 3.79306e-07 3.62074e-07 3.82363e-07 3.59202e-07 3.79306e-07 0
3.97505e-07 4.18596e-07 3.94295e-07 4.1515e-07 3.97505e-07 4.18596e-07 3.94295e-07 4.1515e-07 0
4.34362e-07 4.56357e-07 4.30735e-07 4.52468e-07 4.34362e-07 4.56357e-07 4.30735e-07 4.52468e-07 0
1.7959e-07 1.96085e-07 1.77377e-07 1.93829e-07 1.7959e-07 1.96085e-07 1.77377e-07 1.93829e-07 0
2.08317e-07 2.25244e-07 2.06005e-07 2.22823e-07 2.08317e-07 2.25244e-07 2.06005e-07 2.22823e-07 0
2.37847e-07 2.55355e-07 2.3534e-07 2.52722e-07 2.37847e-07 2.55355e-07 2.3534e-07 2.52722e-07 0
2.68417e-07 2.866e-07 2.65691e-07 2.83746e-07 2.68417e-07 2.866e-07 2.65691e-07 2.83746e-07 0
3.00185e-07 3.19124e-07 2.97238e-07 3.16052e-07 3.00185e-07 3.19124e-07 2.97238e-07 3.16052e-07 0
3.33281e-07 3.53049e-07 3.30114e-07 3.49724e-07 3.33281e-07 3.53049e-07 3.30114e-07 3.49724e-07 0
3.6782e-07 3.88403e-07 3.64373e-07 3.84793e-07 3.6782e-07 3.88403e-07 3.64373e-07 3.84793e-07 0
4.03779e-07 4.25259e-07 4.00044e-07 4.21303e-07 4.03779e-07 4.25259e-07 4.00044e-07 4.21303e-07 0
4.41327e-07 4.63756e-07 4.37198e-07 4.59379e-07 4.41327e-07 4.63756e-07 4.37198e-07 4.59379e-07 0
1.84618e-07 2.01131e-07 1.8153e-07 1.98041e-07 1.84618e-07 2.01131e-07 1.8153e-07 1.98041e-07 0
2.13409e-07 2.30445e-07 2.103e-07 2.27285e-07 2.13409e-07 2.30445e-07 2.103e-07 2.27285e-07 0
2.43145e-07 2.60809e-07 2.39937e-07 2.57521e-07 2.43145e-07 2.60809e-07 2.39937e-07 2.57521e-07 0
2.73994e-07 2.92358e-07 2.70641e-07 2.88906e-07 2.73994e-07 2.92358e-07 2.70641e-07 2.88906e-07 0
3.0608e-07 3.25256e-07 3.02552e-07 3.21577e-07 3.0608e-07 3.25256e-07 3.02552e-07 3.21577e-07 0
3.39608e-07 3.59638e-07 3.35822e-07 3.55709e-07 3.39608e-07 3.59638e-07 3.35822e-07 3.55709e-07 0
3.74612e-07 3.95502e-07 3.70568e-07 3.91284e-07 3.74612e-07 3.95502e-07 3.70568e-07 3.91284e-07 0
4.11126e-07 4.32931e-07 4.06767e-07 4.28362e-07 4.11126e-07 4.32931e-07 4.06767e-07 4.28362e-07 0
4.49235e-07 4.72004e-07 4.44525e-07 4.67137e-07 4.49235e-07 4.72004e-07 4.44525e-07 4.67137e-07 0
1.9116e-07 2.07602e-07 1.87199e-07 2.0369e-07 1.9116e-07 2.07602e-07 1.87199e-07 2.0369e-07 0
2.19878e-07 2.36912e-07 2.15968e-07 2.33021e-07 2.19878e-07 2.36912e-07 2.15968e-07 2.33021e-07 0
2.49639e-07 2.67381e-07 2.45744e-07 2.63451e-07 2.49639e-07 2.67381e-07 2.45744e-07 2.63451e-07 0
2.80648e-07 2.99178e-07 2.76675e-07 2.95099e-07 2.80648e-07 2.99178e-07 2.76675e-07 2.95099e-07 0
3.13059e-07 3.32456e-07 3.08896e-07 3.28173e-07 3.13059e-07 3.32456e-07 3.08896e-07 3.28173e-07 0
3.46974e-07 3.67247e-07 3.42595e-07 3.62728e-07 3.46974e-07 3.67247e-07 3.42595e-07 3.62728e-07 0
3.8241e-07 4.03575e-07 3.77784e-07 3.98794e-07 3.8241e-07 4.03575e-07 3.77784e-07 3.98794e-07 0
4.19415e-07 4.41538e-07 4.14513e-07 4.36459e-07 4.19415e-07 4.41538e-07 4.14513e-07 4.36459e-07 0
4.58089e-07 4.81195e-07 4.52872e-07 4.7578e-07 4.58089e-07 4.81195e-07 4.52872e-07 4.7578e-07 0
1.99185e-07 2.15508e-07 1.94362e-07 2.10778e-07 1.99185e-07 2.15508e-07 1.94362e-07 2.10778e-07 0
2.2769e-07 2.44661e-07 2.23024e-07 2.4004e-07 2.2769e-07 2.44661e-07 2.23024e-07 2.4004e-07 0
2.57364e-07 2.75094e-07 2.52763e-07 2.70507e-07 2.57364e-07 2.75094e-07 2.52763e-07 2.70507e-07 0
2.88406e-07 3.07042e-07 2.83802e-07 3.02381e-07 2.88406e-07 3.07042e-07 2.83802e-07 3.02381e-07 0
3.21032e-07 3.4062e-07 3.1631e-07 3.35791e-07 3.21032e-07 3.4062e-07 3.1631e-07 3.35791e-07 0
3.55308e-07 3.75853e-07 3.50379e-07 3.70762e-07 3.55308e-07 3.75853e-07 3.50379e-07 3.70762e-07 0
3.9121e-07 4.12634e-07 3.86007e-07 4.07282e-07 3.9121e-07 4.12634e-07 3.86007e-07 4.07282e-07 0
4.28614e-07 4.50862e-07 4.23192e-07 4.45396e-07 4.28614e-07 4.50862e-07 4.23192e-07 4.45396e-07 0
4.67609e-07 4.91124e-07 4.62036e-07 4.85305e-07 4.67609e-07 4.91124e-07 4.62036e-07 4.85305e-07 0
2.08614e-07 2.24632e-07 2.03017e-07 2.19228e-07 2.08614e-07 2.24632e-07 2.03017e-07 2.19228e-07 0
2.36708e-07 2.53677e-07 2.31365e-07 2.48321e-07 2.36708e-07 2.53677e-07 2.31365e-07 2.48321e-07 0
2.66428e-07 2.84287e-07 2.61031e-07 2.78791e-07 2.66428e-07 2.84287e-07 2.61031e-07 2.78791e-07 0
2.97554e-07 3.15927e-07 2.92094e-07 3.10672e-07 2.97554e-07 3.15927e-07 2.92094e-07 3.10672e-07 0
3.29929e-07 3.49811e-07 3.24681e-07 3.44376e-07 3.29929e-07 3.49811e-07 3.24681e-07 3.44376e-07 0
3.64701e-07 3.85507e-07 3.59144e-07 3.79803e-07 3.64701e-07 3.85507e-07 3.59144e-07 3.79803e-07 0
4.01043e-07 4.22694e-07 3.95238e-07 4.16763e-07 4.01043e-07 4.22694e-07 3.95238e-07 4.16763e-07 0
4.38777e-07 4.61082e-07 4.32789e-07 4.55063e-07 4.38777e-07 4.61082e-07 4.32789e-07 4.55063e-07 0
3.07089e-07 3.25708e-07 3.01569e-07 3.19956e-07 3.07089e-07 3.25708e-07 3.01569e-07 3.19956e-07 0
3.39781e-07 3.59609e-07 3.33976e-07 3.53894e-07 3.39781e-07 3.59609e-07 3.33976e-07 3.53894e-07 0
3.74527e-07 3.95466e-07 3.68825e-07 3.89707e-07 3.74527e-07 3.95466e-07 3.68825e-07 3.89707e-07 0
4.1115e-07 4.33068e-07 4.05309e-07 4.27064e-07 4.1115e-07 4.33068e-07 4.05309e-07 4.27064e-07 0
4.49357e-07 4.71953e-07 4.43218e-07 4.65607e-07 4.49357e-07 4.71953e-07 4.43218e-07 4.65607e-07 0
0 0 0 0 0 0 0 0 0
0 0 0 0 0 0 0 0 0
0 0 0 0 0 0 0 0 0
0 0 0 0 0 0 0 0 0
0 0 0 0 0 0 0 0 0
0 0 0 0 0 0 0 0 0
0 0 0 0 0 0 0 0 0
0 0 0 0 0 0 0 0 0
0 0 0 0 0 0 0 0 0
0 0 0 0 0 0 0 0 0
0 0 0 0 0 0 0 0 0
0 0 0 0 0 0 0 0 0
0 0 0 0 0 0 0 0 0
0 0 0 0 0 0 0 0 0
0 0 0 0 0 0 0 0 0
0 0 0 0 0 0 0 0 0
0 0 0 0 0 0 0 0 0
0 0 0 0 0 0 0 0 0
0 0 0 0 0 0 0 0 0
0 0 0 0 0 0 0 0 0
0 0 0 0 0 0 0 0 0
0 0 0 0 0 0 0 0 0
0 0 0 0 0 0 0 0 0
0 0 0 0 0 0 0 0 0
0 0 0 0 0 0 0 0 0
0 0 0 0 0 0 0 0 0
0 0 0 0 0 0 0 0 0
0 0 0 0 0 0 0 0 0
0 0 0 0 0 0 0 0 0
0 0 0 0 0 0 0 0 0
0 0 0 0 0 0 0 0 0
0 0 0 0 0 0 0 0 0
0 0 0 0 0 0 0 0 0
0 0 0 0 0 0 0 0 0
0 0 0 0 0 0 0 0 0
0 0 0 0 0 0 0 0 0
0 0 0 0 0 0 0 0 0
0 0 0 0 0 0 0 0 0
0 0 0 0 0 0 0 0 0
0 0 0 0 0 0 0 0 0
0 0 0 0 0 0 0 0 0
0 0 0 0 0 0 0 0 0
0 0 0 0 0 0 0 0 0
0 0 0 0 0 0 0 0 0
0 0 0 0 0 0 0 0 0
0 0 0 0 0 0 0 0 0
0 0 0 0 0 0 0 0 0
0 0 0 0 0 0 0 0 0
0 0 0 0 0 0 0 0 0
0 0 0 0 0 0 0 0 0
0 0 0 0 0 0 0 0 0
0 0 0 0 0 0 0 0 0
0 0 0 0 0 0 0 0 0
0 0 0 0 0 0 0 0 0
0 0 0 0 0 0 0 0 0
0 0 0 0 0 0 0 0 0
0 0 0 0 0 0 0 0 0
0 0 0 0 0 0 0 0 0
0 0 0 0 0 0 0 0 0
0 0 0 0 0 0 0 0 0
0 0 0 0 0 0 0 0 0
0 0 0 0 0 0 0 0 0
0 0 0 0 0 0 0 0 0
0 0 0 0 0 0 0 0 0
0 0 0 0 0 0 0 0 0
0 0 0 0 0 0 0 0 0
0 0 0 0 0 0 0 0 0
0 0 0 0 0 0 0 0 0
0 0 0 0 0 0 0 0 0
0 0 0 0 0 0 0 0 0
0 0 0 0 0 0 0 0 0
0 0 0 0 0 0 0 0 0
0 0 0 0 0 0 0 0 0
0 0 0 0 0 0 0 0 0
0 0 0 0 0 0 0 0 0
0 0 0 0 0 0 0 0 0
0 0 0 0 0 0 0 0 0
0 0 0 0 0 0 0 0 0
0 0 0 0 0 0 0 0 0
0 0 0 0 0 0 0 0 0
0 0 0 0 0 0 0 0 0
0 0 0 0 0 0 0 0 0
0 0 0 0 0 0 0 0 0
0 0 0 0 0 0 0 0 0
0 0 0 0 0 0 0 0 0
0 0 0 0 0 0 0 0 0
0 0 0 0 0 0 0 0 0
0 0 0 0 0 0 0 0 0
0 0 0 0 0 0 0 0 0
0 0 0 0 0 0 0 0 0
0 0 0 0 0 0 0 0 0
0 0 0 0 0 0 0 0 0
0 0 0 0 0 0 0 0 0
0 0 0 0 0 0 0 0 0
0 0 0 0 0 0 0 0 0
0 0 0 0 0 0 0 0 0
0 0 0 0 0 0 0 0 0
0 0 0 0 0 0 0 0 0
0 0 0 0 0 0 0 0 0
0 0 0 0 0 0 0 0 0
0 0 0 0 0 0 0 0 0
0 0 0 0 0 0 0 0 0
0 0 0 0 0 0 0 0 0
0 0 0 0 0 0 0 0 0
0 0 0 0 0 0 0 0 0
0 0 0 0 0 0 0 0 0
0 0 0 0 0 0 0 0 0
0 0 0 0 0 0 0 0 0
0 0 0 0 0 0 0 0 0
0 0 0 0 0 0 0 0 0
0 0 0 0 0 0 0 0 0
0 0 0 0 0 0 0 0 0
0 0 0 0 0 0 0 0 0
0 0 0 0 0 0 0 0 0
0 0 0 0 0 0 0 0 0
0 0 0 0 0 0 0 0 0
0 0 0 0 0 0 0 0 0
0 0 0 0 0 0 0 0 0
0 0 0 0 0 0 0 0 0
0 0 0 0 0 0 0 0 0
0 0 0 0 0 0 0 0 0
0 0 0 0 0 0 0 0 0
0 0 0 0 0 0 0 0 0
0 0 0 0 0 0 0 0 0
0 0 0 0 0 0 0 0 0
0 0 0 0 0 0 0 0 0
0 0 0 0 0 0 0 0 0
0 0 0 0 0 0 0 0 0
0 0 0 0 0 0 0 0 0
0 0 0 0 0 0 0 0 0
0 0 0 0 0 0 0 0 0
0 0 0 0 0 0 0 0 0
0 0 0 0 0 0 0 0 0
0 0 0 0 0 0 0 0 0
0 0 0 0 0 0 0 0 0
0 0 0 0 0 0 0 0 0
0 0 0 0 0 0 0 0 0
0 0 0 0 0 0 0 0 0
0 0 0 0 0 0 0 0 0
0 0 0 0 0 0 0 0 0
0 0 0 0 0 0 0 0 0
0 0 0 0 0 0 0 0 0
0 0 0 0 0 0 0 0 0
0 0 0 0 0 0 0 0 0
0 0 0 0 0 0 0 0 0
0 0 0 0 0 0 0 0 0
0 0 0 0 0 0 0 0 0
0 0 0 0 0 0 0 0 0
0 0 0 0 0 0 0 0 0
0 0 0 0 0 0 0 0 0
0 0 0 0 0 0 0 0 0
0 0 0 0 0 0 0 0 0
0 0 0 0 0 0 0 0 0
0 0 0 0 0 0 0 0 0
0 0 0 0 0 0 0 0 0
0 0 0 0 0 0 0 0 0
0 0 0 0 0 0 0 0 0
0 0 0 0 0 0 0 0 0
0 0 0 0 0 0 0 0 0
0 0 0 0 0 0 0 0 0
0 0 0 0 0 0 0 0 0
0 0 0 0 0 0 0 0 0
0 0 0 0 0 0 0 0 0
0 0 0 0 0 0 0 0 0
0 0 0 0 0 0 0 0 0
0 0 0 0 0 0 0 0 0
0 0 0 0 0 0 0 0 0
0 0 0 0 0 0 0 0 0
0 0 0 0 0 0 0 0 0
0 0 0 0 0 0 0 0 0
0 0 0 0 0 0 0 0 0
0 0 0 0 0 0 0 0 0
0 0 0 0 0 0 0 0 0
0 0 0 0 0 0 0 0 0
0 0 0 0 0 0 0 0 0
0 0 0 0 0 0 0 0 0
0 0 0 0 0 0 0 0 0
0 0 0 0 0 0 0 0 0
0 0 0 0 0 0 0 0 0
0 0 0 0 0 0 0 0 0
0 0 0 0 0 0 0 0 0
0 0 0 0 0 0 0 0 0
0 0 0 0 0 0 0 0 0
0 0 0 0 0 0 0 0 0
0 0 0 0 0 0 0 0 0
0 0 0 0 0 0 0 0 0
0 0 0 0 0 0 0 0 0
0 0 0 0 0 0 0 0 0
0 0 0 0 0 0 0 0 0
0 0 0 0 0 0 0 0 0
0 0 0 0 0 0 0 0 0
0 0 0 0 0 0 0 0 0
0 0 0 0 0 0 0 0 0
0 0 0 0 0 0 0 0 0
0 0 0 0 0 0 0 0 0
0 0 0 0 0 0 0 0 0
0 0 0 0 0 0 0 0 0
0 0 0 0 0 0 0 0 0
0 0 0 0 0 0 0 0 0
0 0 0 0 0 0 0 0 0
0 0 0 0 0 0 0 0 0
0 0 0 0 0 0 0 0 0
0 0 0 0 0 0 0 0 0
0 0 0 0 0 0 0 0 0
0 0 0 0 0 0 0 0 0
0 0 0 0 0 0 0 0 0
0 0 0 0 0 0 0 0 0
0 0 0 0 0 0 0 0 0
0 0 0 0 0 0 0 0 0
0 0 0 0 0 0 0 0 0
0 0 0 0 0 0 0 0 0
0 0 0 0 0 0 0 0 0
0 0 0 0 0 0 0 0 0
0 0 0 0 0 0 0 0 0
0 0 0 0 0 0 0 0 0
0 0 0 0 0 0 0 0 0
0 0 0 0 0 0 0 0 0
0 0 0 0 0 0 0 0 0
0 0 0 0 0 0 0 0 0
0 0 0 0 0 0 0 0 0
0 0 0 0 0 0 0 0 0
0 0 0 0 0 0 0 0 0
0 0 0 0 0 0 0 0 0
0 0 0 0 0 0 0 0 0
0 0 0 0 0 0 0 0 0
0 0 0 0 0 0 0 0 0
0 0 0 0 0 0 0 0 0
0 0 0 0 0 0 0 0 0
0 0 0 0 0 0 0 0 0
0 0 0 0 0 0 0 0 0
0 0 0 0 0 0 0 0 0
0 0 0 0 0 0 0 0 0
0 0 0 0 0 0 0 0 0
0 0 0 0 0 0 0 0 0
0 0 0 0 0 0 0 0 0
0 0 0 0 0 0 0 0 0
0 0 0 0 0 0 0 0 0
0 0 0 0 0 0 0 0 0
0 0 0 0 0 0 0 0 0
0 0 0 0 0 0 0 0 0
0 0 0 0 0 0 0 0 0
0 0 0 0 0 0 0 0 0
0 0 0 0 0 0 0 0 0
0 0 0 0 0 0 0 0 0
0 0 0 0 0 0 0 0 0
0 0 0 0 0 0 0 0 0
0 0 0 0 0 0 0 0 0
0 0 0 0 0 0 0 0 0
0 0 0 0 0 0 0 0 0
0 0 0 0 0 0 0 0 0
0 0 0 0 0 0 0 0 0
0 0 0 0 0 0 0 0 0
0 0 0 0 0 0 0 0 0
0 0 0 0 0 0 0 0 0
0 0 0 0 0 0 0 0 0
0 0 0 0 0 0 0 0 0
0 0 0 0 0 0 0 0 0
0 0 0 0 0 0 0 0 0
0 0 0 0 0 0 0 0 0
0 0 0 0 0 0 0 0 0
0 0 0 0 0 0 0 0 0
0 0 0 0 0 0 0 0 0
0 0 0 0 0 0 0 0 0
0 0 0 0 0 0 0 0 0
0 0 0 0 0 0 0 0 0
0 0 0 0 0 0 0 0 0
0 0 0 0 0 0 0 0 0
0 0 0 0 0 0 0 0 0
0 0 0 0 0 0 0 0 0
0 0 0 0 0 0 0 0 0
0 0 0 0 0 0 0 0 0
0 0 0 0 0 0 0 0 0
0 0 0 0 0 0 0 0 0
0 0 0 0 0 0 0 0 0
0 0 0 0 0 0 0 0 0
0 0 0 0 0 0 0 0 0
0 0 0 0 0 0 0 0 0
0 0 0 0 0 0 0 0 0
0 0 0 0 0 0 0 0 0
0 0 0 0 0 0 0 0 0
0 0 0 0 0 0 0 0 0
0 0 0 0 0 0 0 0 0
0 0 0 0 0 0 0 0 0
0 0 0 0 0 0 0 0 0
0 0 0 0 0 0 0 0 0
0 0 0 0 0 0 0 0 0
0 0 0 0 0 0 0 0 0
0 0 0 0 0 0 0 0 0
0 0 0 0 0 0 0 0 0
0 0 0 0 0 0 0 0 0
0 0 0 0 0 0 0 0 0
0 0 0 0 0 0 0 0 0
0 0 0 0 0 0 0 0 0
0 0 0 0 0 0 0 0 0
0 0 0 0 0 0 0 0 0
0 0 0 0 0 0 0 0 0
0 0 0 0 0 0 0 0 0
0 0 0 0 0 0 0 0 0
0 0 0 0 0 0 0 0 0
0 0 0 0 0 0 0 0 0
0 0 0 0 0 0 0 0 0
0 0 0 0 0 0 0 0 0
0 0 0 0 0 0 0 0 0
0 0 0 0 0 0 0 0 0
0 0 0 0 0 0 0 0 0
0 0 0 0 0 0 0 0 0
0 0 0 0 0 0 0 0 0
0 0 0 0 0 0 0 0 0
0 0 0 0 0 0 0 0 0
0 0 0 0 0 0 0 0 0
0 0 0 0 0 0 0 0 0
0 0 0 0 0 0 0 0 0
0 0 0 0 0 0 0 0 0
0 0 0 0 0 0 0 0 0
0 0 0 0 0 0 0 0 0
0 0 0 0 0 0 0 0 0
0 0 0 0 0 0 0 0 0
0 0 0 0 0 0 0 0 0
0 0 0 0 0 0 0 0 0
0 0 0 0 0 0 0 0 0
0 0 0 0 0 0 0 0 0
0 0 0 0 0 0 0 0 0
0 0 0 0 0 0 0 0 0
0 0 0 0 0 0 0 0 0
0 0 0 0 0 0 0 0 0
0 0 0 0 0 0 0 0 0
0 0 0 0 0 0 0 0 0
0 0 0 0 0 0 0 0 0
0 0 0 0 0 0 0 0 0
0 0 0 0 0 0 0 0 0
0 0 0 0 0 0 0 0 0
0 0 0 0 0 0 0 0 0
0 0 0 0 0 0 0 0 0
0 0 0 0 0 0 0 0 0
0 0 0 0 0 0 0 0 0
0 0 0 0 0 0 0 0 0
0 0 0 0 0 0 0 0 0
0 0 0 0 0 0 0 0 0
0 0 0 0 0 0 0 0 0
0 0 0 0 0 0 0 0 0
0 0 0 0 0 0 0 0 0
0 0 0 0 0 0 0 0 0
0 0 0 0 0 0 0 0 0
0 0 0 0 0 0 0 0 0
0 0 0 0 0 0 0 0 0
0 0 0 0 0 0 0 0 0
0 0 0 0 0 0 0 0 0
0 0 0 0 0 0 0 0 0
0 0 0 0 0 0 0 0 0
0 0 0 0 0 0 0 0 0
0 0 0 0 0 0 0 0 0
0 0 0 0 0 0 0 0 0
0 0 0 0 0 0 0 0 0
0 0 0 0 0 0 0 0 0
0 0 0 0 0 0 0 0 0
0 0 0 0 0 0 0 0 0
0 0 0 0 0 0 0 0 0
0 0 0 0 0 0 0 0 0
0 0 0 0 0 0 0 0 0
0 0 0 0 0 0 0 0 0
0 0 0 0 0 0 0 0 0
0 0 0 0 0 0 0 0 0
0 0 0 0 0 0 0 0 0
0 0 0 0 0 0 0 0 0
0 0 0 0 0 0 0 0 0
0 0 0 0 0 0 0 0 0
0 0 0 0 0 0 0 0 0
0 0 0 0 0 0 0 0 0
0 0 0 0 0 0 0 0 0
0 0 0 0 0 0 0 0 0
0 0 0 0 0 0 0 0 0
0 0 0 0 0 0 0 0 0
0 0 0 0 0 0 0 0 0
0 0 0 0 0 0 0 0 0
0 0 0 0 0 0 0 0 0
0 0 0 0 0 0 0 0 0
0 0 0 0 0 0 0 0 0
0 0 0 0 0 0 0 0 0
0 0 0 0 0 0 0 0 0
0 0 0 0 0 0 0 0 0
0 0 0 0 0 0 0 0 0
0 0 0 0 0 0 0 0 0
0 0 0 0 0 0 0 0 0
0 0 0 0 0 0 0 0 0
0 0 0 0 0 0 0 0 0
0 0 0 0 0 0 0 0 0
0 0 0 0 0 0 0 0 0
0 0 0 0 0 0 0 0 0
0 0 0 0 0 0 0 0 0
0 0 0 0 0 0 0 0 0
0 0 0 0 0 0 0 0 0
0 0 0 0 0 0 0 0 0
0 0 0 0 0 0 0 0 0
0 0 0 0 0 0 0 0 0
0 0 0 0 0 0 0 0 0
0 0 0 0 0 0 0 0 0
0 0 0 0 0 0 0 0 0
0 0 0 0 0 0 0 0 0
0 0 0 0 0 0 0 0 0
0 0 0 0 0 0 0 0 0
0 0 0 0 0 0 0 0 0
0 0 0 0 0 0 0 0 0
0 0 0 0 0 0 0 0 0
0 0 0 0 0 0 0 0 0
0 0 0 0 0 0 0 0 0
0 0 0 0 0 0 0 0 0
0 0 0 0 0 0 0 0 0
0 0 0 0 0 0 0 0 0
0 0 0 0 0 0 0 0 0
0 0 0 0 0 0 0 0 0
0 0 0 0 0 0 0 0 0
0 0 0 0 0 0 0 0 0
0 0 0 0 0 0 0 0 0
0 0 0 0 0 0 0 0 0
0 0 0 0 0 0 0 0 0
0 0 0 0 0 0 0 0 0
0 0 0 0 0 0 0 0 0
0 0 0 0 0 0 0 0 0
0 0 0 0 0 0 0 0 0
0 0 0 0 0 0 0 0 0
0 0 0 0 0 0 0 0 0
0 0 0 0 0 0 0 0 0
0 0 0 0 0 0 0 0 0
0 0 0 0 0 0 0 0 0
0 0 0 0 0 0 0 0 0
0 0 0 0 0 0 0 0 0
0 0 0 0 0 0 0 0 0
0 0 0 0 0 0 0 0 0
0 0 0 0 0 0 0 0 0
0 0 0 0 0 0 0 0 0
0 0 0 0 0 0 0 0 0
0 0 0 0 0 0 0 0 0
0 0 0 0 0 0 0 0 0
0 0 0 0 0 0 0 0 0
0 0 0 0 0 0 0 0 0
0 0 0 0 0 0 0 0 0
0 0 0 0 0 0 0 0 0
0 0 0 0 0 0 0 0 0
0 0 0 0 0 0 0 0 0
0 0 0 0 0 0 0 0 0
0 0 0 0 0 0 0 0 0
0 0 0 0 0 0 0 0 0
0 0 0 0 0 0 0 0 0
0 0 0 0 0 0 0 0 0
0 0 0 0 0 0 0 0 0
0 0 0 0 0 0 0 0 0
0 0 0 0 0 0 0 0 0
0 0 0 0 0 0 0 0 0
0 0 0 0 0 0 0 0 0
0 0 0 0 0 0 0 0 0
0 0 0 0 0 0 0 0 0
0 0 0 0 0 0 0 0 0
0 0 0 0 0 0 0 0 0
0 0 0 0 0 0 0 0 0
0 0 0 0 0 0 0 0 0
0 0 0 0 0 0 0 0 0
0 0 0 0 0 0 0 0 0
0 0 0 0 0 0 0 0 0
0 0 0 0 0 0 0 0 0
0 0 0 0 0 0 0 0 0
0 0 0 0 0 0 0 0 0
0 0 0 0 0 0 0 0 0
0 0 0 0 0 0 0 0 0
0 0 0 0 0 0 0 0 0
0 0 0 0 0 0 0 0 0
0 0 0 0 0 0 0 0 0
0 0 0 0 0 0 0 0 0
0 0 0 0 0 0 0 0 0
0 0 0 0 0 0 0 0 0
0 0 0 0 0 0 0 0 0
0 0 0 0 0 0 0 0 0
0 0 0 0 0 0 0 0 0
0 0 0 0 0 0 0 0 0
0 0 0 0 0 0 0 0 0
0 0 0 0 0 0 0 0 0
0 0 0 0 0 0 0 0 0
0 0 0 0 0 0 0 0 0
0 0 0 0 0 0 0 0 0
0 0 0 0 0 0 0 0 0
0 0 0 0 0 0 0 0 0
0 0 0 0 0 0 0 0 0
0 0 0 0 0 0 0 0 0
0 0 0 0 0 0 0 0 0
0 0 0 0 0 0 0 0 0
0 0 0 0 0 0 0 0 0
0 0 0 0 0 0 0 0 0
0 0 0 0 0 0 0 0 0
0 0 0 0 0 0 0 0 0
0 0 0 0 0 0 0 0 0
0 0 0 0 0 0 0 0 0
0 0 0 0 0 0 0 0 0
0 0 0 0 0 0 0 0 0
0 0 0 0 0 0 0 0 0
0 0 0 0 0 0 0 0 0
0 0 0 0 0 0 0 0 0
0 0 0 0 0 0 0 0 0
0 0 0 0 0 0 0 0 0
0 0 0 0 0 0 0 0 0
0 0 0 0 0 0 0 0 0
0 0 0 0 0 0 0 0 0
0 0 0 0 0 0 0 0 0
0 0 0 0 0 0 0 0 0
0 0 0 0 0 0 0 0 0
0 0 0 0 0 0 0 0 0
0 0 0 0 0 0 0 0 0
0 0 0 0 0 0 0 0 0
0 0 0 0 0 0 0 0 0
0 0 0 0 0 0 0 0 0
0 0 0 0 0 0 0 0 0
0 0 0 0 0 0 0 0 0
0 0 0 0 0 0 0 0 0
0 0 0 0 0 0 0 0 0
0 0 0 0 0 0 0 0 0
0 0 0 0 0 0 0 0 0
0 0 0 0 0 0 0 0 0
0 0 0 0 0 0 0 0 0
0 0 0 0 0 0 0 0 0
0 0 0 0 0 0 0 0 0
0 0 0 0 0 0 0 0 0
0 0 0 0 0 0 0 0 0
0 0 0 0 0 0 0 0 0
0 0 0 0 0 0 0 0 0
0 0 0 0 0 0 0 0 0
0 0 0 0 0 0 0 0 0
0 0 0 0 0 0 0 0 0
0 0 0 0 0 0 0 0 0
0 0 0 0 0 0 0 0 0
0 0 0 0 0 0 0 0 0
0 0 0 0 0 0 0 0 0
0 0 0 0 0 0 0 0 0
0 0 0 0 0 0 0 0 0
0 0 0 0 0 0 0 0 0
0 0 0 0 0 0 0 0 0
0 0 0 0 0 0 0 0 0
0 0 0 0 0 0 0 0 0
0 0 0 0 0 0 0 0 0
0 0 0 0 0 0 0 0 0
0 0 0 0 0 0 0 0 0
0 0 0 0 0 0 0 0 0
0 0 0 0 0 0 0 0 0
0 0 0 0 0 0 0 0 0
0 0 0 0 0 0 0 0 0
0 0 0 0 0 0 0 0 0
0 0 0 0 0 0 0 0 0
0 0 0 0 0 0 0 0 0
0 0 0 0 0 0 0 0 0
0 0 0 0 0 0 0 0 0
0 0 0 0 0 0 0 0 0
0 0 0 0 0 0 0 0 0
0 0 0 0 0 0 0 0 0
0 0 0 0 0 0 0 0 0
0 0 0 0 0 0 0 0 0
0 0 0 0 0 0 0 0 0
0 0 0 0 0 0 0 0 0
0 0 0 0 0 0 0 0 0
0 0 0 0 0 0 0 0 0
0 0 0 0 0 0 0 0 0
0 0 0 0 0 0 0 0 0
0 0 0 0 0 0 0 0 0
0 0 0 0 0 0 0 0 0
0 0 0 0 0 0 0 0 0
0 0 0 0 0 0 0 0 0
0 0 0 0 0 0 0 0 0
0 0 0 0 0 0 0 0 0
0 0 0 0 0 0 0 0 0
0 0 0 0 0 0 0 0 0
0 0 0 0 0 0 0 0 0
0 0 0 0 0 0 0 0 0
0 0 0 0 0 0 0 0 0
0 0 0 0 0 0 0 0 0
0 0 0 0 0 0 0 0 0
0 0 0 0 0 0 0 0 0
0 0 0 0 0 0 0 0 0
0 0 0 0 0 0 0 0 0
0 0 0 0 0 0 0 0 0
0 0 0 0 0 0 0 0 0
0 0 0 0 0 0 0 0 0
0 0 0 0 0 0 0 0 0
0 0 0 0 0 0 0 0 0
0 0 0 0 0 0 0 0 0
0 0 0 0 0 0 0 0 0
0 0 0 0 0 0 0 0 0
0 0 0 0 0 0 0 0 0
0 0 0 0 0 0 0 0 0
0 0 0 0 0 0 0 0 0
0 0 0 0 0 0 0 0 0
0 0 0 0 0 0 0 0 0
0 0 0 0 0 0 0 0 0
0 0 0 0 0 0 0 0 0
0 0 0 0 0 0 0 0 0
0 0 0 0 0 0 0 0 0
0 0 0 0 0 0 0 0 0
0 0 0 0 0 0 0 0 0
0 0 0 0 0 0 0 0 0
0 0 0 0 0 0 0 0 0
0 0 0 0 0 0 0 0 0
0 0 0 0 0 0 0 0 0
0 0 0 0 0 0 0 0 0
0 0 0 0 0 0 0 0 0
0 0 0 0 0 0 0 0 0
0 0 0 0 0 0 0 0 0
0 0 0 0 0 0 0 0 0
0 0 0 0 0 0 0 0 0
0 0 0 0 0 0 0 0 0
0 0 0 0 0 0 0 0 0
0 0 0 0 0 0 0 0 0
0 0 0 0 0 0 0 0 0
0 0 0 0 0 0 0 0 0
0 0 0 0 0 0 0 0 0
0 0 0 0 0 0 0 0 0
0 0 0 0 0 0 0 0 0
0 0 0 0 0 0 0 0 0
0 0 0 0 0 0 0 0 0
0 0 0 0 0 0 0 0 0
0 0 0 0 0 0 0 0 0
0 0 0 0 0 0 0 0 0
0 0 0 0 0 0 0 0 0
0 0 0 0 0 0 0 0 0
0 0 0 0 0 0 0 0 0
0 0 0 0 0 0 0 0 0
0 0 0 0 0 0 0 0 0
0 0 0 0 0 0 0 0 0
0 0 0 0 0 0 0 0 0
0 0 0 0 0 0 0 0 0
0 0 0 0 0 0 0 0 0
0 0 0 0 0 0 0 0 0
0 0 0 0 0 0 0 0 0
0 0 0 0 0 0 0 0 0
0 0 0 0 0 0 0 0 0
0 0 0 0 0 0 0 0 0
0 0 0 0 0 0 0 0 0
0 0 0 0 0 0 0 0 0
0 0 0 0 0 0 0 0 0
0 0 0 0 0 0 0 0 0
0 0 0 0 0 0 0 0 0
0 0 0 0 0 0 0 0 0
0 0 0 0 0 0 0 0 0
0 0 0 0 0 0 0 0 0
0 0 0 0 0 0 0 0 0
0 0 0 0 0 0 0 0 0
0 0 0 0 0 0 0 0 0
0 0 0 0 0 0 0 0 0
0 0 0 0 0 0 0 0 0
0 0 0 0 0 0 0 0 0
0 0 0 0 0 0 0 0 0
0 0 0 0 0 0 0 0 0
0 0 0 0 0 0 0 0 0
0 0 0 0 0 0 0 0 0
0 0 0 0 0 0 0 0 0
0 0 0 0 0 0 0 0 0
0 0 0 0 0 0 0 0 0
0 0 0 0 0 0 0 0 0
0 0 0 0 0 0 0 0 0
0 0 0 0 0 0 0 0 0
0 0 0 0 0 0 0 0 0
0 0 0 0 0 0 0 0 0
0 0 0 0 0 0 0 0 0
0 0 0 0 0 0 0 0 0
0 0 0 0 0 0 0 0 0
0 0 0 0 0 0 0 0 0
0 0 0 0 0 0 0 0 0
0 0 0 0 0 0 0 0 0
0 0 0 0 0 0 0 0 0
0 0 0 0 0 0 0 0 0
0 0 0 0 0 0 0 0 0
0 0 0 0 0 0 0 0 0
0 0 0 0 0 0 0 0 0
0 0 0 0 0 0 0 0 0
0 0 0 0 0 0 0 0 0
0 0 0 0 0 0 0 0 0
0 0 0 0 0 0 0 0 0
0 0 0 0 0 0 0 0 0
0 0 0 0 0 0 0 0 0
0 0 0 0 0 0 0 0 0
0 0 0 0 0 0 0 0 0
0 0 0 0 0 0 0 0 0
0 0 0 0 0 0 0 0 0
0 0 0 0 0 0 0 0 0
0 0 0 0 0 0 0 0 0
0 0 0 0 0 0 0 0 0
0 0 0 0 0 0 0 0 0
0 0 0 0 0 0 0 0 0
0 0 0 0 0 0 0 0 0
0 0 0 0 0 0 0 0 0
0 0 0 0 0 0 0 0 0
0 0 0 0 0 0 0 0 0
0 0 0 0 0 0 0 0 0
0 0 0 0 0 0 0 0 0
0 0 0 0 0 0 0 0 0
0 0 0 0 0 0 0 0 0
0 0 0 0 0 0 0 0 0
0 0 0 0 0 0 0 0 0
0 0 0 0 0 0 0 0 0
3.04307e-07 3.32618e-07 3.04211e-07 3.32083e-07 3.04307e-07 3.32618e-07 3.04211e-07 3.32083e-07 0
3.53615e-07 3.82674e-07 3.5281e-07 3.81568e-07 3.53615e-07 3.82674e-07 3.5281e-07 3.81568e-07 0
4.04339e-07 4.34476e-07 4.03035e-07 4.32931e-07 4.04339e-07 4.34476e-07 4.03035e-07 4.32931e-07 0
4.57023e-07 4.88494e-07 4.55299e-07 4.86522e-07 4.57023e-07 4.88494e-07 4.55299e-07 4.86522e-07 0
5.12051e-07 5.44948e-07 5.09875e-07 5.42461e-07 5.12051e-07 5.44948e-07 5.09875e-07 5.42461e-07 0
5.69523e-07 6.03773e-07 5.66783e-07 6.00655e-07 5.69523e-07 6.03773e-07 5.66783e-07 6.00655e-07 0
6.29309e-07 6.64834e-07 6.25905e-07 6.61029e-07 6.29309e-07 6.64834e-07 6.25905e-07 6.61029e-07 0
6.91207e-07 7.27752e-07 6.87162e-07 7.23447e-07 6.91207e-07 7.27752e-07 6.87162e-07 7.23447e-07 0
3.07079e-07 3.35844e-07 3.05063e-07 3.33615e-07 3.07079e-07 3.35844e-07 3.05063e-07 3.33615e-07 0
3.57167e-07 3.86669e-07 3.54771e-07 3.84031e-07 3.57167e-07 3.86669e-07 3.54771e-07 3.84031e-07 0
4.08649e-07 4.3921e-07 4.05832e-07 4.36148e-07 4.08649e-07 4.3921e-07 4.05832e-07 4.36148e-07 0
4.62051e-07 4.93905e-07 4.58821e-07 4.9046e-07 4.62051e-07 4.93905e-07 4.58821e-07 4.9046e-07 0
5.17738e-07 5.51009e-07 5.14146e-07 5.47228e-07 5.17738e-07 5.51009e-07 5.14146e-07 5.47228e-07 0
5.75877e-07 6.10559e-07 5.71949e-07 6.06418e-07 5.75877e-07 6.10559e-07 5.71949e-07 6.06418e-07 0
6.36448e-07 6.72512e-07 6.32126e-07 6.67904e-07 6.36448e-07 6.72512e-07 6.32126e-07 6.67904e-07 0
6.9941e-07 7.3685e-07 6.94482e-07 7.31335e-07 6.9941e-07 7.3685e-07 6.94482e-07 7.31335e-07 0
7.64877e-07 8.04031e-07 7.59074e-07 7.98023e-07 7.64877e-07 8.04031e-07 7.59074e-07 7.98023e-07 0
3.13432e-07 3.42377e-07 3.09317e-07 3.38187e-07 3.13432e-07 3.42377e-07 3.09317e-07 3.38187e-07 0
3.63853e-07 3.93593e-07 3.59594e-07 3.89225e-07 3.63853e-07 3.93593e-07 3.59594e-07 3.89225e-07 0
4.15765e-07 4.46611e-07 4.11305e-07 4.42008e-07 4.15765e-07 4.46611e-07 4.11305e-07 4.42008e-07 0
4.69659e-07 5.01792e-07 4.64949e-07 4.96936e-07 4.69659e-07 5.01792e-07 4.64949e-07 4.96936e-07 0
5.25828e-07 5.59373e-07 5.20863e-07 5.54258e-07 5.25828e-07 5.59373e-07 5.20863e-07 5.54258e-07 0
5.84461e-07 6.19469e-07 5.79224e-07 6.1405e-07 5.84461e-07 6.19469e-07 5.79224e-07 6.1405e-07 0
6.4564e-07 6.82147e-07 6.40064e-07 6.76323e-07 6.4564e-07 6.82147e-07 6.40064e-07 6.76323e-07 0
7.09448e-07 7.47546e-07 7.03414e-07 7.41189e-07 7.09448e-07 7.47546e-07 7.03414e-07 7.41189e-07 0
7.76035e-07 8.15796e-07 7.69417e-07 8.08787e-07 7.76035e-07 8.15796e-07 7.69417e-07 8.08787e-07 0
2.75253e-07 3.03002e-07 2.68511e-07 2.96463e-07 2.75253e-07 3.03002e-07 2.68511e-07 2.96463e-07 0
3.23672e-07 3.5239e-07 3.17275e-07 3.46181e-07 3.23672e-07 3.5239e-07 3.17275e-07 3.46181e-07 0
3.73795e-07 4.03557e-07 3.67656e-07 3.9743e-07 3.73795e-07 4.03557e-07 3.67656e-07 3.9743e-07 0
4.25781e-07 4.5674e-07 4.19641e-07 4.50555e-07 4.25781e-07 4.5674e-07 4.19641e-07 4.50555e-07 0
4.79889e-07 5.12183e-07 4.73658e-07 5.05874e-07 4.79889e-07 5.12183e-07 4.73658e-07 5.05874e-07 0
5.3635e-07 5.70094e-07 5.29974e-07 5.63613e-07 5.3635e-07 5.70094e-07 5.29974e-07 5.63613e-07 0
5.95352e-07 6.30629e-07 5.88778e-07 6.23907e-07 5.95352e-07 6.30629e-07 5.88778e-07 6.23907e-07 0
6.57037e-07 6.93923e-07 6.50183e-07 6.86858e-07 6.57037e-07 6.93923e-07 6.50183e-07 6.86858e-07 0
7.21548e-07 7.60156e-07 7.14301e-07 7.52622e-07 7.21548e-07 7.60156e-07 7.14301e-07 7.52622e-07 0
7.89062e-07 8.29457e-07 7.81293e-07 8.21329e-07 7.89062e-07 8.29457e-07 7.81293e-07 8.21329e-07 0
2.89913e-07 3.1719e-07 2.81e-07 3.08585e-07 2.89913e-07 3.1719e-07 2.81e-07 3.08585e-07 0
3.37535e-07 3.65827e-07 3.29133e-07 3.57655e-07 3.37535e-07 3.65827e-07 3.29133e-07 3.57655e-07 0
3.86989e-07 4.16561e-07 3.78971e-07 4.08683e-07 3.86989e-07 4.16561e-07 3.78971e-07 4.08683e-07 0
4.38709e-07 4.69626e-07 4.3089e-07 4.61849e-07 4.38709e-07 4.69626e-07 4.3089e-07 4.61849e-07 0
4.92778e-07 5.25117e-07 4.85011e-07 5.17337e-07 4.92778e-07 5.25117e-07 4.85011e-07 5.17337e-07 0
5.49345e-07 5.83208e-07 5.41538e-07 5.75342e-07 5.49345e-07 5.83208e-07 5.41538e-07 5.75342e-07 0
6.08585e-07 6.44067e-07 6.00656e-07 6.36027e-07 6.08585e-07 6.44067e-07 6.00656e-07 6.36027e-07 0
6.70665e-07 7.07868e-07 6.62521e-07 6.99548e-07 6.70665e-07 7.07868e-07 6.62521e-07 6.99548e-07 0
7.35773e-07 7.74828e-07 7.27297e-07 7.66101e-07 7.35773e-07 7.74828e-07 7.27297e-07 7.66101e-07 0
8.04111e-07 8.45088e-07 7.95171e-07 8.35818e-07 8.04111e-07 8.45088e-07 7.95171e-07 8.35818e-07 0
3.08228e-07 3.34567e-07 2.97229e-07 3.24168e-07 3.08228e-07 3.34567e-07 2.97229e-07 3.24168e-07 0
3.54476e-07 3.82474e-07 3.44339e-07 3.72484e-07 3.54476e-07 3.82474e-07 3.44339e-07 3.72484e-07 0
4.03396e-07 4.3255e-07 3.93544e-07 4.22953e-07 4.03396e-07 4.3255e-07 3.93544e-07 4.22953e-07 0
4.54494e-07 4.85233e-07 4.45036e-07 4.75893e-07 4.54494e-07 4.85233e-07 4.45036e-07 4.75893e-07 0
5.08301e-07 5.40582e-07 4.99018e-07 5.31345e-07 5.08301e-07 5.40582e-07 4.99018e-07 5.31345e-07 0
5.64806e-07 5.98713e-07 5.55579e-07 5.89469e-07 5.64806e-07 5.98713e-07 5.55579e-07 5.89469e-07 0
6.24159e-07 6.59783e-07 6.1488e-07 6.5043e-07 6.24159e-07 6.59783e-07 6.1488e-07 6.5043e-07 0
6.86527e-07 7.23986e-07 6.77095e-07 7.14413e-07 6.86527e-07 7.23986e-07 6.77095e-07 7.14413e-07 0
7.52126e-07 7.91569e-07 7.42423e-07 7.81648e-07 7.52126e-07 7.91569e-07 7.42423e-07 7.81648e-07 0
8.21189e-07 8.62703e-07 8.11078e-07 8.52287e-07 8.21189e-07 8.62703e-07 8.11078e-07 8.52287e-07 0
3.7485e-07 4.02281e-07 3.62658e-07 3.90465e-07 3.7485e-07 4.02281e-07 3.62658e-07 3.90465e-07 0
4.22811e-07 4.51459e-07 4.11245e-07 4.40201e-07 4.22811e-07 4.51459e-07 4.11245e-07 4.40201e-07 0
4.73051e-07 5.0347e-07 4.61995e-07 4.92625e-07 4.73051e-07 5.0347e-07 4.61995e-07 4.92625e-07 0
5.26383e-07 5.58524e-07 5.15635e-07 5.47866e-07 5.26383e-07 5.58524e-07 5.15635e-07 5.47866e-07 0
5.82689e-07 6.16574e-07 5.72071e-07 6.05976e-07 5.82689e-07 6.16574e-07 5.72071e-07 6.05976e-07 0
6.42041e-07 6.7781e-07 6.31436e-07 6.67102e-07 6.42041e-07 6.7781e-07 6.31436e-07 6.67102e-07 0
7.04703e-07 7.42402e-07 6.93893e-07 7.31469e-07 7.04703e-07 7.42402e-07 6.93893e-07 7.31469e-07 0
7.70735e-07 8.10466e-07 7.59704e-07 7.99282e-07 7.70735e-07 8.10466e-07 7.59704e-07 7.99282e-07 0
8.40355e-07 8.82306e-07 8.29022e-07 8.70742e-07 8.40355e-07 8.82306e-07 8.29022e-07 8.70742e-07 0
3.98045e-07 4.24511e-07 3.84345e-07 4.11421e-07 3.98045e-07 4.24511e-07 3.84345e-07 4.11421e-07 0
4.44565e-07 4.72855e-07 4.31756e-07 4.60225e-07 4.44565e-07 4.72855e-07 4.31756e-07 4.60225e-07 0
4.94272e-07 5.24467e-07 4.81719e-07 5.11976e-07 4.94272e-07 5.24467e-07 4.81719e-07 5.11976e-07 0
5.47124e-07 5.78859e-07 5.34809e-07 5.66831e-07 5.47124e-07 5.78859e-07 5.34809e-07 5.66831e-07 0
6.02873e-07 6.36787e-07 5.90944e-07 6.24804e-07 6.02873e-07 6.36787e-07 5.90944e-07 6.24804e-07 0
6.62354e-07 6.98248e-07 6.50327e-07 6.86167e-07 6.62354e-07 6.98248e-07 6.50327e-07 6.86167e-07 0
7.25229e-07 7.63068e-07 7.13101e-07 7.50867e-07 7.25229e-07 7.63068e-07 7.13101e-07 7.50867e-07 0
7.91538e-07 8.31495e-07 7.79263e-07 8.19095e-07 7.91538e-07 8.31495e-07 7.79263e-07 8.19095e-07 0
5.69931e-07 6.0165e-07 5.56555e-07 5.88167e-07 5.69931e-07 6.0165e-07 5.56555e-07 5.88167e-07 0
6.25698e-07 6.59699e-07 6.12166e-07 6.46152e-07 6.25698e-07 6.59699e-07 6.12166e-07 6.46152e-07 0
6.85241e-07 7.21035e-07 6.71717e-07 7.07596e-07 6.85241e-07 7.21035e-07 6.71717e-07 7.07596e-07 0
7.47985e-07 7.85843e-07 7.34579e-07 7.7244e-07 7.47985e-07 7.85843e-07 7.34579e-07 7.7244e-07 0
8.14369e-07 8.54463e-07 8.00943e-07 8.40971e-07 8.14369e-07 8.54463e-07 8.00943e-07 8.40971e-07 0
0 0 0 0 0 0 0 0 0
0 0 0 0 0 0 0 0 0
0 0 0 0 0 0 0 0 0
0 0 0 0 0 0 0 0 0
0 0 0 0 0 0 0 0 0
0 0 0 0 0 0 0 0 0
0 0 0 0 0 0 0 0 0
0 0 0 0 0 0 0 0 0
0 0 0 0 0 0 0 0 0
0 0 0 0 0 0 0 0 0
0 0 0 0 0 0 0 0 0
0 0 0 0 0 0 0 0 0
0 0 0 0 0 0 0 0 0
0 0 0 0 0 0 0 0 0
0 0 0 0 0 0 0 0 0
0 0 0 0 0 0 0 0 0
0 0 0 0 0 0 0 0 0
0 0 0 0 0 0 0 0 0
0 0 0 0 0 0 0 0 0
0 0 0 0 0 0 0 0 0
0 0 0 0 0 0 0 0 0
0 0 0 0 0 0 0 0 0
0 0 0 0 0 0 0 0 0
0 0 0 0 0 0 0 0 0
0 0 0 0 0 0 0 0 0
0 0 0 0 0 0 0 0 0
0 0 0 0 0 0 0 0 0
0 0 0 0 0 0 0 0 0
0 0 0 0 0 0 0 0 0
0 0 0 0 0 0 0 0 0
0 0 0 0 0 0 0 0 0
0 0 0 0 0 0 0 0 0
0 0 0 0 0 0 0 0 0
0 0 0 0 0 0 0 0 0
0 0 0 0 0 0 0 0 0
0 0 0 0 0 0 0 0 0
0 0 0 0 0 0 0 0 0
0 0 0 0 0 0 0 0 0
0 0 0 0 0 0 0 0 0
0 0 0 0 0 0 0 0 0
0 0 0 0 0 0 0 0 0
0 0 0 0 0 0 0 0 0
0 0 0 0 0 0 0 0 0
0 0 0 0 0 0 0 0 0
0 0 0 0 0 0 0 0 0
0 0 0 0 0 0 0 0 0
0 0 0 0 0 0 0 0 0
0 0 0 0 0 0 0 0 0
0 0 0 0 0 0 0 0 0
0 0 0 0 0 0 0 0 0
0 0 0 0 0 0 0 0 0
0 0 0 0 0 0 0 0 0
0 0 0 0 0 0 0 0 0
0 0 0 0 0 0 0 0 0
0 0 0 0 0 0 0 0 0
0 0 0 0 0 0 0 0 0
0 0 0 0 0 0 0 0 0
0 0 0 0 0 0 0 0 0
0 0 0 0 0 0 0 0 0
0 0 0 0 0 0 0 0 0
0 0 0 0 0 0 0 0 0
0 0 0 0 0 0 0 0 0
0 0 0 0 0 0 0 0 0
0 0 0 0 0 0 0 0 0
0 0 0 0 0 0 0 0 0
0 0 0 0 0 0 0 0 0
0 0 0 0 0 0 0 0 0
0 0 0 0 0 0 0 0 0
0 0 0 0 0 0 0 0 0
0 0 0 0 0 0 0 0 0
0 0 0 0 0 0 0 0 0
0 0 0 0 0 0 0 0 0
0 0 0 0 0 0 0 0 0
0 0 0 0 0 0 0 0 0
0 0 0 0 0 0 0 0 0
0 0 0 0 0 0 0 0 0
0 0 0 0 0 0 0 0 0
0 0 0 0 0 0 0 0 0
0 0 0 0 0 0 0 0 0
0 0 0 0 0 0 0 0 0
0 0 0 0 0 0 0 0 0
0 0 0 0 0 0 0 0 0
0 0 0 0 0 0 0 0 0
0 0 0 0 0 0 0 0 0
0 0 0 0 0 0 0 0 0
0 0 0 0 0 0 0 0 0
0 0 0 0 0 0 0 0 0
0 0 0 0 0 0 0 0 0
0 0 0 0 0 0 0 0 0
0 0 0 0 0 0 0 0 0
0 0 0 0 0 0 0 0 0
0 0 0 0 0 0 0 0 0
0 0 0 0 0 0 0 0 0
0 0 0 0 0 0 0 0 0
0 0 0 0 0 0 0 0 0
0 0 0 0 0 0 0 0 0
0 0 0 0 0 0 0 0 0
0 0 0 0 0 0 0 0 0
0 0 0 0 0 0 0 0 0
0 0 0 0 0 0 0 0 0
0 0 0 0 0 0 0 0 0
0 0 0 0 0 0 0 0 0
0 0 0 0 0 0 0 0 0
0 0 0 0 0 0 0 0 0
0 0 0 0 0 0 0 0 0
0 0 0 0 0 0 0 0 0
0 0 0 0 0 0 0 0 0
0 0 0 0 0 0 0 0 0
0 0 0 0 0 0 0 0 0
0 0 0 0 0 0 0 0 0
0 0 0 0 0 0 0 0 0
0 0 0 0 0 0 0 0 0
0 0 0 0 0 0 0 0 0
0 0 0 0 0 0 0 0 0
0 0 0 0 0 0 0 0 0
0 0 0 0 0 0 0 0 0
0 0 0 0 0 0 0 0 0
0 0 0 0 0 0 0 0 0
0 0 0 0 0 0 0 0 0
0 0 0 0 0 0 0 0 0
0 0 0 0 0 0 0 0 0
0 0 0 0 0 0 0 0 0
0 0 0 0 0 0 0 0 0
0 0 0 0 0 0 0 0 0
0 0 0 0 0 0 0 0 0
0 0 0 0 0 0 0 0 0
0 0 0 0 0 0 0 0 0
0 0 0 0 0 0 0 0 0
0 0 0 0 0 0 0 0 0
0 0 0 0 0 0 0 0 0
0 0 0 0 0 0 0 0 0
0 0 0 0 0 0 0 0 0
0 0 0 0 0 0 0 0 0
0 0 0 0 0 0 0 0 0
0 0 0 0 0 0 0 0 0
0 0 0 0 0 0 0 0 0
0 0 0 0 0 0 0 0 0
0 0 0 0 0 0 0 0 0
0 0 0 0 0 0 0 0 0
0 0 0 0 0 0 0 0 0
0 0 0 0 0 0 0 0 0
0 0 0 0 0 0 0 0 0
0 0 0 0 0 0 0 0 0
0 0 0 0 0 0 0 0 0
0 0 0 0 0 0 0 0 0
0 0 0 0 0 0 0 0 0
0 0 0 0 0 0 0 0 0
0 0 0 0 0 0 0 0 0
0 0 0 0 0 0 0 0 0
0 0 0 0 0 0 0 0 0
0 0 0 0 0 0 0 0 0
0 0 0 0 0 0 0 0 0
0 0 0 0 0 0 0 0 0
0 0 0 0 0 0 0 0 0
0 0 0 0 0 0 0 0 0
0 0 0 0 0 0 0 0 0
0 0 0 0 0 0 0 0 0
0 0 0 0 0 0 0 0 0
0 0 0 0 0 0 0 0 0
0 0 0 0 0 0 0 0 0
0 0 0 0 0 0 0 0 0
0 0 0 0 0 0 0 0 0
0 0 0 0 0 0 0 0 0
0 0 0 0 0 0 0 0 0
0 0 0 0 0 0 0 0 0
0 0 0 0 0 0 0 0 0
0 0 0 0 0 0 0 0 0
0 0 0 0 0 0 0 0 0
0 0 0 0 0 0 0 0 0
0 0 0 0 0 0 0 0 0
0 0 0 0 0 0 0 0 0
0 0 0 0 0 0 0 0 0
0 0 0 0 0 0 0 0 0
0 0 0 0 0 0 0 0 0
0 0 0 0 0 0 0 0 0
0 0 0 0 0 0 0 0 0
0 0 0 0 0 0 0 0 0
0 0 0 0 0 0 0 0 0
0 0 0 0 0 0 0 0 0
0 0 0 0 0 0 0 0 0
0 0 0 0 0 0 0 0 0
0 0 0 0 0 0 0 0 0
0 0 0 0 0 0 0 0 0
0 0 0 0 0 0 0 0 0
0 0 0 0 0 0 0 0 0
0 0 0 0 0 0 0 0 0
0 0 0 0 0 0 0 0 0
0 0 0 0 0 0 0 0 0
0 0 0 0 0 0 0 0 0
0 0 0 0 0 0 0 0 0
0 0 0 0 0 0 0 0 0
0 0 0 0 0 0 0 0 0
0 0 0 0 0 0 0 0 0
0 0 0 0 0 0 0 0 0
0 0 0 0 0 0 0 0 0
0 0 0 0 0 0 0 0 0
0 0 0 0 0 0 0 0 0
0 0 0 0 0 0 0 0 0
0 0 0 0 0 0 0 0 0
0 0 0 0 0 0 0 0 0
0 0 0 0 0 0 0 0 0
0 0 0 0 0 0 0 0 0
0 0 0 0 0 0 0 0 0
0 0 0 0 0 0 0 0 0
0 0 0 0 0 0 0 0 0
0 0 0 0 0 0 0 0 0
0 0 0 0 0 0 0 0 0
0 0 0 0 0 0 0 0 0
0 0 0 0 0 0 0 0 0
0 0 0 0 0 0 0 0 0
0 0 0 0 0 0 0 0 0
0 0 0 0 0 0 0 0 0
0 0 0 0 0 0 0 0 0
0 0 0 0 0 0 0 0 0
0 0 0 0 0 0 0 0 0
0 0 0 0 0 0 0 0 0
0 0 0 0 0 0 0 0 0
0 0 0 0 0 0 0 0 0
0 0 0 0 0 0 0 0 0
0 0 0 0 0 0 0 0 0
0 0 0 0 0 0 0 0 0
0 0 0 0 0 0 0 0 0
0 0 0 0 0 0 0 0 0
0 0 0 0 0 0 0 0 0
0 0 0 0 0 0 0 0 0
0 0 0 0 0 0 0 0 0
0 0 0 0 0 0 0 0 0
0 0 0 0 0 0 0 0 0
0 0 0 0 0 0 0 0 0
0 0 0 0 0 0 0 0 0
0 0 0 0 0 0 0 0 0
0 0 0 0 0 0 0 0 0
0 0 0 0 0 0 0 0 0
0 0 0 0 0 0 0 0 0
0 0 0 0 0 0 0 0 0
0 0 0 0 0 0 0 0 0
0 0 0 0 0 0 0 0 0
0 0 0 0 0 0 0 0 0
0 0 0 0 0 0 0 0 0
0 0 0 0 0 0 0 0 0
0 0 0 0 0 0 0 0 0
0 0 0 0 0 0 0 0 0
0 0 0 0 0 0 0 0 0
0 0 0 0 0 0 0 0 0
0 0 0 0 0 0 0 0 0
0 0 0 0 0 0 0 0 0
0 0 0 0 0 0 0 0 0
0 0 0 0 0 0 0 0 0
0 0 0 0 0 0 0 0 0
0 0 0 0 0 0 0 0 0
0 0 0 0 0 0 0 0 0
0 0 0 0 0 0 0 0 0
0 0 0 0 0 0 0 0 0
0 0 0 0 0 0 0 0 0
0 0 0 0 0 0 0 0 0
0 0 0 0 0 0 0 0 0
0 0 0 0 0 0 0 0 0
0 0 0 0 0 0 0 0 0
0 0 0 0 0 0 0 0 0
0 0 0 0 0 0 0 0 0
0 0 0 0 0 0 0 0 0
0 0 0 0 0 0 0 0 0
0 0 0 0 0 0 0 0 0
0 0 0 0 0 0 0 0 0
0 0 0 0 0 0 0 0 0
0 0 0 0 0 0 0 0 0
0 0 0 0 0 0 0 0 0
0 0 0 0 0 0 0 0 0
0 0 0 0 0 0 0 0 0
0 0 0 0 0 0 0 0 0
0 0 0 0 0 0 0 0 0
0 0 0 0 0 0 0 0 0
0 0 0 0 0 0 0 0 0
0 0 0 0 0 0 0 0 0
0 0 0 0 0 0 0 0 0
0 0 0 0 0 0 0 0 0
0 0 0 0 0 0 0 0 0
0 0 0 0 0 0 0 0 0
0 0 0 0 0 0 0 0 0
0 0 0 0 0 0 0 0 0
0 0 0 0 0 0 0 0 0
0 0 0 0 0 0 0 0 0
0 0 0 0 0 0 0 0 0
0 0 0 0 0 0 0 0 0
0 0 0 0 0 0 0 0 0
0 0 0 0 0 0 0 0 0
0 0 0 0 0 0 0 0 0
0 0 0 0 0 0 0 0 0
0 0 0 0 0 0 0 0 0
0 0 0 0 0 0 0 0 0
0 0 0 0 0 0 0 0 0
0 0 0 0 0 0 0 0 0
0 0 0 0 0 0 0 0 0
0 0 0 0 0 0 0 0 0
0 0 0 0 0 0 0 0 0
0 0 0 0 0 0 0 0 0
0 0 0 0 0 0 0 0 0
0 0 0 0 0 0 0 0 0
0 0 0 0 0 0 0 0 0
0 0 0 0 0 0 0 0 0
0 0 0 0 0 0 0 0 0
0 0 0 0 0 0 0 0 0
0 0 0 0 0 0 0 0 0
0 0 0 0 0 0 0 0 0
0 0 0 0 0 0 0 0 0
0 0 0 0 0 0 0 0 0
0 0 0 0 0 0 0 0 0
0 0 0 0 0 0 0 0 0
0 0 0 0 0 0 0 0 0
0 0 0 0 0 0 0 0 0
0 0 0 0 0 0 0 0 0
0 0 0 0 0 0 0 0 0
0 0 0 0 0 0 0 0 0
0 0 0 0 0 0 0 0 0
0 0 0 0 0 0 0 0 0
0 0 0 0 0 0 0 0 0
0 0 0 0 0 0 0 0 0
0 0 0 0 0 0 0 0 0
0 0 0 0 0 0 0 0 0
0 0 0 0 0 0 0 0 0
0 0 0 0 0 0 0 0 0
0 0 0 0 0 0 0 0 0
0 0 0 0 0 0 0 0 0
0 0 0 0 0 0 0 0 0
0 0 0 0 0 0 0 0 0
0 0 0 0 0 0 0 0 0
0 0 0 0 0 0 0 0 0
0 0 0 0 0 0 0 0 0
0 0 0 0 0 0 0 0 0
0 0 0 0 0 0 0 0 0
0 0 0 0 0 0 0 0 0
0 0 0 0 0 0 0 0 0
0 0 0 0 0 0 0 0 0
0 0 0 0 0 0 0 0 0
0 0 0 0 0 0 0 0 0
0 0 0 0 0 0 0 0 0
0 0 0 0 0 0 0 0 0
0 0 0 0 0 0 0 0 0
0 0 0 0 0 0 0 0 0
0 0 0 0 0 0 0 0 0
0 0 0 0 0 0 0 0 0
0 0 0 0 0 0 0 0 0
0 0 0 0 0 0 0 0 0
0 0 0 0 0 0 0 0 0
0 0 0 0 0 0 0 0 0
0 0 0 0 0 0 0 0 0
0 0 0 0 0 0 0 0 0
0 0 0 0 0 0 0 0 0
0 0 0 0 0 0 0 0 0
0 0 0 0 0 0 0 0 0
0 0 0 0 0 0 0 0 0
0 0 0 0 0 0 0 0 0
0 0 0 0 0 0 0 0 0
0 0 0 0 0 0 0 0 0
0 0 0 0 0 0 0 0 0
0 0 0 0 0 0 0 0 0
0 0 0 0 0 0 0 0 0
0 0 0 0 0 0 0 0 0
0 0 0 0 0 0 0 0 0
0 0 0 0 0 0 0 0 0
0 0 0 0 0 0 0 0 0
0 0 0 0 0 0 0 0 0
0 0 0 0 0 0 0 0 0
0 0 0 0 0 0 0 0 0
0 0 0 0 0 0 0 0 0
0 0 0 0 0 0 0 0 0
0 0 0 0 0 0 0 0 0
0 0 0 0 0 0 0 0 0
0 0 0 0 0 0 0 0 0
0 0 0 0 0 0 0 0 0
0 0 0 0 0 0 0 0 0
0 0 0 0 0 0 0 0 0
0 0 0 0 0 0 0 0 0
0 0 0 0 0 0 0 0 0
0 0 0 0 0 0 0 0 0
0 0 0 0 0 0 0 0 0
0 0 0 0 0 0 0 0 0
0 0 0 0 0 0 0 0 0
0 0 0 0 0 0 0 0 0
0 0 0 0 0 0 0 0 0
0 0 0 0 0 0 0 0 0
0 0 0 0 0 0 0 0 0
0 0 0 0 0 0 0 0 0
0 0 0 0 0 0 0 0 0
0 0 0 0 0 0 0 0 0
0 0 0 0 0 0 0 0 0
0 0 0 0 0 0 0 0 0
0 0 0 0 0 0 0 0 0
0 0 0 0 0 0 0 0 0
0 0 0 0 0 0 0 0 0
0 0 0 0 0 0 0 0 0
0 0 0 0 0 0 0 0 0
0 0 0 0 0 0 0 0 0
0 0 0 0 0 0 0 0 0
0 0 0 0 0 0 0 0 0
0 0 0 0 0 0 0 0 0
0 0 0 0 0 0 0 0 0
0 0 0 0 0 0 0 0 0
0 0 0 0 0 0 0 0 0
0 0 0 0 0 0 0 0 0
0 0 0 0 0 0 0 0 0
0 0 0 0 0 0 0 0 0
0 0 0 0 0 0 0 0 0
0 0 0 0 0 0 0 0 0
0 0 0 0 0 0 0 0 0
0 0 0 0 0 0 0 0 0
0 0 0 0 0 0 0 0 0
0 0 0 0 0 0 0 0 0
0 0 0 0 0 0 0 0 0
0 0 0 0 0 0 0 0 0
0 0 0 0 0 0 0 0 0
0 0 0 0 0 0 0 0 0
0 0 0 0 0 0 0 0 0
0 0 0 0 0 0 0 0 0
0 0 0 0 0 0 0 0 0
0 0 0 0 0 0 0 0 0
0 0 0 0 0 0 0 0 0
0 0 0 0 0 0 0 0 0
0 0 0 0 0 0 0 0 0
0 0 0 0 0 0 0 0 0
0 0 0 0 0 0 0 0 0
0 0 0 0 0 0 0 0 0
0 0 0 0 0 0 0 0 0
0 0 0 0 0 0 0 0 0
0 0 0 0 0 0 0 0 0
0 0 0 0 0 0 0 0 0
0 0 0 0 0 0 0 0 0
0 0 0 0 0 0 0 0 0
0 0 0 0 0 0 0 0 0
0 0 0 0 0 0 0 0 0
0 0 0 0 0 0 0 0 0
0 0 0 0 0 0 0 0 0
0 0 0 0 0 0 0 0 0
0 0 0 0 0 0 0 0 0
0 0 0 0 0 0 0 0 0
0 0 0 0 0 0 0 0 0
0 0 0 0 0 0 0 0 0
0 0 0 0 0 0 0 0 0
0 0 0 0 0 0 0 0 0
0 0 0 0 0 0 0 0 0
0 0 0 0 0 0 0 0 0
0 0 0 0 0 0 0 0 0
0 0 0 0 0 0 0 0 0
0 0 0 0 0 0 0 0 0
0 0 0 0 0 0 0 0 0
0 0 0 0 0 0 0 0 0
0 0 0 0 0 0 0 0 0
0 0 0 0 0 0 0 0 0
0 0 0 0 0 0 0 0 0
0 0 0 0 0 0 0 0 0
0 0 0 0 0 0 0 0 0
0 0 0 0 0 0 0 0 0
0 0 0 0 0 0 0 0 0
0 0 0 0 0 0 0 0 0
0 0 0 0 0 0 0 0 0
0 0 0 0 0 0 0 0 0
0 0 0 0 0 0 0 0 0
0 0 0 0 0 0 0 0 0
0 0 0 0 0 0 0 0 0
0 0 0 0 0 0 0 0 0
0 0 0 0 0 0 0 0 0
0 0 0 0 0 0 0 0 0
0 0 0 0 0 0 0 0 0
0 0 0 0 0 0 0 0 0
0 0 0 0 0 0 0 0 0
0 0 0 0 0 0 0 0 0
0 0 0 0 0 0 0 0 0
0 0 0 0 0 0 0 0 0
0 0 0 0 0 0 0 0 0
0 0 0 0 0 0 0 0 0
0 0 0 0 0 0 0 0 0
0 0 0 0 0 0 0 0 0
0 0 0 0 0 0 0 0 0
0 0 0 0 0 0 0 0 0
0 0 0 0 0 0 0 0 0
0 0 0 0 0 0 0 0 0
0 0 0 0 0 0 0 0 0
0 0 0 0 0 0 0 0 0
0 0 0 0 0 0 0 0 0
0 0 0 0 0 0 0 0 0
0 0 0 0 0 0 0 0 0
0 0 0 0 0 0 0 0 0
0 0 0 0 0 0 0 0 0
0 0 0 0 0 0 0 0 0
0 0 0 0 0 0 0 0 0
0 0 0 0 0 0 0 0 0
0 0 0 0 0 0 0 0 0
0 0 0 0 0 0 0 0 0
0 0 0 0 0 0 0 0 0
0 0 0 0 0 0 0 0 0
0 0 0 0 0 0 0 0 0
0 0 0 0 0 0 0 0 0
0 0 0 0 0 0 0 0 0
0 0 0 0 0 0 0 0 0
0 0 0 0 0 0 0 0 0
0 0 0 0 0 0 0 0 0
0 0 0 0 0 0 0 0 0
0 0 0 0 0 0 0 0 0
0 0 0 0 0 0 0 0 0
0 0 0 0 0 0 0 0 0
0 0 0 0 0 0 0 0 0
0 0 0 0 0 0 0 0 0
0 0 0 0 0 0 0 0 0
0 0 0 0 0 0 0 0 0
0 0 0 0 0 0 0 0 0
0 0 0 0 0 0 0 0 0
0 0 0 0 0 0 0 0 0
0 0 0 0 0 0 0 0 0
0 0 0 0 0 0 0 0 0
0 0 0 0 0 0 0 0 0
0 0 0 0 0 0 0 0 0
0 0 0 0 0 0 0 0 0
0 0 0 0 0 0 0 0 0
0 0 0 0 0 0 0 0 0
0 0 0 0 0 0 0 0 0
0 0 0 0 0 0 0 0 0
0 0 0 0 0 0 0 0 0
0 0 0 0 0 0 0 0 0
0 0 0 0 0 0 0 0 0
0 0 0 0 0 0 0 0 0
0 0 0 0 0 0 0 0 0
0 0 0 0 0 0 0 0 0
0 0 0 0 0 0 0 0 0
0 0 0 0 0 0 0 0 0
0 0 0 0 0 0 0 0 0
0 0 0 0 0 0 0 0 0
0 0 0 0 0 0 0 0 0
0 0 0 0 0 0 0 0 0
0 0 0 0 0 0 0 0 0
0 0 0 0 0 0 0 0 0
0 0 0 0 0 0 0 0 0
0 0 0 0 0 0 0 0 0
0 0 0 0 0 0 0 0 0
0 0 0 0 0 0 0 0 0
0 0 0 0 0 0 0 0 0
0 0 0 0 0 0 0 0 0
0 0 0 0 0 0 0 0 0
0 0 0 0 0 0 0 0 0
0 0 0 0 0 0 0 0 0
0 0 0 0 0 0 0 0 0
0 0 0 0 0 0 0 0 0
0 0 0 0 0 0 0 0 0
0 0 0 0 0 0 0 0 0
0 0 0 0 0 0 0 0 0
0 0 0 0 0 0 0 0 0
0 0 0 0 0 0 0 0 0
1.72005e-07 1.87671e-07 1.72394e-07 1.87847e-07 1.72005e-07 1.87671e-07 1.72394e-07 1.87847e-07 0
1.99318e-07 2.15382e-07 1.99315e-07 2.15108e-07 1.99318e-07 2.15382e-07 1.99315e-07 2.15108e-07 0
2.273e-07 2.43798e-07 2.26827e-07 2.43048e-07 2.273e-07 2.43798e-07 2.26827e-07 2.43048e-07 0
2.56133e-07 2.73364e-07 2.55256e-07 2.72387e-07 2.56133e-07 2.73364e-07 2.55256e-07 2.72387e-07 0
2.86321e-07 3.04422e-07 2.85203e-07 3.0309e-07 2.86321e-07 3.04422e-07 2.85203e-07 3.0309e-07 0
3.17946e-07 3.36797e-07 3.1644e-07 3.35029e-07 3.17946e-07 3.36797e-07 3.1644e-07 3.35029e-07 0
3.50839e-07 3.70354e-07 3.48871e-07 3.68106e-07 3.50839e-07 3.70354e-07 3.48871e-07 3.68106e-07 0
3.84795e-07 4.04741e-07 3.82383e-07 4.02161e-07 3.84795e-07 4.04741e-07 3.82383e-07 4.02161e-07 0
1.72321e-07 1.88359e-07 1.7198e-07 1.878e-07 1.72321e-07 1.88359e-07 1.7198e-07 1.878e-07 0
2.00271e-07 2.16697e-07 1.99569e-07 2.15801e-07 2.00271e-07 2.16697e-07 1.99569e-07 2.15801e-07 0
2.28904e-07 2.45829e-07 2.2785e-07 2.44537e-07 2.28904e-07 2.45829e-07 2.2785e-07 2.44537e-07 0
2.58456e-07 2.76061e-07 2.56998e-07 2.74359e-07 2.58456e-07 2.76061e-07 2.56998e-07 2.74359e-07 0
2.89251e-07 3.07657e-07 2.87401e-07 3.05641e-07 2.89251e-07 3.07657e-07 2.87401e-07 3.05641e-07 0
3.21408e-07 3.40575e-07 3.19273e-07 3.3828e-07 3.21408e-07 3.40575e-07 3.19273e-07 3.3828e-07 0
3.54865e-07 3.74748e-07 3.52442e-07 3.72131e-07 3.54865e-07 3.74748e-07 3.52442e-07 3.72131e-07 0
3.89545e-07 4.10098e-07 3.86711e-07 4.06862e-07 3.89545e-07 4.10098e-07 3.86711e-07 4.06862e-07 0
4.25452e-07 4.4686e-07 4.22027e-07 4.43311e-07 4.25452e-07 4.4686e-07 4.22027e-07 4.43311e-07 0
1.74132e-07 1.90476e-07 1.72894e-07 1.89075e-07 1.74132e-07 1.90476e-07 1.72894e-07 1.89075e-07 0
2.02574e-07 2.19283e-07 2.01072e-07 2.17626e-07 2.02574e-07 2.19283e-07 2.01072e-07 2.17626e-07 0
2.31719e-07 2.48988e-07 2.29933e-07 2.47009e-07 2.31719e-07 2.48988e-07 2.29933e-07 2.47009e-07 0
2.61872e-07 2.79809e-07 2.59753e-07 2.77522e-07 2.61872e-07 2.79809e-07 2.59753e-07 2.77522e-07 0
2.93207e-07 3.11881e-07 2.90804e-07 3.09326e-07 2.93207e-07 3.11881e-07 2.90804e-07 3.09326e-07 0
3.25828e-07 3.45264e-07 3.23162e-07 3.42444e-07 3.25828e-07 3.45264e-07 3.23162e-07 3.42444e-07 0
3.59772e-07 3.79979e-07 3.56827e-07 3.76848e-07 3.59772e-07 3.79979e-07 3.56827e-07 3.76848e-07 0
3.95066e-07 4.16083e-07 3.91782e-07 4.12568e-07 3.95066e-07 4.16083e-07 3.91782e-07 4.12568e-07 0
4.31759e-07 4.5358e-07 4.28059e-07 4.49609e-07 4.31759e-07 4.5358e-07 4.28059e-07 4.49609e-07 0
1.49803e-07 1.65802e-07 1.4761e-07 1.63566e-07 1.49803e-07 1.65802e-07 1.4761e-07 1.63566e-07 0
1.77678e-07 1.9411e-07 1.75411e-07 1.91823e-07 1.77678e-07 1.9411e-07 1.75411e-07 1.91823e-07 0
2.06316e-07 2.23236e-07 2.03981e-07 2.20793e-07 2.06316e-07 2.23236e-07 2.03981e-07 2.20793e-07 0
2.35835e-07 2.53343e-07 2.33306e-07 2.50687e-07 2.35835e-07 2.53343e-07 2.33306e-07 2.50687e-07 0
2.66403e-07 2.84581e-07 2.63652e-07 2.81698e-07 2.66403e-07 2.84581e-07 2.63652e-07 2.81698e-07 0
2.98156e-07 3.1707e-07 2.95175e-07 3.13954e-07 2.98156e-07 3.1707e-07 2.95175e-07 3.13954e-07 0
3.31199e-07 3.50894e-07 3.27979e-07 3.47527e-07 3.31199e-07 3.50894e-07 3.27979e-07 3.47527e-07 0
3.6561e-07 3.86127e-07 3.62124e-07 3.82463e-07 3.6561e-07 3.86127e-07 3.62124e-07 3.82463e-07 0
4.01466e-07 4.22864e-07 3.97658e-07 4.1884e-07 4.01466e-07 4.22864e-07 3.97658e-07 4.1884e-07 0
4.38847e-07 4.61128e-07 4.34647e-07 4.56663e-07 4.38847e-07 4.61128e-07 4.34647e-07 4.56663e-07 0
1.54854e-07 1.70931e-07 1.51752e-07 1.67802e-07 1.54854e-07 1.70931e-07 1.51752e-07 1.67802e-07 0
1.82821e-07 1.99235e-07 1.79682e-07 1.96097e-07 1.82821e-07 1.99235e-07 1.79682e-07 1.96097e-07 0
2.11484e-07 2.28517e-07 2.08325e-07 2.25304e-07 2.11484e-07 2.28517e-07 2.08325e-07 2.25304e-07 0
2.41216e-07 2.58882e-07 2.37953e-07 2.55537e-07 2.41216e-07 2.58882e-07 2.37953e-07 2.55537e-07 0
2.72068e-07 2.90431e-07 2.68656e-07 2.8692e-07 2.72068e-07 2.90431e-07 2.68656e-07 2.8692e-07 0
3.04149e-07 3.2327e-07 3.00559e-07 3.19564e-07 3.04149e-07 3.2327e-07 3.00559e-07 3.19564e-07 0
3.37563e-07 3.57499e-07 3.33766e-07 3.53565e-07 3.37563e-07 3.57499e-07 3.33766e-07 3.53565e-07 0
3.7241e-07 3.93221e-07 3.68365e-07 3.89008e-07 3.7241e-07 3.93221e-07 3.68365e-07 3.89008e-07 0
4.08797e-07 4.3055e-07 4.04449e-07 4.25999e-07 4.08797e-07 4.3055e-07 4.04449e-07 4.25999e-07 0
4.46821e-07 4.69538e-07 4.42106e-07 4.64575e-07 4.46821e-07 4.69538e-07 4.42106e-07 4.64575e-07 0
1.61694e-07 1.77491e-07 1.57522e-07 1.73531e-07 1.61694e-07 1.77491e-07 1.57522e-07 1.73531e-07 0
1.89312e-07 2.05797e-07 1.85405e-07 2.01835e-07 1.89312e-07 2.05797e-07 1.85405e-07 2.01835e-07 0
2.18064e-07 2.35136e-07 2.14094e-07 2.31151e-07 2.18064e-07 2.35136e-07 2.14094e-07 2.31151e-07 0
2.47882e-07 2.65633e-07 2.43876e-07 2.61587e-07 2.47882e-07 2.65633e-07 2.43876e-07 2.61587e-07 0
2.78898e-07 2.9739e-07 2.74811e-07 2.93236e-07 2.78898e-07 2.9739e-07 2.74811e-07 2.93236e-07 0
3.11219e-07 3.30513e-07 3.07004e-07 3.26202e-07 3.11219e-07 3.30513e-07 3.07004e-07 3.26202e-07 0
3.4495e-07 3.65105e-07 3.40559e-07 3.6059e-07 3.4495e-07 3.65105e-07 3.40559e-07 3.6059e-07 0
3.80197e-07 4.01282e-07 3.75579e-07 3.96508e-07 3.80197e-07 4.01282e-07 3.75579e-07 3.96508e-07 0
4.17082e-07 4.39174e-07 4.1218e-07 4.34077e-07 4.17082e-07 4.39174e-07 4.1218e-07 4.34077e-07 0
4.55717e-07 4.78839e-07 4.50466e-07 4.73358e-07 4.55717e-07 4.78839e-07 4.50466e-07 4.73358e-07 0
1.97486e-07 2.13824e-07 1.92551e-07 2.09011e-07 1.97486e-07 2.13824e-07 1.92551e-07 2.09011e-07 0
2.26034e-07 2.43085e-07 2.21265e-07 2.38334e-07 2.26034e-07 2.43085e-07 2.21265e-07 2.38334e-07 0
2.55833e-07 2.7361e-07 2.51086e-07 2.68855e-07 2.55833e-07 2.7361e-07 2.51086e-07 2.68855e-07 0
2.86912e-07 3.05482e-07 2.8214e-07 3.00671e-07 2.86912e-07 3.05482e-07 2.8214e-07 3.00671e-07 0
3.19391e-07 3.38826e-07 3.14537e-07 3.33895e-07 3.19391e-07 3.38826e-07 3.14537e-07 3.33895e-07 0
3.53389e-07 3.73743e-07 3.48387e-07 3.68629e-07 3.53389e-07 3.73743e-07 3.48387e-07 3.68629e-07 0
3.89e-07 4.10335e-07 3.83792e-07 4.04986e-07 3.89e-07 4.10335e-07 3.83792e-07 4.04986e-07 0
4.26335e-07 4.48722e-07 4.20874e-07 4.43096e-07 4.26335e-07 4.48722e-07 4.20874e-07 4.43096e-07 0
4.65524e-07 4.89057e-07 4.59751e-07 4.83043e-07 4.65524e-07 4.89057e-07 4.59751e-07 4.83043e-07 0
2.07086e-07 2.23074e-07 2.01384e-07 2.17597e-07 2.07086e-07 2.23074e-07 2.01384e-07 2.17597e-07 0
2.35169e-07 2.52208e-07 2.29763e-07 2.46805e-07 2.35169e-07 2.52208e-07 2.29763e-07 2.46805e-07 0
2.64985e-07 2.8285e-07 2.5956e-07 2.77362e-07 2.64985e-07 2.8285e-07 2.5956e-07 2.77362e-07 0
2.96178e-07 3.14724e-07 2.90675e-07 3.09248e-07 2.96178e-07 3.14724e-07 2.90675e-07 3.09248e-07 0
3.28668e-07 3.48227e-07 3.23177e-07 3.42667e-07 3.28668e-07 3.48227e-07 3.23177e-07 3.42667e-07 0
3.62907e-07 3.83457e-07 3.57279e-07 3.77716e-07 3.62907e-07 3.83457e-07 3.57279e-07 3.77716e-07 0
3.98866e-07 4.2042e-07 3.93039e-07 4.1447e-07 3.98866e-07 4.2042e-07 3.93039e-07 4.1447e-07 0
4.36591e-07 4.59229e-07 4.30545e-07 4.53043e-07 4.36591e-07 4.59229e-07 4.30545e-07 4.53043e-07 0
3.06357e-07 3.24992e-07 3.00379e-07 3.18943e-07 3.06357e-07 3.24992e-07 3.00379e-07 3.18943e-07 0
3.39018e-07 3.58711e-07 3.32914e-07 3.52526e-07 3.39018e-07 3.58711e-07 3.32914e-07 3.52526e-07 0
3.73503e-07 3.94224e-07 3.67254e-07 3.8788e-07 3.73503e-07 3.94224e-07 3.67254e-07 3.8788e-07 0
4.09753e-07 4.31455e-07 4.03345e-07 4.24971e-07 4.09753e-07 4.31455e-07 4.03345e-07 4.24971e-07 0
4.47774e-07 4.70669e-07 4.41207e-07 4.63951e-07 4.47774e-07 4.70669e-07 4.41207e-07 4.63951e-07 0
0 0 0 0 0 0 0 0 0
0 0 0 0 0 0 0 0 0
0 0 0 0 0 0 0 0 0
0 0 0 0 0 0 0 0 0
0 0 0 0 0 0 0 0 0
0 0 0 0 0 0 0 0 0
0 0 0 0 0 0 0 0 0
0 0 0 0 0 0 0 0 0
0 0 0 0 0 0 0 0 0
0 0 0 0 0 0 0 0 0
0 0 0 0 0 0 0 0 0
0 0 0 0 0 0 0 0 0
0 0 0 0 0 0 0 0 0
0 0 0 0 0 0 0 0 0
0 0 0 0 0 0 0 0 0
0 0 0 0 0 0 0 0 0
0 0 0 0 0 0 0 0 0
0 0 0 0 0 0 0 0 0
0 0 0 0 0 0 0 0 0
0 0 0 0 0 0 0 0 0
0 0 0 0 0 0 0 0 0
0 0 0 0 0 0 0 0 0
0 0 0 0 0 0 0 0 0
0 0 0 0 0 0 0 0 0
0 0 0 0 0 0 0 0 0
0 0 0 0 0 0 0 0 0
0 0 0 0 0 0 0 0 0
0 0 0 0 0 0 0 0 0
0 0 0 0 0 0 0 0 0
0 0 0 0 0 0 0 0 0
0 0 0 0 0 0 0 0 0
0 0 0 0 0 0 0 0 0
0 0 0 0 0 0 0 0 0
0 0 0 0 0 0 0 0 0
0 0 0 0 0 0 0 0 0
0 0 0 0 0 0 0 0 0
0 0 0 0 0 0 0 0 0
0 0 0 0 0 0 0 0 0
0 0 0 0 0 0 0 0 0
0 0 0 0 0 0 0 0 0
0 0 0 0 0 0 0 0 0
0 0 0 0 0 0 0 0 0
0 0 0 0 0 0 0 0 0
0 0 0 0 0 0 0 0 0
0 0 0 0 0 0 0 0 0
0 0 0 0 0 0 0 0 0
0 0 0 0 0 0 0 0 0
0 0 0 0 0 0 0 0 0
0 0 0 0 0 0 0 0 0
0 0 0 0 0 0 0 0 0
0 0 0 0 0 0 0 0 0
0 0 0 0 0 0 0 0 0
0 0 0 0 0 0 0 0 0
0 0 0 0 0 0 0 0 0
0 0 0 0 0 0 0 0 0
0 0 0 0 0 0 0 0 0
0 0 0 0 0 0 0 0 0
0 0 0 0 0 0 0 0 0
0 0 0 0 0 0 0 0 0
0 0 0 0 0 0 0 0 0
0 0 0 0 0 0 0 0 0
0 0 0 0 0 0 0 0 0
0 0 0 0 0 0 0 0 0
0 0 0 0 0 0 0 0 0
0 0 0 0 0 0 0 0 0
0 0 0 0 0 0 0 0 0
0 0 0 0 0 0 0 0 0
0 0 0 0 0 0 0 0 0
0 0 0 0 0 0 0 0 0
0 0 0 0 0 0 0 0 0
0 0 0 0 0 0 0 0 0
0 0 0 0 0 0 0 0 0
0 0 0 0 0 0 0 0 0
0 0 0 0 0 0 0 0 0
0 0 0 0 0 0 0 0 0
0 0 0 0 0 0 0 0 0
0 0 0 0 0 0 0 0 0
0 0 0 0 0 0 0 0 0
1.59633e-07 1.74446e-07 1.57717e-07 1.72453e-07 1.59633e-07 1.74446e-07 1.57717e-07 1.72453e-07 0
1.85379e-07 2.00373e-07 1.83273e-07 1.98085e-07 1.85379e-07 2.00373e-07 1.83273e-07 1.98085e-07 0
2.11469e-07 2.26798e-07 2.0904e-07 2.24162e-07 2.11469e-07 2.26798e-07 2.0904e-07 2.24162e-07 0
2.38233e-07 2.54152e-07 2.35457e-07 2.51321e-07 2.38233e-07 2.54152e-07 2.35457e-07 2.51321e-07 0
2.66067e-07 2.82721e-07 2.63155e-07 2.7962e-07 2.66067e-07 2.82721e-07 2.63155e-07 2.7962e-07 0
2.95121e-07 3.12349e-07 2.91861e-07 3.08839e-07 2.95121e-07 3.12349e-07 2.91861e-07 3.08839e-07 0
3.25129e-07 3.42817e-07 3.21425e-07 3.38834e-07 3.25129e-07 3.42817e-07 3.21425e-07 3.38834e-07 0
3.55824e-07 3.73677e-07 3.51669e-07 3.69327e-07 3.55824e-07 3.73677e-07 3.51669e-07 3.69327e-07 0
1.64341e-07 1.79261e-07 1.61405e-07 1.76268e-07 1.64341e-07 1.79261e-07 1.61405e-07 1.76268e-07 0
1.90317e-07 2.05514e-07 1.87263e-07 2.02361e-07 1.90317e-07 2.05514e-07 1.87263e-07 2.02361e-07 0
2.1679e-07 2.32405e-07 2.13543e-07 2.29002e-07 2.1679e-07 2.32405e-07 2.13543e-07 2.29002e-07 0
2.4404e-07 2.60217e-07 2.40527e-07 2.56562e-07 2.4404e-07 2.60217e-07 2.40527e-07 2.56562e-07 0
2.72319e-07 2.89204e-07 2.6855e-07 2.85283e-07 2.72319e-07 2.89204e-07 2.6855e-07 2.85283e-07 0
3.01791e-07 3.19297e-07 2.97777e-07 3.15147e-07 3.01791e-07 3.19297e-07 2.97777e-07 3.15147e-07 0
3.32312e-07 3.50366e-07 3.28042e-07 3.45904e-07 3.32312e-07 3.50366e-07 3.28042e-07 3.45904e-07 0
3.63754e-07 3.82282e-07 3.5906e-07 3.77146e-07 3.63754e-07 3.82282e-07 3.5906e-07 3.77146e-07 0
3.96061e-07 4.15188e-07 3.90719e-07 4.09723e-07 3.96061e-07 4.15188e-07 3.90719e-07 4.09723e-07 0
1.70962e-07 1.85902e-07 1.66903e-07 1.81839e-07 1.70962e-07 1.85902e-07 1.66903e-07 1.81839e-07 0
1.96997e-07 2.12267e-07 1.92924e-07 2.08166e-07 1.96997e-07 2.12267e-07 1.92924e-07 2.08166e-07 0
2.23631e-07 2.3942e-07 2.19491e-07 2.35192e-07 2.23631e-07 2.3942e-07 2.19491e-07 2.35192e-07 0
2.51208e-07 2.67614e-07 2.46891e-07 2.63179e-07 2.51208e-07 2.67614e-07 2.46891e-07 2.63179e-07 0
2.79864e-07 2.96929e-07 2.75358e-07 2.92322e-07 2.79864e-07 2.96929e-07 2.75358e-07 2.92322e-07 0
3.09661e-07 3.27382e-07 3.04973e-07 3.22573e-07 3.09661e-07 3.27382e-07 3.04973e-07 3.22573e-07 0
3.40586e-07 3.58942e-07 3.35671e-07 3.53857e-07 3.40586e-07 3.58942e-07 3.35671e-07 3.53857e-07 0
3.72613e-07 3.91611e-07 3.67383e-07 3.86154e-07 3.72613e-07 3.91611e-07 3.67383e-07 3.86154e-07 0
4.05724e-07 4.2529e-07 4.00079e-07 4.19357e-07 4.05724e-07 4.2529e-07 4.00079e-07 4.19357e-07 0
1.55023e-07 1.69141e-07 1.49411e-07 1.63679e-07 1.55023e-07 1.69141e-07 1.49411e-07 1.63679e-07 0
1.79703e-07 1.94429e-07 1.74383e-07 1.89267e-07 1.79703e-07 1.94429e-07 1.74383e-07 1.89267e-07 0
2.05398e-07 2.20641e-07 2.0034e-07 2.15607e-07 2.05398e-07 2.20641e-07 2.0034e-07 2.15607e-07 0
2.32042e-07 2.47916e-07 2.26997e-07 2.4284e-07 2.32042e-07 2.47916e-07 2.26997e-07 2.4284e-07 0
2.59774e-07 2.76296e-07 2.54664e-07 2.71128e-07 2.59774e-07 2.76296e-07 2.54664e-07 2.71128e-07 0
2.88642e-07 3.0585e-07 2.83423e-07 3.00553e-07 2.88642e-07 3.0585e-07 2.83423e-07 3.00553e-07 0
3.18703e-07 3.36613e-07 3.13338e-07 3.31143e-07 3.18703e-07 3.36613e-07 3.13338e-07 3.31143e-07 0
3.49984e-07 3.68607e-07 3.4442e-07 3.62892e-07 3.49984e-07 3.68607e-07 3.4442e-07 3.62892e-07 0
3.82506e-07 4.01864e-07 3.76663e-07 3.95819e-07 3.82506e-07 4.01864e-07 3.76663e-07 3.95819e-07 0
4.1628e-07 4.36317e-07 4.10063e-07 4.29832e-07 4.1628e-07 4.36317e-07 4.10063e-07 4.29832e-07 0
1.65943e-07 1.79836e-07 1.59462e-07 1.73502e-07 1.65943e-07 1.79836e-07 1.59462e-07 1.73502e-07 0
1.90207e-07 2.04627e-07 1.83979e-07 1.98549e-07 1.90207e-07 2.04627e-07 1.83979e-07 1.98549e-07 0
2.15444e-07 2.30579e-07 2.09447e-07 2.24655e-07 2.15444e-07 2.30579e-07 2.09447e-07 2.24655e-07 0
2.41942e-07 2.57809e-07 2.36047e-07 2.51927e-07 2.41942e-07 2.57809e-07 2.36047e-07 2.51927e-07 0
2.69686e-07 2.86266e-07 2.63799e-07 2.80353e-07 2.69686e-07 2.86266e-07 2.63799e-07 2.80353e-07 0
2.98672e-07 3.15986e-07 2.92727e-07 3.09985e-07 2.98672e-07 3.15986e-07 2.92727e-07 3.09985e-07 0
3.28937e-07 3.47008e-07 3.22882e-07 3.40863e-07 3.28937e-07 3.47008e-07 3.22882e-07 3.40863e-07 0
3.60522e-07 3.79379e-07 3.54297e-07 3.73023e-07 3.60522e-07 3.79379e-07 3.54297e-07 3.73023e-07 0
3.93481e-07 4.13157e-07 3.87011e-07 4.06508e-07 3.93481e-07 4.13157e-07 3.87011e-07 4.06508e-07 0
4.27846e-07 4.48312e-07 4.21043e-07 4.41267e-07 4.27846e-07 4.48312e-07 4.21043e-07 4.41267e-07 0
1.78507e-07 1.91867e-07 1.71056e-07 1.84765e-07 1.78507e-07 1.91867e-07 1.71056e-07 1.84765e-07 0
2.02013e-07 2.16336e-07 1.95046e-07 2.09397e-07 2.02013e-07 2.16336e-07 1.95046e-07 2.09397e-07 0
2.27049e-07 2.41996e-07 2.20163e-07 2.35228e-07 2.27049e-07 2.41996e-07 2.20163e-07 2.35228e-07 0
2.53278e-07 2.69073e-07 2.46561e-07 2.62405e-07 2.53278e-07 2.69073e-07 2.46561e-07 2.62405e-07 0
2.80928e-07 2.97515e-07 2.74277e-07 2.90866e-07 2.80928e-07 2.97515e-07 2.74277e-07 2.90866e-07 0
3.09951e-07 3.27339e-07 3.03287e-07 3.20636e-07 3.09951e-07 3.27339e-07 3.03287e-07 3.20636e-07 0
3.40366e-07 3.58571e-07 3.33621e-07 3.51752e-07 3.40366e-07 3.58571e-07 3.33621e-07 3.51752e-07 0
3.72209e-07 3.91269e-07 3.65321e-07 3.84267e-07 3.72209e-07 3.91269e-07 3.65321e-07 3.84267e-07 0
4.0555e-07 4.25513e-07 3.98447e-07 4.18248e-07 4.0555e-07 4.25513e-07 3.98447e-07 4.18248e-07 0
4.40446e-07 4.61292e-07 4.33043e-07 4.53676e-07 4.40446e-07 4.61292e-07 4.33043e-07 4.53676e-07 0
2.1547e-07 2.2953e-07 2.0749e-07 2.21734e-07 2.1547e-07 2.2953e-07 2.0749e-07 2.21734e-07 0
2.40074e-07 2.5482e-07 2.32388e-07 2.47249e-07 2.40074e-07 2.5482e-07 2.32388e-07 2.47249e-07 0
2.6599e-07 2.81665e-07 2.58486e-07 2.74236e-07 2.6599e-07 2.81665e-07 2.58486e-07 2.74236e-07 0
2.93467e-07 3.10029e-07 2.86071e-07 3.02651e-07 2.93467e-07 3.10029e-07 2.86071e-07 3.02651e-07 0
3.22474e-07 3.39916e-07 3.15093e-07 3.32506e-07 3.22474e-07 3.39916e-07 3.15093e-07 3.32506e-07 0
3.53001e-07 3.71315e-07 3.45559e-07 3.63813e-07 3.53001e-07 3.71315e-07 3.45559e-07 3.63813e-07 0
3.85053e-07 4.04279e-07 3.77496e-07 3.96631e-07 3.85053e-07 4.04279e-07 3.77496e-07 3.96631e-07 0
4.18705e-07 4.38899e-07 4.10977e-07 4.31045e-07 4.18705e-07 4.38899e-07 4.10977e-07 4.31045e-07 0
4.54057e-07 4.75283e-07 4.46075e-07 4.6708e-07 4.54057e-07 4.75283e-07 4.46075e-07 4.6708e-07 0
2.30177e-07 2.43772e-07 2.21555e-07 2.35442e-07 2.30177e-07 2.43772e-07 2.21555e-07 2.35442e-07 0
2.5412e-07 2.68784e-07 2.45905e-07 2.60591e-07 2.5412e-07 2.68784e-07 2.45905e-07 2.60591e-07 0
2.79892e-07 2.95565e-07 2.71716e-07 2.87368e-07 2.79892e-07 2.95565e-07 2.71716e-07 2.87368e-07 0
3.07276e-07 3.23763e-07 2.99153e-07 3.15687e-07 3.07276e-07 3.23763e-07 2.99153e-07 3.15687e-07 0
3.36198e-07 3.53689e-07 3.28131e-07 3.45593e-07 3.36198e-07 3.53689e-07 3.28131e-07 3.45593e-07 0
3.66828e-07 3.85237e-07 3.58701e-07 3.77056e-07 3.66828e-07 3.85237e-07 3.58701e-07 3.77056e-07 0
3.99055e-07 4.18403e-07 3.9083e-07 4.10114e-07 3.99055e-07 4.18403e-07 3.9083e-07 4.10114e-07 0
4.3295e-07 4.53348e-07 4.24592e-07 4.44874e-07 4.3295e-07 4.53348e-07 4.24592e-07 4.44874e-07 0
3.22262e-07 3.38689e-07 3.13498e-07 3.299e-07 3.22262e-07 3.38689e-07 3.13498e-07 3.299e-07 0
3.51082e-07 3.68596e-07 3.42341e-07 3.59855e-07 3.51082e-07 3.68596e-07 3.42341e-07 3.59855e-07 0
3.818e-07 4.00328e-07 3.73019e-07 3.91474e-07 3.818e-07 4.00328e-07 3.73019e-07 3.91474e-07 0
4.14207e-07 4.33606e-07 4.05319e-07 4.24697e-07 4.14207e-07 4.33606e-07 4.05319e-07 4.24697e-07 0
4.48242e-07 4.68836e-07 4.39285e-07 4.59768e-07 4.48242e-07 4.68836e-07 4.39285e-07 4.59768e-07 0
0 0 0 0 0 0 0 0 0
0 0 0 0 0 0 0 0 0
0 0 0 0 0 0 0 0 0
0 0 0 0 0 0 0 0 0
0 0 0 0 0 0 0 0 0
0 0 0 0 0 0 0 0 0
0 0 0 0 0 0 0 0 0
0 0 0 0 0 0 0 0 0
0 0 0 0 0 0 0 0 0
0 0 0 0 0 0 0 0 0
0 0 0 0 0 0 0 0 0
0 0 0 0 0 0 0 0 0
0 0 0 0 0 0 0 0 0
0 0 0 0 0 0 0 0 0
0 0 0 0 0 0 0 0 0
0 0 0 0 0 0 0 0 0
0 0 0 0 0 0 0 0 0
0 0 0 0 0 0 0 0 0
0 0 0 0 0 0 0 0 0
0 0 0 0 0 0 0 0 0
0 0 0 0 0 0 0 0 0
0 0 0 0 0 0 0 0 0
0 0 0 0 0 0 0 0 0
0 0 0 0 0 0 0 0 0
0 0 0 0 0 0 0 0 0
0 0 0 0 0 0 0 0 0
0 0 0 0 0 0 0 0 0
0 0 0 0 0 0 0 0 0
0 0 0 0 0 0 0 0 0
0 0 0 0 0 0 0 0 0
0 0 0 0 0 0 0 0 0
0 0 0 0 0 0 0 0 0
0 0 0 0 0 0 0 0 0
0 0 0 0 0 0 0 0 0
0 0 0 0 0 0 0 0 0
0 0 0 0 0 0 0 0 0
0 0 0 0 0 0 0 0 0
0 0 0 0 0 0 0 0 0
0 0 0 0 0 0 0 0 0
0 0 0 0 0 0 0 0 0
0 0 0 0 0 0 0 0 0
0 0 0 0 0 0 0 0 0
0 0 0 0 0 0 0 0 0
0 0 0 0 0 0 0 0 0
0 0 0 0 0 0 0 0 0
0 0 0 0 0 0 0 0 0
0 0 0 0 0 0 0 0 0
0 0 0 0 0 0 0 0 0
0 0 0 0 0 0 0 0 0
0 0 0 0 0 0 0 0 0
0 0 0 0 0 0 0 0 0
0 0 0 0 0 0 0 0 0
0 0 0 0 0 0 0 0 0
0 0 0 0 0 0 0 0 0
0 0 0 0 0 0 0 0 0
0 0 0 0 0 0 0 0 0
0 0 0 0 0 0 0 0 0
0 0 0 0 0 0 0 0 0
0 0 0 0 0 0 0 0 0
0 0 0 0 0 0 0 0 0
0 0 0 0 0 0 0 0 0
0 0 0 0 0 0 0 0 0
0 0 0 0 0 0 0 0 0
0 0 0 0 0 0 0 0 0
0 0 0 0 0 0 0 0 0
0 0 0 0 0 0 0 0 0
0 0 0 0 0 0 0 0 0
0 0 0 0 0 0 0 0 0
0 0 0 0 0 0 0 0 0
0 0 0 0 0 0 0 0 0
0 0 0 0 0 0 0 0 0
0 0 0 0 0 0 0 0 0
0 0 0 0 0 0 0 0 0
0 0 0 0 0 0 0 0 0
0 0 0 0 0 0 0 0 0
0 0 0 0 0 0 0 0 0
0 0 0 0 0 0 0 0 0
0 0 0 0 0 0 0 0 0
0 0 0 0 0 0 0 0 0
0 0 0 0 0 0 0 0 0
0 0 0 0 0 0 0 0 0
0 0 0 0 0 0 0 0 0
0 0 0 0 0 0 0 0 0
0 0 0 0 0 0 0 0 0
0 0 0 0 0 0 0 0 0
0 0 0 0 0 0 0 0 0
0 0 0 0 0 0 0 0 0
0 0 0 0 0 0 0 0 0
0 0 0 0 0 0 0 0 0
0 0 0 0 0 0 0 0 0
0 0 0 0 0 0 0 0 0
0 0 0 0 0 0 0 0 0
0 0 0 0 0 0 0 0 0
0 0 0 0 0 0 0 0 0
0 0 0 0 0 0 0 0 0
0 0 0 0 0 0 0 0 0
0 0 0 0 0 0 0 0 0
0 0 0 0 0 0 0 0 0
0 0 0 0 0 0 0 0 0
0 0 0 0 0 0 0 0 0
0 0 0 0 0 0 0 0 0
0 0 0 0 0 0 0 0 0
0 0 0 0 0 0 0 0 0
0 0 0 0 0 0 0 0 0
0 0 0 0 0 0 0 0 0
0 0 0 0 0 0 0 0 0
0 0 0 0 0 0 0 0 0
0 0 0 0 0 0 0 0 0
0 0 0 0 0 0 0 0 0
0 0 0 0 0 0 0 0 0
0 0 0 0 0 0 0 0 0
0 0 0 0 0 0 0 0 0
0 0 0 0 0 0 0 0 0
0 0 0 0 0 0 0 0 0
0 0 0 0 0 0 0 0 0
0 0 0 0 0 0 0 0 0
0 0 0 0 0 0 0 0 0
0 0 0 0 0 0 0 0 0
0 0 0 0 0 0 0 0 0
0 0 0 0 0 0 0 0 0
0 0 0 0 0 0 0 0 0
0 0 0 0 0 0 0 0 0
0 0 0 0 0 0 0 0 0
0 0 0 0 0 0 0 0 0
0 0 0 0 0 0 0 0 0
0 0 0 0 0 0 0 0 0
0 0 0 0 0 0 0 0 0
0 0 0 0 0 0 0 0 0
0 0 0 0 0 0 0 0 0
0 0 0 0 0 0 0 0 0
0 0 0 0 0 0 0 0 0
0 0 0 0 0 0 0 0 0
0 0 0 0 0 0 0 0 0
0 0 0 0 0 0 0 0 0
0 0 0 0 0 0 0 0 0
0 0 0 0 0 0 0 0 0
0 0 0 0 0 0 0 0 0
0 0 0 0 0 0 0 0 0
0 0 0 0 0 0 0 0 0
0 0 0 0 0 0 0 0 0
0 0 0 0 0 0 0 0 0
0 0 0 0 0 0 0 0 0
0 0 0 0 0 0 0 0 0
0 0 0 0 0 0 0 0 0
0 0 0 0 0 0 0 0 0
0 0 0 0 0 0 0 0 0
0 0 0 0 0 0 0 0 0
0 0 0 0 0 0 0 0 0
0 0 0 0 0 0 0 0 0
0 0 0 0 0 0 0 0 0
0 0 0 0 0 0 0 0 0
0 0 0 0 0 0 0 0 0
0 0 0 0 0 0 0 0 0
0 0 0 0 0 0 0 0 0
0 0 0 0 0 0 0 0 0
0 0 0 0 0 0 0 0 0
0 0 0 0 0 0 0 0 0
0 0 0 0 0 0 0 0 0
0 0 0 0 0 0 0 0 0
0 0 0 0 0 0 0 0 0
0 0 0 0 0 0 0 0 0
0 0 0 0 0 0 0 0 0
0 0 0 0 0 0 0 0 0
0 0 0 0 0 0 0 0 0
0 0 0 0 0 0 0 0 0
0 0 0 0 0 0 0 0 0
0 0 0 0 0 0 0 0 0
0 0 0 0 0 0 0 0 0
0 0 0 0 0 0 0 0 0
0 0 0 0 0 0 0 0 0
0 0 0 0 0 0 0 0 0
0 0 0 0 0 0 0 0 0
0 0 0 0 0 0 0 0 0
0 0 0 0 0 0 0 0 0
0 0 0 0 0 0 0 0 0
0 0 0 0 0 0 0 0 0
0 0 0 0 0 0 0 0 0
0 0 0 0 0 0 0 0 0
0 0 0 0 0 0 0 0 0
0 0 0 0 0 0 0 0 0
0 0 0 0 0 0 0 0 0
0 0 0 0 0 0 0 0 0
0 0 0 0 0 0 0 0 0
0 0 0 0 0 0 0 0 0
0 0 0 0 0 0 0 0 0
0 0 0 0 0 0 0 0 0
0 0 0 0 0 0 0 0 0
0 0 0 0 0 0 0 0 0
0 0 0 0 0 0 0 0 0
0 0 0 0 0 0 0 0 0
0 0 0 0 0 0 0 0 0
0 0 0 0 0 0 0 0 0
0 0 0 0 0 0 0 0 0
0 0 0 0 0 0 0 0 0
0 0 0 0 0 0 0 0 0
0 0 0 0 0 0 0 0 0
0 0 0 0 0 0 0 0 0
0 0 0 0 0 0 0 0 0
0 0 0 0 0 0 0 0 0
0 0 0 0 0 0 0 0 0
0 0 0 0 0 0 0 0 0
0 0 0 0 0 0 0 0 0
0 0 0 0 0 0 0 0 0
0 0 0 0 0 0 0 0 0
0 0 0 0 0 0 0 0 0
0 0 0 0 0 0 0 0 0
0 0 0 0 0 0 0 0 0
0 0 0 0 0 0 0 0 0
0 0 0 0 0 0 0 0 0
0 0 0 0 0 0 0 0 0
0 0 0 0 0 0 0 0 0
0 0 0 0 0 0 0 0 0
0 0 0 0 0 0 0 0 0
0 0 0 0 0 0 0 0 0
0 0 0 0 0 0 0 0 0
0 0 0 0 0 0 0 0 0
0 0 0 0 0 0 0 0 0
0 0 0 0 0 0 0 0 0
0 0 0 0 0 0 0 0 0
0 0 0 0 0 0 0 0 0
0 0 0 0 0 0 0 0 0
0 0 0 0 0 0 0 0 0
0 0 0 0 0 0 0 0 0
0 0 0 0 0 0 0 0 0
0 0 0 0 0 0 0 0 0
0 0 0 0 0 0 0 0 0
0 0 0 0 0 0 0 0 0
0 0 0 0 0 0 0 0 0
0 0 0 0 0 0 0 0 0
0 0 0 0 0 0 0 0 0
0 0 0 0 0 0 0 0 0
0 0 0 0 0 0 0 0 0
0 0 0 0 0 0 0 0 0
0 0 0 0 0 0 0 0 0
0 0 0 0 0 0 0 0 0
0 0 0 0 0 0 0 0 0
0 0 0 0 0 0 0 0 0
0 0 0 0 0 0 0 0 0
0 0 0 0 0 0 0 0 0
0 0 0 0 0 0 0 0 0
0 0 0 0 0 0 0 0 0
0 0 0 0 0 0 0 0 0
0 0 0 0 0 0 0 0 0
0 0 0 0 0 0 0 0 0
0 0 0 0 0 0 0 0 0
0 0 0 0 0 0 0 0 0
0 0 0 0 0 0 0 0 0
0 0 0 0 0 0 0 0 0
0 0 0 0 0 0 0 0 0
0 0 0 0 0 0 0 0 0
0 0 0 0 0 0 0 0 0
0 0 0 0 0 0 0 0 0
0 0 0 0 0 0 0 0 0
0 0 0 0 0 0 0 0 0
0 0 0 0 0 0 0 0 0
0 0 0 0 0 0 0 0 0
0 0 0 0 0 0 0 0 0
0 0 0 0 0 0 0 0 0
0 0 0 0 0 0 0 0 0
0 0 0 0 0 0 0 0 0
0 0 0 0 0 0 0 0 0
0 0 0 0 0 0 0 0 0
0 0 0 0 0 0 0 0 0
0 0 0 0 0 0 0 0 0
0 0 0 0 0 0 0 0 0
0 0 0 0 0 0 0 0 0
0 0 0 0 0 0 0 0 0
0 0 0 0 0 0 0 0 0
0 0 0 0 0 0 0 0 0
0 0 0 0 0 0 0 0 0
0 0 0 0 0 0 0 0 0
0 0 0 0 0 0 0 0 0
0 0 0 0 0 0 0 0 0
0 0 0 0 0 0 0 0 0
0 0 0 0 0 0 0 0 0
0 0 0 0 0 0 0 0 0
0 0 0 0 0 0 0 0 0
0 0 0 0 0 0 0 0 0
0 0 0 0 0 0 0 0 0
0 0 0 0 0 0 0 0 0
0 0 0 0 0 0 0 0 0
0 0 0 0 0 0 0 0 0
0 0 0 0 0 0 0 0 0
0 0 0 0 0 0 0 0 0
0 0 0 0 0 0 0 0 0
0 0 0 0 0 0 0 0 0
0 0 0 0 0 0 0 0 0
0 0 0 0 0 0 0 0 0
0 0 0 0 0 0 0 0 0
0 0 0 0 0 0 0 0 0
0 0 0 0 0 0 0 0 0
0 0 0 0 0 0 0 0 0
0 0 0 0 0 0 0 0 0
0 0 0 0 0 0 0 0 0
0 0 0 0 0 0 0 0 0
0 0 0 0 0 0 0 0 0
0 0 0 0 0 0 0 0 0
0 0 0 0 0 0 0 0 0
0 0 0 0 0 0 0 0 0
0 0 0 0 0 0 0 0 0
0 0 0 0 0 0 0 0 0
0 0 0 0 0 0 0 0 0
0 0 0 0 0 0 0 0 0
0 0 0 0 0 0 0 0 0
0 0 0 0 0 0 0 0 0
0 0 0 0 0 0 0 0 0
0 0 0 0 0 0 0 0 0
0 0 0 0 0 0 0 0 0
0 0 0 0 0 0 0 0 0
0 0 0 0 0 0 0 0 0
0 0 0 0 0 0 0 0 0
0 0 0 0 0 0 0 0 0
0 0 0 0 0 0 0 0 0
0 0 0 0 0 0 0 0 0
0 0 0 0 0 0 0 0 0
0 0 0 0 0 0 0 0 0
0 0 0 0 0 0 0 0 0
0 0 0 0 0 0 0 0 0
0 0 0 0 0 0 0 0 0
0 0 0 0 0 0 0 0 0
0 0 0 0 0 0 0 0 0
0 0 0 0 0 0 0 0 0
0 0 0 0 0 0 0 0 0
0 0 0 0 0 0 0 0 0
0 0 0 0 0 0 0 0 0
0 0 0 0 0 0 0 0 0
0 0 0 0 0 0 0 0 0
0 0 0 0 0 0 0 0 0
0 0 0 0 0 0 0 0 0
0 0 0 0 0 0 0 0 0
0 0 0 0 0 0 0 0 0
0 0 0 0 0 0 0 0 0
0 0 0 0 0 0 0 0 0
0 0 0 0 0 0 0 0 0
0 0 0 0 0 0 0 0 0
0 0 0 0 0 0 0 0 0
0 0 0 0 0 0 0 0 0
0 0 0 0 0 0 0 0 0
0 0 0 0 0 0 0 0 0
0 0 0 0 0 0 0 0 0
0 0 0 0 0 0 0 0 0
0 0 0 0 0 0 0 0 0
0 0 0 0 0 0 0 0 0
0 0 0 0 0 0 0 0 0
0 0 0 0 0 0 0 0 0
0 0 0 0 0 0 0 0 0
0 0 0 0 0 0 0 0 0
0 0 0 0 0 0 0 0 0
0 0 0 0 0 0 0 0 0
0 0 0 0 0 0 0 0 0
0 0 0 0 0 0 0 0 0
0 0 0 0 0 0 0 0 0
0 0 0 0 0 0 0 0 0
0 0 0 0 0 0 0 0 0
0 0 0 0 0 0 0 0 0
0 0 0 0 0 0 0 0 0
0 0 0 0 0 0 0 0 0
0 0 0 0 0 0 0 0 0
0 0 0 0 0 0 0 0 0
0 0 0 0 0 0 0 0 0
0 0 0 0 0 0 0 0 0
0 0 0 0 0 0 0 0 0
0 0 0 0 0 0 0 0 0
0 0 0 0 0 0 0 0 0
0 0 0 0 0 0 0 0 0
0 0 0 0 0 0 0 0 0
0 0 0 0 0 0 0 0 0
0 0 0 0 0 0 0 0 0
0 0 0 0 0 0 0 0 0
0 0 0 0 0 0 0 0 0
0 0 0 0 0 0 0 0 0
0 0 0 0 0 0 0 0 0
0 0 0 0 0 0 0 0 0
0 0 0 0 0 0 0 0 0
0 0 0 0 0 0 0 0 0
0 0 0 0 0 0 0 0 0
0 0 0 0 0 0 0 0 0
0 0 0 0 0 0 0 0 0
0 0 0 0 0 0 0 0 0
0 0 0 0 0 0 0 0 0
0 0 0 0 0 0 0 0 0
0 0 0 0 0 0 0 0 0
0 0 0 0 0 0 0 0 0
0 0 0 0 0 0 0 0 0
SCALARS Dshear double 9
LOOKUP_TABLE default
0 0 0 0 0 0 0 0 0
0 0 0 0 0 0 0 0 0
0 0 0 0 0 0 0 0 0
0 0 0 0 0 0 0 0 0
0 0 0 0 0 0 0 0 0
0 0 0 0 0 0 0 0 0
0 0 0 0 0 0 0 0 0
0 0 0 0 0 0 0 0 0
0 0 0 0 0 0 0 0 0
0 0 0 0 0 0 0 0 0
0 0 0 0 0 0 0 0 0
0 0 0 0 0 0 0 0 0
0 0 0 0 0 0 0 0 0
0 0 0 0 0 0 0 0 0
0 0 0 0 0 0 0 0 0
0 0 0 0 0 0 0 0 0
0 0 0 0 0 0 0 0 0
0 0 0 0 0 0 0 0 0
0 0 0 0 0 0 0 0 0
0 0 0 0 0 0 0 0 0
0 0 0 0 0 0 0 0 0
0 0 0 0 0 0 0 0 0
0 0 0 0 0 0 0 0 0
0 0 0 0 0 0 0 0 0
0 0 0 0 0 0 0 0 0
0 0 0 0 0 0 0 0 0
0 0 0 0 0 0 0 0 0
0 0 0 0 0 0 0 0 0
0 0 0 0 0 0 0 0 0
0 0 0 0 0 0 0 0 0
0 0 0 0 0 0 0 0 0
0 0 0 0 0 0 0 0 0
0 0 0 0 0 0 0 0 0
0 0 0 0 0 0 0 0 0
0 0 0 0 0 0 0 0 0
0 0 0 0 0 0 0 0 0
0 0 0 0 0 0 0 0 0
0 0 0 0 0 0 0 0 0
0 0 0 0 0 0 0 0 0
0 0 0 0 0 0 0 0 0
0 0 0 0 0 0 0 0 0
0 0 0 0 0 0 0 0 0
0 0 0 0 0 0 0 0 0
0 0 0 0 0 0 0 0 0
0 0 0 0 0 0 0 0 0
0 0 0 0 0 0 0 0 0
0 0 0 0 0 0 0 0 0
0 0 0 0 0 0 0 0 0
0 0 0 0 0 0 0 0 0
0 0 0 0 0 0 0 0 0
0 0 0 0 0 0 0 0 0
0 0 0 0 0 0 0 0 0
0 0 0 0 0 0 0 0 0
0 0 0 0 0 0 0 0 0
0 0 0 0 0 0 0 0 0
0 0 0 0 0 0 0 0 0
0 0 0 0 0 0 0 0 0
0 0 0 0 0 0 0 0 0
0 0 0 0 0 0 0 0 0
0 0 0 0 0 0 0 0 0
0 0 0 0 0 0 0 0 0
0 0 0 0 0 0 0 0 0
0 0 0 0 0 0 0 0 0
0 0 0 0 0 0 0 0 0
0 0 0 0 0 0 0 0 0
0 0 0 0 0 0 0 0 0
0 0 0 0 0 0 0 0 0
0 0 0 0 0 0 0 0 0
0 0 0 0 0 0 0 0 0
0 0 0 0 0 0 0 0 0
0 0 0 0 0 0 0 0 0
0 0 0 0 0 0 0 0 0
0 0 0 0 0 0 0 0 0
0 0 0 0 0 0 0 0 0
0 0 0 0 0 0 0 0 0
0 0 0 0 0 0 0 0 0
0 0 0 0 0 0 0 0 0
0 0 0 0 0 0 0 0 0
0 0 0 0 0 0 0 0 0
0 0 0 0 0 0 0 0 0
0 0 0 0 0 0 0 0 0
0 0 0 0 0 0 0 0 0
0 0 0 0 0 0 0 0 0
0 0 0 0 0 0 0 0 0
0 0 0 0 0 0 0 0 0
0 0 0 0 0 0 0 0 0
0 0 0 0 0 0 0 0 0
0 0 0 0 0 0 0 0 0
0 0 0 0 0 0 0 0 0
0 0 0 0 0 0 0 0 0
0 0 0 0 0 0 0 0 0
0 0 0 0 0 0 0 0 0
0 0 0 0 0 0 0 0 0
0 0 0 0 0 0 0 0 0
0 0 0 0 0 0 0 0 0
0 0 0 0 0 0 0 0 0
0 0 0 0 0 0 0 0 0
0 0 0 0 0 0 0 0 0
0 0 0 0 0 0 0 0 0
0 0 0 0 0 0 0 0 0
0 0 0 0 0 0 0 0 0
0 0 0 0 0 0 0 0 0
0 0 0 0 0 0 0 0 0
0 0 0 0 0 0 0 0 0
0 0 0 0 0 0 0 0 0
0 0 0 0 0 0 0 0 0
0 0 0 0 0 0 0 0 0
0 0 0 0 0 0 0 0 0
0 0 0 0 0 0 0 0 0
0 0 0 0 0 0 0 0 0
0 0 0 0 0 0 0 0 0
0 0 0 0 0 0 0 0 0
0 0 0 0 0 0 0 0 0
0 0 0 0 0 0 0 0 0
0 0 0 0 0 0 0 0 0
0 0 0 0 0 0 0 0 0
0 0 0 0 0 0 0 0 0
0 0 0 0 0 0 0 0 0
0 0 0 0 0 0 0 0 0
0 0 0 0 0 0 0 0 0
0 0 0 0 0 0 0 0 0
0 0 0 0 0 0 0 0 0
0 0 0 0 0 0 0 0 0
0 0 0 0 0 0 0 0 0
0 0 0 0 0 0 0 0 0
0 0 0 0 0 0 0 0 0
0 0 0 0 0 0 0 0 0
0 0 0 0 0 0 0 0 0
0 0 0 0 0 0 0 0 0
0 0 0 0 0 0 0 0 0
0 0 0 0 0 0 0 0 0
0 0 0 0 0 0 0 0 0
0 0 0 0 0 0 0 0 0
0 0 0 0 0 0 0 0 0
0 0 0 0 0 0 0 0 0
0 0 0 0 0 0 0 0 0
0 0 0 0 0 0 0 0 0
0 0 0 0 0 0 0 0 0
0 0 0 0 0 0 0 0 0
0 0 0 0 0 0 0 0 0
0 0 0 0 0 0 0 0 0
0 0 0 0 0 0 0 0 0
0 0 0 0 0 0 0 0 0
0 0 0 0 0 0 0 0 0
0 0 0 0 0 0 0 0 0
0 0 0 0 0 0 0 0 0
0 0 0 0 0 0 0 0 0
0 0 0 0 0 0 0 0 0
0 0 0 0 0 0 0 0 0
0 0 0 0 0 0 0 0 0
1.73947e-07 1.89601e-07 1.7432e-07 1.89634e-07 1.73947e-07 1.89601e-07 1.7432e-07 1.89634e-07 0
2.01196e-07 2.17216e-07 2.01026e-07 2.16827e-07 2.01196e-07 2.17216e-07 2.01026e-07 2.16827e-07 0
2.29151e-07 2.45735e-07 2.28627e-07 2.45062e-07 2.29151e-07 2.45735e-07 2.28627e-07 2.45062e-07 0
2.58156e-07 2.75506e-07 2.57368e-07 2.74554e-07 2.58156e-07 2.75506e-07 2.57368e-07 2.74554e-07 0
2.88514e-07 3.06703e-07 2.87414e-07 3.05364e-07 2.88514e-07 3.06703e-07 2.87414e-07 3.05364e-07 0
3.20294e-07 3.3924e-07 3.18759e-07 3.37406e-07 3.20294e-07 3.3924e-07 3.18759e-07 3.37406e-07 0
3.53342e-07 3.72927e-07 3.51295e-07 3.70598e-07 3.53342e-07 3.72927e-07 3.51295e-07 3.70598e-07 0
3.87448e-07 4.07542e-07 3.8496e-07 4.04898e-07 3.87448e-07 4.07542e-07 3.8496e-07 4.04898e-07 0
1.7431e-07 1.90377e-07 1.73938e-07 1.89794e-07 1.7431e-07 1.90377e-07 1.73938e-07 1.89794e-07 0
2.02262e-07 2.18667e-07 2.01521e-07 2.17703e-07 2.02262e-07 2.18667e-07 2.01521e-07 2.17703e-07 0
2.30874e-07 2.47821e-07 2.29747e-07 2.46469e-07 2.30874e-07 2.47821e-07 2.29747e-07 2.46469e-07 0
2.60488e-07 2.78153e-07 2.58987e-07 2.76466e-07 2.60488e-07 2.78153e-07 2.58987e-07 2.76466e-07 0
2.91379e-07 3.09855e-07 2.89572e-07 3.07902e-07 2.91379e-07 3.09855e-07 2.89572e-07 3.07902e-07 0
3.23664e-07 3.42919e-07 3.21605e-07 3.40714e-07 3.23664e-07 3.42919e-07 3.21605e-07 3.40714e-07 0
3.57271e-07 3.77232e-07 3.5494e-07 3.74702e-07 3.57271e-07 3.77232e-07 3.5494e-07 3.74702e-07 0
3.92087e-07 4.1272e-07 3.89355e-07 4.09633e-07 3.92087e-07 4.1272e-07 3.89355e-07 4.09633e-07 0
4.28165e-07 4.49738e-07 4.24888e-07 4.46293e-07 4.28165e-07 4.49738e-07 4.24888e-07 4.46293e-07 0
1.76118e-07 1.92491e-07 1.74891e-07 1.91097e-07 1.76118e-07 1.92491e-07 1.74891e-07 1.91097e-07 0
2.04601e-07 2.21317e-07 2.03084e-07 2.19633e-07 2.04601e-07 2.21317e-07 2.03084e-07 2.19633e-07 0
2.33756e-07 2.51026e-07 2.31945e-07 2.49039e-07 2.33756e-07 2.51026e-07 2.31945e-07 2.49039e-07 0
2.63915e-07 2.81863e-07 2.61806e-07 2.79597e-07 2.63915e-07 2.81863e-07 2.61806e-07 2.79597e-07 0
2.95281e-07 3.13997e-07 2.92907e-07 3.11486e-07 2.95281e-07 3.13997e-07 2.92907e-07 3.11486e-07 0
3.27985e-07 3.47491e-07 3.25371e-07 3.44733e-07 3.27985e-07 3.47491e-07 3.25371e-07 3.44733e-07 0
3.62053e-07 3.82338e-07 3.59175e-07 3.79275e-07 3.62053e-07 3.82338e-07 3.59175e-07 3.79275e-07 0
3.97479e-07 4.18566e-07 3.94262e-07 4.15113e-07 3.97479e-07 4.18566e-07 3.94262e-07 4.15113e-07 0
4.34329e-07 4.56319e-07 4.30694e-07 4.52423e-07 4.34329e-07 4.56319e-07 4.30694e-07 4.52423e-07 0
1.79589e-07 1.96084e-07 1.77374e-07 1.93825e-07 1.79589e-07 1.96084e-07 1.77374e-07 1.93825e-07 0
2.08315e-07 2.25242e-07 2.06001e-07 2.22818e-07 2.08315e-07 2.25242e-07 2.06001e-07 2.22818e-07 0
2.37844e-07 2.55351e-07 2.35334e-07 2.52715e-07 2.37844e-07 2.55351e-07 2.35334e-07 2.52715e-07 0
2.68413e-07 2.86594e-07 2.65683e-07 2.83736e-07 2.68413e-07 2.86594e-07 2.65683e-07 2.83736e-07 0
3.00178e-07 3.19115e-07 2.97228e-07 3.1604e-07 3.00178e-07 3.19115e-07 2.97228e-07 3.1604e-07 0
3.33272e-07 3.53018e-07 3.301e-07 3.49709e-07 3.33272e-07 3.53018e-07 3.301e-07 3.49709e-07 0
3.67779e-07 3.88369e-07 3.64356e-07 3.84772e-07 3.67779e-07 3.88369e-07 3.64356e-07 3.84772e-07 0
4.03763e-07 4.25239e-07 4.00022e-07 4.21277e-07 4.03763e-07 4.25239e-07 4.00022e-07 4.21277e-07 0
4.41304e-07 4.6373e-07 4.3717e-07 4.59347e-07 4.41304e-07 4.6373e-07 4.3717e-07 4.59347e-07 0
1.84618e-07 2.01131e-07 1.8153e-07 1.98041e-07 1.84618e-07 2.01131e-07 1.8153e-07 1.98041e-07 0
2.13409e-07 2.30445e-07 2.103e-07 2.27284e-07 2.13409e-07 2.30445e-07 2.103e-07 2.27284e-07 0
2.43145e-07 2.60809e-07 2.39936e-07 2.57519e-07 2.43145e-07 2.60809e-07 2.39936e-07 2.57519e-07 0
2.73994e-07 2.92356e-07 2.70638e-07 2.88902e-07 2.73994e-07 2.92356e-07 2.70638e-07 2.88902e-07 0
3.06078e-07 3.25211e-07 3.02548e-07 3.21571e-07 3.06078e-07 3.25211e-07 3.02548e-07 3.21571e-07 0
3.39521e-07 3.5949e-07 3.35795e-07 3.55637e-07 3.39521e-07 3.5949e-07 3.35795e-07 3.55637e-07 0
3.74435e-07 3.95306e-07 3.70478e-07 3.91189e-07 3.74435e-07 3.95306e-07 3.70478e-07 3.91189e-07 0
4.10936e-07 4.32776e-07 4.06685e-07 4.28318e-07 4.10936e-07 4.32776e-07 4.06685e-07 4.28318e-07 0
4.49131e-07 4.71988e-07 4.44507e-07 4.67115e-07 4.49131e-07 4.71988e-07 4.44507e-07 4.67115e-07 0
1.9116e-07 2.07592e-07 1.87199e-07 2.0369e-07 1.9116e-07 2.07592e-07 1.87199e-07 2.0369e-07 0
2.19847e-07 2.36898e-07 2.15968e-07 2.33021e-07 2.19847e-07 2.36898e-07 2.15968e-07 2.33021e-07 0
2.49635e-07 2.67381e-07 2.45744e-07 2.63451e-07 2.49635e-07 2.67381e-07 2.45744e-07 2.63451e-07 0
2.80646e-07 2.99141e-07 2.76675e-07 2.95099e-07 2.80646e-07 2.99141e-07 2.76675e-07 2.95099e-07 0
3.12972e-07 3.32269e-07 3.08871e-07 3.28076e-07 3.12972e-07 3.32269e-07 3.08871e-07 3.28076e-07 0
3.46712e-07 3.66879e-07 3.42445e-07 3.625e-07 3.46712e-07 3.66879e-07 3.42445e-07 3.625e-07 0
3.8199e-07 4.03117e-07 3.77518e-07 3.98501e-07 3.8199e-07 4.03117e-07 3.77518e-07 3.98501e-07 0
4.18963e-07 4.4114e-07 4.14224e-07 4.36209e-07 4.18963e-07 4.4114e-07 4.14224e-07 4.36209e-07 0
4.57774e-07 4.81057e-07 4.52684e-07 4.75721e-07 4.57774e-07 4.81057e-07 4.52684e-07 4.75721e-07 0
1.99138e-07 2.15391e-07 1.94362e-07 2.10729e-07 1.99138e-07 2.15391e-07 1.94362e-07 2.10729e-07 0
2.27558e-07 2.44544e-07 2.22954e-07 2.39987e-07 2.27558e-07 2.44544e-07 2.22954e-07 2.39987e-07 0
2.57266e-07 2.75032e-07 2.52723e-07 2.70485e-07 2.57266e-07 2.75032e-07 2.52723e-07 2.70485e-07 0
2.88336e-07 3.06916e-07 2.83771e-07 3.02307e-07 2.88336e-07 3.06916e-07 2.83771e-07 3.02307e-07 0
3.20828e-07 3.40256e-07 3.16176e-07 3.35532e-07 3.20828e-07 3.40256e-07 3.16176e-07 3.35532e-07 0
3.54808e-07 3.75142e-07 3.50024e-07 3.70265e-07 3.54808e-07 3.75142e-07 3.50024e-07 3.70265e-07 0
3.90398e-07 4.1175e-07 3.8544e-07 4.06665e-07 3.90398e-07 4.1175e-07 3.8544e-07 4.06665e-07 0
4.27816e-07 4.50373e-07 4.22604e-07 4.44934e-07 4.27816e-07 4.50373e-07 4.22604e-07 4.44934e-07 0
4.67277e-07 4.90917e-07 4.61683e-07 4.85127e-07 4.67277e-07 4.90917e-07 4.61683e-07 4.85127e-07 0
2.08404e-07 2.24449e-07 2.02905e-07 2.19073e-07 2.08404e-07 2.24449e-07 2.02905e-07 2.19073e-07 0
2.36527e-07 2.53467e-07 2.312e-07 2.4816e-07 2.36527e-07 2.53467e-07 2.312e-07 2.4816e-07 0
2.66199e-07 2.84038e-07 2.6088e-07 2.78665e-07 2.66199e-07 2.84038e-07 2.6088e-07 2.78665e-07 0
2.97298e-07 3.15683e-07 2.91962e-07 3.10501e-07 2.97298e-07 3.15683e-07 2.91962e-07 3.10501e-07 0
3.29562e-07 3.49097e-07 3.24415e-07 3.43891e-07 3.29562e-07 3.49097e-07 3.24415e-07 3.43891e-07 0
3.63739e-07 3.84212e-07 3.58483e-07 3.78879e-07 3.63739e-07 3.84212e-07 3.58483e-07 3.78879e-07 0
3.99588e-07 4.21132e-07 3.94188e-07 4.15625e-07 3.99588e-07 4.21132e-07 3.94188e-07 4.15625e-07 0
4.37401e-07 4.60318e-07 4.3178e-07 4.54493e-07 4.37401e-07 4.60318e-07 4.3178e-07 4.54493e-07 0
3.06854e-07 3.25401e-07 3.01287e-07 3.19675e-07 3.06854e-07 3.25401e-07 3.01287e-07 3.19675e-07 0
3.39397e-07 3.59086e-07 3.33576e-07 3.53168e-07 3.39397e-07 3.59086e-07 3.33576e-07 3.53168e-07 0
3.7384e-07 3.94464e-07 3.67854e-07 3.88389e-07 3.7384e-07 3.94464e-07 3.67854e-07 3.88389e-07 0
4.09948e-07 4.31631e-07 4.03812e-07 4.25422e-07 4.09948e-07 4.31631e-07 4.03812e-07 4.25422e-07 0
4.4798e-07 4.70974e-07 4.41742e-07 4.64733e-07 4.4798e-07 4.70974e-07 4.41742e-07 4.64733e-07 0
0 0 0 0 0 0 0 0 0
0 0 0 0 0 0 0 0 0
0 0 0 0 0 0 0 0 0
0 0 0 0 0 0 0 0 0
0 0 0 0 0 0 0 0 0
0 0 0 0 0 0 0 0 0
0 0 0 0 0 0 0 0 0
0 0 0 0 0 0 0 0 0
0 0 0 0 0 0 0 0 0
0 0 0 0 0 0 0 0 0
0 0 0 0 0 0 0 0 0
0 0 0 0 0 0 0 0 0
0 0 0 0 0 0 0 0 0
0 0 0 0 0 0 0 0 0
0 0 0 0 0 0 0 0 0
0 0 0 0 0 0 0 0 0
0 0 0 0 0 0 0 0 0
0 0 0 0 0 0 0 0 0
0 0 0 0 0 0 0 0 0
0 0 0 0 0 0 0 0 0
0 0 0 0 0 0 0 0 0
0 0 0 0 0 0 0 0 0
0 0 0 0 0 0 0 0 0
0 0 0 0 0 0 0 0 0
0 0 0 0 0 0 0 0 0
0 0 0 0 0 0 0 0 0
0 0 0 0 0 0 0 0 0
0 0 0 0 0 0 0 0 0
0 0 0 0 0 0 0 0 0
0 0 0 0 0 0 0 0 0
0 0 0 0 0 0 0 0 0
0 0 0 0 0 0 0 0 0
0 0 0 0 0 0 0 0 0
0 0 0 0 0 0 0 0 0
0 0 0 0 0 0 0 0 0
0 0 0 0 0 0 0 0 0
0 0 0 0 0 0 0 0 0
0 0 0 0 0 0 0 0 0
0 0 0 0 0 0 0 0 0
0 0 0 0 0 0 0 0 0
0 0 0 0 0 0 0 0 0
0 0 0 0 0 0 0 0 0
0 0 0 0 0 0 0 0 0
0 0 0 0 0 0 0 0 0
0 0 0 0 0 0 0 0 0
0 0 0 0 0 0 0 0 0
0 0 0 0 0 0 0 0 0
0 0 0 0 0 0 0 0 0
0 0 0 0 0 0 0 0 0
0 0 0 0 0 0 0 0 0
0 0 0 0 0 0 0 0 0
0 0 0 0 0 0 0 0 0
0 0 0 0 0 0 0 0 0
0 0 0 0 0 0 0 0 0
0 0 0 0 0 0 0 0 0
0 0 0 0 0 0 0 0 0
0 0 0 0 0 0 0 0 0
0 0 0 0 0 0 0 0 0
0 0 0 0 0 0 0 0 0
0 0 0 0 0 0 0 0 0
0 0 0 0 0 0 0 0 0
0 0 0 0 0 0 0 0 0
0 0 0 0 0 0 0 0 0
0 0 0 0 0 0 0 0 0
0 0 0 0 0 0 0 0 0
0 0 0 0 0 0 0 0 0
0 0 0 0 0 0 0 0 0
0 0 0 0 0 0 0 0 0
0 0 0 0 0 0 0 0 0
0 0 0 0 0 0 0 0 0
0 0 0 0 0 0 0 0 0
0 0 0 0 0 0 0 0 0
0 0 0 0 0 0 0 0 0
0 0 0 0 0 0 0 0 0
0 0 0 0 0 0 0 0 0
0 0 0 0 0 0 0 0 0
0 0 0 0 0 0 0 0 0
0 0 0 0 0 0 0 0 0
0 0 0 0 0 0 0 0 0
0 0 0 0 0 0 0 0 0
0 0 0 0 0 0 0 0 0
0 0 0 0 0 0 0 0 0
0 0 0 0 0 0 0 0 0
0 0 0 0 0 0 0 0 0
0 0 0 0 0 0 0 0 0
0 0 0 0 0 0 0 0 0
0 0 0 0 0 0 0 0 0
0 0 0 0 0 0 0 0 0
0 0 0 0 0 0 0 0 0
0 0 0 0 0 0 0 0 0
0 0 0 0 0 0 0 0 0
0 0 0 0 0 0 0 0 0
0 0 0 0 0 0 0 0 0
0 0 0 0 0 0 0 0 0
0 0 0 0 0 0 0 0 0
0 0 0 0 0 0 0 0 0
0 0 0 0 0 0 0 0 0
0 0 0 0 0 0 0 0 0
0 0 0 0 0 0 0 0 0
0 0 0 0 0 0 0 0 0
0 0 0 0 0 0 0 0 0
0 0 0 0 0 0 0 0 0
0 0 0 0 0 0 0 0 0
0 0 0 0 0 0 0 0 0
0 0 0 0 0 0 0 0 0
0 0 0 0 0 0 0 0 0
0 0 0 0 0 0 0 0 0
0 0 0 0 0 0 0 0 0
0 0 0 0 0 0 0 0 0
0 0 0 0 0 0 0 0 0
0 0 0 0 0 0 0 0 0
0 0 0 0 0 0 0 0 0
0 0 0 0 0 0 0 0 0
0 0 0 0 0 0 0 0 0
0 0 0 0 0 0 0 0 0
0 0 0 0 0 0 0 0 0
0 0 0 0 0 0 0 0 0
0 0 0 0 0 0 0 0 0
0 0 0 0 0 0 0 0 0
0 0 0 0 0 0 0 0 0
0 0 0 0 0 0 0 0 0
0 0 0 0 0 0 0 0 0
0 0 0 0 0 0 0 0 0
0 0 0 0 0 0 0 0 0
0 0 0 0 0 0 0 0 0
0 0 0 0 0 0 0 0 0
0 0 0 0 0 0 0 0 0
0 0 0 0 0 0 0 0 0
0 0 0 0 0 0 0 0 0
0 0 0 0 0 0 0 0 0
0 0 0 0 0 0 0 0 0
0 0 0 0 0 0 0 0 0
0 0 0 0 0 0 0 0 0
0 0 0 0 0 0 0 0 0
0 0 0 0 0 0 0 0 0
0 0 0 0 0 0 0 0 0
0 0 0 0 0 0 0 0 0
0 0 0 0 0 0 0 0 0
0 0 0 0 0 0 0 0 0
0 0 0 0 0 0 0 0 0
0 0 0 0 0 0 0 0 0
0 0 0 0 0 0 0 0 0
0 0 0 0 0 0 0 0 0
0 0 0 0 0 0 0 0 0
0 0 0 0 0 0 0 0 0
0 0 0 0 0 0 0 0 0
0 0 0 0 0 0 0 0 0
0 0 0 0 0 0 0 0 0
0 0 0 0 0 0 0 0 0
0 0 0 0 0 0 0 0 0
0 0 0 0 0 0 0 0 0
0 0 0 0 0 0 0 0 0
0 0 0 0 0 0 0 0 0
0 0 0 0 0 0 0 0 0
0 0 0 0 0 0 0 0 0
0 0 0 0 0 0 0 0 0
0 0 0 0 0 0 0 0 0
0 0 0 0 0 0 0 0 0
0 0 0 0 0 0 0 0 0
0 0 0 0 0 0 0 0 0
0 0 0 0 0 0 0 0 0
0 0 0 0 0 0 0 0 0
0 0 0 0 0 0 0 0 0
0 0 0 0 0 0 0 0 0
0 0 0 0 0 0 0 0 0
0 0 0 0 0 0 0 0 0
0 0 0 0 0 0 0 0 0
0 0 0 0 0 0 0 0 0
0 0 0 0 0 0 0 0 0
0 0 0 0 0 0 0 0 0
0 0 0 0 0 0 0 0 0
0 0 0 0 0 0 0 0 0
0 0 0 0 0 0 0 0 0
0 0 0 0 0 0 0 0 0
0 0 0 0 0 0 0 0 0
0 0 0 0 0 0 0 0 0
0 0 0 0 0 0 0 0 0
0 0 0 0 0 0 0 0 0
0 0 0 0 0 0 0 0 0
0 0 0 0 0 0 0 0 0
0 0 0 0 0 0 0 0 0
0 0 0 0 0 0 0 0 0
0 0 0 0 0 0 0 0 0
0 0 0 0 0 0 0 0 0
0 0 0 0 0 0 0 0 0
0 0 0 0 0 0 0 0 0
0 0 0 0 0 0 0 0 0
0 0 0 0 0 0 0 0 0
0 0 0 0 0 0 0 0 0
0 0 0 0 0 0 0 0 0
0 0 0 0 0 0 0 0 0
0 0 0 0 0 0 0 0 0
0 0 0 0 0 0 0 0 0
0 0 0 0 0 0 0 0 0
0 0 0 0 0 0 0 0 0
0 0 0 0 0 0 0 0 0
0 0 0 0 0 0 0 0 0
0 0 0 0 0 0 0 0 0
0 0 0 0 0 0 0 0 0
0 0 0 0 0 0 0 0 0
0 0 0 0 0 0 0 0 0
0 0 0 0 0 0 0 0 0
0 0 0 0 0 0 0 0 0
0 0 0 0 0 0 0 0 0
0 0 0 0 0 0 0 0 0
0 0 0 0 0 0 0 0 0
0 0 0 0 0 0 0 0 0
0 0 0 0 0 0 0 0 0
0 0 0 0 0 0 0 0 0
0 0 0 0 0 0 0 0 0
0 0 0 0 0 0 0 0 0
0 0 0 0 0 0 0 0 0
0 0 0 0 0 0 0 0 0
0 0 0 0 0 0 0 0 0
0 0 0 0 0 0 0 0 0
0 0 0 0 0 0 0 0 0
0 0 0 0 0 0 0 0 0
0 0 0 0 0 0 0 0 0
0 0 0 0 0 0 0 0 0
0 0 0 0 0 0 0 0 0
0 0 0 0 0 0 0 0 0
0 0 0 0 0 0 0 0 0
0 0 0 0 0 0 0 0 0
0 0 0 0 0 0 0 0 0
0 0 0 0 0 0 0 0 0
0 0 0 0 0 0 0 0 0
0 0 0 0 0 0 0 0 0
0 0 0 0 0 0 0 0 0
0 0 0 0 0 0 0 0 0
0 0 0 0 0 0 0 0 0
0 0 0 0 0 0 0 0 0
0 0 0 0 0 0 0 0 0
0 0 0 0 0 0 0 0 0
0 0 0 0 0 0 0 0 0
0 0 0 0 0 0 0 0 0
0 0 0 0 0 0 0 0 0
0 0 0 0 0 0 0 0 0
0 0 0 0 0 0 0 0 0
0 0 0 0 0 0 0 0 0
0 0 0 0 0 0 0 0 0
0 0 0 0 0 0 0 0 0
0 0 0 0 0 0 0 0 0
0 0 0 0 0 0 0 0 0
0 0 0 0 0 0 0 0 0
0 0 0 0 0 0 0 0 0
0 0 0 0 0 0 0 0 0
0 0 0 0 0 0 0 0 0
0 0 0 0 0 0 0 0 0
0 0 0 0 0 0 0 0 0
0 0 0 0 0 0 0 0 0
0 0 0 0 0 0 0 0 0
0 0 0 0 0 0 0 0 0
0 0 0 0 0 0 0 0 0
0 0 0 0 0 0 0 0 0
0 0 0 0 0 0 0 0 0
0 0 0 0 0 0 0 0 0
0 0 0 0 0 0 0 0 0
0 0 0 0 0 0 0 0 0
0 0 0 0 0 0 0 0 0
0 0 0 0 0 0 0 0 0
0 0 0 0 0 0 0 0 0
0 0 0 0 0 0 0 0 0
0 0 0 0 0 0 0 0 0
0 0 0 0 0 0 0 0 0
0 0 0 0 0 0 0 0 0
0 0 0 0 0 0 0 0 0
0 0 0 0 0 0 0 0 0
0 0 0 0 0 0 0 0 0
0 0 0 0 0 0 0 0 0
0 0 0 0 0 0 0 0 0
0 0 0 0 0 0 0 0 0
0 0 0 0 0 0 0 0 0
0 0 0 0 0 0 0 0 0
0 0 0 0 0 0 0 0 0
0 0 0 0 0 0 0 0 0
0 0 0 0 0 0 0 0 0
0 0 0 0 0 0 0 0 0
0 0 0 0 0 0 0 0 0
0 0 0 0 0 0 0 0 0
0 0 0 0 0 0 0 0 0
0 0 0 0 0 0 0 0 0
0 0 0 0 0 0 0 0 0
0 0 0 0 0 0 0 0 0
0 0 0 0 0 0 0 0 0
0 0 0 0 0 0 0 0 0
0 0 0 0 0 0 0 0 0
0 0 0 0 0 0 0 0 0
0 0 0 0 0 0 0 0 0
0 0 0 0 0 0 0 0 0
0 0 0 0 0 0 0 0 0
0 0 0 0 0 0 0 0 0
0 0 0 0 0 0 0 0 0
0 0 0 0 0 0 0 0 0
0 0 0 0 0 0 0 0 0
0 0 0 0 0 0 0 0 0
0 0 0 0 0 0 0 0 0
0 0 0 0 0 0 0 0 0
0 0 0 0 0 0 0 0 0
0 0 0 0 0 0 0 0 0
0 0 0 0 0 0 0 0 0
0 0 0 0 0 0 0 0 0
0 0 0 0 0 0 0 0 0
0 0 0 0 0 0 0 0 0
0 0 0 0 0 0 0 0 0
0 0 0 0 0 0 0 0 0
0 0 0 0 0 0 0 0 0
0 0 0 0 0 0 0 0 0
0 0 0 0 0 0 0 0 0
0 0 0 0 0 0 0 0 0
0 0 0 0 0 0 0 0 0
0 0 0 0 0 0 0 0 0
0 0 0 0 0 0 0 0 0
0 0 0 0 0 0 0 0 0
0 0 0 0 0 0 0 0 0
0 0 0 0 0 0 0 0 0
0 0 0 0 0 0 0 0 0
0 0 0 0 0 0 0 0 0
0 0 0 0 0 0 0 0 0
0 0 0 0 0 0 0 0 0
0 0 0 0 0 0 0 0 0
0 0 0 0 0 0 0 0 0
0 0 0 0 0 0 0 0 0
0 0 0 0 0 0 0 0 0
0 0 0 0 0 0 0 0 0
0 0 0 0 0 0 0 0 0
0 0 0 0 0 0 0 0 0
0 0 0 0 0 0 0 0 0
0 0 0 0 0 0 0 0 0
0 0 0 0 0 0 0 0 0
0 0 0 0 0 0 0 0 0
0 0 0 0 0 0 0 0 0
0 0 0 0 0 0 0 0 0
0 0 0 0 0 0 0 0 0
0 0 0 0 0 0 0 0 0
0 0 0 0 0 0 0 0 0
0 0 0 0 0 0 0 0 0
0 0 0 0 0 0 0 0 0
0 0 0 0 0 0 0 0 0
0 0 0 0 0 0 0 0 0
0 0 0 0 0 0 0 0 0
0 0 0 0 0 0 0 0 0
0 0 0 0 0 0 0 0 0
0 0 0 0 0 0 0 0 0
0 0 0 0 0 0 0 0 0
0 0 0 0 0 0 0 0 0
0 0 0 0 0 0 0 0 0
0 0 0 0 0 0 0 0 0
0 0 0 0 0 0 0 0 0
0 0 0 0 0 0 0 0 0
0 0 0 0 0 0 0 0 0
0 0 0 0 0 0 0 0 0
0 0 0 0 0 0 0 0 0
0 0 0 0 0 0 0 0 0
0 0 0 0 0 0 0 0 0
0 0 0 0 0 0 0 0 0
0 0 0 0 0 0 0 0 0
0 0 0 0 0 0 0 0 0
0 0 0 0 0 0 0 0 0
0 0 0 0 0 0 0 0 0
0 0 0 0 0 0 0 0 0
0 0 0 0 0 0 0 0 0
0 0 0 0 0 0 0 0 0
0 0 0 0 0 0 0 0 0
0 0 0 0 0 0 0 0 0
0 0 0 0 0 0 0 0 0
0 0 0 0 0 0 0 0 0
0 0 0 0 0 0 0 0 0
0 0 0 0 0 0 0 0 0
0 0 0 0 0 0 0 0 0
0 0 0 0 0 0 0 0 0
0 0 0 0 0 0 0 0 0
0 0 0 0 0 0 0 0 0
0 0 0 0 0 0 0 0 0
0 0 0 0 0 0 0 0 0
0 0 0 0 0 0 0 0 0
0 0 0 0 0 0 0 0 0
0 0 0 0 0 0 0 0 0
0 0 0 0 0 0 0 0 0
0 0 0 0 0 0 0 0 0
0 0 0 0 0 0 0 0 0
0 0 0 0 0 0 0 0 0
0 0 0 0 0 0 0 0 0
0 0 0 0 0 0 0 0 0
0 0 0 0 0 0 0 0 0
0 0 0 0 0 0 0 0 0
0 0 0 0 0 0 0 0 0
0 0 0 0 0 0 0 0 0
0 0 0 0 0 0 0 0 0
0 0 0 0 0 0 0 0 0
0 0 0 0 0 0 0 0 0
0 0 0 0 0 0 0 0 0
0 0 0 0 0 0 0 0 0
0 0 0 0 0 0 0 0 0
0 0 0 0 0 0 0 0 0
0 0 0 0 0 0 0 0 0
0 0 0 0 0 0 0 0 0
0 0 0 0 0 0 0 0 0
0 0 0 0 0 0 0 0 0
0 0 0 0 0 0 0 0 0
0 0 0 0 0 0 0 0 0
0 0 0 0 0 0 0 0 0
0 0 0 0 0 0 0 0 0
0 0 0 0 0 0 0 0 0
0 0 0 0 0 0 0 0 0
0 0 0 0 0 0 0 0 0
0 0 0 0 0 0 0 0 0
0 0 0 0 0 0 0 0 0
0 0 0 0 0 0 0 0 0
0 0 0 0 0 0 0 0 0
0 0 0 0 0 0 0 0 0
0 0 0 0 0 0 0 0 0
0 0 0 0 0 0 0 0 0
0 0 0 0 0 0 0 0 0
0 0 0 0 0 0 0 0 0
0 0 0 0 0 0 0 0 0
0 0 0 0 0 0 0 0 0
0 0 0 0 0 0 0 0 0
0 0 0 0 0 0 0 0 0
0 0 0 0 0 0 0 0 0
0 0 0 0 0 0 0 0 0
0 0 0 0 0 0 0 0 0
0 0 0 0 0 0 0 0 0
0 0 0 0 0 0 0 0 0
0 0 0 0 0 0 0 0 0
0 0 0 0 0 0 0 0 0
0 0 0 0 0 0 0 0 0
0 0 0 0 0 0 0 0 0
0 0 0 0 0 0 0 0 0
0 0 0 0 0 0 0 0 0
0 0 0 0 0 0 0 0 0
0 0 0 0 0 0 0 0 0
0 0 0 0 0 0 0 0 0
0 0 0 0 0 0 0 0 0
0 0 0 0 0 0 0 0 0
0 0 0 0 0 0 0 0 0
0 0 0 0 0 0 0 0 0
0 0 0 0 0 0 0 0 0
0 0 0 0 0 0 0 0 0
0 0 0 0 0 0 0 0 0
0 0 0 0 0 0 0 0 0
0 0 0 0 0 0 0 0 0
0 0 0 0 0 0 0 0 0
0 0 0 0 0 0 0 0 0
0 0 0 0 0 0 0 0 0
0 0 0 0 0 0 0 0 0
0 0 0 0 0 0 0 0 0
0 0 0 0 0 0 0 0 0
0 0 0 0 0 0 0 0 0
0 0 0 0 0 0 0 0 0
0 0 0 0 0 0 0 0 0
0 0 0 0 0 0 0 0 0
0 0 0 0 0 0 0 0 0
0 0 0 0 0 0 0 0 0
0 0 0 0 0 0 0 0 0
0 0 0 0 0 0 0 0 0
0 0 0 0 0 0 0 0 0
0 0 0 0 0 0 0 0 0
0 0 0 0 0 0 0 0 0
0 0 0 0 0 0 0 0 0
0 0 0 0 0 0 0 0 0
0 0 0 0 0 0 0 0 0
0 0 0 0 0 0 0 0 0
0 0 0 0 0 0 0 0 0
0 0 0 0 0 0 0 0 0
0 0 0 0 0 0 0 0 0
0 0 0 0 0 0 0 0 0
0 0 0 0 0 0 0 0 0
0 0 0 0 0 0 0 0 0
0 0 0 0 0 0 0 0 0
0 0 0 0 0 0 0 0 0
0 0 0 0 0 0 0 0 0
0 0 0 0 0 0 0 0 0
0 0 0 0 0 0 0 0 0
0 0 0 0 0 0 0 0 0
0 0 0 0 0 0 0 0 0
0 0 0 0 0 0 0 0 0
0 0 0 0 0 0 0 0 0
0 0 0 0 0 0 0 0 0
0 0 0 0 0 0 0 0 0
0 0 0 0 0 0 0 0 0
0 0 0 0 0 0 0 0 0
0 0 0 0 0 0 0 0 0
0 0 0 0 0 0 0 0 0
0 0 0 0 0 0 0 0 0
0 0 0 0 0 0 0 0 0
0 0 0 0 0 0 0 0 0
0 0 0 0 0 0 0 0 0
0 0 0 0 0 0 0 0 0
0 0 0 0 0 0 0 0 0
0 0 0 0 0 0 0 0 0
0 0 0 0 0 0 0 0 0
0 0 0 0 0 0 0 0 0
0 0 0 0 0 0 0 0 0
0 0 0 0 0 0 0 0 0
0 0 0 0 0 0 0 0 0
0 0 0 0 0 0 0 0 0
0 0 0 0 0 0 0 0 0
0 0 0 0 0 0 0 0 0
0 0 0 0 0 0 0 0 0
0 0 0 0 0 0 0 0 0
0 0 0 0 0 0 0 0 0
0 0 0 0 0 0 0 0 0
0 0 0 0 0 0 0 0 0
0 0 0 0 0 0 0 0 0
0 0 0 0 0 0 0 0 0
0 0 0 0 0 0 0 0 0
0 0 0 0 0 0 0 0 0
0 0 0 0 0 0 0 0 0
0 0 0 0 0 0 0 0 0
0 0 0 0 0 0 0 0 0
0 0 0 0 0 0 0 0 0
0 0 0 0 0 0 0 0 0
0 0 0 0 0 0 0 0 0
0 0 0 0 0 0 0 0 0
0 0 0 0 0 0 0 0 0
0 0 0 0 0 0 0 0 0
0 0 0 0 0 0 0 0 0
0 0 0 0 0 0 0 0 0
0 0 0 0 0 0 0 0 0
0 0 0 0 0 0 0 0 0
0 0 0 0 0 0 0 0 0
0 0 0 0 0 0 0 0 0
0 0 0 0 0 0 0 0 0
0 0 0 0 0 0 0 0 0
0 0 0 0 0 0 0 0 0
0 0 0 0 0 0 0 0 0
0 0 0 0 0 0 0 0 0
0 0 0 0 0 0 0 0 0
0 0 0 0 0 0 0 0 0
0 0 0 0 0 0 0 0 0
0 0 0 0 0 0 0 0 0
0 0 0 0 0 0 0 0 0
0 0 0 0 0 0 0 0 0
0 0 0 0 0 0 0 0 0
0 0 0 0 0 0 0 0 0
0 0 0 0 0 0 0 0 0
0 0 0 0 0 0 0 0 0
0 0 0 0 0 0 0 0 0
0 0 0 0 0 0 0 0 0
0 0 0 0 0 0 0 0 0
0 0 0 0 0 0 0 0 0
0 0 0 0 0 0 0 0 0
0 0 0 0 0 0 0 0 0
0 0 0 0 0 0 0 0 0
0 0 0 0 0 0 0 0 0
0 0 0 0 0 0 0 0 0
0 0 0 0 0 0 0 0 0
0 0 0 0 0 0 0 0 0
0 0 0 0 0 0 0 0 0
0 0 0 0 0 0 0 0 0
0 0 0 0 0 0 0 0 0
0 0 0 0 0 0 0 0 0
0 0 0 0 0 0 0 0 0
0 0 0 0 0 0 0 0 0
0 0 0 0 0 0 0 0 0
0 0 0 0 0 0 0 0 0
0 0 0 0 0 0 0 0 0
0 0 0 0 0 0 0 0 0
0 0 0 0 0 0 0 0 0
0 0 0 0 0 0 0 0 0
0 0 0 0 0 0 0 0 0
0 0 0 0 0 0 0 0 0
0 0 0 0 0 0 0 0 0
0 0 0 0 0 0 0 0 0
0 0 0 0 0 0 0 0 0
0 0 0 0 0 0 0 0 0
0 0 0 0 0 0 0 0 0
0 0 0 0 0 0 0 0 0
0 0 0 0 0 0 0 0 0
0 0 0 0 0 0 0 0 0
0 0 0 0 0 0 0 0 0
0 0 0 0 0 0 0 0 0
0 0 0 0 0 0 0 0 0
0 0 0 0 0 0 0 0 0
0 0 0 0 0 0 0 0 0
0 0 0 0 0 0 0 0 0
0 0 0 0 0 0 0 0 0
0 0 0 0 0 0 0 0 0
0 0 0 0 0 0 0 0 0
0 0 0 0 0 0 0 0 0
0 0 0 0 0 0 0 0 0
0 0 0 0 0 0 0 0 0
0 0 0 0 0 0 0 0 0
0 0 0 0 0 0 0 0 0
0 0 0 0 0 0 0 0 0
0 0 0 0 0 0 0 0 0
0 0 0 0 0 0 0 0 0
0 0 0 0 0 0 0 0 0
0 0 0 0 0 0 0 0 0
0 0 0 0 0 0 0 0 0
0 0 0 0 0 0 0 0 0
0 0 0 0 0 0 0 0 0
0 0 0 0 0 0 0 0 0
0 0 0 0 0 0 0 0 0
0 0 0 0 0 0 0 0 0
0 0 0 0 0 0 0 0 0
0 0 0 0 0 0 0 0 0
0 0 0 0 0 0 0 0 0
0 0 0 0 0 0 0 0 0
0 0 0 0 0 0 0 0 0
0 0 0 0 0 0 0 0 0
0 0 0 0 0 0 0 0 0
0 0 0 0 0 0 0 0 0
0 0 0 0 0 0 0 0 0
0 0 0 0 0 0 0 0 0
0 0 0 0 0 0 0 0 0
0 0 0 0 0 0 0 0 0
0 0 0 0 0 0 0 0 0
0 0 0 0 0 0 0 0 0
0 0 0 0 0 0 0 0 0
0 0 0 0 0 0 0 0 0
0 0 0 0 0 0 0 0 0
0 0 0 0 0 0 0 0 0
0 0 0 0 0 0 0 0 0
0 0 0 0 0 0 0 0 0
0 0 0 0 0 0 0 0 0
0 0 0 0 0 0 0 0 0
0 0 0 0 0 0 0 0 0
0 0 0 0 0 0 0 0 0
0 0 0 0 0 0 0 0 0
0 0 0 0 0 0 0 0 0
0 0 0 0 0 0 0 0 0
0 0 0 0 0 0 0 0 0
0 0 0 0 0 0 0 0 0
0 0 0 0 0 0 0 0 0
0 0 0 0 0 0 0 0 0
0 0 0 0 0 0 0 0 0
0 0 0 0 0 0 0 0 0
0 0 0 0 0 0 0 0 0
0 0 0 0 0 0 0 0 0
0 0 0 0 0 0 0 0 0
0 0 0 0 0 0 0 0 0
0 0 0 0 0 0 0 0 0
0 0 0 0 0 0 0 0 0
0 0 0 0 0 0 0 0 0
0 0 0 0 0 0 0 0 0
0 0 0 0 0 0 0 0 0
0 0 0 0 0 0 0 0 0
0 0 0 0 0 0 0 0 0
0 0 0 0 0 0 0 0 0
0 0 0 0 0 0 0 0 0
0 0 0 0 0 0 0 0 0
0 0 0 0 0 0 0 0 0
0 0 0 0 0 0 0 0 0
0 0 0 0 0 0 0 0 0
0 0 0 0 0 0 0 0 0
0 0 0 0 0 0 0 0 0
0 0 0 0 0 0 0 0 0
0 0 0 0 0 0 0 0 0
0 0 0 0 0 0 0 0 0
0 0 0 0 0 0 0 0 0
0 0 0 0 0 0 0 0 0
0 0 0 0 0 0 0 0 0
0 0 0 0 0 0 0 0 0
0 0 0 0 0 0 0 0 0
0 0 0 0 0 0 0 0 0
0 0 0 0 0 0 0 0 0
0 0 0 0 0 0 0 0 0
0 0 0 0 0 0 0 0 0
0 0 0 0 0 0 0 0 0
0 0 0 0 0 0 0 0 0
0 0 0 0 0 0 0 0 0
0 0 0 0 0 0 0 0 0
0 0 0 0 0 0 0 0 0
0 0 0 0 0 0 0 0 0
0 0 0 0 0 0 0 0 0
0 0 0 0 0 0 0 0 0
0 0 0 0 0 0 0 0 0
0 0 0 0 0 0 0 0 0
0 0 0 0 0 0 0 0 0
0 0 0 0 0 0 0 0 0
0 0 0 0 0 0 0 0 0
0 0 0 0 0 0 0 0 0
0 0 0 0 0 0 0 0 0
0 0 0 0 0 0 0 0 0
0 0 0 0 0 0 0 0 0
0 0 0 0 0 0 0 0 0
0 0 0 0 0 0 0 0 0
0 0 0 0 0 0 0 0 0
0 0 0 0 0 0 0 0 0
0 0 0 0 0 0 0 0 0
0 0 0 0 0 0 0 0 0
0 0 0 0 0 0 0 0 0
0 0 0 0 0 0 0 0 0
0 0 0 0 0 0 0 0 0
0 0 0 0 0 0 0 0 0
0 0 0 0 0 0 0 0 0
0 0 0 0 0 0 0 0 0
0 0 0 0 0 0 0 0 0
0 0 0 0 0 0 0 0 0
0 0 0 0 0 0 0 0 0
0 0 0 0 0 0 0 0 0
0 0 0 0 0 0 0 0 0
3.04305e-07 3.32616e-07 3.04205e-07 3.32076e-07 3.04305e-07 3.32616e-07 3.04205e-07 3.32076e-07 0
3.53612e-07 3.82671e-07 3.52803e-07 3.81559e-07 3.53612e-07 3.82671e-07 3.52803e-07 3.81559e-07 0
4.04334e-07 4.34471e-07 4.03025e-07 4.3292e-07 4.04334e-07 4.34471e-07 4.03025e-07 4.3292e-07 0
4.57016e-07 4.88485e-07 4.55286e-07 4.86507e-07 4.57016e-07 4.88485e-07 4.55286e-07 4.86507e-07 0
5.12041e-07 5.44936e-07 5.09858e-07 5.42441e-07 5.12041e-07 5.44936e-07 5.09858e-07 5.42441e-07 0
5.69509e-07 6.03756e-07 5.66761e-07 6.00628e-07 5.69509e-07 6.03756e-07 5.66761e-07 6.00628e-07 0
6.29289e-07 6.6481e-07 6.25876e-07 6.60995e-07 6.29289e-07 6.6481e-07 6.25876e-07 6.60995e-07 0
6.9118e-07 7.2772e-07 6.87124e-07 7.23403e-07 6.9118e-07 7.2772e-07 6.87124e-07 7.23403e-07 0
3.07079e-07 3.35844e-07 3.05063e-07 3.33615e-07 3.07079e-07 3.35844e-07 3.05063e-07 3.33615e-07 0
3.57167e-07 3.86669e-07 3.54771e-07 3.84029e-07 3.57167e-07 3.86669e-07 3.54771e-07 3.84029e-07 0
4.08649e-07 4.39209e-07 4.05831e-07 4.36145e-07 4.08649e-07 4.39209e-07 4.05831e-07 4.36145e-07 0
4.6205e-07 4.93904e-07 4.58817e-07 4.90456e-07 4.6205e-07 4.93904e-07 4.58817e-07 4.90456e-07 0
5.17736e-07 5.51006e-07 5.14141e-07 5.4722e-07 5.17736e-07 5.51006e-07 5.14141e-07 5.4722e-07 0
5.75873e-07 6.10553e-07 5.7194e-07 6.06406e-07 5.75873e-07 6.10553e-07 5.7194e-07 6.06406e-07 0
6.36441e-07 6.72502e-07 6.32112e-07 6.67886e-07 6.36441e-07 6.72502e-07 6.32112e-07 6.67886e-07 0
6.99398e-07 7.36834e-07 6.94462e-07 7.31311e-07 6.99398e-07 7.36834e-07 6.94462e-07 7.31311e-07 0
7.64858e-07 8.04007e-07 7.59046e-07 7.97989e-07 7.64858e-07 8.04007e-07 7.59046e-07 7.97989e-07 0
3.13432e-07 3.42377e-07 3.09317e-07 3.38187e-07 3.13432e-07 3.42377e-07 3.09317e-07 3.38187e-07 0
3.63853e-07 3.93593e-07 3.59594e-07 3.89225e-07 3.63853e-07 3.93593e-07 3.59594e-07 3.89225e-07 0
4.15765e-07 4.46611e-07 4.11305e-07 4.42008e-07 4.15765e-07 4.46611e-07 4.11305e-07 4.42008e-07 0
4.69659e-07 5.01792e-07 4.64949e-07 4.96936e-07 4.69659e-07 5.01792e-07 4.64949e-07 4.96936e-07 0
5.25828e-07 5.59373e-07 5.20862e-07 5.54257e-07 5.25828e-07 5.59373e-07 5.20862e-07 5.54257e-07 0
5.84461e-07 6.19469e-07 5.79222e-07 6.14047e-07 5.84461e-07 6.19469e-07 5.79222e-07 6.14047e-07 0
6.45639e-07 6.82145e-07 6.4006e-07 6.76316e-07 6.45639e-07 6.82145e-07 6.4006e-07 6.76316e-07 0
7.09444e-07 7.4754e-07 7.03407e-07 7.41178e-07 7.09444e-07 7.4754e-07 7.03407e-07 7.41178e-07 0
7.76028e-07 8.15786e-07 7.69404e-07 8.08769e-07 7.76028e-07 8.15786e-07 7.69404e-07 8.08769e-07 0
2.75253e-07 3.03002e-07 2.68511e-07 2.96463e-07 2.75253e-07 3.03002e-07 2.68511e-07 2.96463e-07 0
3.23672e-07 3.5239e-07 3.17275e-07 3.46181e-07 3.23672e-07 3.5239e-07 3.17275e-07 3.46181e-07 0
3.73795e-07 4.03557e-07 3.67656e-07 3.9743e-07 3.73795e-07 4.03557e-07 3.67656e-07 3.9743e-07 0
4.25781e-07 4.5674e-07 4.19641e-07 4.50555e-07 4.25781e-07 4.5674e-07 4.19641e-07 4.50555e-07 0
4.79889e-07 5.12183e-07 4.73658e-07 5.05874e-07 4.79889e-07 5.12183e-07 4.73658e-07 5.05874e-07 0
5.3635e-07 5.70094e-07 5.29974e-07 5.63613e-07 5.3635e-07 5.70094e-07 5.29974e-07 5.63613e-07 0
5.95352e-07 6.30629e-07 5.88778e-07 6.23907e-07 5.95352e-07 6.30629e-07 5.88778e-07 6.23907e-07 0
6.57037e-07 6.93923e-07 6.50183e-07 6.86857e-07 6.57037e-07 6.93923e-07 6.50183e-07 6.86857e-07 0
7.21548e-07 7.60155e-07 7.143e-07 7.5262e-07 7.21548e-07 7.60155e-07 7.143e-07 7.5262e-07 0
7.89061e-07 8.29455e-07 7.81289e-07 8.21322e-07 7.89061e-07 8.29455e-07 7.81289e-07 8.21322e-07 0
2.89907e-07 3.17089e-07 2.81e-07 3.08539e-07 2.89907e-07 3.17089e-07 2.81e-07 3.08539e-07 0
3.37419e-07 3.65759e-07 3.29078e-07 3.5764e-07 3.37419e-07 3.65759e-07 3.29078e-07 3.5764e-07 0
3.86968e-07 4.16561e-07 3.78971e-07 4.08683e-07 3.86968e-07 4.16561e-07 3.78971e-07 4.08683e-07 0
4.38709e-07 4.69626e-07 4.3089e-07 4.61849e-07 4.38709e-07 4.69626e-07 4.3089e-07 4.61849e-07 0
4.92778e-07 5.25117e-07 4.85011e-07 5.17337e-07 4.92778e-07 5.25117e-07 4.85011e-07 5.17337e-07 0
5.49345e-07 5.83208e-07 5.41538e-07 5.75342e-07 5.49345e-07 5.83208e-07 5.41538e-07 5.75342e-07 0
6.08585e-07 6.44067e-07 6.00656e-07 6.36027e-07 6.08585e-07 6.44067e-07 6.00656e-07 6.36027e-07 0
6.70665e-07 7.07868e-07 6.62521e-07 6.99548e-07 6.70665e-07 7.07868e-07 6.62521e-07 6.99548e-07 0
7.35773e-07 7.74828e-07 7.27297e-07 7.66101e-07 7.35773e-07 7.74828e-07 7.27297e-07 7.66101e-07 0
8.04111e-07 8.45088e-07 7.95171e-07 8.35817e-07 8.04111e-07 8.45088e-07 7.95171e-07 8.35817e-07 0
3.08192e-07 3.34512e-07 2.97209e-07 3.24061e-07 3.08192e-07 3.34512e-07 2.97209e-07 3.24061e-07 0
3.54387e-07 3.82318e-07 3.44211e-07 3.72378e-07 3.54387e-07 3.82318e-07 3.44211e-07 3.72378e-07 0
4.0326e-07 4.32527e-07 3.9348e-07 4.22953e-07 4.0326e-07 4.32527e-07 3.9348e-07 4.22953e-07 0
4.54494e-07 4.85233e-07 4.45036e-07 4.75893e-07 4.54494e-07 4.85233e-07 4.45036e-07 4.75893e-07 0
5.08301e-07 5.40582e-07 4.99018e-07 5.31345e-07 5.08301e-07 5.40582e-07 4.99018e-07 5.31345e-07 0
5.64806e-07 5.98713e-07 5.55579e-07 5.89469e-07 5.64806e-07 5.98713e-07 5.55579e-07 5.89469e-07 0
6.24159e-07 6.59783e-07 6.1488e-07 6.5043e-07 6.24159e-07 6.59783e-07 6.1488e-07 6.5043e-07 0
6.86527e-07 7.23986e-07 6.77095e-07 7.14413e-07 6.86527e-07 7.23986e-07 6.77095e-07 7.14413e-07 0
7.52126e-07 7.91569e-07 7.42423e-07 7.81648e-07 7.52126e-07 7.91569e-07 7.42423e-07 7.81648e-07 0
8.21189e-07 8.62703e-07 8.11078e-07 8.52287e-07 8.21189e-07 8.62703e-07 8.11078e-07 8.52287e-07 0
3.74583e-07 4.01932e-07 3.62534e-07 3.90245e-07 3.74583e-07 4.01932e-07 3.62534e-07 3.90245e-07 0
4.22496e-07 4.51314e-07 4.11041e-07 4.40131e-07 4.22496e-07 4.51314e-07 4.11041e-07 4.40131e-07 0
4.73015e-07 5.0347e-07 4.61995e-07 4.92625e-07 4.73015e-07 5.0347e-07 4.61995e-07 4.92625e-07 0
5.26383e-07 5.58524e-07 5.15635e-07 5.47866e-07 5.26383e-07 5.58524e-07 5.15635e-07 5.47866e-07 0
5.82689e-07 6.16574e-07 5.72071e-07 6.05976e-07 5.82689e-07 6.16574e-07 5.72071e-07 6.05976e-07 0
6.42041e-07 6.77746e-07 6.31436e-07 6.67102e-07 6.42041e-07 6.77746e-07 6.31436e-07 6.67102e-07 0
7.04591e-07 7.42246e-07 6.93893e-07 7.31442e-07 7.04591e-07 7.42246e-07 6.93893e-07 7.31442e-07 0
7.70589e-07 8.10392e-07 7.59671e-07 7.99268e-07 7.70589e-07 8.10392e-07 7.59671e-07 7.99268e-07 0
8.4032e-07 8.82306e-07 8.29022e-07 8.70742e-07 8.4032e-07 8.82306e-07 8.29022e-07 8.70742e-07 0
3.97516e-07 4.24077e-07 3.83969e-07 4.11012e-07 3.97516e-07 4.24077e-07 3.83969e-07 4.11012e-07 0
4.44208e-07 4.72612e-07 4.31398e-07 4.60029e-07 4.44208e-07 4.72612e-07 4.31398e-07 4.60029e-07 0
4.9409e-07 5.24338e-07 4.81625e-07 5.11976e-07 4.9409e-07 5.24338e-07 4.81625e-07 5.11976e-07 0
5.47056e-07 5.78859e-07 5.34809e-07 5.66831e-07 5.47056e-07 5.78859e-07 5.34809e-07 5.66831e-07 0
6.02873e-07 6.36689e-07 5.90944e-07 6.24804e-07 6.02873e-07 6.36689e-07 5.90944e-07 6.24804e-07 0
6.62144e-07 6.97884e-07 6.5027e-07 6.85994e-07 6.62144e-07 6.97884e-07 6.5027e-07 6.85994e-07 0
7.24792e-07 7.62583e-07 7.1287e-07 7.5059e-07 7.24792e-07 7.62583e-07 7.1287e-07 7.5059e-07 0
7.91102e-07 8.31248e-07 7.79009e-07 8.18957e-07 7.91102e-07 8.31248e-07 7.79009e-07 8.18957e-07 0
5.69732e-07 6.01444e-07 5.56414e-07 5.88136e-07 5.69732e-07 6.01444e-07 5.56414e-07 5.88136e-07 0
6.25433e-07 6.5927e-07 6.12118e-07 6.45926e-07 6.25433e-07 6.5927e-07 6.12118e-07 6.45926e-07 0
6.84748e-07 7.20531e-07 6.71384e-07 7.07139e-07 6.84748e-07 7.20531e-07 6.71384e-07 7.07139e-07 0
7.47468e-07 7.85294e-07 7.34063e-07 7.71881e-07 7.47468e-07 7.85294e-07 7.34063e-07 7.71881e-07 0
8.1386e-07 8.54101e-07 8.00438e-07 8.40663e-07 8.1386e-07 8.54101e-07 8.00438e-07 8.40663e-07 0
0 0 0 0 0 0 0 0 0
0 0 0 0 0 0 0 0 0
0 0 0 0 0 0 0 0 0
0 0 0 0 0 0 0 0 0
0 0 0 0 0 0 0 0 0
0 0 0 0 0 0 0 0 0
0 0 0 0 0 0 0 0 0
0 0 0 0 0 0 0 0 0
0 0 0 0 0 0 0 0 0
0 0 0 0 0 0 0 0 0
0 0 0 0 0 0 0 0 0
0 0 0 0 0 0 0 0 0
0 0 0 0 0 0 0 0 0
0 0 0 0 0 0 0 0 0
0 0 0 0 0 0 0 0 0
0 0 0 0 0 0 0 0 0
0 0 0 0 0 0 0 0 0
0 0 0 0 0 0 0 0 0
0 0 0 0 0 0 0 0 0
0 0 0 0 0 0 0 0 0
0 0 0 0 0 0 0 0 0
0 0 0 0 0 0 0 0 0
0 0 0 0 0 0 0 0 0
0 0 0 0 0 0 0 0 0
0 0 0 0 0 0 0 0 0
0 0 0 0 0 0 0 0 0
0 0 0 0 0 0 0 0 0
0 0 0 0 0 0 0 0 0
0 0 0 0 0 0 0 0 0
0 0 0 0 0 0 0 0 0
0 0 0 0 0 0 0 0 0
0 0 0 0 0 0 0 0 0
0 0 0 0 0 0 0 0 0
0 0 0 0 0 0 0 0 0
0 0 0 0 0 0 0 0 0
0 0 0 0 0 0 0 0 0
0 0 0 0 0 0 0 0 0
0 0 0 0 0 0 0 0 0
0 0 0 0 0 0 0 0 0
0 0 0 0 0 0 0 0 0
0 0 0 0 0 0 0 0 0
0 0 0 0 0 0 0 0 0
0 0 0 0 0 0 0 0 0
0 0 0 0 0 0 0 0 0
0 0 0 0 0 0 0 0 0
0 0 0 0 0 0 0 0 0
0 0 0 0 0 0 0 0 0
0 0 0 0 0 0 0 0 0
0 0 0 0 0 0 0 0 0
0 0 0 0 0 0 0 0 0
0 0 0 0 0 0 0 0 0
0 0 0 0 0 0 0 0 0
0 0 0 0 0 0 0 0 0
0 0 0 0 0 0 0 0 0
0 0 0 0 0 0 0 0 0
0 0 0 0 0 0 0 0 0
0 0 0 0 0 0 0 0 0
0 0 0 0 0 0 0 0 0
0 0 0 0 0 0 0 0 0
0 0 0 0 0 0 0 0 0
0 0 0 0 0 0 0 0 0
0 0 0 0 0 0 0 0 0
0 0 0 0 0 0 0 0 0
0 0 0 0 0 0 0 0 0
0 0 0 0 0 0 0 0 0
0 0 0 0 0 0 0 0 0
0 0 0 0 0 0 0 0 0
0 0 0 0 0 0 0 0 0
0 0 0 0 0 0 0 0 0
0 0 0 0 0 0 0 0 0
0 0 0 0 0 0 0 0 0
0 0 0 0 0 0 0 0 0
0 0 0 0 0 0 0 0 0
0 0 0 0 0 0 0 0 0
0 0 0 0 0 0 0 0 0
0 0 0 0 0 0 0 0 0
0 0 0 0 0 0 0 0 0
0 0 0 0 0 0 0 0 0
0 0 0 0 0 0 0 0 0
0 0 0 0 0 0 0 0 0
0 0 0 0 0 0 0 0 0
0 0 0 0 0 0 0 0 0
0 0 0 0 0 0 0 0 0
0 0 0 0 0 0 0 0 0
0 0 0 0 0 0 0 0 0
0 0 0 0 0 0 0 0 0
0 0 0 0 0 0 0 0 0
0 0 0 0 0 0 0 0 0
0 0 0 0 0 0 0 0 0
0 0 0 0 0 0 0 0 0
0 0 0 0 0 0 0 0 0
0 0 0 0 0 0 0 0 0
0 0 0 0 0 0 0 0 0
0 0 0 0 0 0 0 0 0
0 0 0 0 0 0 0 0 0
0 0 0 0 0 0 0 0 0
0 0 0 0 0 0 0 0 0
0 0 0 0 0 0 0 0 0
0 0 0 0 0 0 0 0 0
0 0 0 0 0 0 0 0 0
0 0 0 0 0 0 0 0 0
0 0 0 0 0 0 0 0 0
0 0 0 0 0 0 0 0 0
0 0 0 0 0 0 0 0 0
0 0 0 0 0 0 0 0 0
0 0 0 0 0 0 0 0 0
0 0 0 0 0 0 0 0 0
0 0 0 0 0 0 0 0 0
0 0 0 0 0 0 0 0 0
0 0 0 0 0 0 0 0 0
0 0 0 0 0 0 0 0 0
0 0 0 0 0 0 0 0 0
0 0 0 0 0 0 0 0 0
0 0 0 0 0 0 0 0 0
0 0 0 0 0 0 0 0 0
0 0 0 0 0 0 0 0 0
0 0 0 0 0 0 0 0 0
0 0 0 0 0 0 0 0 0
0 0 0 0 0 0 0 0 0
0 0 0 0 0 0 0 0 0
0 0 0 0 0 0 0 0 0
0 0 0 0 0 0 0 0 0
0 0 0 0 0 0 0 0 0
0 0 0 0 0 0 0 0 0
0 0 0 0 0 0 0 0 0
0 0 0 0 0 0 0 0 0
0 0 0 0 0 0 0 0 0
0 0 0 0 0 0 0 0 0
0 0 0 0 0 0 0 0 0
0 0 0 0 0 0 0 0 0
0 0 0 0 0 0 0 0 0
0 0 0 0 0 0 0 0 0
0 0 0 0 0 0 0 0 0
0 0 0 0 0 0 0 0 0
0 0 0 0 0 0 0 0 0
0 0 0 0 0 0 0 0 0
0 0 0 0 0 0 0 0 0
0 0 0 0 0 0 0 0 0
0 0 0 0 0 0 0 0 0
0 0 0 0 0 0 0 0 0
0 0 0 0 0 0 0 0 0
0 0 0 0 0 0 0 0 0
0 0 0 0 0 0 0 0 0
0 0 0 0 0 0 0 0 0
0 0 0 0 0 0 0 0 0
0 0 0 0 0 0 0 0 0
0 0 0 0 0 0 0 0 0
0 0 0 0 0 0 0 0 0
0 0 0 0 0 0 0 0 0
0 0 0 0 0 0 0 0 0
0 0 0 0 0 0 0 0 0
0 0 0 0 0 0 0 0 0
0 0 0 0 0 0 0 0 0
0 0 0 0 0 0 0 0 0
0 0 0 0 0 0 0 0 0
0 0 0 0 0 0 0 0 0
0 0 0 0 0 0 0 0 0
0 0 0 0 0 0 0 0 0
0 0 0 0 0 0 0 0 0
0 0 0 0 0 0 0 0 0
0 0 0 0 0 0 0 0 0
0 0 0 0 0 0 0 0 0
0 0 0 0 0 0 0 0 0
0 0 0 0 0 0 0 0 0
0 0 0 0 0 0 0 0 0
0 0 0 0 0 0 0 0 0
0 0 0 0 0 0 0 0 0
0 0 0 0 0 0 0 0 0
0 0 0 0 0 0 0 0 0
0 0 0 0 0 0 0 0 0
0 0 0 0 0 0 0 0 0
0 0 0 0 0 0 0 0 0
0 0 0 0 0 0 0 0 0
0 0 0 0 0 0 0 0 0
0 0 0 0 0 0 0 0 0
0 0 0 0 0 0 0 0 0
0 0 0 0 0 0 0 0 0
0 0 0 0 0 0 0 0 0
0 0 0 0 0 0 0 0 0
0 0 0 0 0 0 0 0 0
0 0 0 0 0 0 0 0 0
0 0 0 0 0 0 0 0 0
0 0 0 0 0 0 0 0 0
0 0 0 0 0 0 0 0 0
0 0 0 0 0 0 0 0 0
0 0 0 0 0 0 0 0 0
0 0 0 0 0 0 0 0 0
0 0 0 0 0 0 0 0 0
0 0 0 0 0 0 0 0 0
0 0 0 0 0 0 0 0 0
0 0 0 0 0 0 0 0 0
0 0 0 0 0 0 0 0 0
0 0 0 0 0 0 0 0 0
0 0 0 0 0 0 0 0 0
0 0 0 0 0 0 0 0 0
0 0 0 0 0 0 0 0 0
0 0 0 0 0 0 0 0 0
0 0 0 0 0 0 0 0 0
0 0 0 0 0 0 0 0 0
0 0 0 0 0 0 0 0 0
0 0 0 0 0 0 0 0 0
0 0 0 0 0 0 0 0 0
0 0 0 0 0 0 0 0 0
0 0 0 0 0 0 0 0 0
0 0 0 0 0 0 0 0 0
0 0 0 0 0 0 0 0 0
0 0 0 0 0 0 0 0 0
0 0 0 0 0 0 0 0 0
0 0 0 0 0 0 0 0 0
0 0 0 0 0 0 0 0 0
0 0 0 0 0 0 0 0 0
0 0 0 0 0 0 0 0 0
0 0 0 0 0 0 0 0 0
0 0 0 0 0 0 0 0 0
0 0 0 0 0 0 0 0 0
0 0 0 0 0 0 0 0 0
0 0 0 0 0 0 0 0 0
0 0 0 0 0 0 0 0 0
0 0 0 0 0 0 0 0 0
0 0 0 0 0 0 0 0 0
0 0 0 0 0 0 0 0 0
0 0 0 0 0 0 0 0 0
0 0 0 0 0 0 0 0 0
0 0 0 0 0 0 0 0 0
0 0 0 0 0 0 0 0 0
0 0 0 0 0 0 0 0 0
0 0 0 0 0 0 0 0 0
0 0 0 0 0 0 0 0 0
0 0 0 0 0 0 0 0 0
0 0 0 0 0 0 0 0 0
0 0 0 0 0 0 0 0 0
0 0 0 0 0 0 0 0 0
0 0 0 0 0 0 0 0 0
0 0 0 0 0 0 0 0 0
0 0 0 0 0 0 0 0 0
0 0 0 0 0 0 0 0 0
0 0 0 0 0 0 0 0 0
0 0 0 0 0 0 0 0 0
0 0 0 0 0 0 0 0 0
0 0 0 0 0 0 0 0 0
0 0 0 0 0 0 0 0 0
0 0 0 0 0 0 0 0 0
0 0 0 0 0 0 0 0 0
0 0 0 0 0 0 0 0 0
0 0 0 0 0 0 0 0 0
0 0 0 0 0 0 0 0 0
0 0 0 0 0 0 0 0 0
0 0 0 0 0 0 0 0 0
0 0 0 0 0 0 0 0 0
0 0 0 0 0 0 0 0 0
0 0 0 0 0 0 0 0 0
0 0 0 0 0 0 0 0 0
0 0 0 0 0 0 0 0 0
0 0 0 0 0 0 0 0 0
0 0 0 0 0 0 0 0 0
0 0 0 0 0 0 0 0 0
0 0 0 0 0 0 0 0 0
0 0 0 0 0 0 0 0 0
0 0 0 0 0 0 0 0 0
0 0 0 0 0 0 0 0 0
0 0 0 0 0 0 0 0 0
0 0 0 0 0 0 0 0 0
0 0 0 0 0 0 0 0 0
0 0 0 0 0 0 0 0 0
0 0 0 0 0 0 0 0 0
0 0 0 0 0 0 0 0 0
0 0 0 0 0 0 0 0 0
0 0 0 0 0 0 0 0 0
0 0 0 0 0 0 0 0 0
0 0 0 0 0 0 0 0 0
0 0 0 0 0 0 0 0 0
0 0 0 0 0 0 0 0 0
0 0 0 0 0 0 0 0 0
0 0 0 0 0 0 0 0 0
0 0 0 0 0 0 0 0 0
0 0 0 0 0 0 0 0 0
0 0 0 0 0 0 0 0 0
0 0 0 0 0 0 0 0 0
0 0 0 0 0 0 0 0 0
0 0 0 0 0 0 0 0 0
0 0 0 0 0 0 0 0 0
0 0 0 0 0 0 0 0 0
0 0 0 0 0 0 0 0 0
0 0 0 0 0 0 0 0 0
0 0 0 0 0 0 0 0 0
0 0 0 0 0 0 0 0 0
0 0 0 0 0 0 0 0 0
0 0 0 0 0 0 0 0 0
0 0 0 0 0 0 0 0 0
0 0 0 0 0 0 0 0 0
0 0 0 0 0 0 0 0 0
0 0 0 0 0 0 0 0 0
0 0 0 0 0 0 0 0 0
0 0 0 0 0 0 0 0 0
0 0 0 0 0 0 0 0 0
0 0 0 0 0 0 0 0 0
0 0 0 0 0 0 0 0 0
0 0 0 0 0 0 0 0 0
0 0 0 0 0 0 0 0 0
0 0 0 0 0 0 0 0 0
0 0 0 0 0 0 0 0 0
0 0 0 0 0 0 0 0 0
0 0 0 0 0 0 0 0 0
0 0 0 0 0 0 0 0 0
0 0 0 0 0 0 0 0 0
0 0 0 0 0 0 0 0 0
0 0 0 0 0 0 0 0 0
0 0 0 0 0 0 0 0 0
0 0 0 0 0 0 0 0 0
0 0 0 0 0 0 0 0 0
0 0 0 0 0 0 0 0 0
0 0 0 0 0 0 0 0 0
0 0 0 0 0 0 0 0 0
0 0 0 0 0 0 0 0 0
0 0 0 0 0 0 0 0 0
0 0 0 0 0 0 0 0 0
0 0 0 0 0 0 0 0 0
0 0 0 0 0 0 0 0 0
0 0 0 0 0 0 0 0 0
0 0 0 0 0 0 0 0 0
0 0 0 0 0 0 0 0 0
0 0 0 0 0 0 0 0 0
0 0 0 0 0 0 0 0 0
0 0 0 0 0 0 0 0 0
0 0 0 0 0 0 0 0 0
0 0 0 0 0 0 0 0 0
0 0 0 0 0 0 0 0 0
0 0 0 0 0 0 0 0 0
0 0 0 0 0 0 0 0 0
0 0 0 0 0 0 0 0 0
0 0 0 0 0 0 0 0 0
0 0 0 0 0 0 0 0 0
0 0 0 0 0 0 0 0 0
0 0 0 0 0 0 0 0 0
0 0 0 0 0 0 0 0 0
0 0 0 0 0 0 0 0 0
0 0 0 0 0 0 0 0 0
0 0 0 0 0 0 0 0 0
0 0 0 0 0 0 0 0 0
0 0 0 0 0 0 0 0 0
0 0 0 0 0 0 0 0 0
0 0 0 0 0 0 0 0 0
0 0 0 0 0 0 0 0 0
0 0 0 0 0 0 0 0 0
0 0 0 0 0 0 0 0 0
0 0 0 0 0 0 0 0 0
0 0 0 0 0 0 0 0 0
0 0 0 0 0 0 0 0 0
0 0 0 0 0 0 0 0 0
0 0 0 0 0 0 0 0 0
0 0 0 0 0 0 0 0 0
0 0 0 0 0 0 0 0 0
0 0 0 0 0 0 0 0 0
0 0 0 0 0 0 0 0 0
0 0 0 0 0 0 0 0 0
0 0 0 0 0 0 0 0 0
0 0 0 0 0 0 0 0 0
0 0 0 0 0 0 0 0 0
0 0 0 0 0 0 0 0 0
0 0 0 0 0 0 0 0 0
0 0 0 0 0 0 0 0 0
0 0 0 0 0 0 0 0 0
0 0 0 0 0 0 0 0 0
0 0 0 0 0 0 0 0 0
0 0 0 0 0 0 0 0 0
0 0 0 0 0 0 0 0 0
0 0 0 0 0 0 0 0 0
0 0 0 0 0 0 0 0 0
0 0 0 0 0 0 0 0 0
0 0 0 0 0 0 0 0 0
0 0 0 0 0 0 0 0 0
0 0 0 0 0 0 0 0 0
0 0 0 0 0 0 0 0 0
0 0 0 0 0 0 0 0 0
0 0 0 0 0 0 0 0 0
0 0 0 0 0 0 0 0 0
0 0 0 0 0 0 0 0 0
0 0 0 0 0 0 0 0 0
0 0 0 0 0 0 0 0 0
0 0 0 0 0 0 0 0 0
0 0 0 0 0 0 0 0 0
0 0 0 0 0 0 0 0 0
0 0 0 0 0 0 0 0 0
0 0 0 0 0 0 0 0 0
0 0 0 0 0 0 0 0 0
0 0 0 0 0 0 0 0 0
0 0 0 0 0 0 0 0 0
0 0 0 0 0 0 0 0 0
0 0 0 0 0 0 0 0 0
0 0 0 0 0 0 0 0 0
0 0 0 0 0 0 0 0 0
0 0 0 0 0 0 0 0 0
0 0 0 0 0 0 0 0 0
0 0 0 0 0 0 0 0 0
0 0 0 0 0 0 0 0 0
0 0 0 0 0 0 0 0 0
0 0 0 0 0 0 0 0 0
0 0 0 0 0 0 0 0 0
0 0 0 0 0 0 0 0 0
0 0 0 0 0 0 0 0 0
0 0 0 0 0 0 0 0 0
0 0 0 0 0 0 0 0 0
0 0 0 0 0 0 0 0 0
0 0 0 0 0 0 0 0 0
0 0 0 0 0 0 0 0 0
0 0 0 0 0 0 0 0 0
0 0 0 0 0 0 0 0 0
0 0 0 0 0 0 0 0 0
0 0 0 0 0 0 0 0 0
0 0 0 0 0 0 0 0 0
0 0 0 0 0 0 0 0 0
0 0 0 0 0 0 0 0 0
0 0 0 0 0 0 0 0 0
0 0 0 0 0 0 0 0 0
0 0 0 0 0 0 0 0 0
0 0 0 0 0 0 0 0 0
0 0 0 0 0 0 0 0 0
0 0 0 0 0 0 0 0 0
0 0 0 0 0 0 0 0 0
0 0 0 0 0 0 0 0 0
0 0 0 0 0 0 0 0 0
0 0 0 0 0 0 0 0 0
0 0 0 0 0 0 0 0 0
0 0 0 0 0 0 0 0 0
0 0 0 0 0 0 0 0 0
0 0 0 0 0 0 0 0 0
0 0 0 0 0 0 0 0 0
0 0 0 0 0 0 0 0 0
0 0 0 0 0 0 0 0 0
0 0 0 0 0 0 0 0 0
0 0 0 0 0 0 0 0 0
0 0 0 0 0 0 0 0 0
0 0 0 0 0 0 0 0 0
0 0 0 0 0 0 0 0 0
0 0 0 0 0 0 0 0 0
0 0 0 0 0 0 0 0 0
0 0 0 0 0 0 0 0 0
0 0 0 0 0 0 0 0 0
0 0 0 0 0 0 0 0 0
0 0 0 0 0 0 0 0 0
0 0 0 0 0 0 0 0 0
0 0 0 0 0 0 0 0 0
0 0 0 0 0 0 0 0 0
0 0 0 0 0 0 0 0 0
0 0 0 0 0 0 0 0 0
0 0 0 0 0 0 0 0 0
0 0 0 0 0 0 0 0 0
0 0 0 0 0 0 0 0 0
0 0 0 0 0 0 0 0 0
0 0 0 0 0 0 0 0 0
0 0 0 0 0 0 0 0 0
0 0 0 0 0 0 0 0 0
0 0 0 0 0 0 0 0 0
0 0 0 0 0 0 0 0 0
0 0 0 0 0 0 0 0 0
0 0 0 0 0 0 0 0 0
0 0 0 0 0 0 0 0 0
0 0 0 0 0 0 0 0 0
0 0 0 0 0 0 0 0 0
0 0 0 0 0 0 0 0 0
0 0 0 0 0 0 0 0 0
0 0 0 0 0 0 0 0 0
0 0 0 0 0 0 0 0 0
0 0 0 0 0 0 0 0 0
0 0 0 0 0 0 0 0 0
0 0 0 0 0 0 0 0 0
0 0 0 0 0 0 0 0 0
0 0 0 0 0 0 0 0 0
0 0 0 0 0 0 0 0 0
0 0 0 0 0 0 0 0 0
0 0 0 0 0 0 0 0 0
0 0 0 0 0 0 0 0 0
0 0 0 0 0 0 0 0 0
0 0 0 0 0 0 0 0 0
0 0 0 0 0 0 0 0 0
0 0 0 0 0 0 0 0 0
0 0 0 0 0 0 0 0 0
0 0 0 0 0 0 0 0 0
0 0 0 0 0 0 0 0 0
0 0 0 0 0 0 0 0 0
0 0 0 0 0 0 0 0 0
0 0 0 0 0 0 0 0 0
0 0 0 0 0 0 0 0 0
0 0 0 0 0 0 0 0 0
0 0 0 0 0 0 0 0 0
0 0 0 0 0 0 0 0 0
0 0 0 0 0 0 0 0 0
0 0 0 0 0 0 0 0 0
0 0 0 0 0 0 0 0 0
0 0 0 0 0 0 0 0 0
0 0 0 0 0 0 0 0 0
0 0 0 0 0 0 0 0 0
0 0 0 0 0 0 0 0 0
0 0 0 0 0 0 0 0 0
0 0 0 0 0 0 0 0 0
0 0 0 0 0 0 0 0 0
0 0 0 0 0 0 0 0 0
0 0 0 0 0 0 0 0 0
0 0 0 0 0 0 0 0 0
0 0 0 0 0 0 0 0 0
0 0 0 0 0 0 0 0 0
0 0 0 0 0 0 0 0 0
0 0 0 0 0 0 0 0 0
0 0 0 0 0 0 0 0 0
0 0 0 0 0 0 0 0 0
0 0 0 0 0 0 0 0 0
0 0 0 0 0 0 0 0 0
0 0 0 0 0 0 0 0 0
0 0 0 0 0 0 0 0 0
0 0 0 0 0 0 0 0 0
0 0 0 0 0 0 0 0 0
0 0 0 0 0 0 0 0 0
0 0 0 0 0 0 0 0 0
0 0 0 0 0 0 0 0 0
0 0 0 0 0 0 0 0 0
0 0 0 0 0 0 0 0 0
0 0 0 0 0 0 0 0 0
0 0 0 0 0 0 0 0 0
0 0 0 0 0 0 0 0 0
0 0 0 0 0 0 0 0 0
0 0 0 0 0 0 0 0 0
0 0 0 0 0 0 0 0 0
0 0 0 0 0 0 0 0 0
0 0 0 0 0 0 0 0 0
0 0 0 0 0 0 0 0 0
0 0 0 0 0 0 0 0 0
0 0 0 0 0 0 0 0 0
0 0 0 0 0 0 0 0 0
0 0 0 0 0 0 0 0 0
0 0 0 0 0 0 0 0 0
0 0 0 0 0 0 0 0 0
0 0 0 0 0 0 0 0 0
0 0 0 0 0 0 0 0 0
0 0 0 0 0 0 0 0 0
0 0 0 0 0 0 0 0 0
0 0 0 0 0 0 0 0 0
0 0 0 0 0 0 0 0 0
0 0 0 0 0 0 0 0 0
0 0 0 0 0 0 0 0 0
0 0 0 0 0 0 0 0 0
0 0 0 0 0 0 0 0 0
0 0 0 0 0 0 0 0 0
0 0 0 0 0 0 0 0 0
0 0 0 0 0 0 0 0 0
0 0 0 0 0 0 0 0 0
0 0 0 0 0 0 0 0 0
1.72004e-07 1.87608e-07 1.72391e-07 1.87664e-07 1.72004e-07 1.87608e-07 1.72391e-07 1.87664e-07 0
1.99176e-07 2.15173e-07 1.9903e-07 2.14803e-07 1.99176e-07 2.15173e-07 1.9903e-07 2.14803e-07 0
2.27093e-07 2.43663e-07 2.2658e-07 2.42978e-07 2.27093e-07 2.43663e-07 2.2658e-07 2.42978e-07 0
2.5606e-07 2.7336e-07 2.55249e-07 2.72379e-07 2.5606e-07 2.7336e-07 2.55249e-07 2.72379e-07 0
2.86317e-07 3.04416e-07 2.85195e-07 3.0308e-07 2.86317e-07 3.04416e-07 2.85195e-07 3.0308e-07 0
3.17939e-07 3.36788e-07 3.16429e-07 3.35015e-07 3.17939e-07 3.36788e-07 3.16429e-07 3.35015e-07 0
3.50828e-07 3.70342e-07 3.48856e-07 3.68088e-07 3.50828e-07 3.70342e-07 3.48856e-07 3.68088e-07 0
3.84781e-07 4.04723e-07 3.82363e-07 4.02137e-07 3.84781e-07 4.04723e-07 3.82363e-07 4.02137e-07 0
1.72321e-07 1.88359e-07 1.7198e-07 1.8779e-07 1.72321e-07 1.88359e-07 1.7198e-07 1.8779e-07 0
2.00229e-07 2.16624e-07 1.99493e-07 2.15656e-07 2.00229e-07 2.16624e-07 1.99493e-07 2.15656e-07 0
2.28825e-07 2.45769e-07 2.2769e-07 2.44406e-07 2.28825e-07 2.45769e-07 2.2769e-07 2.44406e-07 0
2.58425e-07 2.7606e-07 2.56905e-07 2.74342e-07 2.58425e-07 2.7606e-07 2.56905e-07 2.74342e-07 0
2.8925e-07 3.07655e-07 2.87399e-07 3.05638e-07 2.8925e-07 3.07655e-07 2.87399e-07 3.05638e-07 0
3.21406e-07 3.40572e-07 3.19268e-07 3.38274e-07 3.21406e-07 3.40572e-07 3.19268e-07 3.38274e-07 0
3.54861e-07 3.74742e-07 3.52434e-07 3.72122e-07 3.54861e-07 3.74742e-07 3.52434e-07 3.72122e-07 0
3.89539e-07 4.10089e-07 3.867e-07 4.06849e-07 3.89539e-07 4.10089e-07 3.867e-07 4.06849e-07 0
4.25442e-07 4.46847e-07 4.22011e-07 4.43293e-07 4.25442e-07 4.46847e-07 4.22011e-07 4.43293e-07 0
1.74132e-07 1.90476e-07 1.72894e-07 1.89075e-07 1.74132e-07 1.90476e-07 1.72894e-07 1.89075e-07 0
2.02572e-07 2.19283e-07 2.01051e-07 2.17592e-07 2.02572e-07 2.19283e-07 2.01051e-07 2.17592e-07 0
2.31719e-07 2.48988e-07 2.29902e-07 2.46994e-07 2.31719e-07 2.48988e-07 2.29902e-07 2.46994e-07 0
2.61872e-07 2.79809e-07 2.59753e-07 2.77522e-07 2.61872e-07 2.79809e-07 2.59753e-07 2.77522e-07 0
2.93207e-07 3.11881e-07 2.90804e-07 3.09326e-07 2.93207e-07 3.11881e-07 2.90804e-07 3.09326e-07 0
3.25828e-07 3.45264e-07 3.23161e-07 3.42442e-07 3.25828e-07 3.45264e-07 3.23161e-07 3.42442e-07 0
3.59772e-07 3.79978e-07 3.56825e-07 3.76845e-07 3.59772e-07 3.79978e-07 3.56825e-07 3.76845e-07 0
3.95064e-07 4.1608e-07 3.91778e-07 4.12562e-07 3.95064e-07 4.1608e-07 3.91778e-07 4.12562e-07 0
4.31755e-07 4.53574e-07 4.28052e-07 4.496e-07 4.31755e-07 4.53574e-07 4.28052e-07 4.496e-07 0
1.49782e-07 1.65802e-07 1.4761e-07 1.63566e-07 1.49782e-07 1.65802e-07 1.4761e-07 1.63566e-07 0
1.77678e-07 1.9411e-07 1.75411e-07 1.91823e-07 1.77678e-07 1.9411e-07 1.75411e-07 1.91823e-07 0
2.06316e-07 2.23236e-07 2.03981e-07 2.20793e-07 2.06316e-07 2.23236e-07 2.03981e-07 2.20793e-07 0
2.35835e-07 2.53343e-07 2.33306e-07 2.50687e-07 2.35835e-07 2.53343e-07 2.33306e-07 2.50687e-07 0
2.66403e-07 2.84581e-07 2.63652e-07 2.81698e-07 2.66403e-07 2.84581e-07 2.63652e-07 2.81698e-07 0
2.98156e-07 3.1707e-07 2.95175e-07 3.13954e-07 2.98156e-07 3.1707e-07 2.95175e-07 3.13954e-07 0
3.31199e-07 3.50894e-07 3.27979e-07 3.47527e-07 3.31199e-07 3.50894e-07 3.27979e-07 3.47527e-07 0
3.6561e-07 3.86127e-07 3.62124e-07 3.82463e-07 3.6561e-07 3.86127e-07 3.62124e-07 3.82463e-07 0
4.01466e-07 4.22864e-07 3.97658e-07 4.18838e-07 4.01466e-07 4.22864e-07 3.97658e-07 4.18838e-07 0
4.38846e-07 4.61126e-07 4.34644e-07 4.5666e-07 4.38846e-07 4.61126e-07 4.34644e-07 4.5666e-07 0
1.54848e-07 1.7087e-07 1.51721e-07 1.6776e-07 1.54848e-07 1.7087e-07 1.51721e-07 1.6776e-07 0
1.8276e-07 1.99224e-07 1.79648e-07 1.96093e-07 1.8276e-07 1.99224e-07 1.79648e-07 1.96093e-07 0
2.11484e-07 2.28517e-07 2.08325e-07 2.25304e-07 2.11484e-07 2.28517e-07 2.08325e-07 2.25304e-07 0
2.41216e-07 2.58882e-07 2.37953e-07 2.55537e-07 2.41216e-07 2.58882e-07 2.37953e-07 2.55537e-07 0
2.72068e-07 2.90431e-07 2.68656e-07 2.8692e-07 2.72068e-07 2.90431e-07 2.68656e-07 2.8692e-07 0
3.04149e-07 3.2327e-07 3.00559e-07 3.19564e-07 3.04149e-07 3.2327e-07 3.00559e-07 3.19564e-07 0
3.37563e-07 3.57499e-07 3.33766e-07 3.53565e-07 3.37563e-07 3.57499e-07 3.33766e-07 3.53565e-07 0
3.7241e-07 3.93221e-07 3.68365e-07 3.89008e-07 3.7241e-07 3.93221e-07 3.68365e-07 3.89008e-07 0
4.08797e-07 4.3055e-07 4.04449e-07 4.25999e-07 4.08797e-07 4.3055e-07 4.04449e-07 4.25999e-07 0
4.46821e-07 4.69538e-07 4.42106e-07 4.64574e-07 4.46821e-07 4.69538e-07 4.42106e-07 4.64574e-07 0
1.61658e-07 1.77448e-07 1.57515e-07 1.7347e-07 1.61658e-07 1.77448e-07 1.57515e-07 1.7347e-07 0
1.89273e-07 2.05775e-07 1.85343e-07 2.01819e-07 1.89273e-07 2.05775e-07 1.85343e-07 2.01819e-07 0
2.18064e-07 2.35136e-07 2.14094e-07 2.31151e-07 2.18064e-07 2.35136e-07 2.14094e-07 2.31151e-07 0
2.47882e-07 2.65633e-07 2.43876e-07 2.61587e-07 2.47882e-07 2.65633e-07 2.43876e-07 2.61587e-07 0
2.78898e-07 2.9739e-07 2.74811e-07 2.93236e-07 2.78898e-07 2.9739e-07 2.74811e-07 2.93236e-07 0
3.11219e-07 3.30513e-07 3.07004e-07 3.26202e-07 3.11219e-07 3.30513e-07 3.07004e-07 3.26202e-07 0
3.4495e-07 3.65105e-07 3.40559e-07 3.6059e-07 3.4495e-07 3.65105e-07 3.40559e-07 3.6059e-07 0
3.80197e-07 4.01282e-07 3.75579e-07 3.96508e-07 3.80197e-07 4.01282e-07 3.75579e-07 3.96508e-07 0
4.17082e-07 4.39174e-07 4.1218e-07 4.34077e-07 4.17082e-07 4.39174e-07 4.1218e-07 4.34077e-07 0
4.55717e-07 4.78839e-07 4.50466e-07 4.73358e-07 4.55717e-07 4.78839e-07 4.50466e-07 4.73358e-07 0
1.9737e-07 2.13783e-07 1.92497e-07 2.08983e-07 1.9737e-07 2.13783e-07 1.92497e-07 2.08983e-07 0
2.26034e-07 2.43085e-07 2.21265e-07 2.38334e-07 2.26034e-07 2.43085e-07 2.21265e-07 2.38334e-07 0
2.55833e-07 2.7361e-07 2.51086e-07 2.68855e-07 2.55833e-07 2.7361e-07 2.51086e-07 2.68855e-07 0
2.86912e-07 3.05482e-07 2.8214e-07 3.00671e-07 2.86912e-07 3.05482e-07 2.8214e-07 3.00671e-07 0
3.19391e-07 3.38826e-07 3.14537e-07 3.33895e-07 3.19391e-07 3.38826e-07 3.14537e-07 3.33895e-07 0
3.53389e-07 3.73743e-07 3.48387e-07 3.68629e-07 3.53389e-07 3.73743e-07 3.48387e-07 3.68629e-07 0
3.89e-07 4.10335e-07 3.83792e-07 4.04986e-07 3.89e-07 4.10335e-07 3.83792e-07 4.04986e-07 0
4.26335e-07 4.48722e-07 4.20874e-07 4.43096e-07 4.26335e-07 4.48722e-07 4.20874e-07 4.43096e-07 0
4.65524e-07 4.89057e-07 4.59751e-07 4.83043e-07 4.65524e-07 4.89057e-07 4.59751e-07 4.83043e-07 0
2.06856e-07 2.23012e-07 2.01222e-07 2.17546e-07 2.06856e-07 2.23012e-07 2.01222e-07 2.17546e-07 0
2.35169e-07 2.52208e-07 2.29763e-07 2.46805e-07 2.35169e-07 2.52208e-07 2.29763e-07 2.46805e-07 0
2.64985e-07 2.8285e-07 2.5956e-07 2.77362e-07 2.64985e-07 2.8285e-07 2.5956e-07 2.77362e-07 0
2.96178e-07 3.14724e-07 2.90675e-07 3.09248e-07 2.96178e-07 3.14724e-07 2.90675e-07 3.09248e-07 0
3.28668e-07 3.48227e-07 3.23177e-07 3.42667e-07 3.28668e-07 3.48227e-07 3.23177e-07 3.42667e-07 0
3.62907e-07 3.83457e-07 3.57279e-07 3.77716e-07 3.62907e-07 3.83457e-07 3.57279e-07 3.77716e-07 0
3.98866e-07 4.2042e-07 3.93039e-07 4.1447e-07 3.98866e-07 4.2042e-07 3.93039e-07 4.1447e-07 0
4.36591e-07 4.59229e-07 4.30545e-07 4.53043e-07 4.36591e-07 4.59229e-07 4.30545e-07 4.53043e-07 0
3.06357e-07 3.24992e-07 3.00379e-07 3.18943e-07 3.06357e-07 3.24992e-07 3.00379e-07 3.18943e-07 0
3.39018e-07 3.58711e-07 3.32914e-07 3.52526e-07 3.39018e-07 3.58711e-07 3.32914e-07 3.52526e-07 0
3.73503e-07 3.94224e-07 3.67254e-07 3.8788e-07 3.73503e-07 3.94224e-07 3.67254e-07 3.8788e-07 0
4.09753e-07 4.31455e-07 4.03345e-07 4.24971e-07 4.09753e-07 4.31455e-07 4.03345e-07 4.24971e-07 0
4.47774e-07 4.70669e-07 4.41207e-07 4.63951e-07 4.47774e-07 4.70669e-07 4.41207e-07 4.63951e-07 0
0 0 0 0 0 0 0 0 0
0 0 0 0 0 0 0 0 0
0 0 0 0 0 0 0 0 0
0 0 0 0 0 0 0 0 0
0 0 0 0 0 0 0 0 0
0 0 0 0 0 0 0 0 0
0 0 0 0 0 0 0 0 0
0 0 0 0 0 0 0 0 0
0 0 0 0 0 0 0 0 0
0 0 0 0 0 0 0 0 0
0 0 0 0 0 0 0 0 0
0 0 0 0 0 0 0 0 0
0 0 0 0 0 0 0 0 0
0 0 0 0 0 0 0 0 0
0 0 0 0 0 0 0 0 0
0 0 0 0 0 0 0 0 0
0 0 0 0 0 0 0 0 0
0 0 0 0 0 0 0 0 0
0 0 0 0 0 0 0 0 0
0 0 0 0 0 0 0 0 0
0 0 0 0 0 0 0 0 0
0 0 0 0 0 0 0 0 0
0 0 0 0 0 0 0 0 0
0 0 0 0 0 0 0 0 0
0 0 0 0 0 0 0 0 0
0 0 0 0 0 0 0 0 0
0 0 0 0 0 0 0 0 0
0 0 0 0 0 0 0 0 0
0 0 0 0 0 0 0 0 0
0 0 0 0 0 0 0 0 0
0 0 0 0 0 0 0 0 0
0 0 0 0 0 0 0 0 0
0 0 0 0 0 0 0 0 0
0 0 0 0 0 0 0 0 0
0 0 0 0 0 0 0 0 0
0 0 0 0 0 0 0 0 0
0 0 0 0 0 0 0 0 0
0 0 0 0 0 0 0 0 0
0 0 0 0 0 0 0 0 0
0 0 0 0 0 0 0 0 0
0 0 0 0 0 0 0 0 0
0 0 0 0 0 0 0 0 0
0 0 0 0 0 0 0 0 0
0 0 0 0 0 0 0 0 0
0 0 0 0 0 0 0 0 0
0 0 0 0 0 0 0 0 0
0 0 0 0 0 0 0 0 0
0 0 0 0 0 0 0 0 0
0 0 0 0 0 0 0 0 0
0 0 0 0 0 0 0 0 0
0 0 0 0 0 0 0 0 0
0 0 0 0 0 0 0 0 0
0 0 0 0 0 0 0 0 0
0 0 0 0 0 0 0 0 0
0 0 0 0 0 0 0 0 0
0 0 0 0 0 0 0 0 0
0 0 0 0 0 0 0 0 0
0 0 0 0 0 0 0 0 0
0 0 0 0 0 0 0 0 0
0 0 0 0 0 0 0 0 0
0 0 0 0 0 0 0 0 0
0 0 0 0 0 0 0 0 0
0 0 0 0 0 0 0 0 0
0 0 0 0 0 0 0 0 0
0 0 0 0 0 0 0 0 0
0 0 0 0 0 0 0 0 0
0 0 0 0 0 0 0 0 0
0 0 0 0 0 0 0 0 0
0 0 0 0 0 0 0 0 0
0 0 0 0 0 0 0 0 0
0 0 0 0 0 0 0 0 0
0 0 0 0 0 0 0 0 0
0 0 0 0 0 0 0 0 0
0 0 0 0 0 0 0 0 0
0 0 0 0 0 0 0 0 0
0 0 0 0 0 0 0 0 0
0 0 0 0 0 0 0 0 0
0 0 0 0 0 0 0 0 0
1.59633e-07 1.7435e-07 1.57717e-07 1.72215e-07 1.59633e-07 1.7435e-07 1.57717e-07 1.72215e-07 0
1.85204e-07 2.0015e-07 1.82942e-07 1.97755e-07 1.85204e-07 2.0015e-07 1.82942e-07 1.97755e-07 0
2.11251e-07 2.26639e-07 2.0877e-07 2.24052e-07 2.11251e-07 2.26639e-07 2.0877e-07 2.24052e-07 0
2.38124e-07 2.54119e-07 2.35453e-07 2.51321e-07 2.38124e-07 2.54119e-07 2.35453e-07 2.51321e-07 0
2.66067e-07 2.82721e-07 2.63155e-07 2.7962e-07 2.66067e-07 2.82721e-07 2.63155e-07 2.7962e-07 0
2.95121e-07 3.12349e-07 2.91861e-07 3.08839e-07 2.95121e-07 3.12349e-07 2.91861e-07 3.08839e-07 0
3.25129e-07 3.42817e-07 3.21425e-07 3.38834e-07 3.25129e-07 3.42817e-07 3.21425e-07 3.38834e-07 0
3.55824e-07 3.73677e-07 3.51669e-07 3.69327e-07 3.55824e-07 3.73677e-07 3.51669e-07 3.69327e-07 0
1.64341e-07 1.79245e-07 1.61405e-07 1.76232e-07 1.64341e-07 1.79245e-07 1.61405e-07 1.76232e-07 0
1.90251e-07 2.05421e-07 1.87161e-07 2.02202e-07 1.90251e-07 2.05421e-07 1.87161e-07 2.02202e-07 0
2.16691e-07 2.3232e-07 2.13371e-07 2.28851e-07 2.16691e-07 2.3232e-07 2.13371e-07 2.28851e-07 0
2.43977e-07 2.60201e-07 2.40404e-07 2.56493e-07 2.43977e-07 2.60201e-07 2.40404e-07 2.56493e-07 0
2.72319e-07 2.89204e-07 2.68518e-07 2.85283e-07 2.72319e-07 2.89204e-07 2.68518e-07 2.85283e-07 0
3.01791e-07 3.19297e-07 2.97777e-07 3.15147e-07 3.01791e-07 3.19297e-07 2.97777e-07 3.15147e-07 0
3.32312e-07 3.50366e-07 3.28042e-07 3.45904e-07 3.32312e-07 3.50366e-07 3.28042e-07 3.45904e-07 0
3.63754e-07 3.82282e-07 3.5906e-07 3.77146e-07 3.63754e-07 3.82282e-07 3.5906e-07 3.77146e-07 0
3.96061e-07 4.15188e-07 3.90719e-07 4.09723e-07 3.96061e-07 4.15188e-07 3.90719e-07 4.09723e-07 0
1.70962e-07 1.85902e-07 1.66903e-07 1.81836e-07 1.70962e-07 1.85902e-07 1.66903e-07 1.81836e-07 0
1.96963e-07 2.12244e-07 1.92877e-07 2.0811e-07 1.96963e-07 2.12244e-07 1.92877e-07 2.0811e-07 0
2.2362e-07 2.3942e-07 2.19436e-07 2.3515e-07 2.2362e-07 2.3942e-07 2.19436e-07 2.3515e-07 0
2.51208e-07 2.67614e-07 2.4687e-07 2.63179e-07 2.51208e-07 2.67614e-07 2.4687e-07 2.63179e-07 0
2.79864e-07 2.96929e-07 2.75358e-07 2.92322e-07 2.79864e-07 2.96929e-07 2.75358e-07 2.92322e-07 0
3.09661e-07 3.27382e-07 3.04973e-07 3.22573e-07 3.09661e-07 3.27382e-07 3.04973e-07 3.22573e-07 0
3.40586e-07 3.58942e-07 3.35671e-07 3.53857e-07 3.40586e-07 3.58942e-07 3.35671e-07 3.53857e-07 0
3.72613e-07 3.91611e-07 3.67383e-07 3.86154e-07 3.72613e-07 3.91611e-07 3.67383e-07 3.86154e-07 0
4.05724e-07 4.2529e-07 4.00079e-07 4.19357e-07 4.05724e-07 4.2529e-07 4.00079e-07 4.19357e-07 0
1.54883e-07 1.69077e-07 1.49323e-07 1.63679e-07 1.54883e-07 1.69077e-07 1.49323e-07 1.63679e-07 0
1.79666e-07 1.94389e-07 1.74383e-07 1.89267e-07 1.79666e-07 1.94389e-07 1.74383e-07 1.89267e-07 0
2.0537e-07 2.20641e-07 2.00311e-07 2.15602e-07 2.0537e-07 2.20641e-07 2.00311e-07 2.15602e-07 0
2.32042e-07 2.47916e-07 2.26997e-07 2.4284e-07 2.32042e-07 2.47916e-07 2.26997e-07 2.4284e-07 0
2.59774e-07 2.76296e-07 2.54664e-07 2.71128e-07 2.59774e-07 2.76296e-07 2.54664e-07 2.71128e-07 0
2.88642e-07 3.0585e-07 2.83423e-07 3.00553e-07 2.88642e-07 3.0585e-07 2.83423e-07 3.00553e-07 0
3.18703e-07 3.36613e-07 3.13338e-07 3.31143e-07 3.18703e-07 3.36613e-07 3.13338e-07 3.31143e-07 0
3.49984e-07 3.68607e-07 3.4442e-07 3.62892e-07 3.49984e-07 3.68607e-07 3.4442e-07 3.62892e-07 0
3.82506e-07 4.01864e-07 3.76663e-07 3.95819e-07 3.82506e-07 4.01864e-07 3.76663e-07 3.95819e-07 0
4.1628e-07 4.36317e-07 4.10063e-07 4.29832e-07 4.1628e-07 4.36317e-07 4.10063e-07 4.29832e-07 0
1.6582e-07 1.79677e-07 1.59313e-07 1.73371e-07 1.6582e-07 1.79677e-07 1.59313e-07 1.73371e-07 0
1.9006e-07 2.04547e-07 1.83872e-07 1.98487e-07 1.9006e-07 2.04547e-07 1.83872e-07 1.98487e-07 0
2.15407e-07 2.30579e-07 2.09417e-07 2.24655e-07 2.15407e-07 2.30579e-07 2.09417e-07 2.24655e-07 0
2.41942e-07 2.57809e-07 2.36047e-07 2.51927e-07 2.41942e-07 2.57809e-07 2.36047e-07 2.51927e-07 0
2.69686e-07 2.86266e-07 2.63799e-07 2.80353e-07 2.69686e-07 2.86266e-07 2.63799e-07 2.80353e-07 0
2.98672e-07 3.15986e-07 2.92727e-07 3.09985e-07 2.98672e-07 3.15986e-07 2.92727e-07 3.09985e-07 0
3.28937e-07 3.47008e-07 3.22882e-07 3.40863e-07 3.28937e-07 3.47008e-07 3.22882e-07 3.40863e-07 0
3.60522e-07 3.79379e-07 3.54297e-07 3.73023e-07 3.60522e-07 3.79379e-07 3.54297e-07 3.73023e-07 0
3.93481e-07 4.13157e-07 3.87011e-07 4.06508e-07 3.93481e-07 4.13157e-07 3.87011e-07 4.06508e-07 0
4.27846e-07 4.48312e-07 4.21043e-07 4.41267e-07 4.27846e-07 4.48312e-07 4.21043e-07 4.41267e-07 0
1.78387e-07 1.91786e-07 1.70939e-07 1.84618e-07 1.78387e-07 1.91786e-07 1.70939e-07 1.84618e-07 0
2.01936e-07 2.16239e-07 1.94906e-07 2.09308e-07 2.01936e-07 2.16239e-07 1.94906e-07 2.09308e-07 0
2.26977e-07 2.41996e-07 2.20116e-07 2.35228e-07 2.26977e-07 2.41996e-07 2.20116e-07 2.35228e-07 0
2.53278e-07 2.69073e-07 2.46561e-07 2.62405e-07 2.53278e-07 2.69073e-07 2.46561e-07 2.62405e-07 0
2.80928e-07 2.97515e-07 2.74277e-07 2.90866e-07 2.80928e-07 2.97515e-07 2.74277e-07 2.90866e-07 0
3.09951e-07 3.27339e-07 3.03287e-07 3.20636e-07 3.09951e-07 3.27339e-07 3.03287e-07 3.20636e-07 0
3.40366e-07 3.58571e-07 3.33621e-07 3.51752e-07 3.40366e-07 3.58571e-07 3.33621e-07 3.51752e-07 0
3.72209e-07 3.91269e-07 3.65321e-07 3.84267e-07 3.72209e-07 3.91269e-07 3.65321e-07 3.84267e-07 0
4.0555e-07 4.25513e-07 3.98447e-07 4.18248e-07 4.0555e-07 4.25513e-07 3.98447e-07 4.18248e-07 0
4.40446e-07 4.61292e-07 4.33043e-07 4.53676e-07 4.40446e-07 4.61292e-07 4.33043e-07 4.53676e-07 0
2.15333e-07 2.29408e-07 2.07415e-07 2.21629e-07 2.15333e-07 2.29408e-07 2.07415e-07 2.21629e-07 0
2.39993e-07 2.5482e-07 2.32307e-07 2.47249e-07 2.39993e-07 2.5482e-07 2.32307e-07 2.47249e-07 0
2.6599e-07 2.81665e-07 2.58486e-07 2.74236e-07 2.6599e-07 2.81665e-07 2.58486e-07 2.74236e-07 0
2.93467e-07 3.10029e-07 2.86071e-07 3.02651e-07 2.93467e-07 3.10029e-07 2.86071e-07 3.02651e-07 0
3.22474e-07 3.39916e-07 3.15093e-07 3.32506e-07 3.22474e-07 3.39916e-07 3.15093e-07 3.32506e-07 0
3.53001e-07 3.71315e-07 3.45559e-07 3.63813e-07 3.53001e-07 3.71315e-07 3.45559e-07 3.63813e-07 0
3.85053e-07 4.04279e-07 3.77496e-07 3.96631e-07 3.85053e-07 4.04279e-07 3.77496e-07 3.96631e-07 0
4.18705e-07 4.38899e-07 4.10977e-07 4.31045e-07 4.18705e-07 4.38899e-07 4.10977e-07 4.31045e-07 0
4.54057e-07 4.75283e-07 4.46075e-07 4.6708e-07 4.54057e-07 4.75283e-07 4.46075e-07 4.6708e-07 0
2.2996e-07 2.43666e-07 2.2138e-07 2.35319e-07 2.2996e-07 2.43666e-07 2.2138e-07 2.35319e-07 0
2.54058e-07 2.68726e-07 2.45827e-07 2.60581e-07 2.54058e-07 2.68726e-07 2.45827e-07 2.60581e-07 0
2.79835e-07 2.95501e-07 2.71716e-07 2.87368e-07 2.79835e-07 2.95501e-07 2.71716e-07 2.87368e-07 0
3.07276e-07 3.23763e-07 2.99153e-07 3.15687e-07 3.07276e-07 3.23763e-07 2.99153e-07 3.15687e-07 0
3.36198e-07 3.53689e-07 3.28131e-07 3.45593e-07 3.36198e-07 3.53689e-07 3.28131e-07 3.45593e-07 0
3.66828e-07 3.85237e-07 3.58701e-07 3.77056e-07 3.66828e-07 3.85237e-07 3.58701e-07 3.77056e-07 0
3.99055e-07 4.18403e-07 3.9083e-07 4.10114e-07 3.99055e-07 4.18403e-07 3.9083e-07 4.10114e-07 0
4.3295e-07 4.53348e-07 4.24592e-07 4.44874e-07 4.3295e-07 4.53348e-07 4.24592e-07 4.44874e-07 0
3.22089e-07 3.38584e-07 3.13422e-07 3.299e-07 3.22089e-07 3.38584e-07 3.13422e-07 3.299e-07 0
3.51045e-07 3.68596e-07 3.42341e-07 3.59855e-07 3.51045e-07 3.68596e-07 3.42341e-07 3.59855e-07 0
3.818e-07 4.00328e-07 3.73019e-07 3.91474e-07 3.818e-07 4.00328e-07 3.73019e-07 3.91474e-07 0
4.14207e-07 4.33606e-07 4.05319e-07 4.24697e-07 4.14207e-07 4.33606e-07 4.05319e-07 4.24697e-07 0
4.48242e-07 4.68836e-07 4.39285e-07 4.59768e-07 4.48242e-07 4.68836e-07 4.39285e-07 4.59768e-07 0
0 0 0 0 0 0 0 0 0
0 0 0 0 0 0 0 0 0
0 0 0 0 0 0 0 0 0
0 0 0 0 0 0 0 0 0
0 0 0 0 0 0 0 0 0
0 0 0 0 0 0 0 0 0
0 0 0 0 0 0 0 0 0
0 0 0 0 0 0 0 0 0
0 0 0 0 0 0 0 0 0
0 0 0 0 0 0 0 0 0
0 0 0 0 0 0 0 0 0
0 0 0 0 0 0 0 0 0
0 0 0 0 0 0 0 0 0
0 0 0 0 0 0 0 0 0
0 0 0 0 0 0 0 0 0
0 0 0 0 0 0 0 0 0
0 0 0 0 0 0 0 0 0
0 0 0 0 0 0 0 0 0
0 0 0 0 0 0 0 0 0
0 0 0 0 0 0 0 0 0
0 0 0 0 0 0 0 0 0
0 0 0 0 0 0 0 0 0
0 0 0 0 0 0 0 0 0
0 0 0 0 0 0 0 0 0
0 0 0 0 0 0 0 0 0
0 0 0 0 0 0 0 0 0
0 0 0 0 0 0 0 0 0
0 0 0 0 0 0 0 0 0
0 0 0 0 0 0 0 0 0
0 0 0 0 0 0 0 0 0
0 0 0 0 0 0 0 0 0
0 0 0 0 0 0 0 0 0
0 0 0 0 0 0 0 0 0
0 0 0 0 0 0 0 0 0
0 0 0 0 0 0 0 0 0
0 0 0 0 0 0 0 0 0
0 0 0 0 0 0 0 0 0
0 0 0 0 0 0 0 0 0
0 0 0 0 0 0 0 0 0
0 0 0 0 0 0 0 0 0
0 0 0 0 0 0 0 0 0
0 0 0 0 0 0 0 0 0
0 0 0 0 0 0 0 0 0
0 0 0 0 0 0 0 0 0
0 0 0 0 0 0 0 0 0
0 0 0 0 0 0 0 0 0
0 0 0 0 0 0 0 0 0
0 0 0 0 0 0 0 0 0
0 0 0 0 0 0 0 0 0
0 0 0 0 0 0 0 0 0
0 0 0 0 0 0 0 0 0
0 0 0 0 0 0 0 0 0
0 0 0 0 0 0 0 0 0
0 0 0 0 0 0 0 0 0
0 0 0 0 0 0 0 0 0
0 0 0 0 0 0 0 0 0
0 0 0 0 0 0 0 0 0
0 0 0 0 0 0 0 0 0
0 0 0 0 0 0 0 0 0
0 0 0 0 0 0 0 0 0
0 0 0 0 0 0 0 0 0
0 0 0 0 0 0 0 0 0
0 0 0 0 0 0 0 0 0
0 0 0 0 0 0 0 0 0
0 0 0 0 0 0 0 0 0
0 0 0 0 0 0 0 0 0
0 0 0 0 0 0 0 0 0
0 0 0 0 0 0 0 0 0
0 0 0 0 0 0 0 0 0
0 0 0 0 0 0 0 0 0
0 0 0 0 0 0 0 0 0
0 0 0 0 0 0 0 0 0
0 0 0 0 0 0 0 0 0
0 0 0 0 0 0 0 0 0
0 0 0 0 0 0 0 0 0
0 0 0 0 0 0 0 0 0
0 0 0 0 0 0 0 0 0
0 0 0 0 0 0 0 0 0
0 0 0 0 0 0 0 0 0
0 0 0 0 0 0 0 0 0
0 0 0 0 0 0 0 0 0
0 0 0 0 0 0 0 0 0
0 0 0 0 0 0 0 0 0
0 0 0 0 0 0 0 0 0
0 0 0 0 0 0 0 0 0
0 0 0 0 0 0 0 0 0
0 0 0 0 0 0 0 0 0
0 0 0 0 0 0 0 0 0
0 0 0 0 0 0 0 0 0
0 0 0 0 0 0 0 0 0
0 0 0 0 0 0 0 0 0
0 0 0 0 0 0 0 0 0
0 0 0 0 0 0 0 0 0
0 0 0 0 0 0 0 0 0
0 0 0 0 0 0 0 0 0
0 0 0 0 0 0 0 0 0
0 0 0 0 0 0 0 0 0
0 0 0 0 0 0 0 0 0
0 0 0 0 0 0 0 0 0
0 0 0 0 0 0 0 0 0
0 0 0 0 0 0 0 0 0
0 0 0 0 0 0 0 0 0
0 0 0 0 0 0 0 0 0
0 0 0 0 0 0 0 0 0
0 0 0 0 0 0 0 0 0
0 0 0 0 0 0 0 0 0
0 0 0 0 0 0 0 0 0
0 0 0 0 0 0 0 0 0
0 0 0 0 0 0 0 0 0
0 0 0 0 0 0 0 0 0
0 0 0 0 0 0 0 0 0
0 0 0 0 0 0 0 0 0
0 0 0 0 0 0 0 0 0
0 0 0 0 0 0 0 0 0
0 0 0 0 0 0 0 0 0
0 0 0 0 0 0 0 0 0
0 0 0 0 0 0 0 0 0
0 0 0 0 0 0 0 0 0
0 0 0 0 0 0 0 0 0
0 0 0 0 0 0 0 0 0
0 0 0 0 0 0 0 0 0
0 0 0 0 0 0 0 0 0
0 0 0 0 0 0 0 0 0
0 0 0 0 0 0 0 0 0
0 0 0 0 0 0 0 0 0
0 0 0 0 0 0 0 0 0
0 0 0 0 0 0 0 0 0
0 0 0 0 0 0 0 0 0
0 0 0 0 0 0 0 0 0
0 0 0 0 0 0 0 0 0
0 0 0 0 0 0 0 0 0
0 0 0 0 0 0 0 0 0
0 0 0 0 0 0 0 0 0
0 0 0 0 0 0 0 0 0
0 0 0 0 0 0 0 0 0
0 0 0 0 0 0 0 0 0
0 0 0 0 0 0 0 0 0
0 0 0 0 0 0 0 0 0
0 0 0 0 0 0 0 0 0
0 0 0 0 0 0 0 0 0
0 0 0 0 0 0 0 0 0
0 0 0 0 0 0 0 0 0
0 0 0 0 0 0 0 0 0
0 0 0 0 0 0 0 0 0
0 0 0 0 0 0 0 0 0
0 0 0 0 0 0 0 0 0
0 0 0 0 0 0 0 0 0
0 0 0 0 0 0 0 0 0
0 0 0 0 0 0 0 0 0
0 0 0 0 0 0 0 0 0
0 0 0 0 0 0 0 0 0
0 0 0 0 0 0 0 0 0
0 0 0 0 0 0 0 0 0
0 0 0 0 0 0 0 0 0
0 0 0 0 0 0 0 0 0
0 0 0 0 0 0 0 0 0
0 0 0 0 0 0 0 0 0
0 0 0 0 0 0 0 0 0
0 0 0 0 0 0 0 0 0
0 0 0 0 0 0 0 0 0
0 0 0 0 0 0 0 0 0
0 0 0 0 0 0 0 0 0
0 0 0 0 0 0 0 0 0
0 0 0 0 0 0 0 0 0
0 0 0 0 0 0 0 0 0
0 0 0 0 0 0 0 0 0
0 0 0 0 0 0 0 0 0
0 0 0 0 0 0 0 0 0
0 0 0 0 0 0 0 0 0
0 0 0 0 0 0 0 0 0
0 0 0 0 0 0 0 0 0
0 0 0 0 0 0 0 0 0
0 0 0 0 0 0 0 0 0
0 0 0 0 0 0 0 0 0
0 0 0 0 0 0 0 0 0
0 0 0 0 0 0 0 0 0
0 0 0 0 0 0 0 0 0
0 0 0 0 0 0 0 0 0
0 0 0 0 0 0 0 0 0
0 0 0 0 0 0 0 0 0
0 0 0 0 0 0 0 0 0
0 0 0 0 0 0 0 0 0
0 0 0 0 0 0 0 0 0
0 0 0 0 0 0 0 0 0
0 0 0 0 0 0 0 0 0
0 0 0 0 0 0 0 0 0
0 0 0 0 0 0 0 0 0
0 0 0 0 0 0 0 0 0
0 0 0 0 0 0 0 0 0
0 0 0 0 0 0 0 0 0
0 0 0 0 0 0 0 0 0
0 0 0 0 0 0 0 0 0
0 0 0 0 0 0 0 0 0
0 0 0 0 0 0 0 0 0
0 0 0 0 0 0 0 0 0
0 0 0 0 0 0 0 0 0
0 0 0 0 0 0 0 0 0
0 0 0 0 0 0 0 0 0
0 0 0 0 0 0 0 0 0
0 0 0 0 0 0 0 0 0
0 0 0 0 0 0 0 0 0
0 0 0 0 0 0 0 0 0
0 0 0 0 0 0 0 0 0
0 0 0 0 0 0 0 0 0
0 0 0 0 0 0 0 0 0
0 0 0 0 0 0 0 0 0
0 0 0 0 0 0 0 0 0
0 0 0 0 0 0 0 0 0
0 0 0 0 0 0 0 0 0
0 0 0 0 0 0 0 0 0
0 0 0 0 0 0 0 0 0
0 0 0 0 0 0 0 0 0
0 0 0 0 0 0 0 0 0
0 0 0 0 0 0 0 0 0
0 0 0 0 0 0 0 0 0
0 0 0 0 0 0 0 0 0
0 0 0 0 0 0 0 0 0
0 0 0 0 0 0 0 0 0
0 0 0 0 0 0 0 0 0
0 0 0 0 0 0 0 0 0
0 0 0 0 0 0 0 0 0
0 0 0 0 0 0 0 0 0
0 0 0 0 0 0 0 0 0
0 0 0 0 0 0 0 0 0
0 0 0 0 0 0 0 0 0
0 0 0 0 0 0 0 0 0
0 0 0 0 0 0 0 0 0
0 0 0 0 0 0 0 0 0
0 0 0 0 0 0 0 0 0
0 0 0 0 0 0 0 0 0
0 0 0 0 0 0 0 0 0
0 0 0 0 0 0 0 0 0
0 0 0 0 0 0 0 0 0
0 0 0 0 0 0 0 0 0
0 0 0 0 0 0 0 0 0
0 0 0 0 0 0 0 0 0
0 0 0 0 0 0 0 0 0
0 0 0 0 0 0 0 0 0
0 0 0 0 0 0 0 0 0
0 0 0 0 0 0 0 0 0
0 0 0 0 0 0 0 0 0
0 0 0 0 0 0 0 0 0
0 0 0 0 0 0 0 0 0
0 0 0 0 0 0 0 0 0
0 0 0 0 0 0 0 0 0
0 0 0 0 0 0 0 0 0
0 0 0 0 0 0 0 0 0
0 0 0 0 0 0 0 0 0
0 0 0 0 0 0 0 0 0
0 0 0 0 0 0 0 0 0
0 0 0 0 0 0 0 0 0
0 0 0 0 0 0 0 0 0
0 0 0 0 0 0 0 0 0
0 0 0 0 0 0 0 0 0
0 0 0 0 0 0 0 0 0
0 0 0 0 0 0 0 0 0
0 0 0 0 0 0 0 0 0
0 0 0 0 0 0 0 0 0
0 0 0 0 0 0 0 0 0
0 0 0 0 0 0 0 0 0
0 0 0 0 0 0 0 0 0
0 0 0 0 0 0 0 0 0
0 0 0 0 0 0 0 0 0
0 0 0 0 0 0 0 0 0
0 0 0 0 0 0 0 0 0
0 0 0 0 0 0 0 0 0
0 0 0 0 0 0 0 0 0
0 0 0 0 0 0 0 0 0
0 0 0 0 0 0 0 0 0
0 0 0 0 0 0 0 0 0
0 0 0 0 0 0 0 0 0
0 0 0 0 0 0 0 0 0
0 0 0 0 0 0 0 0 0
0 0 0 0 0 0 0 0 0
0 0 0 0 0 0 0 0 0
0 0 0 0 0 0 0 0 0
0 0 0 0 0 0 0 0 0
0 0 0 0 0 0 0 0 0
0 0 0 0 0 0 0 0 0
0 0 0 0 0 0 0 0 0
0 0 0 0 0 0 0 0 0
0 0 0 0 0 0 0 0 0
0 0 0 0 0 0 0 0 0
0 0 0 0 0 0 0 0 0
0 0 0 0 0 0 0 0 0
0 0 0 0 0 0 0 0 0
0 0 0 0 0 0 0 0 0
0 0 0 0 0 0 0 0 0
0 0 0 0 0 0 0 0 0
0 0 0 0 0 0 0 0 0
0 0 0 0 0 0 0 0 0
0 0 0 0 0 0 0 0 0
0 0 0 0 0 0 0 0 0
0 0 0 0 0 0 0 0 0
0 0 0 0 0 0 0 0 0
0 0 0 0 0 0 0 0 0
0 0 0 0 0 0 0 0 0
0 0 0 0 0 0 0 0 0
0 0 0 0 0 0 0 0 0
0 0 0 0 0 0 0 0 0
0 0 0 0 0 0 0 0 0
0 0 0 0 0 0 0 0 0
0 0 0 0 0 0 0 0 0
0 0 0 0 0 0 0 0 0
0 0 0 0 0 0 0 0 0
0 0 0 0 0 0 0 0 0
0 0 0 0 0 0 0 0 0
0 0 0 0 0 0 0 0 0
0 0 0 0 0 0 0 0 0
0 0 0 0 0 0 0 0 0
0 0 0 0 0 0 0 0 0
0 0 0 0 0 0 0 0 0
0 0 0 0 0 0 0 0 0
0 0 0 0 0 0 0 0 0
0 0 0 0 0 0 0 0 0
0 0 0 0 0 0 0 0 0
0 0 0 0 0 0 0 0 0
0 0 0 0 0 0 0 0 0
0 0 0 0 0 0 0 0 0
0 0 0 0 0 0 0 0 0
0 0 0 0 0 0 0 0 0
0 0 0 0 0 0 0 0 0
0 0 0 0 0 0 0 0 0
0 0 0 0 0 0 0 0 0
0 0 0 0 0 0 0 0 0
0 0 0 0 0 0 0 0 0
0 0 0 0 0 0 0 0 0
0 0 0 0 0 0 0 0 0
0 0 0 0 0 0 0 0 0
0 0 0 0 0 0 0 0 0
0 0 0 0 0 0 0 0 0
0 0 0 0 0 0 0 0 0
0 0 0 0 0 0 0 0 0
0 0 0 0 0 0 0 0 0
0 0 0 0 0 0 0 0 0
0 0 0 0 0 0 0 0 0
0 0 0 0 0 0 0 0 0
0 0 0 0 0 0 0 0 0
0 0 0 0 0 0 0 0 0
0 0 0 0 0 0 0 0 0
0 0 0 0 0 0 0 0 0
0 0 0 0 0 0 0 0 0
0 0 0 0 0 0 0 0 0
0 0 0 0 0 0 0 0 0
0 0 0 0 0 0 0 0 0
0 0 0 0 0 0 0 0 0
0 0 0 0 0 0 0 0 0
0 0 0 0 0 0 0 0 0
0 0 0 0 0 0 0 0 0
0 0 0 0 0 0 0 0 0
0 0 0 0 0 0 0 0 0
0 0 0 0 0 0 0 0 0
0 0 0 0 0 0 0 0 0
0 0 0 0 0 0 0 0 0
0 0 0 0 0 0 0 0 0
0 0 0 0 0 0 0 0 0
0 0 0 0 0 0 0 0 0
0 0 0 0 0 0 0 0 0
0 0 0 0 0 0 0 0 0
0 0 0 0 0 0 0 0 0
0 0 0 0 0 0 0 0 0
0 0 0 0 0 0 0 0 0
0 0 0 0 0 0 0 0 0
0 0 0 0 0 0 0 0 0
0 0 0 0 0 0 0 0 0
0 0 0 0 0 0 0 0 0
0 0 0 0 0 0 0 0 0
0 0 0 0 0 0 0 0 0
0 0 0 0 0 0 0 0 0
0 0 0 0 0 0 0 0 0
0 0 0 0 0 0 0 0 0
0 0 0 0 0 0 0 0 0
0 0 0 0 0 0 0 0 0
0 0 0 0 0 0 0 0 0
0 0 0 0 0 0 0 0 0
0 0 0 0 0 0 0 0 0
0 0 0 0 0 0 0 0 0
0 0 0 0 0 0 0 0 0
0 0 0 0 0 0 0 0 0
0 0 0 0 0 0 0 0 0
0 0 0 0 0 0 0 0 0
0 0 0 0 0 0 0 0 0
0 0 0 0 0 0 0 0 0
0 0 0 0 0 0 0 0 0
SCALARS DNormal double 9
LOOKUP_TABLE default
0 0 0 0 0 0 0 0 0
0 0 0 0 0 0 0 0 0
0 0 0 0 0 0 0 0 0
0 0 0 0 0 0 0 0 0
0 0 0 0 0 0 0 0 0
0 0 0 0 0 0 0 0 0
0 0 0 0 0 0 0 0 0
0 0 0 0 0 0 0 0 0
0 0 0 0 0 0 0 0 0
0 0 0 0 0 0 0 0 0
0 0 0 0 0 0 0 0 0
0 0 0 0 0 0 0 0 0
0 0 0 0 0 0 0 0 0
0 0 0 0 0 0 0 0 0
0 0 0 0 0 0 0 0 0
0 0 0 0 0 0 0 0 0
0 0 0 0 0 0 0 0 0
0 0 0 0 0 0 0 0 0
0 0 0 0 0 0 0 0 0
0 0 0 0 0 0 0 0 0
0 0 0 0 0 0 0 0 0
0 0 0 0 0 0 0 0 0
0 0 0 0 0 0 0 0 0
0 0 0 0 0 0 0 0 0
0 0 0 0 0 0 0 0 0
0 0 0 0 0 0 0 0 0
0 0 0 0 0 0 0 0 0
0 0 0 0 0 0 0 0 0
0 0 0 0 0 0 0 0 0
0 0 0 0 0 0 0 0 0
0 0 0 0 0 0 0 0 0
0 0 0 0 0 0 0 0 0
0 0 0 0 0 0 0 0 0
0 0 0 0 0 0 0 0 0
0 0 0 0 0 0 0 0 0
0 0 0 0 0 0 0 0 0
0 0 0 0 0 0 0 0 0
0 0 0 0 0 0 0 0 0
0 0 0 0 0 0 0 0 0
0 0 0 0 0 0 0 0 0
0 0 0 0 0 0 0 0 0
0 0 0 0 0 0 0 0 0
0 0 0 0 0 0 0 0 0
0 0 0 0 0 0 0 0 0
0 0 0 0 0 0 0 0 0
0 0 0 0 0 0 0 0 0
0 0 0 0 0 0 0 0 0
0 0 0 0 0 0 0 0 0
0 0 0 0 0 0 0 0 0
0 0 0 0 0 0 0 0 0
0 0 0 0 0 0 0 0 0
0 0 0 0 0 0 0 0 0
0 0 0 0 0 0 0 0 0
0 0 0 0 0 0 0 0 0
0 0 0 0 0 0 0 0 0
0 0 0 0 0 0 0 0 0
0 0 0 0 0 0 0 0 0
0 0 0 0 0 0 0 0 0
0 0 0 0 0 0 0 0 0
0 0 0 0 0 0 0 0 0
0 0 0 0 0 0 0 0 0
0 0 0 0 0 0 0 0 0
0 0 0 0 0 0 0 0 0
0 0 0 0 0 0 0 0 0
0 0 0 0 0 0 0 0 0
0 0 0 0 0 0 0 0 0
0 0 0 0 0 0 0 0 0
0 0 0 0 0 0 0 0 0
0 0 0 0 0 0 0 0 0
0 0 0 0 0 0 0 0 0
0 0 0 0 0 0 0 0 0
0 0 0 0 0 0 0 0 0
0 0 0 0 0 0 0 0 0
0 0 0 0 0 0 0 0 0
0 0 0 0 0 0 0 0 0
0 0 0 0 0 0 0 0 0
0 0 0 0 0 0 0 0 0
0 0 0 0 0 0 0 0 0
0 0 0 0 0 0 0 0 0
0 0 0 0 0 0 0 0 0
0 0 0 0 0 0 0 0 0
0 0 0 0 0 0 0 0 0
0 0 0 0 0 0 0 0 0
0 0 0 0 0 0 0 0 0
0 0 0 0 0 0 0 0 0
0 0 0 0 0 0 0 0 0
0 0 0 0 0 0 0 0 0
0 0 0 0 0 0 0 0 0
0 0 0 0 0 0 0 0 0
0 0 0 0 0 0 0 0 0
0 0 0 0 0 0 0 0 0
0 0 0 0 0 0 0 0 0
0 0 0 0 0 0 0 0 0
0 0 0 0 0 0 0 0 0
0 0 0 0 0 0 0 0 0
0 0 0 0 0 0 0 0 0
0 0 0 0 0 0 0 0 0
0 0 0 0 0 0 0 0 0
0 0 0 0 0 0 0 0 0
0 0 0 0 0 0 0 0 0
0 0 0 0 0 0 0 0 0
0 0 0 0 0 0 0 0 0
0 0 0 0 0 0 0 0 0
0 0 0 0 0 0 0 0 0
0 0 0 0 0 0 0 0 0
0 0 0 0 0 0 0 0 0
0 0 0 0 0 0 0 0 0
0 0 0 0 0 0 0 0 0
0 0 0 0 0 0 0 0 0
0 0 0 0 0 0 0 0 0
0 0 0 0 0 0 0 0 0
0 0 0 0 0 0 0 0 0
0 0 0 0 0 0 0 0 0
0 0 0 0 0 0 0 0 0
0 0 0 0 0 0 0 0 0
0 0 0 0 0 0 0 0 0
0 0 0 0 0 0 0 0 0
0 0 0 0 0 0 0 0 0
0 0 0 0 0 0 0 0 0
0 0 0 0 0 0 0 0 0
0 0 0 0 0 0 0 0 0
0 0 0 0 0 0 0 0 0
0 0 0 0 0 0 0 0 0
0 0 0 0 0 0 0 0 0
0 0 0 0 0 0 0 0 0
0 0 0 0 0 0 0 0 0
0 0 0 0 0 0 0 0 0
0 0 0 0 0 0 0 0 0
0 0 0 0 0 0 0 0 0
0 0 0 0 0 0 0 0 0
0 0 0 0 0 0 0 0 0
0 0 0 0 0 0 0 0 0
0 0 0 0 0 0 0 0 0
0 0 0 0 0 0 0 0 0
0 0 0 0 0 0 0 0 0
0 0 0 0 0 0 0 0 0
0 0 0 0 0 0 0 0 0
0 0 0 0 0 0 0 0 0
0 0 0 0 0 0 0 0 0
0 0 0 0 0 0 0 0 0
0 0 0 0 0 0 0 0 0
0 0 0 0 0 0 0 0 0
0 0 0 0 0 0 0 0 0
0 0 0 0 0 0 0 0 0
0 0 0 0 0 0 0 0 0
0 0 0 0 0 0 0 0 0
0 0 0 0 0 0 0 0 0
0 0 0 0 0 0 0 0 0
0 0 0 0 0 0 0 0 0
0 0 0 0 0 0 0 0 0
0 0 0 0 0 0 0 0 0
0 0 0 0 0 0 0 0 0
0 0 0 0 0 0 0 0 0
0 0 0 0 0 0 0 0 0
0 0 0 0 0 0 0 0 0
0 0 0 0 0 0 0 0 0
0 0 0 0 0 0 0 0 0
0 0 0 0 0 0 0 0 0
0 0 0 0 0 0 0 0 0
0 0 0 0 0 0 0 0 0
0 0 0 0 0 0 0 0 0
0 0 0 0 0 0 0 0 0
0 0 0 0 0 0 0 0 0
0 0 0 0 0 0 0 0 0
0 0 0 0 0 0 0 0 0
0 0 0 0 0 0 0 0 0
0 0 0 0 0 0 0 0 0
0 0 0 0 0 0 0 0 0
0 0 0 0 0 0 0 0 0
0 0 0 0 0 0 0 0 0
0 0 0 0 0 0 0 0 0
0 0 0 0 0 0 0 0 0
0 0 0 0 0 0 0 0 0
0 0 0 0 0 0 0 0 0
0 0 0 0 0 0 0 0 0
0 0 0 0 0 0 0 0 0
0 0 0 0 0 0 0 0 0
0 0 0 0 0 0 0 0 0
0 0 0 0 0 0 0 0 0
0 0 0 0 0 0 0 0 0
0 0 0 0 0 0 0 0 0
0 0 0 0 0 0 0 0 0
0 0 0 0 0 0 0 0 0
0 0 0 0 0 0 0 0 0
0 0 0 0 0 0 0 0 0
0 0 0 0 0 0 0 0 0
0 0 0 0 0 0 0 0 0
0 0 0 0 0 0 0 0 0
0 0 0 0 0 0 0 0 0
0 0 0 0 0 0 0 0 0
0 0 0 0 0 0 0 0 0
0 0 0 0 0 0 0 0 0
0 0 0 0 0 0 0 0 0
0 0 0 0 0 0 0 0 0
0 0 0 0 0 0 0 0 0
0 0 0 0 0 0 0 0 0
0 0 0 0 0 0 0 0 0
0 0 0 0 0 0 0 0 0
0 0 0 0 0 0 0 0 0
0 0 0 0 0 0 0 0 0
0 0 0 0 0 0 0 0 0
0 0 0 0 0 0 0 0 0
0 0 0 0 0 0 0 0 0
0 0 0 0 0 0 0 0 0
0 0 0 0 0 0 0 0 0
0 0 0 0 0 0 0 0 0
0 0 0 0 0 0 0 0 0
0 0 0 0 0 0 0 0 0
0 0 0 0 0 0 0 0 0
0 0 0 0 0 0 0 0 0
0 0 0 0 0 0 0 0 0
0 0 0 0 0 0 0 0 0
0 0 0 0 0 0 0 0 0
0 0 0 0 0 0 0 0 0
0 0 0 0 0 0 0 0 0
0 0 0 0 0 0 0 0 0
0 0 0 0 0 0 0 0 0
0 0 0 0 0 0 0 0 0
0 0 0 0 0 0 0 0 0
0 0 0 0 0 0 0 0 0
0 0 0 0 0 0 0 0 0
0 0 0 0 0 0 0 0 0
0 0 0 0 0 0 0 0 0
0 0 0 0 0 0 0 0 0
0 0 0 0 0 0 0 0 0
0 0 0 0 0 0 0 0 0
0 0 0 0 0 0 0 0 0
0 0 0 0 0 0 0 0 0
0 0 0 0 0 0 0 0 0
0 0 0 0 0 0 0 0 0
0 0 0 0 0 0 0 0 0
0 0 0 0 0 0 0 0 0
0 0 0 0 0 0 0 0 0
0 0 0 0 0 0 0 0 0
0 0 0 0 0 0 0 0 0
0 0 0 0 0 0 0 0 0
0 0 0 0 0 0 0 0 0
0 0 0 0 0 0 0 0 0
0 0 0 0 0 0 0 0 0
0 0 0 0 0 0 0 0 0
0 0 0 0 0 0 0 0 0
0 0 0 0 0 0 0 0 0
0 0 0 0 0 0 0 0 0
0 0 0 0 0 0 0 0 0
0 0 0 0 0 0 0 0 0
0 0 0 0 0 0 0 0 0
0 0 0 0 0 0 0 0 0
0 0 0 0 0 0 0 0 0
0 0 0 0 0 0 0 0 0
0 0 0 0 0 0 0 0 0
0 0 0 0 0 0 0 0 0
0 0 0 0 0 0 0 0 0
0 0 0 0 0 0 0 0 0
0 0 0 0 0 0 0 0 0
0 0 0 0 0 0 0 0 0
0 0 0 0 0 0 0 0 0
0 0 0 0 0 0 0 0 0
0 0 0 0 0 0 0 0 0
0 0 0 0 0 0 0 0 0
0 0 0 0 0 0 0 0 0
0 0 0 0 0 0 0 0 0
0 0 0 0 0 0 0 0 0
0 0 0 0 0 0 0 0 0
0 0 0 0 0 0 0 0 0
0 0 0 0 0 0 0 0 0
0 0 0 0 0 0 0 0 0
0 0 0 0 0 0 0 0 0
0 0 0 0 0 0 0 0 0
0 0 0 0 0 0 0 0 0
0 0 0 0 0 0 0 0 0
0 0 0 0 0 0 0 0 0
0 0 0 0 0 0 0 0 0
0 0 0 0 0 0 0 0 0
0 0 0 0 0 0 0 0 0
0 0 0 0 0 0 0 0 0
0 0 0 0 0 0 0 0 0
0 0 0 0 0 0 0 0 0
0 0 0 0 0 0 0 0 0
0 0 0 0 0 0 0 0 0
0 0 0 0 0 0 0 0 0
0 0 0 0 0 0 0 0 0
0 0 0 0 0 0 0 0 0
0 0 0 0 0 0 0 0 0
0 0 0 0 0 0 0 0 0
0 0 0 0 0 0 0 0 0
0 0 0 0 0 0 0 0 0
0 0 0 0 0 0 0 0 0
0 0 0 0 0 0 0 0 0
0 0 0 0 0 0 0 0 0
0 0 0 0 0 0 0 0 0
0 0 0 0 0 0 0 0 0
0 0 0 0 0 0 0 0 0
0 0 0 0 0 0 0 0 0
0 0 0 0 0 0 0 0 0
0 0 0 0 0 0 0 0 0
0 0 0 0 0 0 0 0 0
0 0 0 0 0 0 0 0 0
0 0 0 0 0 0 0 0 0
0 0 0 0 0 0 0 0 0
0 0 0 0 0 0 0 0 0
0 0 0 0 0 0 0 0 0
0 0 0 0 0 0 0 0 0
0 0 0 0 0 0 0 0 0
0 0 0 0 0 0 0 0 0
0 0 0 0 0 0 0 0 0
0 0 0 0 0 0 0 0 0
0 0 0 0 0 0 0 0 0
0 0 0 0 0 0 0 0 0
0 0 0 0 0 0 0 0 0
0 0 0 0 0 0 0 0 0
0 0 0 0 0 0 0 0 0
0 0 0 0 0 0 0 0 0
0 0 0 0 0 0 0 0 0
0 0 0 0 0 0 0 0 0
0 0 0 0 0 0 0 0 0
0 0 0 0 0 0 0 0 0
0 0 0 0 0 0 0 0 0
0 0 0 0 0 0 0 0 0
0 0 0 0 0 0 0 0 0
0 0 0 0 0 0 0 0 0
0 0 0 0 0 0 0 0 0
0 0 0 0 0 0 0 0 0
0 0 0 0 0 0 0 0 0
0 0 0 0 0 0 0 0 0
0 0 0 0 0 0 0 0 0
0 0 0 0 0 0 0 0 0
0 0 0 0 0 0 0 0 0
0 0 0 0 0 0 0 0 0
0 0 0 0 0 0 0 0 0
0 0 0 0 0 0 0 0 0
0 0 0 0 0 0 0 0 0
0 0 0 0 0 0 0 0 0
0 0 0 0 0 0 0 0 0
0 0 0 0 0 0 0 0 0
0 0 0 0 0 0 0 0 0
0 0 0 0 0 0 0 0 0
0 0 0 0 0 0 0 0 0
0 0 0 0 0 0 0 0 0
0 0 0 0 0 0 0 0 0
0 0 0 0 0 0 0 0 0
0 0 0 0 0 0 0 0 0
0 0 0 0 0 0 0 0 0
0 0 0 0 0 0 0 0 0
0 0 0 0 0 0 0 0 0
0 0 0 0 0 0 0 0 0
0 0 0 0 0 0 0 0 0
0 0 0 0 0 0 0 0 0
0 0 0 0 0 0 0 0 0
0 0 0 0 0 0 0 0 0
0 0 0 0 0 0 0 0 0
0 0 0 0 0 0 0 0 0
0 0 0 0 0 0 0 0 0
0 0 0 0 0 0 0 0 0
0 0 0 0 0 0 0 0 0
0 0 0 0 0 0 0 0 0
0 0 0 0 0 0 0 0 0
0 0 0 0 0 0 0 0 0
0 0 0 0 0 0 0 0 0
0 0 0 0 0 0 0 0 0
0 0 0 0 0 0 0 0 0
0 0 0 0 0 0 0 0 0
0 0 0 0 0 0 0 0 0
0 0 0 0 0 0 0 0 0
0 0 0 0 0 0 0 0 0
0 0 0 0 0 0 0 0 0
0 0 0 0 0 0 0 0 0
0 0 0 0 0 0 0 0 0
0 0 0 0 0 0 0 0 0
0 0 0 0 0 0 0 0 0
0 0 0 0 0 0 0 0 0
0 0 0 0 0 0 0 0 0
0 0 0 0 0 0 0 0 0
0 0 0 0 0 0 0 0 0
0 0 0 0 0 0 0 0 0
0 0 0 0 0 0 0 0 0
0 0 0 0 0 0 0 0 0
0 0 0 0 0 0 0 0 0
0 0 0 0 0 0 0 0 0
0 0 0 0 0 0 0 0 0
0 0 0 0 0 0 0 0 0
0 0 0 0 0 0 0 0 0
0 0 0 0 0 0 0 0 0
0 0 0 0 0 0 0 0 0
0 0 0 0 0 0 0 0 0
0 0 0 0 0 0 0 0 0
0 0 0 0 0 0 0 0 0
0 0 0 0 0 0 0 0 0
0 0 0 0 0 0 0 0 0
0 0 0 0 0 0 0 0 0
0 0 0 0 0 0 0 0 0
0 0 0 0 0 0 0 0 0
0 0 0 0 0 0 0 0 0
0 0 0 0 0 0 0 0 0
0 0 0 0 0 0 0 0 0
0 0 0 0 0 0 0 0 0
0 0 0 0 0 0 0 0 0
0 0 0 0 0 0 0 0 0
0 0 0 0 0 0 0 0 0
0 0 0 0 0 0 0 0 0
0 0 0 0 0 0 0 0 0
0 0 0 0 0 0 0 0 0
0 0 0 0 0 0 0 0 0
0 0 0 0 0 0 0 0 0
0 0 0 0 0 0 0 0 0
0 0 0 0 0 0 0 0 0
0 0 0 0 0 0 0 0 0
0 0 0 0 0 0 0 0 0
0 0 0 0 0 0 0 0 0
0 0 0 0 0 0 0 0 0
0 0 0 0 0 0 0 0 0
0 0 0 0 0 0 0 0 0
0 0 0 0 0 0 0 0 0
0 0 0 0 0 0 0 0 0
0 0 0 0 0 0 0 0 0
0 0 0 0 0 0 0 0 0
0 0 0 0 0 0 0 0 0
0 0 0 0 0 0 0 0 0
0 0 0 0 0 0 0 0 0
0 0 0 0 0 0 0 0 0
0 0 0 0 0 0 0 0 0
0 0 0 0 0 0 0 0 0
0 0 0 0 0 0 0 0 0
0 0 0 0 0 0 0 0 0
0 0 0 0 0 0 0 0 0
0 0 0 0 0 0 0 0 0
0 0 0 0 0 0 0 0 0
0 0 0 0 0 0 0 0 0
0 0 0 0 0 0 0 0 0
0 0 0 0 0 0 0 0 0
0 0 0 0 0 0 0 0 0
0 0 0 0 0 0 0 0 0
0 0 0 0 0 0 0 0 0
0 0 0 0 0 0 0 0 0
0 0 0 0 0 0 0 0 0
0 0 0 0 0 0 0 0 0
0 0 0 0 0 0 0 0 0
0 0 0 0 0 0 0 0 0
0 0 0 0 0 0 0 0 0
0 0 0 0 0 0 0 0 0
0 0 0 0 0 0 0 0 0
0 0 0 0 0 0 0 0 0
0 0 0 0 0 0 0 0 0
0 0 0 0 0 0 0 0 0
0 0 0 0 0 0 0 0 0
0 0 0 0 0 0 0 0 0
0 0 0 0 0 0 0 0 0
0 0 0 0 0 0 0 0 0
0 0 0 0 0 0 0 0 0
0 0 0 0 0 0 0 0 0
0 0 0 0 0 0 0 0 0
0 0 0 0 0 0 0 0 0
0 0 0 0 0 0 0 0 0
0 0 0 0 0 0 0 0 0
0 0 0 0 0 0 0 0 0
0 0 0 0 0 0 0 0 0
0 0 0 0 0 0 0 0 0
0 0 0 0 0 0 0 0 0
0 0 0 0 0 0 0 0 0
0 0 0 0 0 0 0 0 0
0 0 0 0 0 0 0 0 0
0 0 0 0 0 0 0 0 0
0 0 0 0 0 0 0 0 0
0 0 0 0 0 0 0 0 0
0 0 0 0 0 0 0 0 0
0 0 0 0 0 0 0 0 0
0 0 0 0 0 0 0 0 0
0 0 0 0 0 0 0 0 0
0 0 0 0 0 0 0 0 0
0 0 0 0 0 0 0 0 0
0 0 0 0 0 0 0 0 0
0 0 0 0 0 0 0 0 0
0 0 0 0 0 0 0 0 0
0 0 0 0 0 0 0 0 0
0 0 0 0 0 0 0 0 0
0 0 0 0 0 0 0 0 0
0 0 0 0 0 0 0 0 0
0 0 0 0 0 0 0 0 0
0 0 0 0 0 0 0 0 0
0 0 0 0 0 0 0 0 0
0 0 0 0 0 0 0 0 0
0 0 0 0 0 0 0 0 0
0 0 0 0 0 0 0 0 0
0 0 0 0 0 0 0 0 0
0 0 0 0 0 0 0 0 0
0 0 0 0 0 0 0 0 0
0 0 0 0 0 0 0 0 0
0 0 0 0 0 0 0 0 0
0 0 0 0 0 0 0 0 0
0 0 0 0 0 0 0 0 0
0 0 0 0 0 0 0 0 0
0 0 0 0 0 0 0 0 0
0 0 0 0 0 0 0 0 0
0 0 0 0 0 0 0 0 0
0 0 0 0 0 0 0 0 0
0 0 0 0 0 0 0 0 0
0 0 0 0 0 0 0 0 0
0 0 0 0 0 0 0 0 0
0 0 0 0 0 0 0 0 0
0 0 0 0 0 0 0 0 0
0 0 0 0 0 0 0 0 0
0 0 0 0 0 0 0 0 0
0 0 0 0 0 0 0 0 0
0 0 0 0 0 0 0 0 0
0 0 0 0 0 0 0 0 0
0 0 0 0 0 0 0 0 0
0 0 0 0 0 0 0 0 0
0 0 0 0 0 0 0 0 0
0 0 0 0 0 0 0 0 0
0 0 0 0 0 0 0 0 0
0 0 0 0 0 0 0 0 0
0 0 0 0 0 0 0 0 0
0 0 0 0 0 0 0 0 0
0 0 0 0 0 0 0 0 0
0 0 0 0 0 0 0 0 0
0 0 0 0 0 0 0 0 0
0 0 0 0 0 0 0 0 0
0 0 0 0 0 0 0 0 0
0 0 0 0 0 0 0 0 0
0 0 0 0 0 0 0 0 0
0 0 0 0 0 0 0 0 0
0 0 0 0 0 0 0 0 0
0 0 0 0 0 0 0 0 0
0 0 0 0 0 0 0 0 0
0 0 0 0 0 0 0 0 0
0 0 0 0 0 0 0 0 0
0 0 0 0 0 0 0 0 0
0 0 0 0 0 0 0 0 0
0 0 0 0 0 0 0 0 0
0 0 0 0 0 0 0 0 0
0 0 0 0 0 0 0 0 0
0 0 0 0 0 0 0 0 0
0 0 0 0 0 0 0 0 0
0 0 0 0 0 0 0 0 0
0 0 0 0 0 0 0 0 0
0 0 0 0 0 0 0 0 0
0 0 0 0 0 0 0 0 0
0 0 0 0 0 0 0 0 0
0 0 0 0 0 0 0 0 0
0 0 0 0 0 0 0 0 0
0 0 0 0 0 0 0 0 0
0 0 0 0 0 0 0 0 0
0 0 0 0 0 0 0 0 0
0 0 0 0 0 0 0 0 0
0 0 0 0 0 0 0 0 0
0 0 0 0 0 0 0 0 0
0 0 0 0 0 0 0 0 0
0 0 0 0 0 0 0 0 0
0 0 0 0 0 0 0 0 0
0 0 0 0 0 0 0 0 0
0 0 0 0 0 0 0 0 0
0 0 0 0 0 0 0 0 0
0 0 0 0 0 0 0 0 0
0 0 0 0 0 0 0 0 0
0 0 0 0 0 0 0 0 0
0 0 0 0 0 0 0 0 0
0 0 0 0 0 0 0 0 0
0 0 0 0 0 0 0 0 0
0 0 0 0 0 0 0 0 0
0 0 0 0 0 0 0 0 0
0 0 0 0 0 0 0 0 0
0 0 0 0 0 0 0 0 0
0 0 0 0 0 0 0 0 0
0 0 0 0 0 0 0 0 0
0 0 0 0 0 0 0 0 0
0 0 0 0 0 0 0 0 0
0 0 0 0 0 0 0 0 0
0 0 0 0 0 0 0 0 0
0 0 0 0 0 0 0 0 0
0 0 0 0 0 0 0 0 0
0 0 0 0 0 0 0 0 0
0 0 0 0 0 0 0 0 0
0 0 0 0 0 0 0 0 0
0 0 0 0 0 0 0 0 0
0 0 0 0 0 0 0 0 0
0 0 0 0 0 0 0 0 0
0 0 0 0 0 0 0 0 0
0 0 0 0 0 0 0 0 0
0 0 0 0 0 0 0 0 0
0 0 0 0 0 0 0 0 0
0 0 0 0 0 0 0 0 0
0 0 0 0 0 0 0 0 0
0 0 0 0 0 0 0 0 0
0 0 0 0 0 0 0 0 0
0 0 0 0 0 0 0 0 0
0 0 0 0 0 0 0 0 0
0 0 0 0 0 0 0 0 0
0 0 0 0 0 0 0 0 0
0 0 0 0 0 0 0 0 0
0 0 0 0 0 0 0 0 0
0 0 0 0 0 0 0 0 0
0 0 0 0 0 0 0 0 0
0 0 0 0 0 0 0 0 0
0 0 0 0 0 0 0 0 0
0 0 0 0 0 0 0 0 0
0 0 0 0 0 0 0 0 0
0 0 0 0 0 0 0 0 0
0 0 0 0 0 0 0 0 0
0 0 0 0 0 0 0 0 0
0 0 0 0 0 0 0 0 0
0 0 0 0 0 0 0 0 0
0 0 0 0 0 0 0 0 0
0 0 0 0 0 0 0 0 0
0 0 0 0 0 0 0 0 0
0 0 0 0 0 0 0 0 0
0 0 0 0 0 0 0 0 0
0 0 0 0 0 0 0 0 0
0 0 0 0 0 0 0 0 0
0 0 0 0 0 0 0 0 0
0 0 0 0 0 0 0 0 0
0 0 0 0 0 0 0 0 0
0 0 0 0 0 0 0 0 0
0 0 0 0 0 0 0 0 0
0 0 0 0 0 0 0 0 0
0 0 0 0 0 0 0 0 0
0 0 0 0 0 0 0 0 0
0 0 0 0 0 0 0 0 0
0 0 0 0 0 0 0 0 0
0 0 0 0 0 0 0 0 0
0 0 0 0 0 0 0 0 0
0 0 0 0 0 0 0 0 0
0 0 0 0 0 0 0 0 0
0 0 0 0 0 0 0 0 0
0 0 0 0 0 0 0 0 0
0 0 0 0 0 0 0 0 0
0 0 0 0 0 0 0 0 0
0 0 0 0 0 0 0 0 0
0 0 0 0 0 0 0 0 0
0 0 0 0 0 0 0 0 0
0 0 0 0 0 0 0 0 0
0 0 0 0 0 0 0 0 0
0 0 0 0 0 0 0 0 0
0 0 0 0 0 0 0 0 0
0 0 0 0 0 0 0 0 0
0 0 0 0 0 0 0 0 0
0 0 0 0 0 0 0 0 0
0 0 0 0 0 0 0 0 0
0 0 0 0 0 0 0 0 0
0 0 0 0 0 0 0 0 0
0 0 0 0 0 0 0 0 0
0 0 0 0 0 0 0 0 0
0 0 0 0 0 0 0 0 0
0 0 0 0 0 0 0 0 0
0 0 0 0 0 0 0 0 0
0 0 0 0 0 0 0 0 0
0 0 0 0 0 0 0 0 0
0 0 0 0 0 0 0 0 0
0 0 0 0 0 0 0 0 0
0 0 0 0 0 0 0 0 0
0 0 0 0 0 0 0 0 0
0 0 0 0 0 0 0 0 0
0 0 0 0 0 0 0 0 0
0 0 0 0 0 0 0 0 0
0 0 0 0 0 0 0 0 0
0 0 0 0 0 0 0 0 0
0 0 0 0 0 0 0 0 0
0 0 0 0 0 0 0 0 0
0 0 0 0 0 0 0 0 0
0 0 0 0 0 0 0 0 0
0 0 0 0 0 0 0 0 0
0 0 0 0 0 0 0 0 0
0 0 0 0 0 0 0 0 0
0 0 0 0 0 0 0 0 0
0 0 0 0 0 0 0 0 0
0 0 0 0 0 0 0 0 0
0 0 0 0 0 0 0 0 0
0 0 0 0 0 0 0 0 0
0 0 0 0 0 0 0 0 0
0 0 0 0 0 0 0 0 0
0 0 0 0 0 0 0 0 0
0 0 0 0 0 0 0 0 0
0 0 0 0 0 0 0 0 0
0 0 0 0 0 0 0 0 0
0 0 0 0 0 0 0 0 0
0 0 0 0 0 0 0 0 0
0 0 0 0 0 0 0 0 0
0 0 0 0 0 0 0 0 0
0 0 0 0 0 0 0 0 0
0 0 0 0 0 0 0 0 0
0 0 0 0 0 0 0 0 0
0 0 0 0 0 0 0 0 0
0 0 0 0 0 0 0 0 0
0 0 0 0 0 0 0 0 0
0 0 0 0 0 0 0 0 0
0 0 0 0 0 0 0 0 0
0 0 0 0 0 0 0 0 0
0 0 0 0 0 0 0 0 0
0 0 0 0 0 0 0 0 0
0 0 0 0 0 0 0 0 0
0 0 0 0 0 0 0 0 0
0 0 0 0 0 0 0 0 0
0 0 0 0 0 0 0 0 0
0 0 0 0 0 0 0 0 0
0 0 0 0 0 0 0 0 0
0 0 0 0 0 0 0 0 0
0 0 0 0 0 0 0 0 0
0 0 0 0 0 0 0 0 0
0 0 0 0 0 0 0 0 0
0 0 0 0 0 0 0 0 0
0 0 0 0 0 0 0 0 0
0 0 0 0 0 0 0 0 0
0 0 0 0 0 0 0 0 0
0 0 0 0 0 0 0 0 0
0 0 0 0 0 0 0 0 0
0 0 0 0 0 0 0 0 0
0 0 0 0 0 0 0 0 0
0 0 0 0 0 0 0 0 0
0 0 0 0 0 0 0 0 0
0 0 0 0 0 0 0 0 0
0 0 0 0 0 0 0 0 0
0 0 0 0 0 0 0 0 0
0 0 0 0 0 0 0 0 0
0 0 0 0 0 0 0 0 0
0 0 0 0 0 0 0 0 0
0 0 0 0 0 0 0 0 0
0 0 0 0 0 0 0 0 0
0 0 0 0 0 0 0 0 0
0 0 0 0 0 0 0 0 0
0 0 0 0 0 0 0 0 0
0 0 0 0 0 0 0 0 0
0 0 0 0 0 0 0 0 0
0 0 0 0 0 0 0 0 0
0 0 0 0 0 0 0 0 0
0 0 0 0 0 0 0 0 0
0 0 0 0 0 0 0 0 0
0 0 0 0 0 0 0 0 0
0 0 0 0 0 0 0 0 0
0 0 0 0 0 0 0 0 0
0 0 0 0 0 0 0 0 0
0 0 0 0 0 0 0 0 0
0 0 0 0 0 0 0 0 0
0 0 0 0 0 0 0 0 0
0 0 0 0 0 0 0 0 0
0 0 0 0 0 0 0 0 0
0 0 0 0 0 0 0 0 0
0 0 0 0 0 0 0 0 0
0 0 0 0 0 0 0 0 0
0 0 0 0 0 0 0 0 0
0 0 0 0 0 0 0 0 0
0 0 0 0 0 0 0 0 0
0 0 0 0 0 0 0 0 0
0 0 0 0 0 0 0 0 0
0 0 0 0 0 0 0 0 0
0 0 0 0 0 0 0 0 0
0 0 0 0 0 0 0 0 0
0 0 0 0 0 0 0 0 0
0 0 0 0 0 0 0 0 0
0 0 0 0 0 0 0 0 0
0 0 0 0 0 0 0 0 0
0 0 0 0 0 0 0 0 0
0 0 0 0 0 0 0 0 0
0 0 0 0 0 0 0 0 0
0 0 0 0 0 0 0 0 0
0 0 0 0 0 0 0 0 0
0 0 0 0 0 0 0 0 0
0 0 0 0 0 0 0 0 0
0 0 0 0 0 0 0 0 0
0 0 0 0 0 0 0 0 0
0 0 0 0 0 0 0 0 0
0 0 0 0 0 0 0 0 0
0 0 0 0 0 0 0 0 0
0 0 0 0 0 0 0 0 0
0 0 0 0 0 0 0 0 0
0 0 0 0 0 0 0 0 0
0 0 0 0 0 0 0 0 0
0 0 0 0 0 0 0 0 0
0 0 0 0 0 0 0 0 0
0 0 0 0 0 0 0 0 0
0 0 0 0 0 0 0 0 0
0 0 0 0 0 0 0 0 0
0 0 0 0 0 0 0 0 0
0 0 0 0 0 0 0 0 0
0 0 0 0 0 0 0 0 0
0 0 0 0 0 0 0 0 0
0 0 0 0 0 0 0 0 0
0 0 0 0 0 0 0 0 0
0 0 0 0 0 0 0 0 0
0 0 0 0 0 0 0 0 0
0 0 0 0 0 0 0 0 0
0 0 0 0 0 0 0 0 0
0 0 0 0 0 0 0 0 0
0 0 0 0 0 0 0 0 0
0 0 0 0 0 0 0 0 0
0 0 0 0 0 0 0 0 0
0 0 0 0 0 0 0 0 0
0 0 0 0 0 0 0 0 0
0 0 0 0 0 0 0 0 0
0 0 0 0 0 0 0 0 0
0 0 0 0 0 0 0 0 0
0 0 0 0 0 0 0 0 0
0 0 0 0 0 0 0 0 0
0 0 0 0 0 0 0 0 0
0 0 0 0 0 0 0 0 0
0 0 0 0 0 0 0 0 0
0 0 0 0 0 0 0 0 0
0 0 0 0 0 0 0 0 0
0 0 0 0 0 0 0 0 0
0 0 0 0 0 0 0 0 0
0 0 0 0 0 0 0 0 0
0 0 0 0 0 0 0 0 0
0 0 0 0 0 0 0 0 0
0 0 0 0 0 0 0 0 0
0 0 0 0 0 0 0 0 0
0 0 0 0 0 0 0 0 0
0 0 0 0 0 0 0 0 0
0 0 0 0 0 0 0 0 0
0 0 0 0 0 0 0 0 0
0 0 0 0 0 0 0 0 0
0 0 0 0 0 0 0 0 0
0 0 0 0 0 0 0 0 0
0 0 0 0 0 0 0 0 0
0 0 0 0 0 0 0 0 0
0 0 0 0 0 0 0 0 0
0 0 0 0 0 0 0 0 0
0 0 0 0 0 0 0 0 0
0 0 0 0 0 0 0 0 0
0 0 0 0 0 0 0 0 0
0 0 0 0 0 0 0 0 0
0 0 0 0 0 0 0 0 0
0 0 0 0 0 0 0 0 0
0 0 0 0 0 0 0 0 0
0 0 0 0 0 0 0 0 0
0 0 0 0 0 0 0 0 0
0 0 0 0 0 0 0 0 0
0 0 0 0 0 0 0 0 0
0 0 0 0 0 0 0 0 0
0 0 0 0 0 0 0 0 0
0 0 0 0 0 0 0 0 0
0 0 0 0 0 0 0 0 0
0 0 0 0 0 0 0 0 0
0 0 0 0 0 0 0 0 0
0 0 0 0 0 0 0 0 0
0 0 0 0 0 0 0 0 0
0 0 0 0 0 0 0 0 0
0 0 0 0 0 0 0 0 0
0 0 0 0 0 0 0 0 0
0 0 0 0 0 0 0 0 0
0 0 0 0 0 0 0 0 0
0 0 0 0 0 0 0 0 0
0 0 0 0 0 0 0 0 0
0 0 0 0 0 0 0 0 0
0 0 0 0 0 0 0 0 0
0 0 0 0 0 0 0 0 0
0 0 0 0 0 0 0 0 0
0 0 0 0 0 0 0 0 0
0 0 0 0 0 0 0 0 0
0 0 0 0 0 0 0 0 0
0 0 0 0 0 0 0 0 0
0 0 0 0 0 0 0 0 0
0 0 0 0 0 0 0 0 0
0 0 0 0 0 0 0 0 0
0 0 0 0 0 0 0 0 0
0 0 0 0 0 0 0 0 0
0 0 0 0 0 0 0 0 0
0 0 0 0 0 0 0 0 0
0 0 0 0 0 0 0 0 0
0 0 0 0 0 0 0 0 0
0 0 0 0 0 0 0 0 0
0 0 0 0 0 0 0 0 0
0 0 0 0 0 0 0 0 0
0 0 0 0 0 0 0 0 0
0 0 0 0 0 0 0 0 0
0 0 0 0 0 0 0 0 0
0 0 0 0 0 0 0 0 0
0 0 0 0 0 0 0 0 0
0 0 0 0 0 0 0 0 0
0 0 0 0 0 0 0 0 0
0 0 0 0 0 0 0 0 0
0 0 0 0 0 0 0 0 0
0 0 0 0 0 0 0 0 0
0 0 0 0 0 0 0 0 0
0 0 0 0 0 0 0 0 0
0 0 0 0 0 0 0 0 0
0 0 0 0 0 0 0 0 0
0 0 0 0 0 0 0 0 0
0 0 0 0 0 0 0 0 0
0 0 0 0 0 0 0 0 0
0 0 0 0 0 0 0 0 0
0 0 0 0 0 0 0 0 0
0 0 0 0 0 0 0 0 0
0 0 0 0 0 0 0 0 0
0 0 0 0 0 0 0 0 0
0 0 0 0 0 0 0 0 0
0 0 0 0 0 0 0 0 0
0 0 0 0 0 0 0 0 0
0 0 0 0 0 0 0 0 0
0 0 0 0 0 0 0 0 0
0 0 0 0 0 0 0 0 0
0 0 0 0 0 0 0 0 0
0 0 0 0 0 0 0 0 0
0 0 0 0 0 0 0 0 0
0 0 0 0 0 0 0 0 0
0 0 0 0 0 0 0 0 0
0 0 0 0 0 0 0 0 0
0 0 0 0 0 0 0 0 0
0 0 0 0 0 0 0 0 0
0 0 0 0 0 0 0 0 0
0 0 0 0 0 0 0 0 0
0 0 0 0 0 0 0 0 0
0 0 0 0 0 0 0 0 0
0 0 0 0 0 0 0 0 0
0 0 0 0 0 0 0 0 0
0 0 0 0 0 0 0 0 0
0 0 0 0 0 0 0 0 0
0 0 0 0 0 0 0 0 0
0 0 0 0 0 0 0 0 0
0 0 0 0 0 0 0 0 0
0 0 0 0 0 0 0 0 0
0 0 0 0 0 0 0 0 0
0 0 0 0 0 0 0 0 0
0 0 0 0 0 0 0 0 0
0 0 0 0 0 0 0 0 0
0 0 0 0 0 0 0 0 0
0 0 0 0 0 0 0 0 0
0 0 0 0 0 0 0 0 0
0 0 0 0 0 0 0 0 0
0 0 0 0 0 0 0 0 0
0 0 0 0 0 0 0 0 0
0 0 0 0 0 0 0 0 0
0 0 0 0 0 0 0 0 0
0 0 0 0 0 0 0 0 0
0 0 0 0 0 0 0 0 0
0 0 0 0 0 0 0 0 0
0 0 0 0 0 0 0 0 0
0 0 0 0 0 0 0 0 0
0 0 0 0 0 0 0 0 0
0 0 0 0 0 0 0 0 0
0 0 0 0 0 0 0 0 0
0 0 0 0 0 0 0 0 0
0 0 0 0 0 0 0 0 0
0 0 0 0 0 0 0 0 0
0 0 0 0 0 0 0 0 0
0 0 0 0 0 0 0 0 0
0 0 0 0 0 0 0 0 0
0 0 0 0 0 0 0 0 0
0 0 0 0 0 0 0 0 0
0 0 0 0 0 0 0 0 0
0 0 0 0 0 0 0 0 0
0 0 0 0 0 0 0 0 0
0 0 0 0 0 0 0 0 0
0 0 0 0 0 0 0 0 0
0 0 0 0 0 0 0 0 0
0 0 0 0 0 0 0 0 0
0 0 0 0 0 0 0 0 0
0 0 0 0 0 0 0 0 0
0 0 0 0 0 0 0 0 0
0 0 0 0 0 0 0 0 0
0 0 0 0 0 0 0 0 0
0 0 0 0 0 0 0 0 0
0 0 0 0 0 0 0 0 0
0 0 0 0 0 0 0 0 0
0 0 0 0 0 0 0 0 0
0 0 0 0 0 0 0 0 0
0 0 0 0 0 0 0 0 0
0 0 0 0 0 0 0 0 0
0 0 0 0 0 0 0 0 0
0 0 0 0 0 0 0 0 0
0 0 0 0 0 0 0 0 0
0 0 0 0 0 0 0 0 0
0 0 0 0 0 0 0 0 0
0 0 0 0 0 0 0 0 0
0 0 0 0 0 0 0 0 0
0 0 0 0 0 0 0 0 0
0 0 0 0 0 0 0 0 0
0 0 0 0 0 0 0 0 0
0 0 0 0 0 0 0 0 0
0 0 0 0 0 0 0 0 0
0 0 0 0 0 0 0 0 0
0 0 0 0 0 0 0 0 0
0 0 0 0 0 0 0 0 0
0 0 0 0 0 0 0 0 0
0 0 0 0 0 0 0 0 0
0 0 0 0 0 0 0 0 0
0 0 0 0 0 0 0 0 0
0 0 0 0 0 0 0 0 0
0 0 0 0 0 0 0 0 0
0 0 0 0 0 0 0 0 0
0 0 0 0 0 0 0 0 0
0 0 0 0 0 0 0 0 0
0 0 0 0 0 0 0 0 0
0 0 0 0 0 0 0 0 0
0 0 0 0 0 0 0 0 0
0 0 0 0 0 0 0 0 0
0 0 0 0 0 0 0 0 0
-1.07732e-08 -1.06793e-08 0 0 -1.07732e-08 -1.06793e-08 0 0 0
-1.06214e-08 -1.04542e-08 0 0 -1.06214e-08 -1.04542e-08 0 0 0
-1.03536e-08 -1.01262e-08 0 0 -1.03536e-08 -1.01262e-08 0 0 0
0 0 0 0 0 0 0 0 0
0 0 0 0 0 0 0 0 0
0 0 0 0 0 0 0 0 0
0 0 0 0 0 0 0 0 0
0 0 0 0 0 0 0 0 0
-1.17018e-08 -1.14436e-08 -1.07204e-08 -1.04125e-08 -1.17018e-08 -1.14436e-08 -1.07204e-08 -1.04125e-08 0
-1.13089e-08 -1.10429e-08 -1.0249e-08 0 -1.13089e-08 -1.10429e-08 -1.0249e-08 0 0
-1.0889e-08 -1.05587e-08 0 0 -1.0889e-08 -1.05587e-08 0 0 0
-1.03632e-08 0 0 0 -1.03632e-08 0 0 0 0
0 0 0 0 0 0 0 0 0
0 0 0 0 0 0 0 0 0
0 0 0 0 0 0 0 0 0
0 0 0 0 0 0 0 0 0
0 0 0 0 0 0 0 0 0
0 0 0 0 0 0 0 0 0
0 0 0 0 0 0 0 0 0
0 0 0 0 0 0 0 0 0
0 0 0 0 0 0 0 0 0
0 0 0 0 0 0 0 0 0
0 0 0 0 0 0 0 0 0
0 0 0 0 0 0 0 0 0
0 0 0 0 0 0 0 0 0
0 0 0 0 0 0 0 0 0
0 0 0 0 0 0 0 0 0
0 0 0 0 0 0 0 0 0
0 0 0 0 0 0 0 0 0
0 0 0 0 0 0 0 0 0
0 0 0 0 0 0 0 0 0
0 0 0 0 0 0 0 0 0
0 0 0 0 0 0 0 0 0
0 0 0 0 0 0 0 0 0
0 0 0 0 0 0 0 0 0
0 0 0 0 0 0 0 0 0
0 0 0 0 0 0 0 0 0
0 0 0 0 0 0 0 0 0
0 0 0 0 0 0 0 0 0
0 0 0 0 0 0 0 0 0
0 0 0 0 0 0 0 0 0
0 0 0 0 0 0 0 0 0
0 0 0 0 0 0 0 0 0
0 0 0 0 0 0 0 0 0
0 0 0 0 0 0 0 0 0
0 0 0 0 0 0 0 0 0
0 0 0 0 0 0 0 0 0
0 0 0 0 0 0 0 0 0
0 0 0 0 0 0 0 0 0
0 0 0 0 0 0 0 0 0
0 0 0 0 0 0 0 0 0
0 0 0 0 0 0 0 0 0
0 0 0 0 0 0 0 0 0
0 0 0 0 0 0 0 0 0
0 0 0 0 0 0 0 0 0
0 0 0 0 0 0 0 0 0
0 0 0 0 0 0 0 0 0
0 0 0 0 0 0 0 0 0
0 0 0 0 0 0 0 0 0
0 0 0 0 0 0 0 0 0
0 0 0 0 0 0 0 0 0
0 0 0 0 0 0 0 0 0
0 0 0 0 0 0 0 0 0
0 0 0 0 0 0 0 0 0
0 0 0 0 0 0 0 0 0
0 0 0 0 0 0 0 0 0
0 0 0 0 0 0 0 0 0
0 0 0 0 0 0 0 0 0
0 0 0 0 0 0 0 0 0
0 0 0 0 0 0 0 0 0
0 0 0 0 0 0 0 0 0
0 0 0 0 0 0 0 0 0
0 0 0 0 0 0 0 0 0
0 0 0 0 0 0 0 0 0
0 0 0 0 0 0 0 0 0
0 0 0 0 0 0 0 0 0
0 0 0 0 0 0 0 0 0
0 0 0 0 0 0 0 0 0
0 0 0 0 0 0 0 0 0
0 0 0 0 0 0 0 0 0
0 0 0 0 0 0 0 0 0
0 0 0 0 0 0 0 0 0
0 0 0 0 0 0 0 0 0
0 0 0 0 0 0 0 0 0
0 0 0 0 0 0 0 0 0
0 0 0 0 0 0 0 0 0
0 0 0 0 0 0 0 0 0
0 0 0 0 0 0 0 0 0
0 0 0 0 0 0 0 0 0
0 0 0 0 0 0 0 0 0
0 0 0 0 0 0 0 0 0
0 0 0 0 0 0 0 0 0
0 0 0 0 0 0 0 0 0
0 0 0 0 0 0 0 0 0
0 0 0 0 0 0 0 0 0
0 0 0 0 0 0 0 0 0
0 0 0 0 0 0 0 0 0
0 0 0 0 0 0 0 0 0
0 0 0 0 0 0 0 0 0
0 0 0 0 0 0 0 0 0
0 0 0 0 0 0 0 0 0
0 0 0 0 0 0 0 0 0
0 0 0 0 0 0 0 0 0
0 0 0 0 0 0 0 0 0
0 0 0 0 0 0 0 0 0
0 0 0 0 0 0 0 0 0
0 0 0 0 0 0 0 0 0
0 0 0 0 0 0 0 0 0
0 0 0 0 0 0 0 0 0
0 0 0 0 0 0 0 0 0
0 0 0 0 0 0 0 0 0
0 0 0 0 0 0 0 0 0
0 0 0 0 0 0 0 0 0
0 0 0 0 0 0 0 0 0
0 0 0 0 0 0 0 0 0
0 0 0 0 0 0 0 0 0
0 0 0 0 0 0 0 0 0
0 0 0 0 0 0 0 0 0
0 0 0 0 0 0 0 0 0
0 0 0 0 0 0 0 0 0
0 0 0 0 0 0 0 0 0
0 0 0 0 0 0 0 0 0
0 0 0 0 0 0 0 0 0
0 0 0 0 0 0 0 0 0
0 0 0 0 0 0 0 0 0
0 0 0 0 0 0 0 0 0
0 0 0 0 0 0 0 0 0
0 0 0 0 0 0 0 0 0
0 0 0 0 0 0 0 0 0
0 0 0 0 0 0 0 0 0
0 0 0 0 0 0 0 0 0
0 0 0 0 0 0 0 0 0
0 0 0 0 0 0 0 0 0
0 0 0 0 0 0 0 0 0
0 0 0 0 0 0 0 0 0
0 0 0 0 0 0 0 0 0
0 0 0 0 0 0 0 0 0
0 0 0 0 0 0 0 0 0
0 0 0 0 0 0 0 0 0
0 0 0 0 0 0 0 0 0
0 0 0 0 0 0 0 0 0
0 0 0 0 0 0 0 0 0
0 0 0 0 0 0 0 0 0
0 0 0 0 0 0 0 0 0
0 0 0 0 0 0 0 0 0
0 0 0 0 0 0 0 0 0
0 0 0 0 0 0 0 0 0
0 0 0 0 0 0 0 0 0
0 0 0 0 0 0 0 0 0
0 0 0 0 0 0 0 0 0
0 0 0 0 0 0 0 0 0
0 0 0 0 0 0 0 0 0
0 0 0 0 0 0 0 0 0
0 0 0 0 0 0 0 0 0
0 0 0 0 0 0 0 0 0
0 0 0 0 0 0 0 0 0
0 0 0 0 0 0 0 0 0
0 0 0 0 0 0 0 0 0
0 0 0 0 0 0 0 0 0
0 0 0 0 0 0 0 0 0
0 0 0 0 0 0 0 0 0
0 0 0 0 0 0 0 0 0
0 0 0 0 0 0 0 0 0
0 0 0 0 0 0 0 0 0
0 0 0 0 0 0 0 0 0
0 0 0 0 0 0 0 0 0
0 0 0 0 0 0 0 0 0
0 0 0 0 0 0 0 0 0
0 0 0 0 0 0 0 0 0
0 0 0 0 0 0 0 0 0
0 0 0 0 0 0 0 0 0
0 0 0 0 0 0 0 0 0
0 0 0 0 0 0 0 0 0
0 0 0 0 0 0 0 0 0
0 0 0 0 0 0 0 0 0
0 0 0 0 0 0 0 0 0
0 0 0 0 0 0 0 0 0
0 0 0 0 0 0 0 0 0
0 0 0 0 0 0 0 0 0
0 0 0 0 0 0 0 0 0
0 0 0 0 0 0 0 0 0
0 0 0 0 0 0 0 0 0
0 0 0 0 0 0 0 0 0
0 0 0 0 0 0 0 0 0
0 0 0 0 0 0 0 0 0
0 0 0 0 0 0 0 0 0
0 0 0 0 0 0 0 0 0
0 0 0 0 0 0 0 0 0
0 0 0 0 0 0 0 0 0
0 0 0 0 0 0 0 0 0
0 0 0 0 0 0 0 0 0
0 0 0 0 0 0 0 0 0
0 0 0 0 0 0 0 0 0
0 0 0 0 0 0 0 0 0
0 0 0 0 0 0 0 0 0
0 0 0 0 0 0 0 0 0
0 0 0 0 0 0 0 0 0
0 0 0 0 0 0 0 0 0
0 0 0 0 0 0 0 0 0
0 0 0 0 0 0 0 0 0
0 0 0 0 0 0 0 0 0
0 0 0 0 0 0 0 0 0
0 0 0 0 0 0 0 0 0
0 0 0 0 0 0 0 0 0
0 0 0 0 0 0 0 0 0
0 0 0 0 0 0 0 0 0
0 0 0 0 0 0 0 0 0
0 0 0 0 0 0 0 0 0
0 0 0 0 0 0 0 0 0
0 0 0 0 0 0 0 0 0
0 0 0 0 0 0 0 0 0
0 0 0 0 0 0 0 0 0
0 0 0 0 0 0 0 0 0
0 0 0 0 0 0 0 0 0
0 0 0 0 0 0 0 0 0
0 0 0 0 0 0 0 0 0
0 0 0 0 0 0 0 0 0
0 0 0 0 0 0 0 0 0
0 0 0 0 0 0 0 0 0
0 0 0 0 0 0 0 0 0
0 0 0 0 0 0 0 0 0
0 0 0 0 0 0 0 0 0
0 0 0 0 0 0 0 0 0
0 0 0 0 0 0 0 0 0
0 0 0 0 0 0 0 0 0
0 0 0 0 0 0 0 0 0
0 0 0 0 0 0 0 0 0
0 0 0 0 0 0 0 0 0
0 0 0 0 0 0 0 0 0
0 0 0 0 0 0 0 0 0
0 0 0 0 0 0 0 0 0
0 0 0 0 0 0 0 0 0
0 0 0 0 0 0 0 0 0
0 0 0 0 0 0 0 0 0
0 0 0 0 0 0 0 0 0
0 0 0 0 0 0 0 0 0
0 0 0 0 0 0 0 0 0
0 0 0 0 0 0 0 0 0
0 0 0 0 0 0 0 0 0
0 0 0 0 0 0 0 0 0
0 0 0 0 0 0 0 0 0
0 0 0 0 0 0 0 0 0
0 0 0 0 0 0 0 0 0
0 0 0 0 0 0 0 0 0
0 0 0 0 0 0 0 0 0
0 0 0 0 0 0 0 0 0
0 0 0 0 0 0 0 0 0
0 0 0 0 0 0 0 0 0
0 0 0 0 0 0 0 0 0
0 0 0 0 0 0 0 0 0
0 0 0 0 0 0 0 0 0
0 0 0 0 0 0 0 0 0
0 0 0 0 0 0 0 0 0
0 0 0 0 0 0 0 0 0
0 0 0 0 0 0 0 0 0
0 0 0 0 0 0 0 0 0
0 0 0 0 0 0 0 0 0
0 0 0 0 0 0 0 0 0
0 0 0 0 0 0 0 0 0
0 0 0 0 0 0 0 0 0
0 0 0 0 0 0 0 0 0
0 0 0 0 0 0 0 0 0
0 0 0 0 0 0 0 0 0
0 0 0 0 0 0 0 0 0
0 0 0 0 0 0 0 0 0
0 0 0 0 0 0 0 0 0
0 0 0 0 0 0 0 0 0
0 0 0 0 0 0 0 0 0
0 0 0 0 0 0 0 0 0
0 0 0 0 0 0 0 0 0
0 0 0 0 0 0 0 0 0
0 0 0 0 0 0 0 0 0
0 0 0 0 0 0 0 0 0
0 0 0 0 0 0 0 0 0
0 0 0 0 0 0 0 0 0
0 0 0 0 0 0 0 0 0
0 0 0 0 0 0 0 0 0
0 0 0 0 0 0 0 0 0
0 0 0 0 0 0 0 0 0
0 0 0 0 0 0 0 0 0
0 0 0 0 0 0 0 0 0
0 0 0 0 0 0 0 0 0
0 0 0 0 0 0 0 0 0
0 0 0 0 0 0 0 0 0
0 0 0 0 0 0 0 0 0
0 0 0 0 0 0 0 0 0
0 0 0 0 0 0 0 0 0
0 0 0 0 0 0 0 0 0
0 0 0 0 0 0 0 0 0
0 0 0 0 0 0 0 0 0
0 0 0 0 0 0 0 0 0
0 0 0 0 0 0 0 0 0
0 0 0 0 0 0 0 0 0
0 0 0 0 0 0 0 0 0
0 0 0 0 0 0 0 0 0
0 0 0 0 0 0 0 0 0
0 0 0 0 0 0 0 0 0
0 0 0 0 0 0 0 0 0
0 0 0 0 0 0 0 0 0
0 0 0 0 0 0 0 0 0
0 0 0 0 0 0 0 0 0
0 0 0 0 0 0 0 0 0
0 0 0 0 0 0 0 0 0
0 0 0 0 0 0 0 0 0
0 0 0 0 0 0 0 0 0
0 0 0 0 0 0 0 0 0
0 0 0 0 0 0 0 0 0
0 0 0 0 0 0 0 0 0
0 0 0 0 0 0 0 0 0
0 0 0 0 0 0 0 0 0
0 0 0 0 0 0 0 0 0
0 0 0 0 0 0 0 0 0
0 0 0 0 0 0 0 0 0
0 0 0 0 0 0 0 0 0
0 0 0 0 0 0 0 0 0
0 0 0 0 0 0 0 0 0
0 0 0 0 0 0 0 0 0
0 0 0 0 0 0 0 0 0
0 0 0 0 0 0 0 0 0
0 0 0 0 0 0 0 0 0
0 0 0 0 0 0 0 0 0
0 0 0 0 0 0 0 0 0
0 0 0 0 0 0 0 0 0
0 0 0 0 0 0 0 0 0
0 0 0 0 0 0 0 0 0
0 0 0 0 0 0 0 0 0
0 0 0 0 0 0 0 0 0
0 0 0 0 0 0 0 0 0
0 0 0 0 0 0 0 0 0
0 0 0 0 0 0 0 0 0
0 0 0 0 0 0 0 0 0
0 0 0 0 0 0 0 0 0
0 0 0 0 0 0 0 0 0
0 0 0 0 0 0 0 0 0
0 0 0 0 0 0 0 0 0
0 0 0 0 0 0 0 0 0
0 0 0 0 0 0 0 0 0
0 0 0 0 0 0 0 0 0
0 0 0 0 0 0 0 0 0
0 0 0 0 0 0 0 0 0
0 0 0 0 0 0 0 0 0
0 0 0 0 0 0 0 0 0
0 0 0 0 0 0 0 0 0
0 0 0 0 0 0 0 0 0
0 0 0 0 0 0 0 0 0
0 0 0 0 0 0 0 0 0
0 0 0 0 0 0 0 0 0
0 0 0 0 0 0 0 0 0
0 0 0 0 0 0 0 0 0
0 0 0 0 0 0 0 0 0
0 0 0 0 0 0 0 0 0
0 0 0 0 0 0 0 0 0
0 0 0 0 0 0 0 0 0
0 0 0 0 0 0 0 0 0
0 0 0 0 0 0 0 0 0
0 0 0 0 0 0 0 0 0
0 0 0 0 0 0 0 0 0
0 0 0 0 0 0 0 0 0
0 0 0 0 0 0 0 0 0
0 0 0 0 0 0 0 0 0
0 0 0 0 0 0 0 0 0
0 0 0 0 0 0 0 0 0
0 0 0 0 0 0 0 0 0
0 0 0 0 0 0 0 0 0
0 0 0 0 0 0 0 0 0
0 0 0 0 0 0 0 0 0
0 0 0 0 0 0 0 0 0
0 0 0 0 0 0 0 0 0
0 0 0 0 0 0 0 0 0
0 0 0 0 0 0 0 0 0
0 0 0 0 0 0 0 0 0
0 0 0 0 0 0 0 0 0
0 0 0 0 0 0 0 0 0
0 0 0 0 0 0 0 0 0
0 0 0 0 0 0 0 0 0
0 0 0 0 0 0 0 0 0
0 0 0 0 0 0 0 0 0
0 0 0 0 0 0 0 0 0
0 0 0 0 0 0 0 0 0
0 0 0 0 0 0 0 0 0
0 0 0 0 0 0 0 0 0
0 0 0 0 0 0 0 0 0
0 0 0 0 0 0 0 0 0
0 0 0 0 0 0 0 0 0
0 0 0 0 0 0 0 0 0
0 0 0 0 0 0 0 0 0
0 0 0 0 0 0 0 0 0
0 0 0 0 0 0 0 0 0
0 0 0 0 0 0 0 0 0
0 0 0 0 0 0 0 0 0
0 0 0 0 0 0 0 0 0
0 0 0 0 0 0 0 0 0
0 0 0 0 0 0 0 0 0
0 0 0 0 0 0 0 0 0
0 0 0 0 0 0 0 0 0
0 0 0 0 0 0 0 0 0
0 0 0 0 0 0 0 0 0
0 0 0 0 0 0 0 0 0
0 0 0 0 0 0 0 0 0
0 0 0 0 0 0 0 0 0
0 0 0 0 0 0 0 0 0
0 0 0 0 0 0 0 0 0
0 0 0 0 0 0 0 0 0
0 0 0 0 0 0 0 0 0
0 0 0 0 0 0 0 0 0
0 0 0 0 0 0 0 0 0
0 0 0 0 0 0 0 0 0
0 0 0 0 0 0 0 0 0
0 0 0 0 0 0 0 0 0
0 0 0 0 0 0 0 0 0
0 0 0 0 0 0 0 0 0
0 0 0 0 0 0 0 0 0
0 0 0 0 0 0 0 0 0
0 0 0 0 0 0 0 0 0
0 0 0 0 0 0 0 0 0
0 0 0 0 0 0 0 0 0
0 0 0 0 0 0 0 0 0
0 0 0 0 0 0 0 0 0
0 0 0 0 0 0 0 0 0
0 0 0 0 0 0 0 0 0
0 0 0 0 0 0 0 0 0
0 0 0 0 0 0 0 0 0
0 0 0 0 0 0 0 0 0
0 0 0 0 0 0 0 0 0
0 0 0 0 0 0 0 0 0
0 0 0 0 0 0 0 0 0
0 0 0 0 0 0 0 0 0
0 0 0 0 0 0 0 0 0
0 0 0 0 0 0 0 0 0
0 0 0 0 0 0 0 0 0
0 0 0 0 0 0 0 0 0
0 0 0 0 0 0 0 0 0
0 0 0 0 0 0 0 0 0
0 0 0 0 0 0 0 0 0
0 0 0 0 0 0 0 0 0
0 0 0 0 0 0 0 0 0
0 0 0 0 0 0 0 0 0
0 0 0 0 0 0 0 0 0
0 0 0 0 0 0 0 0 0
0 0 0 0 0 0 0 0 0
0 0 0 0 0 0 0 0 0
0 0 0 0 0 0 0 0 0
0 0 0 0 0 0 0 0 0
0 0 0 0 0 0 0 0 0
0 0 0 0 0 0 0 0 0
0 0 0 0 0 0 0 0 0
0 0 0 0 0 0 0 0 0
0 0 0 0 0 0 0 0 0
0 0 0 0 0 0 0 0 0
0 0 0 0 0 0 0 0 0
0 0 0 0 0 0 0 0 0
0 0 0 0 0 0 0 0 0
0 0 0 0 0 0 0 0 0
0 0 0 0 0 0 0 0 0
0 0 0 0 0 0 0 0 0
0 0 0 0 0 0 0 0 0
0 0 0 0 0 0 0 0 0
0 0 0 0 0 0 0 0 0
0 0 0 0 0 0 0 0 0
0 0 0 0 0 0 0 0 0
0 0 0 0 0 0 0 0 0
0 0 0 0 0 0 0 0 0
0 0 0 0 0 0 0 0 0
0 0 0 0 0 0 0 0 0
0 0 0 0 0 0 0 0 0
0 0 0 0 0 0 0 0 0
0 0 0 0 0 0 0 0 0
0 0 0 0 0 0 0 0 0
0 0 0 0 0 0 0 0 0
0 0 0 0 0 0 0 0 0
0 0 0 0 0 0 0 0 0
0 0 0 0 0 0 0 0 0
0 0 0 0 0 0 0 0 0
0 0 0 0 0 0 0 0 0
0 0 0 0 0 0 0 0 0
0 0 0 0 0 0 0 0 0
0 0 0 0 0 0 0 0 0
0 0 0 0 0 0 0 0 0
0 0 0 0 0 0 0 0 0
0 0 0 0 0 0 0 0 0
0 0 0 0 0 0 0 0 0
0 0 0 0 0 0 0 0 0
0 0 0 0 0 0 0 0 0
0 0 0 0 0 0 0 0 0
0 0 0 0 0 0 0 0 0
0 0 0 0 0 0 0 0 0
0 0 0 0 0 0 0 0 0
0 0 0 0 0 0 0 0 0
0 0 0 0 0 0 0 0 0
0 0 0 0 0 0 0 0 0
0 0 0 0 0 0 0 0 0
0 0 0 0 0 0 0 0 0
0 0 0 0 0 0 0 0 0
0 0 0 0 0 0 0 0 0
0 0 0 0 0 0 0 0 0
0 0 0 0 0 0 0 0 0
0 0 0 0 0 0 0 0 0
0 0 0 0 0 0 0 0 0
0 0 0 0 0 0 0 0 0
0 0 0 0 0 0 0 0 0
0 0 0 0 0 0 0 0 0
0 0 0 0 0 0 0 0 0
0 0 0 0 0 0 0 0 0
0 0 0 0 0 0 0 0 0
0 0 0 0 0 0 0 0 0
0 0 0 0 0 0 0 0 0
0 0 0 0 0 0 0 0 0
0 0 0 0 0 0 0 0 0
0 0 0 0 0 0 0 0 0
0 0 0 0 0 0 0 0 0
0 0 0 0 0 0 0 0 0
0 0 0 0 0 0 0 0 0
0 0 0 0 0 0 0 0 0
0 0 0 0 0 0 0 0 0
0 0 0 0 0 0 0 0 0
0 0 0 0 0 0 0 0 0
0 0 0 0 0 0 0 0 0
0 0 0 0 0 0 0 0 0
0 0 0 0 0 0 0 0 0
0 0 0 0 0 0 0 0 0
0 0 0 0 0 0 0 0 0
0 0 0 0 0 0 0 0 0
0 0 0 0 0 0 0 0 0
0 0 0 0 0 0 0 0 0
0 0 0 0 0 0 0 0 0
0 0 0 0 0 0 0 0 0
0 0 0 0 0 0 0 0 0
0 0 0 0 0 0 0 0 0
0 0 0 0 0 0 0 0 0
0 0 0 0 0 0 0 0 0
0 0 0 0 0 0 0 0 0
0 0 0 0 0 0 0 0 0
0 0 0 0 0 0 0 0 0
0 0 0 0 0 0 0 0 0
0 0 0 0 0 0 0 0 0
0 0 0 0 0 0 0 0 0
0 0 0 0 0 0 0 0 0
0 0 0 0 0 0 0 0 0
0 0 0 0 0 0 0 0 0
0 0 0 0 0 0 0 0 0
0 0 0 0 0 0 0 0 0
0 0 0 0 0 0 0 0 0
0 0 0 0 0 0 0 0 0
0 0 0 0 0 0 0 0 0
0 0 0 0 0 0 0 0 0
0 0 0 0 0 0 0 0 0
0 0 0 0 0 0 0 0 0
0 0 0 0 0 0 0 0 0
0 0 0 0 0 0 0 0 0
0 0 0 0 0 0 0 0 0
0 0 0 0 0 0 0 0 0
0 0 0 0 0 0 0 0 0
0 0 0 0 0 0 0 0 0
0 0 0 0 0 0 0 0 0
0 0 0 0 0 0 0 0 0
0 0 0 0 0 0 0 0 0
0 0 0 0 0 0 0 0 0
0 0 0 0 0 0 0 0 0
0 0 0 0 0 0 0 0 0
0 0 0 0 0 0 0 0 0
0 0 0 0 0 0 0 0 0
0 0 0 0 0 0 0 0 0
0 0 0 0 0 0 0 0 0
0 0 0 0 0 0 0 0 0
0 0 0 0 0 0 0 0 0
0 0 0 0 0 0 0 0 0
0 0 0 0 0 0 0 0 0
0 0 0 0 0 0 0 0 0
0 0 0 0 0 0 0 0 0
0 0 0 0 0 0 0 0 0
0 0 0 0 0 0 0 0 0
0 0 0 0 0 0 0 0 0
0 0 0 0 0 0 0 0 0
0 0 0 0 0 0 0 0 0
0 0 0 0 0 0 0 0 0
0 0 0 0 0 0 0 0 0
0 0 0 0 0 0 0 0 0
0 0 0 0 0 0 0 0 0
0 0 0 0 0 0 0 0 0
0 0 0 0 0 0 0 0 0
0 0 0 0 0 0 0 0 0
0 0 0 0 0 0 0 0 0
0 0 0 0 0 0 0 0 0
0 0 0 0 0 0 0 0 0
0 0 0 0 0 0 0 0 0
0 0 0 0 0 0 0 0 0
0 0 0 0 0 0 0 0 0
0 0 0 0 0 0 0 0 0
0 0 0 0 0 0 0 0 0
0 0 0 0 0 0 0 0 0
0 0 0 0 0 0 0 0 0
0 0 0 0 0 0 0 0 0
0 0 0 0 0 0 0 0 0
0 0 0 0 0 0 0 0 0
0 0 0 0 0 0 0 0 0
0 0 0 0 0 0 0 0 0
0 0 0 0 0 0 0 0 0
0 0 0 0 0 0 0 0 0
0 0 0 0 0 0 0 0 0
0 0 0 0 0 0 0 0 0
0 0 0 0 0 0 0 0 0
0 0 0 0 0 0 0 0 0
0 0 0 0 0 0 0 0 0
0 0 0 0 0 0 0 0 0
0 0 0 0 0 0 0 0 0
0 0 0 0 0 0 0 0 0
0 0 0 0 0 0 0 0 0
0 0 0 0 0 0 0 0 0
0 0 0 0 0 0 0 0 0
0 0 0 0 0 0 0 0 0
0 0 0 0 0 0 0 0 0
0 0 0 0 0 0 0 0 0
0 0 0 0 0 0 0 0 0
0 0 0 0 0 0 0 0 0
0 0 0 0 0 0 0 0 0
0 0 0 0 0 0 0 0 0
0 0 0 0 0 0 0 0 0
0 0 0 0 0 0 0 0 0
0 0 0 0 0 0 0 0 0
0 0 0 0 0 0 0 0 0
0 0 0 0 0 0 0 0 0
0 0 0 0 0 0 0 0 0
0 0 0 0 0 0 0 0 0
0 0 0 0 0 0 0 0 0
0 0 0 0 0 0 0 0 0
0 0 0 0 0 0 0 0 0
0 0 0 0 0 0 0 0 0
0 0 0 0 0 0 0 0 0
0 0 0 0 0 0 0 0 0
0 0 0 0 0 0 0 0 0
0 0 0 0 0 0 0 0 0
0 0 0 0 0 0 0 0 0
0 0 0 0 0 0 0 0 0
0 0 0 0 0 0 0 0 0
0 0 0 0 0 0 0 0 0
0 0 0 0 0 0 0 0 0
0 0 0 0 0 0 0 0 0
0 0 0 0 0 0 0 0 0
0 0 0 0 0 0 0 0 0
0 0 0 0 0 0 0 0 0
0 0 0 0 0 0 0 0 0
0 0 0 0 0 0 0 0 0
0 0 0 0 0 0 0 0 0
0 0 0 0 0 0 0 0 0
0 0 0 0 0 0 0 0 0
0 0 0 0 0 0 0 0 0
0 0 0 0 0 0 0 0 0
0 0 0 0 0 0 0 0 0
0 0 0 0 0 0 0 0 0
0 0 0 0 0 0 0 0 0
0 0 0 0 0 0 0 0 0
0 0 0 0 0 0 0 0 0
0 0 0 0 0 0 0 0 0
0 0 0 0 0 0 0 0 0
0 0 0 0 0 0 0 0 0
0 0 0 0 0 0 0 0 0
0 0 0 0 0 0 0 0 0
0 0 0 0 0 0 0 0 0
0 0 0 0 0 0 0 0 0
0 0 0 0 0 0 0 0 0
0 0 0 0 0 0 0 0 0
0 0 0 0 0 0 0 0 0
0 0 0 0 0 0 0 0 0
0 0 0 0 0 0 0 0 0
0 0 0 0 0 0 0 0 0
0 0 0 0 0 0 0 0 0
0 0 0 0 0 0 0 0 0
0 0 0 0 0 0 0 0 0
0 0 0 0 0 0 0 0 0
0 0 0 0 0 0 0 0 0
0 0 0 0 0 0 0 0 0
0 0 0 0 0 0 0 0 0
0 0 0 0 0 0 0 0 0
0 0 0 0 0 0 0 0 0
0 0 0 0 0 0 0 0 0
0 0 0 0 0 0 0 0 0
0 0 0 0 0 0 0 0 0
0 0 0 0 0 0 0 0 0
0 0 0 0 0 0 0 0 0
0 0 0 0 0 0 0 0 0
0 0 0 0 0 0 0 0 0
0 0 0 0 0 0 0 0 0
0 0 0 0 0 0 0 0 0
0 0 0 0 0 0 0 0 0
0 0 0 0 0 0 0 0 0
0 0 0 0 0 0 0 0 0
0 0 0 0 0 0 0 0 0
0 0 0 0 0 0 0 0 0
0 0 0 0 0 0 0 0 0
0 0 0 0 0 0 0 0 0
0 0 0 0 0 0 0 0 0
0 0 0 0 0 0 0 0 0
0 0 0 0 0 0 0 0 0
0 0 0 0 0 0 0 0 0
0 0 0 0 0 0 0 0 0
0 0 0 0 0 0 0 0 0
0 0 0 0 0 0 0 0 0
0 0 0 0 0 0 0 0 0
0 0 0 0 0 0 0 0 0
0 0 0 0 0 0 0 0 0
0 0 0 0 0 0 0 0 0
0 0 0 0 0 0 0 0 0
0 0 0 0 0 0 0 0 0
0 0 0 0 0 0 0 0 0
0 0 0 0 0 0 0 0 0
0 0 0 0 0 0 0 0 0
0 0 0 0 0 0 0 0 0
0 0 0 0 0 0 0 0 0
0 0 0 0 0 0 0 0 0
0 0 0 0 0 0 0 0 0
0 0 0 0 0 0 0 0 0
0 0 0 0 0 0 0 0 0
0 0 0 0 0 0 0 0 0
0 0 0 0 0 0 0 0 0
0 0 0 0 0 0 0 0 0
0 0 0 0 0 0 0 0 0
0 0 0 0 0 0 0 0 0
0 0 0 0 0 0 0 0 0
0 0 0 0 0 0 0 0 0
0 0 0 0 0 0 0 0 0
0 0 0 0 0 0 0 0 0
0 0 0 0 0 0 0 0 0
0 0 0 0 0 0 0 0 0
0 0 0 0 0 0 0 0 0
0 0 0 0 0 0 0 0 0
0 0 0 0 0 0 0 0 0
0 0 0 0 0 0 0 0 0
0 0 0 0 0 0 0 0 0
0 0 0 0 0 0 0 0 0
0 0 0 0 0 0 0 0 0
0 0 0 0 0 0 0 0 0
0 0 0 0 0 0 0 0 0
0 0 0 0 0 0 0 0 0
0 0 0 0 0 0 0 0 0
0 0 0 0 0 0 0 0 0
0 0 0 0 0 0 0 0 0
0 0 0 0 0 0 0 0 0
0 0 0 0 0 0 0 0 0
0 0 0 0 0 0 0 0 0
0 0 0 0 0 0 0 0 0
0 0 0 0 0 0 0 0 0
0 0 0 0 0 0 0 0 0
0 0 0 0 0 0 0 0 0
0 0 0 0 0 0 0 0 0
0 0 0 0 0 0 0 0 0
0 0 0 0 0 0 0 0 0
0 0 0 0 0 0 0 0 0
0 0 0 0 0 0 0 0 0
0 0 0 0 0 0 0 0 0
0 0 0 0 0 0 0 0 0
0 0 0 0 0 0 0 0 0
0 0 0 0 0 0 0 0 0
0 0 0 0 0 0 0 0 0
0 0 0 0 0 0 0 0 0
0 0 0 0 0 0 0 0 0
0 0 0 0 0 0 0 0 0
0 0 0 0 0 0 0 0 0
0 0 0 0 0 0 0 0 0
0 0 0 0 0 0 0 0 0
0 0 0 0 0 0 0 0 0
0 0 0 0 0 0 0 0 0
0 0 0 0 0 0 0 0 0
0 0 0 0 0 0 0 0 0
0 0 0 0 0 0 0 0 0
0 0 0 0 0 0 0 0 0
0 0 0 0 0 0 0 0 0
0 0 0 0 0 0 0 0 0
0 0 0 0 0 0 0 0 0
0 0 0 0 0 0 0 0 0
0 0 0 0 0 0 0 0 0
0 0 0 0 0 0 0 0 0
0 0 0 0 0 0 0 0 0
0 0 0 0 0 0 0 0 0
0 0 0 0 0 0 0 0 0
0 0 0 0 0 0 0 0 0
0 0 0 0 0 0 0 0 0
0 0 0 0 0 0 0 0 0
0 0 0 0 0 0 0 0 0
0 0 0 0 0 0 0 0 0
0 0 0 0 0 0 0 0 0
0 0 0 0 0 0 0 0 0
0 0 0 0 0 0 0 0 0
0 0 0 0 0 0 0 0 0
0 0 0 0 0 0 0 0 0
0 0 0 0 0 0 0 0 0
0 0 0 0 0 0 0 0 0
0 0 0 0 0 0 0 0 0
0 0 0 0 0 0 0 0 0
-1.01379e-08 -1.01412e-08 0 0 -1.01379e-08 -1.01412e-08 0 0 0
-1.01798e-08 -1.01967e-08 0 0 -1.01798e-08 -1.01967e-08 0 0 0
-1.02313e-08 -1.02135e-08 0 0 -1.02313e-08 -1.02135e-08 0 0 0
-1.0222e-08 -1.0157e-08 0 0 -1.0222e-08 -1.0157e-08 0 0 0
-1.0119e-08 0 0 0 -1.0119e-08 0 0 0 0
0 0 0 0 0 0 0 0 0
0 0 0 0 0 0 0 0 0
0 0 0 0 0 0 0 0 0
0 0 0 0 0 0 0 0 0
0 0 0 0 0 0 0 0 0
0 0 0 0 0 0 0 0 0
0 0 0 0 0 0 0 0 0
0 0 0 0 0 0 0 0 0
0 0 0 0 0 0 0 0 0
0 0 0 0 0 0 0 0 0
0 0 0 0 0 0 0 0 0
0 0 0 0 0 0 0 0 0
0 0 0 0 0 0 0 0 0
0 0 0 0 0 0 0 0 0
0 0 0 0 0 0 0 0 0
0 0 0 0 0 0 0 0 0
0 0 0 0 0 0 0 0 0
0 0 0 0 0 0 0 0 0
0 0 0 0 0 0 0 0 0
0 0 0 0 0 0 0 0 0
0 0 0 0 0 0 0 0 0
0 0 0 0 0 0 0 0 0
0 0 0 0 0 0 0 0 0
0 0 0 0 0 0 0 0 0
0 0 0 0 0 0 0 0 0
0 0 0 0 0 0 0 0 0
0 0 0 0 0 0 0 0 0
0 0 0 0 0 0 0 0 0
0 0 0 0 0 0 0 0 0
0 0 0 0 0 0 0 0 0
0 0 0 0 0 0 0 0 0
0 0 0 0 0 0 0 0 0
0 0 0 0 0 0 0 0 0
0 0 0 0 0 0 0 0 0
0 0 0 0 0 0 0 0 0
0 0 0 0 0 0 0 0 0
0 0 0 0 0 0 0 0 0
0 0 0 0 0 0 0 0 0
0 0 0 0 0 0 0 0 0
0 0 0 0 0 0 0 0 0
0 0 0 0 0 0 0 0 0
0 0 0 0 0 0 0 0 0
0 0 0 0 0 0 0 0 0
0 0 0 0 0 0 0 0 0
0 0 0 0 0 0 0 0 0
0 0 0 0 0 0 0 0 0
0 0 0 0 0 0 0 0 0
0 0 0 0 0 0 0 0 0
0 0 0 0 0 0 0 0 0
0 0 0 0 0 0 0 0 0
0 0 0 0 0 0 0 0 0
0 0 0 0 0 0 0 0 0
0 0 0 0 0 0 0 0 0
0 0 0 0 0 0 0 0 0
0 0 0 0 0 0 0 0 0
0 0 0 0 0 0 0 0 0
0 0 0 0 0 0 0 0 0
0 0 0 0 0 0 0 0 0
0 0 0 0 0 0 0 0 0
0 0 0 0 0 0 0 0 0
0 0 0 0 0 0 0 0 0
0 0 0 0 0 0 0 0 0
0 0 0 0 0 0 0 0 0
0 0 0 0 0 0 0 0 0
0 0 0 0 0 0 0 0 0
0 0 0 0 0 0 0 0 0
0 0 0 0 0 0 0 0 0
0 0 0 0 0 0 0 0 0
0 0 0 0 0 0 0 0 0
0 0 0 0 0 0 0 0 0
0 0 0 0 0 0 0 0 0
0 0 0 0 0 0 0 0 0
0 0 0 0 0 0 0 0 0
0 0 0 0 0 0 0 0 0
0 0 0 0 0 0 0 0 0
0 0 0 0 0 0 0 0 0
0 0 0 0 0 0 0 0 0
0 0 0 0 0 0 0 0 0
0 0 0 0 0 0 0 0 0
0 0 0 0 0 0 0 0 0
0 0 0 0 0 0 0 0 0
0 0 0 0 0 0 0 0 0
0 0 0 0 0 0 0 0 0
0 0 0 0 0 0 0 0 0
0 0 0 0 0 0 0 0 0
0 0 0 0 0 0 0 0 0
0 0 0 0 0 0 0 0 0
0 0 0 0 0 0 0 0 0
0 0 0 0 0 0 0 0 0
0 0 0 0 0 0 0 0 0
0 0 0 0 0 0 0 0 0
0 0 0 0 0 0 0 0 0
0 0 0 0 0 0 0 0 0
0 0 0 0 0 0 0 0 0
0 0 0 0 0 0 0 0 0
0 0 0 0 0 0 0 0 0
0 0 0 0 0 0 0 0 0
0 0 0 0 0 0 0 0 0
0 0 0 0 0 0 0 0 0
0 0 0 0 0 0 0 0 0
0 0 0 0 0 0 0 0 0
0 0 0 0 0 0 0 0 0
0 0 0 0 0 0 0 0 0
0 0 0 0 0 0 0 0 0
0 0 0 0 0 0 0 0 0
0 0 0 0 0 0 0 0 0
0 0 0 0 0 0 0 0 0
0 0 0 0 0 0 0 0 0
0 0 0 0 0 0 0 0 0
0 0 0 0 0 0 0 0 0
0 0 0 0 0 0 0 0 0
0 0 0 0 0 0 0 0 0
0 0 0 0 0 0 0 0 0
0 0 0 0 0 0 0 0 0
0 0 0 0 0 0 0 0 0
0 0 0 0 0 0 0 0 0
0 0 0 0 0 0 0 0 0
0 0 0 0 0 0 0 0 0
0 0 0 0 0 0 0 0 0
0 0 0 0 0 0 0 0 0
0 0 0 0 0 0 0 0 0
0 0 0 0 0 0 0 0 0
0 0 0 0 0 0 0 0 0
0 0 0 0 0 0 0 0 0
0 0 0 0 0 0 0 0 0
0 0 0 0 0 0 0 0 0
0 0 0 0 0 0 0 0 0
0 0 0 0 0 0 0 0 0
0 0 0 0 0 0 0 0 0
0 0 0 0 0 0 0 0 0
0 0 0 0 0 0 0 0 0
0 0 0 0 0 0 0 0 0
0 0 0 0 0 0 0 0 0
0 0 0 0 0 0 0 0 0
0 0 0 0 0 0 0 0 0
0 0 0 0 0 0 0 0 0
0 0 0 0 0 0 0 0 0
0 0 0 0 0 0 0 0 0
0 0 0 0 0 0 0 0 0
0 0 0 0 0 0 0 0 0
0 0 0 0 0 0 0 0 0
0 0 0 0 0 0 0 0 0
0 0 0 0 0 0 0 0 0
0 0 0 0 0 0 0 0 0
0 0 0 0 0 0 0 0 0
0 0 0 0 0 0 0 0 0
0 0 0 0 0 0 0 0 0
0 0 0 0 0 0 0 0 0
0 0 0 0 0 0 0 0 0
0 0 0 0 0 0 0 0 0
0 0 0 0 0 0 0 0 0
0 0 0 0 0 0 0 0 0
0 0 0 0 0 0 0 0 0
0 0 0 0 0 0 0 0 0
0 0 0 0 0 0 0 0 0
0 0 0 0 0 0 0 0 0
0 0 0 0 0 0 0 0 0
0 0 0 0 0 0 0 0 0
0 0 0 0 0 0 0 0 0
0 0 0 0 0 0 0 0 0
0 0 0 0 0 0 0 0 0
0 0 0 0 0 0 0 0 0
0 0 0 0 0 0 0 0 0
0 0 0 0 0 0 0 0 0
0 0 0 0 0 0 0 0 0
0 0 0 0 0 0 0 0 0
0 0 0 0 0 0 0 0 0
0 0 0 0 0 0 0 0 0
0 0 0 0 0 0 0 0 0
0 0 0 0 0 0 0 0 0
0 0 0 0 0 0 0 0 0
0 0 0 0 0 0 0 0 0
0 0 0 0 0 0 0 0 0
0 0 0 0 0 0 0 0 0
0 0 0 0 0 0 0 0 0
0 0 0 0 0 0 0 0 0
0 0 0 0 0 0 0 0 0
0 0 0 0 0 0 0 0 0
0 0 0 0 0 0 0 0 0
0 0 0 0 0 0 0 0 0
0 0 0 0 0 0 0 0 0
0 0 0 0 0 0 0 0 0
0 0 0 0 0 0 0 0 0
0 0 0 0 0 0 0 0 0
0 0 0 0 0 0 0 0 0
0 0 0 0 0 0 0 0 0
0 0 0 0 0 0 0 0 0
0 0 0 0 0 0 0 0 0
0 0 0 0 0 0 0 0 0
0 0 0 0 0 0 0 0 0
0 0 0 0 0 0 0 0 0
0 0 0 0 0 0 0 0 0
0 0 0 0 0 0 0 0 0
0 0 0 0 0 0 0 0 0
0 0 0 0 0 0 0 0 0
0 0 0 0 0 0 0 0 0
0 0 0 0 0 0 0 0 0
0 0 0 0 0 0 0 0 0
0 0 0 0 0 0 0 0 0
0 0 0 0 0 0 0 0 0
0 0 0 0 0 0 0 0 0
0 0 0 0 0 0 0 0 0
0 0 0 0 0 0 0 0 0
0 0 0 0 0 0 0 0 0
0 0 0 0 0 0 0 0 0
0 0 0 0 0 0 0 0 0
0 0 0 0 0 0 0 0 0
0 0 0 0 0 0 0 0 0
0 0 0 0 0 0 0 0 0
0 0 0 0 0 0 0 0 0
0 0 0 0 0 0 0 0 0
0 0 0 0 0 0 0 0 0
0 0 0 0 0 0 0 0 0
0 0 0 0 0 0 0 0 0
0 0 0 0 0 0 0 0 0
0 0 0 0 0 0 0 0 0
0 0 0 0 0 0 0 0 0
0 0 0 0 0 0 0 0 0
0 0 0 0 0 0 0 0 0
0 0 0 0 0 0 0 0 0
0 0 0 0 0 0 0 0 0
0 0 0 0 0 0 0 0 0
0 0 0 0 0 0 0 0 0
0 0 0 0 0 0 0 0 0
0 0 0 0 0 0 0 0 0
0 0 0 0 0 0 0 0 0
0 0 0 0 0 0 0 0 0
0 0 0 0 0 0 0 0 0
0 0 0 0 0 0 0 0 0
0 0 0 0 0 0 0 0 0
0 0 0 0 0 0 0 0 0
0 0 0 0 0 0 0 0 0
0 0 0 0 0 0 0 0 0
0 0 0 0 0 0 0 0 0
0 0 0 0 0 0 0 0 0
0 0 0 0 0 0 0 0 0
0 0 0 0 0 0 0 0 0
0 0 0 0 0 0 0 0 0
0 0 0 0 0 0 0 0 0
0 0 0 0 0 0 0 0 0
0 0 0 0 0 0 0 0 0
0 0 0 0 0 0 0 0 0
0 0 0 0 0 0 0 0 0
0 0 0 0 0 0 0 0 0
0 0 0 0 0 0 0 0 0
0 0 0 0 0 0 0 0 0
0 0 0 0 0 0 0 0 0
0 0 0 0 0 0 0 0 0
0 0 0 0 0 0 0 0 0
0 0 0 0 0 0 0 0 0
0 0 0 0 0 0 0 0 0
0 0 0 0 0 0 0 0 0
0 0 0 0 0 0 0 0 0
0 0 0 0 0 0 0 0 0
0 0 0 0 0 0 0 0 0
0 0 0 0 0 0 0 0 0
0 0 0 0 0 0 0 0 0
0 0 0 0 0 0 0 0 0
0 0 0 0 0 0 0 0 0
0 0 0 0 0 0 0 0 0
0 0 0 0 0 0 0 0 0
0 0 0 0 0 0 0 0 0
0 0 0 0 0 0 0 0 0
0 0 0 0 0 0 0 0 0
0 0 0 0 0 0 0 0 0
0 0 0 0 0 0 0 0 0
0 0 0 0 0 0 0 0 0
0 0 0 0 0 0 0 0 0
0 0 0 0 0 0 0 0 0
0 0 0 0 0 0 0 0 0
0 0 0 0 0 0 0 0 0
0 0 0 0 0 0 0 0 0
0 0 0 0 0 0 0 0 0
0 0 0 0 0 0 0 0 0
0 0 0 0 0 0 0 0 0
0 0 0 0 0 0 0 0 0
0 0 0 0 0 0 0 0 0
0 0 0 0 0 0 0 0 0
0 0 0 0 0 0 0 0 0
0 0 0 0 0 0 0 0 0
0 0 0 0 0 0 0 0 0
0 0 0 0 0 0 0 0 0
0 0 0 0 0 0 0 0 0
0 0 0 0 0 0 0 0 0
0 0 0 0 0 0 0 0 0
0 0 0 0 0 0 0 0 0
0 0 0 0 0 0 0 0 0
0 0 0 0 0 0 0 0 0
0 0 0 0 0 0 0 0 0
0 0 0 0 0 0 0 0 0
0 0 0 0 0 0 0 0 0
0 0 0 0 0 0 0 0 0
0 0 0 0 0 0 0 0 0
0 0 0 0 0 0 0 0 0
0 0 0 0 0 0 0 0 0
0 0 0 0 0 0 0 0 0
0 0 0 0 0 0 0 0 0
0 0 0 0 0 0 0 0 0
0 0 0 0 0 0 0 0 0
0 0 0 0 0 0 0 0 0
0 0 0 0 0 0 0 0 0
0 0 0 0 0 0 0 0 0
0 0 0 0 0 0 0 0 0
0 0 0 0 0 0 0 0 0
0 0 0 0 0 0 0 0 0
0 0 0 0 0 0 0 0 0
0 0 0 0 0 0 0 0 0
0 0 0 0 0 0 0 0 0
0 0 0 0 0 0 0 0 0
0 0 0 0 0 0 0 0 0
0 0 0 0 0 0 0 0 0
0 0 0 0 0 0 0 0 0
0 0 0 0 0 0 0 0 0
0 0 0 0 0 0 0 0 0
0 0 0 0 0 0 0 0 0
0 0 0 0 0 0 0 0 0
0 0 0 0 0 0 0 0 0
0 0 0 0 0 0 0 0 0
0 0 0 0 0 0 0 0 0
0 0 0 0 0 0 0 0 0
0 0 0 0 0 0 0 0 0
0 0 0 0 0 0 0 0 0
0 0 0 0 0 0 0 0 0
0 0 0 0 0 0 0 0 0
0 0 0 0 0 0 0 0 0
0 0 0 0 0 0 0 0 0
0 0 0 0 0 0 0 0 0
0 0 0 0 0 0 0 0 0
0 0 0 0 0 0 0 0 0
0 0 0 0 0 0 0 0 0
0 0 0 0 0 0 0 0 0
0 0 0 0 0 0 0 0 0
0 0 0 0 0 0 0 0 0
0 0 0 0 0 0 0 0 0
0 0 0 0 0 0 0 0 0
0 0 0 0 0 0 0 0 0
0 0 0 0 0 0 0 0 0
0 0 0 0 0 0 0 0 0
0 0 0 0 0 0 0 0 0
0 0 0 0 0 0 0 0 0
0 0 0 0 0 0 0 0 0
0 0 0 0 0 0 0 0 0
0 0 0 0 0 0 0 0 0
0 0 0 0 0 0 0 0 0
0 0 0 0 0 0 0 0 0
0 0 0 0 0 0 0 0 0
0 0 0 0 0 0 0 0 0
0 0 0 0 0 0 0 0 0
0 0 0 0 0 0 0 0 0
0 0 0 0 0 0 0 0 0
0 0 0 0 0 0 0 0 0
0 0 0 0 0 0 0 0 0
0 0 0 0 0 0 0 0 0
0 0 0 0 0 0 0 0 0
0 0 0 0 0 0 0 0 0
0 0 0 0 0 0 0 0 0
0 0 0 0 0 0 0 0 0
0 0 0 0 0 0 0 0 0
0 0 0 0 0 0 0 0 0
0 0 0 0 0 0 0 0 0
0 0 0 0 0 0 0 0 0
0 0 0 0 0 0 0 0 0
0 0 0 0 0 0 0 0 0
0 0 0 0 0 0 0 0 0
0 0 0 0 0 0 0 0 0
0 0 0 0 0 0 0 0 0
0 0 0 0 0 0 0 0 0
0 0 0 0 0 0 0 0 0
0 0 0 0 0 0 0 0 0
0 0 0 0 0 0 0 0 0
0 0 0 0 0 0 0 0 0
0 0 0 0 0 0 0 0 0
0 0 0 0 0 0 0 0 0
0 0 0 0 0 0 0 0 0
0 0 0 0 0 0 0 0 0
0 0 0 0 0 0 0 0 0
0 0 0 0 0 0 0 0 0
0 0 0 0 0 0 0 0 0
0 0 0 0 0 0 0 0 0
0 0 0 0 0 0 0 0 0
0 0 0 0 0 0 0 0 0
0 0 0 0 0 0 0 0 0
0 0 0 0 0 0 0 0 0
0 0 0 0 0 0 0 0 0
