# vtk DataFile Version 3.0
Generated by Jean Bénézech
ASCII
DATASET UNSTRUCTURED_GRID
POINTS 4176 double
54.89 116.753 338
54.99 116.818 336
55.09 116.883 334
55.19 116.949 332
55.29 117.014 330
55.39 117.079 328
55.49 117.144 326
55.59 117.209 324
55.69 117.274 322
55.79 117.339 320
55.89 117.405 318
55.99 117.47 316
54.79 115.514 340
56.09 116.337 314
54.79 114.339 340
56.19 115.2 312
54.79 113.165 340
56.19 114 312
54.89 112.049 338
56.09 112.742 314
54.99 110.928 336
56.09 111.544 314
54.99 109.75 336
56.09 110.346 314
54.99 108.572 336
56.09 109.148 314
54.99 107.394 336
56.09 107.95 314
55.09 106.265 334
55.19 106.314 332
55.29 106.362 330
56.09 106.751 314
55.29 105.179 330
56.09 105.553 314
55.39 104.04 328
55.49 104.085 326
55.59 104.13 324
55.69 104.175 322
55.79 104.22 320
55.89 104.265 318
55.99 104.31 316
54.64 116.753 338
54.74 116.818 336
54.84 116.883 334
54.94 116.949 332
55.04 117.014 330
55.14 117.079 328
55.24 117.144 326
55.34 117.209 324
55.44 117.274 322
55.54 117.339 320
55.64 117.405 318
55.74 117.47 316
54.54 115.514 340
55.84 116.337 314
54.54 114.339 340
55.94 115.2 312
54.54 113.165 340
55.94 114 312
54.64 112.049 338
55.84 112.742 314
54.74 110.928 336
55.84 111.544 314
54.74 109.75 336
55.84 110.346 314
54.74 108.572 336
55.84 109.148 314
54.74 107.394 336
55.84 107.95 314
54.84 106.265 334
54.94 106.314 332
55.04 106.362 330
55.84 106.751 314
55.04 105.179 330
55.84 105.553 314
55.14 104.04 328
55.24 104.085 326
55.34 104.13 324
55.44 104.175 322
55.54 104.22 320
55.64 104.265 318
55.74 104.31 316
54.39 116.753 338
54.49 116.818 336
54.59 116.883 334
54.69 116.949 332
54.79 117.014 330
54.89 117.079 328
54.99 117.144 326
55.09 117.209 324
55.19 117.274 322
55.29 117.339 320
55.39 117.405 318
55.49 117.47 316
54.29 115.514 340
55.59 116.337 314
54.29 114.339 340
55.69 115.2 312
54.29 113.165 340
55.69 114 312
54.39 112.049 338
55.59 112.742 314
54.49 110.928 336
55.59 111.544 314
54.49 109.75 336
55.59 110.346 314
54.49 108.572 336
55.59 109.148 314
54.49 107.394 336
55.59 107.95 314
54.59 106.265 334
54.69 106.314 332
54.79 106.362 330
55.59 106.751 314
54.79 105.179 330
55.59 105.553 314
54.89 104.04 328
54.99 104.085 326
55.09 104.13 324
55.19 104.175 322
55.29 104.22 320
55.39 104.265 318
55.49 104.31 316
54.38 116.753 338
54.48 116.818 336
54.58 116.883 334
54.68 116.949 332
54.78 117.014 330
54.88 117.079 328
54.98 117.144 326
55.08 117.209 324
55.18 117.274 322
55.28 117.339 320
55.38 117.405 318
55.48 117.47 316
54.28 115.514 340
55.58 116.337 314
54.28 114.339 340
55.68 115.2 312
54.28 113.165 340
55.68 114 312
54.38 112.049 338
55.58 112.742 314
54.48 110.928 336
55.58 111.544 314
54.48 109.75 336
55.58 110.346 314
54.48 108.572 336
55.58 109.148 314
54.48 107.394 336
55.58 107.95 314
54.58 106.265 334
54.68 106.314 332
54.78 106.362 330
55.58 106.751 314
54.78 105.179 330
55.58 105.553 314
54.88 104.04 328
54.98 104.085 326
55.08 104.13 324
55.18 104.175 322
55.28 104.22 320
55.38 104.265 318
55.48 104.31 316
54.13 116.753 338
54.23 116.818 336
54.33 116.883 334
54.43 116.949 332
54.53 117.014 330
54.63 117.079 328
54.73 117.144 326
54.83 117.209 324
54.93 117.274 322
55.03 117.339 320
55.13 117.405 318
55.23 117.47 316
54.03 115.514 340
55.33 116.337 314
54.03 114.339 340
55.43 115.2 312
54.03 113.165 340
55.43 114 312
54.13 112.049 338
55.33 112.742 314
54.23 110.928 336
55.33 111.544 314
54.23 109.75 336
55.33 110.346 314
54.23 108.572 336
55.33 109.148 314
54.23 107.394 336
55.33 107.95 314
54.33 106.265 334
54.43 106.314 332
54.53 106.362 330
55.33 106.751 314
54.53 105.179 330
55.33 105.553 314
54.63 104.04 328
54.73 104.085 326
54.83 104.13 324
54.93 104.175 322
55.03 104.22 320
55.13 104.265 318
55.23 104.31 316
54.12 116.753 338
54.22 116.818 336
54.32 116.883 334
54.42 116.949 332
54.52 117.014 330
54.62 117.079 328
54.72 117.144 326
54.82 117.209 324
54.92 117.274 322
55.02 117.339 320
55.12 117.405 318
55.22 117.47 316
54.02 115.514 340
55.32 116.337 314
54.02 114.339 340
55.42 115.2 312
54.02 113.165 340
55.42 114 312
54.12 112.049 338
55.32 112.742 314
54.22 110.928 336
55.32 111.544 314
54.22 109.75 336
55.32 110.346 314
54.22 108.572 336
55.32 109.148 314
54.22 107.394 336
55.32 107.95 314
54.32 106.265 334
54.42 106.314 332
54.52 106.362 330
55.32 106.751 314
54.52 105.179 330
55.32 105.553 314
54.62 104.04 328
54.72 104.085 326
54.82 104.13 324
54.92 104.175 322
55.02 104.22 320
55.12 104.265 318
55.22 104.31 316
53.87 116.753 338
53.97 116.818 336
54.07 116.883 334
54.17 116.949 332
54.27 117.014 330
54.37 117.079 328
54.47 117.144 326
54.57 117.209 324
54.67 117.274 322
54.77 117.339 320
54.87 117.405 318
54.97 117.47 316
53.77 115.514 340
55.07 116.337 314
53.77 114.339 340
55.17 115.2 312
53.77 113.165 340
55.17 114 312
53.87 112.049 338
55.07 112.742 314
53.97 110.928 336
55.07 111.544 314
53.97 109.75 336
55.07 110.346 314
53.97 108.572 336
55.07 109.148 314
53.97 107.394 336
55.07 107.95 314
54.07 106.265 334
54.17 106.314 332
54.27 106.362 330
55.07 106.751 314
54.27 105.179 330
55.07 105.553 314
54.37 104.04 328
54.47 104.085 326
54.57 104.13 324
54.67 104.175 322
54.77 104.22 320
54.87 104.265 318
54.97 104.31 316
53.62 116.753 338
53.72 116.818 336
53.82 116.883 334
53.92 116.949 332
54.02 117.014 330
54.12 117.079 328
54.22 117.144 326
54.32 117.209 324
54.42 117.274 322
54.52 117.339 320
54.62 117.405 318
54.72 117.47 316
53.52 115.514 340
54.82 116.337 314
53.52 114.339 340
54.92 115.2 312
53.52 113.165 340
54.92 114 312
53.62 112.049 338
54.82 112.742 314
53.72 110.928 336
54.82 111.544 314
53.72 109.75 336
54.82 110.346 314
53.72 108.572 336
54.82 109.148 314
53.72 107.394 336
54.82 107.95 314
53.82 106.265 334
53.92 106.314 332
54.02 106.362 330
54.82 106.751 314
54.02 105.179 330
54.82 105.553 314
54.12 104.04 328
54.22 104.085 326
54.32 104.13 324
54.42 104.175 322
54.52 104.22 320
54.62 104.265 318
54.72 104.31 316
53.37 116.753 338
53.47 116.818 336
53.57 116.883 334
53.67 116.949 332
53.77 117.014 330
53.87 117.079 328
53.97 117.144 326
54.07 117.209 324
54.17 117.274 322
54.27 117.339 320
54.37 117.405 318
54.47 117.47 316
53.27 115.514 340
54.57 116.337 314
53.27 114.339 340
54.67 115.2 312
53.27 113.165 340
54.67 114 312
53.37 112.049 338
54.57 112.742 314
53.47 110.928 336
54.57 111.544 314
53.47 109.75 336
54.57 110.346 314
53.47 108.572 336
54.57 109.148 314
53.47 107.394 336
54.57 107.95 314
53.57 106.265 334
53.67 106.314 332
53.77 106.362 330
54.57 106.751 314
53.77 105.179 330
54.57 105.553 314
53.87 104.04 328
53.97 104.085 326
54.07 104.13 324
54.17 104.175 322
54.27 104.22 320
54.37 104.265 318
54.47 104.31 316
53.12 116.753 338
53.22 116.818 336
53.32 116.883 334
53.42 116.949 332
53.52 117.014 330
53.62 117.079 328
53.72 117.144 326
53.82 117.209 324
53.92 117.274 322
54.02 117.339 320
54.12 117.405 318
54.22 117.47 316
53.02 115.514 340
54.32 116.337 314
53.02 114.339 340
54.42 115.2 312
53.02 113.165 340
54.42 114 312
53.12 112.049 338
54.32 112.742 314
53.22 110.928 336
54.32 111.544 314
53.22 109.75 336
54.32 110.346 314
53.22 108.572 336
54.32 109.148 314
53.22 107.394 336
54.32 107.95 314
53.32 106.265 334
53.42 106.314 332
53.52 106.362 330
54.32 106.751 314
53.52 105.179 330
54.32 105.553 314
53.62 104.04 328
53.72 104.085 326
53.82 104.13 324
53.92 104.175 322
54.02 104.22 320
54.12 104.265 318
54.22 104.31 316
52.87 116.753 338
52.97 116.818 336
53.07 116.883 334
53.17 116.949 332
53.27 117.014 330
53.37 117.079 328
53.47 117.144 326
53.57 117.209 324
53.67 117.274 322
53.77 117.339 320
53.87 117.405 318
53.97 117.47 316
52.77 115.514 340
54.07 116.337 314
52.77 114.339 340
54.17 115.2 312
52.77 113.165 340
54.17 114 312
52.87 112.049 338
54.07 112.742 314
52.97 110.928 336
54.07 111.544 314
52.97 109.75 336
54.07 110.346 314
52.97 108.572 336
54.07 109.148 314
52.97 107.394 336
54.07 107.95 314
53.07 106.265 334
53.17 106.314 332
53.27 106.362 330
54.07 106.751 314
53.27 105.179 330
54.07 105.553 314
53.37 104.04 328
53.47 104.085 326
53.57 104.13 324
53.67 104.175 322
53.77 104.22 320
53.87 104.265 318
53.97 104.31 316
52.62 116.753 338
52.72 116.818 336
52.82 116.883 334
52.92 116.949 332
53.02 117.014 330
53.12 117.079 328
53.22 117.144 326
53.32 117.209 324
53.42 117.274 322
53.52 117.339 320
53.62 117.405 318
53.72 117.47 316
52.52 115.514 340
53.82 116.337 314
52.52 114.339 340
53.92 115.2 312
52.52 113.165 340
53.92 114 312
52.62 112.049 338
53.82 112.742 314
52.72 110.928 336
53.82 111.544 314
52.72 109.75 336
53.82 110.346 314
52.72 108.572 336
53.82 109.148 314
52.72 107.394 336
53.82 107.95 314
52.82 106.265 334
52.92 106.314 332
53.02 106.362 330
53.82 106.751 314
53.02 105.179 330
53.82 105.553 314
53.12 104.04 328
53.22 104.085 326
53.32 104.13 324
53.42 104.175 322
53.52 104.22 320
53.62 104.265 318
53.72 104.31 316
52.37 116.753 338
52.47 116.818 336
52.57 116.883 334
52.67 116.949 332
52.77 117.014 330
52.87 117.079 328
52.97 117.144 326
53.07 117.209 324
53.17 117.274 322
53.27 117.339 320
53.37 117.405 318
53.47 117.47 316
52.27 115.514 340
53.57 116.337 314
52.27 114.339 340
53.67 115.2 312
52.27 113.165 340
53.67 114 312
52.37 112.049 338
53.57 112.742 314
52.47 110.928 336
53.57 111.544 314
52.47 109.75 336
53.57 110.346 314
52.47 108.572 336
53.57 109.148 314
52.47 107.394 336
53.57 107.95 314
52.57 106.265 334
52.67 106.314 332
52.77 106.362 330
53.57 106.751 314
52.77 105.179 330
53.57 105.553 314
52.87 104.04 328
52.97 104.085 326
53.07 104.13 324
53.17 104.175 322
53.27 104.22 320
53.37 104.265 318
53.47 104.31 316
52.36 116.753 338
52.46 116.818 336
52.56 116.883 334
52.66 116.949 332
52.76 117.014 330
52.86 117.079 328
52.96 117.144 326
53.06 117.209 324
53.16 117.274 322
53.26 117.339 320
53.36 117.405 318
53.46 117.47 316
52.26 115.514 340
53.56 116.337 314
52.26 114.339 340
53.66 115.2 312
52.26 113.165 340
53.66 114 312
52.36 112.049 338
53.56 112.742 314
52.46 110.928 336
53.56 111.544 314
52.46 109.75 336
53.56 110.346 314
52.46 108.572 336
53.56 109.148 314
52.46 107.394 336
53.56 107.95 314
52.56 106.265 334
52.66 106.314 332
52.76 106.362 330
53.56 106.751 314
52.76 105.179 330
53.56 105.553 314
52.86 104.04 328
52.96 104.085 326
53.06 104.13 324
53.16 104.175 322
53.26 104.22 320
53.36 104.265 318
53.46 104.31 316
52.11 116.753 338
52.21 116.818 336
52.31 116.883 334
52.41 116.949 332
52.51 117.014 330
52.61 117.079 328
52.71 117.144 326
52.81 117.209 324
52.91 117.274 322
53.01 117.339 320
53.11 117.405 318
53.21 117.47 316
52.01 115.514 340
53.31 116.337 314
52.01 114.339 340
53.41 115.2 312
52.01 113.165 340
53.41 114 312
52.11 112.049 338
53.31 112.742 314
52.21 110.928 336
53.31 111.544 314
52.21 109.75 336
53.31 110.346 314
52.21 108.572 336
53.31 109.148 314
52.21 107.394 336
53.31 107.95 314
52.31 106.265 334
52.41 106.314 332
52.51 106.362 330
53.31 106.751 314
52.51 105.179 330
53.31 105.553 314
52.61 104.04 328
52.71 104.085 326
52.81 104.13 324
52.91 104.175 322
53.01 104.22 320
53.11 104.265 318
53.21 104.31 316
51.86 116.753 338
51.96 116.818 336
52.06 116.883 334
52.16 116.949 332
52.26 117.014 330
52.36 117.079 328
52.46 117.144 326
52.56 117.209 324
52.66 117.274 322
52.76 117.339 320
52.86 117.405 318
52.96 117.47 316
51.76 115.514 340
53.06 116.337 314
51.76 114.339 340
53.16 115.2 312
51.76 113.165 340
53.16 114 312
51.86 112.049 338
53.06 112.742 314
51.96 110.928 336
53.06 111.544 314
51.96 109.75 336
53.06 110.346 314
51.96 108.572 336
53.06 109.148 314
51.96 107.394 336
53.06 107.95 314
52.06 106.265 334
52.16 106.314 332
52.26 106.362 330
53.06 106.751 314
52.26 105.179 330
53.06 105.553 314
52.36 104.04 328
52.46 104.085 326
52.56 104.13 324
52.66 104.175 322
52.76 104.22 320
52.86 104.265 318
52.96 104.31 316
51.61 116.753 338
51.71 116.818 336
51.81 116.883 334
51.91 116.949 332
52.01 117.014 330
52.11 117.079 328
52.21 117.144 326
52.31 117.209 324
52.41 117.274 322
52.51 117.339 320
52.61 117.405 318
52.71 117.47 316
51.51 115.514 340
52.81 116.337 314
51.51 114.339 340
52.91 115.2 312
51.51 113.165 340
52.91 114 312
51.61 112.049 338
52.81 112.742 314
51.71 110.928 336
52.81 111.544 314
51.71 109.75 336
52.81 110.346 314
51.71 108.572 336
52.81 109.148 314
51.71 107.394 336
52.81 107.95 314
51.81 106.265 334
51.91 106.314 332
52.01 106.362 330
52.81 106.751 314
52.01 105.179 330
52.81 105.553 314
52.11 104.04 328
52.21 104.085 326
52.31 104.13 324
52.41 104.175 322
52.51 104.22 320
52.61 104.265 318
52.71 104.31 316
51.36 116.753 338
51.46 116.818 336
51.56 116.883 334
51.66 116.949 332
51.76 117.014 330
51.86 117.079 328
51.96 117.144 326
52.06 117.209 324
52.16 117.274 322
52.26 117.339 320
52.36 117.405 318
52.46 117.47 316
51.26 115.514 340
52.56 116.337 314
51.26 114.339 340
52.66 115.2 312
51.26 113.165 340
52.66 114 312
51.36 112.049 338
52.56 112.742 314
51.46 110.928 336
52.56 111.544 314
51.46 109.75 336
52.56 110.346 314
51.46 108.572 336
52.56 109.148 314
51.46 107.394 336
52.56 107.95 314
51.56 106.265 334
51.66 106.314 332
51.76 106.362 330
52.56 106.751 314
51.76 105.179 330
52.56 105.553 314
51.86 104.04 328
51.96 104.085 326
52.06 104.13 324
52.16 104.175 322
52.26 104.22 320
52.36 104.265 318
52.46 104.31 316
51.11 116.753 338
51.21 116.818 336
51.31 116.883 334
51.41 116.949 332
51.51 117.014 330
51.61 117.079 328
51.71 117.144 326
51.81 117.209 324
51.91 117.274 322
52.01 117.339 320
52.11 117.405 318
52.21 117.47 316
51.01 115.514 340
52.31 116.337 314
51.01 114.339 340
52.41 115.2 312
51.01 113.165 340
52.41 114 312
51.11 112.049 338
52.31 112.742 314
51.21 110.928 336
52.31 111.544 314
51.21 109.75 336
52.31 110.346 314
51.21 108.572 336
52.31 109.148 314
51.21 107.394 336
52.31 107.95 314
51.31 106.265 334
51.41 106.314 332
51.51 106.362 330
52.31 106.751 314
51.51 105.179 330
52.31 105.553 314
51.61 104.04 328
51.71 104.085 326
51.81 104.13 324
51.91 104.175 322
52.01 104.22 320
52.11 104.265 318
52.21 104.31 316
50.86 116.753 338
50.96 116.818 336
51.06 116.883 334
51.16 116.949 332
51.26 117.014 330
51.36 117.079 328
51.46 117.144 326
51.56 117.209 324
51.66 117.274 322
51.76 117.339 320
51.86 117.405 318
51.96 117.47 316
50.76 115.514 340
52.06 116.337 314
50.76 114.339 340
52.16 115.2 312
50.76 113.165 340
52.16 114 312
50.86 112.049 338
52.06 112.742 314
50.96 110.928 336
52.06 111.544 314
50.96 109.75 336
52.06 110.346 314
50.96 108.572 336
52.06 109.148 314
50.96 107.394 336
52.06 107.95 314
51.06 106.265 334
51.16 106.314 332
51.26 106.362 330
52.06 106.751 314
51.26 105.179 330
52.06 105.553 314
51.36 104.04 328
51.46 104.085 326
51.56 104.13 324
51.66 104.175 322
51.76 104.22 320
51.86 104.265 318
51.96 104.31 316
50.61 116.753 338
50.71 116.818 336
50.81 116.883 334
50.91 116.949 332
51.01 117.014 330
51.11 117.079 328
51.21 117.144 326
51.31 117.209 324
51.41 117.274 322
51.51 117.339 320
51.61 117.405 318
51.71 117.47 316
50.51 115.514 340
51.81 116.337 314
50.51 114.339 340
51.91 115.2 312
50.51 113.165 340
51.91 114 312
50.61 112.049 338
51.81 112.742 314
50.71 110.928 336
51.81 111.544 314
50.71 109.75 336
51.81 110.346 314
50.71 108.572 336
51.81 109.148 314
50.71 107.394 336
51.81 107.95 314
50.81 106.265 334
50.91 106.314 332
51.01 106.362 330
51.81 106.751 314
51.01 105.179 330
51.81 105.553 314
51.11 104.04 328
51.21 104.085 326
51.31 104.13 324
51.41 104.175 322
51.51 104.22 320
51.61 104.265 318
51.71 104.31 316
50.36 116.753 338
50.46 116.818 336
50.56 116.883 334
50.66 116.949 332
50.76 117.014 330
50.86 117.079 328
50.96 117.144 326
51.06 117.209 324
51.16 117.274 322
51.26 117.339 320
51.36 117.405 318
51.46 117.47 316
50.26 115.514 340
51.56 116.337 314
50.26 114.339 340
51.66 115.2 312
50.26 113.165 340
51.66 114 312
50.36 112.049 338
51.56 112.742 314
50.46 110.928 336
51.56 111.544 314
50.46 109.75 336
51.56 110.346 314
50.46 108.572 336
51.56 109.148 314
50.46 107.394 336
51.56 107.95 314
50.56 106.265 334
50.66 106.314 332
50.76 106.362 330
51.56 106.751 314
50.76 105.179 330
51.56 105.553 314
50.86 104.04 328
50.96 104.085 326
51.06 104.13 324
51.16 104.175 322
51.26 104.22 320
51.36 104.265 318
51.46 104.31 316
50.1 116.753 338
50.11 116.753 338
50.2 116.818 336
50.21 116.818 336
50.3 116.883 334
50.31 116.883 334
50.4 116.949 332
50.41 116.949 332
50.5 117.014 330
50.51 117.014 330
50.6 117.079 328
50.61 117.079 328
50.7 117.144 326
50.71 117.144 326
50.8 117.209 324
50.81 117.209 324
50.9 117.274 322
50.91 117.274 322
51 117.339 320
51.01 117.339 320
51.1 117.405 318
51.11 117.405 318
51.2 117.47 316
51.21 117.47 316
50 115.514 340
50.01 115.514 340
51.3 116.337 314
51.31 116.337 314
50 114.339 340
50.01 114.339 340
51.4 115.2 312
51.41 115.2 312
50 113.165 340
50.01 113.165 340
51.4 114 312
51.41 114 312
50.1 112.049 338
50.11 112.049 338
51.3 112.742 314
51.31 112.742 314
50.2 110.928 336
50.21 110.928 336
51.3 111.544 314
51.31 111.544 314
50.2 109.75 336
50.21 109.75 336
51.3 110.346 314
51.31 110.346 314
50.2 108.572 336
50.21 108.572 336
51.3 109.148 314
51.31 109.148 314
50.2 107.394 336
50.21 107.394 336
51.3 107.95 314
51.31 107.95 314
50.3 106.265 334
50.31 106.265 334
50.4 106.314 332
50.41 106.314 332
50.5 106.362 330
50.51 106.362 330
51.3 106.751 314
51.31 106.751 314
50.5 105.179 330
50.51 105.179 330
51.3 105.553 314
51.31 105.553 314
50.6 104.04 328
50.61 104.04 328
50.7 104.085 326
50.71 104.085 326
50.8 104.13 324
50.81 104.13 324
50.9 104.175 322
50.91 104.175 322
51 104.22 320
51.01 104.22 320
51.1 104.265 318
51.11 104.265 318
51.2 104.31 316
51.21 104.31 316
49.6 116.753 338
49.85 116.753 338
49.7 116.818 336
49.95 116.818 336
49.8 116.883 334
50.05 116.883 334
49.9 116.949 332
50.15 116.949 332
50 117.014 330
50.25 117.014 330
50.1 117.079 328
50.35 117.079 328
50.2 117.144 326
50.45 117.144 326
50.3 117.209 324
50.55 117.209 324
50.4 117.274 322
50.65 117.274 322
50.5 117.339 320
50.75 117.339 320
50.6 117.405 318
50.85 117.405 318
50.7 117.47 316
50.95 117.47 316
49.5 115.514 340
49.75 115.514 340
50.8 116.337 314
51.05 116.337 314
49.5 114.339 340
49.75 114.339 340
50.9 115.2 312
51.15 115.2 312
49.5 113.165 340
49.75 113.165 340
50.9 114 312
51.15 114 312
49.6 112.049 338
49.85 112.049 338
50.8 112.742 314
51.05 112.742 314
49.7 110.928 336
49.95 110.928 336
50.8 111.544 314
51.05 111.544 314
49.7 109.75 336
49.95 109.75 336
50.8 110.346 314
51.05 110.346 314
49.7 108.572 336
49.95 108.572 336
50.8 109.148 314
51.05 109.148 314
49.7 107.394 336
49.95 107.394 336
50.8 107.95 314
51.05 107.95 314
49.8 106.265 334
50.05 106.265 334
49.9 106.314 332
50.15 106.314 332
50 106.362 330
50.25 106.362 330
50.8 106.751 314
51.05 106.751 314
50 105.179 330
50.25 105.179 330
50.8 105.553 314
51.05 105.553 314
50.1 104.04 328
50.35 104.04 328
50.2 104.085 326
50.45 104.085 326
50.3 104.13 324
50.55 104.13 324
50.4 104.175 322
50.65 104.175 322
50.5 104.22 320
50.75 104.22 320
50.6 104.265 318
50.85 104.265 318
50.7 104.31 316
50.95 104.31 316
49.35 116.753 338
49.45 116.818 336
49.55 116.883 334
49.65 116.949 332
49.75 117.014 330
49.85 117.079 328
49.95 117.144 326
50.05 117.209 324
50.15 117.274 322
50.25 117.339 320
50.35 117.405 318
50.45 117.47 316
49.25 115.514 340
50.55 116.337 314
49.25 114.339 340
50.65 115.2 312
49.25 113.165 340
50.65 114 312
49.35 112.049 338
50.55 112.742 314
49.45 110.928 336
50.55 111.544 314
49.45 109.75 336
50.55 110.346 314
49.45 108.572 336
50.55 109.148 314
49.45 107.394 336
50.55 107.95 314
49.55 106.265 334
49.65 106.314 332
49.75 106.362 330
50.55 106.751 314
49.75 105.179 330
50.55 105.553 314
49.85 104.04 328
49.95 104.085 326
50.05 104.13 324
50.15 104.175 322
50.25 104.22 320
50.35 104.265 318
50.45 104.31 316
55.14 116.753 338
55.24 116.818 336
55.34 116.883 334
55.44 116.949 332
55.54 117.014 330
55.64 117.079 328
55.74 117.144 326
55.84 117.209 324
55.94 117.274 322
56.04 117.339 320
56.14 117.405 318
56.24 117.47 316
55.04 115.514 340
56.34 116.337 314
55.04 114.339 340
56.44 115.2 312
55.04 113.165 340
56.44 114 312
55.14 112.049 338
56.34 112.742 314
55.24 110.928 336
56.34 111.544 314
55.24 109.75 336
56.34 110.346 314
55.24 108.572 336
56.34 109.148 314
55.24 107.394 336
56.34 107.95 314
55.34 106.265 334
55.44 106.314 332
55.54 106.362 330
56.34 106.751 314
55.54 105.179 330
56.34 105.553 314
55.64 104.04 328
55.74 104.085 326
55.84 104.13 324
55.94 104.175 322
56.04 104.22 320
56.14 104.265 318
56.24 104.31 316
49.1 116.753 338
49.2 116.818 336
49.3 116.883 334
49.4 116.949 332
49.5 117.014 330
49.6 117.079 328
49.7 117.144 326
49.8 117.209 324
49.9 117.274 322
50 117.339 320
50.1 117.405 318
50.2 117.47 316
49 115.514 340
50.3 116.337 314
49 114.339 340
50.4 115.2 312
49 113.165 340
50.4 114 312
49.1 112.049 338
50.3 112.742 314
49.2 110.928 336
50.3 111.544 314
49.2 109.75 336
50.3 110.346 314
49.2 108.572 336
50.3 109.148 314
49.2 107.394 336
50.3 107.95 314
49.3 106.265 334
49.4 106.314 332
49.5 106.362 330
50.3 106.751 314
49.5 105.179 330
50.3 105.553 314
49.6 104.04 328
49.7 104.085 326
49.8 104.13 324
49.9 104.175 322
50 104.22 320
50.1 104.265 318
50.2 104.31 316
50.1 105.46 318
50 105.413 320
49.9 105.366 322
49.8 105.319 324
49.7 105.272 326
49.6 105.226 328
50.1 106.654 318
50 106.606 320
49.9 106.557 322
49.8 106.508 324
49.7 106.46 326
49.6 106.411 328
50.1 107.849 318
50 107.798 320
49.9 107.748 322
49.8 107.697 324
49.7 107.647 326
49.6 107.596 328
49.5 107.546 330
49.4 107.495 332
49.3 107.445 334
50.1 109.043 318
50 108.991 320
49.9 108.939 322
49.8 108.886 324
49.7 108.834 326
49.6 108.782 328
49.5 108.729 330
49.4 108.677 332
49.3 108.625 334
50.1 110.238 318
50 110.183 320
49.9 110.129 322
49.8 110.075 324
49.7 110.021 326
49.6 109.967 328
49.5 109.913 330
49.4 109.859 332
49.3 109.805 334
50.1 111.432 318
50 111.376 320
49.9 111.32 322
49.8 111.264 324
49.7 111.208 326
49.6 111.152 328
49.5 111.096 330
49.4 111.04 332
49.3 110.984 334
50.1 112.627 318
50 112.569 320
49.9 112.511 322
49.8 112.453 324
49.7 112.395 326
49.6 112.338 328
49.5 112.28 330
49.4 112.222 332
49.3 112.164 334
49.2 112.106 336
50.1 113.821 318
50 113.761 320
49.9 113.702 322
49.8 113.642 324
49.7 113.583 326
49.6 113.523 328
49.5 113.463 330
49.4 113.404 332
49.3 113.344 334
49.2 113.284 336
49.1 113.225 338
50.2 115.077 316
50.1 115.016 318
50 114.954 320
49.9 114.893 322
49.8 114.831 324
49.7 114.77 326
49.6 114.708 328
49.5 114.647 330
49.4 114.585 332
49.3 114.524 334
49.2 114.462 336
49.1 114.401 338
50.2 116.273 316
50.1 116.21 318
50 116.147 320
49.9 116.083 322
49.8 116.02 324
49.7 115.957 326
49.6 115.894 328
49.5 115.83 330
49.4 115.767 332
49.3 115.704 334
49.2 115.64 336
49.1 115.577 338
56.14 105.46 318
56.04 105.413 320
55.94 105.366 322
55.84 105.319 324
55.74 105.272 326
55.64 105.226 328
56.14 106.654 318
56.04 106.606 320
55.94 106.557 322
55.84 106.508 324
55.74 106.46 326
55.64 106.411 328
56.14 107.849 318
56.04 107.798 320
55.94 107.748 322
55.84 107.697 324
55.74 107.647 326
55.64 107.596 328
55.54 107.546 330
55.44 107.495 332
55.34 107.445 334
56.14 109.043 318
56.04 108.991 320
55.94 108.939 322
55.84 108.886 324
55.74 108.834 326
55.64 108.782 328
55.54 108.729 330
55.44 108.677 332
55.34 108.625 334
56.14 110.238 318
56.04 110.183 320
55.94 110.129 322
55.84 110.075 324
55.74 110.021 326
55.64 109.967 328
55.54 109.913 330
55.44 109.859 332
55.34 109.805 334
56.14 111.432 318
56.04 111.376 320
55.94 111.32 322
55.84 111.264 324
55.74 111.208 326
55.64 111.152 328
55.54 111.096 330
55.44 111.04 332
55.34 110.984 334
56.14 112.627 318
56.04 112.569 320
55.94 112.511 322
55.84 112.453 324
55.74 112.395 326
55.64 112.338 328
55.54 112.28 330
55.44 112.222 332
55.34 112.164 334
55.24 112.106 336
56.14 113.821 318
56.04 113.761 320
55.94 113.702 322
55.84 113.642 324
55.74 113.583 326
55.64 113.523 328
55.54 113.463 330
55.44 113.404 332
55.34 113.344 334
55.24 113.284 336
55.14 113.225 338
56.24 115.077 316
56.14 115.016 318
56.04 114.954 320
55.94 114.893 322
55.84 114.831 324
55.74 114.77 326
55.64 114.708 328
55.54 114.647 330
55.44 114.585 332
55.34 114.524 334
55.24 114.462 336
55.14 114.401 338
56.24 116.273 316
56.14 116.21 318
56.04 116.147 320
55.94 116.083 322
55.84 116.02 324
55.74 115.957 326
55.64 115.894 328
55.54 115.83 330
55.44 115.767 332
55.34 115.704 334
55.24 115.64 336
55.14 115.577 338
50.35 105.46 318
50.25 105.413 320
50.15 105.366 322
50.05 105.319 324
49.95 105.272 326
49.85 105.226 328
50.35 106.654 318
50.25 106.606 320
50.15 106.557 322
50.05 106.508 324
49.95 106.46 326
49.85 106.411 328
50.35 107.849 318
50.25 107.798 320
50.15 107.748 322
50.05 107.697 324
49.95 107.647 326
49.85 107.596 328
49.75 107.546 330
49.65 107.495 332
49.55 107.445 334
50.35 109.043 318
50.25 108.991 320
50.15 108.939 322
50.05 108.886 324
49.95 108.834 326
49.85 108.782 328
49.75 108.729 330
49.65 108.677 332
49.55 108.625 334
50.35 110.238 318
50.25 110.183 320
50.15 110.129 322
50.05 110.075 324
49.95 110.021 326
49.85 109.967 328
49.75 109.913 330
49.65 109.859 332
49.55 109.805 334
50.35 111.432 318
50.25 111.376 320
50.15 111.32 322
50.05 111.264 324
49.95 111.208 326
49.85 111.152 328
49.75 111.096 330
49.65 111.04 332
49.55 110.984 334
50.35 112.627 318
50.25 112.569 320
50.15 112.511 322
50.05 112.453 324
49.95 112.395 326
49.85 112.338 328
49.75 112.28 330
49.65 112.222 332
49.55 112.164 334
49.45 112.106 336
50.35 113.821 318
50.25 113.761 320
50.15 113.702 322
50.05 113.642 324
49.95 113.583 326
49.85 113.523 328
49.75 113.463 330
49.65 113.404 332
49.55 113.344 334
49.45 113.284 336
49.35 113.225 338
50.45 115.077 316
50.35 115.016 318
50.25 114.954 320
50.15 114.893 322
50.05 114.831 324
49.95 114.77 326
49.85 114.708 328
49.75 114.647 330
49.65 114.585 332
49.55 114.524 334
49.45 114.462 336
49.35 114.401 338
50.45 116.273 316
50.35 116.21 318
50.25 116.147 320
50.15 116.083 322
50.05 116.02 324
49.95 115.957 326
49.85 115.894 328
49.75 115.83 330
49.65 115.767 332
49.55 115.704 334
49.45 115.64 336
49.35 115.577 338
50.85 105.46 318
50.6 105.46 318
50.75 105.413 320
50.5 105.413 320
50.65 105.366 322
50.4 105.366 322
50.55 105.319 324
50.3 105.319 324
50.45 105.272 326
50.2 105.272 326
50.35 105.226 328
50.1 105.226 328
50.85 106.654 318
50.6 106.654 318
50.75 106.606 320
50.5 106.606 320
50.65 106.557 322
50.4 106.557 322
50.55 106.508 324
50.3 106.508 324
50.45 106.46 326
50.2 106.46 326
50.35 106.411 328
50.1 106.411 328
50.85 107.849 318
50.6 107.849 318
50.75 107.798 320
50.5 107.798 320
50.65 107.748 322
50.4 107.748 322
50.55 107.697 324
50.3 107.697 324
50.45 107.647 326
50.2 107.647 326
50.35 107.596 328
50.1 107.596 328
50.25 107.546 330
50 107.546 330
50.15 107.495 332
49.9 107.495 332
50.05 107.445 334
49.8 107.445 334
50.85 109.043 318
50.6 109.043 318
50.75 108.991 320
50.5 108.991 320
50.65 108.939 322
50.4 108.939 322
50.55 108.886 324
50.3 108.886 324
50.45 108.834 326
50.2 108.834 326
50.35 108.782 328
50.1 108.782 328
50.25 108.729 330
50 108.729 330
50.15 108.677 332
49.9 108.677 332
50.05 108.625 334
49.8 108.625 334
50.85 110.238 318
50.6 110.238 318
50.75 110.183 320
50.5 110.183 320
50.65 110.129 322
50.4 110.129 322
50.55 110.075 324
50.3 110.075 324
50.45 110.021 326
50.2 110.021 326
50.35 109.967 328
50.1 109.967 328
50.25 109.913 330
50 109.913 330
50.15 109.859 332
49.9 109.859 332
50.05 109.805 334
49.8 109.805 334
50.85 111.432 318
50.6 111.432 318
50.75 111.376 320
50.5 111.376 320
50.65 111.32 322
50.4 111.32 322
50.55 111.264 324
50.3 111.264 324
50.45 111.208 326
50.2 111.208 326
50.35 111.152 328
50.1 111.152 328
50.25 111.096 330
50 111.096 330
50.15 111.04 332
49.9 111.04 332
50.05 110.984 334
49.8 110.984 334
50.85 112.627 318
50.6 112.627 318
50.75 112.569 320
50.5 112.569 320
50.65 112.511 322
50.4 112.511 322
50.55 112.453 324
50.3 112.453 324
50.45 112.395 326
50.2 112.395 326
50.35 112.338 328
50.1 112.338 328
50.25 112.28 330
50 112.28 330
50.15 112.222 332
49.9 112.222 332
50.05 112.164 334
49.8 112.164 334
49.95 112.106 336
49.7 112.106 336
50.85 113.821 318
50.6 113.821 318
50.75 113.761 320
50.5 113.761 320
50.65 113.702 322
50.4 113.702 322
50.55 113.642 324
50.3 113.642 324
50.45 113.583 326
50.2 113.583 326
50.35 113.523 328
50.1 113.523 328
50.25 113.463 330
50 113.463 330
50.15 113.404 332
49.9 113.404 332
50.05 113.344 334
49.8 113.344 334
49.95 113.284 336
49.7 113.284 336
49.85 113.225 338
49.6 113.225 338
50.95 115.077 316
50.7 115.077 316
50.85 115.016 318
50.6 115.016 318
50.75 114.954 320
50.5 114.954 320
50.65 114.893 322
50.4 114.893 322
50.55 114.831 324
50.3 114.831 324
50.45 114.77 326
50.2 114.77 326
50.35 114.708 328
50.1 114.708 328
50.25 114.647 330
50 114.647 330
50.15 114.585 332
49.9 114.585 332
50.05 114.524 334
49.8 114.524 334
49.95 114.462 336
49.7 114.462 336
49.85 114.401 338
49.6 114.401 338
50.95 116.273 316
50.7 116.273 316
50.85 116.21 318
50.6 116.21 318
50.75 116.147 320
50.5 116.147 320
50.65 116.083 322
50.4 116.083 322
50.55 116.02 324
50.3 116.02 324
50.45 115.957 326
50.2 115.957 326
50.35 115.894 328
50.1 115.894 328
50.25 115.83 330
50 115.83 330
50.15 115.767 332
49.9 115.767 332
50.05 115.704 334
49.8 115.704 334
49.95 115.64 336
49.7 115.64 336
49.85 115.577 338
49.6 115.577 338
51.11 105.46 318
51.1 105.46 318
51.01 105.413 320
51 105.413 320
50.91 105.366 322
50.9 105.366 322
50.81 105.319 324
50.8 105.319 324
50.71 105.272 326
50.7 105.272 326
50.61 105.226 328
50.6 105.226 328
51.11 106.654 318
51.1 106.654 318
51.01 106.606 320
51 106.606 320
50.91 106.557 322
50.9 106.557 322
50.81 106.508 324
50.8 106.508 324
50.71 106.46 326
50.7 106.46 326
50.61 106.411 328
50.6 106.411 328
51.11 107.849 318
51.1 107.849 318
51.01 107.798 320
51 107.798 320
50.91 107.748 322
50.9 107.748 322
50.81 107.697 324
50.8 107.697 324
50.71 107.647 326
50.7 107.647 326
50.61 107.596 328
50.6 107.596 328
50.51 107.546 330
50.5 107.546 330
50.41 107.495 332
50.4 107.495 332
50.31 107.445 334
50.3 107.445 334
51.11 109.043 318
51.1 109.043 318
51.01 108.991 320
51 108.991 320
50.91 108.939 322
50.9 108.939 322
50.81 108.886 324
50.8 108.886 324
50.71 108.834 326
50.7 108.834 326
50.61 108.782 328
50.6 108.782 328
50.51 108.729 330
50.5 108.729 330
50.41 108.677 332
50.4 108.677 332
50.31 108.625 334
50.3 108.625 334
51.11 110.238 318
51.1 110.238 318
51.01 110.183 320
51 110.183 320
50.91 110.129 322
50.9 110.129 322
50.81 110.075 324
50.8 110.075 324
50.71 110.021 326
50.7 110.021 326
50.61 109.967 328
50.6 109.967 328
50.51 109.913 330
50.5 109.913 330
50.41 109.859 332
50.4 109.859 332
50.31 109.805 334
50.3 109.805 334
51.11 111.432 318
51.1 111.432 318
51.01 111.376 320
51 111.376 320
50.91 111.32 322
50.9 111.32 322
50.81 111.264 324
50.8 111.264 324
50.71 111.208 326
50.7 111.208 326
50.61 111.152 328
50.6 111.152 328
50.51 111.096 330
50.5 111.096 330
50.41 111.04 332
50.4 111.04 332
50.31 110.984 334
50.3 110.984 334
51.11 112.627 318
51.1 112.627 318
51.01 112.569 320
51 112.569 320
50.91 112.511 322
50.9 112.511 322
50.81 112.453 324
50.8 112.453 324
50.71 112.395 326
50.7 112.395 326
50.61 112.338 328
50.6 112.338 328
50.51 112.28 330
50.5 112.28 330
50.41 112.222 332
50.4 112.222 332
50.31 112.164 334
50.3 112.164 334
50.21 112.106 336
50.2 112.106 336
51.11 113.821 318
51.1 113.821 318
51.01 113.761 320
51 113.761 320
50.91 113.702 322
50.9 113.702 322
50.81 113.642 324
50.8 113.642 324
50.71 113.583 326
50.7 113.583 326
50.61 113.523 328
50.6 113.523 328
50.51 113.463 330
50.5 113.463 330
50.41 113.404 332
50.4 113.404 332
50.31 113.344 334
50.3 113.344 334
50.21 113.284 336
50.2 113.284 336
50.11 113.225 338
50.1 113.225 338
51.21 115.077 316
51.2 115.077 316
51.11 115.016 318
51.1 115.016 318
51.01 114.954 320
51 114.954 320
50.91 114.893 322
50.9 114.893 322
50.81 114.831 324
50.8 114.831 324
50.71 114.77 326
50.7 114.77 326
50.61 114.708 328
50.6 114.708 328
50.51 114.647 330
50.5 114.647 330
50.41 114.585 332
50.4 114.585 332
50.31 114.524 334
50.3 114.524 334
50.21 114.462 336
50.2 114.462 336
50.11 114.401 338
50.1 114.401 338
51.21 116.273 316
51.2 116.273 316
51.11 116.21 318
51.1 116.21 318
51.01 116.147 320
51 116.147 320
50.91 116.083 322
50.9 116.083 322
50.81 116.02 324
50.8 116.02 324
50.71 115.957 326
50.7 115.957 326
50.61 115.894 328
50.6 115.894 328
50.51 115.83 330
50.5 115.83 330
50.41 115.767 332
50.4 115.767 332
50.31 115.704 334
50.3 115.704 334
50.21 115.64 336
50.2 115.64 336
50.11 115.577 338
50.1 115.577 338
51.36 105.46 318
51.26 105.413 320
51.16 105.366 322
51.06 105.319 324
50.96 105.272 326
50.86 105.226 328
51.36 106.654 318
51.26 106.606 320
51.16 106.557 322
51.06 106.508 324
50.96 106.46 326
50.86 106.411 328
51.36 107.849 318
51.26 107.798 320
51.16 107.748 322
51.06 107.697 324
50.96 107.647 326
50.86 107.596 328
50.76 107.546 330
50.66 107.495 332
50.56 107.445 334
51.36 109.043 318
51.26 108.991 320
51.16 108.939 322
51.06 108.886 324
50.96 108.834 326
50.86 108.782 328
50.76 108.729 330
50.66 108.677 332
50.56 108.625 334
51.36 110.238 318
51.26 110.183 320
51.16 110.129 322
51.06 110.075 324
50.96 110.021 326
50.86 109.967 328
50.76 109.913 330
50.66 109.859 332
50.56 109.805 334
51.36 111.432 318
51.26 111.376 320
51.16 111.32 322
51.06 111.264 324
50.96 111.208 326
50.86 111.152 328
50.76 111.096 330
50.66 111.04 332
50.56 110.984 334
51.36 112.627 318
51.26 112.569 320
51.16 112.511 322
51.06 112.453 324
50.96 112.395 326
50.86 112.338 328
50.76 112.28 330
50.66 112.222 332
50.56 112.164 334
50.46 112.106 336
51.36 113.821 318
51.26 113.761 320
51.16 113.702 322
51.06 113.642 324
50.96 113.583 326
50.86 113.523 328
50.76 113.463 330
50.66 113.404 332
50.56 113.344 334
50.46 113.284 336
50.36 113.225 338
51.46 115.077 316
51.36 115.016 318
51.26 114.954 320
51.16 114.893 322
51.06 114.831 324
50.96 114.77 326
50.86 114.708 328
50.76 114.647 330
50.66 114.585 332
50.56 114.524 334
50.46 114.462 336
50.36 114.401 338
51.46 116.273 316
51.36 116.21 318
51.26 116.147 320
51.16 116.083 322
51.06 116.02 324
50.96 115.957 326
50.86 115.894 328
50.76 115.83 330
50.66 115.767 332
50.56 115.704 334
50.46 115.64 336
50.36 115.577 338
51.61 105.46 318
51.51 105.413 320
51.41 105.366 322
51.31 105.319 324
51.21 105.272 326
51.11 105.226 328
51.61 106.654 318
51.51 106.606 320
51.41 106.557 322
51.31 106.508 324
51.21 106.46 326
51.11 106.411 328
51.61 107.849 318
51.51 107.798 320
51.41 107.748 322
51.31 107.697 324
51.21 107.647 326
51.11 107.596 328
51.01 107.546 330
50.91 107.495 332
50.81 107.445 334
51.61 109.043 318
51.51 108.991 320
51.41 108.939 322
51.31 108.886 324
51.21 108.834 326
51.11 108.782 328
51.01 108.729 330
50.91 108.677 332
50.81 108.625 334
51.61 110.238 318
51.51 110.183 320
51.41 110.129 322
51.31 110.075 324
51.21 110.021 326
51.11 109.967 328
51.01 109.913 330
50.91 109.859 332
50.81 109.805 334
51.61 111.432 318
51.51 111.376 320
51.41 111.32 322
51.31 111.264 324
51.21 111.208 326
51.11 111.152 328
51.01 111.096 330
50.91 111.04 332
50.81 110.984 334
51.61 112.627 318
51.51 112.569 320
51.41 112.511 322
51.31 112.453 324
51.21 112.395 326
51.11 112.338 328
51.01 112.28 330
50.91 112.222 332
50.81 112.164 334
50.71 112.106 336
51.61 113.821 318
51.51 113.761 320
51.41 113.702 322
51.31 113.642 324
51.21 113.583 326
51.11 113.523 328
51.01 113.463 330
50.91 113.404 332
50.81 113.344 334
50.71 113.284 336
50.61 113.225 338
51.71 115.077 316
51.61 115.016 318
51.51 114.954 320
51.41 114.893 322
51.31 114.831 324
51.21 114.77 326
51.11 114.708 328
51.01 114.647 330
50.91 114.585 332
50.81 114.524 334
50.71 114.462 336
50.61 114.401 338
51.71 116.273 316
51.61 116.21 318
51.51 116.147 320
51.41 116.083 322
51.31 116.02 324
51.21 115.957 326
51.11 115.894 328
51.01 115.83 330
50.91 115.767 332
50.81 115.704 334
50.71 115.64 336
50.61 115.577 338
51.86 105.46 318
51.76 105.413 320
51.66 105.366 322
51.56 105.319 324
51.46 105.272 326
51.36 105.226 328
51.86 106.654 318
51.76 106.606 320
51.66 106.557 322
51.56 106.508 324
51.46 106.46 326
51.36 106.411 328
51.86 107.849 318
51.76 107.798 320
51.66 107.748 322
51.56 107.697 324
51.46 107.647 326
51.36 107.596 328
51.26 107.546 330
51.16 107.495 332
51.06 107.445 334
51.86 109.043 318
51.76 108.991 320
51.66 108.939 322
51.56 108.886 324
51.46 108.834 326
51.36 108.782 328
51.26 108.729 330
51.16 108.677 332
51.06 108.625 334
51.86 110.238 318
51.76 110.183 320
51.66 110.129 322
51.56 110.075 324
51.46 110.021 326
51.36 109.967 328
51.26 109.913 330
51.16 109.859 332
51.06 109.805 334
51.86 111.432 318
51.76 111.376 320
51.66 111.32 322
51.56 111.264 324
51.46 111.208 326
51.36 111.152 328
51.26 111.096 330
51.16 111.04 332
51.06 110.984 334
51.86 112.627 318
51.76 112.569 320
51.66 112.511 322
51.56 112.453 324
51.46 112.395 326
51.36 112.338 328
51.26 112.28 330
51.16 112.222 332
51.06 112.164 334
50.96 112.106 336
51.86 113.821 318
51.76 113.761 320
51.66 113.702 322
51.56 113.642 324
51.46 113.583 326
51.36 113.523 328
51.26 113.463 330
51.16 113.404 332
51.06 113.344 334
50.96 113.284 336
50.86 113.225 338
51.96 115.077 316
51.86 115.016 318
51.76 114.954 320
51.66 114.893 322
51.56 114.831 324
51.46 114.77 326
51.36 114.708 328
51.26 114.647 330
51.16 114.585 332
51.06 114.524 334
50.96 114.462 336
50.86 114.401 338
51.96 116.273 316
51.86 116.21 318
51.76 116.147 320
51.66 116.083 322
51.56 116.02 324
51.46 115.957 326
51.36 115.894 328
51.26 115.83 330
51.16 115.767 332
51.06 115.704 334
50.96 115.64 336
50.86 115.577 338
52.11 105.46 318
52.01 105.413 320
51.91 105.366 322
51.81 105.319 324
51.71 105.272 326
51.61 105.226 328
52.11 106.654 318
52.01 106.606 320
51.91 106.557 322
51.81 106.508 324
51.71 106.46 326
51.61 106.411 328
52.11 107.849 318
52.01 107.798 320
51.91 107.748 322
51.81 107.697 324
51.71 107.647 326
51.61 107.596 328
51.51 107.546 330
51.41 107.495 332
51.31 107.445 334
52.11 109.043 318
52.01 108.991 320
51.91 108.939 322
51.81 108.886 324
51.71 108.834 326
51.61 108.782 328
51.51 108.729 330
51.41 108.677 332
51.31 108.625 334
52.11 110.238 318
52.01 110.183 320
51.91 110.129 322
51.81 110.075 324
51.71 110.021 326
51.61 109.967 328
51.51 109.913 330
51.41 109.859 332
51.31 109.805 334
52.11 111.432 318
52.01 111.376 320
51.91 111.32 322
51.81 111.264 324
51.71 111.208 326
51.61 111.152 328
51.51 111.096 330
51.41 111.04 332
51.31 110.984 334
52.11 112.627 318
52.01 112.569 320
51.91 112.511 322
51.81 112.453 324
51.71 112.395 326
51.61 112.338 328
51.51 112.28 330
51.41 112.222 332
51.31 112.164 334
51.21 112.106 336
52.11 113.821 318
52.01 113.761 320
51.91 113.702 322
51.81 113.642 324
51.71 113.583 326
51.61 113.523 328
51.51 113.463 330
51.41 113.404 332
51.31 113.344 334
51.21 113.284 336
51.11 113.225 338
52.21 115.077 316
52.11 115.016 318
52.01 114.954 320
51.91 114.893 322
51.81 114.831 324
51.71 114.77 326
51.61 114.708 328
51.51 114.647 330
51.41 114.585 332
51.31 114.524 334
51.21 114.462 336
51.11 114.401 338
52.21 116.273 316
52.11 116.21 318
52.01 116.147 320
51.91 116.083 322
51.81 116.02 324
51.71 115.957 326
51.61 115.894 328
51.51 115.83 330
51.41 115.767 332
51.31 115.704 334
51.21 115.64 336
51.11 115.577 338
52.36 105.46 318
52.26 105.413 320
52.16 105.366 322
52.06 105.319 324
51.96 105.272 326
51.86 105.226 328
52.36 106.654 318
52.26 106.606 320
52.16 106.557 322
52.06 106.508 324
51.96 106.46 326
51.86 106.411 328
52.36 107.849 318
52.26 107.798 320
52.16 107.748 322
52.06 107.697 324
51.96 107.647 326
51.86 107.596 328
51.76 107.546 330
51.66 107.495 332
51.56 107.445 334
52.36 109.043 318
52.26 108.991 320
52.16 108.939 322
52.06 108.886 324
51.96 108.834 326
51.86 108.782 328
51.76 108.729 330
51.66 108.677 332
51.56 108.625 334
52.36 110.238 318
52.26 110.183 320
52.16 110.129 322
52.06 110.075 324
51.96 110.021 326
51.86 109.967 328
51.76 109.913 330
51.66 109.859 332
51.56 109.805 334
52.36 111.432 318
52.26 111.376 320
52.16 111.32 322
52.06 111.264 324
51.96 111.208 326
51.86 111.152 328
51.76 111.096 330
51.66 111.04 332
51.56 110.984 334
52.36 112.627 318
52.26 112.569 320
52.16 112.511 322
52.06 112.453 324
51.96 112.395 326
51.86 112.338 328
51.76 112.28 330
51.66 112.222 332
51.56 112.164 334
51.46 112.106 336
52.36 113.821 318
52.26 113.761 320
52.16 113.702 322
52.06 113.642 324
51.96 113.583 326
51.86 113.523 328
51.76 113.463 330
51.66 113.404 332
51.56 113.344 334
51.46 113.284 336
51.36 113.225 338
52.46 115.077 316
52.36 115.016 318
52.26 114.954 320
52.16 114.893 322
52.06 114.831 324
51.96 114.77 326
51.86 114.708 328
51.76 114.647 330
51.66 114.585 332
51.56 114.524 334
51.46 114.462 336
51.36 114.401 338
52.46 116.273 316
52.36 116.21 318
52.26 116.147 320
52.16 116.083 322
52.06 116.02 324
51.96 115.957 326
51.86 115.894 328
51.76 115.83 330
51.66 115.767 332
51.56 115.704 334
51.46 115.64 336
51.36 115.577 338
52.61 105.46 318
52.51 105.413 320
52.41 105.366 322
52.31 105.319 324
52.21 105.272 326
52.11 105.226 328
52.61 106.654 318
52.51 106.606 320
52.41 106.557 322
52.31 106.508 324
52.21 106.46 326
52.11 106.411 328
52.61 107.849 318
52.51 107.798 320
52.41 107.748 322
52.31 107.697 324
52.21 107.647 326
52.11 107.596 328
52.01 107.546 330
51.91 107.495 332
51.81 107.445 334
52.61 109.043 318
52.51 108.991 320
52.41 108.939 322
52.31 108.886 324
52.21 108.834 326
52.11 108.782 328
52.01 108.729 330
51.91 108.677 332
51.81 108.625 334
52.61 110.238 318
52.51 110.183 320
52.41 110.129 322
52.31 110.075 324
52.21 110.021 326
52.11 109.967 328
52.01 109.913 330
51.91 109.859 332
51.81 109.805 334
52.61 111.432 318
52.51 111.376 320
52.41 111.32 322
52.31 111.264 324
52.21 111.208 326
52.11 111.152 328
52.01 111.096 330
51.91 111.04 332
51.81 110.984 334
52.61 112.627 318
52.51 112.569 320
52.41 112.511 322
52.31 112.453 324
52.21 112.395 326
52.11 112.338 328
52.01 112.28 330
51.91 112.222 332
51.81 112.164 334
51.71 112.106 336
52.61 113.821 318
52.51 113.761 320
52.41 113.702 322
52.31 113.642 324
52.21 113.583 326
52.11 113.523 328
52.01 113.463 330
51.91 113.404 332
51.81 113.344 334
51.71 113.284 336
51.61 113.225 338
52.71 115.077 316
52.61 115.016 318
52.51 114.954 320
52.41 114.893 322
52.31 114.831 324
52.21 114.77 326
52.11 114.708 328
52.01 114.647 330
51.91 114.585 332
51.81 114.524 334
51.71 114.462 336
51.61 114.401 338
52.71 116.273 316
52.61 116.21 318
52.51 116.147 320
52.41 116.083 322
52.31 116.02 324
52.21 115.957 326
52.11 115.894 328
52.01 115.83 330
51.91 115.767 332
51.81 115.704 334
51.71 115.64 336
51.61 115.577 338
52.86 105.46 318
52.76 105.413 320
52.66 105.366 322
52.56 105.319 324
52.46 105.272 326
52.36 105.226 328
52.86 106.654 318
52.76 106.606 320
52.66 106.557 322
52.56 106.508 324
52.46 106.46 326
52.36 106.411 328
52.86 107.849 318
52.76 107.798 320
52.66 107.748 322
52.56 107.697 324
52.46 107.647 326
52.36 107.596 328
52.26 107.546 330
52.16 107.495 332
52.06 107.445 334
52.86 109.043 318
52.76 108.991 320
52.66 108.939 322
52.56 108.886 324
52.46 108.834 326
52.36 108.782 328
52.26 108.729 330
52.16 108.677 332
52.06 108.625 334
52.86 110.238 318
52.76 110.183 320
52.66 110.129 322
52.56 110.075 324
52.46 110.021 326
52.36 109.967 328
52.26 109.913 330
52.16 109.859 332
52.06 109.805 334
52.86 111.432 318
52.76 111.376 320
52.66 111.32 322
52.56 111.264 324
52.46 111.208 326
52.36 111.152 328
52.26 111.096 330
52.16 111.04 332
52.06 110.984 334
52.86 112.627 318
52.76 112.569 320
52.66 112.511 322
52.56 112.453 324
52.46 112.395 326
52.36 112.338 328
52.26 112.28 330
52.16 112.222 332
52.06 112.164 334
51.96 112.106 336
52.86 113.821 318
52.76 113.761 320
52.66 113.702 322
52.56 113.642 324
52.46 113.583 326
52.36 113.523 328
52.26 113.463 330
52.16 113.404 332
52.06 113.344 334
51.96 113.284 336
51.86 113.225 338
52.96 115.077 316
52.86 115.016 318
52.76 114.954 320
52.66 114.893 322
52.56 114.831 324
52.46 114.77 326
52.36 114.708 328
52.26 114.647 330
52.16 114.585 332
52.06 114.524 334
51.96 114.462 336
51.86 114.401 338
52.96 116.273 316
52.86 116.21 318
52.76 116.147 320
52.66 116.083 322
52.56 116.02 324
52.46 115.957 326
52.36 115.894 328
52.26 115.83 330
52.16 115.767 332
52.06 115.704 334
51.96 115.64 336
51.86 115.577 338
53.11 105.46 318
53.01 105.413 320
52.91 105.366 322
52.81 105.319 324
52.71 105.272 326
52.61 105.226 328
53.11 106.654 318
53.01 106.606 320
52.91 106.557 322
52.81 106.508 324
52.71 106.46 326
52.61 106.411 328
53.11 107.849 318
53.01 107.798 320
52.91 107.748 322
52.81 107.697 324
52.71 107.647 326
52.61 107.596 328
52.51 107.546 330
52.41 107.495 332
52.31 107.445 334
53.11 109.043 318
53.01 108.991 320
52.91 108.939 322
52.81 108.886 324
52.71 108.834 326
52.61 108.782 328
52.51 108.729 330
52.41 108.677 332
52.31 108.625 334
53.11 110.238 318
53.01 110.183 320
52.91 110.129 322
52.81 110.075 324
52.71 110.021 326
52.61 109.967 328
52.51 109.913 330
52.41 109.859 332
52.31 109.805 334
53.11 111.432 318
53.01 111.376 320
52.91 111.32 322
52.81 111.264 324
52.71 111.208 326
52.61 111.152 328
52.51 111.096 330
52.41 111.04 332
52.31 110.984 334
53.11 112.627 318
53.01 112.569 320
52.91 112.511 322
52.81 112.453 324
52.71 112.395 326
52.61 112.338 328
52.51 112.28 330
52.41 112.222 332
52.31 112.164 334
52.21 112.106 336
53.11 113.821 318
53.01 113.761 320
52.91 113.702 322
52.81 113.642 324
52.71 113.583 326
52.61 113.523 328
52.51 113.463 330
52.41 113.404 332
52.31 113.344 334
52.21 113.284 336
52.11 113.225 338
53.21 115.077 316
53.11 115.016 318
53.01 114.954 320
52.91 114.893 322
52.81 114.831 324
52.71 114.77 326
52.61 114.708 328
52.51 114.647 330
52.41 114.585 332
52.31 114.524 334
52.21 114.462 336
52.11 114.401 338
53.21 116.273 316
53.11 116.21 318
53.01 116.147 320
52.91 116.083 322
52.81 116.02 324
52.71 115.957 326
52.61 115.894 328
52.51 115.83 330
52.41 115.767 332
52.31 115.704 334
52.21 115.64 336
52.11 115.577 338
53.36 105.46 318
53.26 105.413 320
53.16 105.366 322
53.06 105.319 324
52.96 105.272 326
52.86 105.226 328
53.36 106.654 318
53.26 106.606 320
53.16 106.557 322
53.06 106.508 324
52.96 106.46 326
52.86 106.411 328
53.36 107.849 318
53.26 107.798 320
53.16 107.748 322
53.06 107.697 324
52.96 107.647 326
52.86 107.596 328
52.76 107.546 330
52.66 107.495 332
52.56 107.445 334
53.36 109.043 318
53.26 108.991 320
53.16 108.939 322
53.06 108.886 324
52.96 108.834 326
52.86 108.782 328
52.76 108.729 330
52.66 108.677 332
52.56 108.625 334
53.36 110.238 318
53.26 110.183 320
53.16 110.129 322
53.06 110.075 324
52.96 110.021 326
52.86 109.967 328
52.76 109.913 330
52.66 109.859 332
52.56 109.805 334
53.36 111.432 318
53.26 111.376 320
53.16 111.32 322
53.06 111.264 324
52.96 111.208 326
52.86 111.152 328
52.76 111.096 330
52.66 111.04 332
52.56 110.984 334
53.36 112.627 318
53.26 112.569 320
53.16 112.511 322
53.06 112.453 324
52.96 112.395 326
52.86 112.338 328
52.76 112.28 330
52.66 112.222 332
52.56 112.164 334
52.46 112.106 336
53.36 113.821 318
53.26 113.761 320
53.16 113.702 322
53.06 113.642 324
52.96 113.583 326
52.86 113.523 328
52.76 113.463 330
52.66 113.404 332
52.56 113.344 334
52.46 113.284 336
52.36 113.225 338
53.46 115.077 316
53.36 115.016 318
53.26 114.954 320
53.16 114.893 322
53.06 114.831 324
52.96 114.77 326
52.86 114.708 328
52.76 114.647 330
52.66 114.585 332
52.56 114.524 334
52.46 114.462 336
52.36 114.401 338
53.46 116.273 316
53.36 116.21 318
53.26 116.147 320
53.16 116.083 322
53.06 116.02 324
52.96 115.957 326
52.86 115.894 328
52.76 115.83 330
52.66 115.767 332
52.56 115.704 334
52.46 115.64 336
52.36 115.577 338
53.37 105.46 318
53.27 105.413 320
53.17 105.366 322
53.07 105.319 324
52.97 105.272 326
52.87 105.226 328
53.37 106.654 318
53.27 106.606 320
53.17 106.557 322
53.07 106.508 324
52.97 106.46 326
52.87 106.411 328
53.37 107.849 318
53.27 107.798 320
53.17 107.748 322
53.07 107.697 324
52.97 107.647 326
52.87 107.596 328
52.77 107.546 330
52.67 107.495 332
52.57 107.445 334
53.37 109.043 318
53.27 108.991 320
53.17 108.939 322
53.07 108.886 324
52.97 108.834 326
52.87 108.782 328
52.77 108.729 330
52.67 108.677 332
52.57 108.625 334
53.37 110.238 318
53.27 110.183 320
53.17 110.129 322
53.07 110.075 324
52.97 110.021 326
52.87 109.967 328
52.77 109.913 330
52.67 109.859 332
52.57 109.805 334
53.37 111.432 318
53.27 111.376 320
53.17 111.32 322
53.07 111.264 324
52.97 111.208 326
52.87 111.152 328
52.77 111.096 330
52.67 111.04 332
52.57 110.984 334
53.37 112.627 318
53.27 112.569 320
53.17 112.511 322
53.07 112.453 324
52.97 112.395 326
52.87 112.338 328
52.77 112.28 330
52.67 112.222 332
52.57 112.164 334
52.47 112.106 336
53.37 113.821 318
53.27 113.761 320
53.17 113.702 322
53.07 113.642 324
52.97 113.583 326
52.87 113.523 328
52.77 113.463 330
52.67 113.404 332
52.57 113.344 334
52.47 113.284 336
52.37 113.225 338
53.47 115.077 316
53.37 115.016 318
53.27 114.954 320
53.17 114.893 322
53.07 114.831 324
52.97 114.77 326
52.87 114.708 328
52.77 114.647 330
52.67 114.585 332
52.57 114.524 334
52.47 114.462 336
52.37 114.401 338
53.47 116.273 316
53.37 116.21 318
53.27 116.147 320
53.17 116.083 322
53.07 116.02 324
52.97 115.957 326
52.87 115.894 328
52.77 115.83 330
52.67 115.767 332
52.57 115.704 334
52.47 115.64 336
52.37 115.577 338
53.62 105.46 318
53.52 105.413 320
53.42 105.366 322
53.32 105.319 324
53.22 105.272 326
53.12 105.226 328
53.62 106.654 318
53.52 106.606 320
53.42 106.557 322
53.32 106.508 324
53.22 106.46 326
53.12 106.411 328
53.62 107.849 318
53.52 107.798 320
53.42 107.748 322
53.32 107.697 324
53.22 107.647 326
53.12 107.596 328
53.02 107.546 330
52.92 107.495 332
52.82 107.445 334
53.62 109.043 318
53.52 108.991 320
53.42 108.939 322
53.32 108.886 324
53.22 108.834 326
53.12 108.782 328
53.02 108.729 330
52.92 108.677 332
52.82 108.625 334
53.62 110.238 318
53.52 110.183 320
53.42 110.129 322
53.32 110.075 324
53.22 110.021 326
53.12 109.967 328
53.02 109.913 330
52.92 109.859 332
52.82 109.805 334
53.62 111.432 318
53.52 111.376 320
53.42 111.32 322
53.32 111.264 324
53.22 111.208 326
53.12 111.152 328
53.02 111.096 330
52.92 111.04 332
52.82 110.984 334
53.62 112.627 318
53.52 112.569 320
53.42 112.511 322
53.32 112.453 324
53.22 112.395 326
53.12 112.338 328
53.02 112.28 330
52.92 112.222 332
52.82 112.164 334
52.72 112.106 336
53.62 113.821 318
53.52 113.761 320
53.42 113.702 322
53.32 113.642 324
53.22 113.583 326
53.12 113.523 328
53.02 113.463 330
52.92 113.404 332
52.82 113.344 334
52.72 113.284 336
52.62 113.225 338
53.72 115.077 316
53.62 115.016 318
53.52 114.954 320
53.42 114.893 322
53.32 114.831 324
53.22 114.77 326
53.12 114.708 328
53.02 114.647 330
52.92 114.585 332
52.82 114.524 334
52.72 114.462 336
52.62 114.401 338
53.72 116.273 316
53.62 116.21 318
53.52 116.147 320
53.42 116.083 322
53.32 116.02 324
53.22 115.957 326
53.12 115.894 328
53.02 115.83 330
52.92 115.767 332
52.82 115.704 334
52.72 115.64 336
52.62 115.577 338
53.87 105.46 318
53.77 105.413 320
53.67 105.366 322
53.57 105.319 324
53.47 105.272 326
53.37 105.226 328
53.87 106.654 318
53.77 106.606 320
53.67 106.557 322
53.57 106.508 324
53.47 106.46 326
53.37 106.411 328
53.87 107.849 318
53.77 107.798 320
53.67 107.748 322
53.57 107.697 324
53.47 107.647 326
53.37 107.596 328
53.27 107.546 330
53.17 107.495 332
53.07 107.445 334
53.87 109.043 318
53.77 108.991 320
53.67 108.939 322
53.57 108.886 324
53.47 108.834 326
53.37 108.782 328
53.27 108.729 330
53.17 108.677 332
53.07 108.625 334
53.87 110.238 318
53.77 110.183 320
53.67 110.129 322
53.57 110.075 324
53.47 110.021 326
53.37 109.967 328
53.27 109.913 330
53.17 109.859 332
53.07 109.805 334
53.87 111.432 318
53.77 111.376 320
53.67 111.32 322
53.57 111.264 324
53.47 111.208 326
53.37 111.152 328
53.27 111.096 330
53.17 111.04 332
53.07 110.984 334
53.87 112.627 318
53.77 112.569 320
53.67 112.511 322
53.57 112.453 324
53.47 112.395 326
53.37 112.338 328
53.27 112.28 330
53.17 112.222 332
53.07 112.164 334
52.97 112.106 336
53.87 113.821 318
53.77 113.761 320
53.67 113.702 322
53.57 113.642 324
53.47 113.583 326
53.37 113.523 328
53.27 113.463 330
53.17 113.404 332
53.07 113.344 334
52.97 113.284 336
52.87 113.225 338
53.97 115.077 316
53.87 115.016 318
53.77 114.954 320
53.67 114.893 322
53.57 114.831 324
53.47 114.77 326
53.37 114.708 328
53.27 114.647 330
53.17 114.585 332
53.07 114.524 334
52.97 114.462 336
52.87 114.401 338
53.97 116.273 316
53.87 116.21 318
53.77 116.147 320
53.67 116.083 322
53.57 116.02 324
53.47 115.957 326
53.37 115.894 328
53.27 115.83 330
53.17 115.767 332
53.07 115.704 334
52.97 115.64 336
52.87 115.577 338
54.12 105.46 318
54.02 105.413 320
53.92 105.366 322
53.82 105.319 324
53.72 105.272 326
53.62 105.226 328
54.12 106.654 318
54.02 106.606 320
53.92 106.557 322
53.82 106.508 324
53.72 106.46 326
53.62 106.411 328
54.12 107.849 318
54.02 107.798 320
53.92 107.748 322
53.82 107.697 324
53.72 107.647 326
53.62 107.596 328
53.52 107.546 330
53.42 107.495 332
53.32 107.445 334
54.12 109.043 318
54.02 108.991 320
53.92 108.939 322
53.82 108.886 324
53.72 108.834 326
53.62 108.782 328
53.52 108.729 330
53.42 108.677 332
53.32 108.625 334
54.12 110.238 318
54.02 110.183 320
53.92 110.129 322
53.82 110.075 324
53.72 110.021 326
53.62 109.967 328
53.52 109.913 330
53.42 109.859 332
53.32 109.805 334
54.12 111.432 318
54.02 111.376 320
53.92 111.32 322
53.82 111.264 324
53.72 111.208 326
53.62 111.152 328
53.52 111.096 330
53.42 111.04 332
53.32 110.984 334
54.12 112.627 318
54.02 112.569 320
53.92 112.511 322
53.82 112.453 324
53.72 112.395 326
53.62 112.338 328
53.52 112.28 330
53.42 112.222 332
53.32 112.164 334
53.22 112.106 336
54.12 113.821 318
54.02 113.761 320
53.92 113.702 322
53.82 113.642 324
53.72 113.583 326
53.62 113.523 328
53.52 113.463 330
53.42 113.404 332
53.32 113.344 334
53.22 113.284 336
53.12 113.225 338
54.22 115.077 316
54.12 115.016 318
54.02 114.954 320
53.92 114.893 322
53.82 114.831 324
53.72 114.77 326
53.62 114.708 328
53.52 114.647 330
53.42 114.585 332
53.32 114.524 334
53.22 114.462 336
53.12 114.401 338
54.22 116.273 316
54.12 116.21 318
54.02 116.147 320
53.92 116.083 322
53.82 116.02 324
53.72 115.957 326
53.62 115.894 328
53.52 115.83 330
53.42 115.767 332
53.32 115.704 334
53.22 115.64 336
53.12 115.577 338
54.37 105.46 318
54.27 105.413 320
54.17 105.366 322
54.07 105.319 324
53.97 105.272 326
53.87 105.226 328
54.37 106.654 318
54.27 106.606 320
54.17 106.557 322
54.07 106.508 324
53.97 106.46 326
53.87 106.411 328
54.37 107.849 318
54.27 107.798 320
54.17 107.748 322
54.07 107.697 324
53.97 107.647 326
53.87 107.596 328
53.77 107.546 330
53.67 107.495 332
53.57 107.445 334
54.37 109.043 318
54.27 108.991 320
54.17 108.939 322
54.07 108.886 324
53.97 108.834 326
53.87 108.782 328
53.77 108.729 330
53.67 108.677 332
53.57 108.625 334
54.37 110.238 318
54.27 110.183 320
54.17 110.129 322
54.07 110.075 324
53.97 110.021 326
53.87 109.967 328
53.77 109.913 330
53.67 109.859 332
53.57 109.805 334
54.37 111.432 318
54.27 111.376 320
54.17 111.32 322
54.07 111.264 324
53.97 111.208 326
53.87 111.152 328
53.77 111.096 330
53.67 111.04 332
53.57 110.984 334
54.37 112.627 318
54.27 112.569 320
54.17 112.511 322
54.07 112.453 324
53.97 112.395 326
53.87 112.338 328
53.77 112.28 330
53.67 112.222 332
53.57 112.164 334
53.47 112.106 336
54.37 113.821 318
54.27 113.761 320
54.17 113.702 322
54.07 113.642 324
53.97 113.583 326
53.87 113.523 328
53.77 113.463 330
53.67 113.404 332
53.57 113.344 334
53.47 113.284 336
53.37 113.225 338
54.47 115.077 316
54.37 115.016 318
54.27 114.954 320
54.17 114.893 322
54.07 114.831 324
53.97 114.77 326
53.87 114.708 328
53.77 114.647 330
53.67 114.585 332
53.57 114.524 334
53.47 114.462 336
53.37 114.401 338
54.47 116.273 316
54.37 116.21 318
54.27 116.147 320
54.17 116.083 322
54.07 116.02 324
53.97 115.957 326
53.87 115.894 328
53.77 115.83 330
53.67 115.767 332
53.57 115.704 334
53.47 115.64 336
53.37 115.577 338
54.62 105.46 318
54.52 105.413 320
54.42 105.366 322
54.32 105.319 324
54.22 105.272 326
54.12 105.226 328
54.62 106.654 318
54.52 106.606 320
54.42 106.557 322
54.32 106.508 324
54.22 106.46 326
54.12 106.411 328
54.62 107.849 318
54.52 107.798 320
54.42 107.748 322
54.32 107.697 324
54.22 107.647 326
54.12 107.596 328
54.02 107.546 330
53.92 107.495 332
53.82 107.445 334
54.62 109.043 318
54.52 108.991 320
54.42 108.939 322
54.32 108.886 324
54.22 108.834 326
54.12 108.782 328
54.02 108.729 330
53.92 108.677 332
53.82 108.625 334
54.62 110.238 318
54.52 110.183 320
54.42 110.129 322
54.32 110.075 324
54.22 110.021 326
54.12 109.967 328
54.02 109.913 330
53.92 109.859 332
53.82 109.805 334
54.62 111.432 318
54.52 111.376 320
54.42 111.32 322
54.32 111.264 324
54.22 111.208 326
54.12 111.152 328
54.02 111.096 330
53.92 111.04 332
53.82 110.984 334
54.62 112.627 318
54.52 112.569 320
54.42 112.511 322
54.32 112.453 324
54.22 112.395 326
54.12 112.338 328
54.02 112.28 330
53.92 112.222 332
53.82 112.164 334
53.72 112.106 336
54.62 113.821 318
54.52 113.761 320
54.42 113.702 322
54.32 113.642 324
54.22 113.583 326
54.12 113.523 328
54.02 113.463 330
53.92 113.404 332
53.82 113.344 334
53.72 113.284 336
53.62 113.225 338
54.72 115.077 316
54.62 115.016 318
54.52 114.954 320
54.42 114.893 322
54.32 114.831 324
54.22 114.77 326
54.12 114.708 328
54.02 114.647 330
53.92 114.585 332
53.82 114.524 334
53.72 114.462 336
53.62 114.401 338
54.72 116.273 316
54.62 116.21 318
54.52 116.147 320
54.42 116.083 322
54.32 116.02 324
54.22 115.957 326
54.12 115.894 328
54.02 115.83 330
53.92 115.767 332
53.82 115.704 334
53.72 115.64 336
53.62 115.577 338
54.87 105.46 318
54.77 105.413 320
54.67 105.366 322
54.57 105.319 324
54.47 105.272 326
54.37 105.226 328
54.87 106.654 318
54.77 106.606 320
54.67 106.557 322
54.57 106.508 324
54.47 106.46 326
54.37 106.411 328
54.87 107.849 318
54.77 107.798 320
54.67 107.748 322
54.57 107.697 324
54.47 107.647 326
54.37 107.596 328
54.27 107.546 330
54.17 107.495 332
54.07 107.445 334
54.87 109.043 318
54.77 108.991 320
54.67 108.939 322
54.57 108.886 324
54.47 108.834 326
54.37 108.782 328
54.27 108.729 330
54.17 108.677 332
54.07 108.625 334
54.87 110.238 318
54.77 110.183 320
54.67 110.129 322
54.57 110.075 324
54.47 110.021 326
54.37 109.967 328
54.27 109.913 330
54.17 109.859 332
54.07 109.805 334
54.87 111.432 318
54.77 111.376 320
54.67 111.32 322
54.57 111.264 324
54.47 111.208 326
54.37 111.152 328
54.27 111.096 330
54.17 111.04 332
54.07 110.984 334
54.87 112.627 318
54.77 112.569 320
54.67 112.511 322
54.57 112.453 324
54.47 112.395 326
54.37 112.338 328
54.27 112.28 330
54.17 112.222 332
54.07 112.164 334
53.97 112.106 336
54.87 113.821 318
54.77 113.761 320
54.67 113.702 322
54.57 113.642 324
54.47 113.583 326
54.37 113.523 328
54.27 113.463 330
54.17 113.404 332
54.07 113.344 334
53.97 113.284 336
53.87 113.225 338
54.97 115.077 316
54.87 115.016 318
54.77 114.954 320
54.67 114.893 322
54.57 114.831 324
54.47 114.77 326
54.37 114.708 328
54.27 114.647 330
54.17 114.585 332
54.07 114.524 334
53.97 114.462 336
53.87 114.401 338
54.97 116.273 316
54.87 116.21 318
54.77 116.147 320
54.67 116.083 322
54.57 116.02 324
54.47 115.957 326
54.37 115.894 328
54.27 115.83 330
54.17 115.767 332
54.07 115.704 334
53.97 115.64 336
53.87 115.577 338
55.12 105.46 318
55.02 105.413 320
54.92 105.366 322
54.82 105.319 324
54.72 105.272 326
54.62 105.226 328
55.12 106.654 318
55.02 106.606 320
54.92 106.557 322
54.82 106.508 324
54.72 106.46 326
54.62 106.411 328
55.12 107.849 318
55.02 107.798 320
54.92 107.748 322
54.82 107.697 324
54.72 107.647 326
54.62 107.596 328
54.52 107.546 330
54.42 107.495 332
54.32 107.445 334
55.12 109.043 318
55.02 108.991 320
54.92 108.939 322
54.82 108.886 324
54.72 108.834 326
54.62 108.782 328
54.52 108.729 330
54.42 108.677 332
54.32 108.625 334
55.12 110.238 318
55.02 110.183 320
54.92 110.129 322
54.82 110.075 324
54.72 110.021 326
54.62 109.967 328
54.52 109.913 330
54.42 109.859 332
54.32 109.805 334
55.12 111.432 318
55.02 111.376 320
54.92 111.32 322
54.82 111.264 324
54.72 111.208 326
54.62 111.152 328
54.52 111.096 330
54.42 111.04 332
54.32 110.984 334
55.12 112.627 318
55.02 112.569 320
54.92 112.511 322
54.82 112.453 324
54.72 112.395 326
54.62 112.338 328
54.52 112.28 330
54.42 112.222 332
54.32 112.164 334
54.22 112.106 336
55.12 113.821 318
55.02 113.761 320
54.92 113.702 322
54.82 113.642 324
54.72 113.583 326
54.62 113.523 328
54.52 113.463 330
54.42 113.404 332
54.32 113.344 334
54.22 113.284 336
54.12 113.225 338
55.22 115.077 316
55.12 115.016 318
55.02 114.954 320
54.92 114.893 322
54.82 114.831 324
54.72 114.77 326
54.62 114.708 328
54.52 114.647 330
54.42 114.585 332
54.32 114.524 334
54.22 114.462 336
54.12 114.401 338
55.22 116.273 316
55.12 116.21 318
55.02 116.147 320
54.92 116.083 322
54.82 116.02 324
54.72 115.957 326
54.62 115.894 328
54.52 115.83 330
54.42 115.767 332
54.32 115.704 334
54.22 115.64 336
54.12 115.577 338
55.13 105.46 318
55.03 105.413 320
54.93 105.366 322
54.83 105.319 324
54.73 105.272 326
54.63 105.226 328
55.13 106.654 318
55.03 106.606 320
54.93 106.557 322
54.83 106.508 324
54.73 106.46 326
54.63 106.411 328
55.13 107.849 318
55.03 107.798 320
54.93 107.748 322
54.83 107.697 324
54.73 107.647 326
54.63 107.596 328
54.53 107.546 330
54.43 107.495 332
54.33 107.445 334
55.13 109.043 318
55.03 108.991 320
54.93 108.939 322
54.83 108.886 324
54.73 108.834 326
54.63 108.782 328
54.53 108.729 330
54.43 108.677 332
54.33 108.625 334
55.13 110.238 318
55.03 110.183 320
54.93 110.129 322
54.83 110.075 324
54.73 110.021 326
54.63 109.967 328
54.53 109.913 330
54.43 109.859 332
54.33 109.805 334
55.13 111.432 318
55.03 111.376 320
54.93 111.32 322
54.83 111.264 324
54.73 111.208 326
54.63 111.152 328
54.53 111.096 330
54.43 111.04 332
54.33 110.984 334
55.13 112.627 318
55.03 112.569 320
54.93 112.511 322
54.83 112.453 324
54.73 112.395 326
54.63 112.338 328
54.53 112.28 330
54.43 112.222 332
54.33 112.164 334
54.23 112.106 336
55.13 113.821 318
55.03 113.761 320
54.93 113.702 322
54.83 113.642 324
54.73 113.583 326
54.63 113.523 328
54.53 113.463 330
54.43 113.404 332
54.33 113.344 334
54.23 113.284 336
54.13 113.225 338
55.23 115.077 316
55.13 115.016 318
55.03 114.954 320
54.93 114.893 322
54.83 114.831 324
54.73 114.77 326
54.63 114.708 328
54.53 114.647 330
54.43 114.585 332
54.33 114.524 334
54.23 114.462 336
54.13 114.401 338
55.23 116.273 316
55.13 116.21 318
55.03 116.147 320
54.93 116.083 322
54.83 116.02 324
54.73 115.957 326
54.63 115.894 328
54.53 115.83 330
54.43 115.767 332
54.33 115.704 334
54.23 115.64 336
54.13 115.577 338
55.38 105.46 318
55.28 105.413 320
55.18 105.366 322
55.08 105.319 324
54.98 105.272 326
54.88 105.226 328
55.38 106.654 318
55.28 106.606 320
55.18 106.557 322
55.08 106.508 324
54.98 106.46 326
54.88 106.411 328
55.38 107.849 318
55.28 107.798 320
55.18 107.748 322
55.08 107.697 324
54.98 107.647 326
54.88 107.596 328
54.78 107.546 330
54.68 107.495 332
54.58 107.445 334
55.38 109.043 318
55.28 108.991 320
55.18 108.939 322
55.08 108.886 324
54.98 108.834 326
54.88 108.782 328
54.78 108.729 330
54.68 108.677 332
54.58 108.625 334
55.38 110.238 318
55.28 110.183 320
55.18 110.129 322
55.08 110.075 324
54.98 110.021 326
54.88 109.967 328
54.78 109.913 330
54.68 109.859 332
54.58 109.805 334
55.38 111.432 318
55.28 111.376 320
55.18 111.32 322
55.08 111.264 324
54.98 111.208 326
54.88 111.152 328
54.78 111.096 330
54.68 111.04 332
54.58 110.984 334
55.38 112.627 318
55.28 112.569 320
55.18 112.511 322
55.08 112.453 324
54.98 112.395 326
54.88 112.338 328
54.78 112.28 330
54.68 112.222 332
54.58 112.164 334
54.48 112.106 336
55.38 113.821 318
55.28 113.761 320
55.18 113.702 322
55.08 113.642 324
54.98 113.583 326
54.88 113.523 328
54.78 113.463 330
54.68 113.404 332
54.58 113.344 334
54.48 113.284 336
54.38 113.225 338
55.48 115.077 316
55.38 115.016 318
55.28 114.954 320
55.18 114.893 322
55.08 114.831 324
54.98 114.77 326
54.88 114.708 328
54.78 114.647 330
54.68 114.585 332
54.58 114.524 334
54.48 114.462 336
54.38 114.401 338
55.48 116.273 316
55.38 116.21 318
55.28 116.147 320
55.18 116.083 322
55.08 116.02 324
54.98 115.957 326
54.88 115.894 328
54.78 115.83 330
54.68 115.767 332
54.58 115.704 334
54.48 115.64 336
54.38 115.577 338
55.39 105.46 318
55.29 105.413 320
55.19 105.366 322
55.09 105.319 324
54.99 105.272 326
54.89 105.226 328
55.39 106.654 318
55.29 106.606 320
55.19 106.557 322
55.09 106.508 324
54.99 106.46 326
54.89 106.411 328
55.39 107.849 318
55.29 107.798 320
55.19 107.748 322
55.09 107.697 324
54.99 107.647 326
54.89 107.596 328
54.79 107.546 330
54.69 107.495 332
54.59 107.445 334
55.39 109.043 318
55.29 108.991 320
55.19 108.939 322
55.09 108.886 324
54.99 108.834 326
54.89 108.782 328
54.79 108.729 330
54.69 108.677 332
54.59 108.625 334
55.39 110.238 318
55.29 110.183 320
55.19 110.129 322
55.09 110.075 324
54.99 110.021 326
54.89 109.967 328
54.79 109.913 330
54.69 109.859 332
54.59 109.805 334
55.39 111.432 318
55.29 111.376 320
55.19 111.32 322
55.09 111.264 324
54.99 111.208 326
54.89 111.152 328
54.79 111.096 330
54.69 111.04 332
54.59 110.984 334
55.39 112.627 318
55.29 112.569 320
55.19 112.511 322
55.09 112.453 324
54.99 112.395 326
54.89 112.338 328
54.79 112.28 330
54.69 112.222 332
54.59 112.164 334
54.49 112.106 336
55.39 113.821 318
55.29 113.761 320
55.19 113.702 322
55.09 113.642 324
54.99 113.583 326
54.89 113.523 328
54.79 113.463 330
54.69 113.404 332
54.59 113.344 334
54.49 113.284 336
54.39 113.225 338
55.49 115.077 316
55.39 115.016 318
55.29 114.954 320
55.19 114.893 322
55.09 114.831 324
54.99 114.77 326
54.89 114.708 328
54.79 114.647 330
54.69 114.585 332
54.59 114.524 334
54.49 114.462 336
54.39 114.401 338
55.49 116.273 316
55.39 116.21 318
55.29 116.147 320
55.19 116.083 322
55.09 116.02 324
54.99 115.957 326
54.89 115.894 328
54.79 115.83 330
54.69 115.767 332
54.59 115.704 334
54.49 115.64 336
54.39 115.577 338
55.64 105.46 318
55.54 105.413 320
55.44 105.366 322
55.34 105.319 324
55.24 105.272 326
55.14 105.226 328
55.64 106.654 318
55.54 106.606 320
55.44 106.557 322
55.34 106.508 324
55.24 106.46 326
55.14 106.411 328
55.64 107.849 318
55.54 107.798 320
55.44 107.748 322
55.34 107.697 324
55.24 107.647 326
55.14 107.596 328
55.04 107.546 330
54.94 107.495 332
54.84 107.445 334
55.64 109.043 318
55.54 108.991 320
55.44 108.939 322
55.34 108.886 324
55.24 108.834 326
55.14 108.782 328
55.04 108.729 330
54.94 108.677 332
54.84 108.625 334
55.64 110.238 318
55.54 110.183 320
55.44 110.129 322
55.34 110.075 324
55.24 110.021 326
55.14 109.967 328
55.04 109.913 330
54.94 109.859 332
54.84 109.805 334
55.64 111.432 318
55.54 111.376 320
55.44 111.32 322
55.34 111.264 324
55.24 111.208 326
55.14 111.152 328
55.04 111.096 330
54.94 111.04 332
54.84 110.984 334
55.64 112.627 318
55.54 112.569 320
55.44 112.511 322
55.34 112.453 324
55.24 112.395 326
55.14 112.338 328
55.04 112.28 330
54.94 112.222 332
54.84 112.164 334
54.74 112.106 336
55.64 113.821 318
55.54 113.761 320
55.44 113.702 322
55.34 113.642 324
55.24 113.583 326
55.14 113.523 328
55.04 113.463 330
54.94 113.404 332
54.84 113.344 334
54.74 113.284 336
54.64 113.225 338
55.74 115.077 316
55.64 115.016 318
55.54 114.954 320
55.44 114.893 322
55.34 114.831 324
55.24 114.77 326
55.14 114.708 328
55.04 114.647 330
54.94 114.585 332
54.84 114.524 334
54.74 114.462 336
54.64 114.401 338
55.74 116.273 316
55.64 116.21 318
55.54 116.147 320
55.44 116.083 322
55.34 116.02 324
55.24 115.957 326
55.14 115.894 328
55.04 115.83 330
54.94 115.767 332
54.84 115.704 334
54.74 115.64 336
54.64 115.577 338
55.89 105.46 318
55.79 105.413 320
55.69 105.366 322
55.59 105.319 324
55.49 105.272 326
55.39 105.226 328
55.89 106.654 318
55.79 106.606 320
55.69 106.557 322
55.59 106.508 324
55.49 106.46 326
55.39 106.411 328
55.89 107.849 318
55.79 107.798 320
55.69 107.748 322
55.59 107.697 324
55.49 107.647 326
55.39 107.596 328
55.29 107.546 330
55.19 107.495 332
55.09 107.445 334
55.89 109.043 318
55.79 108.991 320
55.69 108.939 322
55.59 108.886 324
55.49 108.834 326
55.39 108.782 328
55.29 108.729 330
55.19 108.677 332
55.09 108.625 334
55.89 110.238 318
55.79 110.183 320
55.69 110.129 322
55.59 110.075 324
55.49 110.021 326
55.39 109.967 328
55.29 109.913 330
55.19 109.859 332
55.09 109.805 334
55.89 111.432 318
55.79 111.376 320
55.69 111.32 322
55.59 111.264 324
55.49 111.208 326
55.39 111.152 328
55.29 111.096 330
55.19 111.04 332
55.09 110.984 334
55.89 112.627 318
55.79 112.569 320
55.69 112.511 322
55.59 112.453 324
55.49 112.395 326
55.39 112.338 328
55.29 112.28 330
55.19 112.222 332
55.09 112.164 334
54.99 112.106 336
55.89 113.821 318
55.79 113.761 320
55.69 113.702 322
55.59 113.642 324
55.49 113.583 326
55.39 113.523 328
55.29 113.463 330
55.19 113.404 332
55.09 113.344 334
54.99 113.284 336
54.89 113.225 338
55.99 115.077 316
55.89 115.016 318
55.79 114.954 320
55.69 114.893 322
55.59 114.831 324
55.49 114.77 326
55.39 114.708 328
55.29 114.647 330
55.19 114.585 332
55.09 114.524 334
54.99 114.462 336
54.89 114.401 338
55.99 116.273 316
55.89 116.21 318
55.79 116.147 320
55.69 116.083 322
55.59 116.02 324
55.49 115.957 326
55.39 115.894 328
55.29 115.83 330
55.19 115.767 332
55.09 115.704 334
54.99 115.64 336
54.89 115.577 338
50.2 105.506 316
50.2 106.703 316
50.2 107.899 316
50.2 109.095 316
50.2 110.292 316
50.2 111.488 316
50.2 112.684 316
50.3 113.94 314
50.2 113.881 316
50.3 115.139 314
56.24 105.506 316
56.24 106.703 316
56.24 107.899 316
56.24 109.095 316
56.24 110.292 316
56.24 111.488 316
56.24 112.684 316
56.34 113.94 314
56.24 113.881 316
56.34 115.139 314
50.45 105.506 316
50.45 106.703 316
50.45 107.899 316
50.45 109.095 316
50.45 110.292 316
50.45 111.488 316
50.45 112.684 316
50.55 113.94 314
50.45 113.881 316
50.55 115.139 314
50.95 105.506 316
50.7 105.506 316
50.95 106.703 316
50.7 106.703 316
50.95 107.899 316
50.7 107.899 316
50.95 109.095 316
50.7 109.095 316
50.95 110.292 316
50.7 110.292 316
50.95 111.488 316
50.7 111.488 316
50.95 112.684 316
50.7 112.684 316
51.05 113.94 314
50.8 113.94 314
50.95 113.881 316
50.7 113.881 316
51.05 115.139 314
50.8 115.139 314
51.21 105.506 316
51.2 105.506 316
51.21 106.703 316
51.2 106.703 316
51.21 107.899 316
51.2 107.899 316
51.21 109.095 316
51.2 109.095 316
51.21 110.292 316
51.2 110.292 316
51.21 111.488 316
51.2 111.488 316
51.21 112.684 316
51.2 112.684 316
51.31 113.94 314
51.3 113.94 314
51.21 113.881 316
51.2 113.881 316
51.31 115.139 314
51.3 115.139 314
51.46 105.506 316
51.46 106.703 316
51.46 107.899 316
51.46 109.095 316
51.46 110.292 316
51.46 111.488 316
51.46 112.684 316
51.56 113.94 314
51.46 113.881 316
51.56 115.139 314
51.71 105.506 316
51.71 106.703 316
51.71 107.899 316
51.71 109.095 316
51.71 110.292 316
51.71 111.488 316
51.71 112.684 316
51.81 113.94 314
51.71 113.881 316
51.81 115.139 314
51.96 105.506 316
51.96 106.703 316
51.96 107.899 316
51.96 109.095 316
51.96 110.292 316
51.96 111.488 316
51.96 112.684 316
52.06 113.94 314
51.96 113.881 316
52.06 115.139 314
52.21 105.506 316
52.21 106.703 316
52.21 107.899 316
52.21 109.095 316
52.21 110.292 316
52.21 111.488 316
52.21 112.684 316
52.31 113.94 314
52.21 113.881 316
52.31 115.139 314
52.46 105.506 316
52.46 106.703 316
52.46 107.899 316
52.46 109.095 316
52.46 110.292 316
52.46 111.488 316
52.46 112.684 316
52.56 113.94 314
52.46 113.881 316
52.56 115.139 314
52.71 105.506 316
52.71 106.703 316
52.71 107.899 316
52.71 109.095 316
52.71 110.292 316
52.71 111.488 316
52.71 112.684 316
52.81 113.94 314
52.71 113.881 316
52.81 115.139 314
52.96 105.506 316
52.96 106.703 316
52.96 107.899 316
52.96 109.095 316
52.96 110.292 316
52.96 111.488 316
52.96 112.684 316
53.06 113.94 314
52.96 113.881 316
53.06 115.139 314
53.21 105.506 316
53.21 106.703 316
53.21 107.899 316
53.21 109.095 316
53.21 110.292 316
53.21 111.488 316
53.21 112.684 316
53.31 113.94 314
53.21 113.881 316
53.31 115.139 314
53.46 105.506 316
53.46 106.703 316
53.46 107.899 316
53.46 109.095 316
53.46 110.292 316
53.46 111.488 316
53.46 112.684 316
53.56 113.94 314
53.46 113.881 316
53.56 115.139 314
53.47 105.506 316
53.47 106.703 316
53.47 107.899 316
53.47 109.095 316
53.47 110.292 316
53.47 111.488 316
53.47 112.684 316
53.57 113.94 314
53.47 113.881 316
53.57 115.139 314
53.72 105.506 316
53.72 106.703 316
53.72 107.899 316
53.72 109.095 316
53.72 110.292 316
53.72 111.488 316
53.72 112.684 316
53.82 113.94 314
53.72 113.881 316
53.82 115.139 314
53.97 105.506 316
53.97 106.703 316
53.97 107.899 316
53.97 109.095 316
53.97 110.292 316
53.97 111.488 316
53.97 112.684 316
54.07 113.94 314
53.97 113.881 316
54.07 115.139 314
54.22 105.506 316
54.22 106.703 316
54.22 107.899 316
54.22 109.095 316
54.22 110.292 316
54.22 111.488 316
54.22 112.684 316
54.32 113.94 314
54.22 113.881 316
54.32 115.139 314
54.47 105.506 316
54.47 106.703 316
54.47 107.899 316
54.47 109.095 316
54.47 110.292 316
54.47 111.488 316
54.47 112.684 316
54.57 113.94 314
54.47 113.881 316
54.57 115.139 314
54.72 105.506 316
54.72 106.703 316
54.72 107.899 316
54.72 109.095 316
54.72 110.292 316
54.72 111.488 316
54.72 112.684 316
54.82 113.94 314
54.72 113.881 316
54.82 115.139 314
54.97 105.506 316
54.97 106.703 316
54.97 107.899 316
54.97 109.095 316
54.97 110.292 316
54.97 111.488 316
54.97 112.684 316
55.07 113.94 314
54.97 113.881 316
55.07 115.139 314
55.22 105.506 316
55.22 106.703 316
55.22 107.899 316
55.22 109.095 316
55.22 110.292 316
55.22 111.488 316
55.22 112.684 316
55.32 113.94 314
55.22 113.881 316
55.32 115.139 314
55.23 105.506 316
55.23 106.703 316
55.23 107.899 316
55.23 109.095 316
55.23 110.292 316
55.23 111.488 316
55.23 112.684 316
55.33 113.94 314
55.23 113.881 316
55.33 115.139 314
55.48 105.506 316
55.48 106.703 316
55.48 107.899 316
55.48 109.095 316
55.48 110.292 316
55.48 111.488 316
55.48 112.684 316
55.58 113.94 314
55.48 113.881 316
55.58 115.139 314
55.49 105.506 316
55.49 106.703 316
55.49 107.899 316
55.49 109.095 316
55.49 110.292 316
55.49 111.488 316
55.49 112.684 316
55.59 113.94 314
55.49 113.881 316
55.59 115.139 314
55.74 105.506 316
55.74 106.703 316
55.74 107.899 316
55.74 109.095 316
55.74 110.292 316
55.74 111.488 316
55.74 112.684 316
55.84 113.94 314
55.74 113.881 316
55.84 115.139 314
55.99 105.506 316
55.99 106.703 316
55.99 107.899 316
55.99 109.095 316
55.99 110.292 316
55.99 111.488 316
55.99 112.684 316
56.09 113.94 314
55.99 113.881 316
56.09 115.139 314
CELLS 2268 20412
8 3907 3887 3886 3906 1381 1195 1189 1375
8 1381 1195 1189 1375 1382 1196 1190 1376
8 1382 1196 1190 1376 1383 1197 1191 1377
8 1383 1197 1191 1377 1384 1198 1192 1378
8 1384 1198 1192 1378 1385 1199 1193 1379
8 1385 1199 1193 1379 1386 1200 1194 1380
8 3908 3888 3887 3907 1387 1201 1195 1381
8 1387 1201 1195 1381 1388 1202 1196 1382
8 1388 1202 1196 1382 1389 1203 1197 1383
8 1389 1203 1197 1383 1390 1204 1198 1384
8 1390 1204 1198 1384 1391 1205 1199 1385
8 1391 1205 1199 1385 1392 1206 1200 1386
8 3909 3889 3888 3908 1396 1210 1201 1387
8 1396 1210 1201 1387 1397 1211 1202 1388
8 1397 1211 1202 1388 1398 1212 1203 1389
8 1398 1212 1203 1389 1399 1213 1204 1390
8 1399 1213 1204 1390 1400 1214 1205 1391
8 1400 1214 1205 1391 1401 1215 1206 1392
8 1401 1215 1206 1392 1402 1216 1207 1393
8 1402 1216 1207 1393 1403 1217 1208 1394
8 1403 1217 1208 1394 1404 1218 1209 1395
8 3910 3890 3889 3909 1405 1219 1210 1396
8 1405 1219 1210 1396 1406 1220 1211 1397
8 1406 1220 1211 1397 1407 1221 1212 1398
8 1407 1221 1212 1398 1408 1222 1213 1399
8 1408 1222 1213 1399 1409 1223 1214 1400
8 1409 1223 1214 1400 1410 1224 1215 1401
8 1410 1224 1215 1401 1411 1225 1216 1402
8 1411 1225 1216 1402 1412 1226 1217 1403
8 1412 1226 1217 1403 1413 1227 1218 1404
8 3911 3891 3890 3910 1414 1228 1219 1405
8 1414 1228 1219 1405 1415 1229 1220 1406
8 1415 1229 1220 1406 1416 1230 1221 1407
8 1416 1230 1221 1407 1417 1231 1222 1408
8 1417 1231 1222 1408 1418 1232 1223 1409
8 1418 1232 1223 1409 1419 1233 1224 1410
8 1419 1233 1224 1410 1420 1234 1225 1411
8 1420 1234 1225 1411 1421 1235 1226 1412
8 1421 1235 1226 1412 1422 1236 1227 1413
8 3912 3892 3891 3911 1423 1237 1228 1414
8 1423 1237 1228 1414 1424 1238 1229 1415
8 1424 1238 1229 1415 1425 1239 1230 1416
8 1425 1239 1230 1416 1426 1240 1231 1417
8 1426 1240 1231 1417 1427 1241 1232 1418
8 1427 1241 1232 1418 1428 1242 1233 1419
8 1428 1242 1233 1419 1429 1243 1234 1420
8 1429 1243 1234 1420 1430 1244 1235 1421
8 1430 1244 1235 1421 1431 1245 1236 1422
8 3914 3894 3892 3912 1433 1247 1237 1423
8 1433 1247 1237 1423 1434 1248 1238 1424
8 1434 1248 1238 1424 1435 1249 1239 1425
8 1435 1249 1239 1425 1436 1250 1240 1426
8 1436 1250 1240 1426 1437 1251 1241 1427
8 1437 1251 1241 1427 1438 1252 1242 1428
8 1438 1252 1242 1428 1439 1253 1243 1429
8 1439 1253 1243 1429 1440 1254 1244 1430
8 1440 1254 1244 1430 1441 1255 1245 1431
8 1441 1255 1245 1431 1442 1256 1246 1432
8 3915 3895 3893 3913 1444 1258 3894 3914
8 1444 1258 3894 3914 1445 1259 1247 1433
8 1445 1259 1247 1433 1446 1260 1248 1434
8 1446 1260 1248 1434 1447 1261 1249 1435
8 1447 1261 1249 1435 1448 1262 1250 1436
8 1448 1262 1250 1436 1449 1263 1251 1437
8 1449 1263 1251 1437 1450 1264 1252 1438
8 1450 1264 1252 1438 1451 1265 1253 1439
8 1451 1265 1253 1439 1452 1266 1254 1440
8 1452 1266 1254 1440 1453 1267 1255 1441
8 1453 1267 1255 1441 1454 1268 1256 1442
8 1454 1268 1256 1442 1455 1269 1257 1443
8 1456 1270 1258 1444 1457 1271 1259 1445
8 1457 1271 1259 1445 1458 1272 1260 1446
8 1458 1272 1260 1446 1459 1273 1261 1447
8 1459 1273 1261 1447 1460 1274 1262 1448
8 1460 1274 1262 1448 1461 1275 1263 1449
8 1461 1275 1263 1449 1462 1276 1264 1450
8 1462 1276 1264 1450 1463 1277 1265 1451
8 1463 1277 1265 1451 1464 1278 1266 1452
8 1464 1278 1266 1452 1465 1279 1267 1453
8 1465 1279 1267 1453 1466 1280 1268 1454
8 1466 1280 1268 1454 1467 1281 1269 1455
8 3918 3919 3917 3916 1480 1481 1469 1468
8 1480 1481 1469 1468 1482 1483 1471 1470
8 1482 1483 1471 1470 1484 1485 1473 1472
8 1484 1485 1473 1472 1486 1487 1475 1474
8 1486 1487 1475 1474 1488 1489 1477 1476
8 1488 1489 1477 1476 1490 1491 1479 1478
8 3920 3921 3919 3918 1492 1493 1481 1480
8 1492 1493 1481 1480 1494 1495 1483 1482
8 1494 1495 1483 1482 1496 1497 1485 1484
8 1496 1497 1485 1484 1498 1499 1487 1486
8 1498 1499 1487 1486 1500 1501 1489 1488
8 1500 1501 1489 1488 1502 1503 1491 1490
8 3922 3923 3921 3920 1510 1511 1493 1492
8 1510 1511 1493 1492 1512 1513 1495 1494
8 1512 1513 1495 1494 1514 1515 1497 1496
8 1514 1515 1497 1496 1516 1517 1499 1498
8 1516 1517 1499 1498 1518 1519 1501 1500
8 1518 1519 1501 1500 1520 1521 1503 1502
8 1520 1521 1503 1502 1522 1523 1505 1504
8 1522 1523 1505 1504 1524 1525 1507 1506
8 1524 1525 1507 1506 1526 1527 1509 1508
8 3924 3925 3923 3922 1528 1529 1511 1510
8 1528 1529 1511 1510 1530 1531 1513 1512
8 1530 1531 1513 1512 1532 1533 1515 1514
8 1532 1533 1515 1514 1534 1535 1517 1516
8 1534 1535 1517 1516 1536 1537 1519 1518
8 1536 1537 1519 1518 1538 1539 1521 1520
8 1538 1539 1521 1520 1540 1541 1523 1522
8 1540 1541 1523 1522 1542 1543 1525 1524
8 1542 1543 1525 1524 1544 1545 1527 1526
8 3926 3927 3925 3924 1546 1547 1529 1528
8 1546 1547 1529 1528 1548 1549 1531 1530
8 1548 1549 1531 1530 1550 1551 1533 1532
8 1550 1551 1533 1532 1552 1553 1535 1534
8 1552 1553 1535 1534 1554 1555 1537 1536
8 1554 1555 1537 1536 1556 1557 1539 1538
8 1556 1557 1539 1538 1558 1559 1541 1540
8 1558 1559 1541 1540 1560 1561 1543 1542
8 1560 1561 1543 1542 1562 1563 1545 1544
8 3928 3929 3927 3926 1564 1565 1547 1546
8 1564 1565 1547 1546 1566 1567 1549 1548
8 1566 1567 1549 1548 1568 1569 1551 1550
8 1568 1569 1551 1550 1570 1571 1553 1552
8 1570 1571 1553 1552 1572 1573 1555 1554
8 1572 1573 1555 1554 1574 1575 1557 1556
8 1574 1575 1557 1556 1576 1577 1559 1558
8 1576 1577 1559 1558 1578 1579 1561 1560
8 1578 1579 1561 1560 1580 1581 1563 1562
8 3932 3933 3929 3928 1584 1585 1565 1564
8 1584 1585 1565 1564 1586 1587 1567 1566
8 1586 1587 1567 1566 1588 1589 1569 1568
8 1588 1589 1569 1568 1590 1591 1571 1570
8 1590 1591 1571 1570 1592 1593 1573 1572
8 1592 1593 1573 1572 1594 1595 1575 1574
8 1594 1595 1575 1574 1596 1597 1577 1576
8 1596 1597 1577 1576 1598 1599 1579 1578
8 1598 1599 1579 1578 1600 1601 1581 1580
8 1600 1601 1581 1580 1602 1603 1583 1582
8 3934 3935 3931 3930 1606 1607 3933 3932
8 1606 1607 3933 3932 1608 1609 1585 1584
8 1608 1609 1585 1584 1610 1611 1587 1586
8 1610 1611 1587 1586 1612 1613 1589 1588
8 1612 1613 1589 1588 1614 1615 1591 1590
8 1614 1615 1591 1590 1616 1617 1593 1592
8 1616 1617 1593 1592 1618 1619 1595 1594
8 1618 1619 1595 1594 1620 1621 1597 1596
8 1620 1621 1597 1596 1622 1623 1599 1598
8 1622 1623 1599 1598 1624 1625 1601 1600
8 1624 1625 1601 1600 1626 1627 1603 1602
8 1626 1627 1603 1602 1628 1629 1605 1604
8 1630 1631 1607 1606 1632 1633 1609 1608
8 1632 1633 1609 1608 1634 1635 1611 1610
8 1634 1635 1611 1610 1636 1637 1613 1612
8 1636 1637 1613 1612 1638 1639 1615 1614
8 1638 1639 1615 1614 1640 1641 1617 1616
8 1640 1641 1617 1616 1642 1643 1619 1618
8 1642 1643 1619 1618 1644 1645 1621 1620
8 1644 1645 1621 1620 1646 1647 1623 1622
8 1646 1647 1623 1622 1648 1649 1625 1624
8 1648 1649 1625 1624 1650 1651 1627 1626
8 1650 1651 1627 1626 1652 1653 1629 1628
8 3938 3939 3937 3936 1666 1667 1655 1654
8 1666 1667 1655 1654 1668 1669 1657 1656
8 1668 1669 1657 1656 1670 1671 1659 1658
8 1670 1671 1659 1658 1672 1673 1661 1660
8 1672 1673 1661 1660 1674 1675 1663 1662
8 1674 1675 1663 1662 1676 1677 1665 1664
8 3940 3941 3939 3938 1678 1679 1667 1666
8 1678 1679 1667 1666 1680 1681 1669 1668
8 1680 1681 1669 1668 1682 1683 1671 1670
8 1682 1683 1671 1670 1684 1685 1673 1672
8 1684 1685 1673 1672 1686 1687 1675 1674
8 1686 1687 1675 1674 1688 1689 1677 1676
8 3942 3943 3941 3940 1696 1697 1679 1678
8 1696 1697 1679 1678 1698 1699 1681 1680
8 1698 1699 1681 1680 1700 1701 1683 1682
8 1700 1701 1683 1682 1702 1703 1685 1684
8 1702 1703 1685 1684 1704 1705 1687 1686
8 1704 1705 1687 1686 1706 1707 1689 1688
8 1706 1707 1689 1688 1708 1709 1691 1690
8 1708 1709 1691 1690 1710 1711 1693 1692
8 1710 1711 1693 1692 1712 1713 1695 1694
8 3944 3945 3943 3942 1714 1715 1697 1696
8 1714 1715 1697 1696 1716 1717 1699 1698
8 1716 1717 1699 1698 1718 1719 1701 1700
8 1718 1719 1701 1700 1720 1721 1703 1702
8 1720 1721 1703 1702 1722 1723 1705 1704
8 1722 1723 1705 1704 1724 1725 1707 1706
8 1724 1725 1707 1706 1726 1727 1709 1708
8 1726 1727 1709 1708 1728 1729 1711 1710
8 1728 1729 1711 1710 1730 1731 1713 1712
8 3946 3947 3945 3944 1732 1733 1715 1714
8 1732 1733 1715 1714 1734 1735 1717 1716
8 1734 1735 1717 1716 1736 1737 1719 1718
8 1736 1737 1719 1718 1738 1739 1721 1720
8 1738 1739 1721 1720 1740 1741 1723 1722
8 1740 1741 1723 1722 1742 1743 1725 1724
8 1742 1743 1725 1724 1744 1745 1727 1726
8 1744 1745 1727 1726 1746 1747 1729 1728
8 1746 1747 1729 1728 1748 1749 1731 1730
8 3948 3949 3947 3946 1750 1751 1733 1732
8 1750 1751 1733 1732 1752 1753 1735 1734
8 1752 1753 1735 1734 1754 1755 1737 1736
8 1754 1755 1737 1736 1756 1757 1739 1738
8 1756 1757 1739 1738 1758 1759 1741 1740
8 1758 1759 1741 1740 1760 1761 1743 1742
8 1760 1761 1743 1742 1762 1763 1745 1744
8 1762 1763 1745 1744 1764 1765 1747 1746
8 1764 1765 1747 1746 1766 1767 1749 1748
8 3952 3953 3949 3948 1770 1771 1751 1750
8 1770 1771 1751 1750 1772 1773 1753 1752
8 1772 1773 1753 1752 1774 1775 1755 1754
8 1774 1775 1755 1754 1776 1777 1757 1756
8 1776 1777 1757 1756 1778 1779 1759 1758
8 1778 1779 1759 1758 1780 1781 1761 1760
8 1780 1781 1761 1760 1782 1783 1763 1762
8 1782 1783 1763 1762 1784 1785 1765 1764
8 1784 1785 1765 1764 1786 1787 1767 1766
8 1786 1787 1767 1766 1788 1789 1769 1768
8 3954 3955 3951 3950 1792 1793 3953 3952
8 1792 1793 3953 3952 1794 1795 1771 1770
8 1794 1795 1771 1770 1796 1797 1773 1772
8 1796 1797 1773 1772 1798 1799 1775 1774
8 1798 1799 1775 1774 1800 1801 1777 1776
8 1800 1801 1777 1776 1802 1803 1779 1778
8 1802 1803 1779 1778 1804 1805 1781 1780
8 1804 1805 1781 1780 1806 1807 1783 1782
8 1806 1807 1783 1782 1808 1809 1785 1784
8 1808 1809 1785 1784 1810 1811 1787 1786
8 1810 1811 1787 1786 1812 1813 1789 1788
8 1812 1813 1789 1788 1814 1815 1791 1790
8 1816 1817 1793 1792 1818 1819 1795 1794
8 1818 1819 1795 1794 1820 1821 1797 1796
8 1820 1821 1797 1796 1822 1823 1799 1798
8 1822 1823 1799 1798 1824 1825 1801 1800
8 1824 1825 1801 1800 1826 1827 1803 1802
8 1826 1827 1803 1802 1828 1829 1805 1804
8 1828 1829 1805 1804 1830 1831 1807 1806
8 1830 1831 1807 1806 1832 1833 1809 1808
8 1832 1833 1809 1808 1834 1835 1811 1810
8 1834 1835 1811 1810 1836 1837 1813 1812
8 1836 1837 1813 1812 1838 1839 1815 1814
8 3957 3938 3936 3956 1846 1666 1654 1840
8 1846 1666 1654 1840 1847 1668 1656 1841
8 1847 1668 1656 1841 1848 1670 1658 1842
8 1848 1670 1658 1842 1849 1672 1660 1843
8 1849 1672 1660 1843 1850 1674 1662 1844
8 1850 1674 1662 1844 1851 1676 1664 1845
8 3958 3940 3938 3957 1852 1678 1666 1846
8 1852 1678 1666 1846 1853 1680 1668 1847
8 1853 1680 1668 1847 1854 1682 1670 1848
8 1854 1682 1670 1848 1855 1684 1672 1849
8 1855 1684 1672 1849 1856 1686 1674 1850
8 1856 1686 1674 1850 1857 1688 1676 1851
8 3959 3942 3940 3958 1861 1696 1678 1852
8 1861 1696 1678 1852 1862 1698 1680 1853
8 1862 1698 1680 1853 1863 1700 1682 1854
8 1863 1700 1682 1854 1864 1702 1684 1855
8 1864 1702 1684 1855 1865 1704 1686 1856
8 1865 1704 1686 1856 1866 1706 1688 1857
8 1866 1706 1688 1857 1867 1708 1690 1858
8 1867 1708 1690 1858 1868 1710 1692 1859
8 1868 1710 1692 1859 1869 1712 1694 1860
8 3960 3944 3942 3959 1870 1714 1696 1861
8 1870 1714 1696 1861 1871 1716 1698 1862
8 1871 1716 1698 1862 1872 1718 1700 1863
8 1872 1718 1700 1863 1873 1720 1702 1864
8 1873 1720 1702 1864 1874 1722 1704 1865
8 1874 1722 1704 1865 1875 1724 1706 1866
8 1875 1724 1706 1866 1876 1726 1708 1867
8 1876 1726 1708 1867 1877 1728 1710 1868
8 1877 1728 1710 1868 1878 1730 1712 1869
8 3961 3946 3944 3960 1879 1732 1714 1870
8 1879 1732 1714 1870 1880 1734 1716 1871
8 1880 1734 1716 1871 1881 1736 1718 1872
8 1881 1736 1718 1872 1882 1738 1720 1873
8 1882 1738 1720 1873 1883 1740 1722 1874
8 1883 1740 1722 1874 1884 1742 1724 1875
8 1884 1742 1724 1875 1885 1744 1726 1876
8 1885 1744 1726 1876 1886 1746 1728 1877
8 1886 1746 1728 1877 1887 1748 1730 1878
8 3962 3948 3946 3961 1888 1750 1732 1879
8 1888 1750 1732 1879 1889 1752 1734 1880
8 1889 1752 1734 1880 1890 1754 1736 1881
8 1890 1754 1736 1881 1891 1756 1738 1882
8 1891 1756 1738 1882 1892 1758 1740 1883
8 1892 1758 1740 1883 1893 1760 1742 1884
8 1893 1760 1742 1884 1894 1762 1744 1885
8 1894 1762 1744 1885 1895 1764 1746 1886
8 1895 1764 1746 1886 1896 1766 1748 1887
8 3964 3952 3948 3962 1898 1770 1750 1888
8 1898 1770 1750 1888 1899 1772 1752 1889
8 1899 1772 1752 1889 1900 1774 1754 1890
8 1900 1774 1754 1890 1901 1776 1756 1891
8 1901 1776 1756 1891 1902 1778 1758 1892
8 1902 1778 1758 1892 1903 1780 1760 1893
8 1903 1780 1760 1893 1904 1782 1762 1894
8 1904 1782 1762 1894 1905 1784 1764 1895
8 1905 1784 1764 1895 1906 1786 1766 1896
8 1906 1786 1766 1896 1907 1788 1768 1897
8 3965 3954 3950 3963 1909 1792 3952 3964
8 1909 1792 3952 3964 1910 1794 1770 1898
8 1910 1794 1770 1898 1911 1796 1772 1899
8 1911 1796 1772 1899 1912 1798 1774 1900
8 1912 1798 1774 1900 1913 1800 1776 1901
8 1913 1800 1776 1901 1914 1802 1778 1902
8 1914 1802 1778 1902 1915 1804 1780 1903
8 1915 1804 1780 1903 1916 1806 1782 1904
8 1916 1806 1782 1904 1917 1808 1784 1905
8 1917 1808 1784 1905 1918 1810 1786 1906
8 1918 1810 1786 1906 1919 1812 1788 1907
8 1919 1812 1788 1907 1920 1814 1790 1908
8 1921 1816 1792 1909 1922 1818 1794 1910
8 1922 1818 1794 1910 1923 1820 1796 1911
8 1923 1820 1796 1911 1924 1822 1798 1912
8 1924 1822 1798 1912 1925 1824 1800 1913
8 1925 1824 1800 1913 1926 1826 1802 1914
8 1926 1826 1802 1914 1927 1828 1804 1915
8 1927 1828 1804 1915 1928 1830 1806 1916
8 1928 1830 1806 1916 1929 1832 1808 1917
8 1929 1832 1808 1917 1930 1834 1810 1918
8 1930 1834 1810 1918 1931 1836 1812 1919
8 1931 1836 1812 1919 1932 1838 1814 1920
8 3967 3957 3956 3966 1939 1846 1840 1933
8 1939 1846 1840 1933 1940 1847 1841 1934
8 1940 1847 1841 1934 1941 1848 1842 1935
8 1941 1848 1842 1935 1942 1849 1843 1936
8 1942 1849 1843 1936 1943 1850 1844 1937
8 1943 1850 1844 1937 1944 1851 1845 1938
8 3968 3958 3957 3967 1945 1852 1846 1939
8 1945 1852 1846 1939 1946 1853 1847 1940
8 1946 1853 1847 1940 1947 1854 1848 1941
8 1947 1854 1848 1941 1948 1855 1849 1942
8 1948 1855 1849 1942 1949 1856 1850 1943
8 1949 1856 1850 1943 1950 1857 1851 1944
8 3969 3959 3958 3968 1954 1861 1852 1945
8 1954 1861 1852 1945 1955 1862 1853 1946
8 1955 1862 1853 1946 1956 1863 1854 1947
8 1956 1863 1854 1947 1957 1864 1855 1948
8 1957 1864 1855 1948 1958 1865 1856 1949
8 1958 1865 1856 1949 1959 1866 1857 1950
8 1959 1866 1857 1950 1960 1867 1858 1951
8 1960 1867 1858 1951 1961 1868 1859 1952
8 1961 1868 1859 1952 1962 1869 1860 1953
8 3970 3960 3959 3969 1963 1870 1861 1954
8 1963 1870 1861 1954 1964 1871 1862 1955
8 1964 1871 1862 1955 1965 1872 1863 1956
8 1965 1872 1863 1956 1966 1873 1864 1957
8 1966 1873 1864 1957 1967 1874 1865 1958
8 1967 1874 1865 1958 1968 1875 1866 1959
8 1968 1875 1866 1959 1969 1876 1867 1960
8 1969 1876 1867 1960 1970 1877 1868 1961
8 1970 1877 1868 1961 1971 1878 1869 1962
8 3971 3961 3960 3970 1972 1879 1870 1963
8 1972 1879 1870 1963 1973 1880 1871 1964
8 1973 1880 1871 1964 1974 1881 1872 1965
8 1974 1881 1872 1965 1975 1882 1873 1966
8 1975 1882 1873 1966 1976 1883 1874 1967
8 1976 1883 1874 1967 1977 1884 1875 1968
8 1977 1884 1875 1968 1978 1885 1876 1969
8 1978 1885 1876 1969 1979 1886 1877 1970
8 1979 1886 1877 1970 1980 1887 1878 1971
8 3972 3962 3961 3971 1981 1888 1879 1972
8 1981 1888 1879 1972 1982 1889 1880 1973
8 1982 1889 1880 1973 1983 1890 1881 1974
8 1983 1890 1881 1974 1984 1891 1882 1975
8 1984 1891 1882 1975 1985 1892 1883 1976
8 1985 1892 1883 1976 1986 1893 1884 1977
8 1986 1893 1884 1977 1987 1894 1885 1978
8 1987 1894 1885 1978 1988 1895 1886 1979
8 1988 1895 1886 1979 1989 1896 1887 1980
8 3974 3964 3962 3972 1991 1898 1888 1981
8 1991 1898 1888 1981 1992 1899 1889 1982
8 1992 1899 1889 1982 1993 1900 1890 1983
8 1993 1900 1890 1983 1994 1901 1891 1984
8 1994 1901 1891 1984 1995 1902 1892 1985
8 1995 1902 1892 1985 1996 1903 1893 1986
8 1996 1903 1893 1986 1997 1904 1894 1987
8 1997 1904 1894 1987 1998 1905 1895 1988
8 1998 1905 1895 1988 1999 1906 1896 1989
8 1999 1906 1896 1989 2000 1907 1897 1990
8 3975 3965 3963 3973 2002 1909 3964 3974
8 2002 1909 3964 3974 2003 1910 1898 1991
8 2003 1910 1898 1991 2004 1911 1899 1992
8 2004 1911 1899 1992 2005 1912 1900 1993
8 2005 1912 1900 1993 2006 1913 1901 1994
8 2006 1913 1901 1994 2007 1914 1902 1995
8 2007 1914 1902 1995 2008 1915 1903 1996
8 2008 1915 1903 1996 2009 1916 1904 1997
8 2009 1916 1904 1997 2010 1917 1905 1998
8 2010 1917 1905 1998 2011 1918 1906 1999
8 2011 1918 1906 1999 2012 1919 1907 2000
8 2012 1919 1907 2000 2013 1920 1908 2001
8 2014 1921 1909 2002 2015 1922 1910 2003
8 2015 1922 1910 2003 2016 1923 1911 2004
8 2016 1923 1911 2004 2017 1924 1912 2005
8 2017 1924 1912 2005 2018 1925 1913 2006
8 2018 1925 1913 2006 2019 1926 1914 2007
8 2019 1926 1914 2007 2020 1927 1915 2008
8 2020 1927 1915 2008 2021 1928 1916 2009
8 2021 1928 1916 2009 2022 1929 1917 2010
8 2022 1929 1917 2010 2023 1930 1918 2011
8 2023 1930 1918 2011 2024 1931 1919 2012
8 2024 1931 1919 2012 2025 1932 1920 2013
8 3977 3967 3966 3976 2032 1939 1933 2026
8 2032 1939 1933 2026 2033 1940 1934 2027
8 2033 1940 1934 2027 2034 1941 1935 2028
8 2034 1941 1935 2028 2035 1942 1936 2029
8 2035 1942 1936 2029 2036 1943 1937 2030
8 2036 1943 1937 2030 2037 1944 1938 2031
8 3978 3968 3967 3977 2038 1945 1939 2032
8 2038 1945 1939 2032 2039 1946 1940 2033
8 2039 1946 1940 2033 2040 1947 1941 2034
8 2040 1947 1941 2034 2041 1948 1942 2035
8 2041 1948 1942 2035 2042 1949 1943 2036
8 2042 1949 1943 2036 2043 1950 1944 2037
8 3979 3969 3968 3978 2047 1954 1945 2038
8 2047 1954 1945 2038 2048 1955 1946 2039
8 2048 1955 1946 2039 2049 1956 1947 2040
8 2049 1956 1947 2040 2050 1957 1948 2041
8 2050 1957 1948 2041 2051 1958 1949 2042
8 2051 1958 1949 2042 2052 1959 1950 2043
8 2052 1959 1950 2043 2053 1960 1951 2044
8 2053 1960 1951 2044 2054 1961 1952 2045
8 2054 1961 1952 2045 2055 1962 1953 2046
8 3980 3970 3969 3979 2056 1963 1954 2047
8 2056 1963 1954 2047 2057 1964 1955 2048
8 2057 1964 1955 2048 2058 1965 1956 2049
8 2058 1965 1956 2049 2059 1966 1957 2050
8 2059 1966 1957 2050 2060 1967 1958 2051
8 2060 1967 1958 2051 2061 1968 1959 2052
8 2061 1968 1959 2052 2062 1969 1960 2053
8 2062 1969 1960 2053 2063 1970 1961 2054
8 2063 1970 1961 2054 2064 1971 1962 2055
8 3981 3971 3970 3980 2065 1972 1963 2056
8 2065 1972 1963 2056 2066 1973 1964 2057
8 2066 1973 1964 2057 2067 1974 1965 2058
8 2067 1974 1965 2058 2068 1975 1966 2059
8 2068 1975 1966 2059 2069 1976 1967 2060
8 2069 1976 1967 2060 2070 1977 1968 2061
8 2070 1977 1968 2061 2071 1978 1969 2062
8 2071 1978 1969 2062 2072 1979 1970 2063
8 2072 1979 1970 2063 2073 1980 1971 2064
8 3982 3972 3971 3981 2074 1981 1972 2065
8 2074 1981 1972 2065 2075 1982 1973 2066
8 2075 1982 1973 2066 2076 1983 1974 2067
8 2076 1983 1974 2067 2077 1984 1975 2068
8 2077 1984 1975 2068 2078 1985 1976 2069
8 2078 1985 1976 2069 2079 1986 1977 2070
8 2079 1986 1977 2070 2080 1987 1978 2071
8 2080 1987 1978 2071 2081 1988 1979 2072
8 2081 1988 1979 2072 2082 1989 1980 2073
8 3984 3974 3972 3982 2084 1991 1981 2074
8 2084 1991 1981 2074 2085 1992 1982 2075
8 2085 1992 1982 2075 2086 1993 1983 2076
8 2086 1993 1983 2076 2087 1994 1984 2077
8 2087 1994 1984 2077 2088 1995 1985 2078
8 2088 1995 1985 2078 2089 1996 1986 2079
8 2089 1996 1986 2079 2090 1997 1987 2080
8 2090 1997 1987 2080 2091 1998 1988 2081
8 2091 1998 1988 2081 2092 1999 1989 2082
8 2092 1999 1989 2082 2093 2000 1990 2083
8 3985 3975 3973 3983 2095 2002 3974 3984
8 2095 2002 3974 3984 2096 2003 1991 2084
8 2096 2003 1991 2084 2097 2004 1992 2085
8 2097 2004 1992 2085 2098 2005 1993 2086
8 2098 2005 1993 2086 2099 2006 1994 2087
8 2099 2006 1994 2087 2100 2007 1995 2088
8 2100 2007 1995 2088 2101 2008 1996 2089
8 2101 2008 1996 2089 2102 2009 1997 2090
8 2102 2009 1997 2090 2103 2010 1998 2091
8 2103 2010 1998 2091 2104 2011 1999 2092
8 2104 2011 1999 2092 2105 2012 2000 2093
8 2105 2012 2000 2093 2106 2013 2001 2094
8 2107 2014 2002 2095 2108 2015 2003 2096
8 2108 2015 2003 2096 2109 2016 2004 2097
8 2109 2016 2004 2097 2110 2017 2005 2098
8 2110 2017 2005 2098 2111 2018 2006 2099
8 2111 2018 2006 2099 2112 2019 2007 2100
8 2112 2019 2007 2100 2113 2020 2008 2101
8 2113 2020 2008 2101 2114 2021 2009 2102
8 2114 2021 2009 2102 2115 2022 2010 2103
8 2115 2022 2010 2103 2116 2023 2011 2104
8 2116 2023 2011 2104 2117 2024 2012 2105
8 2117 2024 2012 2105 2118 2025 2013 2106
8 3987 3977 3976 3986 2125 2032 2026 2119
8 2125 2032 2026 2119 2126 2033 2027 2120
8 2126 2033 2027 2120 2127 2034 2028 2121
8 2127 2034 2028 2121 2128 2035 2029 2122
8 2128 2035 2029 2122 2129 2036 2030 2123
8 2129 2036 2030 2123 2130 2037 2031 2124
8 3988 3978 3977 3987 2131 2038 2032 2125
8 2131 2038 2032 2125 2132 2039 2033 2126
8 2132 2039 2033 2126 2133 2040 2034 2127
8 2133 2040 2034 2127 2134 2041 2035 2128
8 2134 2041 2035 2128 2135 2042 2036 2129
8 2135 2042 2036 2129 2136 2043 2037 2130
8 3989 3979 3978 3988 2140 2047 2038 2131
8 2140 2047 2038 2131 2141 2048 2039 2132
8 2141 2048 2039 2132 2142 2049 2040 2133
8 2142 2049 2040 2133 2143 2050 2041 2134
8 2143 2050 2041 2134 2144 2051 2042 2135
8 2144 2051 2042 2135 2145 2052 2043 2136
8 2145 2052 2043 2136 2146 2053 2044 2137
8 2146 2053 2044 2137 2147 2054 2045 2138
8 2147 2054 2045 2138 2148 2055 2046 2139
8 3990 3980 3979 3989 2149 2056 2047 2140
8 2149 2056 2047 2140 2150 2057 2048 2141
8 2150 2057 2048 2141 2151 2058 2049 2142
8 2151 2058 2049 2142 2152 2059 2050 2143
8 2152 2059 2050 2143 2153 2060 2051 2144
8 2153 2060 2051 2144 2154 2061 2052 2145
8 2154 2061 2052 2145 2155 2062 2053 2146
8 2155 2062 2053 2146 2156 2063 2054 2147
8 2156 2063 2054 2147 2157 2064 2055 2148
8 3991 3981 3980 3990 2158 2065 2056 2149
8 2158 2065 2056 2149 2159 2066 2057 2150
8 2159 2066 2057 2150 2160 2067 2058 2151
8 2160 2067 2058 2151 2161 2068 2059 2152
8 2161 2068 2059 2152 2162 2069 2060 2153
8 2162 2069 2060 2153 2163 2070 2061 2154
8 2163 2070 2061 2154 2164 2071 2062 2155
8 2164 2071 2062 2155 2165 2072 2063 2156
8 2165 2072 2063 2156 2166 2073 2064 2157
8 3992 3982 3981 3991 2167 2074 2065 2158
8 2167 2074 2065 2158 2168 2075 2066 2159
8 2168 2075 2066 2159 2169 2076 2067 2160
8 2169 2076 2067 2160 2170 2077 2068 2161
8 2170 2077 2068 2161 2171 2078 2069 2162
8 2171 2078 2069 2162 2172 2079 2070 2163
8 2172 2079 2070 2163 2173 2080 2071 2164
8 2173 2080 2071 2164 2174 2081 2072 2165
8 2174 2081 2072 2165 2175 2082 2073 2166
8 3994 3984 3982 3992 2177 2084 2074 2167
8 2177 2084 2074 2167 2178 2085 2075 2168
8 2178 2085 2075 2168 2179 2086 2076 2169
8 2179 2086 2076 2169 2180 2087 2077 2170
8 2180 2087 2077 2170 2181 2088 2078 2171
8 2181 2088 2078 2171 2182 2089 2079 2172
8 2182 2089 2079 2172 2183 2090 2080 2173
8 2183 2090 2080 2173 2184 2091 2081 2174
8 2184 2091 2081 2174 2185 2092 2082 2175
8 2185 2092 2082 2175 2186 2093 2083 2176
8 3995 3985 3983 3993 2188 2095 3984 3994
8 2188 2095 3984 3994 2189 2096 2084 2177
8 2189 2096 2084 2177 2190 2097 2085 2178
8 2190 2097 2085 2178 2191 2098 2086 2179
8 2191 2098 2086 2179 2192 2099 2087 2180
8 2192 2099 2087 2180 2193 2100 2088 2181
8 2193 2100 2088 2181 2194 2101 2089 2182
8 2194 2101 2089 2182 2195 2102 2090 2183
8 2195 2102 2090 2183 2196 2103 2091 2184
8 2196 2103 2091 2184 2197 2104 2092 2185
8 2197 2104 2092 2185 2198 2105 2093 2186
8 2198 2105 2093 2186 2199 2106 2094 2187
8 2200 2107 2095 2188 2201 2108 2096 2189
8 2201 2108 2096 2189 2202 2109 2097 2190
8 2202 2109 2097 2190 2203 2110 2098 2191
8 2203 2110 2098 2191 2204 2111 2099 2192
8 2204 2111 2099 2192 2205 2112 2100 2193
8 2205 2112 2100 2193 2206 2113 2101 2194
8 2206 2113 2101 2194 2207 2114 2102 2195
8 2207 2114 2102 2195 2208 2115 2103 2196
8 2208 2115 2103 2196 2209 2116 2104 2197
8 2209 2116 2104 2197 2210 2117 2105 2198
8 2210 2117 2105 2198 2211 2118 2106 2199
8 3997 3987 3986 3996 2218 2125 2119 2212
8 2218 2125 2119 2212 2219 2126 2120 2213
8 2219 2126 2120 2213 2220 2127 2121 2214
8 2220 2127 2121 2214 2221 2128 2122 2215
8 2221 2128 2122 2215 2222 2129 2123 2216
8 2222 2129 2123 2216 2223 2130 2124 2217
8 3998 3988 3987 3997 2224 2131 2125 2218
8 2224 2131 2125 2218 2225 2132 2126 2219
8 2225 2132 2126 2219 2226 2133 2127 2220
8 2226 2133 2127 2220 2227 2134 2128 2221
8 2227 2134 2128 2221 2228 2135 2129 2222
8 2228 2135 2129 2222 2229 2136 2130 2223
8 3999 3989 3988 3998 2233 2140 2131 2224
8 2233 2140 2131 2224 2234 2141 2132 2225
8 2234 2141 2132 2225 2235 2142 2133 2226
8 2235 2142 2133 2226 2236 2143 2134 2227
8 2236 2143 2134 2227 2237 2144 2135 2228
8 2237 2144 2135 2228 2238 2145 2136 2229
8 2238 2145 2136 2229 2239 2146 2137 2230
8 2239 2146 2137 2230 2240 2147 2138 2231
8 2240 2147 2138 2231 2241 2148 2139 2232
8 4000 3990 3989 3999 2242 2149 2140 2233
8 2242 2149 2140 2233 2243 2150 2141 2234
8 2243 2150 2141 2234 2244 2151 2142 2235
8 2244 2151 2142 2235 2245 2152 2143 2236
8 2245 2152 2143 2236 2246 2153 2144 2237
8 2246 2153 2144 2237 2247 2154 2145 2238
8 2247 2154 2145 2238 2248 2155 2146 2239
8 2248 2155 2146 2239 2249 2156 2147 2240
8 2249 2156 2147 2240 2250 2157 2148 2241
8 4001 3991 3990 4000 2251 2158 2149 2242
8 2251 2158 2149 2242 2252 2159 2150 2243
8 2252 2159 2150 2243 2253 2160 2151 2244
8 2253 2160 2151 2244 2254 2161 2152 2245
8 2254 2161 2152 2245 2255 2162 2153 2246
8 2255 2162 2153 2246 2256 2163 2154 2247
8 2256 2163 2154 2247 2257 2164 2155 2248
8 2257 2164 2155 2248 2258 2165 2156 2249
8 2258 2165 2156 2249 2259 2166 2157 2250
8 4002 3992 3991 4001 2260 2167 2158 2251
8 2260 2167 2158 2251 2261 2168 2159 2252
8 2261 2168 2159 2252 2262 2169 2160 2253
8 2262 2169 2160 2253 2263 2170 2161 2254
8 2263 2170 2161 2254 2264 2171 2162 2255
8 2264 2171 2162 2255 2265 2172 2163 2256
8 2265 2172 2163 2256 2266 2173 2164 2257
8 2266 2173 2164 2257 2267 2174 2165 2258
8 2267 2174 2165 2258 2268 2175 2166 2259
8 4004 3994 3992 4002 2270 2177 2167 2260
8 2270 2177 2167 2260 2271 2178 2168 2261
8 2271 2178 2168 2261 2272 2179 2169 2262
8 2272 2179 2169 2262 2273 2180 2170 2263
8 2273 2180 2170 2263 2274 2181 2171 2264
8 2274 2181 2171 2264 2275 2182 2172 2265
8 2275 2182 2172 2265 2276 2183 2173 2266
8 2276 2183 2173 2266 2277 2184 2174 2267
8 2277 2184 2174 2267 2278 2185 2175 2268
8 2278 2185 2175 2268 2279 2186 2176 2269
8 4005 3995 3993 4003 2281 2188 3994 4004
8 2281 2188 3994 4004 2282 2189 2177 2270
8 2282 2189 2177 2270 2283 2190 2178 2271
8 2283 2190 2178 2271 2284 2191 2179 2272
8 2284 2191 2179 2272 2285 2192 2180 2273
8 2285 2192 2180 2273 2286 2193 2181 2274
8 2286 2193 2181 2274 2287 2194 2182 2275
8 2287 2194 2182 2275 2288 2195 2183 2276
8 2288 2195 2183 2276 2289 2196 2184 2277
8 2289 2196 2184 2277 2290 2197 2185 2278
8 2290 2197 2185 2278 2291 2198 2186 2279
8 2291 2198 2186 2279 2292 2199 2187 2280
8 2293 2200 2188 2281 2294 2201 2189 2282
8 2294 2201 2189 2282 2295 2202 2190 2283
8 2295 2202 2190 2283 2296 2203 2191 2284
8 2296 2203 2191 2284 2297 2204 2192 2285
8 2297 2204 2192 2285 2298 2205 2193 2286
8 2298 2205 2193 2286 2299 2206 2194 2287
8 2299 2206 2194 2287 2300 2207 2195 2288
8 2300 2207 2195 2288 2301 2208 2196 2289
8 2301 2208 2196 2289 2302 2209 2197 2290
8 2302 2209 2197 2290 2303 2210 2198 2291
8 2303 2210 2198 2291 2304 2211 2199 2292
8 4007 3997 3996 4006 2311 2218 2212 2305
8 2311 2218 2212 2305 2312 2219 2213 2306
8 2312 2219 2213 2306 2313 2220 2214 2307
8 2313 2220 2214 2307 2314 2221 2215 2308
8 2314 2221 2215 2308 2315 2222 2216 2309
8 2315 2222 2216 2309 2316 2223 2217 2310
8 4008 3998 3997 4007 2317 2224 2218 2311
8 2317 2224 2218 2311 2318 2225 2219 2312
8 2318 2225 2219 2312 2319 2226 2220 2313
8 2319 2226 2220 2313 2320 2227 2221 2314
8 2320 2227 2221 2314 2321 2228 2222 2315
8 2321 2228 2222 2315 2322 2229 2223 2316
8 4009 3999 3998 4008 2326 2233 2224 2317
8 2326 2233 2224 2317 2327 2234 2225 2318
8 2327 2234 2225 2318 2328 2235 2226 2319
8 2328 2235 2226 2319 2329 2236 2227 2320
8 2329 2236 2227 2320 2330 2237 2228 2321
8 2330 2237 2228 2321 2331 2238 2229 2322
8 2331 2238 2229 2322 2332 2239 2230 2323
8 2332 2239 2230 2323 2333 2240 2231 2324
8 2333 2240 2231 2324 2334 2241 2232 2325
8 4010 4000 3999 4009 2335 2242 2233 2326
8 2335 2242 2233 2326 2336 2243 2234 2327
8 2336 2243 2234 2327 2337 2244 2235 2328
8 2337 2244 2235 2328 2338 2245 2236 2329
8 2338 2245 2236 2329 2339 2246 2237 2330
8 2339 2246 2237 2330 2340 2247 2238 2331
8 2340 2247 2238 2331 2341 2248 2239 2332
8 2341 2248 2239 2332 2342 2249 2240 2333
8 2342 2249 2240 2333 2343 2250 2241 2334
8 4011 4001 4000 4010 2344 2251 2242 2335
8 2344 2251 2242 2335 2345 2252 2243 2336
8 2345 2252 2243 2336 2346 2253 2244 2337
8 2346 2253 2244 2337 2347 2254 2245 2338
8 2347 2254 2245 2338 2348 2255 2246 2339
8 2348 2255 2246 2339 2349 2256 2247 2340
8 2349 2256 2247 2340 2350 2257 2248 2341
8 2350 2257 2248 2341 2351 2258 2249 2342
8 2351 2258 2249 2342 2352 2259 2250 2343
8 4012 4002 4001 4011 2353 2260 2251 2344
8 2353 2260 2251 2344 2354 2261 2252 2345
8 2354 2261 2252 2345 2355 2262 2253 2346
8 2355 2262 2253 2346 2356 2263 2254 2347
8 2356 2263 2254 2347 2357 2264 2255 2348
8 2357 2264 2255 2348 2358 2265 2256 2349
8 2358 2265 2256 2349 2359 2266 2257 2350
8 2359 2266 2257 2350 2360 2267 2258 2351
8 2360 2267 2258 2351 2361 2268 2259 2352
8 4014 4004 4002 4012 2363 2270 2260 2353
8 2363 2270 2260 2353 2364 2271 2261 2354
8 2364 2271 2261 2354 2365 2272 2262 2355
8 2365 2272 2262 2355 2366 2273 2263 2356
8 2366 2273 2263 2356 2367 2274 2264 2357
8 2367 2274 2264 2357 2368 2275 2265 2358
8 2368 2275 2265 2358 2369 2276 2266 2359
8 2369 2276 2266 2359 2370 2277 2267 2360
8 2370 2277 2267 2360 2371 2278 2268 2361
8 2371 2278 2268 2361 2372 2279 2269 2362
8 4015 4005 4003 4013 2374 2281 4004 4014
8 2374 2281 4004 4014 2375 2282 2270 2363
8 2375 2282 2270 2363 2376 2283 2271 2364
8 2376 2283 2271 2364 2377 2284 2272 2365
8 2377 2284 2272 2365 2378 2285 2273 2366
8 2378 2285 2273 2366 2379 2286 2274 2367
8 2379 2286 2274 2367 2380 2287 2275 2368
8 2380 2287 2275 2368 2381 2288 2276 2369
8 2381 2288 2276 2369 2382 2289 2277 2370
8 2382 2289 2277 2370 2383 2290 2278 2371
8 2383 2290 2278 2371 2384 2291 2279 2372
8 2384 2291 2279 2372 2385 2292 2280 2373
8 2386 2293 2281 2374 2387 2294 2282 2375
8 2387 2294 2282 2375 2388 2295 2283 2376
8 2388 2295 2283 2376 2389 2296 2284 2377
8 2389 2296 2284 2377 2390 2297 2285 2378
8 2390 2297 2285 2378 2391 2298 2286 2379
8 2391 2298 2286 2379 2392 2299 2287 2380
8 2392 2299 2287 2380 2393 2300 2288 2381
8 2393 2300 2288 2381 2394 2301 2289 2382
8 2394 2301 2289 2382 2395 2302 2290 2383
8 2395 2302 2290 2383 2396 2303 2291 2384
8 2396 2303 2291 2384 2397 2304 2292 2385
8 4017 4007 4006 4016 2404 2311 2305 2398
8 2404 2311 2305 2398 2405 2312 2306 2399
8 2405 2312 2306 2399 2406 2313 2307 2400
8 2406 2313 2307 2400 2407 2314 2308 2401
8 2407 2314 2308 2401 2408 2315 2309 2402
8 2408 2315 2309 2402 2409 2316 2310 2403
8 4018 4008 4007 4017 2410 2317 2311 2404
8 2410 2317 2311 2404 2411 2318 2312 2405
8 2411 2318 2312 2405 2412 2319 2313 2406
8 2412 2319 2313 2406 2413 2320 2314 2407
8 2413 2320 2314 2407 2414 2321 2315 2408
8 2414 2321 2315 2408 2415 2322 2316 2409
8 4019 4009 4008 4018 2419 2326 2317 2410
8 2419 2326 2317 2410 2420 2327 2318 2411
8 2420 2327 2318 2411 2421 2328 2319 2412
8 2421 2328 2319 2412 2422 2329 2320 2413
8 2422 2329 2320 2413 2423 2330 2321 2414
8 2423 2330 2321 2414 2424 2331 2322 2415
8 2424 2331 2322 2415 2425 2332 2323 2416
8 2425 2332 2323 2416 2426 2333 2324 2417
8 2426 2333 2324 2417 2427 2334 2325 2418
8 4020 4010 4009 4019 2428 2335 2326 2419
8 2428 2335 2326 2419 2429 2336 2327 2420
8 2429 2336 2327 2420 2430 2337 2328 2421
8 2430 2337 2328 2421 2431 2338 2329 2422
8 2431 2338 2329 2422 2432 2339 2330 2423
8 2432 2339 2330 2423 2433 2340 2331 2424
8 2433 2340 2331 2424 2434 2341 2332 2425
8 2434 2341 2332 2425 2435 2342 2333 2426
8 2435 2342 2333 2426 2436 2343 2334 2427
8 4021 4011 4010 4020 2437 2344 2335 2428
8 2437 2344 2335 2428 2438 2345 2336 2429
8 2438 2345 2336 2429 2439 2346 2337 2430
8 2439 2346 2337 2430 2440 2347 2338 2431
8 2440 2347 2338 2431 2441 2348 2339 2432
8 2441 2348 2339 2432 2442 2349 2340 2433
8 2442 2349 2340 2433 2443 2350 2341 2434
8 2443 2350 2341 2434 2444 2351 2342 2435
8 2444 2351 2342 2435 2445 2352 2343 2436
8 4022 4012 4011 4021 2446 2353 2344 2437
8 2446 2353 2344 2437 2447 2354 2345 2438
8 2447 2354 2345 2438 2448 2355 2346 2439
8 2448 2355 2346 2439 2449 2356 2347 2440
8 2449 2356 2347 2440 2450 2357 2348 2441
8 2450 2357 2348 2441 2451 2358 2349 2442
8 2451 2358 2349 2442 2452 2359 2350 2443
8 2452 2359 2350 2443 2453 2360 2351 2444
8 2453 2360 2351 2444 2454 2361 2352 2445
8 4024 4014 4012 4022 2456 2363 2353 2446
8 2456 2363 2353 2446 2457 2364 2354 2447
8 2457 2364 2354 2447 2458 2365 2355 2448
8 2458 2365 2355 2448 2459 2366 2356 2449
8 2459 2366 2356 2449 2460 2367 2357 2450
8 2460 2367 2357 2450 2461 2368 2358 2451
8 2461 2368 2358 2451 2462 2369 2359 2452
8 2462 2369 2359 2452 2463 2370 2360 2453
8 2463 2370 2360 2453 2464 2371 2361 2454
8 2464 2371 2361 2454 2465 2372 2362 2455
8 4025 4015 4013 4023 2467 2374 4014 4024
8 2467 2374 4014 4024 2468 2375 2363 2456
8 2468 2375 2363 2456 2469 2376 2364 2457
8 2469 2376 2364 2457 2470 2377 2365 2458
8 2470 2377 2365 2458 2471 2378 2366 2459
8 2471 2378 2366 2459 2472 2379 2367 2460
8 2472 2379 2367 2460 2473 2380 2368 2461
8 2473 2380 2368 2461 2474 2381 2369 2462
8 2474 2381 2369 2462 2475 2382 2370 2463
8 2475 2382 2370 2463 2476 2383 2371 2464
8 2476 2383 2371 2464 2477 2384 2372 2465
8 2477 2384 2372 2465 2478 2385 2373 2466
8 2479 2386 2374 2467 2480 2387 2375 2468
8 2480 2387 2375 2468 2481 2388 2376 2469
8 2481 2388 2376 2469 2482 2389 2377 2470
8 2482 2389 2377 2470 2483 2390 2378 2471
8 2483 2390 2378 2471 2484 2391 2379 2472
8 2484 2391 2379 2472 2485 2392 2380 2473
8 2485 2392 2380 2473 2486 2393 2381 2474
8 2486 2393 2381 2474 2487 2394 2382 2475
8 2487 2394 2382 2475 2488 2395 2383 2476
8 2488 2395 2383 2476 2489 2396 2384 2477
8 2489 2396 2384 2477 2490 2397 2385 2478
8 4027 4017 4016 4026 2497 2404 2398 2491
8 2497 2404 2398 2491 2498 2405 2399 2492
8 2498 2405 2399 2492 2499 2406 2400 2493
8 2499 2406 2400 2493 2500 2407 2401 2494
8 2500 2407 2401 2494 2501 2408 2402 2495
8 2501 2408 2402 2495 2502 2409 2403 2496
8 4028 4018 4017 4027 2503 2410 2404 2497
8 2503 2410 2404 2497 2504 2411 2405 2498
8 2504 2411 2405 2498 2505 2412 2406 2499
8 2505 2412 2406 2499 2506 2413 2407 2500
8 2506 2413 2407 2500 2507 2414 2408 2501
8 2507 2414 2408 2501 2508 2415 2409 2502
8 4029 4019 4018 4028 2512 2419 2410 2503
8 2512 2419 2410 2503 2513 2420 2411 2504
8 2513 2420 2411 2504 2514 2421 2412 2505
8 2514 2421 2412 2505 2515 2422 2413 2506
8 2515 2422 2413 2506 2516 2423 2414 2507
8 2516 2423 2414 2507 2517 2424 2415 2508
8 2517 2424 2415 2508 2518 2425 2416 2509
8 2518 2425 2416 2509 2519 2426 2417 2510
8 2519 2426 2417 2510 2520 2427 2418 2511
8 4030 4020 4019 4029 2521 2428 2419 2512
8 2521 2428 2419 2512 2522 2429 2420 2513
8 2522 2429 2420 2513 2523 2430 2421 2514
8 2523 2430 2421 2514 2524 2431 2422 2515
8 2524 2431 2422 2515 2525 2432 2423 2516
8 2525 2432 2423 2516 2526 2433 2424 2517
8 2526 2433 2424 2517 2527 2434 2425 2518
8 2527 2434 2425 2518 2528 2435 2426 2519
8 2528 2435 2426 2519 2529 2436 2427 2520
8 4031 4021 4020 4030 2530 2437 2428 2521
8 2530 2437 2428 2521 2531 2438 2429 2522
8 2531 2438 2429 2522 2532 2439 2430 2523
8 2532 2439 2430 2523 2533 2440 2431 2524
8 2533 2440 2431 2524 2534 2441 2432 2525
8 2534 2441 2432 2525 2535 2442 2433 2526
8 2535 2442 2433 2526 2536 2443 2434 2527
8 2536 2443 2434 2527 2537 2444 2435 2528
8 2537 2444 2435 2528 2538 2445 2436 2529
8 4032 4022 4021 4031 2539 2446 2437 2530
8 2539 2446 2437 2530 2540 2447 2438 2531
8 2540 2447 2438 2531 2541 2448 2439 2532
8 2541 2448 2439 2532 2542 2449 2440 2533
8 2542 2449 2440 2533 2543 2450 2441 2534
8 2543 2450 2441 2534 2544 2451 2442 2535
8 2544 2451 2442 2535 2545 2452 2443 2536
8 2545 2452 2443 2536 2546 2453 2444 2537
8 2546 2453 2444 2537 2547 2454 2445 2538
8 4034 4024 4022 4032 2549 2456 2446 2539
8 2549 2456 2446 2539 2550 2457 2447 2540
8 2550 2457 2447 2540 2551 2458 2448 2541
8 2551 2458 2448 2541 2552 2459 2449 2542
8 2552 2459 2449 2542 2553 2460 2450 2543
8 2553 2460 2450 2543 2554 2461 2451 2544
8 2554 2461 2451 2544 2555 2462 2452 2545
8 2555 2462 2452 2545 2556 2463 2453 2546
8 2556 2463 2453 2546 2557 2464 2454 2547
8 2557 2464 2454 2547 2558 2465 2455 2548
8 4035 4025 4023 4033 2560 2467 4024 4034
8 2560 2467 4024 4034 2561 2468 2456 2549
8 2561 2468 2456 2549 2562 2469 2457 2550
8 2562 2469 2457 2550 2563 2470 2458 2551
8 2563 2470 2458 2551 2564 2471 2459 2552
8 2564 2471 2459 2552 2565 2472 2460 2553
8 2565 2472 2460 2553 2566 2473 2461 2554
8 2566 2473 2461 2554 2567 2474 2462 2555
8 2567 2474 2462 2555 2568 2475 2463 2556
8 2568 2475 2463 2556 2569 2476 2464 2557
8 2569 2476 2464 2557 2570 2477 2465 2558
8 2570 2477 2465 2558 2571 2478 2466 2559
8 2572 2479 2467 2560 2573 2480 2468 2561
8 2573 2480 2468 2561 2574 2481 2469 2562
8 2574 2481 2469 2562 2575 2482 2470 2563
8 2575 2482 2470 2563 2576 2483 2471 2564
8 2576 2483 2471 2564 2577 2484 2472 2565
8 2577 2484 2472 2565 2578 2485 2473 2566
8 2578 2485 2473 2566 2579 2486 2474 2567
8 2579 2486 2474 2567 2580 2487 2475 2568
8 2580 2487 2475 2568 2581 2488 2476 2569
8 2581 2488 2476 2569 2582 2489 2477 2570
8 2582 2489 2477 2570 2583 2490 2478 2571
8 4037 4027 4026 4036 2590 2497 2491 2584
8 2590 2497 2491 2584 2591 2498 2492 2585
8 2591 2498 2492 2585 2592 2499 2493 2586
8 2592 2499 2493 2586 2593 2500 2494 2587
8 2593 2500 2494 2587 2594 2501 2495 2588
8 2594 2501 2495 2588 2595 2502 2496 2589
8 4038 4028 4027 4037 2596 2503 2497 2590
8 2596 2503 2497 2590 2597 2504 2498 2591
8 2597 2504 2498 2591 2598 2505 2499 2592
8 2598 2505 2499 2592 2599 2506 2500 2593
8 2599 2506 2500 2593 2600 2507 2501 2594
8 2600 2507 2501 2594 2601 2508 2502 2595
8 4039 4029 4028 4038 2605 2512 2503 2596
8 2605 2512 2503 2596 2606 2513 2504 2597
8 2606 2513 2504 2597 2607 2514 2505 2598
8 2607 2514 2505 2598 2608 2515 2506 2599
8 2608 2515 2506 2599 2609 2516 2507 2600
8 2609 2516 2507 2600 2610 2517 2508 2601
8 2610 2517 2508 2601 2611 2518 2509 2602
8 2611 2518 2509 2602 2612 2519 2510 2603
8 2612 2519 2510 2603 2613 2520 2511 2604
8 4040 4030 4029 4039 2614 2521 2512 2605
8 2614 2521 2512 2605 2615 2522 2513 2606
8 2615 2522 2513 2606 2616 2523 2514 2607
8 2616 2523 2514 2607 2617 2524 2515 2608
8 2617 2524 2515 2608 2618 2525 2516 2609
8 2618 2525 2516 2609 2619 2526 2517 2610
8 2619 2526 2517 2610 2620 2527 2518 2611
8 2620 2527 2518 2611 2621 2528 2519 2612
8 2621 2528 2519 2612 2622 2529 2520 2613
8 4041 4031 4030 4040 2623 2530 2521 2614
8 2623 2530 2521 2614 2624 2531 2522 2615
8 2624 2531 2522 2615 2625 2532 2523 2616
8 2625 2532 2523 2616 2626 2533 2524 2617
8 2626 2533 2524 2617 2627 2534 2525 2618
8 2627 2534 2525 2618 2628 2535 2526 2619
8 2628 2535 2526 2619 2629 2536 2527 2620
8 2629 2536 2527 2620 2630 2537 2528 2621
8 2630 2537 2528 2621 2631 2538 2529 2622
8 4042 4032 4031 4041 2632 2539 2530 2623
8 2632 2539 2530 2623 2633 2540 2531 2624
8 2633 2540 2531 2624 2634 2541 2532 2625
8 2634 2541 2532 2625 2635 2542 2533 2626
8 2635 2542 2533 2626 2636 2543 2534 2627
8 2636 2543 2534 2627 2637 2544 2535 2628
8 2637 2544 2535 2628 2638 2545 2536 2629
8 2638 2545 2536 2629 2639 2546 2537 2630
8 2639 2546 2537 2630 2640 2547 2538 2631
8 4044 4034 4032 4042 2642 2549 2539 2632
8 2642 2549 2539 2632 2643 2550 2540 2633
8 2643 2550 2540 2633 2644 2551 2541 2634
8 2644 2551 2541 2634 2645 2552 2542 2635
8 2645 2552 2542 2635 2646 2553 2543 2636
8 2646 2553 2543 2636 2647 2554 2544 2637
8 2647 2554 2544 2637 2648 2555 2545 2638
8 2648 2555 2545 2638 2649 2556 2546 2639
8 2649 2556 2546 2639 2650 2557 2547 2640
8 2650 2557 2547 2640 2651 2558 2548 2641
8 4045 4035 4033 4043 2653 2560 4034 4044
8 2653 2560 4034 4044 2654 2561 2549 2642
8 2654 2561 2549 2642 2655 2562 2550 2643
8 2655 2562 2550 2643 2656 2563 2551 2644
8 2656 2563 2551 2644 2657 2564 2552 2645
8 2657 2564 2552 2645 2658 2565 2553 2646
8 2658 2565 2553 2646 2659 2566 2554 2647
8 2659 2566 2554 2647 2660 2567 2555 2648
8 2660 2567 2555 2648 2661 2568 2556 2649
8 2661 2568 2556 2649 2662 2569 2557 2650
8 2662 2569 2557 2650 2663 2570 2558 2651
8 2663 2570 2558 2651 2664 2571 2559 2652
8 2665 2572 2560 2653 2666 2573 2561 2654
8 2666 2573 2561 2654 2667 2574 2562 2655
8 2667 2574 2562 2655 2668 2575 2563 2656
8 2668 2575 2563 2656 2669 2576 2564 2657
8 2669 2576 2564 2657 2670 2577 2565 2658
8 2670 2577 2565 2658 2671 2578 2566 2659
8 2671 2578 2566 2659 2672 2579 2567 2660
8 2672 2579 2567 2660 2673 2580 2568 2661
8 2673 2580 2568 2661 2674 2581 2569 2662
8 2674 2581 2569 2662 2675 2582 2570 2663
8 2675 2582 2570 2663 2676 2583 2571 2664
8 4047 4037 4036 4046 2683 2590 2584 2677
8 2683 2590 2584 2677 2684 2591 2585 2678
8 2684 2591 2585 2678 2685 2592 2586 2679
8 2685 2592 2586 2679 2686 2593 2587 2680
8 2686 2593 2587 2680 2687 2594 2588 2681
8 2687 2594 2588 2681 2688 2595 2589 2682
8 4048 4038 4037 4047 2689 2596 2590 2683
8 2689 2596 2590 2683 2690 2597 2591 2684
8 2690 2597 2591 2684 2691 2598 2592 2685
8 2691 2598 2592 2685 2692 2599 2593 2686
8 2692 2599 2593 2686 2693 2600 2594 2687
8 2693 2600 2594 2687 2694 2601 2595 2688
8 4049 4039 4038 4048 2698 2605 2596 2689
8 2698 2605 2596 2689 2699 2606 2597 2690
8 2699 2606 2597 2690 2700 2607 2598 2691
8 2700 2607 2598 2691 2701 2608 2599 2692
8 2701 2608 2599 2692 2702 2609 2600 2693
8 2702 2609 2600 2693 2703 2610 2601 2694
8 2703 2610 2601 2694 2704 2611 2602 2695
8 2704 2611 2602 2695 2705 2612 2603 2696
8 2705 2612 2603 2696 2706 2613 2604 2697
8 4050 4040 4039 4049 2707 2614 2605 2698
8 2707 2614 2605 2698 2708 2615 2606 2699
8 2708 2615 2606 2699 2709 2616 2607 2700
8 2709 2616 2607 2700 2710 2617 2608 2701
8 2710 2617 2608 2701 2711 2618 2609 2702
8 2711 2618 2609 2702 2712 2619 2610 2703
8 2712 2619 2610 2703 2713 2620 2611 2704
8 2713 2620 2611 2704 2714 2621 2612 2705
8 2714 2621 2612 2705 2715 2622 2613 2706
8 4051 4041 4040 4050 2716 2623 2614 2707
8 2716 2623 2614 2707 2717 2624 2615 2708
8 2717 2624 2615 2708 2718 2625 2616 2709
8 2718 2625 2616 2709 2719 2626 2617 2710
8 2719 2626 2617 2710 2720 2627 2618 2711
8 2720 2627 2618 2711 2721 2628 2619 2712
8 2721 2628 2619 2712 2722 2629 2620 2713
8 2722 2629 2620 2713 2723 2630 2621 2714
8 2723 2630 2621 2714 2724 2631 2622 2715
8 4052 4042 4041 4051 2725 2632 2623 2716
8 2725 2632 2623 2716 2726 2633 2624 2717
8 2726 2633 2624 2717 2727 2634 2625 2718
8 2727 2634 2625 2718 2728 2635 2626 2719
8 2728 2635 2626 2719 2729 2636 2627 2720
8 2729 2636 2627 2720 2730 2637 2628 2721
8 2730 2637 2628 2721 2731 2638 2629 2722
8 2731 2638 2629 2722 2732 2639 2630 2723
8 2732 2639 2630 2723 2733 2640 2631 2724
8 4054 4044 4042 4052 2735 2642 2632 2725
8 2735 2642 2632 2725 2736 2643 2633 2726
8 2736 2643 2633 2726 2737 2644 2634 2727
8 2737 2644 2634 2727 2738 2645 2635 2728
8 2738 2645 2635 2728 2739 2646 2636 2729
8 2739 2646 2636 2729 2740 2647 2637 2730
8 2740 2647 2637 2730 2741 2648 2638 2731
8 2741 2648 2638 2731 2742 2649 2639 2732
8 2742 2649 2639 2732 2743 2650 2640 2733
8 2743 2650 2640 2733 2744 2651 2641 2734
8 4055 4045 4043 4053 2746 2653 4044 4054
8 2746 2653 4044 4054 2747 2654 2642 2735
8 2747 2654 2642 2735 2748 2655 2643 2736
8 2748 2655 2643 2736 2749 2656 2644 2737
8 2749 2656 2644 2737 2750 2657 2645 2738
8 2750 2657 2645 2738 2751 2658 2646 2739
8 2751 2658 2646 2739 2752 2659 2647 2740
8 2752 2659 2647 2740 2753 2660 2648 2741
8 2753 2660 2648 2741 2754 2661 2649 2742
8 2754 2661 2649 2742 2755 2662 2650 2743
8 2755 2662 2650 2743 2756 2663 2651 2744
8 2756 2663 2651 2744 2757 2664 2652 2745
8 2758 2665 2653 2746 2759 2666 2654 2747
8 2759 2666 2654 2747 2760 2667 2655 2748
8 2760 2667 2655 2748 2761 2668 2656 2749
8 2761 2668 2656 2749 2762 2669 2657 2750
8 2762 2669 2657 2750 2763 2670 2658 2751
8 2763 2670 2658 2751 2764 2671 2659 2752
8 2764 2671 2659 2752 2765 2672 2660 2753
8 2765 2672 2660 2753 2766 2673 2661 2754
8 2766 2673 2661 2754 2767 2674 2662 2755
8 2767 2674 2662 2755 2768 2675 2663 2756
8 2768 2675 2663 2756 2769 2676 2664 2757
8 4057 4047 4046 4056 2776 2683 2677 2770
8 2776 2683 2677 2770 2777 2684 2678 2771
8 2777 2684 2678 2771 2778 2685 2679 2772
8 2778 2685 2679 2772 2779 2686 2680 2773
8 2779 2686 2680 2773 2780 2687 2681 2774
8 2780 2687 2681 2774 2781 2688 2682 2775
8 4058 4048 4047 4057 2782 2689 2683 2776
8 2782 2689 2683 2776 2783 2690 2684 2777
8 2783 2690 2684 2777 2784 2691 2685 2778
8 2784 2691 2685 2778 2785 2692 2686 2779
8 2785 2692 2686 2779 2786 2693 2687 2780
8 2786 2693 2687 2780 2787 2694 2688 2781
8 4059 4049 4048 4058 2791 2698 2689 2782
8 2791 2698 2689 2782 2792 2699 2690 2783
8 2792 2699 2690 2783 2793 2700 2691 2784
8 2793 2700 2691 2784 2794 2701 2692 2785
8 2794 2701 2692 2785 2795 2702 2693 2786
8 2795 2702 2693 2786 2796 2703 2694 2787
8 2796 2703 2694 2787 2797 2704 2695 2788
8 2797 2704 2695 2788 2798 2705 2696 2789
8 2798 2705 2696 2789 2799 2706 2697 2790
8 4060 4050 4049 4059 2800 2707 2698 2791
8 2800 2707 2698 2791 2801 2708 2699 2792
8 2801 2708 2699 2792 2802 2709 2700 2793
8 2802 2709 2700 2793 2803 2710 2701 2794
8 2803 2710 2701 2794 2804 2711 2702 2795
8 2804 2711 2702 2795 2805 2712 2703 2796
8 2805 2712 2703 2796 2806 2713 2704 2797
8 2806 2713 2704 2797 2807 2714 2705 2798
8 2807 2714 2705 2798 2808 2715 2706 2799
8 4061 4051 4050 4060 2809 2716 2707 2800
8 2809 2716 2707 2800 2810 2717 2708 2801
8 2810 2717 2708 2801 2811 2718 2709 2802
8 2811 2718 2709 2802 2812 2719 2710 2803
8 2812 2719 2710 2803 2813 2720 2711 2804
8 2813 2720 2711 2804 2814 2721 2712 2805
8 2814 2721 2712 2805 2815 2722 2713 2806
8 2815 2722 2713 2806 2816 2723 2714 2807
8 2816 2723 2714 2807 2817 2724 2715 2808
8 4062 4052 4051 4061 2818 2725 2716 2809
8 2818 2725 2716 2809 2819 2726 2717 2810
8 2819 2726 2717 2810 2820 2727 2718 2811
8 2820 2727 2718 2811 2821 2728 2719 2812
8 2821 2728 2719 2812 2822 2729 2720 2813
8 2822 2729 2720 2813 2823 2730 2721 2814
8 2823 2730 2721 2814 2824 2731 2722 2815
8 2824 2731 2722 2815 2825 2732 2723 2816
8 2825 2732 2723 2816 2826 2733 2724 2817
8 4064 4054 4052 4062 2828 2735 2725 2818
8 2828 2735 2725 2818 2829 2736 2726 2819
8 2829 2736 2726 2819 2830 2737 2727 2820
8 2830 2737 2727 2820 2831 2738 2728 2821
8 2831 2738 2728 2821 2832 2739 2729 2822
8 2832 2739 2729 2822 2833 2740 2730 2823
8 2833 2740 2730 2823 2834 2741 2731 2824
8 2834 2741 2731 2824 2835 2742 2732 2825
8 2835 2742 2732 2825 2836 2743 2733 2826
8 2836 2743 2733 2826 2837 2744 2734 2827
8 4065 4055 4053 4063 2839 2746 4054 4064
8 2839 2746 4054 4064 2840 2747 2735 2828
8 2840 2747 2735 2828 2841 2748 2736 2829
8 2841 2748 2736 2829 2842 2749 2737 2830
8 2842 2749 2737 2830 2843 2750 2738 2831
8 2843 2750 2738 2831 2844 2751 2739 2832
8 2844 2751 2739 2832 2845 2752 2740 2833
8 2845 2752 2740 2833 2846 2753 2741 2834
8 2846 2753 2741 2834 2847 2754 2742 2835
8 2847 2754 2742 2835 2848 2755 2743 2836
8 2848 2755 2743 2836 2849 2756 2744 2837
8 2849 2756 2744 2837 2850 2757 2745 2838
8 2851 2758 2746 2839 2852 2759 2747 2840
8 2852 2759 2747 2840 2853 2760 2748 2841
8 2853 2760 2748 2841 2854 2761 2749 2842
8 2854 2761 2749 2842 2855 2762 2750 2843
8 2855 2762 2750 2843 2856 2763 2751 2844
8 2856 2763 2751 2844 2857 2764 2752 2845
8 2857 2764 2752 2845 2858 2765 2753 2846
8 2858 2765 2753 2846 2859 2766 2754 2847
8 2859 2766 2754 2847 2860 2767 2755 2848
8 2860 2767 2755 2848 2861 2768 2756 2849
8 2861 2768 2756 2849 2862 2769 2757 2850
8 4067 4057 4056 4066 2869 2776 2770 2863
8 2869 2776 2770 2863 2870 2777 2771 2864
8 2870 2777 2771 2864 2871 2778 2772 2865
8 2871 2778 2772 2865 2872 2779 2773 2866
8 2872 2779 2773 2866 2873 2780 2774 2867
8 2873 2780 2774 2867 2874 2781 2775 2868
8 4068 4058 4057 4067 2875 2782 2776 2869
8 2875 2782 2776 2869 2876 2783 2777 2870
8 2876 2783 2777 2870 2877 2784 2778 2871
8 2877 2784 2778 2871 2878 2785 2779 2872
8 2878 2785 2779 2872 2879 2786 2780 2873
8 2879 2786 2780 2873 2880 2787 2781 2874
8 4069 4059 4058 4068 2884 2791 2782 2875
8 2884 2791 2782 2875 2885 2792 2783 2876
8 2885 2792 2783 2876 2886 2793 2784 2877
8 2886 2793 2784 2877 2887 2794 2785 2878
8 2887 2794 2785 2878 2888 2795 2786 2879
8 2888 2795 2786 2879 2889 2796 2787 2880
8 2889 2796 2787 2880 2890 2797 2788 2881
8 2890 2797 2788 2881 2891 2798 2789 2882
8 2891 2798 2789 2882 2892 2799 2790 2883
8 4070 4060 4059 4069 2893 2800 2791 2884
8 2893 2800 2791 2884 2894 2801 2792 2885
8 2894 2801 2792 2885 2895 2802 2793 2886
8 2895 2802 2793 2886 2896 2803 2794 2887
8 2896 2803 2794 2887 2897 2804 2795 2888
8 2897 2804 2795 2888 2898 2805 2796 2889
8 2898 2805 2796 2889 2899 2806 2797 2890
8 2899 2806 2797 2890 2900 2807 2798 2891
8 2900 2807 2798 2891 2901 2808 2799 2892
8 4071 4061 4060 4070 2902 2809 2800 2893
8 2902 2809 2800 2893 2903 2810 2801 2894
8 2903 2810 2801 2894 2904 2811 2802 2895
8 2904 2811 2802 2895 2905 2812 2803 2896
8 2905 2812 2803 2896 2906 2813 2804 2897
8 2906 2813 2804 2897 2907 2814 2805 2898
8 2907 2814 2805 2898 2908 2815 2806 2899
8 2908 2815 2806 2899 2909 2816 2807 2900
8 2909 2816 2807 2900 2910 2817 2808 2901
8 4072 4062 4061 4071 2911 2818 2809 2902
8 2911 2818 2809 2902 2912 2819 2810 2903
8 2912 2819 2810 2903 2913 2820 2811 2904
8 2913 2820 2811 2904 2914 2821 2812 2905
8 2914 2821 2812 2905 2915 2822 2813 2906
8 2915 2822 2813 2906 2916 2823 2814 2907
8 2916 2823 2814 2907 2917 2824 2815 2908
8 2917 2824 2815 2908 2918 2825 2816 2909
8 2918 2825 2816 2909 2919 2826 2817 2910
8 4074 4064 4062 4072 2921 2828 2818 2911
8 2921 2828 2818 2911 2922 2829 2819 2912
8 2922 2829 2819 2912 2923 2830 2820 2913
8 2923 2830 2820 2913 2924 2831 2821 2914
8 2924 2831 2821 2914 2925 2832 2822 2915
8 2925 2832 2822 2915 2926 2833 2823 2916
8 2926 2833 2823 2916 2927 2834 2824 2917
8 2927 2834 2824 2917 2928 2835 2825 2918
8 2928 2835 2825 2918 2929 2836 2826 2919
8 2929 2836 2826 2919 2930 2837 2827 2920
8 4075 4065 4063 4073 2932 2839 4064 4074
8 2932 2839 4064 4074 2933 2840 2828 2921
8 2933 2840 2828 2921 2934 2841 2829 2922
8 2934 2841 2829 2922 2935 2842 2830 2923
8 2935 2842 2830 2923 2936 2843 2831 2924
8 2936 2843 2831 2924 2937 2844 2832 2925
8 2937 2844 2832 2925 2938 2845 2833 2926
8 2938 2845 2833 2926 2939 2846 2834 2927
8 2939 2846 2834 2927 2940 2847 2835 2928
8 2940 2847 2835 2928 2941 2848 2836 2929
8 2941 2848 2836 2929 2942 2849 2837 2930
8 2942 2849 2837 2930 2943 2850 2838 2931
8 2944 2851 2839 2932 2945 2852 2840 2933
8 2945 2852 2840 2933 2946 2853 2841 2934
8 2946 2853 2841 2934 2947 2854 2842 2935
8 2947 2854 2842 2935 2948 2855 2843 2936
8 2948 2855 2843 2936 2949 2856 2844 2937
8 2949 2856 2844 2937 2950 2857 2845 2938
8 2950 2857 2845 2938 2951 2858 2846 2939
8 2951 2858 2846 2939 2952 2859 2847 2940
8 2952 2859 2847 2940 2953 2860 2848 2941
8 2953 2860 2848 2941 2954 2861 2849 2942
8 2954 2861 2849 2942 2955 2862 2850 2943
8 4077 4067 4066 4076 2962 2869 2863 2956
8 2962 2869 2863 2956 2963 2870 2864 2957
8 2963 2870 2864 2957 2964 2871 2865 2958
8 2964 2871 2865 2958 2965 2872 2866 2959
8 2965 2872 2866 2959 2966 2873 2867 2960
8 2966 2873 2867 2960 2967 2874 2868 2961
8 4078 4068 4067 4077 2968 2875 2869 2962
8 2968 2875 2869 2962 2969 2876 2870 2963
8 2969 2876 2870 2963 2970 2877 2871 2964
8 2970 2877 2871 2964 2971 2878 2872 2965
8 2971 2878 2872 2965 2972 2879 2873 2966
8 2972 2879 2873 2966 2973 2880 2874 2967
8 4079 4069 4068 4078 2977 2884 2875 2968
8 2977 2884 2875 2968 2978 2885 2876 2969
8 2978 2885 2876 2969 2979 2886 2877 2970
8 2979 2886 2877 2970 2980 2887 2878 2971
8 2980 2887 2878 2971 2981 2888 2879 2972
8 2981 2888 2879 2972 2982 2889 2880 2973
8 2982 2889 2880 2973 2983 2890 2881 2974
8 2983 2890 2881 2974 2984 2891 2882 2975
8 2984 2891 2882 2975 2985 2892 2883 2976
8 4080 4070 4069 4079 2986 2893 2884 2977
8 2986 2893 2884 2977 2987 2894 2885 2978
8 2987 2894 2885 2978 2988 2895 2886 2979
8 2988 2895 2886 2979 2989 2896 2887 2980
8 2989 2896 2887 2980 2990 2897 2888 2981
8 2990 2897 2888 2981 2991 2898 2889 2982
8 2991 2898 2889 2982 2992 2899 2890 2983
8 2992 2899 2890 2983 2993 2900 2891 2984
8 2993 2900 2891 2984 2994 2901 2892 2985
8 4081 4071 4070 4080 2995 2902 2893 2986
8 2995 2902 2893 2986 2996 2903 2894 2987
8 2996 2903 2894 2987 2997 2904 2895 2988
8 2997 2904 2895 2988 2998 2905 2896 2989
8 2998 2905 2896 2989 2999 2906 2897 2990
8 2999 2906 2897 2990 3000 2907 2898 2991
8 3000 2907 2898 2991 3001 2908 2899 2992
8 3001 2908 2899 2992 3002 2909 2900 2993
8 3002 2909 2900 2993 3003 2910 2901 2994
8 4082 4072 4071 4081 3004 2911 2902 2995
8 3004 2911 2902 2995 3005 2912 2903 2996
8 3005 2912 2903 2996 3006 2913 2904 2997
8 3006 2913 2904 2997 3007 2914 2905 2998
8 3007 2914 2905 2998 3008 2915 2906 2999
8 3008 2915 2906 2999 3009 2916 2907 3000
8 3009 2916 2907 3000 3010 2917 2908 3001
8 3010 2917 2908 3001 3011 2918 2909 3002
8 3011 2918 2909 3002 3012 2919 2910 3003
8 4084 4074 4072 4082 3014 2921 2911 3004
8 3014 2921 2911 3004 3015 2922 2912 3005
8 3015 2922 2912 3005 3016 2923 2913 3006
8 3016 2923 2913 3006 3017 2924 2914 3007
8 3017 2924 2914 3007 3018 2925 2915 3008
8 3018 2925 2915 3008 3019 2926 2916 3009
8 3019 2926 2916 3009 3020 2927 2917 3010
8 3020 2927 2917 3010 3021 2928 2918 3011
8 3021 2928 2918 3011 3022 2929 2919 3012
8 3022 2929 2919 3012 3023 2930 2920 3013
8 4085 4075 4073 4083 3025 2932 4074 4084
8 3025 2932 4074 4084 3026 2933 2921 3014
8 3026 2933 2921 3014 3027 2934 2922 3015
8 3027 2934 2922 3015 3028 2935 2923 3016
8 3028 2935 2923 3016 3029 2936 2924 3017
8 3029 2936 2924 3017 3030 2937 2925 3018
8 3030 2937 2925 3018 3031 2938 2926 3019
8 3031 2938 2926 3019 3032 2939 2927 3020
8 3032 2939 2927 3020 3033 2940 2928 3021
8 3033 2940 2928 3021 3034 2941 2929 3022
8 3034 2941 2929 3022 3035 2942 2930 3023
8 3035 2942 2930 3023 3036 2943 2931 3024
8 3037 2944 2932 3025 3038 2945 2933 3026
8 3038 2945 2933 3026 3039 2946 2934 3027
8 3039 2946 2934 3027 3040 2947 2935 3028
8 3040 2947 2935 3028 3041 2948 2936 3029
8 3041 2948 2936 3029 3042 2949 2937 3030
8 3042 2949 2937 3030 3043 2950 2938 3031
8 3043 2950 2938 3031 3044 2951 2939 3032
8 3044 2951 2939 3032 3045 2952 2940 3033
8 3045 2952 2940 3033 3046 2953 2941 3034
8 3046 2953 2941 3034 3047 2954 2942 3035
8 3047 2954 2942 3035 3048 2955 2943 3036
8 4087 4077 4076 4086 3055 2962 2956 3049
8 3055 2962 2956 3049 3056 2963 2957 3050
8 3056 2963 2957 3050 3057 2964 2958 3051
8 3057 2964 2958 3051 3058 2965 2959 3052
8 3058 2965 2959 3052 3059 2966 2960 3053
8 3059 2966 2960 3053 3060 2967 2961 3054
8 4088 4078 4077 4087 3061 2968 2962 3055
8 3061 2968 2962 3055 3062 2969 2963 3056
8 3062 2969 2963 3056 3063 2970 2964 3057
8 3063 2970 2964 3057 3064 2971 2965 3058
8 3064 2971 2965 3058 3065 2972 2966 3059
8 3065 2972 2966 3059 3066 2973 2967 3060
8 4089 4079 4078 4088 3070 2977 2968 3061
8 3070 2977 2968 3061 3071 2978 2969 3062
8 3071 2978 2969 3062 3072 2979 2970 3063
8 3072 2979 2970 3063 3073 2980 2971 3064
8 3073 2980 2971 3064 3074 2981 2972 3065
8 3074 2981 2972 3065 3075 2982 2973 3066
8 3075 2982 2973 3066 3076 2983 2974 3067
8 3076 2983 2974 3067 3077 2984 2975 3068
8 3077 2984 2975 3068 3078 2985 2976 3069
8 4090 4080 4079 4089 3079 2986 2977 3070
8 3079 2986 2977 3070 3080 2987 2978 3071
8 3080 2987 2978 3071 3081 2988 2979 3072
8 3081 2988 2979 3072 3082 2989 2980 3073
8 3082 2989 2980 3073 3083 2990 2981 3074
8 3083 2990 2981 3074 3084 2991 2982 3075
8 3084 2991 2982 3075 3085 2992 2983 3076
8 3085 2992 2983 3076 3086 2993 2984 3077
8 3086 2993 2984 3077 3087 2994 2985 3078
8 4091 4081 4080 4090 3088 2995 2986 3079
8 3088 2995 2986 3079 3089 2996 2987 3080
8 3089 2996 2987 3080 3090 2997 2988 3081
8 3090 2997 2988 3081 3091 2998 2989 3082
8 3091 2998 2989 3082 3092 2999 2990 3083
8 3092 2999 2990 3083 3093 3000 2991 3084
8 3093 3000 2991 3084 3094 3001 2992 3085
8 3094 3001 2992 3085 3095 3002 2993 3086
8 3095 3002 2993 3086 3096 3003 2994 3087
8 4092 4082 4081 4091 3097 3004 2995 3088
8 3097 3004 2995 3088 3098 3005 2996 3089
8 3098 3005 2996 3089 3099 3006 2997 3090
8 3099 3006 2997 3090 3100 3007 2998 3091
8 3100 3007 2998 3091 3101 3008 2999 3092
8 3101 3008 2999 3092 3102 3009 3000 3093
8 3102 3009 3000 3093 3103 3010 3001 3094
8 3103 3010 3001 3094 3104 3011 3002 3095
8 3104 3011 3002 3095 3105 3012 3003 3096
8 4094 4084 4082 4092 3107 3014 3004 3097
8 3107 3014 3004 3097 3108 3015 3005 3098
8 3108 3015 3005 3098 3109 3016 3006 3099
8 3109 3016 3006 3099 3110 3017 3007 3100
8 3110 3017 3007 3100 3111 3018 3008 3101
8 3111 3018 3008 3101 3112 3019 3009 3102
8 3112 3019 3009 3102 3113 3020 3010 3103
8 3113 3020 3010 3103 3114 3021 3011 3104
8 3114 3021 3011 3104 3115 3022 3012 3105
8 3115 3022 3012 3105 3116 3023 3013 3106
8 4095 4085 4083 4093 3118 3025 4084 4094
8 3118 3025 4084 4094 3119 3026 3014 3107
8 3119 3026 3014 3107 3120 3027 3015 3108
8 3120 3027 3015 3108 3121 3028 3016 3109
8 3121 3028 3016 3109 3122 3029 3017 3110
8 3122 3029 3017 3110 3123 3030 3018 3111
8 3123 3030 3018 3111 3124 3031 3019 3112
8 3124 3031 3019 3112 3125 3032 3020 3113
8 3125 3032 3020 3113 3126 3033 3021 3114
8 3126 3033 3021 3114 3127 3034 3022 3115
8 3127 3034 3022 3115 3128 3035 3023 3116
8 3128 3035 3023 3116 3129 3036 3024 3117
8 3130 3037 3025 3118 3131 3038 3026 3119
8 3131 3038 3026 3119 3132 3039 3027 3120
8 3132 3039 3027 3120 3133 3040 3028 3121
8 3133 3040 3028 3121 3134 3041 3029 3122
8 3134 3041 3029 3122 3135 3042 3030 3123
8 3135 3042 3030 3123 3136 3043 3031 3124
8 3136 3043 3031 3124 3137 3044 3032 3125
8 3137 3044 3032 3125 3138 3045 3033 3126
8 3138 3045 3033 3126 3139 3046 3034 3127
8 3139 3046 3034 3127 3140 3047 3035 3128
8 3140 3047 3035 3128 3141 3048 3036 3129
8 4097 4087 4086 4096 3148 3055 3049 3142
8 3148 3055 3049 3142 3149 3056 3050 3143
8 3149 3056 3050 3143 3150 3057 3051 3144
8 3150 3057 3051 3144 3151 3058 3052 3145
8 3151 3058 3052 3145 3152 3059 3053 3146
8 3152 3059 3053 3146 3153 3060 3054 3147
8 4098 4088 4087 4097 3154 3061 3055 3148
8 3154 3061 3055 3148 3155 3062 3056 3149
8 3155 3062 3056 3149 3156 3063 3057 3150
8 3156 3063 3057 3150 3157 3064 3058 3151
8 3157 3064 3058 3151 3158 3065 3059 3152
8 3158 3065 3059 3152 3159 3066 3060 3153
8 4099 4089 4088 4098 3163 3070 3061 3154
8 3163 3070 3061 3154 3164 3071 3062 3155
8 3164 3071 3062 3155 3165 3072 3063 3156
8 3165 3072 3063 3156 3166 3073 3064 3157
8 3166 3073 3064 3157 3167 3074 3065 3158
8 3167 3074 3065 3158 3168 3075 3066 3159
8 3168 3075 3066 3159 3169 3076 3067 3160
8 3169 3076 3067 3160 3170 3077 3068 3161
8 3170 3077 3068 3161 3171 3078 3069 3162
8 4100 4090 4089 4099 3172 3079 3070 3163
8 3172 3079 3070 3163 3173 3080 3071 3164
8 3173 3080 3071 3164 3174 3081 3072 3165
8 3174 3081 3072 3165 3175 3082 3073 3166
8 3175 3082 3073 3166 3176 3083 3074 3167
8 3176 3083 3074 3167 3177 3084 3075 3168
8 3177 3084 3075 3168 3178 3085 3076 3169
8 3178 3085 3076 3169 3179 3086 3077 3170
8 3179 3086 3077 3170 3180 3087 3078 3171
8 4101 4091 4090 4100 3181 3088 3079 3172
8 3181 3088 3079 3172 3182 3089 3080 3173
8 3182 3089 3080 3173 3183 3090 3081 3174
8 3183 3090 3081 3174 3184 3091 3082 3175
8 3184 3091 3082 3175 3185 3092 3083 3176
8 3185 3092 3083 3176 3186 3093 3084 3177
8 3186 3093 3084 3177 3187 3094 3085 3178
8 3187 3094 3085 3178 3188 3095 3086 3179
8 3188 3095 3086 3179 3189 3096 3087 3180
8 4102 4092 4091 4101 3190 3097 3088 3181
8 3190 3097 3088 3181 3191 3098 3089 3182
8 3191 3098 3089 3182 3192 3099 3090 3183
8 3192 3099 3090 3183 3193 3100 3091 3184
8 3193 3100 3091 3184 3194 3101 3092 3185
8 3194 3101 3092 3185 3195 3102 3093 3186
8 3195 3102 3093 3186 3196 3103 3094 3187
8 3196 3103 3094 3187 3197 3104 3095 3188
8 3197 3104 3095 3188 3198 3105 3096 3189
8 4104 4094 4092 4102 3200 3107 3097 3190
8 3200 3107 3097 3190 3201 3108 3098 3191
8 3201 3108 3098 3191 3202 3109 3099 3192
8 3202 3109 3099 3192 3203 3110 3100 3193
8 3203 3110 3100 3193 3204 3111 3101 3194
8 3204 3111 3101 3194 3205 3112 3102 3195
8 3205 3112 3102 3195 3206 3113 3103 3196
8 3206 3113 3103 3196 3207 3114 3104 3197
8 3207 3114 3104 3197 3208 3115 3105 3198
8 3208 3115 3105 3198 3209 3116 3106 3199
8 4105 4095 4093 4103 3211 3118 4094 4104
8 3211 3118 4094 4104 3212 3119 3107 3200
8 3212 3119 3107 3200 3213 3120 3108 3201
8 3213 3120 3108 3201 3214 3121 3109 3202
8 3214 3121 3109 3202 3215 3122 3110 3203
8 3215 3122 3110 3203 3216 3123 3111 3204
8 3216 3123 3111 3204 3217 3124 3112 3205
8 3217 3124 3112 3205 3218 3125 3113 3206
8 3218 3125 3113 3206 3219 3126 3114 3207
8 3219 3126 3114 3207 3220 3127 3115 3208
8 3220 3127 3115 3208 3221 3128 3116 3209
8 3221 3128 3116 3209 3222 3129 3117 3210
8 3223 3130 3118 3211 3224 3131 3119 3212
8 3224 3131 3119 3212 3225 3132 3120 3213
8 3225 3132 3120 3213 3226 3133 3121 3214
8 3226 3133 3121 3214 3227 3134 3122 3215
8 3227 3134 3122 3215 3228 3135 3123 3216
8 3228 3135 3123 3216 3229 3136 3124 3217
8 3229 3136 3124 3217 3230 3137 3125 3218
8 3230 3137 3125 3218 3231 3138 3126 3219
8 3231 3138 3126 3219 3232 3139 3127 3220
8 3232 3139 3127 3220 3233 3140 3128 3221
8 3233 3140 3128 3221 3234 3141 3129 3222
8 4107 4097 4096 4106 3241 3148 3142 3235
8 3241 3148 3142 3235 3242 3149 3143 3236
8 3242 3149 3143 3236 3243 3150 3144 3237
8 3243 3150 3144 3237 3244 3151 3145 3238
8 3244 3151 3145 3238 3245 3152 3146 3239
8 3245 3152 3146 3239 3246 3153 3147 3240
8 4108 4098 4097 4107 3247 3154 3148 3241
8 3247 3154 3148 3241 3248 3155 3149 3242
8 3248 3155 3149 3242 3249 3156 3150 3243
8 3249 3156 3150 3243 3250 3157 3151 3244
8 3250 3157 3151 3244 3251 3158 3152 3245
8 3251 3158 3152 3245 3252 3159 3153 3246
8 4109 4099 4098 4108 3256 3163 3154 3247
8 3256 3163 3154 3247 3257 3164 3155 3248
8 3257 3164 3155 3248 3258 3165 3156 3249
8 3258 3165 3156 3249 3259 3166 3157 3250
8 3259 3166 3157 3250 3260 3167 3158 3251
8 3260 3167 3158 3251 3261 3168 3159 3252
8 3261 3168 3159 3252 3262 3169 3160 3253
8 3262 3169 3160 3253 3263 3170 3161 3254
8 3263 3170 3161 3254 3264 3171 3162 3255
8 4110 4100 4099 4109 3265 3172 3163 3256
8 3265 3172 3163 3256 3266 3173 3164 3257
8 3266 3173 3164 3257 3267 3174 3165 3258
8 3267 3174 3165 3258 3268 3175 3166 3259
8 3268 3175 3166 3259 3269 3176 3167 3260
8 3269 3176 3167 3260 3270 3177 3168 3261
8 3270 3177 3168 3261 3271 3178 3169 3262
8 3271 3178 3169 3262 3272 3179 3170 3263
8 3272 3179 3170 3263 3273 3180 3171 3264
8 4111 4101 4100 4110 3274 3181 3172 3265
8 3274 3181 3172 3265 3275 3182 3173 3266
8 3275 3182 3173 3266 3276 3183 3174 3267
8 3276 3183 3174 3267 3277 3184 3175 3268
8 3277 3184 3175 3268 3278 3185 3176 3269
8 3278 3185 3176 3269 3279 3186 3177 3270
8 3279 3186 3177 3270 3280 3187 3178 3271
8 3280 3187 3178 3271 3281 3188 3179 3272
8 3281 3188 3179 3272 3282 3189 3180 3273
8 4112 4102 4101 4111 3283 3190 3181 3274
8 3283 3190 3181 3274 3284 3191 3182 3275
8 3284 3191 3182 3275 3285 3192 3183 3276
8 3285 3192 3183 3276 3286 3193 3184 3277
8 3286 3193 3184 3277 3287 3194 3185 3278
8 3287 3194 3185 3278 3288 3195 3186 3279
8 3288 3195 3186 3279 3289 3196 3187 3280
8 3289 3196 3187 3280 3290 3197 3188 3281
8 3290 3197 3188 3281 3291 3198 3189 3282
8 4114 4104 4102 4112 3293 3200 3190 3283
8 3293 3200 3190 3283 3294 3201 3191 3284
8 3294 3201 3191 3284 3295 3202 3192 3285
8 3295 3202 3192 3285 3296 3203 3193 3286
8 3296 3203 3193 3286 3297 3204 3194 3287
8 3297 3204 3194 3287 3298 3205 3195 3288
8 3298 3205 3195 3288 3299 3206 3196 3289
8 3299 3206 3196 3289 3300 3207 3197 3290
8 3300 3207 3197 3290 3301 3208 3198 3291
8 3301 3208 3198 3291 3302 3209 3199 3292
8 4115 4105 4103 4113 3304 3211 4104 4114
8 3304 3211 4104 4114 3305 3212 3200 3293
8 3305 3212 3200 3293 3306 3213 3201 3294
8 3306 3213 3201 3294 3307 3214 3202 3295
8 3307 3214 3202 3295 3308 3215 3203 3296
8 3308 3215 3203 3296 3309 3216 3204 3297
8 3309 3216 3204 3297 3310 3217 3205 3298
8 3310 3217 3205 3298 3311 3218 3206 3299
8 3311 3218 3206 3299 3312 3219 3207 3300
8 3312 3219 3207 3300 3313 3220 3208 3301
8 3313 3220 3208 3301 3314 3221 3209 3302
8 3314 3221 3209 3302 3315 3222 3210 3303
8 3316 3223 3211 3304 3317 3224 3212 3305
8 3317 3224 3212 3305 3318 3225 3213 3306
8 3318 3225 3213 3306 3319 3226 3214 3307
8 3319 3226 3214 3307 3320 3227 3215 3308
8 3320 3227 3215 3308 3321 3228 3216 3309
8 3321 3228 3216 3309 3322 3229 3217 3310
8 3322 3229 3217 3310 3323 3230 3218 3311
8 3323 3230 3218 3311 3324 3231 3219 3312
8 3324 3231 3219 3312 3325 3232 3220 3313
8 3325 3232 3220 3313 3326 3233 3221 3314
8 3326 3233 3221 3314 3327 3234 3222 3315
8 4117 4107 4106 4116 3334 3241 3235 3328
8 3334 3241 3235 3328 3335 3242 3236 3329
8 3335 3242 3236 3329 3336 3243 3237 3330
8 3336 3243 3237 3330 3337 3244 3238 3331
8 3337 3244 3238 3331 3338 3245 3239 3332
8 3338 3245 3239 3332 3339 3246 3240 3333
8 4118 4108 4107 4117 3340 3247 3241 3334
8 3340 3247 3241 3334 3341 3248 3242 3335
8 3341 3248 3242 3335 3342 3249 3243 3336
8 3342 3249 3243 3336 3343 3250 3244 3337
8 3343 3250 3244 3337 3344 3251 3245 3338
8 3344 3251 3245 3338 3345 3252 3246 3339
8 4119 4109 4108 4118 3349 3256 3247 3340
8 3349 3256 3247 3340 3350 3257 3248 3341
8 3350 3257 3248 3341 3351 3258 3249 3342
8 3351 3258 3249 3342 3352 3259 3250 3343
8 3352 3259 3250 3343 3353 3260 3251 3344
8 3353 3260 3251 3344 3354 3261 3252 3345
8 3354 3261 3252 3345 3355 3262 3253 3346
8 3355 3262 3253 3346 3356 3263 3254 3347
8 3356 3263 3254 3347 3357 3264 3255 3348
8 4120 4110 4109 4119 3358 3265 3256 3349
8 3358 3265 3256 3349 3359 3266 3257 3350
8 3359 3266 3257 3350 3360 3267 3258 3351
8 3360 3267 3258 3351 3361 3268 3259 3352
8 3361 3268 3259 3352 3362 3269 3260 3353
8 3362 3269 3260 3353 3363 3270 3261 3354
8 3363 3270 3261 3354 3364 3271 3262 3355
8 3364 3271 3262 3355 3365 3272 3263 3356
8 3365 3272 3263 3356 3366 3273 3264 3357
8 4121 4111 4110 4120 3367 3274 3265 3358
8 3367 3274 3265 3358 3368 3275 3266 3359
8 3368 3275 3266 3359 3369 3276 3267 3360
8 3369 3276 3267 3360 3370 3277 3268 3361
8 3370 3277 3268 3361 3371 3278 3269 3362
8 3371 3278 3269 3362 3372 3279 3270 3363
8 3372 3279 3270 3363 3373 3280 3271 3364
8 3373 3280 3271 3364 3374 3281 3272 3365
8 3374 3281 3272 3365 3375 3282 3273 3366
8 4122 4112 4111 4121 3376 3283 3274 3367
8 3376 3283 3274 3367 3377 3284 3275 3368
8 3377 3284 3275 3368 3378 3285 3276 3369
8 3378 3285 3276 3369 3379 3286 3277 3370
8 3379 3286 3277 3370 3380 3287 3278 3371
8 3380 3287 3278 3371 3381 3288 3279 3372
8 3381 3288 3279 3372 3382 3289 3280 3373
8 3382 3289 3280 3373 3383 3290 3281 3374
8 3383 3290 3281 3374 3384 3291 3282 3375
8 4124 4114 4112 4122 3386 3293 3283 3376
8 3386 3293 3283 3376 3387 3294 3284 3377
8 3387 3294 3284 3377 3388 3295 3285 3378
8 3388 3295 3285 3378 3389 3296 3286 3379
8 3389 3296 3286 3379 3390 3297 3287 3380
8 3390 3297 3287 3380 3391 3298 3288 3381
8 3391 3298 3288 3381 3392 3299 3289 3382
8 3392 3299 3289 3382 3393 3300 3290 3383
8 3393 3300 3290 3383 3394 3301 3291 3384
8 3394 3301 3291 3384 3395 3302 3292 3385
8 4125 4115 4113 4123 3397 3304 4114 4124
8 3397 3304 4114 4124 3398 3305 3293 3386
8 3398 3305 3293 3386 3399 3306 3294 3387
8 3399 3306 3294 3387 3400 3307 3295 3388
8 3400 3307 3295 3388 3401 3308 3296 3389
8 3401 3308 3296 3389 3402 3309 3297 3390
8 3402 3309 3297 3390 3403 3310 3298 3391
8 3403 3310 3298 3391 3404 3311 3299 3392
8 3404 3311 3299 3392 3405 3312 3300 3393
8 3405 3312 3300 3393 3406 3313 3301 3394
8 3406 3313 3301 3394 3407 3314 3302 3395
8 3407 3314 3302 3395 3408 3315 3303 3396
8 3409 3316 3304 3397 3410 3317 3305 3398
8 3410 3317 3305 3398 3411 3318 3306 3399
8 3411 3318 3306 3399 3412 3319 3307 3400
8 3412 3319 3307 3400 3413 3320 3308 3401
8 3413 3320 3308 3401 3414 3321 3309 3402
8 3414 3321 3309 3402 3415 3322 3310 3403
8 3415 3322 3310 3403 3416 3323 3311 3404
8 3416 3323 3311 3404 3417 3324 3312 3405
8 3417 3324 3312 3405 3418 3325 3313 3406
8 3418 3325 3313 3406 3419 3326 3314 3407
8 3419 3326 3314 3407 3420 3327 3315 3408
8 4127 4117 4116 4126 3427 3334 3328 3421
8 3427 3334 3328 3421 3428 3335 3329 3422
8 3428 3335 3329 3422 3429 3336 3330 3423
8 3429 3336 3330 3423 3430 3337 3331 3424
8 3430 3337 3331 3424 3431 3338 3332 3425
8 3431 3338 3332 3425 3432 3339 3333 3426
8 4128 4118 4117 4127 3433 3340 3334 3427
8 3433 3340 3334 3427 3434 3341 3335 3428
8 3434 3341 3335 3428 3435 3342 3336 3429
8 3435 3342 3336 3429 3436 3343 3337 3430
8 3436 3343 3337 3430 3437 3344 3338 3431
8 3437 3344 3338 3431 3438 3345 3339 3432
8 4129 4119 4118 4128 3442 3349 3340 3433
8 3442 3349 3340 3433 3443 3350 3341 3434
8 3443 3350 3341 3434 3444 3351 3342 3435
8 3444 3351 3342 3435 3445 3352 3343 3436
8 3445 3352 3343 3436 3446 3353 3344 3437
8 3446 3353 3344 3437 3447 3354 3345 3438
8 3447 3354 3345 3438 3448 3355 3346 3439
8 3448 3355 3346 3439 3449 3356 3347 3440
8 3449 3356 3347 3440 3450 3357 3348 3441
8 4130 4120 4119 4129 3451 3358 3349 3442
8 3451 3358 3349 3442 3452 3359 3350 3443
8 3452 3359 3350 3443 3453 3360 3351 3444
8 3453 3360 3351 3444 3454 3361 3352 3445
8 3454 3361 3352 3445 3455 3362 3353 3446
8 3455 3362 3353 3446 3456 3363 3354 3447
8 3456 3363 3354 3447 3457 3364 3355 3448
8 3457 3364 3355 3448 3458 3365 3356 3449
8 3458 3365 3356 3449 3459 3366 3357 3450
8 4131 4121 4120 4130 3460 3367 3358 3451
8 3460 3367 3358 3451 3461 3368 3359 3452
8 3461 3368 3359 3452 3462 3369 3360 3453
8 3462 3369 3360 3453 3463 3370 3361 3454
8 3463 3370 3361 3454 3464 3371 3362 3455
8 3464 3371 3362 3455 3465 3372 3363 3456
8 3465 3372 3363 3456 3466 3373 3364 3457
8 3466 3373 3364 3457 3467 3374 3365 3458
8 3467 3374 3365 3458 3468 3375 3366 3459
8 4132 4122 4121 4131 3469 3376 3367 3460
8 3469 3376 3367 3460 3470 3377 3368 3461
8 3470 3377 3368 3461 3471 3378 3369 3462
8 3471 3378 3369 3462 3472 3379 3370 3463
8 3472 3379 3370 3463 3473 3380 3371 3464
8 3473 3380 3371 3464 3474 3381 3372 3465
8 3474 3381 3372 3465 3475 3382 3373 3466
8 3475 3382 3373 3466 3476 3383 3374 3467
8 3476 3383 3374 3467 3477 3384 3375 3468
8 4134 4124 4122 4132 3479 3386 3376 3469
8 3479 3386 3376 3469 3480 3387 3377 3470
8 3480 3387 3377 3470 3481 3388 3378 3471
8 3481 3388 3378 3471 3482 3389 3379 3472
8 3482 3389 3379 3472 3483 3390 3380 3473
8 3483 3390 3380 3473 3484 3391 3381 3474
8 3484 3391 3381 3474 3485 3392 3382 3475
8 3485 3392 3382 3475 3486 3393 3383 3476
8 3486 3393 3383 3476 3487 3394 3384 3477
8 3487 3394 3384 3477 3488 3395 3385 3478
8 4135 4125 4123 4133 3490 3397 4124 4134
8 3490 3397 4124 4134 3491 3398 3386 3479
8 3491 3398 3386 3479 3492 3399 3387 3480
8 3492 3399 3387 3480 3493 3400 3388 3481
8 3493 3400 3388 3481 3494 3401 3389 3482
8 3494 3401 3389 3482 3495 3402 3390 3483
8 3495 3402 3390 3483 3496 3403 3391 3484
8 3496 3403 3391 3484 3497 3404 3392 3485
8 3497 3404 3392 3485 3498 3405 3393 3486
8 3498 3405 3393 3486 3499 3406 3394 3487
8 3499 3406 3394 3487 3500 3407 3395 3488
8 3500 3407 3395 3488 3501 3408 3396 3489
8 3502 3409 3397 3490 3503 3410 3398 3491
8 3503 3410 3398 3491 3504 3411 3399 3492
8 3504 3411 3399 3492 3505 3412 3400 3493
8 3505 3412 3400 3493 3506 3413 3401 3494
8 3506 3413 3401 3494 3507 3414 3402 3495
8 3507 3414 3402 3495 3508 3415 3403 3496
8 3508 3415 3403 3496 3509 3416 3404 3497
8 3509 3416 3404 3497 3510 3417 3405 3498
8 3510 3417 3405 3498 3511 3418 3406 3499
8 3511 3418 3406 3499 3512 3419 3407 3500
8 3512 3419 3407 3500 3513 3420 3408 3501
8 4137 4127 4126 4136 3520 3427 3421 3514
8 3520 3427 3421 3514 3521 3428 3422 3515
8 3521 3428 3422 3515 3522 3429 3423 3516
8 3522 3429 3423 3516 3523 3430 3424 3517
8 3523 3430 3424 3517 3524 3431 3425 3518
8 3524 3431 3425 3518 3525 3432 3426 3519
8 4138 4128 4127 4137 3526 3433 3427 3520
8 3526 3433 3427 3520 3527 3434 3428 3521
8 3527 3434 3428 3521 3528 3435 3429 3522
8 3528 3435 3429 3522 3529 3436 3430 3523
8 3529 3436 3430 3523 3530 3437 3431 3524
8 3530 3437 3431 3524 3531 3438 3432 3525
8 4139 4129 4128 4138 3535 3442 3433 3526
8 3535 3442 3433 3526 3536 3443 3434 3527
8 3536 3443 3434 3527 3537 3444 3435 3528
8 3537 3444 3435 3528 3538 3445 3436 3529
8 3538 3445 3436 3529 3539 3446 3437 3530
8 3539 3446 3437 3530 3540 3447 3438 3531
8 3540 3447 3438 3531 3541 3448 3439 3532
8 3541 3448 3439 3532 3542 3449 3440 3533
8 3542 3449 3440 3533 3543 3450 3441 3534
8 4140 4130 4129 4139 3544 3451 3442 3535
8 3544 3451 3442 3535 3545 3452 3443 3536
8 3545 3452 3443 3536 3546 3453 3444 3537
8 3546 3453 3444 3537 3547 3454 3445 3538
8 3547 3454 3445 3538 3548 3455 3446 3539
8 3548 3455 3446 3539 3549 3456 3447 3540
8 3549 3456 3447 3540 3550 3457 3448 3541
8 3550 3457 3448 3541 3551 3458 3449 3542
8 3551 3458 3449 3542 3552 3459 3450 3543
8 4141 4131 4130 4140 3553 3460 3451 3544
8 3553 3460 3451 3544 3554 3461 3452 3545
8 3554 3461 3452 3545 3555 3462 3453 3546
8 3555 3462 3453 3546 3556 3463 3454 3547
8 3556 3463 3454 3547 3557 3464 3455 3548
8 3557 3464 3455 3548 3558 3465 3456 3549
8 3558 3465 3456 3549 3559 3466 3457 3550
8 3559 3466 3457 3550 3560 3467 3458 3551
8 3560 3467 3458 3551 3561 3468 3459 3552
8 4142 4132 4131 4141 3562 3469 3460 3553
8 3562 3469 3460 3553 3563 3470 3461 3554
8 3563 3470 3461 3554 3564 3471 3462 3555
8 3564 3471 3462 3555 3565 3472 3463 3556
8 3565 3472 3463 3556 3566 3473 3464 3557
8 3566 3473 3464 3557 3567 3474 3465 3558
8 3567 3474 3465 3558 3568 3475 3466 3559
8 3568 3475 3466 3559 3569 3476 3467 3560
8 3569 3476 3467 3560 3570 3477 3468 3561
8 4144 4134 4132 4142 3572 3479 3469 3562
8 3572 3479 3469 3562 3573 3480 3470 3563
8 3573 3480 3470 3563 3574 3481 3471 3564
8 3574 3481 3471 3564 3575 3482 3472 3565
8 3575 3482 3472 3565 3576 3483 3473 3566
8 3576 3483 3473 3566 3577 3484 3474 3567
8 3577 3484 3474 3567 3578 3485 3475 3568
8 3578 3485 3475 3568 3579 3486 3476 3569
8 3579 3486 3476 3569 3580 3487 3477 3570
8 3580 3487 3477 3570 3581 3488 3478 3571
8 4145 4135 4133 4143 3583 3490 4134 4144
8 3583 3490 4134 4144 3584 3491 3479 3572
8 3584 3491 3479 3572 3585 3492 3480 3573
8 3585 3492 3480 3573 3586 3493 3481 3574
8 3586 3493 3481 3574 3587 3494 3482 3575
8 3587 3494 3482 3575 3588 3495 3483 3576
8 3588 3495 3483 3576 3589 3496 3484 3577
8 3589 3496 3484 3577 3590 3497 3485 3578
8 3590 3497 3485 3578 3591 3498 3486 3579
8 3591 3498 3486 3579 3592 3499 3487 3580
8 3592 3499 3487 3580 3593 3500 3488 3581
8 3593 3500 3488 3581 3594 3501 3489 3582
8 3595 3502 3490 3583 3596 3503 3491 3584
8 3596 3503 3491 3584 3597 3504 3492 3585
8 3597 3504 3492 3585 3598 3505 3493 3586
8 3598 3505 3493 3586 3599 3506 3494 3587
8 3599 3506 3494 3587 3600 3507 3495 3588
8 3600 3507 3495 3588 3601 3508 3496 3589
8 3601 3508 3496 3589 3602 3509 3497 3590
8 3602 3509 3497 3590 3603 3510 3498 3591
8 3603 3510 3498 3591 3604 3511 3499 3592
8 3604 3511 3499 3592 3605 3512 3500 3593
8 3605 3512 3500 3593 3606 3513 3501 3594
8 4147 4137 4136 4146 3613 3520 3514 3607
8 3613 3520 3514 3607 3614 3521 3515 3608
8 3614 3521 3515 3608 3615 3522 3516 3609
8 3615 3522 3516 3609 3616 3523 3517 3610
8 3616 3523 3517 3610 3617 3524 3518 3611
8 3617 3524 3518 3611 3618 3525 3519 3612
8 4148 4138 4137 4147 3619 3526 3520 3613
8 3619 3526 3520 3613 3620 3527 3521 3614
8 3620 3527 3521 3614 3621 3528 3522 3615
8 3621 3528 3522 3615 3622 3529 3523 3616
8 3622 3529 3523 3616 3623 3530 3524 3617
8 3623 3530 3524 3617 3624 3531 3525 3618
8 4149 4139 4138 4148 3628 3535 3526 3619
8 3628 3535 3526 3619 3629 3536 3527 3620
8 3629 3536 3527 3620 3630 3537 3528 3621
8 3630 3537 3528 3621 3631 3538 3529 3622
8 3631 3538 3529 3622 3632 3539 3530 3623
8 3632 3539 3530 3623 3633 3540 3531 3624
8 3633 3540 3531 3624 3634 3541 3532 3625
8 3634 3541 3532 3625 3635 3542 3533 3626
8 3635 3542 3533 3626 3636 3543 3534 3627
8 4150 4140 4139 4149 3637 3544 3535 3628
8 3637 3544 3535 3628 3638 3545 3536 3629
8 3638 3545 3536 3629 3639 3546 3537 3630
8 3639 3546 3537 3630 3640 3547 3538 3631
8 3640 3547 3538 3631 3641 3548 3539 3632
8 3641 3548 3539 3632 3642 3549 3540 3633
8 3642 3549 3540 3633 3643 3550 3541 3634
8 3643 3550 3541 3634 3644 3551 3542 3635
8 3644 3551 3542 3635 3645 3552 3543 3636
8 4151 4141 4140 4150 3646 3553 3544 3637
8 3646 3553 3544 3637 3647 3554 3545 3638
8 3647 3554 3545 3638 3648 3555 3546 3639
8 3648 3555 3546 3639 3649 3556 3547 3640
8 3649 3556 3547 3640 3650 3557 3548 3641
8 3650 3557 3548 3641 3651 3558 3549 3642
8 3651 3558 3549 3642 3652 3559 3550 3643
8 3652 3559 3550 3643 3653 3560 3551 3644
8 3653 3560 3551 3644 3654 3561 3552 3645
8 4152 4142 4141 4151 3655 3562 3553 3646
8 3655 3562 3553 3646 3656 3563 3554 3647
8 3656 3563 3554 3647 3657 3564 3555 3648
8 3657 3564 3555 3648 3658 3565 3556 3649
8 3658 3565 3556 3649 3659 3566 3557 3650
8 3659 3566 3557 3650 3660 3567 3558 3651
8 3660 3567 3558 3651 3661 3568 3559 3652
8 3661 3568 3559 3652 3662 3569 3560 3653
8 3662 3569 3560 3653 3663 3570 3561 3654
8 4154 4144 4142 4152 3665 3572 3562 3655
8 3665 3572 3562 3655 3666 3573 3563 3656
8 3666 3573 3563 3656 3667 3574 3564 3657
8 3667 3574 3564 3657 3668 3575 3565 3658
8 3668 3575 3565 3658 3669 3576 3566 3659
8 3669 3576 3566 3659 3670 3577 3567 3660
8 3670 3577 3567 3660 3671 3578 3568 3661
8 3671 3578 3568 3661 3672 3579 3569 3662
8 3672 3579 3569 3662 3673 3580 3570 3663
8 3673 3580 3570 3663 3674 3581 3571 3664
8 4155 4145 4143 4153 3676 3583 4144 4154
8 3676 3583 4144 4154 3677 3584 3572 3665
8 3677 3584 3572 3665 3678 3585 3573 3666
8 3678 3585 3573 3666 3679 3586 3574 3667
8 3679 3586 3574 3667 3680 3587 3575 3668
8 3680 3587 3575 3668 3681 3588 3576 3669
8 3681 3588 3576 3669 3682 3589 3577 3670
8 3682 3589 3577 3670 3683 3590 3578 3671
8 3683 3590 3578 3671 3684 3591 3579 3672
8 3684 3591 3579 3672 3685 3592 3580 3673
8 3685 3592 3580 3673 3686 3593 3581 3674
8 3686 3593 3581 3674 3687 3594 3582 3675
8 3688 3595 3583 3676 3689 3596 3584 3677
8 3689 3596 3584 3677 3690 3597 3585 3678
8 3690 3597 3585 3678 3691 3598 3586 3679
8 3691 3598 3586 3679 3692 3599 3587 3680
8 3692 3599 3587 3680 3693 3600 3588 3681
8 3693 3600 3588 3681 3694 3601 3589 3682
8 3694 3601 3589 3682 3695 3602 3590 3683
8 3695 3602 3590 3683 3696 3603 3591 3684
8 3696 3603 3591 3684 3697 3604 3592 3685
8 3697 3604 3592 3685 3698 3605 3593 3686
8 3698 3605 3593 3686 3699 3606 3594 3687
8 4157 4147 4146 4156 3706 3613 3607 3700
8 3706 3613 3607 3700 3707 3614 3608 3701
8 3707 3614 3608 3701 3708 3615 3609 3702
8 3708 3615 3609 3702 3709 3616 3610 3703
8 3709 3616 3610 3703 3710 3617 3611 3704
8 3710 3617 3611 3704 3711 3618 3612 3705
8 4158 4148 4147 4157 3712 3619 3613 3706
8 3712 3619 3613 3706 3713 3620 3614 3707
8 3713 3620 3614 3707 3714 3621 3615 3708
8 3714 3621 3615 3708 3715 3622 3616 3709
8 3715 3622 3616 3709 3716 3623 3617 3710
8 3716 3623 3617 3710 3717 3624 3618 3711
8 4159 4149 4148 4158 3721 3628 3619 3712
8 3721 3628 3619 3712 3722 3629 3620 3713
8 3722 3629 3620 3713 3723 3630 3621 3714
8 3723 3630 3621 3714 3724 3631 3622 3715
8 3724 3631 3622 3715 3725 3632 3623 3716
8 3725 3632 3623 3716 3726 3633 3624 3717
8 3726 3633 3624 3717 3727 3634 3625 3718
8 3727 3634 3625 3718 3728 3635 3626 3719
8 3728 3635 3626 3719 3729 3636 3627 3720
8 4160 4150 4149 4159 3730 3637 3628 3721
8 3730 3637 3628 3721 3731 3638 3629 3722
8 3731 3638 3629 3722 3732 3639 3630 3723
8 3732 3639 3630 3723 3733 3640 3631 3724
8 3733 3640 3631 3724 3734 3641 3632 3725
8 3734 3641 3632 3725 3735 3642 3633 3726
8 3735 3642 3633 3726 3736 3643 3634 3727
8 3736 3643 3634 3727 3737 3644 3635 3728
8 3737 3644 3635 3728 3738 3645 3636 3729
8 4161 4151 4150 4160 3739 3646 3637 3730
8 3739 3646 3637 3730 3740 3647 3638 3731
8 3740 3647 3638 3731 3741 3648 3639 3732
8 3741 3648 3639 3732 3742 3649 3640 3733
8 3742 3649 3640 3733 3743 3650 3641 3734
8 3743 3650 3641 3734 3744 3651 3642 3735
8 3744 3651 3642 3735 3745 3652 3643 3736
8 3745 3652 3643 3736 3746 3653 3644 3737
8 3746 3653 3644 3737 3747 3654 3645 3738
8 4162 4152 4151 4161 3748 3655 3646 3739
8 3748 3655 3646 3739 3749 3656 3647 3740
8 3749 3656 3647 3740 3750 3657 3648 3741
8 3750 3657 3648 3741 3751 3658 3649 3742
8 3751 3658 3649 3742 3752 3659 3650 3743
8 3752 3659 3650 3743 3753 3660 3651 3744
8 3753 3660 3651 3744 3754 3661 3652 3745
8 3754 3661 3652 3745 3755 3662 3653 3746
8 3755 3662 3653 3746 3756 3663 3654 3747
8 4164 4154 4152 4162 3758 3665 3655 3748
8 3758 3665 3655 3748 3759 3666 3656 3749
8 3759 3666 3656 3749 3760 3667 3657 3750
8 3760 3667 3657 3750 3761 3668 3658 3751
8 3761 3668 3658 3751 3762 3669 3659 3752
8 3762 3669 3659 3752 3763 3670 3660 3753
8 3763 3670 3660 3753 3764 3671 3661 3754
8 3764 3671 3661 3754 3765 3672 3662 3755
8 3765 3672 3662 3755 3766 3673 3663 3756
8 3766 3673 3663 3756 3767 3674 3664 3757
8 4165 4155 4153 4163 3769 3676 4154 4164
8 3769 3676 4154 4164 3770 3677 3665 3758
8 3770 3677 3665 3758 3771 3678 3666 3759
8 3771 3678 3666 3759 3772 3679 3667 3760
8 3772 3679 3667 3760 3773 3680 3668 3761
8 3773 3680 3668 3761 3774 3681 3669 3762
8 3774 3681 3669 3762 3775 3682 3670 3763
8 3775 3682 3670 3763 3776 3683 3671 3764
8 3776 3683 3671 3764 3777 3684 3672 3765
8 3777 3684 3672 3765 3778 3685 3673 3766
8 3778 3685 3673 3766 3779 3686 3674 3767
8 3779 3686 3674 3767 3780 3687 3675 3768
8 3781 3688 3676 3769 3782 3689 3677 3770
8 3782 3689 3677 3770 3783 3690 3678 3771
8 3783 3690 3678 3771 3784 3691 3679 3772
8 3784 3691 3679 3772 3785 3692 3680 3773
8 3785 3692 3680 3773 3786 3693 3681 3774
8 3786 3693 3681 3774 3787 3694 3682 3775
8 3787 3694 3682 3775 3788 3695 3683 3776
8 3788 3695 3683 3776 3789 3696 3684 3777
8 3789 3696 3684 3777 3790 3697 3685 3778
8 3790 3697 3685 3778 3791 3698 3686 3779
8 3791 3698 3686 3779 3792 3699 3687 3780
8 4167 4157 4156 4166 3799 3706 3700 3793
8 3799 3706 3700 3793 3800 3707 3701 3794
8 3800 3707 3701 3794 3801 3708 3702 3795
8 3801 3708 3702 3795 3802 3709 3703 3796
8 3802 3709 3703 3796 3803 3710 3704 3797
8 3803 3710 3704 3797 3804 3711 3705 3798
8 4168 4158 4157 4167 3805 3712 3706 3799
8 3805 3712 3706 3799 3806 3713 3707 3800
8 3806 3713 3707 3800 3807 3714 3708 3801
8 3807 3714 3708 3801 3808 3715 3709 3802
8 3808 3715 3709 3802 3809 3716 3710 3803
8 3809 3716 3710 3803 3810 3717 3711 3804
8 4169 4159 4158 4168 3814 3721 3712 3805
8 3814 3721 3712 3805 3815 3722 3713 3806
8 3815 3722 3713 3806 3816 3723 3714 3807
8 3816 3723 3714 3807 3817 3724 3715 3808
8 3817 3724 3715 3808 3818 3725 3716 3809
8 3818 3725 3716 3809 3819 3726 3717 3810
8 3819 3726 3717 3810 3820 3727 3718 3811
8 3820 3727 3718 3811 3821 3728 3719 3812
8 3821 3728 3719 3812 3822 3729 3720 3813
8 4170 4160 4159 4169 3823 3730 3721 3814
8 3823 3730 3721 3814 3824 3731 3722 3815
8 3824 3731 3722 3815 3825 3732 3723 3816
8 3825 3732 3723 3816 3826 3733 3724 3817
8 3826 3733 3724 3817 3827 3734 3725 3818
8 3827 3734 3725 3818 3828 3735 3726 3819
8 3828 3735 3726 3819 3829 3736 3727 3820
8 3829 3736 3727 3820 3830 3737 3728 3821
8 3830 3737 3728 3821 3831 3738 3729 3822
8 4171 4161 4160 4170 3832 3739 3730 3823
8 3832 3739 3730 3823 3833 3740 3731 3824
8 3833 3740 3731 3824 3834 3741 3732 3825
8 3834 3741 3732 3825 3835 3742 3733 3826
8 3835 3742 3733 3826 3836 3743 3734 3827
8 3836 3743 3734 3827 3837 3744 3735 3828
8 3837 3744 3735 3828 3838 3745 3736 3829
8 3838 3745 3736 3829 3839 3746 3737 3830
8 3839 3746 3737 3830 3840 3747 3738 3831
8 4172 4162 4161 4171 3841 3748 3739 3832
8 3841 3748 3739 3832 3842 3749 3740 3833
8 3842 3749 3740 3833 3843 3750 3741 3834
8 3843 3750 3741 3834 3844 3751 3742 3835
8 3844 3751 3742 3835 3845 3752 3743 3836
8 3845 3752 3743 3836 3846 3753 3744 3837
8 3846 3753 3744 3837 3847 3754 3745 3838
8 3847 3754 3745 3838 3848 3755 3746 3839
8 3848 3755 3746 3839 3849 3756 3747 3840
8 4174 4164 4162 4172 3851 3758 3748 3841
8 3851 3758 3748 3841 3852 3759 3749 3842
8 3852 3759 3749 3842 3853 3760 3750 3843
8 3853 3760 3750 3843 3854 3761 3751 3844
8 3854 3761 3751 3844 3855 3762 3752 3845
8 3855 3762 3752 3845 3856 3763 3753 3846
8 3856 3763 3753 3846 3857 3764 3754 3847
8 3857 3764 3754 3847 3858 3765 3755 3848
8 3858 3765 3755 3848 3859 3766 3756 3849
8 3859 3766 3756 3849 3860 3767 3757 3850
8 4175 4165 4163 4173 3862 3769 4164 4174
8 3862 3769 4164 4174 3863 3770 3758 3851
8 3863 3770 3758 3851 3864 3771 3759 3852
8 3864 3771 3759 3852 3865 3772 3760 3853
8 3865 3772 3760 3853 3866 3773 3761 3854
8 3866 3773 3761 3854 3867 3774 3762 3855
8 3867 3774 3762 3855 3868 3775 3763 3856
8 3868 3775 3763 3856 3869 3776 3764 3857
8 3869 3776 3764 3857 3870 3777 3765 3858
8 3870 3777 3765 3858 3871 3778 3766 3859
8 3871 3778 3766 3859 3872 3779 3767 3860
8 3872 3779 3767 3860 3873 3780 3768 3861
8 3874 3781 3769 3862 3875 3782 3770 3863
8 3875 3782 3770 3863 3876 3783 3771 3864
8 3876 3783 3771 3864 3877 3784 3772 3865
8 3877 3784 3772 3865 3878 3785 3773 3866
8 3878 3785 3773 3866 3879 3786 3774 3867
8 3879 3786 3774 3867 3880 3787 3775 3868
8 3880 3787 3775 3868 3881 3788 3776 3869
8 3881 3788 3776 3869 3882 3789 3777 3870
8 3882 3789 3777 3870 3883 3790 3778 3871
8 3883 3790 3778 3871 3884 3791 3779 3872
8 3884 3791 3779 3872 3885 3792 3780 3873
8 3897 4167 4166 3896 1288 3799 3793 1282
8 1288 3799 3793 1282 1289 3800 3794 1283
8 1289 3800 3794 1283 1290 3801 3795 1284
8 1290 3801 3795 1284 1291 3802 3796 1285
8 1291 3802 3796 1285 1292 3803 3797 1286
8 1292 3803 3797 1286 1293 3804 3798 1287
8 3898 4168 4167 3897 1294 3805 3799 1288
8 1294 3805 3799 1288 1295 3806 3800 1289
8 1295 3806 3800 1289 1296 3807 3801 1290
8 1296 3807 3801 1290 1297 3808 3802 1291
8 1297 3808 3802 1291 1298 3809 3803 1292
8 1298 3809 3803 1292 1299 3810 3804 1293
8 3899 4169 4168 3898 1303 3814 3805 1294
8 1303 3814 3805 1294 1304 3815 3806 1295
8 1304 3815 3806 1295 1305 3816 3807 1296
8 1305 3816 3807 1296 1306 3817 3808 1297
8 1306 3817 3808 1297 1307 3818 3809 1298
8 1307 3818 3809 1298 1308 3819 3810 1299
8 1308 3819 3810 1299 1309 3820 3811 1300
8 1309 3820 3811 1300 1310 3821 3812 1301
8 1310 3821 3812 1301 1311 3822 3813 1302
8 3900 4170 4169 3899 1312 3823 3814 1303
8 1312 3823 3814 1303 1313 3824 3815 1304
8 1313 3824 3815 1304 1314 3825 3816 1305
8 1314 3825 3816 1305 1315 3826 3817 1306
8 1315 3826 3817 1306 1316 3827 3818 1307
8 1316 3827 3818 1307 1317 3828 3819 1308
8 1317 3828 3819 1308 1318 3829 3820 1309
8 1318 3829 3820 1309 1319 3830 3821 1310
8 1319 3830 3821 1310 1320 3831 3822 1311
8 3901 4171 4170 3900 1321 3832 3823 1312
8 1321 3832 3823 1312 1322 3833 3824 1313
8 1322 3833 3824 1313 1323 3834 3825 1314
8 1323 3834 3825 1314 1324 3835 3826 1315
8 1324 3835 3826 1315 1325 3836 3827 1316
8 1325 3836 3827 1316 1326 3837 3828 1317
8 1326 3837 3828 1317 1327 3838 3829 1318
8 1327 3838 3829 1318 1328 3839 3830 1319
8 1328 3839 3830 1319 1329 3840 3831 1320
8 3902 4172 4171 3901 1330 3841 3832 1321
8 1330 3841 3832 1321 1331 3842 3833 1322
8 1331 3842 3833 1322 1332 3843 3834 1323
8 1332 3843 3834 1323 1333 3844 3835 1324
8 1333 3844 3835 1324 1334 3845 3836 1325
8 1334 3845 3836 1325 1335 3846 3837 1326
8 1335 3846 3837 1326 1336 3847 3838 1327
8 1336 3847 3838 1327 1337 3848 3839 1328
8 1337 3848 3839 1328 1338 3849 3840 1329
8 3904 4174 4172 3902 1340 3851 3841 1330
8 1340 3851 3841 1330 1341 3852 3842 1331
8 1341 3852 3842 1331 1342 3853 3843 1332
8 1342 3853 3843 1332 1343 3854 3844 1333
8 1343 3854 3844 1333 1344 3855 3845 1334
8 1344 3855 3845 1334 1345 3856 3846 1335
8 1345 3856 3846 1335 1346 3857 3847 1336
8 1346 3857 3847 1336 1347 3858 3848 1337
8 1347 3858 3848 1337 1348 3859 3849 1338
8 1348 3859 3849 1338 1349 3860 3850 1339
8 3905 4175 4173 3903 1351 3862 4174 3904
8 1351 3862 4174 3904 1352 3863 3851 1340
8 1352 3863 3851 1340 1353 3864 3852 1341
8 1353 3864 3852 1341 1354 3865 3853 1342
8 1354 3865 3853 1342 1355 3866 3854 1343
8 1355 3866 3854 1343 1356 3867 3855 1344
8 1356 3867 3855 1344 1357 3868 3856 1345
8 1357 3868 3856 1345 1358 3869 3857 1346
8 1358 3869 3857 1346 1359 3870 3858 1347
8 1359 3870 3858 1347 1360 3871 3859 1348
8 1360 3871 3859 1348 1361 3872 3860 1349
8 1361 3872 3860 1349 1362 3873 3861 1350
8 1363 3874 3862 1351 1364 3875 3863 1352
8 1364 3875 3863 1352 1365 3876 3864 1353
8 1365 3876 3864 1353 1366 3877 3865 1354
8 1366 3877 3865 1354 1367 3878 3866 1355
8 1367 3878 3866 1355 1368 3879 3867 1356
8 1368 3879 3867 1356 1369 3880 3868 1357
8 1369 3880 3868 1357 1370 3881 3869 1358
8 1370 3881 3869 1358 1371 3882 3870 1359
8 1371 3882 3870 1359 1372 3883 3871 1360
8 1372 3883 3871 1360 1373 3884 3872 1361
8 1373 3884 3872 1361 1374 3885 3873 1362
8 3919 3907 3906 3917 1481 1381 1375 1469
8 1481 1381 1375 1469 1483 1382 1376 1471
8 1483 1382 1376 1471 1485 1383 1377 1473
8 1485 1383 1377 1473 1487 1384 1378 1475
8 1487 1384 1378 1475 1489 1385 1379 1477
8 1489 1385 1379 1477 1491 1386 1380 1479
8 3921 3908 3907 3919 1493 1387 1381 1481
8 1493 1387 1381 1481 1495 1388 1382 1483
8 1495 1388 1382 1483 1497 1389 1383 1485
8 1497 1389 1383 1485 1499 1390 1384 1487
8 1499 1390 1384 1487 1501 1391 1385 1489
8 1501 1391 1385 1489 1503 1392 1386 1491
8 3923 3909 3908 3921 1511 1396 1387 1493
8 1511 1396 1387 1493 1513 1397 1388 1495
8 1513 1397 1388 1495 1515 1398 1389 1497
8 1515 1398 1389 1497 1517 1399 1390 1499
8 1517 1399 1390 1499 1519 1400 1391 1501
8 1519 1400 1391 1501 1521 1401 1392 1503
8 1521 1401 1392 1503 1523 1402 1393 1505
8 1523 1402 1393 1505 1525 1403 1394 1507
8 1525 1403 1394 1507 1527 1404 1395 1509
8 3925 3910 3909 3923 1529 1405 1396 1511
8 1529 1405 1396 1511 1531 1406 1397 1513
8 1531 1406 1397 1513 1533 1407 1398 1515
8 1533 1407 1398 1515 1535 1408 1399 1517
8 1535 1408 1399 1517 1537 1409 1400 1519
8 1537 1409 1400 1519 1539 1410 1401 1521
8 1539 1410 1401 1521 1541 1411 1402 1523
8 1541 1411 1402 1523 1543 1412 1403 1525
8 1543 1412 1403 1525 1545 1413 1404 1527
8 3927 3911 3910 3925 1547 1414 1405 1529
8 1547 1414 1405 1529 1549 1415 1406 1531
8 1549 1415 1406 1531 1551 1416 1407 1533
8 1551 1416 1407 1533 1553 1417 1408 1535
8 1553 1417 1408 1535 1555 1418 1409 1537
8 1555 1418 1409 1537 1557 1419 1410 1539
8 1557 1419 1410 1539 1559 1420 1411 1541
8 1559 1420 1411 1541 1561 1421 1412 1543
8 1561 1421 1412 1543 1563 1422 1413 1545
8 3929 3912 3911 3927 1565 1423 1414 1547
8 1565 1423 1414 1547 1567 1424 1415 1549
8 1567 1424 1415 1549 1569 1425 1416 1551
8 1569 1425 1416 1551 1571 1426 1417 1553
8 1571 1426 1417 1553 1573 1427 1418 1555
8 1573 1427 1418 1555 1575 1428 1419 1557
8 1575 1428 1419 1557 1577 1429 1420 1559
8 1577 1429 1420 1559 1579 1430 1421 1561
8 1579 1430 1421 1561 1581 1431 1422 1563
8 3933 3914 3912 3929 1585 1433 1423 1565
8 1585 1433 1423 1565 1587 1434 1424 1567
8 1587 1434 1424 1567 1589 1435 1425 1569
8 1589 1435 1425 1569 1591 1436 1426 1571
8 1591 1436 1426 1571 1593 1437 1427 1573
8 1593 1437 1427 1573 1595 1438 1428 1575
8 1595 1438 1428 1575 1597 1439 1429 1577
8 1597 1439 1429 1577 1599 1440 1430 1579
8 1599 1440 1430 1579 1601 1441 1431 1581
8 1601 1441 1431 1581 1603 1442 1432 1583
8 3935 3915 3913 3931 1607 1444 3914 3933
8 1607 1444 3914 3933 1609 1445 1433 1585
8 1609 1445 1433 1585 1611 1446 1434 1587
8 1611 1446 1434 1587 1613 1447 1435 1589
8 1613 1447 1435 1589 1615 1448 1436 1591
8 1615 1448 1436 1591 1617 1449 1437 1593
8 1617 1449 1437 1593 1619 1450 1438 1595
8 1619 1450 1438 1595 1621 1451 1439 1597
8 1621 1451 1439 1597 1623 1452 1440 1599
8 1623 1452 1440 1599 1625 1453 1441 1601
8 1625 1453 1441 1601 1627 1454 1442 1603
8 1627 1454 1442 1603 1629 1455 1443 1605
8 1631 1456 1444 1607 1633 1457 1445 1609
8 1633 1457 1445 1609 1635 1458 1446 1611
8 1635 1458 1446 1611 1637 1459 1447 1613
8 1637 1459 1447 1613 1639 1460 1448 1615
8 1639 1460 1448 1615 1641 1461 1449 1617
8 1641 1461 1449 1617 1643 1462 1450 1619
8 1643 1462 1450 1619 1645 1463 1451 1621
8 1645 1463 1451 1621 1647 1464 1452 1623
8 1647 1464 1452 1623 1649 1465 1453 1625
8 1649 1465 1453 1625 1651 1466 1454 1627
8 1651 1466 1454 1627 1653 1467 1455 1629
8 3939 3918 3916 3937 1667 1480 1468 1655
8 1667 1480 1468 1655 1669 1482 1470 1657
8 1669 1482 1470 1657 1671 1484 1472 1659
8 1671 1484 1472 1659 1673 1486 1474 1661
8 1673 1486 1474 1661 1675 1488 1476 1663
8 1675 1488 1476 1663 1677 1490 1478 1665
8 3941 3920 3918 3939 1679 1492 1480 1667
8 1679 1492 1480 1667 1681 1494 1482 1669
8 1681 1494 1482 1669 1683 1496 1484 1671
8 1683 1496 1484 1671 1685 1498 1486 1673
8 1685 1498 1486 1673 1687 1500 1488 1675
8 1687 1500 1488 1675 1689 1502 1490 1677
8 3943 3922 3920 3941 1697 1510 1492 1679
8 1697 1510 1492 1679 1699 1512 1494 1681
8 1699 1512 1494 1681 1701 1514 1496 1683
8 1701 1514 1496 1683 1703 1516 1498 1685
8 1703 1516 1498 1685 1705 1518 1500 1687
8 1705 1518 1500 1687 1707 1520 1502 1689
8 1707 1520 1502 1689 1709 1522 1504 1691
8 1709 1522 1504 1691 1711 1524 1506 1693
8 1711 1524 1506 1693 1713 1526 1508 1695
8 3945 3924 3922 3943 1715 1528 1510 1697
8 1715 1528 1510 1697 1717 1530 1512 1699
8 1717 1530 1512 1699 1719 1532 1514 1701
8 1719 1532 1514 1701 1721 1534 1516 1703
8 1721 1534 1516 1703 1723 1536 1518 1705
8 1723 1536 1518 1705 1725 1538 1520 1707
8 1725 1538 1520 1707 1727 1540 1522 1709
8 1727 1540 1522 1709 1729 1542 1524 1711
8 1729 1542 1524 1711 1731 1544 1526 1713
8 3947 3926 3924 3945 1733 1546 1528 1715
8 1733 1546 1528 1715 1735 1548 1530 1717
8 1735 1548 1530 1717 1737 1550 1532 1719
8 1737 1550 1532 1719 1739 1552 1534 1721
8 1739 1552 1534 1721 1741 1554 1536 1723
8 1741 1554 1536 1723 1743 1556 1538 1725
8 1743 1556 1538 1725 1745 1558 1540 1727
8 1745 1558 1540 1727 1747 1560 1542 1729
8 1747 1560 1542 1729 1749 1562 1544 1731
8 3949 3928 3926 3947 1751 1564 1546 1733
8 1751 1564 1546 1733 1753 1566 1548 1735
8 1753 1566 1548 1735 1755 1568 1550 1737
8 1755 1568 1550 1737 1757 1570 1552 1739
8 1757 1570 1552 1739 1759 1572 1554 1741
8 1759 1572 1554 1741 1761 1574 1556 1743
8 1761 1574 1556 1743 1763 1576 1558 1745
8 1763 1576 1558 1745 1765 1578 1560 1747
8 1765 1578 1560 1747 1767 1580 1562 1749
8 3953 3932 3928 3949 1771 1584 1564 1751
8 1771 1584 1564 1751 1773 1586 1566 1753
8 1773 1586 1566 1753 1775 1588 1568 1755
8 1775 1588 1568 1755 1777 1590 1570 1757
8 1777 1590 1570 1757 1779 1592 1572 1759
8 1779 1592 1572 1759 1781 1594 1574 1761
8 1781 1594 1574 1761 1783 1596 1576 1763
8 1783 1596 1576 1763 1785 1598 1578 1765
8 1785 1598 1578 1765 1787 1600 1580 1767
8 1787 1600 1580 1767 1789 1602 1582 1769
8 3955 3934 3930 3951 1793 1606 3932 3953
8 1793 1606 3932 3953 1795 1608 1584 1771
8 1795 1608 1584 1771 1797 1610 1586 1773
8 1797 1610 1586 1773 1799 1612 1588 1775
8 1799 1612 1588 1775 1801 1614 1590 1777
8 1801 1614 1590 1777 1803 1616 1592 1779
8 1803 1616 1592 1779 1805 1618 1594 1781
8 1805 1618 1594 1781 1807 1620 1596 1783
8 1807 1620 1596 1783 1809 1622 1598 1785
8 1809 1622 1598 1785 1811 1624 1600 1787
8 1811 1624 1600 1787 1813 1626 1602 1789
8 1813 1626 1602 1789 1815 1628 1604 1791
8 1817 1630 1606 1793 1819 1632 1608 1795
8 1819 1632 1608 1795 1821 1634 1610 1797
8 1821 1634 1610 1797 1823 1636 1612 1799
8 1823 1636 1612 1799 1825 1638 1614 1801
8 1825 1638 1614 1801 1827 1640 1616 1803
8 1827 1640 1616 1803 1829 1642 1618 1805
8 1829 1642 1618 1805 1831 1644 1620 1807
8 1831 1644 1620 1807 1833 1646 1622 1809
8 1833 1646 1622 1809 1835 1648 1624 1811
8 1835 1648 1624 1811 1837 1650 1626 1813
8 1837 1650 1626 1813 1839 1652 1628 1815
CELL_TYPES 2268
12
12
12
12
12
12
12
12
12
12
12
12
12
12
12
12
12
12
12
12
12
12
12
12
12
12
12
12
12
12
12
12
12
12
12
12
12
12
12
12
12
12
12
12
12
12
12
12
12
12
12
12
12
12
12
12
12
12
12
12
12
12
12
12
12
12
12
12
12
12
12
12
12
12
12
12
12
12
12
12
12
12
12
12
12
12
12
12
12
12
12
12
12
12
12
12
12
12
12
12
12
12
12
12
12
12
12
12
12
12
12
12
12
12
12
12
12
12
12
12
12
12
12
12
12
12
12
12
12
12
12
12
12
12
12
12
12
12
12
12
12
12
12
12
12
12
12
12
12
12
12
12
12
12
12
12
12
12
12
12
12
12
12
12
12
12
12
12
12
12
12
12
12
12
12
12
12
12
12
12
12
12
12
12
12
12
12
12
12
12
12
12
12
12
12
12
12
12
12
12
12
12
12
12
12
12
12
12
12
12
12
12
12
12
12
12
12
12
12
12
12
12
12
12
12
12
12
12
12
12
12
12
12
12
12
12
12
12
12
12
12
12
12
12
12
12
12
12
12
12
12
12
12
12
12
12
12
12
12
12
12
12
12
12
12
12
12
12
12
12
12
12
12
12
12
12
12
12
12
12
12
12
12
12
12
12
12
12
12
12
12
12
12
12
12
12
12
12
12
12
12
12
12
12
12
12
12
12
12
12
12
12
12
12
12
12
12
12
12
12
12
12
12
12
12
12
12
12
12
12
12
12
12
12
12
12
12
12
12
12
12
12
12
12
12
12
12
12
12
12
12
12
12
12
12
12
12
12
12
12
12
12
12
12
12
12
12
12
12
12
12
12
12
12
12
12
12
12
12
12
12
12
12
12
12
12
12
12
12
12
12
12
12
12
12
12
12
12
12
12
12
12
12
12
12
12
12
12
12
12
12
12
12
12
12
12
12
12
12
12
12
12
12
12
12
12
12
12
12
12
12
12
12
12
12
12
12
12
12
12
12
12
12
12
12
12
12
12
12
12
12
12
12
12
12
12
12
12
12
12
12
12
12
12
12
12
12
12
12
12
12
12
12
12
12
12
12
12
12
12
12
12
12
12
12
12
12
12
12
12
12
12
12
12
12
12
12
12
12
12
12
12
12
12
12
12
12
12
12
12
12
12
12
12
12
12
12
12
12
12
12
12
12
12
12
12
12
12
12
12
12
12
12
12
12
12
12
12
12
12
12
12
12
12
12
12
12
12
12
12
12
12
12
12
12
12
12
12
12
12
12
12
12
12
12
12
12
12
12
12
12
12
12
12
12
12
12
12
12
12
12
12
12
12
12
12
12
12
12
12
12
12
12
12
12
12
12
12
12
12
12
12
12
12
12
12
12
12
12
12
12
12
12
12
12
12
12
12
12
12
12
12
12
12
12
12
12
12
12
12
12
12
12
12
12
12
12
12
12
12
12
12
12
12
12
12
12
12
12
12
12
12
12
12
12
12
12
12
12
12
12
12
12
12
12
12
12
12
12
12
12
12
12
12
12
12
12
12
12
12
12
12
12
12
12
12
12
12
12
12
12
12
12
12
12
12
12
12
12
12
12
12
12
12
12
12
12
12
12
12
12
12
12
12
12
12
12
12
12
12
12
12
12
12
12
12
12
12
12
12
12
12
12
12
12
12
12
12
12
12
12
12
12
12
12
12
12
12
12
12
12
12
12
12
12
12
12
12
12
12
12
12
12
12
12
12
12
12
12
12
12
12
12
12
12
12
12
12
12
12
12
12
12
12
12
12
12
12
12
12
12
12
12
12
12
12
12
12
12
12
12
12
12
12
12
12
12
12
12
12
12
12
12
12
12
12
12
12
12
12
12
12
12
12
12
12
12
12
12
12
12
12
12
12
12
12
12
12
12
12
12
12
12
12
12
12
12
12
12
12
12
12
12
12
12
12
12
12
12
12
12
12
12
12
12
12
12
12
12
12
12
12
12
12
12
12
12
12
12
12
12
12
12
12
12
12
12
12
12
12
12
12
12
12
12
12
12
12
12
12
12
12
12
12
12
12
12
12
12
12
12
12
12
12
12
12
12
12
12
12
12
12
12
12
12
12
12
12
12
12
12
12
12
12
12
12
12
12
12
12
12
12
12
12
12
12
12
12
12
12
12
12
12
12
12
12
12
12
12
12
12
12
12
12
12
12
12
12
12
12
12
12
12
12
12
12
12
12
12
12
12
12
12
12
12
12
12
12
12
12
12
12
12
12
12
12
12
12
12
12
12
12
12
12
12
12
12
12
12
12
12
12
12
12
12
12
12
12
12
12
12
12
12
12
12
12
12
12
12
12
12
12
12
12
12
12
12
12
12
12
12
12
12
12
12
12
12
12
12
12
12
12
12
12
12
12
12
12
12
12
12
12
12
12
12
12
12
12
12
12
12
12
12
12
12
12
12
12
12
12
12
12
12
12
12
12
12
12
12
12
12
12
12
12
12
12
12
12
12
12
12
12
12
12
12
12
12
12
12
12
12
12
12
12
12
12
12
12
12
12
12
12
12
12
12
12
12
12
12
12
12
12
12
12
12
12
12
12
12
12
12
12
12
12
12
12
12
12
12
12
12
12
12
12
12
12
12
12
12
12
12
12
12
12
12
12
12
12
12
12
12
12
12
12
12
12
12
12
12
12
12
12
12
12
12
12
12
12
12
12
12
12
12
12
12
12
12
12
12
12
12
12
12
12
12
12
12
12
12
12
12
12
12
12
12
12
12
12
12
12
12
12
12
12
12
12
12
12
12
12
12
12
12
12
12
12
12
12
12
12
12
12
12
12
12
12
12
12
12
12
12
12
12
12
12
12
12
12
12
12
12
12
12
12
12
12
12
12
12
12
12
12
12
12
12
12
12
12
12
12
12
12
12
12
12
12
12
12
12
12
12
12
12
12
12
12
12
12
12
12
12
12
12
12
12
12
12
12
12
12
12
12
12
12
12
12
12
12
12
12
12
12
12
12
12
12
12
12
12
12
12
12
12
12
12
12
12
12
12
12
12
12
12
12
12
12
12
12
12
12
12
12
12
12
12
12
12
12
12
12
12
12
12
12
12
12
12
12
12
12
12
12
12
12
12
12
12
12
12
12
12
12
12
12
12
12
12
12
12
12
12
12
12
12
12
12
12
12
12
12
12
12
12
12
12
12
12
12
12
12
12
12
12
12
12
12
12
12
12
12
12
12
12
12
12
12
12
12
12
12
12
12
12
12
12
12
12
12
12
12
12
12
12
12
12
12
12
12
12
12
12
12
12
12
12
12
12
12
12
12
12
12
12
12
12
12
12
12
12
12
12
12
12
12
12
12
12
12
12
12
12
12
12
12
12
12
12
12
12
12
12
12
12
12
12
12
12
12
12
12
12
12
12
12
12
12
12
12
12
12
12
12
12
12
12
12
12
12
12
12
12
12
12
12
12
12
12
12
12
12
12
12
12
12
12
12
12
12
12
12
12
12
12
12
12
12
12
12
12
12
12
12
12
12
12
12
12
12
12
12
12
12
12
12
12
12
12
12
12
12
12
12
12
12
12
12
12
12
12
12
12
12
12
12
12
12
12
12
12
12
12
12
12
12
12
12
12
12
12
12
12
12
12
12
12
12
12
12
12
12
12
12
12
12
12
12
12
12
12
12
12
12
12
12
12
12
12
12
12
12
12
12
12
12
12
12
12
12
12
12
12
12
12
12
12
12
12
12
12
12
12
12
12
12
12
12
12
12
12
12
12
12
12
12
12
12
12
12
12
12
12
12
12
12
12
12
12
12
12
12
12
12
12
12
12
12
12
12
12
12
12
12
12
12
12
12
12
12
12
12
12
12
12
12
12
12
12
12
12
12
12
12
12
12
12
12
12
12
12
12
12
12
12
12
12
12
12
12
12
12
12
12
12
12
12
12
12
12
12
12
12
12
12
12
12
12
12
12
12
12
12
12
12
12
12
12
12
12
12
12
12
12
12
12
12
12
12
12
12
12
12
12
12
12
12
12
12
12
12
12
12
12
12
12
12
12
12
12
12
12
12
12
12
12
12
12
12
12
12
12
12
12
12
12
12
12
12
12
12
12
12
12
12
12
12
12
12
12
12
12
12
12
12
12
12
12
12
12
12
12
12
12
12
12
12
12
12
12
12
12
12
12
12
12
12
12
12
12
12
12
12
12
12
12
12
12
12
12
12
12
12
12
12
12
12
12
12
12
12
12
12
12
12
12
12
12
12
12
12
12
12
12
12
12
12
12
12
12
12
12
12
12
12
12
12
12
12
12
12
12
12
12
12
12
12
12
12
12
12
12
12
12
12
12
12
12
12
12
12
12
12
12
12
12
12
12
12
12
12
12
12
12
12
12
12
12
12
12
12
12
12
12
12
12
12
12
12
12
12
12
12
12
12
12
12
12
12
12
12
12
12
12
12
12
12
12
12
12
12
12
12
12
12
12
12
12
12
12
12
12
12
12
12
12
12
12
12
12
12
12
12
12
12
12
12
12
12
12
12
12
12
12
12
12
12
12
12
12
12
12
12
12
12
12
12
12
12
12
12
12
12
12
12
12
12
12
12
12
12
12
12
12
12
12
12
12
12
12
12
12
12
12
12
12
12
12
12
12
12
12
12
12
12
12
12
12
12
12
12
12
12
12
12
12
12
12
12
12
12
12
12
12
12
12
12
12
12
12
12
12
12
12
12
12
12
12
12
12
12
12
12
12
12
12
12
12
12
12
12
12
12
12
12
12
12
12
12
12
12
12
12
12
12
12
12
12
12
12
12
12
12
12
12
12
12
12
12
12
12
12
12
12
12
12
12
12
12
12
12
12
12
12
12
12
12
12
12
12
12
12
12
12
12
12
12
12
12
12
12
12
12
12
12
12
12
12
12
12
12
12
12
12
12
12
12
12
12
12
12
12
12
12
12
12
12
12
12
12
12
12
12
12
12
12
12
12
12
12
12
12
12
12
12
12
12
12
12
12
12
12
12
12
12
12
12
12
12
12
12
12
12
12
12
12
12
12
12
12
12
12
12
12
12
12
12
12
12
12
12
12
12
12
12
12
12
12
12
12
12
12
12
12
12
12
12
12
12
12
12
12
12
12
12
12
12
12
12
12
POINT_DATA 4176
SCALARS DISPLACEMENT double 3
LOOKUP_TABLE default
0 0 0
0 0 0
0 0 0
0 0 0
0 0 0
0 0 0
0 0 0
0 0 0
0 0 0
0 0 0
0 0 0
0 0 0
0 0 0
0 0 0
0 0 0
0 0 0
0 0 0
0 0 0
0 0 0
0 0 0
0 0 0
0 0 0
0 0 0
0 0 0
0 0 0
0 0 0
0 0 0
0 0 0
0 0 0
0 0 0
0 0 0
0 0 0
0 0 0
0 0 0
0 0 0
0 0 0
0 0 0
0 0 0
0 0 0
0 0 0
0 0 0
0 0 0
0 0 0
0 0 0
0 0 0
0 0 0
0 0 0
0 0 0
0 0 0
0 0 0
0 0 0
0 0 0
0 0 0
0 0 0
0 0 0
0 0 0
0 0 0
0 0 0
0 0 0
0 0 0
0 0 0
0 0 0
0 0 0
0 0 0
0 0 0
0 0 0
0 0 0
0 0 0
0 0 0
0 0 0
0 0 0
0 0 0
0 0 0
0 0 0
0 0 0
0 0 0
0 0 0
0 0 0
0 0 0
0 0 0
0 0 0
0 0 0
0 0 0
0 0 0
0 0 0
0 0 0
0 0 0
0 0 0
0 0 0
0 0 0
0 0 0
0 0 0
0 0 0
0 0 0
0 0 0
0 0 0
0 0 0
0 0 0
0 0 0
0 0 0
0 0 0
0 0 0
0 0 0
0 0 0
0 0 0
0 0 0
0 0 0
0 0 0
0 0 0
0 0 0
0 0 0
0 0 0
0 0 0
0 0 0
0 0 0
0 0 0
0 0 0
0 0 0
0 0 0
0 0 0
0 0 0
0 0 0
0 0 0
0 0 0
0 0 0
0 0 0
0 0 0
0 0 0
0 0 0
0 0 0
0 0 0
0 0 0
0 0 0
0 0 0
0 0 0
0 0 0
0 0 0
0 0 0
0 0 0
0 0 0
0 0 0
0 0 0
0 0 0
0 0 0
0 0 0
0 0 0
0 0 0
0 0 0
0 0 0
0 0 0
0 0 0
0 0 0
0 0 0
0 0 0
0 0 0
0 0 0
0 0 0
0 0 0
0 0 0
0 0 0
0 0 0
0 0 0
0 0 0
0 0 0
0 0 0
0 0 0
0 0 0
0 0 0
0 0 0
0 0 0
0 0 0
0 0 0
0 0 0
0 0 0
0 0 0
0 0 0
0 0 0
0 0 0
0 0 0
0 0 0
0 0 0
0 0 0
0 0 0
0 0 0
0 0 0
0 0 0
0 0 0
0 0 0
0 0 0
0 0 0
0 0 0
0 0 0
0 0 0
0 0 0
0 0 0
0 0 0
0 0 0
0 0 0
0 0 0
0 0 0
0 0 0
0 0 0
0 0 0
0 0 0
0 0 0
0 0 0
0 0 0
0 0 0
0 0 0
0 0 0
0 0 0
0 0 0
0 0 0
0 0 0
0 0 0
0 0 0
0 0 0
0 0 0
0 0 0
0 0 0
0 0 0
0 0 0
0 0 0
0 0 0
0 0 0
0 0 0
0 0 0
0 0 0
0 0 0
0 0 0
0 0 0
0 0 0
0 0 0
0 0 0
0 0 0
0 0 0
0 0 0
0 0 0
0 0 0
0 0 0
0 0 0
0 0 0
0 0 0
0 0 0
0 0 0
0 0 0
0 0 0
0 0 0
0 0 0
0 0 0
0 0 0
0 0 0
0 0 0
0 0 0
0 0 0
0 0 0
0 0 0
0 0 0
0 0 0
0 0 0
0 0 0
0 0 0
0 0 0
0 0 0
0 0 0
0 0 0
0 0 0
0 0 0
0 0 0
0 0 0
0 0 0
0 0 0
0 0 0
0 0 0
0 0 0
0 0 0
0 0 0
0 0 0
0 0 0
0 0 0
0 0 0
0 0 0
0 0 0
0 0 0
0 0 0
0 0 0
0 0 0
0 0 0
0 0 0
0 0 0
0 0 0
0 0 0
0 0 0
0 0 0
0 0 0
0 0 0
0 0 0
0 0 0
0 0 0
0 0 0
0 0 0
0 0 0
0 0 0
0 0 0
0 0 0
0 0 0
0 0 0
0 0 0
0 0 0
0 0 0
0 0 0
0 0 0
0 0 0
0 0 0
0 0 0
0 0 0
0 0 0
0 0 0
0 0 0
0 0 0
0 0 0
0 0 0
0 0 0
0 0 0
0 0 0
0 0 0
0 0 0
0 0 0
0 0 0
0 0 0
0 0 0
0 0 0
0 0 0
0 0 0
0 0 0
0 0 0
0 0 0
0 0 0
0 0 0
0 0 0
0 0 0
0 0 0
0 0 0
0 0 0
0 0 0
0 0 0
0 0 0
0 0 0
0 0 0
0 0 0
0 0 0
0 0 0
0 0 0
0 0 0
0 0 0
0 0 0
0 0 0
0 0 0
0 0 0
0 0 0
0 0 0
0 0 0
0 0 0
0 0 0
0 0 0
0 0 0
0 0 0
0 0 0
0 0 0
0 0 0
0 0 0
0 0 0
0 0 0
0 0 0
0 0 0
0 0 0
0 0 0
0 0 0
0 0 0
0 0 0
0 0 0
0 0 0
0 0 0
0 0 0
0 0 0
0 0 0
0 0 0
0 0 0
0 0 0
0 0 0
0 0 0
0 0 0
0 0 0
0 0 0
0 0 0
0 0 0
0 0 0
0 0 0
0 0 0
0 0 0
0 0 0
0 0 0
0 0 0
0 0 0
0 0 0
0 0 0
0 0 0
0 0 0
0 0 0
0 0 0
0 0 0
0 0 0
0 0 0
0 0 0
0 0 0
0 0 0
0 0 0
0 0 0
0 0 0
0 0 0
0 0 0
0 0 0
0 0 0
0 0 0
0 0 0
0 0 0
0 0 0
0 0 0
0 0 0
0 0 0
0 0 0
0 0 0
0 0 0
0 0 0
0 0 0
0 0 0
0 0 0
0 0 0
0 0 0
0 0 0
0 0 0
0 0 0
0 0 0
0 0 0
0 0 0
0 0 0
0 0 0
0 0 0
0 0 0
0 0 0
0 0 0
0 0 0
0 0 0
0 0 0
0 0 0
0 0 0
0 0 0
0 0 0
0 0 0
0 0 0
0 0 0
0 0 0
0 0 0
0 0 0
0 0 0
0 0 0
0 0 0
0 0 0
0 0 0
0 0 0
0 0 0
0 0 0
0 0 0
0 0 0
0 0 0
0 0 0
0 0 0
0 0 0
0 0 0
0 0 0
0 0 0
0 0 0
0 0 0
0 0 0
0 0 0
0 0 0
0 0 0
0 0 0
0 0 0
0 0 0
0 0 0
0 0 0
0 0 0
0 0 0
0 0 0
0 0 0
0 0 0
0 0 0
0 0 0
0 0 0
0 0 0
0 0 0
0 0 0
0 0 0
0 0 0
0 0 0
0 0 0
0 0 0
0 0 0
0 0 0
0 0 0
0 0 0
0 0 0
0 0 0
0 0 0
0 0 0
0 0 0
0 0 0
0 0 0
0 0 0
0 0 0
0 0 0
0 0 0
0 0 0
0 0 0
0 0 0
0 0 0
0 0 0
0 0 0
0 0 0
0 0 0
0 0 0
0 0 0
0 0 0
0 0 0
0 0 0
0 0 0
0 0 0
0 0 0
0 0 0
0 0 0
0 0 0
0 0 0
0 0 0
0 0 0
0 0 0
0 0 0
0 0 0
0 0 0
0 0 0
0 0 0
0 0 0
0 0 0
0 0 0
0 0 0
0 0 0
0 0 0
0 0 0
0 0 0
0 0 0
0 0 0
0 0 0
0 0 0
0 0 0
0 0 0
0 0 0
0 0 0
0 0 0
0 0 0
0 0 0
0 0 0
0 0 0
0 0 0
0 0 0
0 0 0
0 0 0
0 0 0
0 0 0
0 0 0
0 0 0
0 0 0
0 0 0
0 0 0
0 0 0
0 0 0
0 0 0
0 0 0
0 0 0
0 0 0
0 0 0
0 0 0
0 0 0
0 0 0
0 0 0
0 0 0
0 0 0
0 0 0
0 0 0
0 0 0
0 0 0
0 0 0
0 0 0
0 0 0
0 0 0
0 0 0
0 0 0
0 0 0
0 0 0
0 0 0
0 0 0
0 0 0
0 0 0
0 0 0
0 0 0
0 0 0
0 0 0
0 0 0
0 0 0
0 0 0
0 0 0
0 0 0
0 0 0
0 0 0
0 0 0
0 0 0
0 0 0
0 0 0
0 0 0
0 0 0
0 0 0
0 0 0
0 0 0
0 0 0
0 0 0
0 0 0
0 0 0
0 0 0
0 0 0
0 0 0
0 0 0
0 0 0
0 0 0
0 0 0
0 0 0
0 0 0
0 0 0
0 0 0
0 0 0
0 0 0
0 0 0
0 0 0
0 0 0
0 0 0
0 0 0
0 0 0
0 0 0
0 0 0
0 0 0
0 0 0
0 0 0
0 0 0
0 0 0
0 0 0
0 0 0
0 0 0
0 0 0
0 0 0
0 0 0
0 0 0
0 0 0
0 0 0
0 0 0
0 0 0
0 0 0
0 0 0
0 0 0
0 0 0
0 0 0
0 0 0
0 0 0
0 0 0
0 0 0
0 0 0
0 0 0
0 0 0
0 0 0
0 0 0
0 0 0
0 0 0
0 0 0
0 0 0
0 0 0
0 0 0
0 0 0
0 0 0
0 0 0
0 0 0
0 0 0
0 0 0
0 0 0
0 0 0
0 0 0
0 0 0
0 0 0
0 0 0
0 0 0
0 0 0
0 0 0
0 0 0
0 0 0
0 0 0
0 0 0
0 0 0
0 0 0
0 0 0
0 0 0
0 0 0
0 0 0
0 0 0
0 0 0
0 0 0
0 0 0
0 0 0
0 0 0
0 0 0
0 0 0
0 0 0
0 0 0
0 0 0
0 0 0
0 0 0
0 0 0
0 0 0
0 0 0
0 0 0
0 0 0
0 0 0
0 0 0
0 0 0
0 0 0
0 0 0
0 0 0
0 0 0
0 0 0
0 0 0
0 0 0
0 0 0
0 0 0
0 0 0
0 0 0
0 0 0
0 0 0
0 0 0
0 0 0
0 0 0
0 0 0
0 0 0
0 0 0
0 0 0
0 0 0
0 0 0
0 0 0
0 0 0
0 0 0
0 0 0
0 0 0
0 0 0
0 0 0
0 0 0
0 0 0
0 0 0
0 0 0
0 0 0
0 0 0
0 0 0
0 0 0
0 0 0
0 0 0
0 0 0
0 0 0
0 0 0
0 0 0
0 0 0
0 0 0
0 0 0
0 0 0
0 0 0
0 0 0
0 0 0
0 0 0
0 0 0
0 0 0
0 0 0
0 0 0
0 0 0
0 0 0
0 0 0
0 0 0
0 0 0
0 0 0
0 0 0
0 0 0
0 0 0
0 0 0
0 0 0
0 0 0
0 0 0
0 0 0
0 0 0
0 0 0
0 0 0
0 0 0
0 0 0
0 0 0
0 0 0
0 0 0
0 0 0
0 0 0
0 0 0
0 0 0
0 0 0
0 0 0
0 0 0
0 0 0
0 0 0
0 0 0
0 0 0
0 0 0
0 0 0
0 0 0
0 0 0
0 0 0
0 0 0
0 0 0
0 0 0
0 0 0
0 0 0
0 0 0
0 0 0
0 0 0
0 0 0
0 0 0
0 0 0
0 0 0
0 0 0
0 0 0
0 0 0
0 0 0
0 0 0
0 0 0
0 0 0
0 0 0
0 0 0
0 0 0
0 0 0
0 0 0
0 0 0
0 0 0
0 0 0
0 0 0
0 0 0
0 0 0
0 0 0
0 0 0
0 0 0
0 0 0
0 0 0
0 0 0
0 0 0
0 0 0
0 0 0
0 0 0
0 0 0
0 0 0
0 0 0
0 0 0
0 0 0
0 0 0
0 0 0
0 0 0
0 0 0
0 0 0
0 0 0
0 0 0
0 0 0
0 0 0
0 0 0
0 0 0
0 0 0
0 0 0
0 0 0
0 0 0
0 0 0
0 0 0
0 0 0
0 0 0
0 0 0
0 0 0
0 0 0
0 0 0
0 0 0
0 0 0
0 0 0
0 0 0
0 0 0
0 0 0
0 0 0
0 0 0
0 0 0
0 0 0
0 0 0
0 0 0
0 0 0
0 0 0
0 0 0
0 0 0
0 0 0
0 0 0
0 0 0
0 0 0
0 0 0
0 0 0
0 0 0
0 0 0
0 0 0
0 0 0
0 0 0
0 0 0
0 0 0
0 0 0
0 0 0
0 0 0
0 0 0
0 0 0
0 0 0
0 0 0
0 0 0
0 0 0
0 0 0
0 0 0
0 0 0
0 0 0
0 0 0
0 0 0
0 0 0
0 0 0
0 0 0
0 0 0
0 0 0
0 0 0
0 0 0
0 0 0
0 0 0
0 0 0
0 0 0
0 0 0
0 0 0
0 0 0
0 0 0
0 0 0
0 0 0
0 0 0
0 0 0
0 0 0
0 0 0
0 0 0
0 0 0
0 0 0
0 0 0
0 0 0
0 0 0
0 0 0
0 0 0
0 0 0
0 0 0
0 0 0
0 0 0
0 0 0
0 0 0
0 0 0
0 0 0
0 0 0
0 0 0
0 0 0
0 0 0
0 0 0
0 0 0
0 0 0
0 0 0
0 0 0
0 0 0
0 0 0
0 0 0
0 0 0
0 0 0
0 0 0
0 0 0
0 0 0
0 0 0
0 0 0
0 0 0
0 0 0
0 0 0
0 0 0
0 0 0
0 0 0
0 0 0
0 0 0
0 0 0
0 0 0
0 0 0
0 0 0
0 0 0
0 0 0
0 0 0
0 0 0
0 0 0
0 0 0
0 0 0
0 0 0
0 0 0
0 0 0
0 0 0
0 0 0
0 0 0
0 0 0
0 0 0
0 0 0
0 0 0
0 0 0
0 0 0
0 0 0
0 0 0
0 0 0
0 0 0
0 0 0
0 0 0
0 0 0
0 0 0
0 0 0
0 0 0
0 0 0
0 0 0
0 0 0
0 0 0
0 0 0
0 0 0
0 0 0
0 0 0
0 0 0
0 0 0
0 0 0
0 0 0
0 0 0
0 0 0
0 0 0
0 0 0
0 0 0
0 0 0
0 0 0
0 0 0
0 0 0
0 0 0
0 0 0
0 0 0
0 0 0
0 0 0
0 0 0
0 0 0
0 0 0
0 0 0
0 0 0
0 0 0
0 0 0
0 0 0
0 0 0
0 0 0
0 0 0
0 0 0
0 0 0
0 0 0
0 0 0
0 0 0
0 0 0
0 0 0
0 0 0
0 0 0
0 0 0
0 0 0
0 0 0
0 0 0
0 0 0
0 0 0
0 0 0
0 0 0
0 0 0
0 0 0
0 0 0
0 0 0
0 0 0
0 0 0
0 0 0
0 0 0
0 0 0
0 0 0
0 0 0
0 0 0
0 0 0
0 0 0
0 0 0
0 0 0
0 0 0
0 0 0
0 0 0
0 0 0
0 0 0
0 0 0
0 0 0
0 0 0
0 0 0
0 0 0
0 0 0
0 0 0
0 0 0
0 0 0
0 0 0
0 0 0
0 0 0
0 0 0
0 0 0
0 0 0
0 0 0
0 0 0
0 0 0
0 0 0
0 0 0
0 0 0
0 0 0
0 0 0
0 0 0
0 0 0
0 0 0
0 0 0
0 0 0
0 0 0
0 0 0
0 0 0
0 0 0
0 0 0
0 0 0
0 0 0
0 0 0
0 0 0
0 0 0
0 0 0
0 0 0
0 0 0
0 0 0
0 0 0
0 0 0
0 0 0
0 0 0
0 0 0
0 0 0
0 0 0
0 0 0
0 0 0
0 0 0
0 0 0
0 0 0
0 0 0
0 0 0
0 0 0
0 0 0
0 0 0
0 0 0
0 0 0
0 0 0
0 0 0
0 0 0
0 0 0
0 0 0
0 0 0
0 0 0
0 0 0
0 0 0
0 0 0
0 0 0
0 0 0
-0.325175 0.0150101 -0.140779
-0.332537 0.0153094 -0.142604
-0.339829 0.0156115 -0.144398
-0.347033 0.0159165 -0.146159
-0.354131 0.0162245 -0.147882
-0.3611 0.0165361 -0.149561
-0.321144 0.015554 -0.14036
-0.328366 0.0158612 -0.142189
-0.335521 0.0161711 -0.14399
-0.342591 0.0164841 -0.145757
-0.349559 0.0168002 -0.147488
-0.356403 0.0171199 -0.149176
-0.316985 0.0160891 -0.139926
-0.324063 0.0164037 -0.14176
-0.331076 0.0167211 -0.143566
-0.338008 0.0170416 -0.145341
-0.344842 0.0173654 -0.147079
-0.351557 0.0176927 -0.148777
-0.358129 0.0180242 -0.150427
-0.364533 0.0183604 -0.152025
-0.37074 0.0187021 -0.153564
-0.312702 0.0166148 -0.139476
-0.319631 0.0169364 -0.141315
-0.326498 0.0172609 -0.143128
-0.333289 0.0175885 -0.14491
-0.339985 0.0179195 -0.146657
-0.346566 0.0182541 -0.148364
-0.353011 0.018593 -0.150025
-0.359293 0.0189366 -0.151635
-0.365383 0.0192859 -0.153187
-0.308299 0.0171307 -0.139012
-0.315076 0.0174588 -0.140856
-0.321794 0.0177899 -0.142675
-0.328439 0.0181242 -0.144464
-0.334993 0.0184619 -0.14622
-0.341438 0.0188034 -0.147937
-0.347751 0.0191492 -0.14961
-0.353907 0.0194998 -0.151232
-0.359878 0.0198562 -0.152797
-0.303783 0.0176364 -0.138532
-0.310403 0.0179704 -0.140382
-0.316967 0.0183077 -0.142207
-0.323462 0.0186481 -0.144005
-0.329871 0.0189921 -0.145769
-0.336175 0.01934 -0.147497
-0.342353 0.0196921 -0.149181
-0.34838 0.0200493 -0.150816
-0.354229 0.0204123 -0.152395
-0.299157 0.0181312 -0.138039
-0.305617 0.0184708 -0.139893
-0.312024 0.0188136 -0.141725
-0.318366 0.0191598 -0.143531
-0.324626 0.0195095 -0.145305
-0.330786 0.0198632 -0.147043
-0.336825 0.0202213 -0.148739
-0.342719 0.0205844 -0.150387
-0.348442 0.0209535 -0.151981
-0.353963 0.0213296 -0.153513
-0.294427 0.0186147 -0.137531
-0.300723 0.0189593 -0.139391
-0.30697 0.0193072 -0.14123
-0.313155 0.0196585 -0.143043
-0.319262 0.0200135 -0.144827
-0.325274 0.0203725 -0.146576
-0.331171 0.0207359 -0.148284
-0.33693 0.0211046 -0.149946
-0.342524 0.0214792 -0.151555
-0.347924 0.021861 -0.153103
-0.353093 0.0222512 -0.154581
-0.283434 0.0187407 -0.135126
-0.289599 0.0190864 -0.137008
-0.295728 0.0194354 -0.138874
-0.301811 0.0197878 -0.14072
-0.307836 0.0201438 -0.142541
-0.313787 0.0205035 -0.144335
-0.319648 0.0208672 -0.146095
-0.325399 0.0212355 -0.147816
-0.331019 0.0216089 -0.149493
-0.336482 0.0219885 -0.151117
-0.341757 0.0223754 -0.152682
-0.346811 0.0227709 -0.154178
-0.278686 0.0191963 -0.134586
-0.284679 0.0195457 -0.136472
-0.290638 0.0198985 -0.138343
-0.296554 0.0202549 -0.140196
-0.302415 0.0206149 -0.142026
-0.308206 0.0209787 -0.14383
-0.313913 0.0213466 -0.145601
-0.319516 0.0217191 -0.147336
-0.324994 0.0220969 -0.149027
-0.330321 0.0224808 -0.150668
-0.33547 0.0228721 -0.15225
-0.340405 0.0232723 -0.153765
-0.323626 -0.00426904 -0.119235
-0.330985 -0.00465449 -0.121309
-0.338273 -0.00502457 -0.123403
-0.345473 -0.00537711 -0.12552
-0.352568 -0.00570988 -0.127661
-0.359535 -0.00602054 -0.12983
-0.319591 -0.00435466 -0.119251
-0.326809 -0.00475285 -0.121323
-0.333959 -0.00513535 -0.123414
-0.341026 -0.00549994 -0.125528
-0.34799 -0.00584425 -0.127667
-0.354831 -0.00616581 -0.129833
-0.315427 -0.00442757 -0.119263
-0.3225 -0.00483819 -0.121333
-0.329509 -0.00523289 -0.123423
-0.336437 -0.00560931 -0.125534
-0.343267 -0.005965 -0.12767
-0.349979 -0.00629735 -0.129833
-0.356548 -0.00660377 -0.132025
-0.36295 -0.0068816 -0.134251
-0.369155 -0.00712822 -0.136513
-0.311139 -0.00448709 -0.119272
-0.318063 -0.00490984 -0.12134
-0.324926 -0.00531645 -0.123427
-0.331712 -0.0057045 -0.125536
-0.338404 -0.00607139 -0.127669
-0.344982 -0.00641443 -0.129829
-0.351423 -0.00673084 -0.132018
-0.357702 -0.00701783 -0.134241
-0.36379 -0.00727263 -0.136499
-0.306732 -0.00453257 -0.119277
-0.313503 -0.00496709 -0.121343
-0.320216 -0.00538532 -0.123428
-0.326856 -0.00578473 -0.125535
-0.333406 -0.00616263 -0.127665
-0.339846 -0.0065162 -0.129822
-0.346155 -0.00684252 -0.132008
-0.352308 -0.00713863 -0.134227
-0.358277 -0.00740159 -0.136482
-0.30221 -0.00456329 -0.119278
-0.308825 -0.0050092 -0.121342
-0.315384 -0.00543872 -0.123425
-0.321873 -0.00584923 -0.125529
-0.328277 -0.00623794 -0.127657
-0.334577 -0.00660188 -0.129811
-0.34075 -0.006938 -0.131994
-0.346774 -0.00724317 -0.134209
-0.352619 -0.00751427 -0.136461
-0.297579 -0.00457856 -0.119273
-0.304033 -0.00503543 -0.121336
-0.310435 -0.00547588 -0.123417
-0.316771 -0.00589719 -0.125519
-0.323025 -0.00629647 -0.127645
-0.32918 -0.00667062 -0.129796
-0.335214 -0.00701642 -0.131976
-0.341105 -0.00733057 -0.134188
-0.346823 -0.00760979 -0.136436
-0.35234 -0.00785085 -0.138723
-0.292844 -0.00457764 -0.119263
-0.299134 -0.00504502 -0.121324
-0.305375 -0.005496 -0.123404
-0.311553 -0.00592779 -0.125505
-0.317655 -0.00633737 -0.127628
-0.323661 -0.00672152 -0.129777
-0.329553 -0.00707687 -0.131953
-0.335307 -0.00739995 -0.134162
-0.340896 -0.00768724 -0.136406
-0.346291 -0.00793535 -0.13869
-0.351457 -0.00814084 -0.141019
-0.281853 -0.00406874 -0.117205
-0.288011 -0.0045598 -0.119248
-0.294133 -0.00503718 -0.121307
-0.30021 -0.00549825 -0.123386
-0.306227 -0.00594015 -0.125484
-0.312172 -0.00635974 -0.127606
-0.318027 -0.00675369 -0.129752
-0.323773 -0.00711844 -0.131926
-0.329387 -0.00745035 -0.134131
-0.334844 -0.00774568 -0.136372
-0.340114 -0.00800083 -0.138652
-0.345164 -0.00821212 -0.140976
-0.2771 -0.00402398 -0.117184
-0.283085 -0.00452429 -0.119226
-0.289037 -0.00501112 -0.121284
-0.294946 -0.0054818 -0.123361
-0.300799 -0.00593339 -0.125459
-0.306584 -0.00636267 -0.127578
-0.312284 -0.00676616 -0.129722
-0.31788 -0.00714015 -0.131894
-0.323352 -0.0074808 -0.134096
-0.328673 -0.00778414 -0.136333
-0.333816 -0.00804631 -0.138609
-0.338747 -0.00826341 -0.140929
-0.325147 0.0141832 -0.139861
-0.332511 0.0144528 -0.141695
-0.339806 0.0147257 -0.143501
-0.347012 0.0150021 -0.145275
-0.354112 0.0152823 -0.147014
-0.361085 0.0155668 -0.148712
-0.321114 0.0146998 -0.139461
-0.328339 0.0149762 -0.141299
-0.335496 0.0152561 -0.14311
-0.342568 0.0155395 -0.144891
-0.349539 0.0158269 -0.146637
-0.356386 0.0161188 -0.148344
-0.316954 0.0152083 -0.139046
-0.324034 0.0154913 -0.140889
-0.331049 0.0157777 -0.142706
-0.337984 0.0160679 -0.144493
-0.34482 0.0163621 -0.146247
-0.351538 0.0166607 -0.147962
-0.358113 0.0169645 -0.149634
-0.364521 0.0172741 -0.151257
-0.370731 0.0175903 -0.152824
-0.312669 0.0157085 -0.138616
-0.3196 0.0159976 -0.140464
-0.32647 0.0162902 -0.142287
-0.333263 0.0165866 -0.144081
-0.339961 0.0168871 -0.145843
-0.346546 0.0171923 -0.147567
-0.352993 0.0175026 -0.149249
-0.359279 0.0178189 -0.150883
-0.365372 0.018142 -0.152463
-0.308265 0.0161998 -0.138172
-0.315044 0.0164946 -0.140025
-0.321764 0.0167929 -0.141853
-0.328411 0.0170952 -0.143655
-0.334967 0.0174016 -0.145425
-0.341415 0.0177128 -0.147159
-0.347731 0.0180293 -0.148851
-0.35389 0.0183518 -0.150497
-0.359865 0.0186813 -0.152089
-0.303747 0.0166819 -0.137714
-0.310369 0.0169819 -0.139571
-0.316936 0.0172855 -0.141406
-0.323433 0.0175932 -0.143215
-0.329844 0.0179051 -0.144994
-0.336151 0.0182218 -0.146737
-0.342331 0.0185439 -0.148441
-0.348361 0.0188722 -0.150098
-0.354213 0.0192077 -0.151704
-0.29912 0.0171543 -0.137242
-0.305581 0.017459 -0.139104
-0.311991 0.0177675 -0.140945
-0.318334 0.01808 -0.142762
-0.324596 0.0183969 -0.144549
-0.330759 0.0187187 -0.146303
-0.3368 0.019046 -0.148017
-0.342698 0.0193796 -0.149687
-0.348424 0.0197204 -0.151307
-0.353948 0.0200698 -0.152868
-0.294388 0.0176165 -0.136756
-0.300686 0.0179255 -0.138623
-0.306935 0.0182383 -0.140471
-0.313121 0.0185552 -0.142295
-0.319231 0.0188766 -0.144091
-0.325245 0.019203 -0.145855
-0.331145 0.0195349 -0.147581
-0.336907 0.0198732 -0.149264
-0.342504 0.020219 -0.150898
-0.347907 0.0205734 -0.152474
-0.35308 0.0209381 -0.153986
-0.283392 0.0177591 -0.134368
-0.289558 0.018068 -0.136256
-0.295689 0.0183808 -0.138128
-0.301774 0.0186974 -0.139982
-0.3078 0.0190183 -0.141814
-0.313753 0.0193436 -0.14362
-0.319616 0.019674 -0.145394
-0.32537 0.02001 -0.147133
-0.330993 0.0203526 -0.148829
-0.336459 0.0207026 -0.150478
-0.341737 0.0210615 -0.15207
-0.346795 0.0214309 -0.153599
-0.278642 0.0181964 -0.13385
-0.284636 0.0185085 -0.135742
-0.290597 0.0188244 -0.13762
-0.296514 0.0191443 -0.139481
-0.302376 0.0194685 -0.141321
-0.30817 0.0197973 -0.143136
-0.313879 0.0201312 -0.144921
-0.319484 0.0204708 -0.146672
-0.324965 0.0208169 -0.148382
-0.330295 0.0211707 -0.150046
-0.335447 0.0215335 -0.151655
-0.340387 0.021907 -0.153201
-0.325084 0.0125466 -0.138042
-0.325116 0.0133631 -0.138951
-0.332453 0.0127578 -0.139895
-0.332483 0.0136033 -0.140794
-0.339751 0.0129733 -0.141724
-0.339779 0.0138473 -0.142612
-0.346962 0.0131936 -0.143527
-0.346988 0.0140956 -0.1444
-0.354067 0.0134192 -0.145298
-0.354091 0.0143483 -0.146156
-0.361044 0.0136507 -0.147035
-0.361066 0.0146062 -0.147873
-0.32105 0.0130093 -0.137679
-0.321083 0.0138525 -0.138569
-0.328277 0.0132256 -0.139536
-0.328309 0.0140987 -0.140417
-0.335438 0.0134463 -0.14137
-0.335468 0.0143488 -0.14224
-0.342515 0.013672 -0.143178
-0.342543 0.0146032 -0.144034
-0.34949 0.013903 -0.144956
-0.349515 0.0148623 -0.145796
-0.356342 0.0141401 -0.1467
-0.356365 0.0151266 -0.147522
-0.316886 0.0134658 -0.137302
-0.316921 0.0143348 -0.138174
-0.32397 0.0136869 -0.139163
-0.324002 0.0145866 -0.140025
-0.330989 0.0139125 -0.141002
-0.33102 0.0148425 -0.141853
-0.337927 0.0141431 -0.142816
-0.337956 0.0151027 -0.143654
-0.344768 0.0143792 -0.144601
-0.344795 0.0153677 -0.145423
-0.351491 0.0146216 -0.146353
-0.351515 0.015638 -0.147157
-0.358072 0.0148709 -0.148067
-0.358094 0.0159145 -0.14885
-0.364485 0.0151281 -0.14974
-0.364504 0.0161978 -0.150498
-0.370701 0.0153943 -0.151366
-0.370717 0.0164889 -0.152094
-0.312599 0.0139158 -0.136912
-0.312635 0.0148096 -0.137764
-0.319534 0.0141413 -0.138777
-0.319568 0.0150667 -0.13962
-0.326407 0.0143714 -0.140621
-0.326439 0.0153279 -0.141453
-0.333204 0.0146067 -0.142441
-0.333234 0.0155935 -0.143261
-0.339906 0.0148475 -0.144233
-0.339935 0.0158641 -0.145037
-0.346495 0.0150948 -0.145993
-0.346522 0.0161401 -0.14678
-0.352948 0.0153491 -0.147716
-0.352972 0.0164223 -0.148482
-0.359239 0.0156116 -0.149399
-0.35926 0.0167116 -0.15014
-0.365339 0.0158832 -0.151035
-0.365357 0.0170089 -0.151748
-0.308193 0.014359 -0.136508
-0.30823 0.0152766 -0.13734
-0.314974 0.0145885 -0.138377
-0.31501 0.0155386 -0.139201
-0.321698 0.0148228 -0.140227
-0.321731 0.0158047 -0.14104
-0.328348 0.0150623 -0.142053
-0.32838 0.0160754 -0.142854
-0.334909 0.0153075 -0.143852
-0.334939 0.016351 -0.144638
-0.341361 0.0155592 -0.14562
-0.341389 0.0166323 -0.146389
-0.347682 0.0158182 -0.147353
-0.347707 0.0169199 -0.148102
-0.353847 0.0160854 -0.149046
-0.35387 0.0172146 -0.149771
-0.359827 0.0163622 -0.150693
-0.359847 0.0175177 -0.151391
-0.303672 0.014795 -0.136091
-0.30371 0.0157354 -0.136903
-0.310297 0.0150282 -0.137965
-0.310333 0.0160018 -0.138768
-0.316866 0.0152662 -0.139819
-0.316902 0.0162725 -0.140613
-0.323367 0.0155095 -0.141652
-0.323401 0.0165477 -0.142433
-0.329782 0.0157587 -0.143458
-0.329814 0.0168281 -0.144226
-0.336093 0.0160145 -0.145235
-0.336123 0.0171141 -0.145986
-0.342279 0.0162777 -0.146978
-0.342306 0.0174066 -0.147709
-0.348314 0.0165493 -0.148681
-0.348339 0.0177065 -0.14939
-0.354172 0.0168306 -0.15034
-0.354194 0.0180147 -0.151022
-0.299041 0.0152234 -0.135661
-0.299081 0.0161856 -0.136451
-0.305506 0.0154599 -0.137539
-0.305544 0.016456 -0.138321
-0.311918 0.0157013 -0.139399
-0.311955 0.0167307 -0.140172
-0.318265 0.0159481 -0.141238
-0.3183 0.0170101 -0.142
-0.324531 0.0162008 -0.143052
-0.324564 0.0172947 -0.143801
-0.330697 0.0164601 -0.144838
-0.330729 0.0175851 -0.14557
-0.336744 0.0167271 -0.146591
-0.336773 0.0178821 -0.147304
-0.342647 0.0170027 -0.148305
-0.342673 0.0181865 -0.148996
-0.348378 0.0172881 -0.149976
-0.348403 0.0184995 -0.150641
-0.353908 0.0175848 -0.151598
-0.35393 0.0188224 -0.152233
-0.294307 0.015644 -0.135218
-0.294348 0.0166267 -0.135987
-0.300607 0.0158834 -0.1371
-0.300647 0.0169007 -0.137862
-0.306859 0.0161277 -0.138966
-0.306897 0.017179 -0.139718
-0.313049 0.0163774 -0.140812
-0.313086 0.0174621 -0.141553
-0.319162 0.0166332 -0.142634
-0.319197 0.0177505 -0.143363
-0.32518 0.0168958 -0.144429
-0.325213 0.0180448 -0.145142
-0.331084 0.017166 -0.146192
-0.331115 0.0183457 -0.146887
-0.336851 0.017445 -0.147917
-0.33688 0.0186541 -0.148591
-0.342454 0.0177341 -0.149601
-0.34248 0.0189714 -0.15025
-0.347862 0.0180347 -0.151236
-0.347886 0.0192988 -0.151855
-0.353042 0.0183487 -0.152817
-0.353062 0.0196381 -0.153401
-0.283306 0.0158192 -0.132862
-0.283349 0.0167856 -0.133615
-0.289474 0.0160563 -0.134761
-0.289516 0.0170584 -0.135509
-0.295607 0.0162981 -0.136648
-0.295649 0.0173354 -0.137389
-0.301695 0.016545 -0.13852
-0.301735 0.0176169 -0.139251
-0.307724 0.0167973 -0.140373
-0.307762 0.0179033 -0.141094
-0.31368 0.0170557 -0.142203
-0.313717 0.0181949 -0.142912
-0.319547 0.0173209 -0.144007
-0.319582 0.0184925 -0.144701
-0.325305 0.017594 -0.145781
-0.325339 0.0187968 -0.146457
-0.330933 0.0178759 -0.147519
-0.330964 0.0191089 -0.148174
-0.336404 0.0181681 -0.149215
-0.336432 0.0194298 -0.149847
-0.341688 0.018472 -0.150864
-0.341714 0.0197611 -0.151467
-0.346752 0.0187897 -0.15246
-0.346775 0.0201046 -0.153029
-0.278553 0.016221 -0.132389
-0.278598 0.0172049 -0.13312
-0.284549 0.0164601 -0.134292
-0.284593 0.0174802 -0.135018
-0.290511 0.0167038 -0.136184
-0.290554 0.0177598 -0.136902
-0.296431 0.0169527 -0.138061
-0.296473 0.018044 -0.138771
-0.302296 0.0172071 -0.139921
-0.302337 0.018333 -0.140621
-0.308093 0.0174677 -0.14176
-0.308132 0.0186275 -0.142449
-0.313805 0.0177352 -0.143574
-0.313843 0.0189279 -0.144248
-0.319415 0.0180105 -0.145359
-0.31945 0.0192351 -0.146016
-0.3249 0.0182948 -0.147109
-0.324933 0.0195501 -0.147746
-0.330235 0.0185895 -0.148818
-0.330266 0.0198742 -0.149433
-0.335393 0.0188963 -0.150482
-0.335421 0.0202088 -0.151069
-0.340338 0.0192171 -0.152093
-0.340364 0.0205559 -0.152648
-0.325044 0.0117349 -0.137137
-0.325044 0.0117345 -0.137137
-0.332414 0.0119173 -0.139
-0.332414 0.0119168 -0.139
-0.339714 0.0121045 -0.140842
-0.339714 0.012104 -0.140841
-0.346927 0.0122971 -0.142659
-0.346927 0.0122966 -0.142658
-0.354034 0.0124958 -0.144448
-0.354034 0.0124952 -0.144447
-0.361013 0.0127011 -0.146205
-0.361013 0.0127005 -0.146204
-0.321008 0.0121712 -0.136793
-0.321009 0.0121707 -0.136792
-0.328238 0.0123578 -0.138659
-0.328238 0.0123573 -0.138659
-0.3354 0.0125493 -0.140505
-0.3354 0.0125488 -0.140504
-0.342479 0.0127465 -0.142327
-0.342479 0.0127459 -0.142326
-0.349456 0.0129497 -0.144122
-0.349456 0.0129491 -0.144121
-0.35631 0.0131598 -0.145886
-0.35631 0.0131592 -0.145885
-0.316844 0.0126022 -0.136435
-0.316844 0.0126017 -0.136434
-0.323929 0.0127927 -0.138305
-0.323929 0.0127922 -0.138304
-0.330949 0.0129883 -0.140155
-0.330949 0.0129877 -0.140155
-0.33789 0.0131895 -0.141983
-0.33789 0.013189 -0.141982
-0.344733 0.0133971 -0.143784
-0.344733 0.0133965 -0.143783
-0.351457 0.0136117 -0.145555
-0.351457 0.013611 -0.145554
-0.35804 0.0138342 -0.147292
-0.35804 0.0138335 -0.147291
-0.364456 0.0140656 -0.14899
-0.364456 0.0140649 -0.14899
-0.370674 0.0143071 -0.150646
-0.370675 0.0143064 -0.150645
-0.312556 0.0130276 -0.136064
-0.312556 0.0130271 -0.136063
-0.319492 0.0132217 -0.137938
-0.319492 0.0132212 -0.137937
-0.326366 0.013421 -0.139793
-0.326366 0.0134205 -0.139792
-0.333165 0.0136261 -0.141626
-0.333165 0.0136255 -0.141625
-0.339869 0.0138376 -0.143433
-0.339869 0.013837 -0.143433
-0.34646 0.0140563 -0.145212
-0.34646 0.0140556 -0.145211
-0.352915 0.0142831 -0.146957
-0.352915 0.0142824 -0.146956
-0.359208 0.0145191 -0.148665
-0.359208 0.0145183 -0.148664
-0.365311 0.0147654 -0.15033
-0.365311 0.0147646 -0.150329
-0.308148 0.0134472 -0.13568
-0.308148 0.0134466 -0.13568
-0.314931 0.0136446 -0.137558
-0.314931 0.013644 -0.137557
-0.321656 0.0138472 -0.139418
-0.321656 0.0138467 -0.139417
-0.328308 0.0140558 -0.141257
-0.328308 0.0140552 -0.141256
-0.334871 0.0142709 -0.143071
-0.334871 0.0142702 -0.14307
-0.341324 0.0144933 -0.144857
-0.341325 0.0144926 -0.144856
-0.347647 0.014724 -0.146611
-0.347647 0.0147233 -0.14661
-0.353814 0.0149641 -0.148328
-0.353814 0.0149634 -0.148327
-0.359797 0.0152148 -0.150004
-0.359797 0.015214 -0.150003
-0.303626 0.0138606 -0.135283
-0.303626 0.0138601 -0.135283
-0.310252 0.0140609 -0.137165
-0.310252 0.0140604 -0.137165
-0.316823 0.0142667 -0.13903
-0.316823 0.014266 -0.13903
-0.323325 0.0144783 -0.140875
-0.323326 0.0144777 -0.140874
-0.329742 0.0146966 -0.142696
-0.329742 0.0146959 -0.142696
-0.336055 0.0149224 -0.14449
-0.336055 0.0149217 -0.14449
-0.342242 0.0151566 -0.146253
-0.342242 0.0151559 -0.146252
-0.34828 0.0154004 -0.14798
-0.34828 0.0153996 -0.147979
-0.35414 0.0156551 -0.149667
-0.35414 0.0156543 -0.149666
-0.298994 0.0142676 -0.134874
-0.298995 0.0142671 -0.134873
-0.30546 0.0144705 -0.13676
-0.30546 0.0144699 -0.136759
-0.311874 0.0146789 -0.13863
-0.311874 0.0146783 -0.138629
-0.318222 0.0148933 -0.140481
-0.318222 0.0148926 -0.14048
-0.32449 0.0151144 -0.142309
-0.32449 0.0151137 -0.142309
-0.330658 0.0153431 -0.144112
-0.330658 0.0153424 -0.144111
-0.336706 0.0155804 -0.145884
-0.336706 0.0155796 -0.145883
-0.342611 0.0158275 -0.147621
-0.342611 0.0158267 -0.14762
-0.348345 0.0160857 -0.149319
-0.348345 0.0160848 -0.149318
-0.353878 0.0163565 -0.150972
-0.353878 0.0163556 -0.150971
-0.294259 0.0146679 -0.134451
-0.294259 0.0146673 -0.134451
-0.30056 0.014873 -0.136342
-0.30056 0.0148724 -0.136341
-0.306813 0.0150837 -0.138217
-0.306813 0.015083 -0.138217
-0.313004 0.0153004 -0.140074
-0.313004 0.0152997 -0.140074
-0.319118 0.0155239 -0.14191
-0.319118 0.0155232 -0.14191
-0.325139 0.0157552 -0.143721
-0.325139 0.0157544 -0.143721
-0.331044 0.0159951 -0.145503
-0.331044 0.0159943 -0.145502
-0.336813 0.016245 -0.147251
-0.336813 0.0162441 -0.14725
-0.342418 0.0165062 -0.14896
-0.342418 0.0165053 -0.14896
-0.347829 0.0167804 -0.150626
-0.347829 0.0167795 -0.150625
-0.353011 0.0170694 -0.152242
-0.353012 0.0170685 -0.152241
-0.283255 0.0148593 -0.132111
-0.283255 0.0148587 -0.13211
-0.289424 0.0150612 -0.134017
-0.289425 0.0150606 -0.134016
-0.295559 0.0152681 -0.135911
-0.295559 0.0152675 -0.135911
-0.301647 0.0154806 -0.137792
-0.301647 0.0154799 -0.137791
-0.307677 0.0156993 -0.139656
-0.307678 0.0156985 -0.139655
-0.313635 0.0159248 -0.141499
-0.313635 0.015924 -0.141499
-0.319504 0.0161581 -0.143319
-0.319504 0.0161573 -0.143318
-0.325264 0.0164002 -0.145111
-0.325264 0.0163994 -0.14511
-0.330893 0.0166524 -0.14687
-0.330893 0.0166515 -0.146869
-0.336366 0.0169162 -0.148592
-0.336366 0.0169153 -0.148591
-0.341653 0.0171932 -0.15027
-0.341653 0.0171922 -0.150269
-0.346719 0.0174855 -0.1519
-0.346719 0.0174845 -0.151899
-0.278501 0.0152439 -0.13166
-0.278501 0.0152433 -0.13166
-0.284498 0.0154471 -0.133569
-0.284498 0.0154465 -0.133569
-0.290461 0.0156554 -0.135468
-0.290461 0.0156548 -0.135468
-0.296382 0.0158694 -0.137354
-0.296382 0.0158687 -0.137354
-0.302249 0.0160895 -0.139225
-0.302249 0.0160888 -0.139225
-0.308047 0.0163166 -0.141076
-0.308047 0.0163158 -0.141076
-0.31376 0.0165515 -0.142905
-0.31376 0.0165507 -0.142905
-0.319371 0.0167954 -0.144707
-0.319371 0.0167945 -0.144707
-0.324858 0.0170494 -0.146478
-0.324858 0.0170485 -0.146477
-0.330196 0.0173152 -0.148212
-0.330196 0.0173142 -0.148211
-0.335356 0.0175945 -0.149904
-0.335356 0.0175935 -0.149904
-0.340304 0.0178894 -0.151549
-0.340304 0.0178884 -0.151548
-0.325002 0.0109282 -0.13624
-0.332374 0.0110819 -0.138114
-0.339675 0.0112411 -0.139968
-0.346889 0.0114062 -0.1418
-0.353998 0.0115781 -0.143607
-0.360979 0.0117574 -0.145385
-0.320966 0.011338 -0.135914
-0.328197 0.0114951 -0.137791
-0.33536 0.0116578 -0.139649
-0.34244 0.0118266 -0.141486
-0.349419 0.0120022 -0.143298
-0.356275 0.0121856 -0.145082
-0.316801 0.0117435 -0.135575
-0.323887 0.0119037 -0.137455
-0.330908 0.0120695 -0.139317
-0.33785 0.0122417 -0.141159
-0.344695 0.0124208 -0.142977
-0.351421 0.0126078 -0.144768
-0.358006 0.0128037 -0.146528
-0.364423 0.0130096 -0.148253
-0.370644 0.0132266 -0.149939
-0.312512 0.0121444 -0.135223
-0.319448 0.0123074 -0.137107
-0.326324 0.0124761 -0.138974
-0.333124 0.0126513 -0.140821
-0.33983 0.0128336 -0.142645
-0.346423 0.013024 -0.144442
-0.352879 0.0132234 -0.14621
-0.359174 0.0134331 -0.147944
-0.365279 0.0136542 -0.149639
-0.308103 0.0125404 -0.134859
-0.314887 0.0127059 -0.136746
-0.321613 0.0128773 -0.138617
-0.328266 0.0130551 -0.14047
-0.33483 0.0132403 -0.1423
-0.341286 0.0134337 -0.144105
-0.34761 0.0136363 -0.145881
-0.353779 0.0138494 -0.147623
-0.359764 0.0140743 -0.149328
-0.303579 0.0129314 -0.134482
-0.310207 0.0130991 -0.136373
-0.316779 0.0132727 -0.138249
-0.323282 0.0134529 -0.140107
-0.3297 0.0136406 -0.141944
-0.336015 0.0138366 -0.143756
-0.342204 0.0140421 -0.14554
-0.348243 0.0142582 -0.147292
-0.354105 0.0144864 -0.149007
-0.298947 0.013317 -0.134093
-0.305413 0.0134866 -0.135988
-0.311828 0.0136621 -0.137869
-0.318178 0.0138444 -0.139732
-0.324446 0.0140342 -0.141576
-0.330616 0.0142325 -0.143396
-0.336666 0.0144404 -0.145188
-0.342572 0.0146591 -0.14695
-0.348309 0.0148903 -0.148675
-0.353843 0.0151354 -0.15036
-0.29421 0.013697 -0.133692
-0.300512 0.0138682 -0.135591
-0.306766 0.0140453 -0.137476
-0.312958 0.0142293 -0.139346
-0.319074 0.0144208 -0.141196
-0.325095 0.014621 -0.143024
-0.331003 0.0148308 -0.144826
-0.336773 0.0150518 -0.146597
-0.34238 0.0152854 -0.148333
-0.347793 0.0155333 -0.15003
-0.352977 0.0157976 -0.151683
-0.283204 0.0139044 -0.131366
-0.289374 0.0140712 -0.133278
-0.295509 0.0142436 -0.135181
-0.301599 0.014422 -0.137072
-0.30763 0.0146072 -0.138947
-0.313589 0.0148001 -0.140805
-0.319459 0.0150017 -0.142641
-0.32522 0.0152132 -0.144452
-0.330851 0.0154359 -0.146234
-0.336326 0.0156715 -0.147981
-0.341615 0.0159217 -0.14969
-0.346683 0.0161887 -0.151356
-0.278449 0.0142717 -0.130937
-0.284446 0.0144393 -0.132852
-0.290411 0.0146125 -0.134759
-0.296332 0.0147918 -0.136655
-0.3022 0.014978 -0.138537
-0.307999 0.0151719 -0.140402
-0.313714 0.0153745 -0.142247
-0.319326 0.0155871 -0.144067
-0.324814 0.015811 -0.145859
-0.330154 0.0160481 -0.147619
-0.335316 0.0163001 -0.149341
-0.340266 0.0165693 -0.15102
-0.324958 0.0101264 -0.135348
-0.33233 0.0102517 -0.137233
-0.339633 0.010383 -0.1391
-0.346848 0.0105209 -0.140947
-0.353959 0.0106662 -0.142772
-0.360942 0.0108198 -0.144571
-0.320921 0.01051 -0.13504
-0.328152 0.0106379 -0.136927
-0.335317 0.0107718 -0.138798
-0.342399 0.0109125 -0.14065
-0.349379 0.0110608 -0.14248
-0.356236 0.0112176 -0.144285
-0.316755 0.0108902 -0.13472
-0.323842 0.0110203 -0.13661
-0.330864 0.0111566 -0.138485
-0.337808 0.0112999 -0.140341
-0.344653 0.0114509 -0.142176
-0.351381 0.0116106 -0.143987
-0.357967 0.01178 -0.14577
-0.364387 0.0119604 -0.147522
-0.370609 0.012153 -0.149239
-0.312465 0.0112667 -0.134387
-0.319402 0.0113988 -0.136281
-0.326279 0.0115373 -0.138159
-0.33308 0.0116828 -0.14002
-0.339788 0.0118362 -0.141861
-0.346382 0.0119985 -0.143678
-0.35284 0.0121708 -0.145468
-0.359136 0.0123543 -0.147228
-0.365243 0.0125504 -0.148954
-0.308055 0.0116393 -0.134042
-0.31484 0.0117733 -0.135939
-0.321567 0.0119136 -0.137822
-0.328221 0.012061 -0.139688
-0.334787 0.0122165 -0.141534
-0.341243 0.0123811 -0.143358
-0.347569 0.0125559 -0.145156
-0.35374 0.0127422 -0.146924
-0.359727 0.0129414 -0.148659
-0.303531 0.012008 -0.133686
-0.310159 0.0121434 -0.135586
-0.316732 0.0122852 -0.137473
-0.323236 0.0124344 -0.139344
-0.329655 0.0125917 -0.141196
-0.335971 0.0127582 -0.143027
-0.342162 0.0129351 -0.144832
-0.348203 0.0131238 -0.146609
-0.354066 0.0133257 -0.148353
-0.298897 0.0123724 -0.133317
-0.305364 0.0125089 -0.135221
-0.31178 0.0126521 -0.137112
-0.31813 0.0128026 -0.138989
-0.3244 0.0129613 -0.140847
-0.330571 0.0131294 -0.142685
-0.336622 0.0133081 -0.144498
-0.34253 0.0134988 -0.146284
-0.348268 0.0137031 -0.148038
-0.353804 0.0139226 -0.149755
-0.294159 0.0127323 -0.132936
-0.300462 0.0128698 -0.134844
-0.306717 0.0130139 -0.13674
-0.31291 0.0131654 -0.138622
-0.319026 0.0133253 -0.140487
-0.325049 0.0134946 -0.142332
-0.330958 0.0136747 -0.144154
-0.336729 0.013867 -0.145948
-0.342338 0.0140732 -0.147712
-0.347753 0.014295 -0.149441
-0.352939 0.0145345 -0.15113
-0.283152 0.0129554 -0.130624
-0.289323 0.0130876 -0.132544
-0.295458 0.0132257 -0.134455
-0.301548 0.0133705 -0.136356
-0.30758 0.0135227 -0.138243
-0.31354 0.0136833 -0.140115
-0.319411 0.0138535 -0.141968
-0.325174 0.0140346 -0.143798
-0.330806 0.0142281 -0.145602
-0.336282 0.0144357 -0.147377
-0.341573 0.0146593 -0.149117
-0.346643 0.0149011 -0.150818
-0.278396 0.0133056 -0.130217
-0.284393 0.0134381 -0.132139
-0.290358 0.0135765 -0.134055
-0.296281 0.0137216 -0.13596
-0.302149 0.0138741 -0.137853
-0.307949 0.0140352 -0.139732
-0.313664 0.0142059 -0.141593
-0.319278 0.0143875 -0.143432
-0.324768 0.0145817 -0.145246
-0.330108 0.0147902 -0.147031
-0.335272 0.0150151 -0.148783
-0.340224 0.0152587 -0.150497
-0.324913 0.00932655 -0.134457
-0.332286 0.00942369 -0.136352
-0.339589 0.0095273 -0.138232
-0.346806 0.00963813 -0.140095
-0.353917 0.00975704 -0.141938
-0.360901 0.00988497 -0.143758
-0.320874 0.00968423 -0.134167
-0.328107 0.00978305 -0.136064
-0.335273 0.00988848 -0.137948
-0.342355 0.0100013 -0.139814
-0.349336 0.0101224 -0.141662
-0.356195 0.0102528 -0.143487
-0.316708 0.0100393 -0.133865
-0.323795 0.0101396 -0.135765
-0.330819 0.0102467 -0.137652
-0.337763 0.0103612 -0.139523
-0.34461 0.0104843 -0.141375
-0.351339 0.0106168 -0.143206
-0.357927 0.0107599 -0.145012
-0.364347 0.010915 -0.146791
-0.370572 0.0110834 -0.148539
-0.312417 0.0103917 -0.133551
-0.319355 0.0104933 -0.135454
-0.326233 0.0106017 -0.137345
-0.333035 0.0107177 -0.13922
-0.339743 0.0108424 -0.141077
-0.346338 0.0109768 -0.142914
-0.352798 0.0111221 -0.144727
-0.359096 0.0112796 -0.146513
-0.365204 0.0114508 -0.148269
-0.308006 0.0107413 -0.133226
-0.314792 0.0108438 -0.135132
-0.32152 0.0109533 -0.137026
-0.328175 0.0110706 -0.138906
-0.334741 0.0111967 -0.140768
-0.341199 0.0113327 -0.142611
-0.347526 0.0114798 -0.144431
-0.353698 0.0116395 -0.146225
-0.359686 0.0118131 -0.147989
-0.303481 0.0110879 -0.132889
-0.31011 0.0111912 -0.134798
-0.316684 0.0113015 -0.136697
-0.323189 0.0114198 -0.138581
-0.329609 0.011547 -0.140449
-0.335926 0.0116842 -0.142298
-0.342117 0.0118328 -0.144125
-0.34816 0.0119943 -0.145926
-0.354025 0.0121701 -0.147699
-0.298847 0.0114313 -0.13254
-0.305314 0.0115352 -0.134453
-0.311731 0.0116461 -0.136355
-0.318082 0.0117651 -0.138245
-0.324353 0.011893 -0.140118
-0.330525 0.0120312 -0.141974
-0.336577 0.012181 -0.143808
-0.342486 0.0123438 -0.145618
-0.348225 0.0125214 -0.147399
-0.353763 0.0127155 -0.149149
-0.294108 0.0117714 -0.13218
-0.300411 0.0118756 -0.134097
-0.306667 0.0119869 -0.136003
-0.31286 0.0121062 -0.137897
-0.318978 0.0122347 -0.139777
-0.325001 0.0123735 -0.141639
-0.330911 0.0125241 -0.143481
-0.336684 0.0126879 -0.145299
-0.342294 0.0128668 -0.14709
-0.34771 0.0130627 -0.14885
-0.352897 0.0132776 -0.150576
-0.2831 0.0120103 -0.129882
-0.28927 0.0121082 -0.131809
-0.295406 0.0122123 -0.133728
-0.301497 0.0123237 -0.135639
-0.30753 0.0124432 -0.137538
-0.313491 0.0125718 -0.139424
-0.319362 0.0127109 -0.141294
-0.325126 0.0128619 -0.143143
-0.330759 0.0130264 -0.14497
-0.336237 0.0132062 -0.146771
-0.341529 0.0134033 -0.148542
-0.3466 0.0136201 -0.150279
-0.278343 0.0123437 -0.129496
-0.28434 0.0124413 -0.131426
-0.290306 0.0125452 -0.133349
-0.296229 0.0126564 -0.135264
-0.302097 0.0127757 -0.137169
-0.307898 0.0129042 -0.139061
-0.313614 0.0130432 -0.140937
-0.319229 0.0131942 -0.142796
-0.324719 0.0133589 -0.144632
-0.330061 0.0135392 -0.146443
-0.335226 0.0137372 -0.148224
-0.340179 0.0139553 -0.149973
-0.324859 0.00852873 -0.133567
-0.332233 0.0085978 -0.135473
-0.339537 0.00867385 -0.137367
-0.346755 0.00875774 -0.139245
-0.353867 0.00885039 -0.141106
-0.360852 0.00895283 -0.142947
-0.320821 0.00886056 -0.133295
-0.328054 0.00893048 -0.135203
-0.33522 0.00900753 -0.137099
-0.342304 0.0090926 -0.138981
-0.349285 0.00918665 -0.140846
-0.356145 0.00929075 -0.142692
-0.316653 0.00919073 -0.133011
-0.323742 0.00926131 -0.134922
-0.330766 0.00933916 -0.136821
-0.337711 0.0094252 -0.138707
-0.344558 0.00952042 -0.140576
-0.351288 0.00962593 -0.142428
-0.357877 0.00974299 -0.144258
-0.364299 0.00987293 -0.146064
-0.370524 0.0100172 -0.147843
-0.312362 0.00951915 -0.132716
-0.319301 0.0095902 -0.13463
-0.326179 0.00966865 -0.136532
-0.332982 0.00975542 -0.138422
-0.339691 0.00985157 -0.140296
-0.346287 0.00995824 -0.142152
-0.352747 0.0100767 -0.143988
-0.359047 0.0102085 -0.145801
-0.365156 0.0103549 -0.147588
-0.307951 0.00984572 -0.13241
-0.314737 0.00991706 -0.134327
-0.321465 0.00999588 -0.136233
-0.328121 0.0100832 -0.138126
-0.334688 0.01018 -0.140005
-0.341147 0.0102875 -0.141867
-0.347475 0.0104072 -0.143709
-0.353648 0.0105404 -0.145529
-0.359637 0.0106887 -0.147323
-0.303425 0.0101704 -0.132093
-0.310054 0.0102418 -0.134012
-0.316628 0.0103208 -0.135922
-0.323134 0.0104083 -0.137819
-0.329555 0.0105056 -0.139703
-0.335872 0.0106137 -0.141571
-0.342065 0.0107342 -0.14342
-0.348108 0.0108686 -0.145246
-0.353974 0.0110184 -0.147048
-0.298789 0.010493 -0.131765
-0.305258 0.0105643 -0.133687
-0.311675 0.0106432 -0.1356
-0.318026 0.0107308 -0.137502
-0.324298 0.0108282 -0.139391
-0.33047 0.0109366 -0.141265
-0.336523 0.0110577 -0.14312
-0.342434 0.0111928 -0.144954
-0.348174 0.0113439 -0.146765
-0.353713 0.0115128 -0.148548
-0.29405 0.0108134 -0.131425
-0.300354 0.0108844 -0.13335
-0.306609 0.0109631 -0.135267
-0.312804 0.0110504 -0.137174
-0.318922 0.0111477 -0.139069
-0.324946 0.0112562 -0.140948
-0.330856 0.0113774 -0.142811
-0.33663 0.011513 -0.144653
-0.342241 0.0116649 -0.146471
-0.347658 0.0118351 -0.148264
-0.352847 0.0120257 -0.150026
-0.28304 0.011068 -0.129141
-0.289212 0.0111317 -0.131075
-0.295348 0.0112021 -0.133003
-0.301439 0.0112803 -0.134924
-0.307472 0.0113672 -0.136835
-0.313433 0.011464 -0.138735
-0.319306 0.0115722 -0.140622
-0.32507 0.0116933 -0.142491
-0.330705 0.011829 -0.144341
-0.336183 0.0119813 -0.146169
-0.341476 0.0121523 -0.147971
-0.346548 0.0123443 -0.149744
-0.278283 0.0113847 -0.128776
-0.284281 0.0114476 -0.130712
-0.290246 0.0115173 -0.132644
-0.29617 0.0115947 -0.134569
-0.302038 0.0116809 -0.136485
-0.307839 0.011777 -0.138391
-0.313557 0.0118846 -0.140284
-0.319172 0.0120053 -0.142162
-0.324663 0.0121407 -0.14402
-0.330006 0.012293 -0.145857
-0.335171 0.0124644 -0.147669
-0.340126 0.0126573 -0.149453
-0.324805 0.00773402 -0.132682
-0.332179 0.00777509 -0.134599
-0.339484 0.00782368 -0.136506
-0.346702 0.00788071 -0.1384
-0.353815 0.00794718 -0.14028
-0.360801 0.00802421 -0.142143
-0.320766 0.00804006 -0.132427
-0.327999 0.00808116 -0.134347
-0.335166 0.00812993 -0.136256
-0.34225 0.00818734 -0.138153
-0.349233 0.00825442 -0.140037
-0.356093 0.00833234 -0.141904
-0.316598 0.00834536 -0.132162
-0.323686 0.00838632 -0.134084
-0.330711 0.0084351 -0.135996
-0.337657 0.00849269 -0.137896
-0.344505 0.00856018 -0.139783
-0.351235 0.00863876 -0.141655
-0.357825 0.0087298 -0.143509
-0.364248 0.00883467 -0.145343
-0.370474 0.00895491 -0.147154
-0.312306 0.00864985 -0.131886
-0.319245 0.00869053 -0.13381
-0.326124 0.00873914 -0.135725
-0.332927 0.00879671 -0.137629
-0.339637 0.00886439 -0.13952
-0.346233 0.00894343 -0.141397
-0.352694 0.00903519 -0.143256
-0.358994 0.00914118 -0.145096
-0.365104 0.009263 -0.146913
-0.307894 0.0089535 -0.131599
-0.31468 0.00899373 -0.133525
-0.321409 0.009042 -0.135443
-0.328066 0.00909936 -0.137351
-0.334633 0.00916701 -0.139247
-0.341092 0.00924623 -0.141128
-0.347421 0.00933848 -0.142993
-0.353595 0.0094453 -0.144839
-0.359585 0.00956838 -0.146664
-0.303367 0.00925627 -0.131302
-0.309997 0.00929588 -0.13323
-0.316572 0.00934362 -0.135152
-0.323078 0.00940058 -0.137063
-0.329499 0.00946796 -0.138963
-0.335817 0.00954713 -0.14085
-0.34201 0.00963958 -0.142721
-0.348054 0.00974693 -0.144573
-0.353921 0.00987097 -0.146405
-0.298731 0.0095581 -0.130993
-0.3052 0.00959694 -0.132925
-0.311617 0.00964397 -0.134849
-0.317969 0.00970031 -0.136765
-0.324241 0.0097672 -0.13867
-0.330414 0.00984605 -0.140562
-0.336468 0.00993841 -0.142439
-0.342379 0.010046 -0.144298
-0.34812 0.0101706 -0.146137
-0.353659 0.0103144 -0.147953
-0.293991 0.00985895 -0.130674
-0.300295 0.00989686 -0.132608
-0.306551 0.009943 -0.134536
-0.312746 0.0099985 -0.136456
-0.318864 0.0100647 -0.138366
-0.324889 0.0101429 -0.140263
-0.3308 0.0102349 -0.142147
-0.336574 0.0103424 -0.144013
-0.342186 0.0104673 -0.14586
-0.347604 0.0106118 -0.147684
-0.352793 0.010778 -0.149484
-0.282981 0.0101292 -0.128403
-0.289152 0.0101588 -0.130344
-0.295289 0.0101956 -0.132281
-0.30138 0.0102406 -0.134212
-0.307414 0.0102951 -0.136137
-0.313375 0.0103603 -0.138052
-0.319248 0.0104377 -0.139955
-0.325013 0.010529 -0.141845
-0.330648 0.0106361 -0.143719
-0.336127 0.0107609 -0.145574
-0.34142 0.0109057 -0.147407
-0.346493 0.0110729 -0.149216
-0.278223 0.0104292 -0.128059
-0.284221 0.0104575 -0.130003
-0.290187 0.0104931 -0.131943
-0.29611 0.0105369 -0.133878
-0.301979 0.0105901 -0.135807
-0.30778 0.0106541 -0.137727
-0.313498 0.0107303 -0.139637
-0.319114 0.0108206 -0.141534
-0.324605 0.0109269 -0.143415
-0.329949 0.0110512 -0.145279
-0.335115 0.011196 -0.147121
-0.34007 0.0113638 -0.14894
-0.324747 0.00694243 -0.131799
-0.332122 0.00695561 -0.133727
-0.339427 0.00697682 -0.135648
-0.346645 0.00700706 -0.137558
-0.353759 0.00704741 -0.139456
-0.360745 0.00709907 -0.141341
-0.320708 0.00722281 -0.131562
-0.327942 0.00723519 -0.133492
-0.335109 0.00725577 -0.135415
-0.342193 0.00728559 -0.137328
-0.349176 0.00732577 -0.139229
-0.356036 0.00737755 -0.141118
-0.316539 0.00750334 -0.131315
-0.323628 0.0075148 -0.133247
-0.330653 0.0075346 -0.135172
-0.337599 0.00756383 -0.137088
-0.344448 0.00760365 -0.138993
-0.351178 0.00765537 -0.140885
-0.357768 0.00772039 -0.142763
-0.364192 0.00780021 -0.144625
-0.370419 0.0078964 -0.146467
-0.312247 0.00778402 -0.131057
-0.319187 0.00779443 -0.132992
-0.326066 0.00781332 -0.134919
-0.332869 0.00784179 -0.136838
-0.339579 0.00788107 -0.138747
-0.346176 0.00793252 -0.140643
-0.352637 0.00799759 -0.142526
-0.358938 0.00807786 -0.144393
-0.365048 0.008175 -0.146242
-0.307835 0.00806486 -0.13079
-0.314621 0.0080741 -0.132726
-0.32135 0.00809192 -0.134656
-0.328007 0.00811947 -0.136578
-0.334575 0.00815802 -0.138491
-0.341034 0.00820897 -0.140392
-0.347363 0.00827386 -0.14228
-0.353538 0.00835432 -0.144152
-0.359528 0.00845211 -0.146007
-0.303308 0.00834586 -0.130512
-0.309937 0.00835381 -0.132451
-0.316512 0.00837042 -0.134383
-0.323019 0.00839688 -0.136309
-0.32944 0.0084345 -0.138226
-0.335759 0.00848474 -0.140131
-0.341952 0.00854918 -0.142024
-0.347996 0.00862956 -0.143902
-0.353864 0.00872773 -0.145764
-0.298671 0.00862703 -0.130224
-0.30514 0.00863357 -0.132165
-0.311557 0.00864882 -0.1341
-0.31791 0.00867402 -0.13603
-0.324181 0.00871051 -0.13795
-0.330355 0.0087598 -0.139861
-0.336409 0.00882355 -0.141759
-0.34232 0.00890357 -0.143644
-0.348061 0.00900179 -0.145512
-0.353602 0.00912027 -0.147361
-0.293931 0.00890837 -0.129925
-0.300235 0.00891337 -0.131868
-0.306491 0.00892713 -0.133807
-0.312686 0.0089509 -0.13574
-0.318804 0.00898606 -0.137665
-0.324829 0.00903417 -0.139581
-0.33074 0.00909696 -0.141485
-0.336515 0.00917633 -0.143376
-0.342127 0.00927429 -0.145251
-0.347545 0.00939301 -0.147108
-0.352735 0.00953485 -0.148944
-0.28292 0.00919419 -0.127667
-0.289091 0.00918988 -0.129615
-0.295228 0.00919324 -0.131561
-0.301319 0.00920536 -0.133503
-0.307353 0.00922752 -0.13544
-0.313314 0.00926115 -0.13737
-0.319187 0.00930785 -0.139291
-0.324952 0.00936941 -0.141201
-0.330587 0.00944781 -0.143099
-0.336067 0.00954518 -0.144981
-0.34136 0.0096638 -0.146846
-0.346434 0.00980615 -0.148691
-0.278161 0.00947762 -0.127344
-0.284159 0.00947158 -0.129295
-0.290125 0.00947317 -0.131244
-0.296048 0.00948352 -0.133189
-0.301917 0.00950391 -0.13513
-0.307719 0.0095358 -0.137065
-0.313437 0.00958085 -0.138992
-0.319052 0.00964091 -0.140908
-0.324544 0.00971801 -0.142812
-0.329888 0.00981443 -0.144702
-0.335054 0.00993257 -0.146576
-0.340009 0.0100751 -0.14843
-0.324689 0.00615113 -0.130915
-0.332063 0.00613648 -0.132855
-0.339368 0.00613037 -0.134789
-0.346587 0.00613388 -0.136715
-0.3537 0.00614817 -0.138632
-0.360687 0.00617451 -0.140538
-0.320649 0.00640588 -0.130696
-0.327883 0.00638962 -0.132637
-0.33505 0.00638207 -0.134573
-0.342134 0.00638437 -0.136501
-0.349117 0.00639771 -0.138421
-0.355978 0.00642341 -0.140331
-0.31648 0.0066617 -0.130467
-0.323569 0.00664372 -0.13241
-0.330594 0.00663462 -0.134348
-0.33754 0.00663556 -0.136279
-0.344389 0.00664779 -0.138201
-0.35112 0.0066727 -0.140114
-0.35771 0.00671178 -0.142016
-0.364133 0.00676659 -0.143906
-0.370361 0.00683879 -0.14578
-0.312187 0.00691862 -0.130228
-0.319127 0.00689884 -0.132173
-0.326006 0.00688808 -0.134113
-0.332809 0.00688752 -0.136047
-0.33952 0.00689849 -0.137972
-0.346117 0.00692242 -0.139889
-0.352578 0.00696086 -0.141795
-0.358879 0.00701547 -0.143689
-0.36499 0.00708798 -0.145569
-0.307775 0.00717669 -0.12998
-0.314561 0.00715503 -0.131927
-0.32129 0.00714249 -0.133869
-0.327947 0.0071403 -0.135805
-0.334515 0.00714984 -0.137734
-0.340974 0.0071726 -0.139655
-0.347304 0.0072102 -0.141566
-0.353478 0.00726437 -0.143464
-0.359469 0.00733694 -0.14535
-0.303248 0.00743598 -0.129722
-0.309877 0.00741235 -0.13167
-0.316452 0.00739792 -0.133615
-0.322958 0.00739397 -0.135554
-0.32938 0.00740191 -0.137487
-0.335698 0.00742331 -0.139412
-0.341892 0.00745984 -0.141327
-0.347936 0.00751332 -0.143231
-0.353804 0.00758568 -0.145122
-0.298611 0.00769653 -0.129453
-0.305079 0.00767085 -0.131404
-0.311497 0.00765443 -0.133351
-0.317849 0.00764858 -0.135293
-0.324121 0.00765477 -0.13723
-0.330294 0.0076746 -0.139159
-0.336348 0.00770984 -0.141079
-0.34226 0.00776238 -0.142989
-0.348001 0.00783425 -0.144885
-0.353541 0.00792758 -0.146768
-0.29387 0.0079584 -0.129175
-0.300174 0.00793059 -0.131127
-0.30643 0.00791208 -0.133077
-0.312624 0.0079042 -0.135023
-0.318743 0.00790847 -0.136964
-0.324768 0.00792654 -0.138897
-0.330679 0.00796025 -0.140822
-0.336454 0.00801158 -0.142737
-0.342066 0.00808268 -0.144641
-0.347484 0.00817576 -0.14653
-0.352674 0.00829322 -0.148403
-0.282859 0.00825975 -0.12693
-0.28903 0.00822165 -0.128886
-0.295166 0.00819164 -0.130841
-0.301258 0.00817094 -0.132794
-0.307291 0.00816091 -0.134743
-0.313253 0.00816308 -0.136688
-0.319126 0.00817919 -0.138626
-0.324891 0.00821114 -0.140557
-0.330526 0.00826099 -0.142478
-0.336005 0.008331 -0.144387
-0.341299 0.00842353 -0.146284
-0.346373 0.00854107 -0.148165
-0.2781 0.00852666 -0.126629
-0.284097 0.00848634 -0.128587
-0.290063 0.00845407 -0.130544
-0.295986 0.00843108 -0.1325
-0.301855 0.00841876 -0.134453
-0.307657 0.0084187 -0.136402
-0.313374 0.00843265 -0.138345
-0.31899 0.00846259 -0.140281
-0.324482 0.00851067 -0.142209
-0.329826 0.00857927 -0.144125
-0.334992 0.00867088 -0.146029
-0.339947 0.00878817 -0.147918
-0.324623 0.00535954 -0.130031
-0.331998 0.00531709 -0.131982
-0.339302 0.0052837 -0.13393
-0.346521 0.00526053 -0.135871
-0.353634 0.00524882 -0.137807
-0.360621 0.00524991 -0.139735
-0.320583 0.00558867 -0.12983
-0.327817 0.00554378 -0.131782
-0.334984 0.00550815 -0.133731
-0.342068 0.00548297 -0.135675
-0.349051 0.00546953 -0.137613
-0.355912 0.00546924 -0.139544
-0.316414 0.00581976 -0.129619
-0.323503 0.00577238 -0.131573
-0.330528 0.00573441 -0.133523
-0.337473 0.00570711 -0.135469
-0.344322 0.00569181 -0.13741
-0.351053 0.00568999 -0.139344
-0.357643 0.00570321 -0.14127
-0.364066 0.00573311 -0.143186
-0.370293 0.00578141 -0.145093
-0.312121 0.00605291 -0.129399
-0.31906 0.00600298 -0.131354
-0.325939 0.0059626 -0.133307
-0.332742 0.00593306 -0.135255
-0.339452 0.00591578 -0.137198
-0.346049 0.00591227 -0.139135
-0.352511 0.00592417 -0.141065
-0.358812 0.00595322 -0.142985
-0.364922 0.00600123 -0.144896
-0.307708 0.00628821 -0.12917
-0.314494 0.00623568 -0.131127
-0.321223 0.00619281 -0.133081
-0.32788 0.00616094 -0.135031
-0.334447 0.00614153 -0.136977
-0.340907 0.00613618 -0.138918
-0.347236 0.00614658 -0.140851
-0.35341 0.00617456 -0.142776
-0.359401 0.00622203 -0.144692
-0.303181 0.00652578 -0.128931
-0.30981 0.00647059 -0.130889
-0.316385 0.00642516 -0.132846
-0.322891 0.00639085 -0.134799
-0.329312 0.00636919 -0.136748
-0.33563 0.00636183 -0.138692
-0.341824 0.00637054 -0.140629
-0.347868 0.00639724 -0.142559
-0.353736 0.00644392 -0.144479
-0.298543 0.00676571 -0.128682
-0.305012 0.00670783 -0.130642
-0.311429 0.00665977 -0.132601
-0.317781 0.00662293 -0.134557
-0.324053 0.00659888 -0.136509
-0.330226 0.00658934 -0.138457
-0.33628 0.00659616 -0.140399
-0.342191 0.00662134 -0.142333
-0.347932 0.006667 -0.144259
-0.353473 0.00673532 -0.146174
-0.293802 0.00700811 -0.128424
-0.300106 0.00694751 -0.130386
-0.306362 0.00689675 -0.132347
-0.312556 0.00685729 -0.134306
-0.318674 0.00683073 -0.136262
-0.324699 0.00681884 -0.138213
-0.33061 0.00682357 -0.140159
-0.336385 0.006847 -0.142099
-0.341997 0.00689137 -0.14403
-0.347415 0.00695897 -0.145952
-0.352605 0.00705222 -0.147862
-0.282791 0.00732498 -0.126192
-0.288962 0.0072531 -0.128156
-0.295098 0.00718975 -0.13012
-0.301189 0.00713624 -0.132083
-0.307223 0.00709407 -0.134045
-0.313184 0.00706486 -0.136005
-0.319057 0.00705046 -0.13796
-0.324821 0.0070529 -0.139911
-0.330456 0.00707434 -0.141856
-0.335935 0.00711713 -0.143793
-0.341229 0.00718372 -0.145721
-0.346303 0.00727665 -0.147638
-0.278032 0.00757536 -0.125913
-0.284029 0.00750077 -0.127878
-0.289995 0.00743466 -0.129844
-0.295918 0.00737837 -0.13181
-0.301786 0.00733339 -0.133775
-0.307587 0.00730143 -0.135738
-0.313305 0.00728437 -0.137698
-0.31892 0.0072843 -0.139654
-0.324412 0.00730349 -0.141604
-0.329756 0.00734442 -0.143547
-0.334922 0.00740967 -0.145482
-0.339877 0.00750196 -0.147406
-0.324554 0.00456828 -0.129147
-0.331928 0.00449802 -0.13111
-0.339233 0.00443734 -0.13307
-0.346451 0.00438747 -0.135028
-0.353564 0.00434974 -0.136982
-0.36055 0.00432555 -0.138932
-0.320514 0.0047718 -0.128963
-0.327747 0.00469828 -0.130927
-0.334914 0.00463455 -0.132888
-0.341998 0.00458187 -0.134848
-0.348981 0.00454163 -0.136804
-0.355841 0.00451531 -0.138756
-0.316345 0.00497817 -0.12877
-0.323433 0.00490138 -0.130735
-0.330458 0.00483453 -0.132698
-0.337403 0.00477897 -0.134659
-0.344251 0.00473612 -0.136618
-0.350982 0.00470753 -0.138572
-0.357572 0.00469487 -0.140522
-0.363995 0.00469984 -0.142466
-0.370222 0.00472422 -0.144404
-0.312052 0.00518756 -0.128569
-0.318991 0.00510746 -0.130535
-0.325869 0.00503745 -0.132499
-0.332672 0.00497892 -0.134462
-0.339382 0.00493336 -0.136423
-0.345978 0.00490239 -0.13838
-0.35244 0.00488773 -0.140333
-0.35874 0.00489119 -0.142281
-0.36485 0.00491465 -0.144222
-0.307639 0.00540011 -0.128359
-0.314425 0.00531668 -0.130326
-0.321153 0.00524347 -0.132292
-0.327809 0.0051819 -0.134257
-0.334377 0.00513352 -0.13622
-0.340836 0.00510003 -0.13818
-0.347165 0.00508321 -0.140136
-0.353338 0.00508498 -0.142087
-0.359329 0.00510731 -0.144033
-0.303111 0.00561596 -0.128139
-0.30974 0.00552921 -0.130107
-0.316314 0.00545275 -0.132075
-0.32282 0.00538807 -0.134043
-0.329241 0.00533678 -0.136008
-0.335559 0.00530063 -0.137971
-0.341752 0.00528149 -0.139931
-0.347796 0.00528138 -0.141886
-0.353663 0.00530236 -0.143836
-0.298474 0.00583528 -0.12791
-0.304942 0.00574519 -0.12988
-0.311358 0.00566547 -0.13185
-0.31771 0.00559762 -0.133819
-0.323981 0.00554331 -0.135788
-0.330154 0.00550437 -0.137754
-0.336208 0.00548274 -0.139717
-0.342119 0.00548054 -0.141676
-0.347859 0.00549994 -0.143631
-0.353399 0.00554322 -0.14558
-0.293732 0.00605823 -0.127672
-0.300036 0.00596482 -0.129643
-0.306291 0.0058818 -0.131615
-0.312485 0.00581073 -0.133587
-0.318603 0.00575331 -0.135558
-0.324627 0.00571144 -0.137528
-0.330538 0.00568716 -0.139495
-0.336312 0.00568266 -0.141459
-0.341923 0.00570026 -0.143418
-0.347341 0.00574233 -0.145372
-0.352531 0.00581134 -0.147319
-0.282722 0.00639063 -0.125453
-0.288892 0.00628495 -0.127424
-0.295028 0.00618824 -0.129397
-0.301119 0.00610193 -0.131371
-0.307151 0.00602758 -0.133346
-0.313112 0.00596697 -0.13532
-0.318985 0.00592204 -0.137294
-0.324749 0.00589493 -0.139265
-0.330383 0.00588793 -0.141233
-0.335862 0.00590347 -0.143197
-0.341155 0.00594409 -0.145157
-0.346229 0.00601235 -0.14711
-0.277962 0.0066245 -0.125194
-0.283959 0.00651562 -0.127167
-0.289924 0.00641566 -0.129141
-0.295847 0.00632604 -0.131118
-0.301715 0.00624838 -0.133095
-0.307516 0.0061845 -0.135073
-0.313233 0.0061364 -0.13705
-0.318847 0.00610629 -0.139026
-0.324339 0.00609656 -0.140999
-0.329682 0.00610978 -0.142968
-0.334847 0.00614864 -0.144933
-0.339802 0.00621589 -0.146893
-0.324554 0.00456909 -0.129148
-0.331928 0.00449889 -0.13111
-0.339233 0.00443825 -0.133071
-0.346451 0.00438843 -0.135029
-0.353564 0.00435074 -0.136983
-0.36055 0.00432661 -0.138933
-0.320514 0.00477264 -0.128964
-0.327747 0.00469918 -0.130928
-0.334914 0.0046355 -0.132889
-0.341998 0.00458288 -0.134849
-0.34898 0.00454269 -0.136805
-0.355841 0.00451641 -0.138757
-0.316345 0.00497906 -0.128771
-0.323433 0.00490231 -0.130736
-0.330458 0.00483552 -0.132699
-0.337403 0.00478001 -0.13466
-0.344251 0.00473722 -0.136619
-0.350982 0.00470869 -0.138573
-0.357572 0.00469608 -0.140523
-0.363995 0.00470109 -0.142467
-0.370222 0.00472551 -0.144405
-0.312052 0.00518848 -0.12857
-0.318991 0.00510843 -0.130536
-0.325869 0.00503849 -0.1325
-0.332672 0.00498001 -0.134463
-0.339382 0.00493451 -0.136424
-0.345978 0.00490359 -0.138381
-0.35244 0.00488899 -0.140334
-0.35874 0.0048925 -0.142282
-0.36485 0.00491601 -0.144224
-0.307639 0.00540106 -0.128359
-0.314425 0.0053177 -0.130326
-0.321153 0.00524455 -0.132293
-0.327809 0.00518304 -0.134258
-0.334377 0.00513472 -0.136221
-0.340836 0.00510129 -0.138181
-0.347165 0.00508453 -0.140137
-0.353338 0.00508635 -0.142088
-0.359329 0.00510873 -0.144034
-0.303111 0.00561695 -0.12814
-0.30974 0.00553026 -0.130108
-0.316314 0.00545387 -0.132076
-0.32282 0.00538926 -0.134044
-0.329241 0.00533803 -0.136009
-0.335559 0.00530194 -0.137972
-0.341752 0.00528286 -0.139932
-0.347796 0.0052828 -0.141887
-0.353663 0.00530383 -0.143837
-0.298474 0.00583631 -0.127911
-0.304942 0.00574629 -0.129881
-0.311358 0.00566663 -0.131851
-0.31771 0.00559885 -0.13382
-0.323981 0.00554461 -0.135789
-0.330154 0.00550573 -0.137755
-0.336208 0.00548417 -0.139718
-0.342118 0.00548203 -0.141678
-0.347859 0.00550149 -0.143632
-0.353399 0.00554481 -0.145581
-0.293732 0.00605929 -0.127673
-0.300036 0.00596595 -0.129644
-0.306291 0.00588301 -0.131616
-0.312485 0.005812 -0.133588
-0.318603 0.00575466 -0.135559
-0.324627 0.00571286 -0.137529
-0.330538 0.00568864 -0.139496
-0.336312 0.00568421 -0.14146
-0.341923 0.00570187 -0.143419
-0.347341 0.005744 -0.145373
-0.352531 0.00581305 -0.14732
-0.282722 0.00639165 -0.125454
-0.288892 0.00628605 -0.127425
-0.295028 0.00618942 -0.129398
-0.301119 0.00610318 -0.131372
-0.307151 0.00602891 -0.133347
-0.313112 0.00596837 -0.135321
-0.318984 0.00592352 -0.137294
-0.324749 0.00589648 -0.139266
-0.330383 0.00588954 -0.141234
-0.335862 0.00590515 -0.143199
-0.341155 0.00594582 -0.145158
-0.346228 0.00601414 -0.147111
-0.277962 0.00662556 -0.125195
-0.283959 0.00651676 -0.127167
-0.289924 0.00641687 -0.129142
-0.295847 0.00632733 -0.131118
-0.301715 0.00624975 -0.133096
-0.307516 0.00618595 -0.135074
-0.313233 0.00613793 -0.137051
-0.318847 0.0061079 -0.139027
-0.324339 0.00609824 -0.141
-0.329682 0.00611153 -0.14297
-0.334847 0.00615045 -0.144935
-0.339802 0.00621775 -0.146894
-0.324486 0.00377611 -0.128263
-0.33186 0.00367806 -0.130237
-0.339164 0.00359011 -0.132211
-0.346382 0.00351359 -0.134185
-0.353494 0.00344989 -0.136157
-0.36048 0.0034005 -0.138129
-0.320446 0.00395396 -0.128097
-0.327679 0.00385183 -0.130071
-0.334845 0.00376002 -0.132046
-0.341928 0.0036799 -0.134021
-0.34891 0.00361292 -0.135995
-0.35577 0.00356064 -0.137968
-0.316277 0.00413557 -0.127922
-0.323365 0.00402937 -0.129898
-0.330389 0.00393368 -0.131874
-0.337334 0.0038499 -0.13385
-0.344181 0.00377956 -0.135826
-0.350911 0.00372429 -0.137801
-0.3575 0.00368583 -0.139774
-0.363923 0.00366595 -0.141746
-0.370149 0.00366651 -0.143715
-0.311984 0.00432115 -0.127739
-0.318922 0.00421089 -0.129715
-0.3258 0.00411128 -0.131693
-0.332603 0.0040238 -0.13367
-0.339312 0.00395003 -0.135648
-0.345908 0.00389167 -0.137625
-0.352368 0.00385053 -0.139601
-0.358668 0.0038285 -0.141576
-0.364777 0.00382753 -0.143548
-0.307571 0.00451088 -0.127548
-0.314356 0.00439658 -0.129525
-0.321084 0.00429305 -0.131503
-0.32774 0.00420182 -0.133483
-0.334306 0.00412454 -0.135462
-0.340765 0.00406298 -0.137442
-0.347093 0.00401904 -0.13942
-0.353266 0.0039947 -0.141398
-0.359256 0.00399201 -0.143374
-0.303043 0.00470498 -0.127347
-0.309671 0.00458666 -0.129326
-0.316245 0.00447921 -0.131305
-0.322751 0.0043842 -0.133287
-0.329171 0.00430334 -0.135268
-0.335488 0.00423848 -0.13725
-0.341681 0.00419159 -0.139232
-0.347724 0.00416476 -0.141213
-0.35359 0.00416016 -0.143192
-0.298406 0.00490363 -0.127138
-0.304873 0.00478134 -0.129118
-0.311289 0.00466998 -0.131099
-0.317641 0.00457116 -0.133082
-0.323911 0.00448665 -0.135066
-0.330083 0.00441838 -0.137051
-0.336136 0.00436841 -0.139036
-0.342046 0.00433893 -0.14102
-0.347787 0.00433221 -0.143003
-0.353326 0.00435059 -0.144984
-0.293665 0.00510706 -0.12692
-0.299968 0.00498085 -0.128901
-0.306222 0.00486559 -0.130884
-0.312416 0.00476295 -0.132869
-0.318533 0.00467474 -0.134855
-0.324556 0.00460296 -0.136843
-0.330466 0.00454977 -0.138831
-0.33624 0.00451746 -0.140819
-0.341851 0.00450842 -0.142806
-0.347268 0.00452512 -0.144792
-0.352457 0.00457004 -0.146776
-0.282654 0.00545496 -0.124714
-0.288824 0.00531547 -0.126692
-0.29496 0.00518541 -0.128674
-0.30105 0.00506629 -0.130659
-0.307082 0.00495982 -0.132647
-0.313042 0.00486785 -0.134636
-0.318914 0.00479248 -0.136627
-0.324677 0.00473593 -0.138618
-0.330311 0.0047006 -0.14061
-0.335789 0.00468903 -0.142602
-0.341081 0.00470383 -0.144592
-0.346154 0.0047476 -0.146581
-0.277895 0.00567227 -0.124476
-0.283892 0.00552909 -0.126455
-0.289856 0.00539526 -0.128439
-0.295778 0.00527233 -0.130426
-0.301646 0.00516203 -0.132416
-0.307446 0.00506628 -0.134408
-0.313162 0.00498722 -0.136402
-0.318776 0.00492718 -0.138397
-0.324267 0.00488865 -0.140393
-0.329609 0.00487431 -0.142389
-0.334774 0.00488694 -0.144385
-0.339728 0.00492932 -0.146379
-0.324413 0.00298208 -0.127377
-0.331786 0.00285614 -0.129362
-0.339089 0.00274083 -0.131349
-0.346306 0.00263756 -0.133339
-0.353418 0.00254781 -0.13533
-0.360403 0.00247313 -0.137322
-0.320373 0.00313407 -0.127228
-0.327605 0.00300323 -0.129214
-0.33477 0.00288326 -0.131202
-0.341853 0.00277559 -0.133192
-0.348834 0.00268177 -0.135184
-0.355693 0.00260345 -0.137178
-0.316204 0.00329074 -0.127072
-0.323291 0.00315503 -0.129058
-0.330314 0.00303038 -0.131046
-0.337259 0.00291829 -0.133038
-0.344105 0.00282036 -0.135031
-0.350834 0.00273832 -0.137026
-0.357423 0.00267397 -0.139024
-0.363844 0.00262917 -0.141023
-0.37007 0.00260582 -0.143023
-0.311911 0.00345231 -0.126907
-0.318849 0.00331178 -0.128894
-0.325726 0.00318247 -0.130883
-0.332527 0.00306592 -0.132876
-0.339236 0.00296384 -0.13487
-0.345831 0.002878 -0.136868
-0.352291 0.0028103 -0.138867
-0.358589 0.0027627 -0.140868
-0.364698 0.00273721 -0.142871
-0.307498 0.00361904 -0.126735
-0.314283 0.00347374 -0.128722
-0.32101 0.00333978 -0.130712
-0.327665 0.00321878 -0.132706
-0.334231 0.00311248 -0.134702
-0.340688 0.00302277 -0.136701
-0.347016 0.00295161 -0.138703
-0.353188 0.00290107 -0.140706
-0.359177 0.00287327 -0.142712
-0.302971 0.00379116 -0.126554
-0.309598 0.00364116 -0.128542
-0.316171 0.00350259 -0.130533
-0.322676 0.00337713 -0.132528
-0.329095 0.00326659 -0.134526
-0.335412 0.00317292 -0.136527
-0.341603 0.00309819 -0.138531
-0.347646 0.00304457 -0.140537
-0.353511 0.00301429 -0.142546
-0.298333 0.00396895 -0.126364
-0.3048 0.00381432 -0.128353
-0.311215 0.00367118 -0.130346
-0.317566 0.00354127 -0.132342
-0.323836 0.00342645 -0.134342
-0.330007 0.00332875 -0.136345
-0.336059 0.00325034 -0.138351
-0.341968 0.0031935 -0.140361
-0.347707 0.00316057 -0.142372
-0.353246 0.00315395 -0.144387
-0.293592 0.00415265 -0.126166
-0.299894 0.00399349 -0.128156
-0.306148 0.00384585 -0.13015
-0.312341 0.0037115 -0.132148
-0.318457 0.00359238 -0.13415
-0.32448 0.00349059 -0.136156
-0.330389 0.00340839 -0.138164
-0.336162 0.00334817 -0.140176
-0.341771 0.00331242 -0.142192
-0.347188 0.00330365 -0.14421
-0.352376 0.00332436 -0.14623
-0.282583 0.00451599 -0.123973
-0.288752 0.00434253 -0.125959
-0.294887 0.00417895 -0.12795
-0.300976 0.00402688 -0.129946
-0.307007 0.00388814 -0.131946
-0.312967 0.0037647 -0.13395
-0.318838 0.00365876 -0.135958
-0.3246 0.00357266 -0.137969
-0.330233 0.00350893 -0.139985
-0.33571 0.00347016 -0.142003
-0.341001 0.00345904 -0.144025
-0.346073 0.00347821 -0.14605
-0.277824 0.00471653 -0.123756
-0.28382 0.00453886 -0.125743
-0.289783 0.004371 -0.127735
-0.295704 0.0042146 -0.129732
-0.301571 0.0040715 -0.131734
-0.30737 0.00394375 -0.133741
-0.313086 0.00383361 -0.135751
-0.318699 0.00374352 -0.137766
-0.324189 0.00367611 -0.139785
-0.32953 0.00363413 -0.141807
-0.334694 0.00362044 -0.143834
-0.339647 0.00363784 -0.145863
-0.324337 0.00218813 -0.126488
-0.331709 0.00203415 -0.128484
-0.339012 0.00189133 -0.130485
-0.346228 0.00176114 -0.13249
-0.353338 0.00164515 -0.134499
-0.360322 0.00154499 -0.136513
-0.320297 0.00231429 -0.126357
-0.327529 0.00215458 -0.128353
-0.334693 0.00200627 -0.130354
-0.341775 0.00187088 -0.13236
-0.348755 0.00175004 -0.13437
-0.355613 0.00164547 -0.136385
-0.316129 0.00244602 -0.126219
-0.323215 0.00228065 -0.128215
-0.330237 0.00212687 -0.130217
-0.33718 0.00198628 -0.132223
-0.344026 0.00186056 -0.134233
-0.350754 0.00175154 -0.136249
-0.357341 0.00166108 -0.13827
-0.363762 0.00159113 -0.140296
-0.369986 0.00154366 -0.142328
-0.311836 0.0025836 -0.126073
-0.318773 0.00241264 -0.12807
-0.325649 0.00225344 -0.130072
-0.33245 0.00210765 -0.132078
-0.339157 0.00197705 -0.13409
-0.345751 0.00186351 -0.136107
-0.35221 0.00176901 -0.138129
-0.358507 0.0016956 -0.140157
-0.364615 0.00164536 -0.142191
-0.307423 0.00272733 -0.12592
-0.314207 0.00255087 -0.127917
-0.320933 0.00238631 -0.129919
-0.327587 0.00223534 -0.131927
-0.334152 0.00209982 -0.13394
-0.340609 0.00198171 -0.135958
-0.346935 0.00188309 -0.137982
-0.353106 0.00180611 -0.140011
-0.359093 0.00175295 -0.142047
-0.302896 0.00287751 -0.125759
-0.309523 0.00269565 -0.127756
-0.316095 0.00252578 -0.129759
-0.322598 0.00236967 -0.131768
-0.329017 0.00222923 -0.133782
-0.335332 0.00210651 -0.135801
-0.341523 0.00200368 -0.137827
-0.347564 0.00192301 -0.139858
-0.353428 0.00186679 -0.141896
-0.298259 0.00303444 -0.125589
-0.304725 0.0028473 -0.127587
-0.311139 0.00267221 -0.129591
-0.317489 0.002511 -0.131601
-0.323758 0.00236564 -0.133616
-0.329928 0.00223826 -0.135637
-0.335979 0.00213115 -0.137665
-0.341887 0.00204666 -0.139698
-0.347625 0.00198724 -0.141739
-0.353162 0.00195535 -0.143786
-0.293518 0.00319843 -0.125411
-0.299819 0.00300615 -0.12741
-0.306072 0.00282594 -0.129415
-0.312264 0.00265968 -0.131426
-0.31838 0.00250941 -0.133443
-0.324401 0.00237735 -0.135466
-0.330309 0.00226586 -0.137495
-0.336081 0.00217745 -0.139531
-0.341689 0.00211468 -0.141574
-0.347104 0.00208016 -0.143624
-0.352291 0.00207639 -0.145681
-0.28251 0.00357737 -0.123231
-0.288678 0.00336979 -0.125225
-0.294812 0.00317254 -0.127224
-0.3009 0.00298733 -0.12923
-0.306931 0.0028161 -0.131243
-0.312889 0.00266094 -0.133261
-0.318759 0.00252416 -0.135286
-0.324521 0.00240824 -0.137318
-0.330152 0.00231578 -0.139357
-0.335628 0.0022495 -0.141402
-0.340918 0.00221217 -0.143455
-0.345989 0.00220644 -0.145516
-0.277751 0.00376115 -0.123035
-0.283746 0.00354887 -0.125029
-0.289709 0.00334681 -0.12703
-0.295629 0.00315674 -0.129037
-0.301495 0.00298063 -0.131051
-0.307293 0.00282063 -0.133072
-0.313008 0.00267913 -0.135099
-0.31862 0.0025587 -0.137133
-0.324108 0.00246207 -0.139175
-0.329448 0.00239212 -0.141223
-0.334611 0.00235178 -0.14328
-0.339562 0.0023439 -0.145343
-0.324257 0.00139303 -0.125596
-0.331628 0.00121087 -0.127603
-0.338929 0.00104038 -0.129616
-0.346144 0.000883119 -0.131636
-0.353253 0.000740729 -0.133663
-0.360235 0.000614927 -0.135698
-0.320217 0.00149343 -0.125483
-0.327447 0.0013047 -0.127489
-0.33461 0.00112789 -0.129503
-0.341691 0.00096462 -0.131523
-0.34867 0.000816585 -0.13355
-0.355526 0.0006856 -0.135585
-0.316048 0.00160029 -0.125363
-0.323134 0.0014051 -0.127369
-0.330155 0.00122203 -0.129383
-0.337097 0.00105277 -0.131403
-0.343941 0.000899088 -0.133431
-0.350668 0.000762898 -0.135466
-0.357254 0.00064616 -0.13751
-0.363673 0.000550895 -0.139563
-0.369896 0.000479146 -0.141625
-0.311756 0.00171397 -0.125236
-0.318692 0.00151242 -0.127242
-0.325567 0.00132316 -0.129256
-0.332366 0.00114794 -0.131277
-0.339072 0.00098862 -0.133305
-0.345665 0.000847185 -0.135341
-0.352122 0.000725705 -0.137386
-0.358419 0.000626309 -0.139439
-0.364525 0.000551149 -0.141503
-0.307343 0.00183479 -0.125102
-0.314126 0.001627 -0.127108
-0.320851 0.00143164 -0.129122
-0.327504 0.00125052 -0.131143
-0.334068 0.00108557 -0.133172
-0.340523 0.000938872 -0.135209
-0.346848 0.000812589 -0.137255
-0.353018 0.000708966 -0.13931
-0.359004 0.000630274 -0.141374
-0.302817 0.00196311 -0.12496
-0.309442 0.00174922 -0.126967
-0.316013 0.00154786 -0.128981
-0.322516 0.00136089 -0.131003
-0.328933 0.00119034 -0.133032
-0.335247 0.00103836 -0.13507
-0.341436 0.000907218 -0.137117
-0.347476 0.000799277 -0.139173
-0.353339 0.000716935 -0.141239
-0.29818 0.00209927 -0.124811
-0.304645 0.00187945 -0.126818
-0.311058 0.00167221 -0.128832
-0.317407 0.00147948 -0.130855
-0.323674 0.00130335 -0.132885
-0.329843 0.00114608 -0.134924
-0.335893 0.00101002 -0.136972
-0.341799 0.000897671 -0.13903
-0.347536 0.000811558 -0.141098
-0.353071 0.000754223 -0.143177
-0.293439 0.00224365 -0.124653
-0.29974 0.00201807 -0.126661
-0.305992 0.00180509 -0.128676
-0.312182 0.0016067 -0.130699
-0.318297 0.00142504 -0.132731
-0.324317 0.00126246 -0.134771
-0.330224 0.00112145 -0.13682
-0.335994 0.0010046 -0.13888
-0.3416 0.000914594 -0.14095
-0.347014 0.000854119 -0.143031
-0.352199 0.000825783 -0.145124
-0.282432 0.00263849 -0.122487
-0.2886 0.00239662 -0.124487
-0.294733 0.00216548 -0.126495
-0.30082 0.00194692 -0.128512
-0.306849 0.00174297 -0.130536
-0.312807 0.00155585 -0.132569
-0.318675 0.00138799 -0.13461
-0.324436 0.00124197 -0.136661
-0.330066 0.00112053 -0.138722
-0.33554 0.0010265 -0.140794
-0.340828 0.000962734 -0.142878
-0.345898 0.000932004 -0.144973
-0.277674 0.00280563 -0.122312
-0.283668 0.00255854 -0.124313
-0.28963 0.00232208 -0.126322
-0.295549 0.00209813 -0.128339
-0.301414 0.00188876 -0.130364
-0.307211 0.00169626 -0.132398
-0.312924 0.00152313 -0.134442
-0.318535 0.00137208 -0.136495
-0.324022 0.00124596 -0.138558
-0.32936 0.00114777 -0.140632
-0.334521 0.00108055 -0.142718
-0.339472 0.00104725 -0.144816
-0.324177 0.000593944 -0.124701
-0.331546 0.000383479 -0.126718
-0.338846 0.000185216 -0.128744
-0.34606 7.91677e-07 -0.130779
-0.353168 -0.000168069 -0.132824
-0.360149 -0.000319569 -0.134879
-0.320137 0.00066837 -0.124606
-0.327366 0.000450496 -0.126623
-0.334528 0.000245081 -0.128648
-0.341607 5.38218e-05 -0.130683
-0.348585 -0.000121487 -0.132727
-0.35544 -0.000278948 -0.134782
-0.315969 0.000750171 -0.124504
-0.323053 0.000525015 -0.126521
-0.330073 0.00031253 -0.128546
-0.337014 0.000114483 -0.13058
-0.343857 -6.7247e-05 -0.132625
-0.350582 -0.000230669 -0.13468
-0.357166 -0.000373739 -0.136746
-0.363584 -0.000494355 -0.138825
-0.369805 -0.000590401 -0.140917
-0.311677 0.000839725 -0.124396
-0.318612 0.000607426 -0.126412
-0.325486 0.000387974 -0.128437
-0.332284 0.000183207 -0.130472
-0.338988 -4.9141e-06 -0.132516
-0.34558 -0.000174316 -0.134571
-0.352035 -0.000322835 -0.136638
-0.35833 -0.000448257 -0.138717
-0.364434 -0.000548354 -0.14081
-0.307265 0.000937422 -0.124281
-0.314047 0.000698137 -0.126297
-0.320771 0.000471837 -0.128322
-0.327422 0.00026043 -0.130357
-0.333984 6.59567e-05 -0.132401
-0.340438 -0.000109416 -0.134456
-0.346762 -0.00026342 -0.136523
-0.35293 -0.000393723 -0.138603
-0.358914 -0.000497971 -0.140696
-0.302739 0.00104366 -0.124159
-0.309363 0.000797565 -0.126175
-0.315933 0.000564555 -0.1282
-0.322434 0.000346601 -0.130235
-0.32885 0.000145826 -0.132279
-0.335163 -3.55098e-05 -0.134335
-0.34135 -0.000195031 -0.136403
-0.347389 -0.000330281 -0.138483
-0.35325 -0.000438773 -0.140577
-0.298103 0.00115885 -0.12403
-0.304566 0.00090614 -0.126046
-0.310979 0.000666575 -0.128071
-0.317326 0.000442186 -0.130106
-0.323592 0.000235172 -0.132151
-0.329759 4.78893e-05 -0.134207
-0.335807 -0.000117175 -0.136275
-0.341712 -0.000257438 -0.138356
-0.347447 -0.000370272 -0.140452
-0.352981 -0.000453056 -0.142562
-0.293362 0.00128339 -0.123893
-0.299662 0.0010243 -0.125909
-0.305913 0.000778357 -0.127934
-0.312102 0.000547663 -0.12997
-0.318215 0.00033449 -0.132015
-0.324234 0.000141289 -0.134072
-0.330139 -2.93384e-05 -0.136141
-0.335907 -0.000174677 -0.138223
-0.341513 -0.000291948 -0.14032
-0.346924 -0.000378378 -0.142432
-0.352108 -0.000431278 -0.14456
-0.282357 0.00169414 -0.121741
-0.288524 0.00141772 -0.123748
-0.294655 0.00115249 -0.125764
-0.300741 0.000900375 -0.12779
-0.30677 0.000663528 -0.129826
-0.312726 0.000444293 -0.131872
-0.318593 0.000245217 -0.13393
-0.324352 6.90152e-05 -0.136
-0.32998 -8.1459e-05 -0.138084
-0.335453 -0.000203272 -0.140181
-0.340739 -0.000293474 -0.142294
-0.345807 -0.000349203 -0.144425
-0.277599 0.00184442 -0.121587
-0.283592 0.00156226 -0.123594
-0.289553 0.00129117 -0.125611
-0.295471 0.00103312 -0.127638
-0.301335 0.000790293 -0.129674
-0.307131 0.000565116 -0.131722
-0.312842 0.000360227 -0.133781
-0.318452 0.000178455 -0.135852
-0.323937 2.2778e-05 -0.137937
-0.329274 -0.00010368 -0.140036
-0.334433 -0.000197789 -0.142151
-0.339382 -0.000256494 -0.144283
-0.324091 -0.000207904 -0.123804
-0.33146 -0.000446838 -0.125832
-0.338758 -0.000673033 -0.12787
-0.34597 -0.000884771 -0.12992
-0.353076 -0.00108024 -0.131982
-0.360055 -0.00125758 -0.134057
-0.320052 -0.000159793 -0.123727
-0.32728 -0.00040699 -0.125754
-0.334441 -0.000641182 -0.127791
-0.341518 -0.000860586 -0.12984
-0.348494 -0.00106332 -0.131902
-0.355347 -0.0012474 -0.133976
-0.315885 -0.000103415 -0.123644
-0.322967 -0.000358721 -0.12567
-0.329986 -0.0006008 -0.127707
-0.336925 -0.000827796 -0.129755
-0.343767 -0.00103774 -0.131816
-0.35049 -0.00122854 -0.13389
-0.357072 -0.00139808 -0.135979
-0.363488 -0.00154417 -0.138084
-0.369707 -0.00166463 -0.140206
-0.311593 -3.83463e-05 -0.123554
-0.318527 -0.00030159 -0.12558
-0.325399 -0.000551424 -0.127617
-0.332196 -0.000785916 -0.129665
-0.338899 -0.00100301 -0.131725
-0.345488 -0.00120053 -0.133799
-0.351942 -0.00137623 -0.135887
-0.358235 -0.00152781 -0.137992
-0.364337 -0.00165297 -0.140114
-0.307182 3.58519e-05 -0.123459
-0.313962 -0.00023514 -0.125484
-0.320685 -0.000492579 -0.12752
-0.327335 -0.000734459 -0.129568
-0.333895 -0.000958637 -0.131628
-0.340347 -0.00116285 -0.133702
-0.346669 -0.00134472 -0.13579
-0.352835 -0.00150184 -0.137894
-0.358817 -0.00163178 -0.140016
-0.302656 0.000119627 -0.123357
-0.309279 -0.000158902 -0.125382
-0.315848 -0.000423775 -0.127418
-0.322347 -0.000672919 -0.129465
-0.328762 -0.000904104 -0.131525
-0.335073 -0.00111497 -0.133598
-0.341258 -0.00130302 -0.135686
-0.347295 -0.00146573 -0.137791
-0.353154 -0.0016005 -0.139913
-0.29802 0.000213435 -0.123248
-0.304483 -7.23942e-05 -0.125272
-0.310894 -0.000344511 -0.127308
-0.317239 -0.000600774 -0.129355
-0.323504 -0.000838874 -0.131415
-0.32967 -0.00105634 -0.133489
-0.335716 -0.00125058 -0.135577
-0.341619 -0.00141891 -0.137681
-0.347352 -0.0015586 -0.139804
-0.352884 -0.00166696 -0.141946
-0.293281 0.000317742 -0.123131
-0.299579 2.48754e-05 -0.125156
-0.305829 -0.000254269 -0.127191
-0.312016 -0.000517487 -0.129239
-0.318128 -0.000762389 -0.131299
-0.324145 -0.000986405 -0.133372
-0.330049 -0.00118682 -0.135461
-0.335815 -0.0013608 -0.137566
-0.341418 -0.00150548 -0.139688
-0.346828 -0.001618 -0.141831
-0.352009 -0.00169559 -0.143995
-0.282277 0.000744253 -0.120993
-0.288443 0.00043302 -0.123007
-0.294573 0.00013341 -0.125032
-0.300658 -0.000152517 -0.127067
-0.306685 -0.000422502 -0.129115
-0.312639 -0.000674074 -0.131175
-0.318505 -0.000904564 -0.133249
-0.324262 -0.00111113 -0.135338
-0.329889 -0.00129081 -0.137443
-0.335359 -0.00144056 -0.139567
-0.340644 -0.00155733 -0.14171
-0.345709 -0.00163819 -0.143875
-0.27752 0.000877281 -0.120861
-0.283512 0.000559752 -0.122875
-0.289472 0.000253724 -0.124899
-0.295388 -3.871e-05 -0.126936
-0.301251 -0.000315242 -0.128984
-0.307045 -0.000573329 -0.131044
-0.312755 -0.000810197 -0.133119
-0.318363 -0.00102289 -0.135209
-0.323847 -0.00120829 -0.137315
-0.329181 -0.00136318 -0.139438
-0.334338 -0.00148431 -0.141582
-0.339285 -0.00156856 -0.143748
-0.324004 -0.0010114 -0.122901
-0.331371 -0.0012791 -0.124939
-0.338668 -0.00153354 -0.12699
-0.345878 -0.00177291 -0.129054
-0.352982 -0.00199533 -0.131133
-0.359959 -0.00219884 -0.133228
-0.319966 -0.000989662 -0.122842
-0.327192 -0.00126649 -0.124879
-0.334351 -0.00152978 -0.126929
-0.341426 -0.00177767 -0.128992
-0.3484 -0.00200818 -0.13107
-0.355252 -0.00221923 -0.133164
-0.315799 -0.000958766 -0.122778
-0.32288 -0.00124454 -0.124814
-0.329897 -0.00151655 -0.126863
-0.336834 -0.00177285 -0.128925
-0.343674 -0.00201137 -0.131002
-0.350395 -0.00222993 -0.133095
-0.356975 -0.00242632 -0.135206
-0.363389 -0.00259826 -0.137336
-0.369605 -0.0027435 -0.139488
-0.311508 -0.00091824 -0.122708
-0.31844 -0.00121276 -0.124743
-0.325311 -0.00149332 -0.126791
-0.332105 -0.00175791 -0.128852
-0.338806 -0.00200436 -0.130928
-0.345394 -0.0022304 -0.133021
-0.351846 -0.00243369 -0.135131
-0.358136 -0.00261182 -0.13726
-0.364236 -0.00276243 -0.139412
-0.307097 -0.000867597 -0.122633
-0.313876 -0.00117064 -0.124667
-0.320597 -0.00145958 -0.126714
-0.327245 -0.00173231 -0.128774
-0.333804 -0.0019866 -0.13085
-0.340254 -0.00222006 -0.132941
-0.346574 -0.00243023 -0.13505
-0.352737 -0.00261459 -0.137179
-0.358717 -0.00277062 -0.13933
-0.302572 -0.000806341 -0.122551
-0.309194 -0.00111765 -0.124584
-0.31576 -0.00141476 -0.12663
-0.322258 -0.0016955 -0.12869
-0.328671 -0.00195751 -0.130765
-0.33498 -0.00219834 -0.132856
-0.341164 -0.00241538 -0.134964
-0.347198 -0.00260598 -0.137093
-0.353055 -0.00276747 -0.139242
-0.297937 -0.000733964 -0.122462
-0.304398 -0.00105327 -0.124495
-0.310807 -0.00135833 -0.126541
-0.317151 -0.00164688 -0.1286
-0.323414 -0.0019165 -0.130674
-0.329578 -0.00216461 -0.132765
-0.335623 -0.0023885 -0.134873
-0.341523 -0.00258536 -0.137
-0.347254 -0.00275237 -0.13915
-0.352783 -0.00288674 -0.141323
-0.293198 -0.000649951 -0.122366
-0.299495 -0.000976956 -0.124399
-0.305743 -0.0012897 -0.126444
-0.311929 -0.00158587 -0.128503
-0.318039 -0.00186296 -0.130577
-0.324054 -0.00211827 -0.132667
-0.329956 -0.00234896 -0.134775
-0.33572 -0.00255209 -0.136902
-0.341321 -0.00272467 -0.139051
-0.346728 -0.00286373 -0.141224
-0.351907 -0.00296645 -0.143423
-0.282197 -0.000207372 -0.120243
-0.288361 -0.000553774 -0.122264
-0.29449 -0.000888136 -0.124296
-0.300573 -0.00120829 -0.126341
-0.306599 -0.00151185 -0.1284
-0.312551 -0.00179623 -0.130474
-0.318415 -0.00205864 -0.132564
-0.32417 -0.00229609 -0.134671
-0.329795 -0.00250549 -0.136798
-0.335263 -0.00268369 -0.138946
-0.340545 -0.00282753 -0.141119
-0.345608 -0.00293398 -0.143318
-0.27744 -9.16488e-05 -0.120133
-0.283431 -0.000444902 -0.122153
-0.289389 -0.000786249 -0.124185
-0.295305 -0.00111348 -0.12623
-0.301165 -0.00142418 -0.128289
-0.306958 -0.00171567 -0.130363
-0.312666 -0.00198503 -0.132453
-0.318272 -0.00222918 -0.13456
-0.323754 -0.00244487 -0.136687
-0.329086 -0.00262874 -0.138835
-0.334241 -0.00277743 -0.141008
-0.339185 -0.00288772 -0.143207
-0.324004 -0.00101096 -0.122902
-0.331371 -0.00127863 -0.12494
-0.338668 -0.00153304 -0.12699
-0.345878 -0.00177239 -0.129055
-0.352982 -0.00199479 -0.131134
-0.359959 -0.00219827 -0.133229
-0.319966 -0.000989205 -0.122843
-0.327192 -0.00126601 -0.12488
-0.334351 -0.00152927 -0.126929
-0.341426 -0.00177713 -0.128992
-0.3484 -0.00200761 -0.13107
-0.355252 -0.00221864 -0.133165
-0.315799 -0.000958289 -0.122779
-0.32288 -0.00124403 -0.124815
-0.329897 -0.00151601 -0.126863
-0.336834 -0.00177228 -0.128925
-0.343674 -0.00201077 -0.131002
-0.350395 -0.0022293 -0.133096
-0.356975 -0.00242567 -0.135207
-0.363388 -0.00259758 -0.137337
-0.369605 -0.0027428 -0.139489
-0.311508 -0.000917743 -0.122709
-0.31844 -0.00121223 -0.124744
-0.325311 -0.00149276 -0.126792
-0.332105 -0.00175732 -0.128853
-0.338806 -0.00200374 -0.130929
-0.345394 -0.00222975 -0.133021
-0.351846 -0.00243301 -0.135131
-0.358136 -0.00261112 -0.137261
-0.364236 -0.00276169 -0.139412
-0.307097 -0.00086708 -0.122633
-0.313876 -0.00117009 -0.124667
-0.320597 -0.00145899 -0.126714
-0.327245 -0.0017317 -0.128775
-0.333804 -0.00198595 -0.13085
-0.340254 -0.00221938 -0.132942
-0.346573 -0.00242952 -0.135051
-0.352737 -0.00261385 -0.13718
-0.358717 -0.00276985 -0.13933
-0.302572 -0.000805803 -0.122551
-0.309194 -0.00111708 -0.124585
-0.31576 -0.00141416 -0.126631
-0.322258 -0.00169486 -0.128691
-0.328671 -0.00195684 -0.130765
-0.33498 -0.00219763 -0.132856
-0.341164 -0.00241463 -0.134965
-0.347198 -0.0026052 -0.137093
-0.353055 -0.00276667 -0.139243
-0.297937 -0.000733406 -0.122462
-0.304398 -0.00105268 -0.124495
-0.310807 -0.0013577 -0.126541
-0.317151 -0.00164621 -0.128601
-0.323414 -0.0019158 -0.130675
-0.329578 -0.00216388 -0.132765
-0.335623 -0.00238773 -0.134873
-0.341523 -0.00258455 -0.137001
-0.347254 -0.00275153 -0.13915
-0.352783 -0.00288587 -0.141323
-0.293198 -0.000649371 -0.122367
-0.299495 -0.000976338 -0.124399
-0.305743 -0.00128905 -0.126445
-0.311929 -0.00158518 -0.128504
-0.318039 -0.00186223 -0.130578
-0.324054 -0.0021175 -0.132668
-0.329956 -0.00234815 -0.134776
-0.33572 -0.00255125 -0.136903
-0.341321 -0.00272379 -0.139052
-0.346728 -0.00286283 -0.141224
-0.351907 -0.00296552 -0.143424
-0.282196 -0.000206811 -0.120243
-0.288361 -0.000553174 -0.122264
-0.29449 -0.000887496 -0.124296
-0.300573 -0.00120761 -0.126342
-0.306598 -0.00151113 -0.1284
-0.312551 -0.00179547 -0.130474
-0.318415 -0.00205784 -0.132564
-0.32417 -0.00229525 -0.134672
-0.329795 -0.00250462 -0.136799
-0.335263 -0.00268278 -0.138947
-0.340545 -0.00282659 -0.14112
-0.345608 -0.00293301 -0.143319
-0.27744 -9.10688e-05 -0.120133
-0.283431 -0.000444281 -0.122153
-0.289389 -0.000785586 -0.124186
-0.295305 -0.00111278 -0.126231
-0.301165 -0.00142343 -0.12829
-0.306958 -0.00171488 -0.130364
-0.312666 -0.0019842 -0.132453
-0.318272 -0.00222831 -0.134561
-0.323754 -0.00244396 -0.136688
-0.329086 -0.00262779 -0.138836
-0.334241 -0.00277645 -0.141009
-0.339185 -0.0028867 -0.143208
-0.323912 -0.00181787 -0.121992
-0.331277 -0.00211458 -0.124039
-0.338572 -0.00239752 -0.126101
-0.34578 -0.0026648 -0.128179
-0.352882 -0.00291443 -0.130274
-0.359857 -0.00314437 -0.132389
-0.319874 -0.00182242 -0.121951
-0.327099 -0.00212914 -0.123998
-0.334256 -0.0024218 -0.126058
-0.341329 -0.00269844 -0.128135
-0.348301 -0.002957 -0.130228
-0.35515 -0.00319531 -0.132341
-0.315708 -0.0018169 -0.121906
-0.322787 -0.00213341 -0.123951
-0.329802 -0.00243564 -0.12601
-0.336738 -0.00272152 -0.128085
-0.343575 -0.00298891 -0.130178
-0.350295 -0.00323552 -0.132289
-0.356873 -0.00345906 -0.134421
-0.363283 -0.00365713 -0.136576
-0.369497 -0.00382741 -0.138757
-0.311418 -0.00180081 -0.121856
-0.318348 -0.00212688 -0.123899
-0.325217 -0.00243847 -0.125957
-0.33201 -0.00273345 -0.128031
-0.338709 -0.00300957 -0.130122
-0.345294 -0.00326444 -0.132232
-0.351744 -0.00349562 -0.134363
-0.358032 -0.00370061 -0.136516
-0.364129 -0.00387693 -0.138695
-0.307008 -0.00177361 -0.1218
-0.313785 -0.00210898 -0.123842
-0.320504 -0.00242973 -0.125899
-0.32715 -0.00273364 -0.127972
-0.333707 -0.00301835 -0.130062
-0.340155 -0.0032814 -0.13217
-0.346472 -0.00352019 -0.1343
-0.352634 -0.00373211 -0.136452
-0.358611 -0.00391452 -0.138629
-0.302483 -0.00173474 -0.121738
-0.309103 -0.00207914 -0.12378
-0.315668 -0.0024088 -0.125836
-0.322165 -0.00272145 -0.127907
-0.328575 -0.00301464 -0.129996
-0.334882 -0.00328577 -0.132103
-0.341064 -0.00353214 -0.134231
-0.347095 -0.00375098 -0.136382
-0.35295 -0.00393951 -0.138558
-0.297849 -0.00168366 -0.12167
-0.304308 -0.00203676 -0.123711
-0.310716 -0.00237508 -0.125766
-0.317058 -0.00269627 -0.127837
-0.323319 -0.00299777 -0.129924
-0.329481 -0.00327689 -0.132031
-0.335523 -0.00353079 -0.134158
-0.341422 -0.00375654 -0.136307
-0.34715 -0.00395122 -0.138482
-0.352676 -0.00411192 -0.140685
-0.293111 -0.0016198 -0.121596
-0.299406 -0.00198126 -0.123636
-0.305653 -0.00232794 -0.12569
-0.311837 -0.00265743 -0.12776
-0.317945 -0.00296707 -0.129847
-0.323958 -0.00325406 -0.131952
-0.329858 -0.00351542 -0.134078
-0.33562 -0.00374808 -0.136227
-0.341218 -0.00394893 -0.1384
-0.346623 -0.00411488 -0.140602
-0.351799 -0.00424304 -0.142835
-0.282111 -0.00116069 -0.119488
-0.288274 -0.00154256 -0.121514
-0.294402 -0.00191201 -0.123554
-0.300484 -0.00226673 -0.125608
-0.306507 -0.00260425 -0.127677
-0.312458 -0.00292183 -0.129763
-0.31832 -0.00321655 -0.131868
-0.324073 -0.0034853 -0.133993
-0.329695 -0.00372485 -0.13614
-0.335161 -0.0039319 -0.138313
-0.340441 -0.00410317 -0.140513
-0.345501 -0.00423557 -0.142745
-0.277355 -0.0010621 -0.1194
-0.283345 -0.00145139 -0.121426
-0.289302 -0.00182839 -0.123465
-0.295216 -0.00219078 -0.125518
-0.301075 -0.00253603 -0.127587
-0.306866 -0.00286133 -0.129673
-0.312573 -0.00316362 -0.131777
-0.318176 -0.00343967 -0.133901
-0.323656 -0.00368608 -0.136048
-0.328986 -0.00389935 -0.138219
-0.334138 -0.004076 -0.140419
-0.339079 -0.0042127 -0.14265
-0.323912 -0.00181745 -0.121992
-0.331277 -0.00211413 -0.12404
-0.338572 -0.00239705 -0.126102
-0.34578 -0.0026643 -0.12818
-0.352882 -0.00291391 -0.130275
-0.359857 -0.00314382 -0.132389
-0.319874 -0.00182198 -0.121952
-0.327099 -0.00212867 -0.123998
-0.334256 -0.0024213 -0.126059
-0.341329 -0.00269792 -0.128135
-0.348301 -0.00295645 -0.130229
-0.35515 -0.00319474 -0.132341
-0.315708 -0.00181644 -0.121906
-0.322787 -0.00213292 -0.123951
-0.329802 -0.00243512 -0.126011
-0.336738 -0.00272098 -0.128086
-0.343575 -0.00298834 -0.130178
-0.350295 -0.00323492 -0.132289
-0.356872 -0.00345843 -0.134421
-0.363283 -0.00365648 -0.136577
-0.369497 -0.00382673 -0.138757
-0.311418 -0.00180033 -0.121856
-0.318348 -0.00212637 -0.1239
-0.325217 -0.00243793 -0.125958
-0.33201 -0.00273288 -0.128032
-0.338709 -0.00300897 -0.130123
-0.345294 -0.00326381 -0.132232
-0.351744 -0.00349496 -0.134363
-0.358032 -0.00369992 -0.136517
-0.364129 -0.00387623 -0.138696
-0.307008 -0.00177311 -0.1218
-0.313785 -0.00210845 -0.123843
-0.320504 -0.00242916 -0.1259
-0.32715 -0.00273304 -0.127972
-0.333707 -0.00301773 -0.130062
-0.340155 -0.00328074 -0.132171
-0.346472 -0.00351951 -0.1343
-0.352634 -0.00373139 -0.136452
-0.358611 -0.00391378 -0.13863
-0.302483 -0.00173422 -0.121738
-0.309103 -0.00207858 -0.12378
-0.315668 -0.00240821 -0.125836
-0.322165 -0.00272083 -0.127908
-0.328575 -0.00301399 -0.129996
-0.334882 -0.00328509 -0.132104
-0.341064 -0.00353143 -0.134232
-0.347095 -0.00375024 -0.136382
-0.35295 -0.00393874 -0.138559
-0.297849 -0.00168312 -0.12167
-0.304308 -0.00203619 -0.123711
-0.310716 -0.00237447 -0.125766
-0.317058 -0.00269562 -0.127837
-0.323319 -0.00299709 -0.129925
-0.329481 -0.00327618 -0.132031
-0.335523 -0.00353004 -0.134158
-0.341422 -0.00375576 -0.136308
-0.34715 -0.00395041 -0.138482
-0.352676 -0.00411108 -0.140685
-0.293111 -0.00161923 -0.121596
-0.299406 -0.00198066 -0.123636
-0.305653 -0.00232731 -0.125691
-0.311837 -0.00265676 -0.127761
-0.317945 -0.00296636 -0.129847
-0.323958 -0.00325332 -0.131953
-0.329858 -0.00351464 -0.134079
-0.33562 -0.00374727 -0.136227
-0.341218 -0.00394809 -0.138401
-0.346623 -0.00411401 -0.140602
-0.351799 -0.00424215 -0.142835
-0.282111 -0.00116015 -0.119488
-0.288274 -0.00154198 -0.121515
-0.294402 -0.00191139 -0.123554
-0.300484 -0.00226607 -0.125608
-0.306507 -0.00260355 -0.127678
-0.312458 -0.0029211 -0.129764
-0.31832 -0.00321578 -0.131868
-0.324073 -0.0034845 -0.133993
-0.329695 -0.003724 -0.136141
-0.335161 -0.00393102 -0.138313
-0.340441 -0.00410226 -0.140514
-0.345501 -0.00423463 -0.142746
-0.277355 -0.00106154 -0.1194
-0.283345 -0.00145079 -0.121426
-0.289302 -0.00182775 -0.123465
-0.295216 -0.0021901 -0.125519
-0.301075 -0.00253531 -0.127588
-0.306866 -0.00286057 -0.129673
-0.312573 -0.00316282 -0.131778
-0.318176 -0.00343883 -0.133902
-0.323656 -0.0036852 -0.136048
-0.328986 -0.00389844 -0.13822
-0.334138 -0.00407505 -0.140419
-0.339079 -0.00421172 -0.14265
-0.323821 -0.00263059 -0.121078
-0.331184 -0.00295652 -0.123135
-0.338476 -0.00326815 -0.125208
-0.345682 -0.0035635 -0.127299
-0.352782 -0.0038405 -0.129409
-0.359755 -0.00409701 -0.131542
-0.319784 -0.00266174 -0.121056
-0.327006 -0.00299857 -0.123111
-0.334161 -0.00332081 -0.125182
-0.341233 -0.0036264 -0.127271
-0.348202 -0.00391318 -0.12938
-0.355049 -0.00417888 -0.131511
-0.315618 -0.00268194 -0.12103
-0.322696 -0.00302943 -0.123083
-0.329709 -0.00336208 -0.125153
-0.336642 -0.00367776 -0.12724
-0.343477 -0.00397419 -0.129347
-0.350194 -0.00424901 -0.131476
-0.35677 -0.00449981 -0.133628
-0.363178 -0.00472413 -0.135807
-0.369389 -0.00491954 -0.138015
-0.311328 -0.00269061 -0.120999
-0.318257 -0.0030485 -0.123051
-0.325124 -0.00339135 -0.125119
-0.331915 -0.00371694 -0.127204
-0.338612 -0.00402291 -0.12931
-0.345195 -0.00430677 -0.131436
-0.351642 -0.00456598 -0.133587
-0.357927 -0.00479794 -0.135763
-0.364022 -0.0050001 -0.137969
-0.306919 -0.00268719 -0.120963
-0.313695 -0.00305518 -0.123013
-0.320412 -0.00340798 -0.12508
-0.327056 -0.0037433 -0.127164
-0.333611 -0.00405865 -0.129268
-0.340057 -0.00435145 -0.131392
-0.346372 -0.00461902 -0.133541
-0.352531 -0.00485861 -0.135715
-0.358505 -0.00506753 -0.137919
-0.302396 -0.00267107 -0.120922
-0.309014 -0.00304884 -0.122971
-0.315577 -0.00341133 -0.125036
-0.322072 -0.00375615 -0.127119
-0.32848 -0.00408073 -0.129221
-0.334785 -0.00438236 -0.131344
-0.340964 -0.00465822 -0.13349
-0.346993 -0.00490543 -0.135663
-0.352845 -0.00512111 -0.137864
-0.297763 -0.00264163 -0.120875
-0.30422 -0.00302885 -0.122923
-0.310626 -0.00340073 -0.124987
-0.316966 -0.00375481 -0.127068
-0.323226 -0.00408844 -0.129169
-0.329385 -0.00439877 -0.13129
-0.335425 -0.00468285 -0.133435
-0.341321 -0.00493764 -0.135605
-0.347046 -0.0051601 -0.137805
-0.35257 -0.00534722 -0.140036
-0.293025 -0.00259827 -0.120821
-0.299319 -0.00299454 -0.122868
-0.305564 -0.00337549 -0.124932
-0.311747 -0.00373857 -0.127012
-0.317852 -0.00408103 -0.129111
-0.323864 -0.00439992 -0.131231
-0.329761 -0.00469213 -0.133374
-0.33552 -0.00495447 -0.135543
-0.341116 -0.00518372 -0.13774
-0.346517 -0.00537666 -0.139969
-0.351691 -0.00553035 -0.142234
-0.282028 -0.00212261 -0.11873
-0.28819 -0.00254035 -0.120761
-0.294316 -0.00294525 -0.122808
-0.300396 -0.00333489 -0.12487
-0.306418 -0.00370667 -0.126949
-0.312367 -0.00405774 -0.129047
-0.318227 -0.00438502 -0.131166
-0.323977 -0.00468527 -0.133308
-0.329597 -0.00495512 -0.135475
-0.33506 -0.00519115 -0.13767
-0.340337 -0.00538996 -0.139897
-0.345394 -0.00554838 -0.14216
-0.277273 -0.00204149 -0.118663
-0.283262 -0.00246724 -0.120694
-0.289217 -0.00288029 -0.12274
-0.29513 -0.00327823 -0.124802
-0.300987 -0.00365837 -0.12688
-0.306776 -0.00401777 -0.128978
-0.31248 -0.00435325 -0.131095
-0.318082 -0.00466142 -0.133235
-0.323559 -0.00493873 -0.135401
-0.328886 -0.00518155 -0.137594
-0.334036 -0.00538626 -0.13982
-0.338974 -0.00554946 -0.142081
-0.323724 -0.00344814 -0.120161
-0.331085 -0.00380361 -0.122226
-0.338375 -0.00414422 -0.12431
-0.345579 -0.00446793 -0.126414
-0.352676 -0.00477257 -0.12854
-0.359646 -0.0050559 -0.130691
-0.319688 -0.00350646 -0.120157
-0.326908 -0.00387373 -0.122221
-0.334061 -0.00422586 -0.124303
-0.34113 -0.00456069 -0.126404
-0.348097 -0.00487598 -0.128528
-0.354941 -0.00516935 -0.130677
-0.315523 -0.00355295 -0.12015
-0.322598 -0.00393176 -0.122212
-0.329609 -0.00429518 -0.124292
-0.33654 -0.00464096 -0.126391
-0.343373 -0.00496675 -0.128513
-0.350087 -0.00527006 -0.130659
-0.35666 -0.00554839 -0.132832
-0.363065 -0.0057992 -0.135034
-0.369273 -0.00601996 -0.137269
-0.311234 -0.00358698 -0.120139
-0.318161 -0.00397705 -0.122199
-0.325026 -0.00435151 -0.124277
-0.331814 -0.00470805 -0.126374
-0.338509 -0.00504419 -0.128494
-0.345089 -0.00535736 -0.130637
-0.351534 -0.00564488 -0.132807
-0.357816 -0.00590407 -0.135007
-0.363907 -0.00613228 -0.13724
-0.306826 -0.00360795 -0.120123
-0.313599 -0.00400894 -0.122182
-0.320314 -0.00439418 -0.124258
-0.326957 -0.00476125 -0.126353
-0.333509 -0.00510758 -0.128471
-0.339952 -0.00543046 -0.130612
-0.346265 -0.0057271 -0.132779
-0.352421 -0.00599465 -0.134976
-0.358392 -0.0062303 -0.137206
-0.302303 -0.00361518 -0.120103
-0.30892 -0.00402675 -0.12216
-0.315481 -0.00442247 -0.124234
-0.321973 -0.00479984 -0.126328
-0.32838 -0.00515617 -0.128443
-0.334682 -0.00548863 -0.130582
-0.340858 -0.0057943 -0.132747
-0.346885 -0.00607017 -0.134941
-0.352733 -0.00631325 -0.137167
-0.297671 -0.00360804 -0.120077
-0.304127 -0.0040298 -0.122132
-0.310531 -0.00443567 -0.124205
-0.316869 -0.00482306 -0.126297
-0.323126 -0.00518918 -0.128411
-0.329283 -0.00553108 -0.130547
-0.33532 -0.00584568 -0.13271
-0.341214 -0.00612982 -0.134901
-0.346936 -0.00638033 -0.137125
-0.352456 -0.0065941 -0.139385
-0.292935 -0.00358584 -0.120045
-0.299227 -0.00401738 -0.122099
-0.30547 -0.00443303 -0.124171
-0.31165 -0.00483014 -0.126261
-0.317754 -0.00520582 -0.128373
-0.323763 -0.00555699 -0.130508
-0.329657 -0.00588041 -0.132668
-0.335414 -0.00617276 -0.134857
-0.341007 -0.00643068 -0.137078
-0.346406 -0.00665087 -0.139334
-0.351575 -0.00683022 -0.141632
-0.281941 -0.00309378 -0.11797
-0.2881 -0.0035479 -0.120007
-0.294225 -0.00398874 -0.12206
-0.300303 -0.00441379 -0.124131
-0.306323 -0.00482029 -0.12622
-0.31227 -0.00520526 -0.12833
-0.318127 -0.0055655 -0.130463
-0.323876 -0.00589763 -0.132621
-0.329493 -0.00619812 -0.134807
-0.334953 -0.00646344 -0.137025
-0.340227 -0.00669005 -0.139279
-0.34528 -0.00687465 -0.141574
-0.277187 -0.00303079 -0.117926
-0.283173 -0.00349353 -0.119962
-0.289127 -0.00394317 -0.122015
-0.295038 -0.00437715 -0.124084
-0.300894 -0.00479267 -0.126172
-0.306681 -0.00518664 -0.128281
-0.312383 -0.00555574 -0.130412
-0.317982 -0.00589642 -0.132568
-0.323456 -0.006205 -0.134752
-0.328781 -0.00647768 -0.136968
-0.333927 -0.00671074 -0.139219
-0.338862 -0.0069006 -0.14151
-0.317756 0.0147134 -0.138929
-0.313868 0.0152495 -0.138506
-0.309856 0.0157773 -0.138068
-0.305724 0.0162961 -0.137614
-0.301477 0.0168056 -0.137146
-0.297119 0.0173053 -0.136663
-0.292656 0.0177947 -0.136165
-0.28173 0.0179352 -0.13376
-0.288093 0.0182733 -0.135652
-0.277243 0.0183984 -0.13323
-0.316212 -0.00387026 -0.11718
-0.31232 -0.00394292 -0.117197
-0.308303 -0.00400321 -0.117212
-0.304167 -0.00405049 -0.117222
-0.299915 -0.00408412 -0.117229
-0.295553 -0.00410344 -0.117231
-0.291085 -0.00410777 -0.117228
-0.28016 -0.0036037 -0.115192
-0.286516 -0.00409643 -0.11722
-0.275668 -0.00356634 -0.115179
-0.317726 0.0139167 -0.138003
-0.313837 0.0144264 -0.1376
-0.309823 0.0149286 -0.137181
-0.30569 0.0154227 -0.136748
-0.301442 0.0159085 -0.1363
-0.297082 0.0163854 -0.135838
-0.292617 0.0168531 -0.135362
-0.281688 0.0170094 -0.132974
-0.288052 0.0173112 -0.134872
-0.277199 0.0174538 -0.132467
-0.31766 0.0123395 -0.136169
-0.317694 0.0131264 -0.137085
-0.313769 0.0127972 -0.135803
-0.313803 0.0136099 -0.1367
-0.309753 0.013249 -0.135423
-0.309789 0.0140866 -0.136301
-0.305617 0.0136946 -0.135029
-0.305654 0.0145563 -0.135888
-0.301366 0.0141338 -0.134623
-0.301404 0.0150185 -0.135461
-0.297004 0.0145662 -0.134202
-0.297044 0.015473 -0.13502
-0.292537 0.0149914 -0.133768
-0.292577 0.0159192 -0.134565
-0.281603 0.0151787 -0.131414
-0.281646 0.016091 -0.132194
-0.287969 0.0154092 -0.133322
-0.288011 0.0163569 -0.134097
-0.277111 0.0155863 -0.130952
-0.277155 0.0165168 -0.13171
-0.317619 0.011557 -0.135256
-0.317619 0.0115566 -0.135255
-0.313726 0.0119891 -0.134908
-0.313726 0.0119887 -0.134908
-0.309709 0.0124163 -0.134548
-0.309709 0.0124158 -0.134547
-0.305573 0.0128382 -0.134174
-0.305573 0.0128377 -0.134173
-0.301321 0.0132545 -0.133787
-0.301321 0.013254 -0.133787
-0.296958 0.0136651 -0.133387
-0.296958 0.0136646 -0.133387
-0.292489 0.0140696 -0.132974
-0.292489 0.0140691 -0.132974
-0.281553 0.0142723 -0.130636
-0.281553 0.0142718 -0.130636
-0.28792 0.0144678 -0.132549
-0.28792 0.0144672 -0.132549
-0.27706 0.0146621 -0.130196
-0.27706 0.0146615 -0.130196
-0.317576 0.0107794 -0.13435
-0.313682 0.011186 -0.134021
-0.309665 0.0115884 -0.133679
-0.305527 0.0119866 -0.133325
-0.301274 0.0123802 -0.132958
-0.29691 0.012769 -0.132579
-0.29244 0.0131528 -0.132187
-0.281502 0.0133706 -0.129864
-0.28787 0.0135313 -0.131782
-0.277009 0.0137425 -0.129445
-0.31753 0.0100064 -0.133449
-0.313636 0.0103876 -0.133138
-0.309618 0.0107656 -0.132816
-0.305479 0.0111401 -0.132481
-0.301225 0.0115111 -0.132134
-0.296861 0.0118783 -0.131774
-0.29239 0.0122416 -0.131403
-0.281451 0.0124743 -0.129095
-0.287819 0.0126007 -0.131019
-0.276956 0.0128285 -0.128698
-0.317484 0.0092352 -0.132549
-0.313589 0.00959131 -0.132256
-0.30957 0.00994505 -0.131952
-0.305431 0.0102963 -0.131636
-0.301176 0.0106449 -0.131309
-0.296811 0.0109908 -0.13097
-0.292339 0.0113337 -0.130619
-0.281398 0.0115814 -0.128326
-0.287767 0.0116736 -0.130256
-0.276903 0.0119181 -0.12795
-0.31743 0.0084659 -0.13165
-0.313535 0.008797 -0.131376
-0.309515 0.00912661 -0.13109
-0.305375 0.00945464 -0.130793
-0.30112 0.009781 -0.130486
-0.296754 0.0101056 -0.130166
-0.292281 0.0104284 -0.129836
-0.28134 0.010691 -0.127558
-0.287709 0.0107492 -0.129494
-0.276844 0.0110104 -0.127203
-0.317375 0.00769962 -0.130755
-0.313479 0.00800577 -0.130499
-0.309459 0.0083113 -0.130232
-0.305319 0.00861618 -0.129954
-0.301063 0.00892035 -0.129666
-0.296696 0.00922379 -0.129366
-0.292223 0.00952643 -0.129056
-0.281281 0.00980389 -0.126792
-0.28765 0.00982825 -0.128735
-0.276784 0.0101059 -0.126459
-0.317318 0.00693635 -0.129862
-0.313421 0.00721767 -0.129624
-0.309401 0.00749923 -0.129376
-0.30526 0.00778105 -0.129117
-0.301003 0.00806314 -0.128848
-0.296636 0.00834549 -0.128569
-0.292163 0.00862812 -0.128279
-0.28122 0.00892034 -0.126029
-0.287589 0.00891101 -0.127978
-0.276723 0.00920514 -0.125716
-0.317259 0.00617332 -0.128969
-0.313362 0.00642983 -0.128749
-0.309341 0.00668747 -0.128519
-0.3052 0.00694629 -0.12828
-0.300944 0.00720633 -0.12803
-0.296576 0.00746764 -0.12777
-0.292103 0.00773028 -0.1275
-0.28116 0.00803723 -0.125265
-0.287528 0.0079943 -0.12722
-0.276662 0.00830484 -0.124974
-0.317193 0.00540997 -0.128076
-0.313296 0.00564169 -0.127874
-0.309275 0.0058754 -0.127662
-0.305134 0.0061112 -0.127442
-0.300877 0.00634918 -0.127211
-0.296509 0.00658946 -0.126971
-0.292036 0.00683211 -0.126722
-0.281093 0.00715378 -0.124501
-0.287461 0.00707725 -0.126462
-0.276595 0.00740419 -0.12423
-0.317125 0.00464698 -0.127182
-0.313228 0.0048539 -0.126998
-0.309207 0.00506368 -0.126805
-0.305065 0.00527648 -0.126603
-0.300808 0.00549243 -0.126392
-0.29644 0.00571167 -0.126171
-0.291966 0.00593435 -0.125942
-0.281024 0.00627075 -0.123734
-0.287392 0.00616061 -0.125702
-0.276526 0.00650398 -0.123485
-0.317125 0.00464774 -0.127183
-0.313228 0.00485469 -0.126999
-0.309207 0.00506451 -0.126806
-0.305065 0.00527734 -0.126604
-0.300808 0.00549332 -0.126392
-0.29644 0.0057126 -0.126172
-0.291966 0.00593531 -0.125942
-0.281024 0.00627168 -0.123735
-0.287392 0.00616161 -0.125703
-0.276526 0.00650494 -0.123485
-0.317057 0.00388305 -0.126289
-0.31316 0.00406513 -0.126123
-0.309139 0.00425095 -0.125948
-0.304998 0.00444069 -0.125764
-0.300741 0.00463455 -0.125572
-0.296373 0.00483271 -0.125371
-0.291899 0.00503537 -0.125162
-0.280957 0.00538648 -0.122968
-0.287324 0.00524272 -0.124942
-0.276459 0.00560249 -0.122739
-0.316985 0.00311736 -0.125394
-0.313088 0.00327443 -0.125245
-0.309067 0.0034361 -0.125088
-0.304926 0.0036026 -0.124924
-0.300669 0.00377418 -0.124751
-0.296301 0.00395107 -0.12457
-0.291827 0.0041335 -0.12438
-0.280886 0.00449928 -0.1222
-0.287253 0.00432172 -0.124181
-0.276388 0.00469785 -0.121992
-0.31691 0.00235189 -0.124496
-0.313013 0.00248396 -0.124365
-0.308992 0.00262149 -0.124227
-0.304851 0.00276478 -0.124081
-0.300595 0.00291409 -0.123928
-0.296227 0.00306972 -0.123766
-0.291753 0.00323195 -0.123597
-0.280813 0.00361254 -0.121432
-0.287179 0.00340106 -0.123418
-0.276316 0.0037937 -0.121244
-0.31683 0.00158541 -0.123594
-0.312934 0.00169255 -0.123482
-0.308913 0.00180604 -0.123362
-0.304772 0.00192619 -0.123236
-0.300516 0.00205333 -0.123102
-0.296149 0.00218779 -0.12296
-0.291675 0.00232991 -0.122811
-0.280736 0.00272558 -0.12066
-0.287101 0.00248003 -0.122653
-0.276239 0.00288944 -0.120494
-0.316752 0.000815079 -0.122691
-0.312856 0.000897102 -0.122597
-0.308835 0.000986337 -0.122496
-0.304695 0.00108315 -0.122388
-0.300439 0.00118792 -0.122274
-0.296072 0.00130102 -0.122152
-0.291599 0.00142283 -0.122023
-0.280661 0.0018336 -0.119887
-0.287026 0.00155373 -0.121886
-0.276165 0.00197997 -0.119742
-0.316668 4.21586e-05 -0.121786
-0.312772 9.87281e-05 -0.121709
-0.308752 0.00016337 -0.121627
-0.304612 0.000236498 -0.121539
-0.300357 0.00031853 -0.121444
-0.29599 0.000409888 -0.121342
-0.291518 0.000511003 -0.121233
-0.280582 0.000936766 -0.119113
-0.286945 0.000622311 -0.121117
-0.276086 0.00106526 -0.118989
-0.316582 -0.00073213 -0.120875
-0.312687 -0.000701063 -0.120817
-0.308668 -0.000661063 -0.120754
-0.304528 -0.00061167 -0.120685
-0.300273 -0.000552423 -0.12061
-0.295908 -0.000482851 -0.120529
-0.291436 -0.000402475 -0.120441
-0.280502 3.85489e-05 -0.118336
-0.286864 -0.000310811 -0.120346
-0.276007 0.000149132 -0.118234
-0.316582 -0.000731721 -0.120875
-0.312687 -0.000700635 -0.120817
-0.308668 -0.000660616 -0.120754
-0.304528 -0.000611204 -0.120685
-0.300273 -0.000551938 -0.12061
-0.295908 -0.000482347 -0.120529
-0.291436 -0.000401952 -0.120441
-0.280502 3.90539e-05 -0.118336
-0.286864 -0.000310269 -0.120346
-0.276007 0.000149655 -0.118234
-0.316492 -0.00150916 -0.119958
-0.312597 -0.0015035 -0.119918
-0.308579 -0.00148803 -0.119874
-0.30444 -0.00146225 -0.119825
-0.300185 -0.00142566 -0.11977
-0.29582 -0.00137774 -0.11971
-0.291349 -0.00131796 -0.119643
-0.280417 -0.000861253 -0.117554
-0.286778 -0.00124579 -0.119569
-0.275923 -0.000768414 -0.117474
-0.316492 -0.00150877 -0.119958
-0.312597 -0.00150308 -0.119919
-0.308579 -0.0014876 -0.119875
-0.30444 -0.0014618 -0.119825
-0.300185 -0.0014252 -0.119771
-0.29582 -0.00137726 -0.11971
-0.291349 -0.00131746 -0.119643
-0.280417 -0.000860764 -0.117555
-0.286778 -0.00124527 -0.119569
-0.275923 -0.000767908 -0.117474
-0.316402 -0.00229221 -0.119037
-0.312508 -0.00231225 -0.119016
-0.30849 -0.00232163 -0.118991
-0.304352 -0.00231979 -0.118962
-0.300099 -0.00230618 -0.118927
-0.295735 -0.00228024 -0.118887
-0.291265 -0.00224138 -0.118841
-0.280335 -0.00176893 -0.11677
-0.286694 -0.00218903 -0.118789
-0.275841 -0.00169415 -0.116711
-0.316308 -0.00307978 -0.118112
-0.312415 -0.00312607 -0.11811
-0.308397 -0.00316085 -0.118105
-0.30426 -0.00318351 -0.118095
-0.300007 -0.00319347 -0.118081
-0.295644 -0.0031901 -0.118062
-0.291175 -0.00317278 -0.118037
-0.280248 -0.00268472 -0.115983
-0.286605 -0.00314089 -0.118007
-0.275755 -0.0026286 -0.115947
CELL_DATA 2268
SCALARS MARKER int 1
LOOKUP_TABLE default
1
1
1
1
1
1
1
1
1
1
1
1
1
1
1
1
1
1
1
1
1
1
1
1
1
1
1
1
1
1
1
1
1
1
1
1
1
1
1
1
1
1
1
1
1
1
1
1
1
1
1
1
1
1
1
1
1
1
1
1
1
1
1
1
1
1
1
1
1
1
1
1
1
1
1
1
1
1
1
1
1
1
1
1
1
1
1
1
1
1
1
1
1
1
1
1
1
1
1
1
1
1
1
1
1
1
1
1
1
1
1
1
1
1
1
1
1
1
1
1
1
1
1
1
1
1
1
1
1
1
1
1
1
1
1
1
1
1
1
1
1
1
1
1
1
1
1
1
1
1
1
1
1
1
1
1
1
1
1
1
1
1
2
2
2
2
2
2
2
2
2
2
2
2
2
2
2
2
2
2
2
2
2
2
2
2
2
2
2
2
2
2
2
2
2
2
2
2
2
2
2
2
2
2
2
2
2
2
2
2
2
2
2
2
2
2
2
2
2
2
2
2
2
2
2
2
2
2
2
2
2
2
2
2
2
2
2
2
2
2
2
2
2
1
1
1
1
1
1
1
1
1
1
1
1
1
1
1
1
1
1
1
1
1
1
1
1
1
1
1
1
1
1
1
1
1
1
1
1
1
1
1
1
1
1
1
1
1
1
1
1
1
1
1
1
1
1
1
1
1
1
1
1
1
1
1
1
1
1
1
1
1
1
1
1
1
1
1
1
1
1
1
1
1
1
1
1
1
1
1
1
1
1
1
1
1
1
1
1
1
1
1
1
1
1
1
1
1
1
1
1
1
1
1
1
1
1
1
1
1
1
1
1
1
1
1
1
1
1
1
1
1
1
1
1
1
1
1
1
1
1
1
1
1
1
1
1
1
1
1
1
1
1
1
1
1
1
1
1
1
1
1
1
1
1
1
1
1
1
1
1
1
1
1
1
1
1
1
1
1
1
1
1
1
1
1
1
1
1
1
1
1
1
1
1
1
1
1
1
1
1
1
1
1
1
1
1
1
1
1
1
1
1
1
1
1
1
1
1
1
1
1
1
1
1
1
1
1
1
1
1
1
1
1
1
1
1
1
1
1
1
1
1
1
1
1
1
1
1
1
1
1
1
1
1
1
1
1
1
1
1
1
1
1
1
1
1
1
1
1
1
1
1
1
1
1
1
1
1
1
1
1
1
1
1
1
1
1
1
1
1
1
1
1
1
1
1
1
1
1
1
1
1
1
1
1
1
1
1
1
1
1
1
1
1
1
1
1
1
1
1
1
1
1
1
1
1
1
1
1
1
1
1
1
1
1
1
1
1
1
1
1
1
1
1
1
1
1
1
1
1
1
1
1
1
1
1
1
1
1
1
1
1
1
1
1
1
1
1
1
1
1
1
1
1
1
1
1
1
1
1
1
1
1
1
1
1
1
1
1
1
1
1
1
1
1
1
1
1
1
1
1
1
1
1
1
1
1
1
1
1
1
1
1
1
1
1
1
1
1
1
1
1
1
1
1
1
1
1
1
1
1
1
1
1
1
1
1
1
1
1
1
1
1
1
1
1
1
1
1
1
1
1
1
1
1
1
1
1
1
1
1
1
1
1
1
1
1
1
1
1
1
1
1
1
1
1
1
1
1
1
1
1
1
1
1
1
1
1
1
1
1
1
1
1
1
1
1
1
1
1
1
1
1
1
1
1
1
1
1
1
1
1
1
1
1
1
1
1
1
1
1
1
1
1
1
1
1
1
1
1
1
1
1
1
1
1
1
1
1
1
1
1
1
1
1
1
1
1
1
1
1
1
1
1
1
1
1
1
1
1
1
1
1
1
1
1
1
1
1
1
1
1
1
1
1
1
1
1
1
1
1
1
1
1
1
1
1
1
1
1
1
1
1
1
1
1
1
1
1
1
1
1
1
1
1
1
1
1
1
1
1
1
1
1
1
1
1
1
1
1
1
1
1
1
1
1
1
1
1
1
1
1
1
1
1
1
1
1
1
1
1
1
1
1
1
1
1
1
1
1
1
1
1
1
1
1
1
1
1
1
1
1
1
1
1
1
1
1
1
1
1
1
1
1
1
1
1
1
1
1
1
1
1
1
1
1
1
1
1
1
1
1
1
1
1
1
1
1
1
1
1
1
1
1
1
1
1
1
1
1
1
1
1
1
1
1
1
1
1
1
1
1
1
1
1
1
1
1
1
1
1
5
5
5
5
5
5
5
5
5
5
5
5
5
5
5
5
5
5
5
5
5
5
5
5
5
5
5
5
5
5
5
5
5
5
5
5
5
5
5
5
5
5
5
5
5
5
5
5
5
5
5
5
5
5
5
5
5
5
5
5
5
5
5
5
5
5
5
5
5
5
5
5
5
5
5
5
5
5
5
5
5
1
1
1
1
1
1
1
1
1
1
1
1
1
1
1
1
1
1
1
1
1
1
1
1
1
1
1
1
1
1
1
1
1
1
1
1
1
1
1
1
1
1
1
1
1
1
1
1
1
1
1
1
1
1
1
1
1
1
1
1
1
1
1
1
1
1
1
1
1
1
1
1
1
1
1
1
1
1
1
1
1
1
1
1
1
1
1
1
1
1
1
1
1
1
1
1
1
1
1
1
1
1
1
1
1
1
1
1
1
1
1
1
1
1
1
1
1
1
1
1
1
1
1
1
1
1
1
1
1
1
1
1
1
1
1
1
1
1
1
1
1
1
1
1
1
1
1
1
1
1
1
1
1
1
1
1
1
1
1
1
1
1
1
1
1
1
1
1
1
1
1
1
1
1
1
1
1
1
1
1
1
1
1
1
1
1
1
1
1
1
1
1
1
1
1
1
1
1
1
1
1
1
1
1
1
1
1
1
1
1
1
1
1
1
1
1
1
1
1
1
1
1
1
1
1
1
1
1
1
1
1
1
1
1
1
1
1
1
1
1
1
1
1
1
1
1
1
1
1
1
1
1
1
1
1
1
1
1
1
1
1
1
1
1
1
1
1
1
1
1
1
1
1
1
1
1
1
1
1
1
1
1
1
1
1
1
1
1
1
1
1
1
1
1
1
1
1
1
1
1
1
1
1
1
1
1
1
1
1
1
1
1
1
1
1
1
1
1
1
1
1
1
1
1
1
1
1
1
1
1
1
1
1
1
1
1
1
1
1
1
1
1
1
1
1
1
1
1
1
1
1
1
1
1
1
1
1
1
1
1
1
1
1
1
1
1
1
1
1
1
1
1
1
1
1
1
1
1
1
1
1
1
1
1
1
1
1
1
1
1
1
1
1
1
1
1
1
1
1
1
1
1
1
1
1
1
1
1
1
1
1
1
1
1
1
1
1
1
1
1
1
1
1
1
1
1
1
1
1
1
1
1
1
1
1
1
1
1
1
1
1
1
1
1
1
1
1
1
1
1
1
1
1
1
1
1
1
1
1
1
1
1
1
1
1
1
1
1
1
1
1
1
1
1
1
1
1
1
1
1
1
1
1
1
1
1
1
1
1
1
1
1
1
1
1
1
1
1
1
1
1
1
1
1
1
1
1
1
1
1
1
1
1
1
1
1
1
1
1
1
1
1
1
1
1
1
1
1
1
1
1
1
1
1
1
1
1
1
1
1
1
1
1
1
1
1
1
1
1
1
1
1
1
1
1
1
1
1
1
1
1
1
1
1
1
1
1
6
6
6
6
6
6
6
6
6
6
6
6
6
6
6
6
6
6
6
6
6
6
6
6
6
6
6
6
6
6
6
6
6
6
6
6
6
6
6
6
6
6
6
6
6
6
6
6
6
6
6
6
6
6
6
6
6
6
6
6
6
6
6
6
6
6
6
6
6
6
6
6
6
6
6
6
6
6
6
6
6
1
1
1
1
1
1
1
1
1
1
1
1
1
1
1
1
1
1
1
1
1
1
1
1
1
1
1
1
1
1
1
1
1
1
1
1
1
1
1
1
1
1
1
1
1
1
1
1
1
1
1
1
1
1
1
1
1
1
1
1
1
1
1
1
1
1
1
1
1
1
1
1
1
1
1
1
1
1
1
1
1
7
7
7
7
7
7
7
7
7
7
7
7
7
7
7
7
7
7
7
7
7
7
7
7
7
7
7
7
7
7
7
7
7
7
7
7
7
7
7
7
7
7
7
7
7
7
7
7
7
7
7
7
7
7
7
7
7
7
7
7
7
7
7
7
7
7
7
7
7
7
7
7
7
7
7
7
7
7
7
7
7
1
1
1
1
1
1
1
1
1
1
1
1
1
1
1
1
1
1
1
1
1
1
1
1
1
1
1
1
1
1
1
1
1
1
1
1
1
1
1
1
1
1
1
1
1
1
1
1
1
1
1
1
1
1
1
1
1
1
1
1
1
1
1
1
1
1
1
1
1
1
1
1
1
1
1
1
1
1
1
1
1
1
1
1
1
1
1
1
1
1
1
1
1
1
1
1
1
1
1
1
1
1
1
1
1
1
1
1
1
1
1
1
1
1
1
1
1
1
1
1
1
1
1
1
1
1
1
1
1
1
1
1
1
1
1
1
1
1
1
1
1
1
1
1
1
1
1
1
1
1
1
1
1
1
1
1
1
1
1
1
1
1
1
1
1
1
1
1
1
1
1
1
1
1
1
1
1
1
1
1
1
1
1
1
1
1
1
1
1
1
1
1
1
1
1
1
1
1
1
1
1
1
1
1
1
1
1
1
1
1
1
1
1
1
1
1
1
1
1
1
1
1
1
1
1
1
1
1
1
1
1
1
1
1
1
1
1
1
1
1
1
1
1
1
1
1
1
1
1
1
1
1
1
1
1
1
1
1
1
1
1
1
1
1
1
1
1
1
1
1
1
1
1
1
1
1
1
1
1
1
1
1
1
1
1
1
1
1
1
1
1
1
1
1
1
1
1
1
1
1
1
1
1
1
1
1
1
1
1
1
1
1
1
1
1
1
1
1
1
1
1
1
1
1
1
1
1
1
1
1
1
1
1
1
1
1
1
1
1
1
1
1
1
1
1
1
1
1
1
1
1
1
1
1
1
1
1
1
1
1
1
1
1
1
1
1
1
1
1
1
1
1
1
1
1
1
1
1
1
1
1
1
1
1
1
1
1
1
1
1
1
1
1
1
1
1
1
1
1
1
1
1
1
1
1
SCALARS LOCAL_STRESS double 6
LOOKUP_TABLE default
-45.2867 -0.917767 -0.21539 5.92804 0.0125504 0.190887
-43.4847 -0.832409 -0.220843 5.90902 0.0122769 0.201956
-41.5211 -0.739053 -0.225972 5.88305 0.0118837 0.213306
-39.3882 -0.636709 -0.230702 5.8495 0.0113936 0.224933
-37.0789 -0.524343 -0.234979 5.80772 0.0108062 0.236774
-34.5865 -0.400826 -0.238713 5.75702 0.0100972 0.24875
-46.9453 -0.958991 -0.21675 5.9191 0.0132042 0.190946
-45.1855 -0.87982 -0.222769 5.90061 0.0129886 0.202347
-43.2622 -0.792828 -0.228496 5.87516 0.0126812 0.214082
-41.1668 -0.697051 -0.233872 5.84213 0.0122613 0.226103
-38.8919 -0.59136 -0.238808 5.80084 0.0117188 0.238332
-36.4313 -0.474674 -0.243271 5.75058 0.0110228 0.250698
-48.6287 -1.00399 -0.21803 5.90905 0.0138876 0.190816
-46.9149 -0.93127 -0.224639 5.89107 0.0137332 0.202546
-45.0357 -0.850875 -0.230974 5.86617 0.0134744 0.214642
-42.9821 -0.761856 -0.236991 5.83371 0.0131002 0.227043
-40.7461 -0.66306 -0.2426 5.79294 0.0125995 0.239669
-38.3204 -0.553119 -0.247656 5.74318 0.0119777 0.252478
-35.6996 -0.430548 -0.252059 5.68349 0.0112358 0.265327
-32.879 -0.294189 -0.255904 5.6132 0.0102802 0.27813
-29.8553 -0.141979 -0.258998 5.53162 0.0091417 0.290883
-50.336 -1.05285 -0.219249 5.8978 0.0145669 0.190442
-48.6722 -0.986751 -0.226428 5.88033 0.0144744 0.202506
-46.841 -0.91316 -0.233365 5.85602 0.0142639 0.214974
-44.8331 -0.83113 -0.24002 5.82414 0.0139356 0.227767
-42.6398 -0.739475 -0.246298 5.78393 0.0134768 0.240809
-40.2535 -0.636853 -0.252099 5.73457 0.0128747 0.254013
-37.6678 -0.521771 -0.25732 5.67524 0.012119 0.267292
-34.8777 -0.392581 -0.261857 5.60513 0.0111967 0.280554
-31.8797 -0.247412 -0.265662 5.52341 0.0100991 0.29378
-52.0665 -1.1056 -0.220388 5.88525 0.0152403 0.189807
-50.4564 -1.04629 -0.228117 5.86831 0.0152108 0.202212
-48.6774 -0.979711 -0.235647 5.84459 0.0150489 0.215061
-46.7192 -0.904901 -0.242931 5.81334 0.0147666 0.228262
-44.5727 -0.820641 -0.249872 5.77373 0.0143503 0.241737
-42.2295 -0.725541 -0.256368 5.7249 0.0137859 0.255397
-39.6827 -0.618047 -0.262313 5.66596 0.0130615 0.269145
-36.9267 -0.496422 -0.267595 5.59605 0.0121609 0.282886
-33.957 -0.358643 -0.27212 5.51422 0.0110777 0.296593
-53.8188 -1.16226 -0.221429 5.87132 0.0159061 0.188895
-52.2667 -1.10991 -0.229681 5.8549 0.0159413 0.201646
-50.5441 -1.05056 -0.237792 5.8318 0.0158285 0.214887
-48.64 -0.983201 -0.245695 5.80121 0.0155929 0.22851
-46.5444 -0.906594 -0.253291 5.76224 0.0152195 0.242437
-44.2485 -0.819298 -0.260475 5.71398 0.0146929 0.256574
-41.7446 -0.719691 -0.267136 5.65549 0.0139992 0.270817
-39.0265 -0.605947 -0.27316 5.58582 0.01312 0.285065
-36.0885 -0.475908 -0.278417 5.50393 0.0120441 0.299288
-55.5915 -1.22286 -0.222349 5.8559 0.0165625 0.187687
-54.1017 -1.17764 -0.231099 5.83999 0.016665 0.200788
-52.4401 -1.12572 -0.239775 5.81753 0.016602 0.21443
-50.5946 -1.06606 -0.248283 5.78763 0.0164138 0.228492
-48.5545 -0.99737 -0.256522 5.74936 0.0160842 0.242892
-46.3102 -0.918172 -0.264383 5.70173 0.015596 0.257529
-43.8535 -0.826765 -0.271752 5.64374 0.0149332 0.272294
-41.1773 -0.721234 -0.278509 5.57436 0.0140752 0.28708
-38.2744 -0.59935 -0.284522 5.49252 0.0130053 0.301851
-35.1396 -0.458415 -0.28969 5.39698 0.011615 0.31676
-58.6424 -1.3198 -0.213857 5.84868 0.0170493 0.173117
-57.3826 -1.28739 -0.223094 5.83893 0.0172042 0.186084
-55.9602 -1.24951 -0.232345 5.82349 0.0173813 0.199615
-54.3643 -1.20524 -0.241569 5.80167 0.0173689 0.21367
-52.5822 -1.1535 -0.250664 5.77249 0.0172294 0.228188
-50.6024 -1.093 -0.259531 5.73497 0.0169443 0.243083
-48.4145 -1.02221 -0.268055 5.68803 0.0164953 0.258246
-46.0094 -0.939334 -0.27612 5.63059 0.0158632 0.27356
-43.3794 -0.842363 -0.2836 5.56157 0.0150262 0.288915
-40.5178 -0.728989 -0.290405 5.4798 0.0139582 0.304265
-37.4146 -0.596258 -0.29628 5.38389 0.0125751 0.31976
-34.0549 -0.440038 -0.301697 5.27165 0.0105897 0.336789
-59.191 -1.35588 -0.223669 5.82018 0.0179279 0.184214
-57.8415 -1.32551 -0.233406 5.80527 0.0180323 0.198069
-56.3164 -1.28913 -0.243174 5.78408 0.0180139 0.212492
-54.6028 -1.24558 -0.252843 5.75566 0.0179102 0.22746
-52.6881 -1.19351 -0.262284 5.71895 0.0177092 0.242896
-50.5607 -1.13134 -0.271386 5.67282 0.0173715 0.258676
-48.2111 -1.0573 -0.280083 5.61605 0.0168329 0.274641
-45.6317 -0.969288 -0.288293 5.5474 0.0159935 0.290622
-42.8156 -0.864842 -0.295897 5.46569 0.0149212 0.306549
-39.7517 -0.740796 -0.302591 5.36945 0.0135004 0.322636
-36.4204 -0.592785 -0.30875 5.25635 0.0114987 0.340263
54.5255 -6.17489 -0.21144 1.35006 0.324813 -0.347738
55.3019 -6.07399 -0.216855 1.31666 0.338756 -0.37087
56.096 -5.96058 -0.221956 1.28082 0.353661 -0.393933
56.9096 -5.83355 -0.226674 1.2427 0.369634 -0.416765
57.7442 -5.69182 -0.230963 1.20256 0.386724 -0.439147
58.6017 -5.53426 -0.234736 1.16069 0.40499 -0.460805
53.7321 -6.2405 -0.212683 1.39665 0.31514 -0.362168
54.4647 -6.14467 -0.218647 1.36209 0.329183 -0.38645
55.2136 -6.03635 -0.224336 1.32495 0.34421 -0.410748
55.981 -5.91446 -0.22969 1.28537 0.360335 -0.434835
56.769 -5.77781 -0.234625 1.24361 0.377615 -0.458459
57.579 -5.6253 -0.239098 1.19999 0.396129 -0.481332
52.8976 -6.30835 -0.213841 1.44273 0.304935 -0.376626
53.5833 -6.21783 -0.220378 1.40705 0.319059 -0.40209
54.2851 -6.11486 -0.226658 1.36865 0.334217 -0.427616
55.0047 -5.99833 -0.232636 1.32766 0.350492 -0.452971
55.7437 -5.86702 -0.238226 1.28436 0.367955 -0.477893
56.5061 -5.71963 -0.243287 1.23912 0.386695 -0.502117
57.2925 -5.55473 -0.247717 1.19244 0.406766 -0.525277
58.1057 -5.37128 -0.251576 1.14474 0.42838 -0.546939
58.9535 -5.16781 -0.25457 1.09685 0.451864 -0.566722
52.0205 -6.37841 -0.214928 1.48827 0.294164 -0.391052
52.6574 -6.2934 -0.222019 1.45152 0.308369 -0.417737
53.31 -6.19601 -0.228884 1.41191 0.323652 -0.444535
53.9795 -6.08511 -0.235481 1.36956 0.340077 -0.471212
54.6675 -5.95939 -0.241722 1.32472 0.357725 -0.497494
55.3761 -5.81751 -0.247503 1.27778 0.376685 -0.523064
56.1083 -5.65808 -0.252718 1.2292 0.397069 -0.54756
56.8679 -5.47966 -0.257247 1.17959 0.419052 -0.57057
57.6599 -5.28085 -0.260932 1.12972 0.442993 -0.591649
51.1002 -6.4506 -0.215926 1.53323 0.282799 -0.405431
51.6861 -6.37131 -0.223548 1.49547 0.297084 -0.433372
52.2872 -6.27974 -0.230987 1.4547 0.312486 -0.461492
52.9045 -6.17472 -0.238196 1.41102 0.329059 -0.489549
53.5391 -6.05488 -0.245082 1.36468 0.346891 -0.51726
54.1931 -5.91879 -0.251539 1.31607 0.366088 -0.544288
54.8694 -5.76498 -0.257456 1.26567 0.386771 -0.57024
55.5716 -5.59194 -0.26271 1.2141 0.409133 -0.594677
56.3049 -5.39806 -0.267096 1.16218 0.433554 -0.617111
50.1356 -6.52486 -0.216815 1.57756 0.270812 -0.419741
50.6683 -6.45148 -0.224942 1.53886 0.285169 -0.448978
51.2158 -6.36599 -0.232942 1.49699 0.300687 -0.47847
51.7785 -6.26711 -0.240752 1.45203 0.317404 -0.50797
52.3574 -6.15343 -0.248274 1.40422 0.335419 -0.537183
52.9544 -6.02343 -0.255399 1.35395 0.35485 -0.56575
53.5721 -5.87555 -0.262013 1.30172 0.375835 -0.593252
54.2143 -5.70817 -0.267986 1.2482 0.398583 -0.619215
54.886 -5.51952 -0.273086 1.19418 0.4235 -0.643107
49.1259 -6.60109 -0.217574 1.6212 0.258168 -0.433958
49.6032 -6.53383 -0.226177 1.58165 0.272589 -0.464533
50.0945 -6.45467 -0.234722 1.53874 0.288218 -0.49545
50.6003 -6.36222 -0.243117 1.49254 0.305077 -0.526458
51.1213 -6.25498 -0.251263 1.4433 0.323272 -0.557251
51.6587 -6.13138 -0.259047 1.39139 0.342932 -0.58745
52.2152 -5.98974 -0.266348 1.33735 0.364219 -0.616602
52.7945 -5.82834 -0.273033 1.28184 0.387359 -0.644199
53.402 -5.64531 -0.278868 1.22567 0.412765 -0.669672
54.044 -5.43868 -0.283723 1.1699 0.441742 -0.692526
47.6658 -6.72952 -0.209075 1.70076 0.231286 -0.416657
48.0711 -6.67917 -0.218142 1.6641 0.244791 -0.447998
48.4896 -6.61827 -0.227227 1.62377 0.259303 -0.480013
48.9224 -6.54569 -0.236298 1.5799 0.27504 -0.51241
49.3689 -6.45995 -0.245261 1.53254 0.292041 -0.544993
49.8293 -6.35948 -0.254017 1.4819 0.310411 -0.57745
50.3046 -6.2426 -0.262447 1.42837 0.330291 -0.60938
50.797 -6.10753 -0.270424 1.37251 0.351874 -0.640295
51.3104 -5.95244 -0.277807 1.31502 0.37541 -0.669644
51.85 -5.77539 -0.284399 1.25676 0.401315 -0.696819
52.4227 -5.57405 -0.289951 1.19873 0.430914 -0.721291
53.0381 -5.34572 -0.292645 1.14254 0.467231 -0.742372
46.9681 -6.75898 -0.21854 1.70618 0.230668 -0.462018
47.3264 -6.70472 -0.228077 1.66525 0.245293 -0.495342
47.6977 -6.63901 -0.23767 1.62048 0.261136 -0.529195
48.082 -6.56027 -0.247191 1.57201 0.278264 -0.563397
48.4799 -6.46686 -0.256509 1.52002 0.296784 -0.597645
48.892 -6.35698 -0.265497 1.46489 0.316859 -0.631508
49.3188 -6.2288 -0.274082 1.40719 0.338732 -0.664401
49.7626 -6.08036 -0.28217 1.34766 0.362706 -0.695633
50.2293 -5.90962 -0.289536 1.28728 0.389127 -0.724603
50.7276 -5.71409 -0.295893 1.22708 0.419406 -0.750765
51.2681 -5.49066 -0.299261 1.16859 0.456592 -0.773384
0 0 0 0 0 0
0 0 0 0 0 0
0 0 0 0 0 0
0 0 0 0 0 0
0 0 0 0 0 0
0 0 0 0 0 0
0 0 0 0 0 0
0 0 0 0 0 0
0 0 0 0 0 0
0 0 0 0 0 0
0 0 0 0 0 0
0 0 0 0 0 0
0 0 0 0 0 0
0 0 0 0 0 0
0 0 0 0 0 0
0 0 0 0 0 0
0 0 0 0 0 0
0 0 0 0 0 0
0 0 0 0 0 0
0 0 0 0 0 0
0 0 0 0 0 0
0 0 0 0 0 0
0 0 0 0 0 0
0 0 0 0 0 0
0 0 0 0 0 0
0 0 0 0 0 0
0 0 0 0 0 0
0 0 0 0 0 0
0 0 0 0 0 0
0 0 0 0 0 0
0 0 0 0 0 0
0 0 0 0 0 0
0 0 0 0 0 0
0 0 0 0 0 0
0 0 0 0 0 0
0 0 0 0 0 0
0 0 0 0 0 0
0 0 0 0 0 0
0 0 0 0 0 0
0 0 0 0 0 0
0 0 0 0 0 0
0 0 0 0 0 0
0 0 0 0 0 0
0 0 0 0 0 0
0 0 0 0 0 0
0 0 0 0 0 0
0 0 0 0 0 0
0 0 0 0 0 0
0 0 0 0 0 0
0 0 0 0 0 0
0 0 0 0 0 0
0 0 0 0 0 0
0 0 0 0 0 0
0 0 0 0 0 0
0 0 0 0 0 0
0 0 0 0 0 0
0 0 0 0 0 0
0 0 0 0 0 0
0 0 0 0 0 0
0 0 0 0 0 0
0 0 0 0 0 0
0 0 0 0 0 0
0 0 0 0 0 0
0 0 0 0 0 0
0 0 0 0 0 0
0 0 0 0 0 0
0 0 0 0 0 0
0 0 0 0 0 0
0 0 0 0 0 0
0 0 0 0 0 0
0 0 0 0 0 0
0 0 0 0 0 0
0 0 0 0 0 0
0 0 0 0 0 0
0 0 0 0 0 0
0 0 0 0 0 0
0 0 0 0 0 0
0 0 0 0 0 0
0 0 0 0 0 0
0 0 0 0 0 0
0 0 0 0 0 0
-44.2543 -2.01326 -0.211501 5.57045 -0.026371 0.781886
-43.0568 -1.96525 -0.21663 5.5534 -0.0295967 0.831426
-41.7568 -1.91105 -0.221429 5.53189 -0.0347329 0.882872
-40.35 -1.84985 -0.225815 5.50559 -0.0419496 0.936167
-38.8334 -1.78085 -0.22974 5.47417 -0.0514596 0.991173
-37.2042 -1.70317 -0.233125 5.43735 -0.0635174 1.0477
-45.4181 -2.04451 -0.212706 5.57439 -0.000385853 0.784486
-44.2483 -2.00129 -0.218385 5.55786 -0.00262101 0.835292
-42.9751 -1.95202 -0.223769 5.53678 -0.00677084 0.888131
-41.594 -1.8959 -0.228788 5.51084 -0.0130681 0.942916
-40.1016 -1.83203 -0.233356 5.47971 -0.0217582 0.999508
-38.4955 -1.75957 -0.237428 5.44309 -0.033126 1.05772
-46.6055 -2.07806 -0.21383 5.578 0.0263347 0.786443
-45.4659 -2.03984 -0.22008 5.56198 0.0251446 0.838522
-44.2219 -1.99566 -0.226051 5.54138 0.0219975 0.892756
-42.8689 -1.94476 -0.231688 5.51585 0.0166453 0.949059
-41.4034 -1.88619 -0.236903 5.48504 0.00882023 1.00729
-39.8224 -1.8189 -0.241569 5.44866 -0.00175695 1.0673
-38.1239 -1.74172 -0.245564 5.40625 -0.0153915 1.12879
-36.3066 -1.65383 -0.248893 5.35765 -0.032488 1.19149
-34.3715 -1.55373 -0.251223 5.30281 -0.0534994 1.25519
-47.8164 -2.11393 -0.21488 5.58122 0.0537737 0.787683
-46.7094 -2.08084 -0.221681 5.56574 0.0536809 0.84106
-45.4969 -2.04192 -0.228232 5.54565 0.0515917 0.896727
-44.1745 -1.99641 -0.234484 5.52057 0.0472448 0.954594
-42.7381 -1.94335 -0.240343 5.49011 0.0403472 1.01453
-41.1847 -1.88167 -0.245706 5.45389 0.0305781 1.07636
-39.5119 -1.81022 -0.250457 5.41156 0.0175967 1.13982
-37.7185 -1.72775 -0.254443 5.36286 0.001017 1.20464
-35.8059 -1.63296 -0.25745 5.30763 -0.0196879 1.27059
-49.0505 -2.1521 -0.215835 5.58399 0.0819398 0.788166
-47.9783 -2.12427 -0.223167 5.56908 0.0830053 0.842863
-46.8001 -2.09078 -0.230289 5.54953 0.0820366 0.899997
-45.5106 -2.05086 -0.237148 5.52494 0.0787621 0.959475
-44.1057 -2.00351 -0.243646 5.49488 0.0728619 1.02118
-42.5822 -1.94761 -0.249676 5.45892 0.0639859 1.08492
-40.9377 -1.88197 -0.255118 5.41668 0.0517562 1.15046
-39.1706 -1.80526 -0.25981 5.36786 0.0357394 1.21751
-37.2818 -1.71606 -0.263498 5.31223 0.0153643 1.28582
-50.3071 -2.19257 -0.216676 5.58625 0.110843 0.787841
-49.2725 -2.17012 -0.224512 5.57192 0.113133 0.84388
-48.131 -2.14223 -0.232195 5.55296 0.113356 0.902515
-46.8771 -2.10808 -0.239651 5.52891 0.111229 0.963651
-45.5063 -2.06664 -0.246781 5.49928 0.106404 1.02718
-44.0151 -2.01677 -0.253472 5.46362 0.098498 1.09293
-42.401 -1.95717 -0.259598 5.4215 0.0870919 1.16065
-40.6626 -1.88647 -0.264994 5.37258 0.0717032 1.23004
-38.7997 -1.80313 -0.269373 5.31657 0.0517072 1.30086
-51.5858 -2.2353 -0.217381 5.58794 0.140493 0.786655
-50.5914 -2.21837 -0.225695 5.57422 0.144082 0.844053
-49.4894 -2.19625 -0.233922 5.55588 0.145575 0.904222
-48.2738 -2.16806 -0.241962 5.53241 0.144678 0.967065
-46.9396 -2.13275 -0.249713 5.50327 0.141014 1.03249
-45.4834 -2.08912 -0.257056 5.46796 0.134165 1.10032
-43.9022 -2.03583 -0.263861 5.42599 0.123666 1.17032
-42.1946 -1.97141 -0.269952 5.37699 0.108982 1.24219
-40.3596 -1.89425 -0.275041 5.32065 0.0894298 1.31567
-38.4021 -1.80261 -0.27835 5.25694 0.0638564 1.39085
-53.7318 -2.28728 -0.209068 5.59796 0.164261 0.728473
-52.8853 -2.28022 -0.217888 5.58901 0.170883 0.78448
-51.9344 -2.269 -0.226689 5.57589 0.175867 0.843321
-50.875 -2.2528 -0.235443 5.55822 0.178718 0.905057
-49.7005 -2.23077 -0.24405 5.53538 0.179143 0.969653
-48.4058 -2.20181 -0.252407 5.50679 0.176734 1.03703
-46.9871 -2.16468 -0.260392 5.47187 0.171037 1.10703
-45.4414 -2.11796 -0.267864 5.4301 0.161543 1.17942
-43.767 -2.0601 -0.274643 5.38105 0.147654 1.25391
-41.9638 -1.9894 -0.280467 5.32437 0.128621 1.33021
-40.0336 -1.90393 -0.284439 5.25996 0.103248 1.4084
-37.9902 -1.80214 -0.286001 5.18821 0.0697883 1.48903
-54.2055 -2.3274 -0.218223 5.58927 0.202128 0.781411
-53.302 -2.32193 -0.227472 5.57687 0.208446 0.841612
-52.2881 -2.31189 -0.236748 5.55989 0.212696 0.904883
-51.1577 -2.29622 -0.245913 5.53772 0.21454 0.971244
-49.9051 -2.27381 -0.254837 5.50975 0.213535 1.04065
-48.5259 -2.24336 -0.263389 5.47533 0.209173 1.11296
-47.0175 -2.20345 -0.271477 5.43385 0.200845 1.18793
-45.3788 -2.15247 -0.278951 5.38474 0.187817 1.2652
-43.61 -2.08859 -0.285526 5.32767 0.169381 1.34446
-41.7124 -2.00967 -0.290199 5.26254 0.14424 1.42587
-39.6965 -1.91391 -0.292389 5.18968 0.110577 1.5099
-19.2392 -3.45976 -0.207265 -5.48524 0.921952 0.0336933
-18.9534 -3.38505 -0.212218 -5.469 0.978103 0.0356421
-18.6114 -3.30311 -0.216845 -5.44892 1.03629 0.0397972
-18.2037 -3.21348 -0.221063 -5.42474 1.09641 0.0464299
-17.7202 -3.11578 -0.224834 -5.39623 1.15829 0.0558306
-17.1501 -3.00964 -0.228086 -5.3632 1.22169 0.0683265
-19.3418 -3.53296 -0.208434 -5.49242 0.925341 0.00341353
-19.1109 -3.46123 -0.21393 -5.47669 0.98298 0.00417066
-18.8258 -3.38228 -0.219138 -5.45703 1.04279 0.007134
-18.477 -3.29564 -0.223989 -5.43319 1.10464 0.0126389
-18.0534 -3.20089 -0.228397 -5.40494 1.16834 0.0210208
-17.5441 -3.09767 -0.232321 -5.37207 1.23366 0.0326471
-19.4663 -3.60817 -0.209534 -5.49945 0.927958 -0.027672
-19.2925 -3.53961 -0.215595 -5.48425 0.987107 -0.028177
-19.0659 -3.46381 -0.221383 -5.46506 1.04855 -0.0264312
-18.7773 -3.38033 -0.226842 -5.44162 1.11216 -0.0220904
-18.4151 -3.2887 -0.231888 -5.41365 1.17775 -0.0147908
-17.966 -3.18849 -0.236399 -5.38097 1.24511 -0.00415776
-17.4153 -3.07926 -0.240255 -5.34324 1.31392 0.0102071
-16.752 -2.96074 -0.24344 -5.3004 1.38383 0.028795
-15.9583 -2.83255 -0.245602 -5.25257 1.45455 0.0521627
-19.6127 -3.68538 -0.210567 -5.50629 0.929726 -0.0595514
-19.4973 -3.62015 -0.217175 -5.49165 0.990417 -0.0613806
-19.3309 -3.54768 -0.223536 -5.47297 1.05354 -0.0609231
-19.1044 -3.46752 -0.229601 -5.44996 1.11897 -0.0578219
-18.8059 -3.37919 -0.235282 -5.42231 1.18653 -0.0516828
-18.4219 -3.28226 -0.240476 -5.38976 1.25597 -0.0420802
-17.9377 -3.17626 -0.24507 -5.35206 1.32701 -0.0285636
-17.3378 -3.06081 -0.248897 -5.30907 1.3993 -0.0106449
-16.6059 -2.93562 -0.251722 -5.26081 1.47252 0.012307
-19.7809 -3.76457 -0.211512 -5.51289 0.930594 -0.0922365
-19.725 -3.70282 -0.218646 -5.49884 0.992859 -0.0954593
-19.6206 -3.63386 -0.225572 -5.4807 1.05771 -0.0963678
-19.4582 -3.5572 -0.232237 -5.45817 1.12502 -0.09459
-19.2256 -3.47236 -0.238547 -5.43089 1.19461 -0.089699
-18.9087 -3.37886 -0.244397 -5.39855 1.26625 -0.081228
-18.4921 -3.27625 -0.249669 -5.36089 1.33965 -0.0686758
-17.9593 -3.16409 -0.254186 -5.31774 1.41443 -0.0514961
-17.2926 -3.04203 -0.257675 -5.26904 1.49028 -0.0289964
-19.9705 -3.84571 -0.212351 -5.51919 0.930502 -0.125738
-19.9756 -3.78761 -0.219986 -5.50576 0.99437 -0.130431
-19.9348 -3.72233 -0.227465 -5.48822 1.061 -0.132791
-19.8385 -3.64936 -0.23472 -5.46621 1.13024 -0.132429
-19.6741 -3.56819 -0.241653 -5.43934 1.20195 -0.128884
-19.4269 -3.47832 -0.248153 -5.40726 1.27588 -0.121643
-19.0807 -3.37927 -0.254096 -5.36966 1.35175 -0.11015
-18.6178 -3.27059 -0.259301 -5.32635 1.42916 -0.0937972
-18.0195 -3.15185 -0.263463 -5.27723 1.5078 -0.0718203
-20.1814 -3.92876 -0.213061 -5.52514 0.929381 -0.160065
-20.2486 -3.87447 -0.22117 -5.51235 0.99488 -0.166314
-20.2731 -3.81307 -0.229188 -5.49546 1.06333 -0.170217
-20.245 -3.74397 -0.23702 -5.47402 1.13458 -0.171373
-20.1511 -3.66666 -0.244565 -5.44761 1.20848 -0.169281
-19.9763 -3.58061 -0.251706 -5.41583 1.2848 -0.163383
-19.7035 -3.48532 -0.258313 -5.37834 1.36325 -0.153059
-19.3138 -3.38031 -0.264198 -5.3349 1.44345 -0.137634
-18.7877 -3.26508 -0.269052 -5.28539 1.52505 -0.116277
-18.1066 -3.13934 -0.271991 -5.23003 1.60774 -0.0879261
-20.2529 -4.05713 -0.204961 -5.53909 0.862949 -0.185496
-20.4131 -4.0136 -0.213575 -5.53071 0.927099 -0.195208
-20.544 -3.96337 -0.222173 -5.51856 0.994313 -0.203123
-20.6354 -3.90604 -0.230712 -5.50236 1.06462 -0.208671
-20.6774 -3.84102 -0.239105 -5.48155 1.13794 -0.211454
-20.6565 -3.76777 -0.247248 -5.45566 1.21412 -0.210935
-20.5569 -3.68574 -0.25502 -5.42424 1.29294 -0.206506
-20.3606 -3.59441 -0.262283 -5.38689 1.37411 -0.197479
-20.0474 -3.49326 -0.268838 -5.34333 1.45724 -0.1831
-19.5964 -3.38184 -0.274402 -5.29342 1.54198 -0.162465
-18.9875 -3.25959 -0.277981 -5.23732 1.62799 -0.13444
-18.2045 -3.12719 -0.278813 -5.17595 1.71568 -0.0972018
-20.666 -4.10028 -0.213932 -5.53569 0.923734 -0.231287
-20.8604 -4.05431 -0.222963 -5.52433 0.992594 -0.24082
-21.021 -4.00126 -0.232019 -5.50885 1.06475 -0.248067
-21.1354 -3.94053 -0.240966 -5.48872 1.14015 -0.252591
-21.1899 -3.87152 -0.249673 -5.46343 1.2187 -0.253821
-21.168 -3.79364 -0.258007 -5.43246 1.30018 -0.251082
-21.0512 -3.70639 -0.265874 -5.39534 1.38428 -0.243557
-20.8185 -3.60932 -0.273111 -5.35166 1.47054 -0.230321
-20.4468 -3.50196 -0.2794 -5.3013 1.55859 -0.210498
-19.9138 -3.38365 -0.28371 -5.24443 1.64811 -0.182846
-19.201 -3.25474 -0.285136 -5.18192 1.73954 -0.145417
41.9952 -6.62475 -0.208929 0.73413 0.691179 -0.665047
42.3242 -6.56868 -0.21399 0.709009 0.731998 -0.707424
42.6718 -6.50475 -0.218714 0.683169 0.776042 -0.749622
43.0414 -6.4323 -0.223016 0.656843 0.823512 -0.791352
43.436 -6.35074 -0.226864 0.630324 0.874539 -0.832245
43.8597 -6.25947 -0.230186 0.603933 0.929227 -0.871857
41.6299 -6.67715 -0.210138 0.763508 0.6694 -0.693649
41.9306 -6.62479 -0.215738 0.737308 0.710309 -0.738182
42.2477 -6.56458 -0.221046 0.710316 0.754537 -0.78264
42.5845 -6.49587 -0.225985 0.682759 0.802309 -0.826666
42.9452 -6.41798 -0.230469 0.654954 0.853788 -0.869857
43.3337 -6.33033 -0.234451 0.627247 0.909114 -0.911734
41.2455 -6.73129 -0.211268 0.793131 0.646456 -0.72238
41.5161 -6.68284 -0.217434 0.765844 0.687409 -0.769139
41.8018 -6.62652 -0.22332 0.7377 0.731806 -0.815895
42.1055 -6.56169 -0.228867 0.708927 0.77987 -0.862282
42.4311 -6.48764 -0.233986 0.679853 0.831792 -0.907877
42.7841 -6.40366 -0.238557 0.650898 0.887748 -0.95221
43.1681 -6.30894 -0.242453 0.622528 0.947855 -0.9947
43.589 -6.20307 -0.245644 0.5951 1.01228 -1.03468
44.0568 -6.08549 -0.247695 0.569273 1.0812 -1.07149
40.8414 -6.78715 -0.212321 0.823012 0.622297 -0.751179
41.0811 -6.74274 -0.219034 0.794653 0.663269 -0.80024
41.3342 -6.69049 -0.225494 0.765361 0.707808 -0.849388
41.6037 -6.62973 -0.231646 0.735362 0.756141 -0.898243
41.8929 -6.5597 -0.237398 0.704999 0.808493 -0.946363
42.2063 -6.47965 -0.242644 0.674684 0.865068 -0.993224
42.5492 -6.38884 -0.247264 0.644891 0.926049 -1.03823
42.9283 -6.28656 -0.251089 0.61614 0.9916 -1.08069
43.3513 -6.17232 -0.253793 0.589057 1.06195 -1.11989
40.4172 -6.84467 -0.213279 0.853164 0.596878 -0.780021
40.625 -6.80445 -0.220517 0.82375 0.637835 -0.831465
40.8446 -6.75644 -0.227542 0.793315 0.682482 -0.883101
41.0786 -6.69993 -0.234292 0.762083 0.731058 -0.934538
41.3301 -6.63412 -0.240671 0.730409 0.78382 -0.985313
41.6034 -6.55821 -0.24657 0.698727 0.841012 -1.03487
41.9038 -6.4714 -0.251859 0.667536 0.902856 -1.08257
42.2382 -6.37294 -0.256364 0.637397 0.96956 -1.12768
42.6143 -6.26222 -0.259721 0.608961 1.0414 -1.16939
39.9726 -6.90379 -0.214119 0.8836 0.570146 -0.808871
40.1475 -6.86791 -0.221858 0.853151 0.611048 -0.862783
40.3325 -6.82431 -0.229436 0.821582 0.655768 -0.917012
40.5298 -6.77225 -0.236776 0.78911 0.704553 -0.971153
40.7424 -6.71086 -0.243776 0.756106 0.757697 -1.02472
40.9741 -6.63929 -0.25032 0.723022 0.815488 -1.07713
41.2304 -6.55669 -0.256274 0.690393 0.878196 -1.1277
41.518 -6.46224 -0.261456 0.658817 0.946075 -1.17563
41.8449 -6.35523 -0.265474 0.628973 1.01946 -1.22006
39.5071 -6.96443 -0.214819 0.914328 0.542047 -0.837691
39.6481 -6.93303 -0.223031 0.882871 0.582848 -0.894161
39.7975 -6.89405 -0.231149 0.850178 0.627595 -0.951093
39.9571 -6.84663 -0.239066 0.816465 0.67655 -1.00807
40.1294 -6.78987 -0.246677 0.78211 0.730043 -1.06458
40.3181 -6.72286 -0.25386 0.747591 0.788408 -1.12002
40.5284 -6.64467 -0.260472 0.713477 0.851971 -1.17364
40.7672 -6.55444 -0.266324 0.68041 0.921042 -1.2246
41.0433 -6.45138 -0.271012 0.649075 0.995995 -1.27195
41.3664 -6.33515 -0.273858 0.620292 1.07745 -1.31477
38.9215 -7.04639 -0.206571 0.976084 0.475405 -0.808157
39.0214 -7.02648 -0.215302 0.945337 0.512496 -0.866376
39.1264 -6.99976 -0.224012 0.912922 0.553165 -0.925559
39.2392 -6.96558 -0.232652 0.879122 0.597894 -0.985308
39.36 -6.923 -0.241131 0.844168 0.646975 -1.04525
39.4908 -6.87109 -0.24934 0.808446 0.700774 -1.10487
39.635 -6.80886 -0.257151 0.772457 0.759677 -1.16351
39.7976 -6.73532 -0.264412 0.736806 0.824076 -1.2204
39.9855 -6.64953 -0.270924 0.702187 0.894347 -1.27461
40.2075 -6.55067 -0.276306 0.66936 0.970911 -1.32513
40.4747 -6.43817 -0.279772 0.639122 1.05443 -1.37095
40.7995 -6.31269 -0.279365 0.612626 1.14551 -1.41079
38.5121 -7.08986 -0.215624 0.976655 0.481459 -0.895071
38.5823 -7.06801 -0.224761 0.943375 0.521975 -0.956896
38.657 -7.03884 -0.233917 0.908467 0.566624 -1.0195
38.7374 -7.00134 -0.242954 0.872262 0.615755 -1.08253
38.8258 -6.95449 -0.251733 0.83515 0.669781 -1.14546
38.9253 -6.89723 -0.260106 0.79765 0.729153 -1.2076
39.0396 -6.82855 -0.267967 0.760384 0.794366 -1.26807
39.1738 -6.74742 -0.275152 0.72412 0.865888 -1.32577
39.3379 -6.65299 -0.281244 0.689728 0.944103 -1.37967
39.5446 -6.54457 -0.285421 0.658056 1.02981 -1.4287
39.8086 -6.42253 -0.28556 0.630237 1.1237 -1.47148
-109.882 0.315903 -0.209909 -0.582728 0.700221 0.734475
-109.259 0.34155 -0.214801 -0.559672 0.745361 0.780806
-108.544 0.37047 -0.219339 -0.536314 0.790436 0.83078
-107.731 0.403088 -0.223434 -0.512899 0.835183 0.884568
-106.816 0.439771 -0.227049 -0.489727 0.87925 0.942287
-105.792 0.480954 -0.230121 -0.467122 0.9222 1.00402
-110.522 0.284973 -0.211005 -0.607933 0.730978 0.710115
-109.937 0.307958 -0.216434 -0.583823 0.778404 0.756559
-109.261 0.334046 -0.221554 -0.559353 0.825868 0.806761
-108.486 0.363664 -0.226282 -0.534768 0.873047 0.860924
-107.607 0.397285 -0.230531 -0.510394 0.919563 0.9192
-106.618 0.435333 -0.234253 -0.486582 0.964948 0.981707
-111.182 0.252742 -0.212022 -0.633575 0.761934 0.684456
-110.639 0.272912 -0.218015 -0.608393 0.811709 0.730962
-110.003 0.296093 -0.223711 -0.582801 0.861607 0.781374
-109.268 0.32268 -0.229043 -0.557051 0.911294 0.835904
-108.426 0.353138 -0.23392 -0.531481 0.960369 0.894734
-107.473 0.388027 -0.23823 -0.506513 1.00837 0.958015
-106.4 0.427862 -0.241835 -0.482599 1.05471 1.0258
-105.206 0.473129 -0.244699 -0.460085 1.09869 1.09812
-103.891 0.524715 -0.24638 -0.439582 1.13966 1.17479
-111.862 0.219192 -0.212961 -0.659679 0.793029 0.657444
-111.362 0.236473 -0.219501 -0.63343 0.845232 0.703981
-110.768 0.25665 -0.225767 -0.606712 0.897658 0.754574
-110.075 0.280099 -0.2317 -0.579776 0.94996 0.809448
-109.274 0.307279 -0.237205 -0.552979 1.00172 0.86882
-108.358 0.338706 -0.242177 -0.52674 1.05242 0.93287
-107.322 0.374963 -0.24649 -0.501525 1.10146 1.00171
-106.16 0.416696 -0.24998 -0.477832 1.14815 1.07538
-104.873 0.464613 -0.252304 -0.456244 1.19173 1.15374
-112.56 0.184327 -0.213804 -0.686275 0.824237 0.629031
-112.105 0.198647 -0.220868 -0.658964 0.878951 0.675559
-111.557 0.215726 -0.227698 -0.631113 0.934005 0.726296
-110.907 0.235932 -0.234227 -0.602974 0.989037 0.781484
-110.149 0.259719 -0.240355 -0.574919 1.04361 0.841377
-109.273 0.28761 -0.245971 -0.54739 1.09719 0.906195
-108.275 0.320199 -0.250945 -0.520884 1.14913 0.976095
-107.148 0.358158 -0.255102 -0.495941 1.19868 1.05114
-105.891 0.40225 -0.258064 -0.473168 1.24503 1.13126
-113.277 0.148152 -0.21453 -0.713386 0.855527 0.599164
-112.869 0.15944 -0.222094 -0.685025 0.912841 0.645632
-112.367 0.17333 -0.229476 -0.656038 0.970627 0.696469
-111.764 0.190191 -0.236592 -0.626676 1.02851 0.751935
-111.05 0.210471 -0.243337 -0.597332 1.08605 0.812322
-110.218 0.234696 -0.249594 -0.56847 1.14266 0.877894
-109.26 0.263474 -0.255224 -0.540623 1.19767 0.948857
-108.169 0.2975 -0.260045 -0.514372 1.25028 1.02533
-106.944 0.337587 -0.263651 -0.490354 1.2996 1.10727
-114.011 0.110675 -0.215114 -0.741039 0.88686 0.567783
-113.652 0.11886 -0.223152 -0.711642 0.94687 0.614134
-113.2 0.12947 -0.231074 -0.681517 1.0075 0.665021
-112.645 0.142886 -0.238766 -0.650919 1.06837 0.720718
-111.979 0.159547 -0.24612 -0.620252 1.12901 0.781562
-111.192 0.179977 -0.25301 -0.590012 1.18884 0.847867
-110.276 0.204796 -0.25929 -0.560767 1.24712 0.919895
-109.224 0.234727 -0.26477 -0.533144 1.303 0.997814
-108.033 0.270646 -0.269026 -0.507798 1.35551 1.08164
-106.711 0.313399 -0.271388 -0.485489 1.40367 1.1712
-114.984 0.0690821 -0.206896 -0.79845 0.856366 0.492755
-114.761 0.0720097 -0.21548 -0.769235 0.918132 0.534796
-114.453 0.0769148 -0.224018 -0.738843 0.980999 0.580994
-114.053 0.0841578 -0.232462 -0.707585 1.0446 0.63187
-113.549 0.0940307 -0.240717 -0.675737 1.10859 0.687745
-112.933 0.10696 -0.248668 -0.643718 1.1725 0.749001
-112.194 0.123466 -0.256183 -0.612051 1.23572 0.816006
-111.323 0.144178 -0.263105 -0.581344 1.29748 0.889088
-110.312 0.169844 -0.269234 -0.552279 1.35687 0.968479
-109.158 0.201345 -0.274165 -0.525583 1.41283 1.05424
-107.866 0.239699 -0.277126 -0.502011 1.46431 1.14626
-106.464 0.285889 -0.276443 -0.482545 1.50995 1.24281
-115.525 0.0319443 -0.215679 -0.798028 0.949491 0.500174
-115.271 0.0336541 -0.224645 -0.766712 1.01515 0.546183
-114.925 0.0374055 -0.233607 -0.734305 1.08175 0.596972
-114.476 0.0436035 -0.242422 -0.701184 1.14899 0.652937
-113.913 0.0527073 -0.250948 -0.667778 1.21639 0.71452
-113.225 0.0652536 -0.259029 -0.634632 1.28329 0.782159
-112.401 0.0817867 -0.266555 -0.602375 1.34885 0.856278
-111.433 0.10297 -0.273347 -0.571762 1.41199 0.937204
-110.318 0.129767 -0.278965 -0.543635 1.47163 1.02496
-109.059 0.163339 -0.282605 -0.518799 1.52668 1.11956
-107.683 0.204938 -0.282432 -0.498228 1.57563 1.21933
-43.4509 -3.0945 -0.210378 5.23558 -0.0470583 1.11782
-42.8571 -3.08396 -0.215218 5.22217 -0.0512718 1.18885
-42.2185 -3.06912 -0.219696 5.20681 -0.0583778 1.26264
-41.5342 -3.04937 -0.223716 5.18949 -0.0686614 1.33912
-40.8047 -3.02414 -0.227243 5.1702 -0.0824429 1.41809
-40.0303 -2.99286 -0.230221 5.14901 -0.100078 1.49926
-44.1325 -3.1151 -0.211609 5.25248 -0.00609825 1.12206
-43.5523 -3.10792 -0.216988 5.23961 -0.00878065 1.1949
-42.9275 -3.09657 -0.222051 5.22467 -0.0143768 1.27067
-42.2573 -3.08042 -0.226708 5.20763 -0.0232435 1.34928
-41.5417 -3.05881 -0.23087 5.18852 -0.035748 1.43052
-40.7817 -3.03114 -0.23449 5.16741 -0.0522883 1.5141
-44.8369 -3.13648 -0.212764 5.26979 0.0360173 1.1254
-44.2714 -3.13284 -0.218709 5.25751 0.0349513 1.20007
-43.6613 -3.12507 -0.224349 5.24305 0.0309125 1.27785
-43.0059 -3.11259 -0.22961 5.22637 0.0235194 1.35863
-42.3055 -3.09471 -0.2344 5.20748 0.0123685 1.44222
-41.5609 -3.07066 -0.238612 5.18646 -0.00295484 1.52837
-40.7729 -3.03962 -0.242119 5.1633 -0.0228697 1.61664
-39.943 -3.00107 -0.244869 5.13828 -0.0477647 1.70645
-39.0744 -2.9541 -0.24653 5.11184 -0.0777582 1.79688
-45.5647 -3.15862 -0.213837 5.28752 0.0792854 1.12776
-45.0149 -3.1586 -0.220333 5.27586 0.0799181 1.2043
-44.4204 -3.15454 -0.226546 5.26192 0.0775249 1.28414
-43.7807 -3.14586 -0.232408 5.24565 0.071699 1.36715
-43.0963 -3.13185 -0.237825 5.22702 0.0619987 1.45319
-42.3678 -3.11173 -0.242693 5.20604 0.0479518 1.54196
-41.5966 -3.08468 -0.246896 5.18282 0.0290931 1.63308
-40.7841 -3.04989 -0.250268 5.15755 0.00502136 1.72595
-39.9344 -3.00659 -0.252567 5.13061 -0.0244733 1.8196
-46.3161 -3.18146 -0.214811 5.30562 0.123724 1.12909
-45.783 -3.18515 -0.221837 5.29464 0.12615 1.20753
-45.2052 -3.18491 -0.228615 5.28128 0.125501 1.28947
-44.5822 -3.18017 -0.235075 5.26547 0.121347 1.3748
-43.9145 -3.17017 -0.241115 5.24714 0.113206 1.46336
-43.2032 -3.15412 -0.246626 5.22629 0.10056 1.55489
-42.4496 -3.13114 -0.251483 5.20299 0.0828873 1.649
-41.6555 -3.10036 -0.255515 5.17744 0.0597188 1.74506
-40.8249 -3.06092 -0.258444 5.15001 0.0307721 1.84212
-47.0915 -3.20494 -0.215665 5.32405 0.16935 1.12932
-46.5761 -3.21241 -0.223196 5.3138 0.173674 1.20969
-46.016 -3.21612 -0.230531 5.30109 0.17488 1.29378
-45.4106 -3.21545 -0.237581 5.28579 0.172515 1.38149
-44.7606 -3.20963 -0.244238 5.26781 0.166055 1.47267
-44.0672 -3.19781 -0.250387 5.24713 0.15493 1.56707
-43.3319 -3.17907 -0.255897 5.22379 0.138558 1.6643
-42.5571 -3.15249 -0.260584 5.19798 0.116396 1.76374
-41.7462 -3.11711 -0.264147 5.17002 0.0880818 1.86442
-47.8911 -3.22898 -0.216373 5.34279 0.216182 1.12836
-47.3944 -3.24031 -0.224386 5.33332 0.222519 1.2107
-46.8532 -3.24809 -0.232265 5.32132 0.225703 1.29699
-46.2665 -3.25163 -0.239894 5.3066 0.225257 1.38715
-45.635 -3.25014 -0.247161 5.28904 0.220611 1.48103
-44.9602 -3.24273 -0.253943 5.26857 0.211144 1.57843
-44.244 -3.22843 -0.260098 5.24522 0.196205 1.67893
-43.4891 -3.20624 -0.265436 5.21915 0.17517 1.78194
-42.6986 -3.17513 -0.269634 5.1907 0.14759 1.88644
-41.881 -3.13422 -0.271855 5.16062 0.113495 1.99072
-49.1434 -3.23533 -0.208272 5.36798 0.253175 1.04574
-48.714 -3.25346 -0.216856 5.36182 0.264215 1.12608
-48.2384 -3.2688 -0.22538 5.35316 0.272711 1.21047
-47.7172 -3.28076 -0.233788 5.34194 0.278008 1.29902
-47.1501 -3.28865 -0.241983 5.32788 0.279625 1.39169
-46.5381 -3.29165 -0.249849 5.3108 0.276943 1.48837
-45.8827 -3.28883 -0.257255 5.2906 0.269287 1.58887
-45.1863 -3.27917 -0.264049 5.26727 0.255933 1.69281
-44.4519 -3.26157 -0.270029 5.24096 0.236167 1.79957
-43.6835 -3.23498 -0.274888 5.212 0.209449 1.90814
-42.8884 -3.19832 -0.277691 5.18113 0.175728 2.01675
-42.0848 -3.15155 -0.278319 5.14977 0.136596 2.12179
-49.562 -3.27841 -0.217173 5.38096 0.31357 1.12255
-49.1085 -3.29774 -0.226128 5.3733 0.324216 1.20892
-48.6086 -3.31402 -0.23506 5.36293 0.331722 1.2997
-48.0623 -3.32643 -0.24382 5.34959 0.335558 1.39491
-47.4706 -3.33408 -0.252265 5.33307 0.335057 1.4945
-46.835 -3.33597 -0.260243 5.31324 0.329463 1.59829
-46.1584 -3.33112 -0.267643 5.29002 0.31792 1.70589
-45.4449 -3.31839 -0.274282 5.26345 0.299544 1.81664
-44.6998 -3.29658 -0.279814 5.23392 0.273809 1.92948
-43.9299 -3.26449 -0.28327 5.20221 0.240541 2.04271
-43.1517 -3.22185 -0.284394 5.16976 0.201209 2.15262
-35.3876 -3.73589 -0.207207 -5.15416 1.1911 0.0391249
-35.4752 -3.70955 -0.211904 -5.1418 1.26477 0.0426859
-35.5178 -3.68008 -0.216241 -5.12813 1.3412 0.0493872
-35.5076 -3.64727 -0.220117 -5.1132 1.42033 0.0595922
-35.4372 -3.61105 -0.223506 -5.09708 1.50194 0.073678
-35.2989 -3.57133 -0.226368 -5.07994 1.58571 0.0920396
-35.4751 -3.77627 -0.20843 -5.1743 1.19662 -0.00347187
-35.6008 -3.7516 -0.213662 -5.16251 1.27218 -0.00156795
-35.6828 -3.72388 -0.218584 -5.14926 1.35068 0.00349617
-35.7132 -3.69292 -0.2231 -5.1346 1.432 0.0121541
-35.6835 -3.65856 -0.227127 -5.11864 1.51594 0.0248391
-35.5852 -3.62073 -0.230619 -5.10156 1.60217 0.0419999
-35.5622 -3.81815 -0.209586 -5.19506 1.20122 -0.0472142
-35.728 -3.79526 -0.215386 -5.18388 1.27871 -0.0470672
-35.8506 -3.76935 -0.220883 -5.17111 1.3593 -0.043698
-35.9225 -3.74025 -0.226 -5.1568 1.44287 -0.036652
-35.9345 -3.70783 -0.23065 -5.14105 1.52921 -0.0254568
-35.8766 -3.67194 -0.234732 -5.12402 1.61806 -0.00963724
-35.7382 -3.63244 -0.238137 -5.10581 1.70899 0.011271
-35.512 -3.58925 -0.240817 -5.08678 1.80139 0.0376817
-35.187 -3.54227 -0.242543 -5.06744 1.89429 0.0697487
-35.6482 -3.86156 -0.210671 -5.21642 1.20482 -0.0920991
-35.8551 -3.84051 -0.217022 -5.20589 1.28428 -0.0938012
-36.0197 -3.81648 -0.223091 -5.19366 1.36701 -0.0922277
-36.1346 -3.78931 -0.228808 -5.17976 1.4529 -0.0869007
-36.1902 -3.75889 -0.23408 -5.16425 1.54175 -0.0773055
-36.1762 -3.72506 -0.23881 -5.14726 1.63328 -0.0629028
-36.082 -3.68771 -0.242896 -5.12895 1.7271 -0.0431675
-35.8968 -3.64668 -0.24619 -5.10965 1.82258 -0.0176628
-35.6109 -3.60197 -0.248548 -5.08979 1.91873 0.0138536
-35.7319 -3.9065 -0.211665 -5.23836 1.20735 -0.138145
-35.9808 -3.88735 -0.218548 -5.22854 1.28882 -0.141798
-36.189 -3.86526 -0.225182 -5.21691 1.37376 -0.142132
-36.3486 -3.84011 -0.231495 -5.20347 1.46204 -0.138643
-36.4497 -3.81175 -0.237387 -5.18825 1.55349 -0.130771
-36.4814 -3.78005 -0.242753 -5.17136 1.64784 -0.117922
-36.4325 -3.7449 -0.247486 -5.15296 1.74469 -0.0995036
-36.2913 -3.70614 -0.251428 -5.13335 1.8434 -0.0750024
-36.0471 -3.66374 -0.254404 -5.11298 1.94297 -0.0440958
-35.8123 -3.95299 -0.212548 -5.26084 1.20874 -0.185367
-36.1043 -3.93578 -0.219939 -5.25179 1.29227 -0.191083
-36.3573 -3.91571 -0.22713 -5.24083 1.37947 -0.193448
-36.5633 -3.89263 -0.234031 -5.22791 1.47022 -0.191929
-36.7118 -3.86641 -0.240538 -5.21304 1.56437 -0.185917
-36.7915 -3.83691 -0.246538 -5.19629 1.66165 -0.17476
-36.7901 -3.80402 -0.251914 -5.17783 1.76167 -0.157791
-36.6954 -3.76761 -0.256501 -5.15792 1.86379 -0.134414
-36.4954 -3.72759 -0.260097 -5.13702 1.96699 -0.104217
-35.8882 -4.001 -0.213293 -5.28384 1.20892 -0.233783
-36.2241 -3.9858 -0.221169 -5.27563 1.29453 -0.241684
-36.5235 -3.96783 -0.228906 -5.26541 1.38406 -0.246213
-36.7775 -3.94689 -0.236387 -5.25308 1.47736 -0.246808
-36.9755 -3.92286 -0.243502 -5.23862 1.57431 -0.24281
-37.1054 -3.89564 -0.25013 -5.22207 1.67465 -0.2335
-37.1542 -3.86509 -0.256144 -5.20356 1.77799 -0.218132
-37.1084 -3.83109 -0.26137 -5.18337 1.8837 -0.19602
-36.9554 -3.79353 -0.265585 -5.16195 1.99075 -0.166656
-36.685 -3.75234 -0.268101 -5.14003 2.097 -0.130313
-35.5512 -4.06076 -0.20536 -5.31264 1.12394 -0.27044
-35.9581 -4.05044 -0.213816 -5.30736 1.20773 -0.283377
-36.3393 -4.03741 -0.222212 -5.30001 1.29553 -0.293622
-36.6862 -4.02161 -0.23048 -5.29062 1.38743 -0.300461
-36.99 -4.00288 -0.238528 -5.27897 1.48337 -0.30333
-37.2396 -3.98112 -0.246242 -5.26499 1.58322 -0.301514
-37.4221 -3.95623 -0.253491 -5.24869 1.68675 -0.294228
-37.5236 -3.92808 -0.260137 -5.23018 1.79358 -0.280638
-37.5297 -3.89657 -0.265993 -5.20972 1.90308 -0.259954
-37.4264 -3.86161 -0.270849 -5.18776 2.01421 -0.231572
-37.2021 -3.82302 -0.27393 -5.16504 2.12478 -0.195665
-36.8512 -3.78188 -0.275504 -5.14295 2.23121 -0.153816
-36.0215 -4.10146 -0.214186 -5.33121 1.20523 -0.334273
-36.4476 -4.0906 -0.22301 -5.32495 1.29517 -0.346861
-36.8439 -4.07704 -0.231805 -5.31645 1.38945 -0.356117
-37.1996 -4.06062 -0.240423 -5.30554 1.48806 -0.361428
-37.5028 -4.0412 -0.248722 -5.29213 1.59091 -0.362029
-37.7398 -4.01865 -0.256545 -5.27618 1.69781 -0.357052
-37.8967 -3.99292 -0.26379 -5.25775 1.80838 -0.3455
-37.9582 -3.96397 -0.270296 -5.23701 1.92191 -0.326388
-37.9082 -3.93174 -0.275808 -5.21445 2.03732 -0.299123
-37.7333 -3.89599 -0.27951 -5.19087 2.15249 -0.263741
-37.4262 -3.8576 -0.281553 -5.16772 2.26379 -0.221687
29.7264 -7.08389 -0.209003 0.131695 0.866244 -0.814199
29.6243 -7.07345 -0.213789 0.114755 0.920543 -0.865232
29.542 -7.05984 -0.218198 0.0987436 0.9792 -0.916042
29.4845 -7.04281 -0.222124 0.0839361 1.04247 -0.966281
29.4561 -7.02226 -0.225553 0.0706507 1.11051 -1.01552
29.4627 -6.9981 -0.228451 0.0592135 1.18341 -1.06324
29.7905 -7.12311 -0.210323 0.144575 0.839116 -0.848971
29.6765 -7.11505 -0.215644 0.126657 0.893504 -0.902611
29.579 -7.10383 -0.220645 0.109654 0.952381 -0.956138
29.5029 -7.0892 -0.225222 0.0938564 1.01603 -1.00914
29.4541 -7.07097 -0.229293 0.0796101 1.08465 -1.06115
29.4388 -7.04906 -0.23281 0.0672784 1.15837 -1.1116
29.8575 -7.16357 -0.211571 0.158472 0.810541 -0.88391
29.7309 -7.15805 -0.217465 0.13953 0.864962 -0.94025
29.6185 -7.1493 -0.223045 0.121496 0.924032 -0.996559
29.5249 -7.13712 -0.228226 0.10468 0.988038 -1.05241
29.4558 -7.1213 -0.232921 0.0894505 1.05722 -1.10731
29.4181 -7.10168 -0.237035 0.0762313 1.13177 -1.16071
29.4183 -7.07802 -0.240466 0.0654406 1.21174 -1.21193
29.465 -7.05039 -0.243191 0.0573742 1.29702 -1.2602
29.5698 -7.01874 -0.244989 0.0524796 1.387 -1.30467
29.9275 -7.20524 -0.212742 0.173457 0.780464 -0.918958
29.7885 -7.20234 -0.219195 0.153465 0.834876 -0.978093
29.6613 -7.19618 -0.225352 0.134366 0.894098 -1.0373
29.55 -7.18657 -0.231137 0.116483 0.958432 -1.09613
29.4602 -7.17327 -0.236456 0.100211 1.02816 -1.15408
29.3981 -7.15609 -0.241214 0.0859853 1.10352 -1.21053
29.3714 -7.13486 -0.245314 0.0742475 1.18463 -1.26479
29.389 -7.10947 -0.248649 0.0654216 1.2714 -1.31606
29.4612 -7.07996 -0.251073 0.0599392 1.36326 -1.3634
30.0006 -7.24809 -0.213819 0.189598 0.748829 -0.954085
29.8494 -7.2479 -0.22081 0.168532 0.803183 -1.01611
29.7074 -7.24444 -0.227538 0.148332 0.862511 -1.07833
29.5785 -7.23751 -0.233924 0.129331 0.927132 -1.14029
29.4676 -7.22684 -0.239865 0.111954 0.997377 -1.20143
29.3812 -7.21223 -0.245259 0.0966678 1.07353 -1.26114
29.3268 -7.19347 -0.25 0.0839503 1.15577 -1.31865
29.3136 -7.17045 -0.253974 0.0742703 1.24405 -1.3731
29.3522 -7.14315 -0.257006 0.0680932 1.33787 -1.4235
30.0766 -7.29207 -0.214778 0.206967 0.715575 -0.989254
29.9136 -7.29466 -0.222285 0.184804 0.769815 -1.05428
29.7571 -7.29403 -0.229577 0.163465 0.829194 -1.11965
29.6106 -7.28989 -0.236557 0.143295 0.894054 -1.18487
29.4786 -7.28198 -0.243117 0.124747 0.964773 -1.24939
29.3674 -7.27005 -0.249144 0.108325 1.04169 -1.31253
29.2846 -7.25388 -0.254523 0.0945471 1.12506 -1.37349
29.2394 -7.23333 -0.259134 0.0839321 1.21489 -1.43135
29.2429 -7.20834 -0.262775 0.0769792 1.31073 -1.48503
30.1556 -7.3371 -0.215593 0.225635 0.680632 -1.02442
29.9813 -7.34258 -0.223592 0.202357 0.734695 -1.09256
29.8106 -7.34489 -0.231438 0.179843 0.794065 -1.1612
29.6466 -7.34368 -0.239005 0.158451 0.859108 -1.22985
29.4936 -7.33865 -0.246178 0.138664 0.930254 -1.29792
29.3573 -7.32952 -0.252834 0.121024 1.00791 -1.36471
29.2453 -7.31605 -0.258848 0.106097 1.09238 -1.42935
29.1671 -7.29808 -0.264088 0.0944564 1.18377 -1.49086
29.1345 -7.2755 -0.268332 0.0866397 1.28169 -1.54807
29.1602 -7.24847 -0.27146 0.0831447 1.38454 -1.59978
30.4235 -7.37157 -0.207566 0.270276 0.594934 -0.989095
30.2388 -7.38306 -0.216171 0.24564 0.643914 -1.05946
30.0524 -7.3916 -0.224704 0.221269 0.697747 -1.1309
29.8681 -7.39697 -0.233091 0.197546 0.75704 -1.20297
29.687 -7.39881 -0.241234 0.174882 0.822201 -1.27521
29.5129 -7.39679 -0.249012 0.153783 0.893713 -1.34703
29.3513 -7.3906 -0.256292 0.13484 0.97205 -1.41767
29.2096 -7.37997 -0.262936 0.118666 1.05761 -1.48625
29.0974 -7.36469 -0.268799 0.105898 1.15057 -1.55168
29.0266 -7.34466 -0.273664 0.0971381 1.25061 -1.61272
29.0114 -7.31996 -0.277342 0.0929263 1.35618 -1.66804
29.0671 -7.29128 -0.279068 0.0939091 1.46252 -1.71587
30.323 -7.42995 -0.21659 0.267116 0.605377 -1.09452
30.128 -7.44162 -0.22556 0.241649 0.658936 -1.16922
29.9301 -7.4502 -0.234482 0.216671 0.718065 -1.24477
29.7318 -7.45525 -0.243207 0.192672 0.783245 -1.32076
29.5369 -7.45639 -0.251586 0.170194 0.85502 -1.39657
29.3508 -7.45323 -0.259445 0.149865 0.93395 -1.47142
29.1799 -7.44554 -0.266684 0.132322 1.02056 -1.54429
29.0321 -7.43309 -0.27319 0.118278 1.11515 -1.61391
28.9203 -7.41575 -0.278698 0.108475 1.21734 -1.67904
28.8608 -7.39354 -0.282971 0.10349 1.32575 -1.73827
28.8714 -7.36708 -0.285126 0.103996 1.43569 -1.78967
-113.004 -0.576862 -0.21016 0.0179663 0.801733 0.871273
-112.928 -0.591332 -0.214799 0.0328649 0.853456 0.926734
-112.831 -0.603846 -0.219042 0.046431 0.905149 0.986531
-112.712 -0.614004 -0.222776 0.0583781 0.956491 1.05087
-112.575 -0.621508 -0.22599 0.0683836 1.00707 1.11987
-112.421 -0.625975 -0.228657 0.0761221 1.05638 1.1936
-113.577 -0.577426 -0.211401 0.00916529 0.836198 0.842689
-113.526 -0.593138 -0.216571 0.0250134 0.890528 0.898305
-113.452 -0.607132 -0.221403 0.0395296 0.944945 0.958398
-113.356 -0.61901 -0.225785 0.0524049 0.999066 1.0232
-113.239 -0.628338 -0.229637 0.0632887 1.05245 1.09289
-113.104 -0.634688 -0.232914 0.0718153 1.10455 1.16754
-114.17 -0.577771 -0.212565 -0.000848633 0.870854 0.812569
-114.145 -0.594813 -0.218311 0.0160061 0.927874 0.868286
-114.096 -0.61027 -0.223721 0.0315194 0.985074 0.928651
-114.024 -0.623782 -0.228706 0.0453625 1.04206 0.993911
-113.928 -0.634926 -0.233177 0.0571561 1.09838 1.06427
-113.813 -0.643207 -0.23705 0.0664795 1.15347 1.13986
-113.678 -0.648132 -0.240224 0.07293 1.20667 1.22071
-113.53 -0.649183 -0.242707 0.0762279 1.25716 1.30665
-113.373 -0.645575 -0.2443 0.075983 1.30411 1.39699
-114.782 -0.577892 -0.213655 -0.0121599 0.905646 0.78085
-114.785 -0.596252 -0.219961 0.00573697 0.965442 0.836629
-114.762 -0.613181 -0.225947 0.0222916 1.02553 0.897231
-114.714 -0.628349 -0.231534 0.0371598 1.08551 0.962919
-114.642 -0.641344 -0.236626 0.0499317 1.1449 1.03394
-114.547 -0.651692 -0.241132 0.060172 1.2031 1.11047
-114.432 -0.658856 -0.244959 0.0674491 1.25941 1.19259
-114.3 -0.662245 -0.248048 0.0713656 1.31301 1.28014
-114.158 -0.661179 -0.250258 0.0715443 1.36296 1.37248
-115.413 -0.577765 -0.214654 -0.02485 0.940545 0.747475
-115.445 -0.59742 -0.221498 -0.00587681 1.00321 0.803266
-115.45 -0.615825 -0.228057 0.0117659 1.0663 0.864061
-115.428 -0.632664 -0.234243 0.0277195 1.1294 0.930142
-115.38 -0.647536 -0.239954 0.0415422 1.19201 1.0018
-115.308 -0.659971 -0.24509 0.0527643 1.25351 1.07926
-115.213 -0.66942 -0.249549 0.0609157 1.31314 1.16264
-115.099 -0.67527 -0.253265 0.0655529 1.37003 1.25185
-114.972 -0.6768 -0.256072 0.0662638 1.42317 1.34628
-116.062 -0.57736 -0.215536 -0.0390066 0.975517 0.712378
-116.125 -0.598283 -0.222898 -0.0189237 1.04115 0.768124
-116.159 -0.618158 -0.230021 -0.000144098 1.10737 0.829059
-116.165 -0.636674 -0.236803 0.0169578 1.17373 0.89549
-116.143 -0.653445 -0.243131 0.0319084 1.23972 0.967749
-116.094 -0.668004 -0.248895 0.0441981 1.30469 1.04612
-116.02 -0.679794 -0.253984 0.0533132 1.36784 1.13079
-115.925 -0.688181 -0.258324 0.0587598 1.42825 1.22169
-115.814 -0.692408 -0.261725 0.0600891 1.48481 1.31829
-116.728 -0.576648 -0.216275 -0.0547151 1.01052 0.675488
-116.823 -0.598806 -0.224132 -0.0334942 1.07923 0.731121
-116.889 -0.620137 -0.231812 -0.0135297 1.1487 0.792138
-116.925 -0.640327 -0.239182 0.00478486 1.21846 0.858866
-116.93 -0.659009 -0.246123 0.020944 1.28801 0.931686
-116.906 -0.675723 -0.252512 0.0343934 1.35665 1.01095
-116.855 -0.689906 -0.258228 0.044571 1.42355 1.09689
-116.779 -0.700906 -0.263187 0.050926 1.48771 1.18952
-116.685 -0.707897 -0.267172 0.0529624 1.54795 1.28835
-116.578 -0.710244 -0.270537 0.0502528 1.60298 1.39175
-117.253 -0.551582 -0.208285 -0.0951134 0.974763 0.586213
-117.411 -0.57548 -0.216778 -0.0720257 1.04544 0.636708
-117.54 -0.598955 -0.225172 -0.0496815 1.11741 0.692176
-117.639 -0.621719 -0.233397 -0.0284876 1.19025 0.753204
-117.706 -0.643572 -0.241347 -0.00889685 1.26359 0.820165
-117.741 -0.664167 -0.248894 0.00855497 1.33687 0.893495
-117.744 -0.683059 -0.255905 0.0232623 1.40939 0.973602
-117.716 -0.699682 -0.262245 0.0346117 1.48027 1.06081
-117.662 -0.713368 -0.267815 0.0419854 1.54845 1.1552
-117.586 -0.723277 -0.272402 0.0448288 1.61266 1.25633
-117.494 -0.728652 -0.276301 0.042654 1.6715 1.36261
-117.395 -0.728182 -0.278563 0.0350087 1.72319 1.46882
-118.109 -0.57407 -0.217115 -0.0911013 1.08042 0.595995
-118.275 -0.598618 -0.225957 -0.0676067 1.15559 0.65125
-118.409 -0.622816 -0.234722 -0.0451245 1.23188 0.712199
-118.51 -0.646355 -0.243259 -0.0241832 1.30892 0.779295
-118.576 -0.668876 -0.251413 -0.00535991 1.38617 0.853036
-118.607 -0.689892 -0.259007 0.0106943 1.4629 0.933913
-118.605 -0.708921 -0.26594 0.0233458 1.53811 1.02236
-118.573 -0.725405 -0.272144 0.0319017 1.61058 1.11857
-118.515 -0.738422 -0.277353 0.0356573 1.67903 1.22206
-118.439 -0.747058 -0.281813 0.0340955 1.74199 1.33136
-118.354 -0.749813 -0.284484 0.0267213 1.79751 1.44129
-113.788 -0.799575 -0.210346 0.167219 0.801919 0.867745
-113.849 -0.824019 -0.214906 0.180093 0.853532 0.924114
-113.906 -0.84683 -0.21906 0.191232 0.905099 0.984623
-113.961 -0.867616 -0.222694 0.200339 0.9563 1.04937
-114.017 -0.886091 -0.225796 0.207087 1.00672 1.11841
-114.08 -0.901877 -0.228346 0.211151 1.05586 1.19172
-114.346 -0.792568 -0.211645 0.162471 0.836414 0.83653
-114.428 -0.817902 -0.216735 0.176268 0.890632 0.893202
-114.504 -0.841854 -0.221479 0.188317 0.944922 0.954173
-114.577 -0.864034 -0.225761 0.198292 0.9989 1.01958
-114.65 -0.884018 -0.229501 0.205837 1.05212 1.0895
-114.728 -0.901374 -0.232652 0.210583 1.10404 1.16394
-114.922 -0.784961 -0.212869 0.156314 0.871101 0.803608
-115.027 -0.811254 -0.218535 0.1711 0.92801 0.860539
-115.124 -0.836309 -0.223857 0.184114 0.985083 0.921955
-115.217 -0.859775 -0.22874 0.195007 1.04193 0.988015
-115.308 -0.881238 -0.233098 0.203391 1.09808 1.05883
-115.401 -0.900222 -0.23685 0.208847 1.15299 1.13445
-115.499 -0.916234 -0.239912 0.210988 1.20598 1.2148
-115.611 -0.928736 -0.242271 0.209545 1.25627 1.29965
-115.741 -0.937028 -0.243931 0.204182 1.30299 1.38826
-115.518 -0.776745 -0.214018 0.14865 0.905926 0.768908
-115.647 -0.803963 -0.220246 0.16447 0.965613 0.826062
-115.766 -0.83011 -0.226145 0.178502 1.02558 0.8879
-115.879 -0.854862 -0.23163 0.19038 1.08541 0.954602
-115.989 -0.87782 -0.236607 0.19968 1.14463 1.02631
-116.098 -0.898519 -0.240986 0.205964 1.20264 1.10312
-116.212 -0.916436 -0.244691 0.208811 1.25875 1.18499
-116.337 -0.930977 -0.247656 0.207849 1.31213 1.27168
-116.478 -0.941527 -0.249935 0.20275 1.36185 1.36249
-116.132 -0.767888 -0.215077 0.139383 0.940861 0.732363
-116.286 -0.795987 -0.221846 0.156281 1.00342 0.789691
-116.429 -0.823205 -0.228318 0.171388 1.06639 0.851918
-116.564 -0.849238 -0.234403 0.18432 1.12934 0.919241
-116.694 -0.873696 -0.239998 0.194619 1.19178 0.991844
-116.821 -0.896119 -0.245004 0.201809 1.25308 1.06985
-116.951 -0.915974 -0.249337 0.205427 1.31251 1.15325
-117.089 -0.932645 -0.252924 0.205055 1.36917 1.24186
-117.242 -0.94548 -0.255797 0.200328 1.42207 1.33498
-116.764 -0.758356 -0.21602 0.12841 0.975872 0.693901
-116.945 -0.787284 -0.22331 0.14643 1.0414 0.751344
-117.113 -0.815545 -0.230349 0.162672 1.10749 0.813914
-117.272 -0.84284 -0.237029 0.176732 1.17371 0.881827
-117.422 -0.868796 -0.24324 0.188117 1.23953 0.955305
-117.568 -0.892958 -0.248872 0.196308 1.3043 1.03451
-117.715 -0.914785 -0.253831 0.200797 1.36725 1.11949
-117.867 -0.933643 -0.258037 0.201112 1.42742 1.21008
-118.032 -0.948843 -0.2615 0.196849 1.48374 1.30562
-117.414 -0.748113 -0.21682 0.115631 1.01092 0.653445
-117.622 -0.777814 -0.22461 0.134811 1.07953 0.710932
-117.818 -0.807077 -0.232207 0.152247 1.14887 0.773788
-118.002 -0.835606 -0.239478 0.167512 1.21849 0.842247
-118.175 -0.863047 -0.246301 0.180076 1.28786 0.916575
-118.341 -0.888955 -0.252557 0.189371 1.35631 0.996982
-118.505 -0.912784 -0.258139 0.194839 1.42299 1.08356
-118.673 -0.933881 -0.262958 0.195948 1.48691 1.17619
-118.85 -0.951492 -0.266998 0.192242 1.54689 1.27427
-119.044 -0.964777 -0.270266 0.183364 1.60165 1.37631
-117.826 -0.70645 -0.208943 0.0794327 0.975281 0.558469
-118.08 -0.737014 -0.217386 0.10098 1.04588 0.61088
-118.319 -0.767534 -0.225717 0.121315 1.11775 0.668359
-118.543 -0.797749 -0.233862 0.140001 1.19048 0.731431
-118.753 -0.827472 -0.241715 0.156546 1.26367 0.80038
-118.951 -0.856376 -0.249145 0.170385 1.33678 0.875521
-119.139 -0.884027 -0.256021 0.180895 1.4091 0.957115
-119.322 -0.909878 -0.262224 0.187462 1.47976 1.04532
-119.505 -0.933263 -0.267649 0.189486 1.5477 1.14005
-119.696 -0.953416 -0.272282 0.186453 1.61165 1.24076
-119.9 -0.969381 -0.276078 0.177934 1.6702 1.34594
-120.119 -0.980833 -0.280908 0.163629 1.72164 1.45099
-118.762 -0.725247 -0.217785 0.0842749 1.08091 0.566161
-119.033 -0.756326 -0.226571 0.105813 1.15599 0.623581
-119.288 -0.78746 -0.235258 0.125819 1.23216 0.686777
-119.527 -0.81837 -0.243699 0.14373 1.30906 0.75612
-119.75 -0.848722 -0.251739 0.158934 1.38614 0.831989
-119.961 -0.878041 -0.2592 0.170756 1.46267 0.914718
-120.164 -0.905858 -0.265995 0.178559 1.53766 1.00455
-120.365 -0.931622 -0.272052 0.18167 1.60987 1.10148
-120.569 -0.954475 -0.277297 0.179422 1.67805 1.2049
-120.785 -0.973311 -0.281637 0.171357 1.74072 1.31342
-121.014 -0.987645 -0.286889 0.157123 1.79598 1.42237
0 0 0 0 0 0
0 0 0 0 0 0
0 0 0 0 0 0
0 0 0 0 0 0
0 0 0 0 0 0
0 0 0 0 0 0
0 0 0 0 0 0
0 0 0 0 0 0
0 0 0 0 0 0
0 0 0 0 0 0
0 0 0 0 0 0
0 0 0 0 0 0
0 0 0 0 0 0
0 0 0 0 0 0
0 0 0 0 0 0
0 0 0 0 0 0
0 0 0 0 0 0
0 0 0 0 0 0
0 0 0 0 0 0
0 0 0 0 0 0
0 0 0 0 0 0
0 0 0 0 0 0
0 0 0 0 0 0
0 0 0 0 0 0
0 0 0 0 0 0
0 0 0 0 0 0
0 0 0 0 0 0
0 0 0 0 0 0
0 0 0 0 0 0
0 0 0 0 0 0
0 0 0 0 0 0
0 0 0 0 0 0
0 0 0 0 0 0
0 0 0 0 0 0
0 0 0 0 0 0
0 0 0 0 0 0
0 0 0 0 0 0
0 0 0 0 0 0
0 0 0 0 0 0
0 0 0 0 0 0
0 0 0 0 0 0
0 0 0 0 0 0
0 0 0 0 0 0
0 0 0 0 0 0
0 0 0 0 0 0
0 0 0 0 0 0
0 0 0 0 0 0
0 0 0 0 0 0
0 0 0 0 0 0
0 0 0 0 0 0
0 0 0 0 0 0
0 0 0 0 0 0
0 0 0 0 0 0
0 0 0 0 0 0
0 0 0 0 0 0
0 0 0 0 0 0
0 0 0 0 0 0
0 0 0 0 0 0
0 0 0 0 0 0
0 0 0 0 0 0
0 0 0 0 0 0
0 0 0 0 0 0
0 0 0 0 0 0
0 0 0 0 0 0
0 0 0 0 0 0
0 0 0 0 0 0
0 0 0 0 0 0
0 0 0 0 0 0
0 0 0 0 0 0
0 0 0 0 0 0
0 0 0 0 0 0
0 0 0 0 0 0
0 0 0 0 0 0
0 0 0 0 0 0
0 0 0 0 0 0
0 0 0 0 0 0
0 0 0 0 0 0
0 0 0 0 0 0
0 0 0 0 0 0
0 0 0 0 0 0
0 0 0 0 0 0
20.575 -7.43046 -0.210894 -0.315918 0.859149 -0.759437
20.1531 -7.45431 -0.215574 -0.326782 0.915154 -0.810456
19.7522 -7.47846 -0.219854 -0.335514 0.975125 -0.861674
19.3782 -7.50298 -0.22362 -0.341804 1.03911 -0.912792
19.0367 -7.52812 -0.226864 -0.345321 1.1071 -0.963419
18.7351 -7.55415 -0.22957 -0.345737 1.17906 -1.01305
20.9607 -7.45993 -0.212375 -0.315191 0.826891 -0.792062
20.5393 -7.48518 -0.217584 -0.326953 0.88328 -0.845607
20.1349 -7.51072 -0.222457 -0.336554 0.943798 -0.899475
19.7533 -7.53665 -0.226876 -0.343653 1.00853 -0.953311
19.4019 -7.56312 -0.230759 -0.347887 1.07751 -1.0067
19.0886 -7.59039 -0.23406 -0.348882 1.1507 -1.05912
21.366 -7.49024 -0.213782 -0.312858 0.792852 -0.824874
20.9452 -7.51701 -0.219567 -0.325592 0.849585 -0.881012
20.5383 -7.544 -0.225019 -0.336126 0.91064 -0.937583
20.1511 -7.57133 -0.23004 -0.344094 0.976128 -0.994223
19.7906 -7.59916 -0.234541 -0.349097 1.04611 -1.0505
19.4649 -7.62772 -0.238451 -0.350719 1.12058 -1.10589
19.1826 -7.65719 -0.241694 -0.348589 1.19945 -1.15969
18.9543 -7.68792 -0.244256 -0.342443 1.28245 -1.21108
18.7923 -7.7202 -0.246234 -0.331998 1.36891 -1.2592
21.7913 -7.52139 -0.215113 -0.308805 0.756957 -0.85782
21.372 -7.54974 -0.221462 -0.322565 0.814 -0.916628
20.9636 -7.57824 -0.227493 -0.334095 0.875575 -0.975995
20.5714 -7.60703 -0.233116 -0.343008 0.941815 -1.03555
20.202 -7.63628 -0.238237 -0.348867 1.01281 -1.09484
19.8636 -7.66618 -0.242771 -0.351231 1.08859 -1.1533
19.5652 -7.69699 -0.246649 -0.349686 1.16909 -1.21021
19.3176 -7.72898 -0.249823 -0.343885 1.25403 -1.26475
19.1326 -7.76249 -0.252427 -0.333547 1.34277 -1.31593
22.2369 -7.55335 -0.21635 -0.302924 0.719132 -0.890876
21.8203 -7.58331 -0.223245 -0.317763 0.77644 -0.952435
21.4113 -7.61339 -0.229851 -0.330357 0.838508 -1.0147
21.0148 -7.64372 -0.236075 -0.340294 0.905486 -1.07728
20.6373 -7.67444 -0.241815 -0.347101 0.977498 -1.13973
20.2864 -7.70575 -0.246975 -0.350295 1.05461 -1.20144
19.9717 -7.73791 -0.25148 -0.349422 1.13676 -1.26166
19.7041 -7.7712 -0.255275 -0.344084 1.22373 -1.31951
19.4959 -7.80596 -0.258474 -0.333962 1.31486 -1.37394
22.703 -7.58606 -0.217471 -0.295098 0.679304 -0.924011
22.2905 -7.61769 -0.224892 -0.311069 0.736817 -0.988408
21.8821 -7.64942 -0.232067 -0.324796 0.799338 -1.05367
21.4824 -7.68135 -0.238887 -0.335842 0.867029 -1.11941
21.0973 -7.7136 -0.245243 -0.343695 0.940053 -1.18515
20.7345 -7.74639 -0.251028 -0.347826 1.01851 -1.25028
20.4034 -7.77995 -0.256159 -0.347732 1.10237 -1.31401
20.1153 -7.81457 -0.260571 -0.342961 1.19144 -1.37539
19.883 -7.85059 -0.264361 -0.333153 1.28509 -1.43331
23.19 -7.61948 -0.218446 -0.285211 0.637392 -0.957188
22.7832 -7.65283 -0.226374 -0.302362 0.695038 -1.02452
22.3768 -7.68629 -0.234109 -0.317291 0.757958 -1.09289
21.9749 -7.71989 -0.241521 -0.329534 0.826326 -1.16191
21.5831 -7.75375 -0.248488 -0.338536 0.900345 -1.23111
21.2089 -7.78806 -0.254896 -0.343719 0.980152 -1.29983
20.8616 -7.82306 -0.260649 -0.344523 1.06577 -1.36728
20.5527 -7.85905 -0.265673 -0.340436 1.15702 -1.43242
20.2959 -7.89636 -0.270037 -0.331042 1.25332 -1.49407
20.1062 -7.93512 -0.273772 -0.316046 1.35331 -1.55087
24.0933 -7.6182 -0.210608 -0.253165 0.540571 -0.921413
23.6991 -7.65348 -0.21919 -0.273175 0.593272 -0.990298
23.2986 -7.68869 -0.227662 -0.291516 0.651002 -1.06073
22.8958 -7.72395 -0.235948 -0.307714 0.714251 -1.13232
22.4932 -7.75929 -0.243941 -0.321241 0.783246 -1.20477
22.0959 -7.79483 -0.251515 -0.331502 0.858233 -1.27758
21.711 -7.83073 -0.258543 -0.337857 0.939394 -1.3501
21.3477 -7.86723 -0.264914 -0.339691 1.0268 -1.42147
21.0178 -7.90464 -0.270543 -0.336419 1.12032 -1.49064
20.7352 -7.94328 -0.275498 -0.327564 1.21939 -1.55631
20.5164 -7.98332 -0.279763 -0.312761 1.32262 -1.61702
20.3781 -8.0253 -0.286161 -0.291831 1.42655 -1.67099
24.2281 -7.68807 -0.219763 -0.258804 0.546898 -1.02349
23.8382 -7.72517 -0.228695 -0.278395 0.604662 -1.09695
23.4404 -7.76232 -0.237523 -0.295945 0.66815 -1.17182
23.0383 -7.7995 -0.246102 -0.31085 0.737679 -1.24781
22.6366 -7.8368 -0.254285 -0.322469 0.813556 -1.32445
22.2425 -7.87433 -0.2619 -0.330105 0.896033 -1.40106
21.8647 -7.91238 -0.268863 -0.333109 0.985248 -1.47669
21.5131 -7.95127 -0.275125 -0.33083 1.08114 -1.55013
21.2029 -7.99131 -0.280686 -0.322639 1.18308 -1.62008
20.9528 -8.03267 -0.285494 -0.308131 1.28975 -1.68502
20.7816 -8.07589 -0.292325 -0.287081 1.39763 -1.74298
-55.4309 -4.08701 -0.209544 -4.74847 1.10631 0.0742415
-55.9857 -4.12099 -0.214145 -4.74147 1.18113 0.0782587
-56.5095 -4.15688 -0.218359 -4.7363 1.25905 0.0849487
-56.9972 -4.1948 -0.222077 -4.73338 1.33993 0.0945908
-57.4446 -4.235 -0.225287 -4.73319 1.42349 0.107487
-57.8472 -4.27772 -0.227974 -4.73631 1.50935 0.123966
-55.4942 -4.08687 -0.210964 -4.78488 1.10515 0.0314969
-56.066 -4.12091 -0.21609 -4.77854 1.18195 0.0340185
-56.6074 -4.15702 -0.220892 -4.77383 1.26208 0.0392362
-57.1129 -4.19534 -0.225252 -4.77116 1.34535 0.0474908
-57.5768 -4.23606 -0.229091 -4.77107 1.43152 0.0591206
-57.9939 -4.2794 -0.232365 -4.77414 1.52021 0.0744849
-55.5289 -4.0876 -0.212319 -4.82286 1.10286 -0.0125157
-56.1195 -4.12171 -0.218013 -4.81725 1.18166 -0.0115664
-56.6793 -4.15797 -0.223389 -4.81307 1.26401 -0.00786741
-57.2029 -4.19658 -0.228343 -4.81075 1.34975 -0.00106056
-57.6842 -4.23775 -0.232795 -4.81081 1.43863 0.00922474
-58.1173 -4.28172 -0.23668 -4.81383 1.5303 0.0233733
-58.4967 -4.32864 -0.239928 -4.82045 1.62418 0.0418303
-58.818 -4.37862 -0.242547 -4.83142 1.71949 0.0650286
-59.0763 -4.43169 -0.244623 -4.84752 1.81517 0.0932295
-55.5332 -4.08928 -0.213605 -4.86241 1.09935 -0.057808
-56.1432 -4.1234 -0.219856 -4.85762 1.18017 -0.0585073
-56.7226 -4.15977 -0.225803 -4.85406 1.26479 -0.0564058
-57.2654 -4.19861 -0.231353 -4.85215 1.35305 -0.0511296
-57.7655 -4.24018 -0.236417 -4.8524 1.44473 -0.042275
-58.2163 -4.28471 -0.240916 -4.8554 1.53946 -0.0293958
-58.6117 -4.33243 -0.244787 -4.86182 1.63669 -0.0120169
-58.9465 -4.38345 -0.248023 -4.87239 1.73561 0.0103044
-59.2161 -4.43786 -0.250729 -4.88793 1.8351 0.0379155
-55.5049 -4.09194 -0.214802 -4.90356 1.09456 -0.10441
-56.1351 -4.12602 -0.221596 -4.89966 1.17742 -0.106845
-56.735 -4.16243 -0.228111 -4.89681 1.26434 -0.106429
-57.2984 -4.20144 -0.234254 -4.89539 1.35519 -0.102776
-57.8187 -4.24334 -0.23993 -4.8959 1.44976 -0.0954486
-58.2887 -4.2884 -0.245048 -4.89891 1.54768 -0.083958
-58.7019 -4.33684 -0.249542 -4.90513 1.64841 -0.0677797
-59.0522 -4.38885 -0.253394 -4.9153 1.75111 -0.0464123
-59.3343 -4.44451 -0.256695 -4.93027 1.85463 -0.0194419
-55.442 -4.09564 -0.21589 -4.94629 1.08842 -0.152351
-56.0929 -4.12959 -0.223207 -4.9434 1.17331 -0.156618
-56.7143 -4.16599 -0.230285 -4.94136 1.26257 -0.157989
-57.2996 -4.20511 -0.237017 -4.94051 1.35607 -0.156064
-57.8416 -4.24726 -0.2433 -4.94134 1.45362 -0.15037
-58.3325 -4.29276 -0.249036 -4.94442 1.55486 -0.140376
-58.7652 -4.34187 -0.254149 -4.95046 1.65924 -0.125504
-59.1327 -4.39481 -0.258614 -4.96023 1.76594 -0.105189
-59.4292 -4.45167 -0.262502 -4.97461 1.87374 -0.0789489
-55.342 -4.10041 -0.216844 -4.99061 1.08084 -0.201658
-56.0142 -4.13417 -0.224665 -4.98885 1.16778 -0.207869
-56.6581 -4.17048 -0.232296 -4.98772 1.25941 -0.211138
-57.2666 -4.20963 -0.239611 -4.98755 1.3556 -0.211056
-57.8319 -4.25196 -0.246497 -4.98878 1.45621 -0.207115
-58.3455 -4.29782 -0.252847 -4.99199 1.56089 -0.19874
-58.7995 -4.34752 -0.258574 -4.99788 1.6691 -0.185295
-59.1862 -4.40131 -0.263645 -5.00725 1.78 -0.166148
-59.4986 -4.45929 -0.268105 -5.02102 1.89234 -0.140728
-59.7293 -4.52145 -0.272447 -5.03999 2.00407 -0.108975
-54.4879 -4.07482 -0.209123 -5.03719 0.987425 -0.241638
-55.2024 -4.10621 -0.217588 -5.03653 1.07166 -0.252332
-55.8966 -4.13979 -0.22594 -5.036 1.16073 -0.260637
-56.5639 -4.17595 -0.234114 -5.03592 1.25474 -0.265931
-57.1969 -4.21504 -0.242002 -5.03654 1.35368 -0.26782
-57.787 -4.25745 -0.249485 -5.03827 1.45742 -0.265765
-58.3251 -4.30358 -0.256444 -5.04168 1.56566 -0.259146
-58.8025 -4.35378 -0.26278 -5.04746 1.67787 -0.247267
-59.2105 -4.40834 -0.268449 -5.05645 1.7932 -0.22942
-59.5413 -4.46742 -0.273495 -5.06957 1.91037 -0.204954
-59.7862 -4.531 -0.278376 -5.08773 2.02722 -0.173736
-59.9333 -4.5988 -0.284786 -5.1114 2.14043 -0.136017
-55.0209 -4.1132 -0.218162 -5.08397 1.06098 -0.30451
-55.7372 -4.14645 -0.226976 -5.0849 1.15207 -0.31489
-56.4291 -4.18237 -0.235682 -5.08599 1.24843 -0.322301
-57.0879 -4.22134 -0.244142 -5.08751 1.35012 -0.326307
-57.7044 -4.26376 -0.252219 -5.08985 1.45708 -0.326344
-58.2684 -4.31003 -0.259762 -5.09356 1.56904 -0.321722
-58.7709 -4.3606 -0.266687 -5.09931 1.68546 -0.311619
-59.2032 -4.41586 -0.272983 -5.10792 1.80546 -0.295177
-59.5548 -4.476 -0.278619 -5.12035 1.92771 -0.271788
-59.816 -4.54099 -0.284043 -5.13763 2.05005 -0.241202
-59.9741 -4.61052 -0.290896 -5.16033 2.16898 -0.203573
-42.2497 -4.97379 -0.211348 4.66627 -0.0463913 1.07149
-42.7071 -5.02892 -0.216011 4.66028 -0.0505595 1.14259
-43.2183 -5.08307 -0.220286 4.65674 -0.057574 1.21661
-43.788 -5.13598 -0.224065 4.65615 -0.0677579 1.29344
-44.4221 -5.18752 -0.227332 4.65906 -0.0814438 1.37287
-45.1261 -5.23753 -0.230069 4.66615 -0.0989682 1.45457
-42.1018 -4.97537 -0.212777 4.70593 -0.005641 1.07245
-42.5485 -5.03137 -0.217964 4.70062 -0.0082903 1.14541
-43.0509 -5.08648 -0.222825 4.69754 -0.0138086 1.22147
-43.6145 -5.14042 -0.227241 4.69719 -0.0225798 1.30052
-44.2449 -5.19293 -0.231134 4.70019 -0.0349781 1.38234
-44.9481 -5.2438 -0.234457 4.70722 -0.051383 1.46661
-41.9756 -4.97505 -0.214135 4.74734 0.0362562 1.07243
-42.4106 -5.03202 -0.219885 4.74278 0.0352178 1.14726
-42.9028 -5.08811 -0.225318 4.74025 0.031251 1.22539
-43.4585 -5.14304 -0.230329 4.74025 0.0239562 1.3067
-44.0839 -5.19655 -0.234834 4.74339 0.0129278 1.39099
-44.7855 -5.2484 -0.238777 4.75033 -0.00224183 1.47798
-45.568 -5.29835 -0.242087 4.76183 -0.0219973 1.56718
-46.4348 -5.34622 -0.244775 4.77873 -0.0467931 1.65797
-47.3874 -5.39186 -0.246922 4.80187 -0.0769287 1.74945
-41.8729 -4.97272 -0.215414 4.79053 0.0793068 1.07134
-42.2949 -5.03068 -0.221719 4.78681 0.0799625 1.14806
-42.7756 -5.08778 -0.227722 4.78491 0.0776351 1.2283
-43.3218 -5.14375 -0.233327 4.78533 0.0719103 1.31194
-43.9407 -5.19831 -0.238444 4.78865 0.0623484 1.3988
-44.6389 -5.25118 -0.242997 4.79556 0.0484779 1.48857
-45.4224 -5.30211 -0.246925 4.80683 0.0298125 1.58082
-46.2953 -5.3509 -0.250241 4.82331 0.00588292 1.67489
-47.2595 -5.39742 -0.253027 4.84587 -0.0236935 1.76985
-41.7953 -4.96825 -0.2166 4.8355 0.123535 1.06912
-42.2029 -5.02721 -0.223445 4.83273 0.125977 1.14775
-42.6706 -5.08535 -0.230014 4.83156 0.125387 1.23014
-43.2058 -5.14241 -0.23621 4.83246 0.121336 1.31617
-43.8162 -5.19808 -0.241937 4.83603 0.113348 1.40568
-44.5095 -5.25205 -0.247109 4.84294 0.100903 1.49837
-45.2923 -5.30404 -0.251659 4.85399 0.0834586 1.5938
-46.1693 -5.35383 -0.255595 4.87004 0.0604798 1.69132
-47.1432 -5.40124 -0.258982 4.89203 0.0315185 1.78995
-41.7443 -4.96149 -0.217671 4.88228 0.168964 1.06571
-42.136 -5.02145 -0.225038 4.88056 0.173295 1.14627
-42.5892 -5.08067 -0.232167 4.88022 0.174551 1.23084
-43.1116 -5.13887 -0.238949 4.88171 0.172289 1.31932
-43.7118 -5.1957 -0.245281 4.88559 0.165992 1.41156
-44.3982 -5.25083 -0.251069 4.89255 0.155092 1.50728
-45.1783 -5.30396 -0.256238 4.9034 0.138985 1.60605
-46.0579 -5.35482 -0.260788 4.91902 0.117066 1.70719
-47.0399 -5.4032 -0.264768 4.94039 0.0888181 1.80972
-41.7216 -4.9523 -0.218603 4.93086 0.215617 1.06102
-42.096 -5.01326 -0.226473 4.93031 0.221948 1.14353
-42.533 -5.07358 -0.234152 4.93093 0.225171 1.23033
-43.0407 -5.13295 -0.241513 4.93311 0.224823 1.32131
-43.6287 -5.191 -0.248445 4.93739 0.220349 1.41636
-44.3061 -5.24737 -0.254844 4.94446 0.211128 1.51522
-45.0814 -5.30171 -0.260627 4.95513 0.196492 1.61747
-45.9615 -5.35372 -0.265784 4.97033 0.175761 1.72244
-46.9499 -5.40312 -0.270339 4.99108 0.148328 1.82909
-48.0449 -5.44978 -0.275127 5.01823 0.113861 1.93595
-41.4248 -4.87825 -0.210821 4.98104 0.252483 0.974767
-41.728 -4.94049 -0.219331 4.98125 0.263479 1.05492
-42.0846 -5.00247 -0.227723 4.98201 0.271968 1.13946
-42.5036 -5.06392 -0.23594 4.98371 0.277288 1.2285
-42.9948 -5.1245 -0.24387 4.9867 0.278994 1.32204
-43.5683 -5.18382 -0.251393 4.99149 0.27649 1.41998
-44.2344 -5.24149 -0.258398 4.99875 0.2691 1.5221
-45.0027 -5.29712 -0.264788 5.00929 0.256087 1.62799
-45.881 -5.35037 -0.270544 5.02407 0.23669 1.73698
-46.8741 -5.40092 -0.275688 5.04415 0.210219 1.84803
-47.981 -5.44857 -0.281027 5.07049 0.176254 1.95954
-49.1886 -5.49273 -0.287342 5.10364 0.134949 2.0688
-41.7666 -4.92595 -0.219878 5.03339 0.312678 1.04747
-42.103 -4.98889 -0.228738 5.03568 0.32331 1.13395
-42.5022 -5.05149 -0.237478 5.03862 0.330827 1.22522
-42.9748 -5.11332 -0.245968 5.04254 0.334739 1.32134
-43.5317 -5.17397 -0.254079 5.04795 0.334419 1.42225
-44.1842 -5.23296 -0.261665 5.05549 0.329123 1.52779
-44.9429 -5.28993 -0.268646 5.06598 0.317967 1.63753
-45.8171 -5.34458 -0.275033 5.08036 0.300021 1.75077
-46.8132 -5.3964 -0.280763 5.09972 0.274642 1.86641
-47.9306 -5.44514 -0.286649 5.12516 0.241283 1.98292
-49.1567 -5.49013 -0.293428 5.15736 0.199997 2.09741
-116.893 -1.69409 -0.211134 0.765413 0.695533 0.727898
-117.497 -1.75871 -0.215744 0.77024 0.73996 0.774602
-118.164 -1.823 -0.219965 0.771731 0.784313 0.824693
-118.904 -1.8866 -0.223686 0.769533 0.828336 0.878277
-119.728 -1.94925 -0.226894 0.763301 0.871686 0.935404
-120.648 -2.01055 -0.229569 0.752702 0.913932 0.996076
-117.388 -1.65685 -0.212497 0.776936 0.726276 0.701203
-117.998 -1.72099 -0.217627 0.782585 0.772963 0.748174
-118.671 -1.78507 -0.222432 0.784821 0.819682 0.798665
-119.414 -1.84875 -0.22679 0.783254 0.866111 0.852806
-120.239 -1.91164 -0.230622 0.777498 0.911877 0.910669
-121.159 -1.97329 -0.233878 0.767155 0.956526 0.972282
-117.9 -1.6175 -0.213788 0.786264 0.757237 0.673056
-118.519 -1.68112 -0.21948 0.792835 0.806268 0.720257
-119.197 -1.74489 -0.224855 0.795909 0.855404 0.771135
-119.944 -1.80848 -0.229806 0.795062 0.904311 0.825828
-120.771 -1.87152 -0.23425 0.789861 0.952603 0.884437
-121.69 -1.9336 -0.238135 0.779893 0.999834 0.947022
-122.713 -1.99422 -0.241391 0.76484 1.04543 1.01359
-123.855 -2.05279 -0.243999 0.744458 1.08873 1.08415
-125.129 -2.10874 -0.246113 0.718623 1.12906 1.15853
-118.431 -1.576 -0.215006 0.793247 0.788364 0.643391
-119.059 -1.63899 -0.22125 0.80082 0.839816 0.69079
-119.744 -1.70234 -0.227194 0.804825 0.891461 0.742036
-120.495 -1.76577 -0.232738 0.8048 0.942955 0.797274
-121.324 -1.8289 -0.237793 0.800269 0.993896 0.856632
-122.243 -1.8913 -0.242283 0.790779 1.0438 0.920204
-123.264 -1.95249 -0.246149 0.775945 1.09207 0.988035
-124.403 -2.01192 -0.249392 0.755492 1.13805 1.06012
-125.674 -2.069 -0.252152 0.729284 1.18098 1.13631
-118.981 -1.53228 -0.216133 0.797733 0.819637 0.612146
-119.618 -1.59451 -0.222915 0.806392 0.873593 0.659707
-120.311 -1.65735 -0.229424 0.811424 0.927847 0.711295
-121.067 -1.72051 -0.235558 0.812332 0.982041 0.767062
-121.898 -1.78365 -0.241223 0.808593 1.03576 0.827166
-122.817 -1.84635 -0.246331 0.799705 1.0885 0.891732
-123.836 -1.90811 -0.250818 0.785234 1.13965 0.960835
-124.972 -1.96836 -0.25468 0.764852 1.18846 1.03449
-126.239 -2.02648 -0.258046 0.738376 1.23414 1.1126
-119.548 -1.48629 -0.217149 0.799566 0.851032 0.57926
-120.197 -1.54763 -0.224453 0.809393 0.907582 0.626935
-120.898 -1.60981 -0.23152 0.815552 0.964549 0.678828
-121.66 -1.6726 -0.238239 0.81751 1.02157 0.735101
-122.494 -1.73567 -0.244508 0.814693 1.07821 0.795941
-123.412 -1.79859 -0.250231 0.806544 1.13394 0.861508
-124.43 -1.86087 -0.255336 0.792571 1.18812 0.931913
-125.562 -1.92192 -0.259814 0.772387 1.23997 1.00721
-126.825 -1.98109 -0.263776 0.745757 1.2886 1.08731
-120.133 -1.43798 -0.21803 0.79858 0.882515 0.544663
-120.794 -1.49826 -0.225837 0.809654 0.941756 0.592395
-121.504 -1.55966 -0.233453 0.817044 1.00155 0.64455
-122.273 -1.62195 -0.24075 0.820175 1.06152 0.701295
-123.111 -1.68482 -0.247617 0.818418 1.12123 0.762852
-124.03 -1.74788 -0.25395 0.811155 1.18013 0.829419
-125.046 -1.81062 -0.259669 0.797829 1.23753 0.901149
-126.174 -1.87244 -0.264755 0.777986 1.29261 0.97813
-127.431 -1.93262 -0.269294 0.751326 1.34441 1.06031
-128.829 -1.9905 -0.273862 0.717763 1.39191 1.14783
-120.098 -1.32961 -0.210273 0.779197 0.852895 0.464648
-120.734 -1.38723 -0.218718 0.794624 0.913977 0.508248
-121.409 -1.44633 -0.22704 0.807001 0.976084 0.556005
-122.131 -1.50678 -0.235194 0.815724 1.03883 0.608367
-122.908 -1.56843 -0.243059 0.820152 1.10189 0.665542
-123.75 -1.631 -0.250517 0.819602 1.16483 0.727787
-124.671 -1.69409 -0.257455 0.813383 1.22707 0.795344
-125.685 -1.75721 -0.263781 0.800868 1.2879 0.868415
-126.809 -1.81975 -0.269465 0.781525 1.34644 0.94713
-128.06 -1.88099 -0.274594 0.75499 1.40168 1.03149
-129.451 -1.94016 -0.279718 0.721103 1.45247 1.12159
-130.982 -1.99672 -0.286795 0.680074 1.49779 1.21731
-121.353 -1.33408 -0.219223 0.787497 0.945558 0.469978
-122.043 -1.39174 -0.228026 0.801275 1.01047 0.517722
-122.778 -1.45108 -0.236698 0.811449 1.07622 0.570218
-123.564 -1.51193 -0.245118 0.817305 1.1425 0.627749
-124.412 -1.57404 -0.253162 0.818095 1.20888 0.690614
-125.334 -1.63701 -0.260679 0.813055 1.27476 0.759116
-126.346 -1.70039 -0.267595 0.801502 1.33933 0.833534
-127.466 -1.76367 -0.273914 0.782855 1.40156 0.914065
-128.711 -1.82598 -0.279627 0.756598 1.46044 1.00064
-130.095 -1.88648 -0.285293 0.722511 1.5148 1.0935
-131.62 -1.94451 -0.292851 0.680763 1.56346 1.19244
8.28337 -7.88836 -0.212524 -0.916508 0.68152 -0.6057
7.42908 -7.95755 -0.21734 -0.919349 0.723619 -0.647489
6.59698 -8.0316 -0.221771 -0.918443 0.768507 -0.689527
5.79452 -8.11104 -0.22571 -0.913424 0.816203 -0.73157
5.02929 -8.19657 -0.229144 -0.903934 0.866681 -0.773297
4.31108 -8.28892 -0.232053 -0.889637 0.919904 -0.814292
9.09641 -7.90492 -0.214088 -0.932173 0.654876 -0.632119
8.25867 -7.97421 -0.219426 -0.935816 0.697367 -0.675964
7.43836 -8.04835 -0.224448 -0.93562 0.742775 -0.720173
6.64308 -8.12786 -0.229031 -0.931174 0.791142 -0.764449
5.88186 -8.21338 -0.233097 -0.922083 0.842462 -0.808447
5.16506 -8.30563 -0.236585 -0.907939 0.89671 -0.851739
9.95128 -7.92182 -0.215583 -0.945447 0.626745 -0.658705
9.13124 -7.99129 -0.221486 -0.95 0.669601 -0.704663
8.32476 -8.06551 -0.227084 -0.950616 0.715528 -0.751076
7.53924 -8.14502 -0.232267 -0.946846 0.764576 -0.797646
6.78347 -8.2305 -0.23695 -0.938244 0.816761 -0.844016
6.0671 -8.3227 -0.241084 -0.924393 0.872079 -0.889764
5.40187 -8.42238 -0.244594 -0.904987 0.930502 -0.934297
4.80136 -8.53036 -0.24742 -0.879785 0.992031 -0.976912
4.27886 -8.64753 -0.249749 -0.848706 1.05667 -1.0169
10.8487 -7.93905 -0.217003 -0.956166 0.597054 -0.685406
10.0485 -8.00871 -0.223465 -0.961721 0.640254 -0.733534
9.25781 -8.08301 -0.229638 -0.963251 0.686695 -0.782224
8.48364 -8.16254 -0.23542 -0.96027 0.73643 -0.831175
7.73459 -8.24796 -0.240721 -0.952281 0.7895 -0.880019
7.02076 -8.34004 -0.24546 -0.938825 0.845917 -0.928287
6.35369 -8.43959 -0.249577 -0.919519 0.905674 -0.975389
5.74642 -8.54748 -0.253052 -0.894107 0.968752 -1.02062
5.21331 -8.66466 -0.256043 -0.862492 1.03517 -1.06317
11.7895 -7.9566 -0.218334 -0.964168 0.565738 -0.712207
11.0115 -8.02644 -0.225341 -0.970817 0.609253 -0.762566
10.2388 -8.10083 -0.232085 -0.973369 0.656193 -0.813609
9.47781 -8.18037 -0.238464 -0.971297 0.706617 -0.865031
8.73697 -8.26573 -0.24438 -0.964055 0.760583 -0.916458
8.0263 -8.35768 -0.249744 -0.951129 0.818123 -0.967399
7.35756 -8.45706 -0.254489 -0.932086 0.879242 -1.01724
6.74428 -8.5648 -0.25859 -0.906617 0.943934 -1.06523
6.20145 -8.68189 -0.262198 -0.874571 1.01224 -1.1105
12.7744 -7.97442 -0.219553 -0.96928 0.53273 -0.739086
12.0213 -8.04445 -0.227089 -0.977116 0.57652 -0.791744
11.2689 -8.11895 -0.234399 -0.980801 0.623937 -0.84522
10.5233 -8.1985 -0.241369 -0.979768 0.675039 -0.899209
9.79245 -8.28378 -0.247895 -0.973414 0.729908 -0.95333
9.08631 -8.37557 -0.25388 -0.961167 0.788595 -1.00708
8.41681 -8.47475 -0.25925 -0.942533 0.851124 -1.05981
7.79791 -8.58229 -0.263974 -0.91714 0.917508 -1.11073
7.24524 -8.69921 -0.268187 -0.884784 0.987796 -1.15892
13.8041 -7.99248 -0.220636 -0.971322 0.497958 -0.766019
13.0789 -8.0627 -0.228685 -0.980434 0.541971 -0.821046
12.3496 -8.13732 -0.23655 -0.985368 0.58983 -0.877041
11.6217 -8.21689 -0.244104 -0.985507 0.641593 -0.933697
10.9029 -8.30208 -0.251235 -0.980193 0.697364 -0.990631
10.2029 -8.39369 -0.257837 -0.968784 0.757218 -1.04733
9.53379 -8.49263 -0.263827 -0.95072 0.821203 -1.10312
8.90981 -8.59991 -0.269166 -0.925556 0.889353 -1.15716
8.34761 -8.71657 -0.273963 -0.893024 0.961741 -1.20846
7.86509 -8.84355 -0.278481 -0.853092 1.03887 -1.25594
15.5613 -7.94393 -0.212848 -0.956142 0.420772 -0.736739
14.8797 -8.0107 -0.221533 -0.970116 0.461299 -0.792904
14.1852 -8.08116 -0.230099 -0.98058 0.505514 -0.850451
13.482 -8.15592 -0.23851 -0.986877 0.55377 -0.909056
12.7747 -8.23551 -0.246639 -0.988328 0.606167 -0.968484
12.0703 -8.32061 -0.254366 -0.984212 0.662831 -1.02835
11.3784 -8.41202 -0.261578 -0.973813 0.723863 -1.08815
10.711 -8.51068 -0.268182 -0.956494 0.789343 -1.14717
10.0827 -8.61763 -0.274128 -0.931732 0.859332 -1.20454
9.51054 -8.73399 -0.279523 -0.899185 0.933927 -1.2592
9.01408 -8.86077 -0.284606 -0.858754 1.01359 -1.30996
8.61317 -8.99914 -0.292053 -0.810685 1.10018 -1.35567
16.001 -8.02903 -0.222239 -0.965466 0.422719 -0.819896
15.3414 -8.09979 -0.231305 -0.977385 0.467106 -0.879872
14.6677 -8.1747 -0.240237 -0.985178 0.515699 -0.941109
13.984 -8.25431 -0.248922 -0.988084 0.568667 -1.0034
13.2968 -8.33931 -0.25724 -0.985314 0.626173 -1.06639
12.6155 -8.43048 -0.26504 -0.976072 0.688364 -1.12953
11.9519 -8.52881 -0.272238 -0.959654 0.75537 -1.19206
11.3197 -8.63545 -0.278827 -0.935494 0.827296 -1.25295
10.7373 -8.75143 -0.284813 -0.903097 0.904164 -1.31117
10.2265 -8.8779 -0.290442 -0.862295 0.986543 -1.36549
9.80861 -9.01612 -0.298384 -0.813298 1.07623 -1.41457
-71.5411 -4.36322 -0.211119 -4.41515 0.832543 0.0700754
-72.4687 -4.44528 -0.215895 -4.41166 0.889181 0.0725866
-73.3756 -4.53325 -0.2203 -4.41245 0.948155 0.0768199
-74.2586 -4.62753 -0.224233 -4.41824 1.00931 0.082972
-75.1159 -4.72866 -0.227679 -4.42985 1.07243 0.0912584
-75.9455 -4.83709 -0.230609 -4.44823 1.13718 0.101928
-71.5911 -4.33061 -0.212629 -4.46459 0.829412 0.0398458
-72.5193 -4.41145 -0.217924 -4.46182 0.887628 0.0413396
-73.4267 -4.49842 -0.222921 -4.46308 0.948359 0.0445589
-74.3092 -4.59195 -0.227494 -4.46909 1.01144 0.0497497
-75.1639 -4.69249 -0.231567 -4.48073 1.07664 0.0571531
-75.9875 -4.80054 -0.235075 -4.49895 1.14365 0.067039
-71.5902 -4.29838 -0.214081 -4.51636 0.825326 0.00867989
-72.5204 -4.37793 -0.219939 -4.5144 0.885119 0.00910334
-73.4288 -4.46374 -0.22551 -4.51622 0.947614 0.0112903
-74.3112 -4.5563 -0.230683 -4.52255 1.01265 0.0154881
-75.1639 -4.65613 -0.235374 -4.53426 1.08002 0.0219581
-75.9843 -4.76376 -0.23954 -4.5523 1.14942 0.0309803
-76.7711 -4.87961 -0.243098 -4.57776 1.22041 0.0429302
-77.523 -5.00399 -0.245975 -4.61181 1.29245 0.0582856
-78.2426 -5.13723 -0.24828 -4.65566 1.36503 0.0775964
-71.5355 -4.26664 -0.215467 -4.5705 0.820195 -0.023427
-72.4684 -4.34475 -0.221882 -4.56946 0.881578 -0.0241206
-73.3786 -4.42925 -0.228028 -4.57194 0.945869 -0.0230153
-74.2617 -4.52069 -0.233798 -4.57866 1.01292 -0.0198626
-75.1136 -4.61964 -0.239108 -4.59051 1.08252 -0.0143812
-75.9307 -4.72664 -0.243876 -4.60844 1.15436 -0.0062422
-76.711 -4.8422 -0.248037 -4.63357 1.22801 0.00494775
-77.454 -4.96674 -0.251574 -4.66708 1.30293 0.0196552
-78.1621 -5.10057 -0.254554 -4.71026 1.37854 0.0384983
-71.4243 -4.23544 -0.216774 -4.62703 0.813964 -0.0565005
-72.3602 -4.31195 -0.223734 -4.62704 0.876944 -0.0583654
-73.273 -4.39499 -0.230449 -4.63029 0.943059 -0.0583976
-74.1579 -4.48515 -0.236815 -4.63751 1.01217 -0.0563484
-75.0101 -4.58305 -0.242739 -4.64954 1.08408 -0.0519167
-75.8254 -4.68928 -0.248134 -4.66738 1.15847 -0.0447468
-76.6013 -4.80441 -0.252928 -4.69217 1.23491 -0.0344114
-77.3369 -4.9289 -0.257098 -4.72514 1.31284 -0.0204038
-78.0338 -5.06314 -0.260704 -4.76766 1.39166 -0.00205965
-71.2534 -4.20487 -0.21798 -4.68601 0.806577 -0.0905669
-72.1928 -4.27961 -0.22547 -4.6872 0.871155 -0.0936653
-73.109 -4.36102 -0.232748 -4.69135 0.939116 -0.0948986
-73.9966 -4.44972 -0.239704 -4.69915 1.01033 -0.094018
-74.8503 -4.54638 -0.246239 -4.71145 1.0846 -0.0907034
-75.6652 -4.65167 -0.252256 -4.72926 1.16164 -0.0845714
-76.4382 -4.76618 -0.257677 -4.75372 1.241 -0.07516
-77.1675 -4.89047 -0.262476 -4.78615 1.32211 -0.0619207
-77.8542 -5.02495 -0.266695 -4.82794 1.40435 -0.0441398
-71.0195 -4.17499 -0.219062 -4.74743 0.79797 -0.125652
-71.9627 -4.2478 -0.227065 -4.74996 0.864141 -0.130056
-72.883 -4.32739 -0.234898 -4.75516 0.933965 -0.132562
-73.7744 -4.41444 -0.242437 -4.76367 1.00731 -0.132922
-74.6309 -4.50967 -0.249574 -4.77634 1.08402 -0.130799
-75.4469 -4.61381 -0.256207 -4.79417 1.1638 -0.125783
-76.2183 -4.72752 -0.262252 -4.81834 1.24621 -0.117375
-76.9428 -4.85141 -0.267671 -4.85021 1.33067 -0.104982
-77.6205 -4.98594 -0.272482 -4.89125 1.41653 -0.0878202
-78.2539 -5.13147 -0.277091 -4.94296 1.50324 -0.0648476
-69.7559 -4.08121 -0.211358 -4.80907 0.723948 -0.154461
-70.7193 -4.14587 -0.219984 -4.81133 0.787991 -0.161761
-71.6664 -4.21658 -0.228494 -4.81538 0.855829 -0.167575
-72.5915 -4.29418 -0.236869 -4.82178 0.927524 -0.171433
-73.4878 -4.37938 -0.24498 -4.83114 1.00304 -0.173115
-74.3484 -4.47296 -0.252712 -4.84429 1.08223 -0.172266
-75.167 -4.57572 -0.259954 -4.86222 1.16484 -0.168452
-75.9385 -4.68841 -0.266614 -4.88615 1.25044 -0.161137
-76.6598 -4.8117 -0.272644 -4.91746 1.33843 -0.149679
-77.3302 -4.94614 -0.278061 -4.9577 1.42815 -0.133238
-77.9516 -5.09214 -0.283251 -5.00849 1.51893 -0.110703
-78.5287 -5.24998 -0.289359 -5.07137 1.61145 -0.0795586
-70.3493 -4.11757 -0.220718 -4.87771 0.776738 -0.199022
-71.301 -4.18603 -0.229738 -4.88348 0.846138 -0.206189
-72.2317 -4.26141 -0.23863 -4.89126 0.919655 -0.211442
-73.1336 -4.34453 -0.24729 -4.90165 0.997327 -0.214532
-73.9994 -4.43624 -0.255604 -4.91541 1.07907 -0.215102
-74.8214 -4.5374 -0.263436 -4.93355 1.16465 -0.212671
-75.594 -4.64883 -0.270693 -4.95729 1.25361 -0.206604
-76.3145 -4.77137 -0.277372 -4.98806 1.34533 -0.196137
-76.9794 -4.90553 -0.283379 -5.02744 1.43907 -0.1805
-77.5897 -5.0518 -0.289125 -5.07724 1.53425 -0.158474
-78.1501 -5.21054 -0.295742 -5.13913 1.63134 -0.127443
-41.4325 -6.05282 -0.212862 4.329 -0.0269055 0.732017
-42.4857 -6.14542 -0.217748 4.32619 -0.0302131 0.781079
-43.6486 -6.23886 -0.222264 4.32828 -0.03538 0.832157
-44.9297 -6.33308 -0.226311 4.33604 -0.0426174 0.885182
-46.3381 -6.4282 -0.229871 4.3504 -0.0521492 0.940003
-47.8823 -6.52425 -0.232904 4.37238 -0.0642074 0.996395
-40.807 -6.044 -0.214332 4.38168 -0.00130999 0.731514
-41.8356 -6.13608 -0.219739 4.3796 -0.00364617 0.781885
-42.9769 -6.22906 -0.22485 4.38214 -0.00784709 0.834419
-44.2401 -6.32285 -0.22954 4.39011 -0.0141745 0.889022
-45.6344 -6.41743 -0.233728 4.40447 -0.0228815 0.945542
-47.1692 -6.51277 -0.237347 4.42626 -0.0342299 1.00376
-40.2029 -6.03178 -0.215739 4.43686 0.0250245 0.730296
-41.2045 -6.12339 -0.221708 4.43561 0.0237254 0.781981
-42.3214 -6.21589 -0.227397 4.43872 0.0205157 0.835975
-43.5635 -6.30918 -0.23269 4.44699 0.0151302 0.892185
-44.9413 -6.40321 -0.237503 4.4614 0.00729861 0.950466
-46.4645 -6.49805 -0.241796 4.48296 -0.00324707 1.01063
-48.1409 -6.59379 -0.245468 4.5129 -0.0168313 1.07234
-49.9766 -6.69049 -0.248428 4.55251 -0.0338796 1.13525
-51.9762 -6.78861 -0.250704 4.60314 -0.0548657 1.19904
-39.6222 -6.01597 -0.217073 4.49462 0.0520906 0.728281
-40.5943 -6.10711 -0.223599 4.49431 0.0518809 0.781294
-41.684 -6.19912 -0.229863 4.49808 0.0497183 0.836778
-42.9023 -6.2919 -0.235759 4.50674 0.0453359 0.894638
-44.2604 -6.38539 -0.241196 4.52125 0.0384442 0.954739
-45.769 -6.4796 -0.246093 4.54268 0.0287268 1.01687
-47.4372 -6.5746 -0.250374 4.57225 0.0158318 1.08075
-49.2722 -6.67059 -0.254011 4.61126 -0.000657777 1.14601
-51.2789 -6.76795 -0.256979 4.66118 -0.0212806 1.21227
-39.0671 -5.99641 -0.218321 4.55498 0.0799036 0.72543
-40.0071 -6.08704 -0.225391 4.55575 0.0808424 0.779782
-41.0668 -6.17855 -0.232227 4.5603 0.0797904 0.836781
-42.2581 -6.27083 -0.23872 4.56944 0.0764789 0.896332
-43.5934 -6.3638 -0.244778 4.58411 0.070597 0.958312
-45.0842 -6.45743 -0.250308 4.60541 0.0617979 1.02252
-46.7409 -6.55178 -0.25523 4.63459 0.0496895 1.08866
-48.5718 -6.64705 -0.259514 4.67302 0.0338103 1.15637
-50.5826 -6.74359 -0.263124 4.72223 0.0135828 1.22526
-38.5401 -5.97292 -0.219462 4.618 0.10848 0.721694
-39.445 -6.063 -0.227062 4.61998 0.110632 0.777395
-40.4716 -6.15399 -0.234461 4.62544 0.110761 0.835933
-41.6328 -6.24576 -0.241547 4.63516 0.108595 0.897213
-42.9417 -6.33821 -0.248218 4.65008 0.103799 0.961127
-44.4113 -6.43128 -0.254376 4.6713 0.0959943 1.02748
-46.0532 -6.525 -0.259935 4.70011 0.084747 1.09599
-47.8767 -6.61956 -0.264859 4.73794 0.0695517 1.1663
-49.8889 -6.71527 -0.269098 4.78638 0.0497868 1.23796
-38.0434 -5.9453 -0.220474 4.68368 0.137835 0.717021
-38.9104 -6.03478 -0.228588 4.68705 0.141273 0.774079
-39.9007 -6.12523 -0.236541 4.69358 0.14266 0.834177
-41.0282 -6.21648 -0.244209 4.704 0.141721 0.897222
-42.3072 -6.30842 -0.251485 4.71926 0.138096 0.963124
-43.7518 -6.40094 -0.258264 4.74047 0.13137 1.03171
-45.3751 -6.49405 -0.264453 4.76893 0.12107 1.1027
-47.1878 -6.58791 -0.270011 4.80615 0.106644 1.17572
-49.198 -6.68278 -0.274857 4.85379 0.0874024 1.25033
-51.4094 -6.77934 -0.279488 4.91356 0.0622661 1.32644
-36.8627 -5.82564 -0.21261 4.7493 0.161529 0.655899
-37.5798 -5.91334 -0.221334 4.75206 0.167956 0.711279
-38.4058 -6.00216 -0.229942 4.75701 0.172786 0.769774
-39.3566 -6.09204 -0.238436 4.76477 0.175518 0.831451
-40.4467 -6.18277 -0.246675 4.77605 0.175894 0.896294
-41.6917 -6.27419 -0.254545 4.79177 0.173531 0.964234
-43.1073 -6.36618 -0.261938 4.81304 0.167981 1.03512
-44.708 -6.4587 -0.268749 4.84121 0.158729 1.10869
-46.506 -6.55187 -0.274929 4.8778 0.14517 1.18458
-48.511 -6.64596 -0.280396 4.92458 0.126557 1.26233
-50.7278 -6.74161 -0.285628 4.98339 0.101739 1.34177
-53.1572 -6.8396 -0.290519 5.05628 0.068761 1.42338
-37.151 -5.87681 -0.221991 4.82317 0.198957 0.704562
-37.9335 -5.96499 -0.231119 4.82989 0.205123 0.764398
-38.8408 -6.05425 -0.24012 4.83908 0.209245 0.827614
-39.8895 -6.14441 -0.248901 4.85139 0.211029 0.894262
-41.0966 -6.2353 -0.257351 4.86771 0.210077 0.964305
-42.4792 -6.32671 -0.265335 4.88915 0.205898 1.03762
-44.0533 -6.4186 -0.272754 4.91707 0.197862 1.11394
-45.8331 -6.5112 -0.279599 4.95306 0.185227 1.19284
-47.8291 -6.60452 -0.285667 4.99892 0.167326 1.27385
-50.0482 -6.69923 -0.291472 5.05669 0.142901 1.35688
-52.4919 -6.79612 -0.296887 5.12856 0.109889 1.44228
0 0 0 0 0 0
0 0 0 0 0 0
0 0 0 0 0 0
0 0 0 0 0 0
0 0 0 0 0 0
0 0 0 0 0 0
0 0 0 0 0 0
0 0 0 0 0 0
0 0 0 0 0 0
0 0 0 0 0 0
0 0 0 0 0 0
0 0 0 0 0 0
0 0 0 0 0 0
0 0 0 0 0 0
0 0 0 0 0 0
0 0 0 0 0 0
0 0 0 0 0 0
0 0 0 0 0 0
0 0 0 0 0 0
0 0 0 0 0 0
0 0 0 0 0 0
0 0 0 0 0 0
0 0 0 0 0 0
0 0 0 0 0 0
0 0 0 0 0 0
0 0 0 0 0 0
0 0 0 0 0 0
0 0 0 0 0 0
0 0 0 0 0 0
0 0 0 0 0 0
0 0 0 0 0 0
0 0 0 0 0 0
0 0 0 0 0 0
0 0 0 0 0 0
0 0 0 0 0 0
0 0 0 0 0 0
0 0 0 0 0 0
0 0 0 0 0 0
0 0 0 0 0 0
0 0 0 0 0 0
0 0 0 0 0 0
0 0 0 0 0 0
0 0 0 0 0 0
0 0 0 0 0 0
0 0 0 0 0 0
0 0 0 0 0 0
0 0 0 0 0 0
0 0 0 0 0 0
0 0 0 0 0 0
0 0 0 0 0 0
0 0 0 0 0 0
0 0 0 0 0 0
0 0 0 0 0 0
0 0 0 0 0 0
0 0 0 0 0 0
0 0 0 0 0 0
0 0 0 0 0 0
0 0 0 0 0 0
0 0 0 0 0 0
0 0 0 0 0 0
0 0 0 0 0 0
0 0 0 0 0 0
0 0 0 0 0 0
0 0 0 0 0 0
0 0 0 0 0 0
0 0 0 0 0 0
0 0 0 0 0 0
0 0 0 0 0 0
0 0 0 0 0 0
0 0 0 0 0 0
0 0 0 0 0 0
0 0 0 0 0 0
0 0 0 0 0 0
0 0 0 0 0 0
0 0 0 0 0 0
0 0 0 0 0 0
0 0 0 0 0 0
0 0 0 0 0 0
0 0 0 0 0 0
0 0 0 0 0 0
0 0 0 0 0 0
-119.781 -2.59733 -0.213421 1.37624 0.423167 0.398975
-120.908 -2.70284 -0.218356 1.37312 0.449944 0.423037
-122.165 -2.80931 -0.222923 1.36501 0.476644 0.448656
-123.569 -2.91644 -0.22702 1.35147 0.503138 0.475863
-125.138 -3.02398 -0.230629 1.33213 0.529231 0.504657
-126.892 -3.13153 -0.233707 1.30661 0.554668 0.535023
-120.214 -2.53002 -0.21478 1.40466 0.44222 0.383446
-121.333 -2.63367 -0.220235 1.40229 0.470379 0.407749
-122.58 -2.73863 -0.225398 1.39478 0.49854 0.433683
-123.972 -2.84457 -0.230141 1.38165 0.526512 0.461287
-125.526 -2.95111 -0.234384 1.36247 0.554075 0.490567
-127.263 -3.05782 -0.238049 1.33679 0.580964 0.521524
-120.665 -2.45909 -0.216077 1.43012 0.461456 0.367047
-121.777 -2.56079 -0.222094 1.42863 0.49105 0.391571
-123.014 -2.66405 -0.227835 1.42185 0.520688 0.41782
-124.393 -2.76855 -0.233185 1.40926 0.550168 0.445827
-125.931 -2.87397 -0.238057 1.39037 0.579265 0.475607
-127.651 -2.97996 -0.242413 1.36474 0.607736 0.507175
-129.574 -3.086 -0.246143 1.33209 0.635218 0.540518
-131.726 -3.19143 -0.249104 1.29219 0.661298 0.575738
-134.132 -3.29583 -0.251372 1.24511 0.685564 0.612869
-121.133 -2.38447 -0.217303 1.45241 0.480819 0.349726
-122.239 -2.48402 -0.223875 1.45192 0.511895 0.37446
-123.467 -2.58539 -0.230193 1.44601 0.543065 0.401023
-124.832 -2.68831 -0.236148 1.43411 0.57412 0.429437
-126.355 -2.79245 -0.241649 1.41566 0.604829 0.459731
-128.056 -2.89742 -0.24661 1.39017 0.634905 0.491925
-129.96 -3.00274 -0.250946 1.35726 0.664004 0.526035
-132.091 -3.10789 -0.254597 1.31673 0.691727 0.562135
-134.478 -3.21232 -0.257573 1.26861 0.717586 0.60027
-121.62 -2.30606 -0.218443 1.47133 0.500299 0.331444
-122.72 -2.40324 -0.225559 1.47197 0.532909 0.356372
-123.938 -2.50254 -0.232448 1.46707 0.565672 0.383242
-125.291 -2.6037 -0.239004 1.45601 0.598374 0.412066
-126.797 -2.70641 -0.24513 1.43817 0.630775 0.442883
-128.48 -2.81029 -0.25073 1.41299 0.66258 0.475722
-130.362 -2.91486 -0.255714 1.38004 0.693425 0.510609
-132.472 -3.01959 -0.26002 1.33906 0.722879 0.547627
-134.837 -3.12389 -0.263652 1.29 0.750418 0.58683
-122.125 -2.22378 -0.219476 1.48667 0.519885 0.312158
-123.22 -2.31837 -0.227122 1.48856 0.554085 0.337261
-124.429 -2.41537 -0.234576 1.48482 0.588506 0.364426
-125.769 -2.51456 -0.241726 1.47476 0.62293 0.393656
-127.259 -2.61568 -0.248468 1.45771 0.657109 0.425
-128.922 -2.71832 -0.254702 1.43303 0.690737 0.4585
-130.782 -2.82202 -0.26033 1.40022 0.72343 0.494193
-132.868 -2.92622 -0.265289 1.35893 0.75473 0.532174
-135.211 -3.03032 -0.269562 1.30908 0.784077 0.572499
-122.648 -2.13756 -0.220383 1.4982 0.539557 0.291824
-123.739 -2.22929 -0.228542 1.50147 0.57541 0.317074
-124.94 -2.32375 -0.236551 1.49904 0.611561 0.344517
-126.268 -2.42077 -0.244284 1.49016 0.647788 0.374145
-127.741 -2.52007 -0.251635 1.47408 0.683834 0.406019
-129.383 -2.6213 -0.258494 1.4501 0.719385 0.440192
-131.221 -2.72399 -0.264761 1.41761 0.75404 0.476718
-133.282 -2.82755 -0.270364 1.37621 0.787313 0.515702
-135.599 -2.93135 -0.275259 1.32572 0.818592 0.557222
-138.21 -3.03471 -0.279389 1.26625 0.847304 0.602233
-122.19 -1.96179 -0.212393 1.49598 0.522196 0.246973
-123.188 -2.04734 -0.221148 1.50567 0.559228 0.270344
-124.277 -2.1359 -0.229793 1.51045 0.59687 0.295753
-125.471 -2.22757 -0.238342 1.50948 0.63483 0.323453
-126.787 -2.32215 -0.246649 1.50197 0.672945 0.353467
-128.244 -2.41943 -0.254596 1.48707 0.710953 0.385865
-129.865 -2.51905 -0.262073 1.46399 0.748534 0.420721
-131.678 -2.62055 -0.26897 1.43205 0.785277 0.458103
-133.713 -2.72336 -0.275206 1.39074 0.820661 0.498131
-136.004 -2.82681 -0.280735 1.3398 0.854049 0.540905
-138.589 -2.93015 -0.28548 1.27928 0.884778 0.58735
-141.51 -3.03339 -0.291087 1.20971 0.911952 0.638181
-123.747 -1.95294 -0.221705 1.5089 0.579041 0.247708
-124.834 -2.03817 -0.230884 1.51531 0.618369 0.273267
-126.022 -2.12672 -0.239938 1.51598 0.658149 0.301194
-127.327 -2.21856 -0.248781 1.51001 0.698228 0.331565
-128.768 -2.31355 -0.257309 1.49649 0.738344 0.364463
-130.368 -2.41132 -0.26538 1.4745 0.778172 0.399988
-132.156 -2.51143 -0.272889 1.44328 0.817222 0.438248
-134.163 -2.6134 -0.279804 1.40228 0.854837 0.47939
-136.425 -2.71641 -0.285946 1.35109 0.890436 0.523431
-138.982 -2.81964 -0.291274 1.28967 0.923369 0.571422
-141.88 -2.92303 -0.297416 1.2185 0.952606 0.62404
0 0 0 0 0 0
0 0 0 0 0 0
0 0 0 0 0 0
0 0 0 0 0 0
0 0 0 0 0 0
0 0 0 0 0 0
0 0 0 0 0 0
0 0 0 0 0 0
0 0 0 0 0 0
0 0 0 0 0 0
0 0 0 0 0 0
0 0 0 0 0 0
0 0 0 0 0 0
0 0 0 0 0 0
0 0 0 0 0 0
0 0 0 0 0 0
0 0 0 0 0 0
0 0 0 0 0 0
0 0 0 0 0 0
0 0 0 0 0 0
0 0 0 0 0 0
0 0 0 0 0 0
0 0 0 0 0 0
0 0 0 0 0 0
0 0 0 0 0 0
0 0 0 0 0 0
0 0 0 0 0 0
0 0 0 0 0 0
0 0 0 0 0 0
0 0 0 0 0 0
0 0 0 0 0 0
0 0 0 0 0 0
0 0 0 0 0 0
0 0 0 0 0 0
0 0 0 0 0 0
0 0 0 0 0 0
0 0 0 0 0 0
0 0 0 0 0 0
0 0 0 0 0 0
0 0 0 0 0 0
0 0 0 0 0 0
0 0 0 0 0 0
0 0 0 0 0 0
0 0 0 0 0 0
0 0 0 0 0 0
0 0 0 0 0 0
0 0 0 0 0 0
0 0 0 0 0 0
0 0 0 0 0 0
0 0 0 0 0 0
0 0 0 0 0 0
0 0 0 0 0 0
0 0 0 0 0 0
0 0 0 0 0 0
0 0 0 0 0 0
0 0 0 0 0 0
0 0 0 0 0 0
0 0 0 0 0 0
0 0 0 0 0 0
0 0 0 0 0 0
0 0 0 0 0 0
0 0 0 0 0 0
0 0 0 0 0 0
0 0 0 0 0 0
0 0 0 0 0 0
0 0 0 0 0 0
0 0 0 0 0 0
0 0 0 0 0 0
0 0 0 0 0 0
0 0 0 0 0 0
0 0 0 0 0 0
0 0 0 0 0 0
0 0 0 0 0 0
0 0 0 0 0 0
0 0 0 0 0 0
0 0 0 0 0 0
0 0 0 0 0 0
0 0 0 0 0 0
0 0 0 0 0 0
0 0 0 0 0 0
0 0 0 0 0 0
-4.2313 -8.33423 -0.215507 -1.53193 0.316068 -0.286369
-5.53518 -8.44767 -0.220749 -1.52686 0.331358 -0.308519
-6.81602 -8.57046 -0.225631 -1.51636 0.347184 -0.330992
-8.06489 -8.70358 -0.230059 -1.49998 0.36345 -0.353671
-9.27228 -8.8482 -0.234016 -1.47732 0.380037 -0.376381
-10.4257 -9.00557 -0.23745 -1.44801 0.396851 -0.398883
-2.99333 -8.338 -0.217059 -1.56472 0.301703 -0.298648
-4.26509 -8.45024 -0.222829 -1.56039 0.317413 -0.321852
-5.51956 -8.57179 -0.22832 -1.55046 0.333719 -0.345475
-6.74741 -8.70361 -0.233408 -1.53444 0.350529 -0.369348
-7.93765 -8.84684 -0.23801 -1.51187 0.367724 -0.393279
-9.0774 -9.0027 -0.24204 -1.48229 0.38521 -0.417033
-1.69167 -8.34165 -0.218558 -1.59436 0.286474 -0.311008
-2.92916 -8.4527 -0.224895 -1.5909 0.302601 -0.335283
-4.1542 -8.57292 -0.230975 -1.58169 0.319405 -0.360041
-5.35764 -8.70333 -0.236681 -1.56618 0.336782 -0.385119
-6.52868 -8.84508 -0.241925 -1.54384 0.354618 -0.410323
-7.65614 -8.99948 -0.246671 -1.51422 0.372816 -0.435437
-8.72493 -9.16795 -0.250795 -1.47706 0.391258 -0.460076
-9.71815 -9.35184 -0.254104 -1.43213 0.409949 -0.483776
-10.6208 -9.55291 -0.256763 -1.37952 0.4288 -0.506056
-0.324738 -8.34514 -0.219985 -1.62063 0.270319 -0.323393
-1.52469 -8.45496 -0.226887 -1.61818 0.286867 -0.348761
-2.71731 -8.57382 -0.233553 -1.60984 0.304187 -0.374684
-3.89381 -8.70274 -0.239876 -1.59498 0.322161 -0.401007
-5.04358 -8.84292 -0.245761 -1.57303 0.340676 -0.427532
-6.1542 -8.99568 -0.251119 -1.54348 0.359622 -0.453994
-7.21156 -9.16245 -0.255855 -1.50595 0.378883 -0.480035
-8.19991 -9.34483 -0.259876 -1.46024 0.398412 -0.505209
-9.10194 -9.54458 -0.263271 -1.40641 0.418119 -0.528975
1.10876 -8.34847 -0.221327 -1.64331 0.253192 -0.3358
-0.0500641 -8.45703 -0.228782 -1.64202 0.270164 -0.362282
-1.20701 -8.57446 -0.23603 -1.63469 0.288014 -0.389401
-2.35371 -8.70184 -0.242964 -1.62066 0.30661 -0.417007
-3.4798 -8.84036 -0.249486 -1.59928 0.325837 -0.444901
-4.57287 -8.99138 -0.255498 -1.56998 0.34557 -0.472808
-5.61847 -9.1564 -0.2609 -1.53231 0.365679 -0.500355
-6.60013 -9.33708 -0.265597 -1.48601 0.386102 -0.52708
-7.49979 -9.53531 -0.26967 -1.43108 0.406747 -0.552407
2.61012 -8.35162 -0.222562 -1.66219 0.23505 -0.348222
1.4963 -8.45887 -0.230557 -1.66218 0.252436 -0.37584
0.378643 -8.57483 -0.238379 -1.65603 0.270826 -0.404186
-0.735035 -8.70059 -0.245918 -1.643 0.290065 -0.433113
-1.83469 -8.83736 -0.25307 -1.62239 0.310033 -0.462425
-2.90795 -8.98654 -0.25973 -1.59354 0.330596 -0.491839
-3.94005 -9.14967 -0.265793 -1.55592 0.351608 -0.520972
-4.91395 -9.32852 -0.271163 -1.5092 0.372995 -0.549344
-5.81076 -9.52504 -0.2759 -1.45331 0.394652 -0.576339
4.18055 -8.35456 -0.22367 -1.67702 0.21584 -0.360646
3.11601 -8.46045 -0.232188 -1.67843 0.233624 -0.389427
2.04164 -8.57491 -0.240574 -1.67361 0.252555 -0.419032
0.964601 -8.69898 -0.248709 -1.66178 0.272454 -0.449319
-0.105483 -8.83392 -0.256481 -1.64214 0.293194 -0.480098
-1.15634 -8.98114 -0.263781 -1.61395 0.314629 -0.511085
-2.17297 -9.14226 -0.270501 -1.57659 0.336602 -0.541887
-3.13783 -9.31911 -0.276535 -1.52964 0.359026 -0.572005
-4.03085 -9.51372 -0.281918 -1.47296 0.381792 -0.600772
-4.83057 -9.72835 -0.285902 -1.40668 0.405339 -0.627539
6.81006 -8.26011 -0.215547 -1.67913 0.178376 -0.344026
5.82057 -8.35728 -0.224647 -1.6875 0.195444 -0.372999
4.81061 -8.46176 -0.23365 -1.6905 0.213663 -0.403035
3.78398 -8.57466 -0.242587 -1.6872 0.233131 -0.433932
2.74765 -8.697 -0.251304 -1.67676 0.253702 -0.465619
1.7107 -8.83002 -0.259685 -1.6583 0.275239 -0.497915
0.685204 -8.97517 -0.267617 -1.63099 0.297588 -0.530542
-0.313663 -9.13413 -0.274984 -1.59412 0.320582 -0.563098
-1.26793 -9.30882 -0.281674 -1.54716 0.344119 -0.595067
-2.15692 -9.50137 -0.287717 -1.48989 0.36808 -0.625758
-2.95724 -9.71418 -0.29234 -1.42238 0.392831 -0.654427
-3.64637 -9.9515 -0.299519 -1.34529 0.419809 -0.680047
7.53263 -8.35966 -0.225406 -1.69349 0.173852 -0.385444
6.58069 -8.46282 -0.234965 -1.69818 0.192513 -0.4166
5.60699 -8.57411 -0.244412 -1.69658 0.212514 -0.448752
4.61636 -8.69462 -0.25367 -1.68775 0.233754 -0.481857
3.6168 -8.82562 -0.26264 -1.67069 0.256093 -0.515763
2.62034 -8.96857 -0.271182 -1.64447 0.279383 -0.550188
1.64211 -9.12521 -0.279175 -1.60827 0.303455 -0.584667
0.699609 -9.29765 -0.286567 -1.56153 0.328201 -0.618572
-0.18463 -9.48793 -0.293249 -1.50388 0.353393 -0.651266
-0.984775 -9.69869 -0.298481 -1.43526 0.379486 -0.68201
-1.67686 -9.93434 -0.306214 -1.35635 0.407821 -0.709631
-87.882 -4.62722 -0.2139 -4.06181 0.309255 0.0490231
-89.181 -4.75713 -0.219157 -4.06016 0.331282 0.0482668
-90.4678 -4.89696 -0.224071 -4.06517 0.354132 0.0475189
-91.7409 -5.04742 -0.228562 -4.07787 0.377653 0.046787
-93.0007 -5.20935 -0.232613 -4.09941 0.401647 0.0460918
-94.2474 -5.38345 -0.23616 -4.13114 0.425887 0.0454919
-87.9332 -4.56172 -0.215375 -4.12424 0.303263 0.0415781
-89.2169 -4.68913 -0.221166 -4.12333 0.326092 0.0406685
-90.4874 -4.82674 -0.226697 -4.12876 0.349864 0.039737
-91.7422 -4.97528 -0.231855 -4.14157 0.374401 0.038823
-92.9802 -5.13552 -0.236555 -4.16299 0.3995 0.0379562
-94.2002 -5.30823 -0.240707 -4.19438 0.424944 0.037195
-87.9117 -4.49615 -0.216817 -4.18977 0.296664 0.0338065
-89.1813 -4.62088 -0.223176 -4.18971 0.32028 0.0327433
-90.4358 -4.756 -0.229302 -4.19566 0.344955 0.0316643
-91.6724 -4.9023 -0.235084 -4.2087 0.37052 0.0305885
-92.8894 -5.06063 -0.240435 -4.23004 0.396775 0.0295485
-94.0869 -5.23189 -0.245323 -4.26101 0.423511 0.028581
-95.2677 -5.41673 -0.249621 -4.30319 0.450357 0.0278081
-96.4339 -5.61574 -0.253093 -4.35826 0.476891 0.0274378
-97.5963 -5.82966 -0.255966 -4.42794 0.502822 0.0277588
-87.8138 -4.43058 -0.218197 -4.25847 0.289379 0.0257195
-89.0697 -4.5524 -0.225123 -4.25939 0.313781 0.0245048
-90.3089 -4.68478 -0.231839 -4.26599 0.339375 0.0232793
-91.5281 -4.8286 -0.238243 -4.27933 0.365998 0.0220449
-92.7248 -4.98476 -0.244243 -4.30065 0.393449 0.0208336
-93.8981 -5.15415 -0.249748 -4.33134 0.421467 0.019707
-95.0496 -5.33761 -0.254667 -4.37296 0.44971 0.0187798
-96.184 -5.53585 -0.258875 -4.42721 0.477734 0.0182025
-97.3109 -5.74961 -0.26251 -4.49599 0.505213 0.0182932
-87.6357 -4.3651 -0.219504 -4.33041 0.281376 0.0173012
-88.8783 -4.48376 -0.226985 -4.33247 0.306559 0.0159352
-90.1028 -4.61314 -0.234286 -4.33985 0.333084 0.0145649
-91.3054 -4.75421 -0.241307 -4.35359 0.360785 0.0131747
-92.4828 -4.90792 -0.247952 -4.37495 0.389465 0.0117944
-93.6335 -5.07525 -0.254123 -4.40533 0.418844 0.0104858
-94.7584 -5.25708 -0.259726 -4.44634 0.44856 0.00936309
-95.8618 -5.45425 -0.264632 -4.49978 0.478158 0.0085769
-96.9528 -5.66755 -0.268974 -4.56764 0.507287 0.00845117
-87.3736 -4.29982 -0.220717 -4.40564 0.272624 0.00853562
-88.6031 -4.41505 -0.22874 -4.40901 0.298574 0.00701576
-89.8135 -4.54117 -0.236618 -4.41732 0.326032 0.0055018
-91.0003 -4.67919 -0.244247 -4.43159 0.354828 0.00395839
-92.1595 -4.83016 -0.251529 -4.45307 0.384766 0.00241139
-93.2888 -4.99511 -0.25836 -4.48318 0.415558 0.000920252
-94.3881 -5.17503 -0.264642 -4.5236 0.446826 -0.000402181
-95.4612 -5.37085 -0.270242 -4.57619 0.478102 -0.0014048
-96.5167 -5.58344 -0.275272 -4.64304 0.508993 -0.00175448
-87.0231 -4.23486 -0.221816 -4.48423 0.263084 -0.000594225
-88.2397 -4.34638 -0.230365 -4.4891 0.289783 -0.00227375
-89.4367 -4.46894 -0.238808 -4.4985 0.318169 -0.00393148
-90.6086 -4.60361 -0.247035 -4.51344 0.348069 -0.00562533
-91.7508 -4.75151 -0.254944 -4.53514 0.379292 -0.007337
-92.8598 -4.91376 -0.262426 -4.56506 0.411547 -0.00901075
-93.9347 -5.09147 -0.26938 -4.60489 0.444447 -0.0105358
-94.9786 -5.28563 -0.275667 -4.65661 0.477503 -0.011761
-95.9993 -5.4972 -0.281371 -4.72238 0.510283 -0.0123236
-97.0114 -5.72682 -0.285556 -4.80473 0.541972 -0.0121726
-85.3624 -4.07284 -0.213707 -4.56288 0.226939 -0.00839853
-86.5798 -4.1704 -0.222811 -4.5662 0.252633 -0.0101084
-87.7836 -4.27785 -0.231835 -4.5728 0.280138 -0.011957
-88.9677 -4.39654 -0.240829 -4.58349 0.309441 -0.0137601
-90.1258 -4.52753 -0.249641 -4.59927 0.340447 -0.0156012
-91.2521 -4.67202 -0.258164 -4.62132 0.372979 -0.0174752
-92.3421 -4.83124 -0.266286 -4.65111 0.406746 -0.019331
-93.3941 -5.00638 -0.273902 -4.6904 0.441352 -0.0210595
-94.41 -5.19855 -0.280866 -4.74122 0.476291 -0.0225123
-95.397 -5.40885 -0.287261 -4.80584 0.511109 -0.0233208
-96.3695 -5.63795 -0.292119 -4.88695 0.544863 -0.0234204
-97.3562 -5.88842 -0.29896 -4.98753 0.579124 -0.0207157
-86.0399 -4.10636 -0.223597 -4.65164 0.241389 -0.0201164
-87.2316 -4.20964 -0.233179 -4.66016 0.269589 -0.0220134
-88.4034 -4.32409 -0.242683 -4.67238 0.299746 -0.0239129
-89.5483 -4.451 -0.252036 -4.68919 0.331831 -0.0258847
-90.6596 -4.59171 -0.261149 -4.71174 0.365702 -0.0279521
-91.7315 -4.74752 -0.269892 -4.74152 0.40107 -0.0300576
-92.7607 -4.91973 -0.278146 -4.7803 0.437502 -0.0320422
-93.7504 -5.10966 -0.285832 -4.83022 0.474429 -0.0336919
-94.7047 -5.31834 -0.292892 -4.89359 0.511351 -0.0347527
-95.6374 -5.54664 -0.298401 -4.97338 0.54738 -0.0351164
-96.5777 -5.79718 -0.30583 -5.07273 0.583914 -0.0326524
-40.3243 -7.14456 -0.215444 3.96868 0.0104524 0.142766
-41.9682 -7.27455 -0.220876 3.96717 0.009724 0.153309
-43.7783 -7.40707 -0.225968 3.9729 0.0088612 0.164217
-45.7672 -7.5423 -0.230654 3.98696 0.00787269 0.175439
-47.9482 -7.68053 -0.234911 4.01062 0.00675587 0.186885
-50.3331 -7.82203 -0.238672 4.04533 0.00549211 0.198447
-39.2101 -7.12618 -0.216808 4.03433 0.0106797 0.139906
-40.8148 -7.2543 -0.222784 4.03355 0.00999163 0.150849
-42.5901 -7.385 -0.228507 4.03966 0.00919337 0.162231
-44.5493 -7.51835 -0.233872 4.05381 0.0082596 0.173971
-46.7054 -7.65455 -0.238792 4.0773 0.00717499 0.185968
-49.0719 -7.79377 -0.243171 4.1116 0.0059136 0.198124
-38.1166 -7.10293 -0.218135 4.10326 0.0109641 0.136777
-39.6788 -7.2292 -0.224682 4.10332 0.0103263 0.148106
-41.4149 -7.35797 -0.231006 4.10995 0.00956283 0.159939
-43.3394 -7.48935 -0.237006 4.12428 0.00866146 0.172192
-45.4668 -7.62348 -0.24259 4.14764 0.00760661 0.184763
-47.8116 -7.76071 -0.247728 4.18144 0.0064033 0.197571
-50.3845 -7.90145 -0.252267 4.22739 0.00503709 0.210402
-53.1952 -8.04599 -0.256005 4.28726 0.00341696 0.223038
-56.2517 -8.19532 -0.258915 4.36296 0.00159005 0.235372
-37.0463 -7.07457 -0.219392 4.17557 0.011277 0.133315
-38.5619 -7.19892 -0.226507 4.17662 0.0106935 0.145031
-40.2547 -7.32574 -0.233427 4.18388 0.00996882 0.157326
-42.1403 -7.45509 -0.240058 4.19848 0.00910463 0.170106
-44.2346 -7.58713 -0.246304 4.22176 0.00808488 0.183273
-46.5525 -7.72208 -0.252071 4.25521 0.00689358 0.196697
-49.1076 -7.86034 -0.257251 4.30051 0.00551578 0.21021
-51.9105 -8.00248 -0.261757 4.35948 0.00392249 0.223585
-54.9695 -8.14936 -0.265463 4.4342 0.00213515 0.236686
-36.0019 -7.04088 -0.220566 4.25133 0.0116198 0.129505
-37.4669 -7.16326 -0.228238 4.25353 0.0110946 0.141608
-39.1121 -7.28807 -0.235748 4.26155 0.0104142 0.154369
-40.9542 -7.41536 -0.243002 4.27652 0.00959243 0.167689
-43.0105 -7.54525 -0.249904 4.29978 0.0086131 0.181469
-45.2974 -7.67797 -0.256354 4.33285 0.00745831 0.195569
-47.8297 -7.81387 -0.262241 4.37745 0.00611082 0.209813
-50.6197 -7.95354 -0.267474 4.43552 0.00454075 0.223966
-53.6774 -8.09783 -0.27192 4.50922 0.00277235 0.237878
-34.9864 -7.00164 -0.221639 4.3306 0.0119939 0.125331
-36.3966 -7.12197 -0.229852 4.33413 0.0115324 0.137814
-37.9895 -7.24471 -0.237942 4.34306 0.0109015 0.151044
-39.7833 -7.36989 -0.24581 4.35853 0.0101278 0.164913
-41.7966 -7.49761 -0.253359 4.38185 0.00919458 0.179321
-44.0473 -7.62806 -0.260484 4.41458 0.00808179 0.194126
-46.5518 -7.76157 -0.267073 4.4585 0.00677009 0.209141
-49.3243 -7.89871 -0.273027 4.51562 0.00522791 0.224124
-52.3764 -8.04034 -0.278196 4.5882 0.00347823 0.238906
-34.003 -6.9566 -0.22259 4.41345 0.0124008 0.120774
-35.3539 -7.07479 -0.231329 4.4185 0.0120095 0.133628
-36.8898 -7.1954 -0.239984 4.42854 0.0114334 0.147325
-38.6301 -7.31843 -0.248453 4.44464 0.0107139 0.161748
-40.5949 -7.44394 -0.256637 4.46813 0.00983273 0.176801
-42.8039 -7.57208 -0.264427 4.50058 0.00876764 0.192336
-45.2753 -7.70316 -0.271708 4.54382 0.00749746 0.208162
-48.0252 -7.83773 -0.278378 4.59995 0.00598872 0.224029
-51.0665 -7.97664 -0.284257 4.67135 0.00424082 0.239745
-54.4095 -8.12128 -0.289467 4.76065 0.0019869 0.254856
-31.9353 -6.79206 -0.214185 4.49673 0.0131649 0.103313
-33.0567 -6.90555 -0.223446 4.49992 0.0128405 0.115734
-34.3423 -7.02146 -0.232644 4.50674 0.0125271 0.129026
-35.8161 -7.13987 -0.241848 4.51807 0.0120118 0.143186
-37.4974 -7.2607 -0.250903 4.53498 0.0113522 0.158165
-39.408 -7.38395 -0.259706 4.55877 0.0105299 0.173874
-41.5694 -7.50975 -0.268148 4.59102 0.00951909 0.190165
-44.0017 -7.63837 -0.27611 4.63361 0.00829726 0.206842
-46.7233 -7.77033 -0.283483 4.68872 0.00682881 0.223645
-49.7494 -7.90648 -0.290096 4.75884 0.00511199 0.240382
-53.091 -8.04822 -0.296017 4.84678 0.00288277 0.256503
-56.7611 -8.19706 -0.300151 4.95582 0.0016325 0.272566
-32.1469 -6.84817 -0.224077 4.59011 0.013401 0.110336
-33.3654 -6.96183 -0.233827 4.59889 0.0130446 0.123962
-34.771 -7.07794 -0.243531 4.61176 0.012544 0.138531
-36.387 -7.19646 -0.253124 4.62969 0.0119311 0.154045
-38.2371 -7.31739 -0.26252 4.65393 0.0112029 0.170438
-40.3448 -7.44077 -0.271595 4.68608 0.0103249 0.187562
-42.7325 -7.56681 -0.280217 4.72804 0.00920917 0.205181
-45.421 -7.6962 -0.288341 4.78213 0.0077459 0.222974
-48.426 -7.82954 -0.295658 4.85087 0.00605678 0.240726
-51.7621 -7.96824 -0.30228 4.93736 0.00385436 0.257979
-55.4429 -8.1139 -0.307056 5.04505 0.00260884 0.275166
-2.83323 -3.19258 -0.209994 -5.83594 0.398634 0.0109037
-2.17543 -3.06949 -0.215257 -5.81722 0.420356 0.0092418
-1.45202 -2.93501 -0.220209 -5.79217 0.442615 0.00802325
-0.651653 -2.7884 -0.224778 -5.76023 0.465345 0.00734694
0.238064 -2.62899 -0.228917 -5.72083 0.488409 0.00731609
1.2307 -2.45608 -0.232542 -5.67337 0.511647 0.00806888
-2.93822 -3.29916 -0.211275 -5.8302 0.399002 0.0033431
-2.35171 -3.18036 -0.217094 -5.81201 0.421418 0.00134985
-1.70237 -3.05012 -0.222635 -5.78745 0.444449 -0.000237123
-0.979238 -2.90769 -0.227841 -5.75597 0.467982 -0.00127173
-0.168898 -2.75231 -0.232629 -5.717 0.491857 -0.00162535
0.742046 -2.58336 -0.236969 -5.66992 0.515915 -0.00114479
-3.08671 -3.40824 -0.212483 -5.82355 0.398949 -0.00439374
-2.57398 -3.29404 -0.218882 -5.80586 0.422073 -0.00673989
-2.00081 -3.16832 -0.225019 -5.78183 0.445866 -0.00866706
-1.35646 -3.03034 -0.230854 -5.75087 0.470198 -0.010047
-0.627287 -2.87931 -0.236302 -5.71236 0.49491 -0.0107421
0.203225 -2.71444 -0.241225 -5.6657 0.519868 -0.0106224
1.15378 -2.53498 -0.245526 -5.61008 0.544861 -0.009538
2.23975 -2.3404 -0.249289 -5.54495 0.569713 -0.00721574
3.48776 -2.12992 -0.252297 -5.46978 0.594424 -0.003375
-3.27981 -3.51984 -0.213637 -5.8159 0.398411 -0.0122817
-2.84228 -3.41047 -0.220595 -5.79873 0.422261 -0.0149908
-2.34717 -3.28956 -0.227322 -5.77525 0.44684 -0.0172751
-1.78382 -3.15631 -0.233781 -5.74484 0.472001 -0.0190169
-1.13828 -3.00992 -0.239885 -5.70682 0.497588 -0.0200724
-0.394226 -2.84956 -0.245535 -5.66048 0.523427 -0.0202826
0.466976 -2.67447 -0.250635 -5.60514 0.549341 -0.0194691
1.46638 -2.48388 -0.255076 -5.54011 0.575144 -0.0174174
2.62866 -2.27712 -0.258778 -5.46472 0.600829 -0.0138001
-3.51809 -3.63387 -0.214716 -5.80718 0.397358 -0.0203244
-3.15724 -3.52961 -0.222213 -5.79053 0.421949 -0.0234063
-2.74204 -3.41379 -0.229519 -5.76762 0.447337 -0.0260643
-2.2619 -3.28557 -0.236595 -5.73779 0.473361 -0.0281872
-1.70251 -3.1441 -0.243349 -5.70031 0.499863 -0.0296243
-1.04707 -2.98852 -0.24968 -5.65442 0.526662 -0.0302028
-0.276148 -2.818 -0.255488 -5.59938 0.553564 -0.0297263
0.632383 -2.63174 -0.26066 -5.53444 0.580373 -0.0279623
1.70476 -2.42894 -0.265067 -5.45885 0.60707 -0.0245615
-3.8022 -3.7503 -0.215702 -5.79728 0.395754 -0.0285225
-3.51942 -3.65141 -0.223711 -5.78116 0.421101 -0.0319909
-3.18603 -3.54097 -0.231586 -5.75886 0.447322 -0.0350383
-2.79129 -3.41808 -0.239268 -5.72965 0.474242 -0.0375632
-2.32064 -3.28184 -0.246662 -5.69275 0.501701 -0.0394059
-1.7567 -3.13134 -0.253667 -5.64735 0.529507 -0.0403787
-1.07924 -2.9657 -0.260177 -5.59265 0.557452 -0.0402663
-0.265035 -2.78407 -0.266074 -5.52785 0.58533 -0.0388187
0.713566 -2.58552 -0.271199 -5.4521 0.613108 -0.0356571
-4.13281 -3.86904 -0.216574 -5.78614 0.39356 -0.0368785
-3.9295 -3.7758 -0.225068 -5.77055 0.419675 -0.0407479
-3.67977 -3.67105 -0.233496 -5.74886 0.446752 -0.044201
-3.37263 -3.55381 -0.241769 -5.7203 0.474606 -0.0471491
-2.99331 -3.42312 -0.249792 -5.68403 0.503067 -0.0494243
-2.52388 -3.27802 -0.25746 -5.63918 0.53193 -0.0508221
-1.94324 -3.11759 -0.264662 -5.58487 0.560976 -0.0511051
-1.227 -2.94089 -0.271277 -5.52025 0.589989 -0.0500045
-0.347043 -2.74692 -0.277146 -5.44442 0.618914 -0.0471227
0.731687 -2.53465 -0.282188 -5.35639 0.648007 -0.0418623
-4.60122 -4.0665 -0.208309 -5.78344 0.364774 -0.0409674
-4.51041 -3.98994 -0.217275 -5.77367 0.390663 -0.0453868
-4.38818 -3.9027 -0.226258 -5.75858 0.417625 -0.0496818
-4.22391 -3.80397 -0.235219 -5.73753 0.445583 -0.0535566
-4.00653 -3.6927 -0.244066 -5.70966 0.474408 -0.0569487
-3.72117 -3.5679 -0.252704 -5.67407 0.503919 -0.0596853
-3.34942 -3.42855 -0.261022 -5.62981 0.533896 -0.0615446
-2.86915 -3.27366 -0.268904 -5.57595 0.564106 -0.06226
-2.25471 -3.10223 -0.276224 -5.51156 0.594319 -0.0615403
-1.47636 -2.91327 -0.282861 -5.43568 0.624465 -0.0589686
-0.497732 -2.7054 -0.288606 -5.34716 0.65478 -0.0539437
0.732229 -2.47698 -0.292699 -5.2446 0.687876 -0.0443585
-4.93608 -4.11298 -0.217818 -5.75968 0.387167 -0.0541567
-4.89542 -4.0321 -0.227267 -5.74514 0.414885 -0.0587438
-4.81885 -3.93973 -0.236759 -5.72474 0.443693 -0.0629994
-4.69364 -3.83479 -0.246168 -5.69758 0.473493 -0.0668429
-4.50464 -3.71619 -0.255371 -5.66275 0.504118 -0.07011
-4.23309 -3.58285 -0.264251 -5.61921 0.53533 -0.0725479
-3.85669 -3.43376 -0.272747 -5.5659 0.566849 -0.0738074
-3.34848 -3.26795 -0.280779 -5.50175 0.598371 -0.0734816
-2.67655 -3.08438 -0.288192 -5.42577 0.629786 -0.0712298
-1.80196 -2.88152 -0.294743 -5.3368 0.661374 -0.0664081
-0.672218 -2.65734 -0.299533 -5.23328 0.695749 -0.0568897
-106.919 1.21913 -0.212157 -1.19428 0.430461 0.405743
-105.76 1.28548 -0.217406 -1.16297 0.458374 0.429529
-104.44 1.35644 -0.22233 -1.12966 0.486242 0.455136
-102.947 1.43246 -0.226852 -1.09454 0.513935 0.482672
-101.267 1.51396 -0.230926 -1.05786 0.541245 0.512206
-99.3859 1.60141 -0.234467 -1.01995 0.567906 0.543812
-107.625 1.15783 -0.213236 -1.23646 0.449524 0.39234
-106.52 1.22015 -0.219033 -1.20402 0.478841 0.416198
-105.254 1.28695 -0.224541 -1.16944 0.508195 0.441934
-103.815 1.35871 -0.229696 -1.13291 0.537391 0.469669
-102.187 1.43593 -0.234412 -1.09471 0.566205 0.499494
-100.358 1.51904 -0.238647 -1.05515 0.594352 0.531502
-108.352 1.09373 -0.214228 -1.27833 0.468734 0.378224
-107.304 1.15176 -0.220595 -1.24476 0.499486 0.402123
-106.095 1.21424 -0.22669 -1.20895 0.530329 0.427983
-104.712 1.2816 -0.232466 -1.17106 0.561062 0.455918
-103.14 1.35434 -0.237832 -1.13138 0.591443 0.48603
-101.364 1.43309 -0.242658 -1.0903 0.621212 0.518427
-99.3658 1.51838 -0.24682 -1.04832 0.649984 0.553162
-97.1341 1.61066 -0.250363 -1.00583 0.677319 0.590409
-94.6547 1.71095 -0.252937 -0.963624 0.702846 0.630474
-109.099 1.02676 -0.215147 -1.31985 0.488029 0.36336
-108.11 1.08035 -0.222064 -1.28521 0.520264 0.387289
-106.961 1.13832 -0.22874 -1.2482 0.552653 0.41326
-105.638 1.20109 -0.235131 -1.20898 0.584986 0.441383
-104.124 1.26915 -0.241144 -1.16783 0.617009 0.471778
-102.404 1.34307 -0.246676 -1.12513 0.64841 0.504558
-100.46 1.42347 -0.251609 -1.08136 0.678821 0.539835
-98.2781 1.51104 -0.255816 -1.03711 0.707824 0.577762
-95.8423 1.60655 -0.259075 -0.99312 0.734962 0.618673
-109.865 0.956901 -0.215974 -1.36099 0.507393 0.34772
-108.938 1.00589 -0.223418 -1.32533 0.541162 0.371661
-107.851 1.05916 -0.230665 -1.28716 0.575155 0.397726
-106.59 1.11715 -0.237664 -1.24663 0.609157 0.426025
-105.138 1.18034 -0.244318 -1.20403 0.642902 0.456695
-103.478 1.24931 -0.25052 -1.15973 0.676064 0.489869
-101.591 1.3247 -0.25615 -1.11426 0.708248 0.525679
-99.4617 1.40722 -0.261073 -1.0682 0.739006 0.564305
-97.0722 1.49772 -0.265025 -1.02233 0.767839 0.6061
-110.649 0.884129 -0.216689 -1.40173 0.526808 0.331273
-109.786 0.928347 -0.224634 -1.3651 0.562163 0.355202
-108.764 0.976745 -0.232439 -1.32582 0.597825 0.381342
-107.569 1.02975 -0.240035 -1.28402 0.633569 0.4098
-106.182 1.08786 -0.247322 -1.23997 0.669123 0.440733
-104.585 1.15166 -0.254189 -1.19409 0.704142 0.474297
-102.758 1.22181 -0.260511 -1.14688 0.738208 0.510647
-100.685 1.29906 -0.266146 -1.099 0.770837 0.549989
-98.3448 1.38429 -0.2708 -1.05123 0.801485 0.592704
-111.45 0.808431 -0.21727 -1.44203 0.54625 0.313983
-110.652 0.847709 -0.225687 -1.40449 0.583249 0.337873
-109.7 0.891038 -0.234035 -1.36415 0.620647 0.364066
-108.573 0.938862 -0.242214 -1.32111 0.658212 0.392664
-107.255 0.991688 -0.250124 -1.27564 0.695664 0.423844
-105.724 1.0501 -0.257646 -1.22817 0.732646 0.457787
-103.961 1.11477 -0.264651 -1.17923 0.768714 0.49468
-101.947 1.18649 -0.270992 -1.1295 0.803343 0.534753
-99.6608 1.26619 -0.276371 -1.07974 0.835948 0.578411
-97.0856 1.35489 -0.280419 -1.031 0.866001 0.626972
-112.855 0.69936 -0.20876 -1.51703 0.527582 0.273952
-112.266 0.729871 -0.217658 -1.48183 0.565631 0.295771
-111.537 0.763952 -0.226555 -1.44346 0.604396 0.31963
-110.656 0.802014 -0.235425 -1.40212 0.643604 0.345851
-109.601 0.844457 -0.244171 -1.35788 0.683073 0.374566
-108.355 0.89178 -0.252688 -1.31103 0.722517 0.405974
-106.895 0.944571 -0.260855 -1.26198 0.761574 0.440282
-105.2 1.00352 -0.268533 -1.21129 0.799774 0.477711
-103.248 1.06945 -0.275568 -1.15968 0.836547 0.518528
-101.02 1.1433 -0.281695 -1.108 0.871257 0.563157
-98.4922 1.22626 -0.286424 -1.0572 0.903348 0.612946
-95.6541 1.31991 -0.28816 -1.00875 0.932064 0.670132
-113.094 0.648282 -0.217871 -1.52109 0.58511 0.276631
-112.438 0.677049 -0.227215 -1.48205 0.625528 0.300458
-111.631 0.709604 -0.236604 -1.43975 0.666542 0.326673
-110.653 0.746429 -0.245907 -1.39436 0.707981 0.355465
-109.482 0.788076 -0.25499 -1.34614 0.749565 0.387058
-108.096 0.835135 -0.263721 -1.29551 0.790901 0.421693
-106.473 0.888211 -0.272014 -1.24303 0.83145 0.459654
-104.588 0.948035 -0.27975 -1.1895 0.870517 0.501263
-102.42 1.01565 -0.286638 -1.13584 0.907468 0.546889
-99.9451 1.09238 -0.292157 -1.08306 0.941718 0.597983
-97.148 1.18006 -0.294557 -1.03257 0.972458 0.656796
SCALARS STRAIN double 6
LOOKUP_TABLE default
0.000119499 0.000440507 -0.000737163 1.20186e-05 0.000332329 6.06846e-05
0.000111212 0.000447317 -0.000726698 1.39073e-05 0.000324948 5.72021e-05
0.000102245 0.000454214 -0.000714773 1.58518e-05 0.000316902 5.34486e-05
9.25473e-05 0.000461204 -0.000701259 1.78536e-05 0.000308218 4.94095e-05
8.20606e-05 0.000468286 -0.000686021 1.99016e-05 0.000298938 4.50747e-05
7.07293e-05 0.000475464 -0.000668924 2.19787e-05 0.000289114 4.04325e-05
0.000124889 0.000433635 -0.000742228 1.15664e-05 0.000343379 6.18167e-05
0.000116914 0.000440099 -0.000732214 1.35215e-05 0.000335767 5.8372e-05
0.000108262 0.000446647 -0.000720742 1.55457e-05 0.000327453 5.46531e-05
9.88755e-05 0.000453284 -0.000707683 1.76284e-05 0.000318459 5.06452e-05
8.86974e-05 0.000460014 -0.000692896 1.97548e-05 0.000308828 4.63382e-05
7.7669e-05 0.000466834 -0.000676244 2.19081e-05 0.000298615 4.17177e-05
0.000130508 0.000426401 -0.00074743 1.11005e-05 0.000354257 6.30164e-05
0.000122865 0.000432497 -0.000737886 1.31215e-05 0.000346422 5.96144e-05
0.000114544 0.000438679 -0.000726891 1.52162e-05 0.000337853 5.59324e-05
0.000105488 0.000444948 -0.000714312 1.73733e-05 0.000328567 5.19586e-05
9.56373e-05 0.000451306 -0.000700001 1.95781e-05 0.000318605 4.76816e-05
8.49286e-05 0.000457769 -0.000683808 2.1822e-05 0.000308037 4.30871e-05
7.32934e-05 0.000464328 -0.000665553 2.40799e-05 0.000296963 3.81704e-05
6.06601e-05 0.000470987 -0.000645099 2.63224e-05 0.000285463 3.29095e-05
4.69496e-05 0.000477785 -0.000622271 2.85445e-05 0.000273717 2.72839e-05
0.000136358 0.000418796 -0.000752763 1.06088e-05 0.000364948 6.42864e-05
0.000129064 0.000424506 -0.000743708 1.26961e-05 0.000356907 6.09298e-05
0.000121093 0.000430303 -0.000733212 1.48618e-05 0.000348098 5.72873e-05
0.000112388 0.000436186 -0.000721137 1.70946e-05 0.000338531 5.33501e-05
0.000102884 0.000442156 -0.000707326 1.938e-05 0.000328247 4.91053e-05
9.25147e-05 0.000448215 -0.000691616 2.17007e-05 0.00031731 4.45402e-05
8.12103e-05 0.000454369 -0.000673838 2.40382e-05 0.000305813 3.96419e-05
6.88961e-05 0.00046063 -0.000653819 2.63719e-05 0.000293877 3.43965e-05
5.54865e-05 0.000467017 -0.000631377 2.86897e-05 0.000281664 2.87785e-05
0.000142439 0.00041081 -0.000758217 1.00897e-05 0.00037544 6.56276e-05
0.000135512 0.000416116 -0.000749669 1.22432e-05 0.00036721 6.23194e-05
0.000127912 0.00042151 -0.000739695 1.44807e-05 0.000358176 5.87193e-05
0.000119576 0.00042699 -0.000728148 1.67907e-05 0.000348342 5.48211e-05
0.00011044 0.000432553 -0.000714864 1.91586e-05 0.000337746 5.06108e-05
0.000100434 0.0004382 -0.000699671 2.15667e-05 0.000326452 4.60748e-05
8.94827e-05 0.000443937 -0.00068239 2.39947e-05 0.000314554 4.11998e-05
7.75083e-05 0.000449774 -0.000662835 2.64209e-05 0.000302176 3.59705e-05
6.44201e-05 0.000455729 -0.000640805 2.88325e-05 0.000289483 3.036e-05
0.000148751 0.000402436 -0.00076378 9.54115e-06 0.000385717 6.70411e-05
0.000142212 0.000407318 -0.000755759 1.1761e-05 0.000377318 6.37847e-05
0.000135001 0.000412291 -0.00074633 1.40708e-05 0.000368076 6.023e-05
0.000127057 0.000417347 -0.000735336 1.64595e-05 0.00035799 5.63734e-05
0.000118311 0.000422485 -0.000722608 1.89122e-05 0.000347094 5.22e-05
0.00010869 0.000427701 -0.000707961 2.141e-05 0.000335452 4.76954e-05
9.8115e-05 0.000433001 -0.000691205 2.39318e-05 0.000323157 4.28453e-05
8.65034e-05 0.000438394 -0.000672145 2.64546e-05 0.000310339 3.7633e-05
7.37591e-05 0.000443896 -0.000650557 2.89638e-05 0.000297163 3.20298e-05
0.000155295 0.000393665 -0.000769443 8.96124e-06 0.000395763 6.85281e-05
0.000149162 0.000398104 -0.000761967 1.12471e-05 0.000387216 6.53273e-05
0.000142363 0.000402634 -0.000753105 1.363e-05 0.000377785 6.1821e-05
0.000134833 0.000407249 -0.000742692 1.60989e-05 0.000367463 5.80088e-05
0.0001265 0.00041194 -0.000730547 1.86386e-05 0.000356281 5.38748e-05
0.000117288 0.000416706 -0.000716477 2.12292e-05 0.0003443 4.94038e-05
0.000107114 0.000421548 -0.00070028 2.38483e-05 0.000331616 4.45804e-05
9.58897e-05 0.000426476 -0.000681745 2.64716e-05 0.000318359 3.93867e-05
8.35132e-05 0.000431507 -0.000660638 2.90836e-05 0.000304689 3.37919e-05
6.98648e-05 0.000436665 -0.000636694 3.1679e-05 0.000290838 2.77205e-05
0.000167172 0.000380621 -0.000780885 6.10197e-06 0.000413302 7.29933e-05
0.00016207 0.000384494 -0.000775191 8.33624e-06 0.000405558 7.01007e-05
0.000156365 0.000388463 -0.000768279 1.06992e-05 0.000396888 6.69492e-05
0.000149999 0.00039253 -0.000760009 1.31557e-05 0.000387289 6.34945e-05
0.000142905 0.000396681 -0.000750203 1.57065e-05 0.000376751 5.97293e-05
0.00013501 0.000400907 -0.000738673 1.83356e-05 0.000365297 5.56372e-05
0.000126233 0.000405201 -0.000725212 2.10221e-05 0.000352988 5.12022e-05
0.000116487 0.000409564 -0.000709607 2.37421e-05 0.00033992 4.64076e-05
0.000105676 0.000414005 -0.000691631 2.64703e-05 0.000326228 4.1234e-05
9.36931e-05 0.000418536 -0.000671039 2.91876e-05 0.000312086 3.56488e-05
8.04123e-05 0.000423186 -0.000647531 3.18932e-05 0.000297701 2.9576e-05
6.55804e-05 0.000427992 -0.00062065 3.4726e-05 0.000283396 2.27078e-05
0.000169075 0.000374903 -0.000781005 7.6984e-06 0.000415087 7.17524e-05
0.00016382 0.000378385 -0.000774684 1.01013e-05 0.000406327 6.86491e-05
0.00015791 0.000381964 -0.000767029 1.26161e-05 0.00039658 6.52489e-05
0.000151277 0.000385628 -0.000757859 1.52451e-05 0.000385845 6.15352e-05
0.000143846 0.000389372 -0.000746974 1.7975e-05 0.000374138 5.74896e-05
0.000135532 0.000393183 -0.000734158 2.07797e-05 0.000361513 5.30942e-05
0.000126241 0.000397052 -0.000719181 2.36236e-05 0.000348065 4.83296e-05
0.000115872 0.000400976 -0.000701796 2.64614e-05 0.000333936 4.31707e-05
0.00010431 0.000404975 -0.000681749 2.92832e-05 0.000319316 3.76001e-05
9.14243e-05 0.000409083 -0.000658722 3.20922e-05 0.000304424 3.15263e-05
7.69495e-05 0.000413342 -0.00063222 3.50349e-05 0.000289557 2.4645e-05
0.000133492 0.000395935 -0.000747368 5.56443e-05 0.000271524 2.34066e-05
0.00012686 0.000401155 -0.000738688 6.05691e-05 0.000265123 1.90856e-05
0.000119675 0.000406471 -0.000728791 6.55045e-05 0.000258234 1.4395e-05
0.000111892 0.000411892 -0.000717573 7.04165e-05 0.000250892 9.29854e-06
0.000103464 0.000417425 -0.000704929 7.52593e-05 0.000243144 3.7715e-06
9.43474e-05 0.000423082 -0.000690752 7.99754e-05 0.000235045 -2.2134e-06
0.000137958 0.000390532 -0.000752149 5.80471e-05 0.000280918 2.62664e-05
0.000131594 0.000395458 -0.000743865 6.32116e-05 0.000274298 2.19921e-05
0.000124677 0.00040047 -0.000734364 6.84052e-05 0.000267164 1.73434e-05
0.000117161 0.00040558 -0.00072354 7.35809e-05 0.000259543 1.22832e-05
0.000108999 0.0004108 -0.000711284 7.86864e-05 0.000251487 6.78353e-06
0.000100144 0.000416138 -0.000697489 8.36611e-05 0.000243052 8.13666e-07
0.000142618 0.000384845 -0.000757065 6.04604e-05 0.000290213 2.92655e-05
0.000136537 0.000389457 -0.000749195 6.58709e-05 0.000283381 2.50447e-05
0.000129904 0.000394153 -0.000740109 7.13206e-05 0.000276009 2.04401e-05
0.000122671 0.000398941 -0.000729702 7.67621e-05 0.000268122 1.54198e-05
0.00011479 0.000403832 -0.000717855 8.21406e-05 0.000259771 9.95288e-06
0.000106211 0.000408849 -0.000704452 8.73998e-05 0.000251028 4.00493e-06
9.6878e-05 0.000413994 -0.000689354 9.24619e-05 0.000241991 -2.4548e-06
8.67358e-05 0.000419283 -0.000672461 9.72368e-05 0.000232733 -9.48372e-06
7.57344e-05 0.000424769 -0.000653654 0.00010164 0.00022342 -1.71644e-05
0.000147473 0.000378866 -0.00076211 6.28727e-05 0.000299399 3.24099e-05
0.00014169 0.000383149 -0.00075467 6.85361e-05 0.000292367 2.82461e-05
0.000135356 0.000387514 -0.00074602 7.42505e-05 0.000284767 2.36902e-05
0.000128424 0.000391966 -0.000736049 7.99681e-05 0.000276622 1.87138e-05
0.000120841 0.000396514 -0.000724633 8.5632e-05 0.00026798 1.32831e-05
0.000112555 0.000401169 -0.000711644 9.11754e-05 0.000258913 7.36182e-06
0.000103509 0.000405948 -0.000696951 9.65215e-05 0.000249511 9.09191e-07
9.36451e-05 0.000410876 -0.000680426 0.000101583 0.000239887 -6.1287e-06
8.29095e-05 0.000415982 -0.000661945 0.000106264 0.000230194 -1.38413e-05
0.000152523 0.000372589 -0.000767273 6.52814e-05 0.000308468 3.57047e-05
0.000147055 0.000376529 -0.000760281 7.12044e-05 0.000301249 3.16013e-05
0.000141037 0.000380548 -0.000752087 7.71927e-05 0.000293432 2.7099e-05
0.000134421 0.000384649 -0.000742575 8.31975e-05 0.000285037 2.21709e-05
0.000127155 0.000388838 -0.000731613 8.916e-05 0.000276111 1.67804e-05
0.000119181 0.000393125 -0.000719066 9.50093e-05 0.000266726 1.08876e-05
0.000110441 0.000397527 -0.000704796 0.000100663 0.000256976 4.44816e-06
0.000100874 0.000402067 -0.000688663 0.000106027 0.00024698 -2.59636e-06
9.04215e-05 0.000406774 -0.000670527 0.000110997 0.000236892 -1.03419e-05
0.000157769 0.000366006 -0.000772547 6.76828e-05 0.000317412 3.91545e-05
0.000152631 0.000369588 -0.000766019 7.38724e-05 0.000310019 3.51162e-05
0.000146947 0.000373246 -0.000758302 8.01441e-05 0.000301998 3.06722e-05
0.000140666 0.000376981 -0.000749271 8.64481e-05 0.000293362 2.5797e-05
0.000133734 0.000380795 -0.000738788 9.27234e-05 0.000284159 2.04515e-05
0.000126092 0.000384698 -0.000726709 9.8895e-05 0.000274461 1.45921e-05
0.000117678 0.000388705 -0.000712885 0.000104874 0.000264364 8.16974e-06
0.000108427 0.000392839 -0.000697169 0.000110561 0.000253994 1.12147e-06
9.82774e-05 0.000397128 -0.000679404 0.000115841 0.000243505 -6.65558e-06
0.00016321 0.000359111 -0.000777922 7.00726e-05 0.00032622 4.27651e-05
0.00015842 0.00036232 -0.000771875 7.65363e-05 0.000318669 3.87972e-05
0.000153088 0.000365601 -0.000764656 8.31012e-05 0.000310456 3.44163e-05
0.000147161 0.000368953 -0.00075613 8.97169e-05 0.000301591 2.95987e-05
0.000140583 0.000372377 -0.000746151 9.63203e-05 0.000292118 2.43035e-05
0.000133294 0.000375879 -0.000734565 0.000102832 0.000282111 1.84829e-05
0.000125226 0.000379473 -0.000721215 0.000109157 0.000271669 1.20825e-05
0.000116313 0.000383181 -0.000705942 0.000115188 0.000260923 5.03415e-06
0.000106485 0.000387036 -0.000688579 0.000120804 0.000250022 -2.7679e-06
9.5669e-05 0.000391078 -0.000668961 0.000125895 0.000239175 -1.16089e-05
0.000172782 0.00034916 -0.000787895 6.58474e-05 0.000341845 5.00958e-05
0.000168847 0.000351905 -0.000783385 7.24344e-05 0.000334876 4.65507e-05
0.000164422 0.000354717 -0.000777837 7.91918e-05 0.000327187 4.26514e-05
0.000159461 0.000357605 -0.000771138 8.60602e-05 0.000318798 3.83381e-05
0.000153908 0.000360558 -0.000763141 9.30003e-05 0.000309716 3.35827e-05
0.000147705 0.000363575 -0.000753693 9.99477e-05 0.000299984 2.83432e-05
0.000140789 0.000366658 -0.000742628 0.000106819 0.000289672 2.25684e-05
0.000133091 0.00036982 -0.00072978 0.000113513 0.000278887 1.61962e-05
0.000124537 0.000373083 -0.000714977 0.000119911 0.000267762 9.15205e-06
0.000115054 0.000376478 -0.000698046 0.000125885 0.000256464 1.328e-06
0.000104563 0.000380048 -0.000678788 0.000131321 0.000245185 -7.56864e-06
9.31372e-05 0.00038385 -0.00065706 0.000136064 0.000234237 -1.81487e-05
0.000174678 0.000344364 -0.000788919 7.48006e-05 0.000343372 5.05119e-05
0.000170638 0.000346772 -0.000783895 8.18237e-05 0.000335575 4.6681e-05
0.000166066 0.000349245 -0.000777738 8.89902e-05 0.000327022 4.244e-05
0.000160908 0.00035178 -0.000770295 9.62627e-05 0.000317736 3.77544e-05
0.000155102 0.000354376 -0.000761405 0.000103579 0.000307753 3.25806e-05
0.000148584 0.000357034 -0.000750892 0.00011085 0.000297144 2.68621e-05
0.000141278 0.000359754 -0.000738577 0.000117955 0.000286011 2.05248e-05
0.000133108 0.000362546 -0.000724271 0.000124747 0.000274503 1.34814e-05
0.000123995 0.000365446 -0.000707793 0.000131099 0.000262801 5.63674e-06
0.000113852 0.00036851 -0.000688933 0.000136892 0.000251107 -3.32085e-06
0.000102751 0.0003718 -0.000667516 0.000141964 0.000239718 -1.40109e-05
0 0 0 0 0 0
0 0 0 0 0 0
0 0 0 0 0 0
0 0 0 0 0 0
0 0 0 0 0 0
0 0 0 0 0 0
0 0 0 0 0 0
0 0 0 0 0 0
0 0 0 0 0 0
0 0 0 0 0 0
0 0 0 0 0 0
0 0 0 0 0 0
0 0 0 0 0 0
0 0 0 0 0 0
0 0 0 0 0 0
0 0 0 0 0 0
0 0 0 0 0 0
0 0 0 0 0 0
0 0 0 0 0 0
0 0 0 0 0 0
0 0 0 0 0 0
0 0 0 0 0 0
0 0 0 0 0 0
0 0 0 0 0 0
0 0 0 0 0 0
0 0 0 0 0 0
0 0 0 0 0 0
0 0 0 0 0 0
0 0 0 0 0 0
0 0 0 0 0 0
0 0 0 0 0 0
0 0 0 0 0 0
0 0 0 0 0 0
0 0 0 0 0 0
0 0 0 0 0 0
0 0 0 0 0 0
0 0 0 0 0 0
0 0 0 0 0 0
0 0 0 0 0 0
0 0 0 0 0 0
0 0 0 0 0 0
0 0 0 0 0 0
0 0 0 0 0 0
0 0 0 0 0 0
0 0 0 0 0 0
0 0 0 0 0 0
0 0 0 0 0 0
0 0 0 0 0 0
0 0 0 0 0 0
0 0 0 0 0 0
0 0 0 0 0 0
0 0 0 0 0 0
0 0 0 0 0 0
0 0 0 0 0 0
0 0 0 0 0 0
0 0 0 0 0 0
0 0 0 0 0 0
0 0 0 0 0 0
0 0 0 0 0 0
0 0 0 0 0 0
0 0 0 0 0 0
0 0 0 0 0 0
0 0 0 0 0 0
0 0 0 0 0 0
0 0 0 0 0 0
0 0 0 0 0 0
0 0 0 0 0 0
0 0 0 0 0 0
0 0 0 0 0 0
0 0 0 0 0 0
0 0 0 0 0 0
0 0 0 0 0 0
0 0 0 0 0 0
0 0 0 0 0 0
0 0 0 0 0 0
0 0 0 0 0 0
0 0 0 0 0 0
0 0 0 0 0 0
0 0 0 0 0 0
0 0 0 0 0 0
0 0 0 0 0 0
0.000170858 0.000352342 -0.000758491 9.57544e-05 0.000211783 -2.10271e-05
0.000165903 0.000356028 -0.000751818 0.000102547 0.000206303 -2.96478e-05
0.000160505 0.000359817 -0.000744184 0.000109355 0.000200513 -3.89485e-05
0.000154629 0.000363724 -0.00073551 0.000116144 0.000194451 -4.89566e-05
0.000148237 0.000367766 -0.000725718 0.000122862 0.00018817 -5.96943e-05
0.000141294 0.00037196 -0.000714731 0.000129444 0.000181727 -7.11821e-05
0.000174554 0.000348425 -0.000763007 9.93921e-05 0.0002195 -1.68998e-05
0.000169819 0.000351868 -0.000756679 0.000106513 0.000213814 -2.55029e-05
0.000164643 0.000355402 -0.000749387 0.000113667 0.000207797 -3.48044e-05
0.00015899 0.000359044 -0.000741053 0.000120808 0.000201484 -4.48368e-05
0.00015282 0.000362814 -0.000731593 0.000127878 0.000194932 -5.56272e-05
0.000146096 0.000366729 -0.000720932 0.000134808 0.000188202 -6.72007e-05
0.000178404 0.0003443 -0.000767654 0.000103044 0.000227192 -1.25494e-05
0.000173901 0.000347485 -0.000761686 0.000110501 0.000221302 -2.11251e-05
0.00016896 0.000350755 -0.000754754 0.000118004 0.000215061 -3.04227e-05
0.000163542 0.000354124 -0.000746777 0.000125504 0.000208506 -4.04765e-05
0.000157607 0.000357611 -0.000737668 0.00013294 0.000201692 -5.1318e-05
0.000151116 0.000361244 -0.000727342 0.000140247 0.000194696 -6.29765e-05
0.000144025 0.000365038 -0.000715694 0.000147338 0.000187611 -7.54695e-05
0.000136295 0.000369021 -0.000702662 0.000154112 0.000180509 -8.88244e-05
0.000127897 0.000373253 -0.000688181 0.000160469 0.000173535 -0.000103087
0.000182406 0.000339963 -0.000772424 0.000106698 0.000234855 -7.96833e-06
0.00017815 0.00034288 -0.000766832 0.000114502 0.000228768 -1.65102e-05
0.000173456 0.000345874 -0.000760277 0.000122366 0.00022231 -2.5798e-05
0.000168287 0.00034896 -0.000752677 0.000130239 0.000215515 -3.5868e-05
0.000162601 0.000352151 -0.000743938 0.000138059 0.000208439 -4.67571e-05
0.000156357 0.000355469 -0.000733964 0.00014575 0.000201158 -5.8498e-05
0.00014951 0.00035894 -0.000722661 0.000153226 0.000193762 -7.11181e-05
0.000142019 0.000362599 -0.000709944 0.000160386 0.000186359 -8.46447e-05
0.000133852 0.000366488 -0.000695741 0.000167118 0.000179083 -9.91304e-05
0.000186563 0.000335408 -0.000777312 0.000110349 0.000242485 -3.15033e-06
0.000182565 0.000338046 -0.00077211 0.000118511 0.00023621 -1.16501e-05
0.000178132 0.000340755 -0.000765951 0.00012675 0.000229541 -2.0921e-05
0.000173227 0.000343545 -0.000758746 0.000135013 0.00022251 -3.10011e-05
0.000167805 0.000346429 -0.000750396 0.000143234 0.000215174 -4.1933e-05
0.000161824 0.000349426 -0.0007408 0.000151336 0.000207611 -5.3755e-05
0.000155237 0.000352564 -0.000729856 0.000159224 0.000199916 -6.65002e-05
0.000148001 0.000355876 -0.000717473 0.000166793 0.000192202 -8.0203e-05
0.00014008 0.000359405 -0.000703564 0.00017392 0.000184609 -9.49217e-05
0.000190872 0.000330632 -0.00078231 0.000113992 0.000250079 1.9121e-06
0.000187147 0.00033298 -0.000777513 0.000122524 0.000243625 -6.53613e-06
0.00018299 0.000335392 -0.000771768 0.000131153 0.000236752 -1.57815e-05
0.000178363 0.000337874 -0.000764978 0.000139822 0.000229489 -2.58644e-05
0.000173221 0.000340439 -0.000757038 0.000148465 0.000221895 -3.68333e-05
0.00016752 0.000343103 -0.00074784 0.000156998 0.00021405 -4.87332e-05
0.000161209 0.000345892 -0.000737277 0.000165325 0.000206053 -6.16039e-05
0.000154244 0.000348841 -0.000725247 0.000173328 0.000198024 -7.5487e-05
0.000146586 0.000351992 -0.000711652 0.000180877 0.000190106 -9.04484e-05
0.000195334 0.000325628 -0.000787407 0.00011762 0.000257633 7.22707e-06
0.000191895 0.000327676 -0.000783031 0.000126536 0.00025101 -1.15881e-06
0.00018803 0.000329779 -0.000777719 0.000135569 0.000243942 -1.03689e-05
0.000183696 0.000331943 -0.000771364 0.000144662 0.000236453 -2.04458e-05
0.000178851 0.000334175 -0.000763857 0.000153747 0.000228603 -3.14448e-05
0.000173445 0.000336492 -0.00075508 0.000162738 0.000220474 -4.34182e-05
0.000167429 0.000338918 -0.00074492 0.000171528 0.000212172 -5.64134e-05
0.000160753 0.000341487 -0.000733264 0.000179995 0.000203822 -7.04802e-05
0.000153376 0.000344246 -0.000720011 0.000187998 0.000195566 -8.56922e-05
0.000145319 0.000347248 -0.000705111 0.00019538 0.000187589 -0.000102229
0.000202703 0.000318714 -0.000795698 0.000112088 0.000271396 2.03754e-05
0.000199949 0.0003204 -0.000792595 0.000121217 0.000265138 1.28109e-05
0.000196811 0.000322128 -0.000788655 0.000130539 0.000258361 4.49208e-06
0.000193251 0.000323911 -0.000783795 0.000139993 0.000251106 -4.67166e-06
0.000189228 0.000325744 -0.000777898 0.00014953 0.000243398 -1.47325e-05
0.000184696 0.000327632 -0.000770846 0.00015908 0.000235296 -2.57533e-05
0.000179605 0.000329588 -0.000762515 0.000168552 0.000226884 -3.7794e-05
0.000173902 0.000331635 -0.00075278 0.000177836 0.000218273 -5.09114e-05
0.000167534 0.000333807 -0.000741523 0.000186799 0.000209596 -6.51644e-05
0.000160456 0.000336149 -0.000728634 0.000195289 0.00020101 -8.0635e-05
0.000152687 0.000338724 -0.000714041 0.00020314 0.000192691 -9.75096e-05
0.000144262 0.000341599 -0.000697766 0.000210169 0.000184894 -0.000116104
0.000204715 0.000314924 -0.000797855 0.00012481 0.000272591 1.86641e-05
0.000201893 0.000316332 -0.000794376 0.000134518 0.000265686 1.04195e-05
0.000198656 0.00031778 -0.000789989 0.000144394 0.00025825 1.31627e-06
0.00019496 0.000319268 -0.000784571 0.00015439 0.000250328 -8.71273e-06
0.00019076 0.000320802 -0.000777998 0.000164436 0.000241976 -1.97408e-05
0.000186002 0.000322392 -0.000770137 0.000174435 0.00023328 -3.18387e-05
0.000180632 0.000324052 -0.000760855 0.000184262 0.000224352 -4.50764e-05
0.000174592 0.000325804 -0.000750018 0.000193755 0.000215338 -5.95263e-05
0.000167835 0.000327701 -0.000737512 0.000202762 0.000206413 -7.52602e-05
0.000160379 0.000329813 -0.000723256 0.000211115 0.000197763 -9.2491e-05
0.000152244 0.000332225 -0.000707248 0.000218611 0.000189636 -0.000111539
0.000180986 0.000330701 -0.000764193 0.000115915 0.000182253 -4.02639e-05
0.000176929 0.000333632 -0.000758466 0.000123796 0.000177237 -4.94536e-05
0.000172489 0.000336671 -0.000751901 0.000131662 0.000171994 -5.93641e-05
0.000167633 0.000339836 -0.000744431 0.000139463 0.000166565 -7.00314e-05
0.000162329 0.000343145 -0.000735991 0.000147129 0.000161002 -8.14808e-05
0.000156543 0.000346621 -0.00072652 0.000154575 0.000155366 -9.37332e-05
0.000184163 0.000327523 -0.000768588 0.000120309 0.000189159 -3.57056e-05
0.000180307 0.000330239 -0.000763181 0.000128577 0.000183943 -4.48848e-05
0.00017607 0.000333048 -0.000756931 0.00013685 0.000178484 -5.48044e-05
0.000171419 0.00033597 -0.000749774 0.000145065 0.000172818 -6.55047e-05
0.000166319 0.000339029 -0.000741638 0.000153143 0.000167004 -7.70164e-05
0.000160736 0.000342246 -0.000732465 0.000160994 0.000161105 -8.93661e-05
0.000187473 0.000324177 -0.000773112 0.000124707 0.000196077 -3.0898e-05
0.000183829 0.000326663 -0.000768039 0.000133375 0.000190662 -4.00574e-05
0.000179807 0.000329235 -0.000762122 0.000142061 0.000184988 -4.99814e-05
0.000175372 0.00033191 -0.000755293 0.000150698 0.000179092 -6.0711e-05
0.000170489 0.000334709 -0.00074748 0.000159206 0.000173033 -7.22826e-05
0.000165121 0.000337665 -0.000738612 0.000167498 0.000166889 -8.47289e-05
0.000159231 0.000340798 -0.000728603 0.000175469 0.000160749 -9.80742e-05
0.000152783 0.000344141 -0.000717411 0.000182996 0.000154682 -0.000112346
0.00014576 0.00034776 -0.000704995 0.000189954 0.000148821 -0.000127588
0.000190917 0.000320657 -0.000777759 0.000129097 0.000203005 -2.58326e-05
0.000187497 0.000322906 -0.000773035 0.000138177 0.000197397 -3.49654e-05
0.000183701 0.000325232 -0.000767466 0.000147293 0.000191512 -4.48876e-05
0.000179494 0.000327649 -0.000760984 0.000156372 0.000185387 -5.56414e-05
0.000174841 0.000330178 -0.000753509 0.000165332 0.000179081 -6.72691e-05
0.000169701 0.000332843 -0.000744963 0.000174075 0.000172672 -7.98093e-05
0.000164038 0.000335675 -0.000735269 0.000182494 0.000166247 -9.32958e-05
0.000157814 0.000338715 -0.000724363 0.000190463 0.00015991 -0.000107757
0.000151009 0.000342009 -0.0007122 0.000197844 0.000153786 -0.000123247
0.000194495 0.000316961 -0.000782522 0.000133473 0.000209942 -2.05011e-05
0.00019131 0.000318963 -0.000778161 0.00014298 0.000204148 -2.95994e-05
0.000187752 0.000321034 -0.000772958 0.000152541 0.000198056 -3.95123e-05
0.000183787 0.000323184 -0.00076684 0.000162083 0.000191703 -5.02838e-05
0.000179376 0.000325433 -0.000759722 0.000171517 0.000185151 -6.19628e-05
0.00017448 0.000327802 -0.00075152 0.000180743 0.000178478 -7.45947e-05
0.000169058 0.000330324 -0.000742154 0.000189642 0.000171778 -8.82202e-05
0.000163072 0.000333037 -0.00073155 0.00019808 0.000165161 -0.000102876
0.000156499 0.000335991 -0.000719654 0.00020591 0.000158757 -0.000118623
0.000198206 0.000313083 -0.000787395 0.000137828 0.000216889 -1.48943e-05
0.000195269 0.000314831 -0.00078341 0.000147777 0.000210915 -2.39488e-05
0.000191962 0.000316637 -0.000778591 0.000157802 0.000204621 -3.38436e-05
0.000188251 0.000318511 -0.000772855 0.000167827 0.000198043 -4.46252e-05
0.000184097 0.000320469 -0.000766113 0.000177761 0.000191243 -5.63494e-05
0.000179459 0.000322531 -0.000758276 0.000187496 0.000184304 -6.9069e-05
0.000174293 0.000324729 -0.000749255 0.000196905 0.000177325 -8.28331e-05
0.00016856 0.000327102 -0.000738972 0.000205845 0.000170422 -9.76866e-05
0.000162234 0.000329699 -0.000727362 0.000214156 0.000163728 -0.000113701
0.00020205 0.000309021 -0.000792367 0.000142154 0.000223844 -9.00229e-06
0.000199372 0.000310505 -0.000788774 0.000152561 0.000217697 -1.80021e-05
0.00019633 0.000312038 -0.000784357 0.000163069 0.000211208 -2.78689e-05
0.000192888 0.000313626 -0.000779023 0.0001736 0.000204408 -3.8652e-05
0.000189005 0.000315282 -0.000772678 0.00018406 0.00019736 -5.04139e-05
0.00018464 0.000317025 -0.000765225 0.000194334 0.000190152 -6.32159e-05
0.000179747 0.000318885 -0.00075657 0.000204286 0.000182888 -7.71165e-05
0.000174284 0.000320903 -0.000746628 0.000213763 0.000175691 -9.21708e-05
0.000168221 0.00032313 -0.000735326 0.000222593 0.000168694 -0.000108458
0.000161599 0.000325629 -0.000722653 0.000230572 0.000162066 -0.000126081
0.000208103 0.000303604 -0.000799876 0.000135741 0.000236685 5.3364e-06
0.000206025 0.000304777 -0.000797432 0.000146432 0.0002308 -2.80832e-06
0.000203621 0.000305981 -0.000794245 0.000157322 0.000224495 -1.17469e-05
0.000200857 0.000307231 -0.000790247 0.000168333 0.000217817 -2.15747e-05
0.000197698 0.000308523 -0.000785336 0.000179396 0.000210798 -3.23493e-05
0.000194102 0.000309868 -0.000779409 0.00019041 0.000203504 -4.41402e-05
0.000190026 0.00031128 -0.000772363 0.000201255 0.000196024 -5.70173e-05
0.000185422 0.000312789 -0.000764096 0.000211788 0.000188469 -7.10508e-05
0.000180247 0.000314435 -0.000754514 0.00022184 0.00018097 -8.63073e-05
0.000174465 0.00031627 -0.000743542 0.000231228 0.000173677 -0.000102875
0.000168115 0.000318363 -0.000731147 0.000239736 0.000166747 -0.000120865
0.000161283 0.00032079 -0.000717449 0.000247154 0.000160424 -0.000140574
0.000210132 0.000300328 -0.00080257 0.000150689 0.00023776 3.69145e-06
0.000208014 0.000301256 -0.000799814 0.000162045 0.000231318 -5.17926e-06
0.000205544 0.00030221 -0.000796255 0.000173564 0.000224453 -1.4954e-05
0.000202683 0.000303195 -0.000791786 0.000185177 0.000217219 -2.57035e-05
0.00019939 0.00030422 -0.0007863 0.000196783 0.000209678 -3.75072e-05
0.00019562 0.000305299 -0.000779685 0.000208254 0.000201923 -5.04472e-05
0.000191324 0.00030645 -0.000771829 0.000219425 0.000194067 -6.46106e-05
0.000186454 0.000307704 -0.000762628 0.000230095 0.000186254 -8.00795e-05
0.000180972 0.000309118 -0.000752001 0.000240077 0.000178652 -9.6934e-05
0.000174914 0.000310773 -0.000739911 0.000249148 0.000171431 -0.000115309
0.000168361 0.00031276 -0.000726456 0.000257078 0.000164825 -0.00013552
0.000185409 0.000309236 -0.000769048 0.000124765 0.000152374 -4.24181e-05
0.000182071 0.000311424 -0.000764232 0.000133429 0.000147807 -5.13914e-05
0.000178409 0.000313725 -0.000758701 0.000142065 0.000143095 -6.11134e-05
0.000174397 0.000316159 -0.0007524 0.000150612 0.000138281 -7.16321e-05
0.000170007 0.000318747 -0.000745279 0.000158995 0.000133422 -8.29817e-05
0.00016521 0.000321516 -0.00073729 0.000167123 0.000128575 -9.51905e-05
0.000188213 0.000306799 -0.000773318 0.000130153 0.000158491 -3.73572e-05
0.000185049 0.000308799 -0.000768795 0.000139256 0.000153731 -4.63018e-05
0.000181563 0.000310895 -0.000763552 0.000148351 0.000148813 -5.6014e-05
0.000177728 0.00031311 -0.000757534 0.000157367 0.000143778 -6.65469e-05
0.000173515 0.00031547 -0.000750689 0.000166219 0.000138686 -7.79414e-05
0.000168897 0.000318002 -0.000742969 0.000174809 0.0001336 -9.02329e-05
0.000191133 0.000304232 -0.000777716 0.000135564 0.000164659 -3.20391e-05
0.000188152 0.000306032 -0.0007735 0.000145119 0.000159705 -4.09434e-05
0.000184852 0.000307918 -0.00076856 0.000154683 0.00015458 -5.06405e-05
0.000181204 0.000309911 -0.000762842 0.000164179 0.000149328 -6.11828e-05
0.00017718 0.000312036 -0.000756287 0.000173521 0.000144007 -7.26178e-05
0.000172751 0.000314329 -0.000748842 0.000182612 0.000138698 -8.49886e-05
0.000167885 0.000316813 -0.000740439 0.00019133 0.000133487 -9.83288e-05
0.000162557 0.000319529 -0.000731054 0.000199541 0.000128437 -0.000112675
0.000156765 0.000322544 -0.000720671 0.000207107 0.000123675 -0.000128068
0.00019417 0.000301531 -0.000782236 0.000140986 0.000170878 -2.64545e-05
0.000191382 0.000303125 -0.000778341 0.000151009 0.000165734 -3.53109e-05
0.000188277 0.000304794 -0.000773719 0.000161059 0.000160405 -4.49847e-05
0.000184828 0.000306557 -0.000768316 0.000171057 0.000154934 -5.55296e-05
0.000181004 0.000308438 -0.000762067 0.000180913 0.000149382 -6.69997e-05
0.000176774 0.000310464 -0.000754912 0.000190519 0.000143828 -7.94452e-05
0.000172108 0.000312671 -0.000746793 0.000199751 0.000138359 -9.29113e-05
0.000166979 0.000315104 -0.000737664 0.000208469 0.000133072 -0.000107438
0.000161384 0.000317814 -0.000727508 0.00021652 0.000128083 -0.000123074
0.000197322 0.000298694 -0.000786873 0.000146413 0.000177151 -2.05946e-05
0.000194738 0.000300074 -0.000783311 0.00015692 0.000171821 -2.93942e-05
0.00019184 0.000301519 -0.000779024 0.000167475 0.000166291 -3.90355e-05
0.0001886 0.000303045 -0.000773952 0.000177999 0.0001606 -4.95747e-05
0.000184987 0.000304673 -0.000768027 0.000188395 0.000154815 -6.1073e-05
0.000180971 0.000306429 -0.000761182 0.00019855 0.000149016 -7.35893e-05
0.000176518 0.000308349 -0.000753357 0.000208331 0.000143296 -8.71771e-05
0.0001716 0.000310479 -0.000744499 0.000217587 0.000137759 -0.000101886
0.000166214 0.000312871 -0.000734583 0.000226152 0.000132527 -0.000117775
0.000200591 0.000295716 -0.00079162 0.00015184 0.000183481 -1.44499e-05
0.000198221 0.000296877 -0.000788405 0.000162847 0.00017797 -2.31824e-05
0.00019554 0.000298091 -0.000784469 0.000173928 0.00017224 -3.27809e-05
0.000192521 0.000299372 -0.000779745 0.000185001 0.00016633 -4.33048e-05
0.000189132 0.000300738 -0.00077416 0.000195965 0.000160308 -5.4823e-05
0.000185341 0.000302214 -0.000767644 0.000206701 0.00015426 -6.74034e-05
0.000181115 0.000303836 -0.000760129 0.000217065 0.000148283 -8.111e-05
0.000176423 0.000305649 -0.000751559 0.000226897 0.000142489 -9.60024e-05
0.000171258 0.000307707 -0.000741897 0.000236014 0.000137004 -0.000112151
0.000203974 0.000292595 -0.000796469 0.000157257 0.000189869 -8.01023e-06
0.00020183 0.00029353 -0.000793614 0.000168782 0.000184183 -1.66636e-05
0.000199379 0.000294507 -0.000790046 0.000180411 0.000178257 -2.62079e-05
0.000196593 0.000295535 -0.000785689 0.000192059 0.000172128 -3.67057e-05
0.00019344 0.000296631 -0.000780463 0.000203621 0.000165867 -4.82338e-05
0.000189888 0.000297818 -0.000774294 0.000214972 0.000159564 -6.08702e-05
0.000185902 0.00029913 -0.000767107 0.000225958 0.000153322 -7.46907e-05
0.00018145 0.000300612 -0.000758841 0.000236405 0.000147262 -8.97666e-05
0.000176522 0.000302324 -0.000749456 0.000246119 0.000141511 -0.000106178
0.000171157 0.000304332 -0.000738976 0.000254907 0.00013622 -0.000124041
0.000209105 0.000288661 -0.000803243 0.00015078 0.000201838 6.49891e-06
0.000207473 0.000289336 -0.000801411 0.000162645 0.000196311 -1.25952e-06
0.000205565 0.000290031 -0.000798931 0.000174718 0.000190462 -9.82532e-06
0.000203355 0.000290763 -0.000795749 0.000186918 0.000184344 -1.9303e-05
0.000200815 0.000291532 -0.000791776 0.000199167 0.000177998 -2.97627e-05
0.000197913 0.000292349 -0.00078693 0.00021136 0.000171497 -4.1289e-05
0.000194613 0.000293237 -0.000781127 0.000223362 0.000164933 -5.39708e-05
0.000190882 0.000294227 -0.000774288 0.000235011 0.000158419 -6.78979e-05
0.000186685 0.000295364 -0.000766344 0.000246119 0.000152083 -8.31557e-05
0.000182009 0.000296709 -0.000757253 0.000256477 0.000146066 -9.9834e-05
0.000176892 0.000298335 -0.000747022 0.000265874 0.000140517 -0.000118061
0.000171542 0.000300326 -0.00073584 0.000274049 0.000135652 -0.000137917
0.000211086 0.000285914 -0.00080643 0.000168032 0.000202814 5.8073e-06
0.000209426 0.000286377 -0.000804349 0.000180638 0.00019682 -2.66314e-06
0.000207471 0.000286855 -0.000801569 0.000193416 0.00019051 -1.20589e-05
0.00020519 0.000287354 -0.000798001 0.00020629 0.000183947 -2.2462e-05
0.000202551 0.000287887 -0.000793555 0.000219154 0.000177202 -3.39672e-05
0.00019952 0.000288474 -0.00078814 0.000231866 0.000170373 -4.66769e-05
0.000196059 0.000289138 -0.000781671 0.000244242 0.000163574 -6.07024e-05
0.000192132 0.000289912 -0.000774066 0.00025606 0.000156946 -7.61491e-05
0.000187727 0.000290862 -0.000765282 0.000267104 0.000150652 -9.30993e-05
0.000182875 0.000292075 -0.000755323 0.000277154 0.00014485 -0.000111709
0.000177786 0.00029365 -0.000744361 0.000285924 0.000139751 -0.000132077
0.00021527 0.000287917 -0.00077416 0.000133253 0.00012266 -4.75629e-05
0.000212701 0.00028937 -0.000770317 0.000142445 0.00011853 -5.74629e-05
0.000209857 0.00029094 -0.000765885 0.000151627 0.00011434 -6.81775e-05
0.000206715 0.000292652 -0.000760821 0.000160744 0.000110135 -7.97475e-05
0.00020325 0.000294527 -0.000755085 0.000169725 0.000105971 -9.22025e-05
0.00019944 0.000296598 -0.000748646 0.000178477 0.000101909 -0.000105565
0.000217715 0.000286224 -0.000778306 0.00013911 0.00012797 -4.20349e-05
0.000215298 0.000287517 -0.000774731 0.000148766 0.000123654 -5.19153e-05
0.000212608 0.000288908 -0.000770561 0.000158434 0.000119266 -6.26338e-05
0.000209622 0.000290424 -0.000765754 0.000168046 0.000114853 -7.42373e-05
0.000206315 0.000292095 -0.000760267 0.000177524 0.000110475 -8.67628e-05
0.000202663 0.000293951 -0.000754071 0.000186772 0.000106197 -0.00010024
0.000220258 0.00028444 -0.000782577 0.000145002 0.000133369 -3.62248e-05
0.000218001 0.000285562 -0.000779284 0.000155135 0.000128863 -4.60734e-05
0.000215474 0.000286771 -0.00077539 0.000165297 0.000124277 -5.67898e-05
0.000212652 0.000288091 -0.000770854 0.000175419 0.000119657 -6.84229e-05
0.000209512 0.000289551 -0.000765631 0.000185417 0.000115067 -8.10162e-05
0.000206028 0.000291189 -0.000759682 0.000195197 0.000110586 -9.46059e-05
0.000202175 0.000293036 -0.000752956 0.000204634 0.000106298 -0.000109211
0.000197931 0.000295135 -0.000745444 0.000213591 0.000102264 -0.000124838
0.000193301 0.000297558 -0.000737146 0.000221931 9.85996e-05 -0.000141455
0.000222898 0.000282561 -0.000786969 0.000150917 0.000138861 -3.01226e-05
0.00022081 0.000283508 -0.00078397 0.000161543 0.000134167 -3.9931e-05
0.000218455 0.00028453 -0.000780367 0.000172218 0.000129383 -5.06372e-05
0.000215808 0.000285648 -0.000776117 0.000182871 0.000124553 -6.2293e-05
0.000212844 0.00028689 -0.000771171 0.000193414 0.000119746 -7.49489e-05
0.000209538 0.000288287 -0.000765483 0.000203742 0.00011504 -8.86482e-05
0.000205863 0.000289879 -0.000759013 0.00021373 0.00011052 -0.000103421
0.000201799 0.000291717 -0.000751731 0.000223236 0.000106279 -0.000119277
0.000197347 0.000293856 -0.000743638 0.000232104 0.000102425 -0.000136191
0.000225635 0.000280586 -0.000791478 0.00015685 0.000144452 -2.37191e-05
0.000223726 0.000281353 -0.000788785 0.000167985 0.000139572 -3.34771e-05
0.000221551 0.000282182 -0.000785487 0.000179193 0.000134589 -4.41633e-05
0.000219088 0.000283093 -0.000781538 0.0001904 0.000129548 -5.58332e-05
0.000216312 0.000284109 -0.000776884 0.000201515 0.000124519 -6.85452e-05
0.000213195 0.000285263 -0.000771476 0.000212427 0.000119585 -8.23509e-05
0.000209711 0.000286593 -0.00076527 0.000223003 0.000114837 -9.72889e-05
0.000205836 0.00028815 -0.000758232 0.00023309 0.000110376 -0.000113378
0.000201573 0.000289993 -0.000750356 0.000242519 0.000106315 -0.000130603
0.000228468 0.000278512 -0.000796096 0.000162794 0.000150146 -1.70044e-05
0.000226746 0.000279094 -0.000793721 0.000174456 0.000145084 -2.66998e-05
0.000224763 0.000279727 -0.000790744 0.000186218 0.000139901 -3.73548e-05
0.000222495 0.000280424 -0.000787111 0.000198003 0.000134646 -4.90288e-05
0.000219916 0.000281209 -0.000782766 0.000209718 0.00012939 -6.17887e-05
0.000216999 0.000282111 -0.000777654 0.000221246 0.000124222 -7.56954e-05
0.000213717 0.000283169 -0.000771727 0.000232446 0.000119238 -9.07977e-05
0.000210046 0.000284434 -0.000764948 0.000243153 0.000114548 -0.000107124
0.000205984 0.000285965 -0.000757301 0.000253184 0.000110269 -0.000124671
0.000231397 0.000276336 -0.000800816 0.000168741 0.000155948 -9.96738e-06
0.000229872 0.000276731 -0.000798773 0.000180948 0.000150707 -1.95865e-05
0.00022809 0.000277161 -0.000796133 0.000193287 0.000145327 -3.01973e-05
0.000226027 0.00027764 -0.000792833 0.000205677 0.000139855 -4.18636e-05
0.000223657 0.000278187 -0.000788814 0.000218022 0.000134368 -5.46613e-05
0.000220953 0.000278829 -0.000784014 0.000230201 0.000128958 -6.86618e-05
0.000217885 0.000279605 -0.000778382 0.000242064 0.000123729 -8.39256e-05
0.000214429 0.000280566 -0.000771876 0.000253435 0.000118799 -0.000100493
0.000210582 0.000281775 -0.000764477 0.000264113 0.000114288 -0.000118369
0.000206389 0.000283307 -0.000756235 0.000273898 0.000110336 -0.000137511
0.000235508 0.000273879 -0.000806779 0.000162116 0.000167045 6.03368e-06
0.000234421 0.000274064 -0.00080563 0.00017467 0.000161857 -2.5907e-06
0.000233103 0.000274259 -0.000803932 0.000187455 0.000156447 -1.21237e-05
0.000231533 0.000274484 -0.000801645 0.000200393 0.000150871 -2.26759e-05
0.000229686 0.00027474 -0.000798697 0.000213416 0.000145183 -3.43208e-05
0.000227537 0.000275042 -0.000795021 0.000226424 0.00013946 -4.71442e-05
0.000225057 0.000275417 -0.000790552 0.000239292 0.000133799 -6.12289e-05
0.000222217 0.0002759 -0.000785233 0.000251861 0.000128315 -7.66492e-05
0.00021899 0.000276544 -0.000779015 0.000263942 0.000123134 -9.3459e-05
0.000215371 0.000277413 -0.000771879 0.000275319 0.000118388 -0.000111674
0.000211405 0.000278588 -0.000763863 0.000285773 0.000114219 -0.00013126
0.000207263 0.000280158 -0.000755152 0.000295029 0.000110807 -0.00015184
0.000237539 0.000271672 -0.000810522 0.000180611 0.000167886 5.13016e-06
0.000236439 0.00027168 -0.000809193 0.000193959 0.000162319 -4.30636e-06
0.000235091 0.000271692 -0.000807275 0.000207506 0.000156546 -1.47818e-05
0.000233472 0.000271717 -0.000804696 0.000221186 0.000150637 -2.63849e-05
0.000231555 0.000271771 -0.000801383 0.0002349 0.000144673 -3.92139e-05
0.000229313 0.000271879 -0.000797264 0.000248514 0.000138755 -5.33664e-05
0.000226713 0.000272067 -0.000792277 0.000261851 0.000133001 -6.89366e-05
0.00022373 0.000272377 -0.000786364 0.000274692 0.000127549 -8.5998e-05
0.000220356 0.00027288 -0.000779504 0.000286815 0.000122557 -0.000104559
0.000216632 0.000273669 -0.000771733 0.000297991 0.000118171 -0.000124612
0.000212733 0.000274849 -0.000763223 0.000307915 0.000114573 -0.000145792
0.000219889 0.000266672 -0.000779923 0.000146052 9.32957e-05 -6.43491e-05
0.000218132 0.000267394 -0.000777076 0.000155641 8.95941e-05 -7.54402e-05
0.000216162 0.000268237 -0.000773763 0.000165212 8.59145e-05 -8.74002e-05
0.000213959 0.00026923 -0.000769953 0.00017471 8.23044e-05 -0.000100261
0.000211505 0.000270397 -0.000765621 0.00018406 7.88213e-05 -0.000114046
0.000208781 0.000271774 -0.000760747 0.000193167 7.55247e-05 -0.000128767
0.000221937 0.000265724 -0.000783955 0.000152189 9.77973e-05 -5.85511e-05
0.000220307 0.000266313 -0.000781352 0.000162257 9.39151e-05 -6.96449e-05
0.000218465 0.000267003 -0.000778277 0.000172329 9.00469e-05 -8.16345e-05
0.000216395 0.000267825 -0.000774699 0.000182336 8.62413e-05 -9.45593e-05
0.000214075 0.00026881 -0.000770591 0.000192194 8.25605e-05 -0.000108448
0.000211486 0.000269994 -0.000765934 0.000201806 7.90701e-05 -0.000123321
0.000224064 0.000264723 -0.000788111 0.000158356 0.000102425 -5.2443e-05
0.000222568 0.000265171 -0.000785765 0.000168919 9.83578e-05 -6.35282e-05
0.000220862 0.000265707 -0.00078294 0.000179501 9.42981e-05 -7.55419e-05
0.000218931 0.000266359 -0.000779608 0.000190031 9.02964e-05 -8.8527e-05
0.000216753 0.000267158 -0.000775735 0.000200422 8.64183e-05 -0.00010252
0.000214309 0.000268146 -0.0007713 0.000210574 8.27429e-05 -0.000117546
0.000211578 0.000269359 -0.000766265 0.000220366 7.93512e-05 -0.00013361
0.000208542 0.000270846 -0.000760633 0.000229656 7.63028e-05 -0.000150685
0.000205197 0.000272682 -0.000754414 0.000238292 7.37017e-05 -0.000168657
0.00022627 0.000263667 -0.000792386 0.000164541 0.000107188 -4.6014e-05
0.000224914 0.000263971 -0.000790309 0.000175616 0.000102934 -5.70823e-05
0.000223353 0.00026435 -0.000787748 0.000186728 9.86811e-05 -6.91129e-05
0.000221569 0.000264828 -0.000784674 0.000197804 9.44787e-05 -8.21525e-05
0.000219542 0.000265435 -0.000781051 0.000208752 9.03967e-05 -9.62447e-05
0.000217251 0.000266208 -0.000776849 0.000219465 8.65139e-05 -0.000111423
0.000214676 0.000267191 -0.000772042 0.000229816 8.29151e-05 -0.000127701
0.000211798 0.000268437 -0.000766616 0.00023966 7.96879e-05 -0.000145055
0.000208613 0.000270009 -0.00076058 0.00024883 7.69308e-05 -0.000163379
0.000228554 0.000262555 -0.000796776 0.000170737 0.000112092 -3.9254e-05
0.000227347 0.000262712 -0.000794979 0.000182342 0.000107653 -5.02949e-05
0.000225938 0.00026293 -0.000792696 0.000194006 0.000103204 -6.23333e-05
0.000224309 0.000263231 -0.000789894 0.000205652 9.87965e-05 -7.542e-05
0.000222441 0.000263641 -0.000786534 0.000217186 9.45036e-05 -8.96067e-05
0.000220314 0.000264197 -0.000782582 0.000228495 9.04092e-05 -0.000104935
0.000217904 0.000264942 -0.000778011 0.000239443 8.66044e-05 -0.000121427
0.000215195 0.000265932 -0.000772802 0.000249875 8.31846e-05 -0.000139067
0.000212179 0.000267229 -0.00076696 0.000259609 8.02528e-05 -0.000157758
0.000230916 0.000261384 -0.000801275 0.000176938 0.000117147 -3.21515e-05
0.000229866 0.000261394 -0.000799769 0.000189091 0.000112523 -4.31527e-05
0.000228617 0.000261449 -0.000797779 0.00020133 0.000107876 -5.51879e-05
0.000227152 0.000261568 -0.000795263 0.000213573 0.000103259 -6.83126e-05
0.000225453 0.000261776 -0.000792181 0.000225723 9.87477e-05 -8.2587e-05
0.000223497 0.000262108 -0.000788495 0.000237661 9.44328e-05 -9.80622e-05
0.000221264 0.000262608 -0.000784172 0.000249243 9.04117e-05 -0.00011477
0.000218734 0.00026333 -0.000779193 0.000260302 8.67881e-05 -0.000132703
0.000215899 0.00026434 -0.000773556 0.000270643 8.36704e-05 -0.000151777
0.000233356 0.000260154 -0.000805876 0.000183135 0.000122359 -2.46941e-05
0.000232469 0.000260014 -0.000804674 0.000195857 0.000117552 -3.56414e-05
0.000231389 0.000259904 -0.000802991 0.000208694 0.000112706 -4.76607e-05
0.000230097 0.000259838 -0.000800777 0.000221562 0.000107874 -6.08122e-05
0.000228576 0.000259841 -0.000797989 0.000234361 0.000103138 -7.51657e-05
0.000226803 0.000259943 -0.000794583 0.000246964 9.85931e-05 -9.07825e-05
0.000224756 0.000260188 -0.000790524 0.00025922 9.43444e-05 -0.000107705
0.000222416 0.000260632 -0.000785788 0.00027095 9.05046e-05 -0.00012594
0.000219774 0.000261346 -0.00078037 0.000281943 8.71863e-05 -0.000145409
0.000216882 0.000262407 -0.000774327 0.000291956 8.45142e-05 -0.000165855
0.000236413 0.000259169 -0.000811006 0.000176202 0.000132585 -6.9738e-06
0.000235872 0.00025887 -0.00081057 0.000189306 0.00012773 -1.68627e-05
0.000235157 0.000258571 -0.000809687 0.00020263 0.000122748 -2.77457e-05
0.000234254 0.000258294 -0.000808326 0.000216091 0.000117703 -3.97344e-05
0.000233145 0.000258042 -0.000806431 0.000229615 0.000112654 -5.28997e-05
0.000231812 0.000257835 -0.000803953 0.000243095 0.000107686 -6.73216e-05
0.000230232 0.000257702 -0.000800843 0.000256403 0.0001029 -8.30726e-05
0.000228383 0.000257685 -0.000797063 0.000269378 9.84107e-05 -0.000100209
0.000226245 0.00025784 -0.000792584 0.000281827 9.43412e-05 -0.000118748
0.000223808 0.000258239 -0.0007874 0.000293523 9.08171e-05 -0.000138626
0.000221123 0.000258969 -0.000781559 0.000304207 8.79641e-05 -0.00015959
0.000218206 0.000260125 -0.000775205 0.000313585 8.59361e-05 -0.000180888
0.000238464 0.000257509 -0.000815344 0.000195479 0.000133277 -8.65187e-06
0.000237931 0.000257068 -0.0008148 0.000209393 0.00012813 -1.94595e-05
0.000237214 0.000256619 -0.000813778 0.000223489 0.00012288 -3.13987e-05
0.000236297 0.000256176 -0.000812219 0.000237694 0.000117608 -4.45568e-05
0.00023516 0.000255757 -0.000810068 0.000251902 0.0001124 -5.90278e-05
0.000233784 0.00025539 -0.000807273 0.000265975 0.000107364 -7.48998e-05
0.000232145 0.000255109 -0.00080379 0.000279733 0.000102618 -9.22469e-05
0.000230221 0.000254961 -0.000799582 0.000292951 9.8298e-05 -0.000111105
0.000228003 0.000255023 -0.000794643 0.000305399 9.4553e-05 -0.000131401
0.000225541 0.000255395 -0.000789019 0.000316806 9.15183e-05 -0.00015291
0.000222849 0.000256187 -0.000782848 0.000326849 8.93461e-05 -0.000174884
0.000231271 0.0002455 -0.000785326 0.000158947 6.40196e-05 -7.18986e-05
0.000230358 0.000245495 -0.000783425 0.000168978 6.07447e-05 -8.30916e-05
0.000229283 0.000245616 -0.00078118 0.000178953 5.75713e-05 -9.51707e-05
0.000228034 0.000245894 -0.000778573 0.000188805 5.45485e-05 -0.000108178
0.000226593 0.000246357 -0.000775591 0.00019845 5.17345e-05 -0.000122142
0.000224945 0.000247042 -0.000772229 0.000207784 4.91887e-05 -0.000137074
0.000232873 0.000245296 -0.000789259 0.000165534 6.7727e-05 -6.61053e-05
0.000232066 0.000245186 -0.000787577 0.000176074 6.42778e-05 -7.72993e-05
0.0002311 0.000245181 -0.000785545 0.000186579 6.09252e-05 -8.94062e-05
0.000229963 0.000245311 -0.000783143 0.000196967 5.77201e-05 -0.000102474
0.000228637 0.000245614 -0.000780358 0.000207146 5.47254e-05 -0.000116537
0.000227106 0.00024613 -0.000777185 0.000217003 5.20072e-05 -0.000131616
0.000234533 0.000245078 -0.000793315 0.000172145 7.15992e-05 -6.00018e-05
0.000233837 0.000244856 -0.000791865 0.000183213 6.79692e-05 -7.11858e-05
0.000232987 0.000244725 -0.000790056 0.000194259 6.44325e-05 -8.33145e-05
0.000231967 0.000244713 -0.000787871 0.000205199 6.10423e-05 -9.6438e-05
0.000230763 0.000244855 -0.000785294 0.000215936 5.78656e-05 -0.000110598
0.000229357 0.000245197 -0.000782315 0.00022636 5.49812e-05 -0.000125826
0.000227731 0.000245779 -0.000778914 0.000236342 5.2468e-05 -0.000142132
0.000225869 0.000246656 -0.000775104 0.000245734 5.03815e-05 -0.000159486
0.000223758 0.000247904 -0.000770906 0.000254375 4.88143e-05 -0.000177774
0.000236251 0.000244843 -0.00079749 0.000178767 7.56468e-05 -5.35774e-05
0.000235673 0.000244509 -0.000796283 0.000190382 7.18339e-05 -6.47426e-05
0.000234943 0.000244251 -0.000794709 0.000201992 6.81091e-05 -7.68852e-05
0.000234049 0.000244093 -0.000792754 0.00021351 6.45275e-05 -9.00579e-05
0.000232973 0.00024407 -0.000790396 0.000224834 6.11604e-05 -0.000104311
0.0002317 0.000244223 -0.000787621 0.000235845 5.80873e-05 -0.000119684
0.00023021 0.000244599 -0.000784418 0.000246407 5.53913e-05 -0.000136199
0.000228487 0.000245257 -0.000780787 0.000256368 5.31544e-05 -0.000153828
0.000226519 0.000246263 -0.000776749 0.00026555 5.14644e-05 -0.000172467
0.000238025 0.000244592 -0.000801781 0.000185392 7.98804e-05 -4.68214e-05
0.000237571 0.000244146 -0.000800826 0.000197574 7.58827e-05 -5.79576e-05
0.00023697 0.000243759 -0.000799501 0.000209773 7.19659e-05 -7.01043e-05
0.000236207 0.000243454 -0.000797787 0.000221897 6.81862e-05 -8.33183e-05
0.000235267 0.000243263 -0.000795661 0.00023384 6.46198e-05 -9.76584e-05
0.000234134 0.000243225 -0.000793105 0.000245475 6.13516e-05 -0.000113174
0.000232789 0.000243388 -0.000790107 0.000256658 5.84711e-05 -0.000129895
0.000231215 0.000243813 -0.000786665 0.000267224 5.60684e-05 -0.000147805
0.000229399 0.000244567 -0.000782794 0.00027698 5.42366e-05 -0.00016681
0.000239856 0.000244323 -0.000806181 0.000192014 8.43108e-05 -3.97219e-05
0.000239532 0.000243766 -0.00080549 0.000204785 8.01271e-05 -5.08171e-05
0.000239065 0.00024325 -0.000804428 0.000217597 7.60143e-05 -6.29568e-05
0.000238441 0.000242797 -0.000802969 0.000230357 7.20299e-05 -7.62024e-05
0.000237645 0.000242434 -0.000801087 0.000242951 6.8255e-05 -9.06216e-05
0.00023666 0.000242201 -0.000798763 0.000255248 6.47806e-05 -0.000106274
0.000235468 0.000242145 -0.000795981 0.000267092 6.17035e-05 -0.000123202
0.000234052 0.000242328 -0.000792738 0.000278304 5.91224e-05 -0.000141399
0.000232398 0.000242818 -0.000789044 0.000288679 5.71362e-05 -0.000160783
0.000241742 0.000244036 -0.000810684 0.000198622 8.89486e-05 -3.22659e-05
0.000241555 0.000243369 -0.000810268 0.000212004 8.45785e-05 -4.33065e-05
0.000241229 0.000242724 -0.000809483 0.000225458 8.02661e-05 -5.54265e-05
0.000240751 0.000242121 -0.000808293 0.000238885 7.60707e-05 -6.86922e-05
0.000240106 0.000241586 -0.000806671 0.000252167 7.20779e-05 -8.31812e-05
0.000239279 0.000241153 -0.000804592 0.000265165 6.83854e-05 -9.89645e-05
0.000238249 0.000240872 -0.000802039 0.000277713 6.50983e-05 -0.000116096
0.000237001 0.000240803 -0.000799006 0.000289618 6.23248e-05 -0.000134585
0.000235519 0.000241022 -0.000795502 0.00030066 6.01691e-05 -0.000154357
0.000233831 0.000241613 -0.000791571 0.000310571 5.87347e-05 -0.000175067
0.000243602 0.000244515 -0.000815057 0.000191353 9.83139e-05 -1.44563e-05
0.000243682 0.000243739 -0.000815283 0.000205193 9.37979e-05 -2.44353e-05
0.000243639 0.000242953 -0.000815156 0.000219221 8.92487e-05 -3.54101e-05
0.000243461 0.000242181 -0.000814661 0.000233345 8.47339e-05 -4.7496e-05
0.000243137 0.000241429 -0.000813756 0.000247474 8.03217e-05 -6.07689e-05
0.000242652 0.000240718 -0.000812408 0.000261483 7.61012e-05 -7.5316e-05
0.00024199 0.000240084 -0.000810589 0.000275226 7.21781e-05 -9.12208e-05
0.000241132 0.000239571 -0.000808279 0.000288526 6.86661e-05 -0.000108552
0.000240062 0.000239242 -0.000805467 0.000301176 6.56846e-05 -0.000127335
0.000238763 0.000239173 -0.000802164 0.00031294 6.33507e-05 -0.000147507
0.000237263 0.000239458 -0.000798408 0.000323528 6.17716e-05 -0.000168729
0.000235534 0.000240199 -0.000794335 0.000332654 6.10874e-05 -0.000190261
0.000245676 0.000243406 -0.000819963 0.000211751 9.88807e-05 -1.6223e-05
0.000245783 0.000242523 -0.000820147 0.000226418 9.41569e-05 -2.71216e-05
0.000245762 0.000241622 -0.000819958 0.000241227 8.94331e-05 -3.91552e-05
0.000245599 0.000240718 -0.000819353 0.000256087 8.47957e-05 -5.24142e-05
0.000245281 0.000239833 -0.000818296 0.000270872 8.03385e-05 -6.6999e-05
0.000244794 0.000238999 -0.000816752 0.000285427 7.61733e-05 -8.30096e-05
0.000244118 0.000238255 -0.0008147 0.000299552 7.2418e-05 -0.000100537
0.000243236 0.000237653 -0.000812122 0.000313002 6.92047e-05 -0.000119624
0.000242132 0.000237276 -0.000809029 0.000325535 6.66763e-05 -0.000140202
0.000240834 0.000237231 -0.00080546 0.000336853 6.49483e-05 -0.000161962
0.000239313 0.000237634 -0.000801548 0.000346639 6.4161e-05 -0.000184172
0.00023499 0.000224393 -0.00079025 0.000160362 3.42332e-05 -7.03013e-05
0.000234805 0.000223666 -0.00078928 0.000170664 3.13762e-05 -8.12664e-05
0.000234516 0.00022307 -0.000788091 0.000180912 2.87014e-05 -9.31349e-05
0.000234115 0.000222637 -0.000786674 0.000191035 2.626e-05 -0.000105959
0.000233591 0.0002224 -0.000785031 0.000200943 2.41109e-05 -0.000119771
0.00023293 0.000222399 -0.000783169 0.000210532 2.23136e-05 -0.00013459
0.000236184 0.000224932 -0.000794077 0.000167139 3.71359e-05 -6.43775e-05
0.000236076 0.000224128 -0.000793301 0.000177968 3.41107e-05 -7.53333e-05
0.000235869 0.000223432 -0.000792297 0.000188765 3.12659e-05 -8.72189e-05
0.000235553 0.000222877 -0.000791058 0.000199446 2.86553e-05 -0.000100092
0.000235118 0.000222504 -0.000789585 0.000209914 2.63429e-05 -0.000113994
0.000234551 0.000222356 -0.000787885 0.000220054 2.43951e-05 -0.000128952
0.000237418 0.000225495 -0.000798026 0.000173939 4.02422e-05 -5.81486e-05
0.000237393 0.00022461 -0.000797455 0.000185314 3.70404e-05 -6.90819e-05
0.000237272 0.000223816 -0.000796647 0.000196674 3.40187e-05 -8.09777e-05
0.000237046 0.000223146 -0.000795597 0.000207931 3.1234e-05 -9.38947e-05
0.000236705 0.000222637 -0.000794302 0.000218984 2.87552e-05 -0.000107883
0.000236237 0.000222338 -0.000792768 0.000229717 2.66604e-05 -0.000122978
0.000235629 0.000222294 -0.00079099 0.000239995 2.50263e-05 -0.000139196
0.000234865 0.000222565 -0.000788994 0.000249659 2.39038e-05 -0.000156512
0.000233934 0.000223232 -0.000786805 0.000258539 2.33735e-05 -0.000174803
0.000238692 0.000226081 -0.000802094 0.000180749 4.35657e-05 -5.16034e-05
0.000238755 0.000225116 -0.000801739 0.00019269 4.01831e-05 -6.25045e-05
0.000238724 0.000224225 -0.000801138 0.000204635 3.69787e-05 -7.4401e-05
0.000238593 0.000223438 -0.000800287 0.000216494 3.40117e-05 -8.73539e-05
0.000238351 0.000222792 -0.000799181 0.000228162 3.13561e-05 -0.000101422
0.000237989 0.000222329 -0.000797822 0.000239513 2.90918e-05 -0.000116651
0.000237491 0.000222104 -0.000796213 0.000250403 2.72998e-05 -0.000133068
0.000236844 0.000222178 -0.000794368 0.000260671 2.60563e-05 -0.000150655
0.000236036 0.000222623 -0.000792316 0.000270127 2.54378e-05 -0.000169296
0.000240006 0.000226691 -0.000806277 0.000187564 4.71195e-05 -4.47314e-05
0.00024016 0.000225648 -0.000806147 0.00020009 4.35523e-05 -5.55892e-05
0.000240225 0.000224661 -0.000805766 0.000212645 4.01591e-05 -6.74752e-05
0.000240194 0.000223758 -0.000805125 0.000225135 3.70012e-05 -8.04543e-05
0.000240058 0.000222972 -0.00080422 0.000237449 3.4158e-05 -9.45941e-05
0.000239807 0.000222346 -0.000803047 0.000249456 3.17154e-05 -0.000109952
0.000239427 0.000221934 -0.000801613 0.000261001 2.97612e-05 -0.000126566
0.000238904 0.000221799 -0.000799928 0.00027191 2.83797e-05 -0.000144427
0.000238226 0.000222014 -0.000798019 0.000281978 2.76535e-05 -0.000163433
0.00024136 0.000227323 -0.000810572 0.000194375 5.09175e-05 -3.75206e-05
0.00024161 0.000226205 -0.000810677 0.000207507 4.71624e-05 -4.83226e-05
0.000241775 0.000225125 -0.000810526 0.000220698 4.35742e-05 -6.01854e-05
0.00024185 0.000224106 -0.000810109 0.000233848 4.02166e-05 -7.31795e-05
0.000241824 0.000223179 -0.000809415 0.000246843 3.71743e-05 -8.73819e-05
0.000241691 0.000222388 -0.000808441 0.000259544 3.45403e-05 -0.000102862
0.000241435 0.000221783 -0.00080719 0.000271786 3.24098e-05 -0.00011967
0.000241044 0.000221432 -0.000805673 0.000283381 3.08765e-05 -0.00013781
0.000240505 0.000221408 -0.000803914 0.000294108 3.00289e-05 -0.00015719
0.000242751 0.000227979 -0.000814971 0.000201172 5.49735e-05 -2.99583e-05
0.000243103 0.000226789 -0.000815322 0.000214934 5.10279e-05 -4.06901e-05
0.000243374 0.000225618 -0.000815416 0.000228787 4.72388e-05 -5.2516e-05
0.000243559 0.000224484 -0.000815234 0.00024263 4.36727e-05 -6.55119e-05
0.00024365 0.000223418 -0.000814764 0.000256343 4.04195e-05 -7.97653e-05
0.00024364 0.000222458 -0.000814 0.000269779 3.75799e-05 -9.53586e-05
0.000243516 0.000221658 -0.000812943 0.000282763 3.52578e-05 -0.000112356
0.000243264 0.000221082 -0.000811604 0.000295092 3.35571e-05 -0.000130776
0.000242872 0.000220813 -0.000810005 0.00030653 3.2573e-05 -0.00015054
0.000242315 0.000220939 -0.000808179 0.000316831 3.23923e-05 -0.000171329
0.000243652 0.000229913 -0.000818602 0.000193714 6.34868e-05 -1.23808e-05
0.000244181 0.000228666 -0.000819467 0.000207932 5.92935e-05 -2.20277e-05
0.000244639 0.0002274 -0.000820078 0.000222359 5.51636e-05 -3.26767e-05
0.00024502 0.00022614 -0.00082043 0.000236904 5.11686e-05 -4.44503e-05
0.000245321 0.000224895 -0.000820498 0.000251474 4.73855e-05 -5.74332e-05
0.000245535 0.00022369 -0.000820265 0.000265943 4.39092e-05 -7.17237e-05
0.000245655 0.000222561 -0.000819724 0.000280159 4.08491e-05 -8.74183e-05
0.000245669 0.00022156 -0.000818873 0.000293936 3.83183e-05 -0.000104598
0.000245565 0.000220754 -0.00081772 0.000307054 3.64327e-05 -0.000123299
0.000245329 0.000220224 -0.00081629 0.000319262 3.52994e-05 -0.000143453
0.000244938 0.000220071 -0.000814614 0.000330288 3.50123e-05 -0.000164754
0.000244418 0.000220401 -0.000812784 0.000339776 3.56823e-05 -0.000186237
0.000245648 0.000229361 -0.000824049 0.00021468 6.39059e-05 -1.37213e-05
0.000246217 0.000228042 -0.000824939 0.000229764 5.95909e-05 -2.42765e-05
0.000246715 0.000226696 -0.000825564 0.000245015 5.53812e-05 -3.59784e-05
0.000247137 0.000225339 -0.000825895 0.000260341 5.13703e-05 -4.89263e-05
0.000247479 0.000223996 -0.000825915 0.000275617 4.76597e-05 -6.32313e-05
0.000247735 0.000222704 -0.000825609 0.000290682 4.43662e-05 -7.90071e-05
0.000247895 0.000221507 -0.000824978 0.000305325 4.16062e-05 -9.63606e-05
0.000247946 0.00022046 -0.000824022 0.000319289 3.95087e-05 -0.000115349
0.000247877 0.000219651 -0.000822768 0.000332318 3.82089e-05 -0.000135901
0.000247663 0.000219194 -0.000821249 0.000344128 3.78071e-05 -0.000157737
0.000247335 0.000219214 -0.000819561 0.00035433 3.84178e-05 -0.000179905
0.00026337 0.000203302 -0.000795196 0.000159373 4.39229e-06 -6.79652e-05
0.000263923 0.000201854 -0.000795172 0.000169791 1.94749e-06 -7.89938e-05
0.000264425 0.000200542 -0.00079505 0.00018019 -2.3303e-07 -9.09035e-05
0.000264872 0.000199403 -0.000794833 0.000190504 -2.09554e-06 -0.000103735
0.000265258 0.000198468 -0.000794535 0.000200646 -3.5801e-06 -0.000117514
0.000265574 0.000197784 -0.000794174 0.000210513 -4.62717e-06 -0.00013225
0.000264257 0.000204584 -0.000798911 0.000166129 6.48202e-06 -6.17926e-05
0.000264867 0.000203088 -0.000799057 0.000177074 3.87457e-06 -7.28294e-05
0.000265429 0.000201703 -0.000799095 0.000188024 1.53243e-06 -8.47761e-05
0.00026594 0.000200465 -0.000799031 0.000198898 -4.86805e-07 -9.768e-05
0.000266394 0.000199418 -0.000798877 0.000209606 -2.11795e-06 -0.000111573
0.000266783 0.000198611 -0.000798653 0.000220036 -3.29374e-06 -0.000126473
0.000265169 0.000205929 -0.000802745 0.000172911 8.81448e-06 -5.52985e-05
0.000265839 0.000204382 -0.000803072 0.0001844 6.03386e-06 -6.63313e-05
0.000266464 0.000202927 -0.000803282 0.000195912 3.52139e-06 -7.8309e-05
0.000267043 0.000201601 -0.00080338 0.000207366 1.33844e-06 -9.12806e-05
0.000267569 0.000200444 -0.000803378 0.000218664 -4.4424e-07 -0.000105286
0.000268036 0.000199508 -0.000803294 0.000229697 -1.74852e-06 -0.000120352
0.000268434 0.000198844 -0.000803139 0.000240324 -2.50123e-06 -0.000136482
0.00026875 0.000198515 -0.000802949 0.000250382 -2.65477e-06 -0.00015364
0.000268974 0.000198604 -0.000802754 0.000259702 -2.14003e-06 -0.000171688
0.000266105 0.000207336 -0.000806697 0.000179707 1.14059e-05 -4.84708e-05
0.000266838 0.000205741 -0.000807216 0.000191758 8.44591e-06 -5.94904e-05
0.000267531 0.00020422 -0.000807605 0.000203854 5.75536e-06 -7.14906e-05
0.000268181 0.000202806 -0.000807875 0.000215912 3.39856e-06 -8.45234e-05
0.000268784 0.000201538 -0.000808034 0.00022783 1.45212e-06 -9.86368e-05
0.000269333 0.000200465 -0.000808097 0.000239488 -3.40843e-09 -0.000113867
0.000269821 0.000199644 -0.000808085 0.000250741 -8.89318e-07 -0.000130227
0.000270232 0.000199139 -0.000808021 0.000261424 -1.13482e-06 -0.000147686
0.000270558 0.000199029 -0.000807942 0.000271344 -6.74401e-07 -0.000166112
0.000267064 0.000208807 -0.000810765 0.000186511 1.42722e-05 -4.12982e-05
0.000267865 0.000207168 -0.000811482 0.000199143 1.1127e-05 -5.22936e-05
0.000268629 0.000205583 -0.000812063 0.000211846 8.25017e-06 -6.4306e-05
0.000269354 0.000204083 -0.000812515 0.000224533 5.70885e-06 -7.73916e-05
0.000270038 0.000202705 -0.000812845 0.000237102 3.58572e-06 -9.16071e-05
0.000270674 0.000201496 -0.000813066 0.000249424 1.96795e-06 -0.000106998
0.000271256 0.000200513 -0.000813199 0.000261346 9.41439e-07 -0.000123588
0.000271769 0.000199824 -0.000813269 0.000272689 5.85515e-07 -0.000141354
0.000272204 0.000199508 -0.000813309 0.000283247 9.71893e-07 -0.000160174
0.000268046 0.000210341 -0.000814944 0.000193315 1.74304e-05 -3.37682e-05
0.000268918 0.000208663 -0.000815869 0.000206547 1.40943e-05 -4.47265e-05
0.000269756 0.00020702 -0.000816653 0.000219881 1.10227e-05 -5.67393e-05
0.000270561 0.000205437 -0.000817297 0.000233228 8.28576e-06 -6.98675e-05
0.000271329 0.000203949 -0.000817808 0.000246479 5.97228e-06 -8.41771e-05
0.000272058 0.000202603 -0.000818197 0.000259502 4.17702e-06 -9.97245e-05
0.000272739 0.000201456 -0.000818484 0.000272133 2.99413e-06 -0.000116544
0.00027336 0.000200576 -0.000818694 0.000284181 2.51238e-06 -0.000134624
0.000273912 0.000200046 -0.00081886 0.000295426 2.80996e-06 -0.000153853
0.00026905 0.00021194 -0.000819227 0.000200109 2.0897e-05 -2.58672e-05
0.000269996 0.000210229 -0.000820371 0.000213964 1.73655e-05 -3.67738e-05
0.000270913 0.000208531 -0.00082137 0.000227954 1.40909e-05 -4.87733e-05
0.000271801 0.000206869 -0.000822218 0.00024199 1.1147e-05 -6.19319e-05
0.000272658 0.000205275 -0.000822921 0.000255959 8.62883e-06 -7.63256e-05
0.000273483 0.000203792 -0.000823488 0.000269722 6.63974e-06 -9.20227e-05
0.00027427 0.000202477 -0.000823937 0.000283107 5.28306e-06 -0.000109071
0.000275005 0.000201401 -0.000824295 0.00029591 4.6582e-06 -0.000127471
0.00027568 0.000200651 -0.000824593 0.000307891 4.85187e-06 -0.00014712
0.000276228 0.000200321 -0.000824859 0.000318791 5.93623e-06 -0.000167698
0.000269027 0.000215329 -0.000822075 0.000192608 2.85636e-05 -7.74625e-06
0.000270076 0.000213612 -0.000823608 0.000206871 2.4681e-05 -1.75767e-05
0.000271099 0.000211866 -0.000824983 0.000221383 2.09588e-05 -2.84191e-05
0.000272098 0.00021012 -0.00082621 0.000236058 1.74736e-05 -4.03898e-05
0.000273073 0.000208384 -0.000827276 0.000250814 1.43117e-05 -5.35647e-05
0.000274024 0.000206686 -0.000828183 0.000265537 1.15739e-05 -6.80303e-05
0.00027495 0.000205067 -0.000828938 0.000280083 9.37358e-06 -8.38678e-05
0.000275847 0.000203583 -0.00082956 0.000294271 7.82377e-06 -0.00010114
0.000276703 0.000202306 -0.000830073 0.000307883 7.03654e-06 -0.000119863
0.000277509 0.000201324 -0.000830511 0.00032066 7.10943e-06 -0.000139945
0.0002782 0.00020074 -0.000830902 0.000332322 8.12541e-06 -0.000161071
0.000278782 0.000200669 -0.000831264 0.00034251 1.01567e-05 -0.000182199
0.000271122 0.000215335 -0.000828076 0.000213627 2.8816e-05 -8.88911e-06
0.000272227 0.000213582 -0.000829703 0.000228787 2.48971e-05 -1.96557e-05
0.000273312 0.000211791 -0.00083117 0.000244159 2.11904e-05 -3.1578e-05
0.000274378 0.000209984 -0.000832466 0.000259664 1.77971e-05 -4.47474e-05
0.000275426 0.000208185 -0.00083359 0.00027519 1.48264e-05 -5.92636e-05
0.000276458 0.000206438 -0.000834546 0.000290583 1.24004e-05 -7.52242e-05
0.000277471 0.000204792 -0.000835352 0.000305644 1.0635e-05 -9.27148e-05
0.000278454 0.000203305 -0.000836029 0.000320119 9.65559e-06 -0.000111772
0.0002794 0.000202073 -0.000836611 0.000333747 9.58943e-06 -0.000132296
0.000280243 0.000201216 -0.000837134 0.000346233 1.05246e-05 -0.000153998
0.000280994 0.000200862 -0.000837618 0.000357184 1.25401e-05 -0.00017584
0.000274997 0.000182212 -0.000800111 0.000160892 -2.5242e-05 -6.56019e-05
0.000276315 0.000180044 -0.000801027 0.000171268 -2.72858e-05 -7.66409e-05
0.000277634 0.000178017 -0.000801963 0.000181618 -2.89857e-05 -8.8505e-05
0.000278954 0.000176169 -0.000802933 0.000191875 -3.02857e-05 -0.000101213
0.00028027 0.000174538 -0.000803961 0.000201954 -3.1125e-05 -0.000114772
0.000281579 0.000173172 -0.00080508 0.00021175 -3.14441e-05 -0.000129176
0.000275477 0.000184238 -0.000803705 0.000167694 -2.39568e-05 -5.89564e-05
0.000276831 0.00018205 -0.000804768 0.000178597 -2.6158e-05 -7.00378e-05
0.000278189 0.000179975 -0.000805842 0.000189496 -2.80114e-05 -8.19764e-05
0.000279551 0.000178055 -0.000806941 0.000200313 -2.94562e-05 -9.47982e-05
0.000280915 0.000176335 -0.000808089 0.000210956 -3.04261e-05 -0.000108517
0.000282277 0.000174868 -0.00080932 0.000221313 -3.08529e-05 -0.000123131
0.000275964 0.000186365 -0.000807415 0.000174521 -2.23899e-05 -5.19576e-05
0.000277354 0.000184155 -0.000808638 0.000185967 -2.47608e-05 -6.3071e-05
0.000278753 0.00018204 -0.000809857 0.000197429 -2.67782e-05 -7.50799e-05
0.000280161 0.000180057 -0.000811093 0.000208824 -2.83768e-05 -8.80143e-05
0.000281576 0.000178253 -0.000812369 0.000220057 -2.94841e-05 -0.000101894
0.000282995 0.000176681 -0.000813715 0.000231015 -3.00223e-05 -0.000116725
0.000284412 0.000175396 -0.000815158 0.000241559 -2.99212e-05 -0.000132494
0.000285817 0.000174468 -0.000816743 0.000251529 -2.91355e-05 -0.000149147
0.000287185 0.000173983 -0.000818507 0.000260754 -2.76067e-05 -0.000166538
0.000276456 0.000188593 -0.000811243 0.000181359 -2.05222e-05 -4.45914e-05
0.000277885 0.000186367 -0.000812632 0.000193368 -2.30709e-05 -5.57285e-05
0.000279327 0.000184216 -0.000814007 0.000205414 -2.52619e-05 -6.78019e-05
0.000280783 0.000182174 -0.000815388 0.000217412 -2.70262e-05 -8.08452e-05
0.000282251 0.000180286 -0.000816798 0.000229263 -2.8285e-05 -9.48851e-05
0.000283731 0.000178603 -0.000818266 0.000240845 -2.89569e-05 -0.000109936
0.000285217 0.000177186 -0.000819825 0.000252014 -2.89652e-05 -0.000125989
0.000286698 0.000176105 -0.000821513 0.000262604 -2.82441e-05 -0.000142993
0.000288149 0.000175441 -0.000823371 0.000272426 -2.6738e-05 -0.000160806
0.000276951 0.000190925 -0.000815183 0.000188204 -1.83352e-05 -3.68447e-05
0.000278422 0.000188689 -0.000816747 0.000200794 -2.10695e-05 -4.79951e-05
0.000279909 0.000186507 -0.000818287 0.000213447 -2.34441e-05 -6.01249e-05
0.000281415 0.00018441 -0.000819824 0.000226075 -2.53869e-05 -7.32716e-05
0.000282941 0.00018244 -0.000821377 0.000238576 -2.6812e-05 -8.74695e-05
0.000284485 0.000180648 -0.000822976 0.00025082 -2.7631e-05 -0.00010274
0.000286043 0.000179095 -0.000824653 0.000262655 -2.77595e-05 -0.000119081
0.000287604 0.000177854 -0.000826449 0.000273903 -2.7123e-05 -0.000136448
0.000289146 0.000177008 -0.000828404 0.00028436 -2.56592e-05 -0.000154705
0.000277449 0.000193361 -0.000819233 0.000195047 -1.58089e-05 -2.87037e-05
0.000278964 0.000191123 -0.00082098 0.000208238 -1.87363e-05 -3.98543e-05
0.000280499 0.000188916 -0.000822697 0.000221523 -2.13053e-05 -5.20304e-05
0.000282058 0.000186768 -0.000824398 0.00023481 -2.34398e-05 -6.52729e-05
0.000283643 0.00018472 -0.000826103 0.000247992 -2.5047e-05 -7.96245e-05
0.000285255 0.00018282 -0.000827841 0.000260936 -2.60303e-05 -9.51147e-05
0.000286889 0.000181129 -0.000829644 0.000273478 -2.62967e-05 -0.00011175
0.000288536 0.000179724 -0.000831553 0.00028543 -2.57617e-05 -0.000129493
0.000290173 0.000178688 -0.000833609 0.00029657 -2.43562e-05 -0.000148213
0.000277949 0.000195904 -0.000823388 0.000201879 -1.29236e-05 -2.01538e-05
0.00027951 0.000193671 -0.000825327 0.000215693 -1.60507e-05 -3.12891e-05
0.000281095 0.000191446 -0.000827231 0.000229635 -1.88246e-05 -4.34985e-05
0.00028271 0.000189255 -0.000829108 0.000243611 -2.11643e-05 -5.6827e-05
0.000284357 0.000187132 -0.000830976 0.00025751 -2.29703e-05 -7.13259e-05
0.000286039 0.000185126 -0.000832861 0.000271193 -2.41365e-05 -8.70342e-05
0.000287754 0.000183298 -0.000834797 0.000284488 -2.45601e-05 -0.000103968
0.000289492 0.000181723 -0.000836824 0.000297192 -2.41457e-05 -0.000122099
0.000291231 0.000180494 -0.000838986 0.000309065 -2.28144e-05 -0.000141303
0.00029293 0.000179711 -0.000841311 0.000319849 -2.05079e-05 -0.000161288
0.000276867 0.000200749 -0.000825432 0.000194444 -6.08966e-06 -1.08031e-06
0.000278451 0.00019856 -0.000827639 0.000208676 -9.66715e-06 -1.11724e-05
0.000280059 0.000196335 -0.000829784 0.000223149 -1.29914e-05 -2.22808e-05
0.000281696 0.000194101 -0.000831887 0.000237775 -1.59799e-05 -3.45081e-05
0.000283369 0.000191873 -0.000833952 0.000252473 -1.85384e-05 -4.791e-05
0.000285082 0.000189682 -0.000835993 0.000267126 -2.05605e-05 -6.25474e-05
0.000286838 0.000187573 -0.000838035 0.000281591 -2.19294e-05 -7.84698e-05
0.000288637 0.000185607 -0.000840111 0.000295688 -2.25318e-05 -9.57044e-05
0.000290471 0.000183861 -0.000842264 0.000309197 -2.22592e-05 -0.000114234
0.000292318 0.000182427 -0.000844537 0.000321865 -2.10219e-05 -0.000133943
0.000294138 0.000181417 -0.000846963 0.000333406 -1.87491e-05 -0.000154534
0.000295682 0.000180949 -0.000849497 0.00034348 -1.53979e-05 -0.000175115
0.000278952 0.000201313 -0.000831978 0.000215465 -6.00248e-06 -1.75191e-06
0.00028061 0.000199123 -0.000834347 0.000230587 -9.53364e-06 -1.28211e-05
0.000282303 0.000196888 -0.000836662 0.000245911 -1.275e-05 -2.50465e-05
0.000284035 0.000194628 -0.000838926 0.000261359 -1.55429e-05 -3.85012e-05
0.000285815 0.000192374 -0.000841152 0.000276815 -1.77965e-05 -5.32588e-05
0.000287648 0.000190172 -0.000843361 0.000292127 -1.93842e-05 -6.93834e-05
0.000289535 0.000188076 -0.000845589 0.000307095 -2.0189e-05 -8.69192e-05
0.00029147 0.000186152 -0.000847874 0.000321465 -2.00899e-05 -0.000105865
0.000293432 0.000184499 -0.000850262 0.00033498 -1.89667e-05 -0.000126093
0.000295383 0.000183244 -0.000852792 0.000347343 -1.6743e-05 -0.000147327
0.000297074 0.000182521 -0.000855426 0.000358175 -1.33682e-05 -0.000168661
0 0 0 0 0 0
0 0 0 0 0 0
0 0 0 0 0 0
0 0 0 0 0 0
0 0 0 0 0 0
0 0 0 0 0 0
0 0 0 0 0 0
0 0 0 0 0 0
0 0 0 0 0 0
0 0 0 0 0 0
0 0 0 0 0 0
0 0 0 0 0 0
0 0 0 0 0 0
0 0 0 0 0 0
0 0 0 0 0 0
0 0 0 0 0 0
0 0 0 0 0 0
0 0 0 0 0 0
0 0 0 0 0 0
0 0 0 0 0 0
0 0 0 0 0 0
0 0 0 0 0 0
0 0 0 0 0 0
0 0 0 0 0 0
0 0 0 0 0 0
0 0 0 0 0 0
0 0 0 0 0 0
0 0 0 0 0 0
0 0 0 0 0 0
0 0 0 0 0 0
0 0 0 0 0 0
0 0 0 0 0 0
0 0 0 0 0 0
0 0 0 0 0 0
0 0 0 0 0 0
0 0 0 0 0 0
0 0 0 0 0 0
0 0 0 0 0 0
0 0 0 0 0 0
0 0 0 0 0 0
0 0 0 0 0 0
0 0 0 0 0 0
0 0 0 0 0 0
0 0 0 0 0 0
0 0 0 0 0 0
0 0 0 0 0 0
0 0 0 0 0 0
0 0 0 0 0 0
0 0 0 0 0 0
0 0 0 0 0 0
0 0 0 0 0 0
0 0 0 0 0 0
0 0 0 0 0 0
0 0 0 0 0 0
0 0 0 0 0 0
0 0 0 0 0 0
0 0 0 0 0 0
0 0 0 0 0 0
0 0 0 0 0 0
0 0 0 0 0 0
0 0 0 0 0 0
0 0 0 0 0 0
0 0 0 0 0 0
0 0 0 0 0 0
0 0 0 0 0 0
0 0 0 0 0 0
0 0 0 0 0 0
0 0 0 0 0 0
0 0 0 0 0 0
0 0 0 0 0 0
0 0 0 0 0 0
0 0 0 0 0 0
0 0 0 0 0 0
0 0 0 0 0 0
0 0 0 0 0 0
0 0 0 0 0 0
0 0 0 0 0 0
0 0 0 0 0 0
0 0 0 0 0 0
0 0 0 0 0 0
0 0 0 0 0 0
0.000270603 0.000161122 -0.000805038 0.000153933 -5.51899e-05 -6.3831e-05
0.000272682 0.000158233 -0.000806879 0.000164171 -5.68406e-05 -7.46282e-05
0.000274809 0.000155491 -0.000808856 0.000174428 -5.80659e-05 -8.61995e-05
0.000276984 0.000152936 -0.000810993 0.00018464 -5.88074e-05 -9.85513e-05
0.000279207 0.00015061 -0.000813329 0.000194728 -5.9003e-05 -0.00011168
0.000281475 0.000148563 -0.000815908 0.000204587 -5.8593e-05 -0.000125573
0.000270575 0.000163891 -0.00080853 0.000160404 -5.47217e-05 -5.70383e-05
0.000272666 0.00016101 -0.000810495 0.000171152 -5.65256e-05 -6.78987e-05
0.000274807 0.000158247 -0.000812586 0.000181944 -5.78971e-05 -7.95664e-05
0.000277002 0.000155644 -0.000814828 0.000192704 -5.87721e-05 -9.20556e-05
0.000279251 0.000153253 -0.000817259 0.000203347 -5.90829e-05 -0.000105369
0.000281551 0.000151129 -0.000819925 0.000213765 -5.876e-05 -0.000119496
0.000270531 0.000166799 -0.000812137 0.000166896 -5.39325e-05 -4.98798e-05
0.000272633 0.000163926 -0.000814238 0.000178169 -5.59037e-05 -6.07943e-05
0.000274789 0.000161151 -0.00081645 0.000189507 -5.74337e-05 -7.25556e-05
0.000277005 0.000158514 -0.000818804 0.000200832 -5.84535e-05 -8.51825e-05
0.000279281 0.000156062 -0.000821336 0.000212056 -5.88883e-05 -9.86832e-05
0.000281617 0.000153855 -0.000824091 0.00022307 -5.86606e-05 -0.000113053
0.000284007 0.000151953 -0.000827111 0.000233733 -5.77033e-05 -0.000128269
0.000286444 0.000150429 -0.000830452 0.000243876 -5.59727e-05 -0.000144275
0.000288894 0.000149373 -0.000834159 0.000253327 -5.3421e-05 -0.000160933
0.000270469 0.000169848 -0.00081586 0.000173397 -5.28006e-05 -4.23407e-05
0.000272582 0.000166991 -0.000818103 0.000185211 -5.4949e-05 -5.33016e-05
0.000274756 0.00016421 -0.000820445 0.000197114 -5.66492e-05 -6.51522e-05
0.000276994 0.000161542 -0.000822919 0.000209027 -5.78276e-05 -7.7915e-05
0.000279299 0.000159034 -0.000825559 0.000220859 -5.84023e-05 -9.16046e-05
0.000281672 0.000156742 -0.000828409 0.00023249 -5.82913e-05 -0.000106223
0.000284109 0.000154731 -0.000831517 0.000243776 -5.74196e-05 -0.000121751
0.0002866 0.000153077 -0.000834934 0.000254546 -5.57263e-05 -0.000138131
0.000289116 0.000151863 -0.000838712 0.000264606 -5.31655e-05 -0.00015523
0.000270387 0.000173041 -0.000819695 0.000179903 -5.13047e-05 -3.44067e-05
0.000272513 0.000170208 -0.000822089 0.000192273 -5.364e-05 -4.54042e-05
0.000274704 0.000167427 -0.00082457 0.000204761 -5.55226e-05 -5.73375e-05
0.000276965 0.000164734 -0.000827171 0.000217287 -5.68744e-05 -7.02327e-05
0.000279302 0.000162173 -0.000829927 0.000229754 -5.7606e-05 -8.41109e-05
0.000281714 0.0001598 -0.000832879 0.000242039 -5.76276e-05 -9.89799e-05
0.0002842 0.000157679 -0.000836077 0.000253989 -5.68563e-05 -0.000114826
0.000286751 0.000155889 -0.000839575 0.000265423 -5.5222e-05 -0.000131595
0.000289336 0.000154517 -0.000843424 0.00027613 -5.26718e-05 -0.00014916
0.000270286 0.000176379 -0.00082364 0.000186404 -4.94219e-05 -2.60634e-05
0.000272424 0.00017358 -0.000826191 0.00019935 -5.19538e-05 -3.70848e-05
0.000274633 0.000170809 -0.000828823 0.000212444 -5.40315e-05 -4.90918e-05
0.000276919 0.000168097 -0.00083156 0.000225607 -5.55722e-05 -6.21135e-05
0.000279287 0.000165488 -0.000834438 0.00023874 -5.64787e-05 -7.61782e-05
0.000281741 0.000163036 -0.000837499 0.000251713 -5.66525e-05 -9.13008e-05
0.000284279 0.000160805 -0.000840793 0.000264366 -5.6001e-05 -0.000107473
0.000286892 0.000158876 -0.000844375 0.000276507 -5.44444e-05 -0.000124649
0.000289552 0.000157339 -0.000848299 0.00028791 -5.19217e-05 -0.000142701
0.000270163 0.000179865 -0.000827689 0.000192894 -4.71294e-05 -1.72956e-05
0.000272315 0.00017711 -0.000830408 0.000206433 -4.98665e-05 -2.83254e-05
0.000274542 0.000174358 -0.000833199 0.000220157 -5.2152e-05 -4.0394e-05
0.000276853 0.000171637 -0.000836084 0.000233984 -5.38976e-05 -5.35337e-05
0.000279255 0.000168986 -0.000839094 0.000247813 -5.49982e-05 -6.77809e-05
0.000281752 0.000166458 -0.000842271 0.000261512 -5.53449e-05 -8.31581e-05
0.000284344 0.000164119 -0.000845666 0.000274911 -5.4835e-05 -9.9665e-05
0.000287024 0.000162048 -0.000849336 0.000287806 -5.33768e-05 -0.000117262
0.000289763 0.000160344 -0.000853337 0.000299954 -5.08994e-05 -0.000135828
0.000292518 0.000159112 -0.000857702 0.000311083 -4.73578e-05 -0.000155092
0.000267924 0.000186167 -0.000828969 0.000185472 -4.11214e-05 1.9539e-06
0.000270017 0.000183506 -0.000831836 0.000199349 -4.44107e-05 -8.07879e-06
0.000272183 0.0001808 -0.000834735 0.000213515 -4.73533e-05 -1.91061e-05
0.00027443 0.000178079 -0.000837697 0.000227893 -4.98588e-05 -3.12214e-05
0.000276766 0.000175358 -0.000840739 0.000242412 -5.18254e-05 -4.4468e-05
0.000279202 0.000172674 -0.000843891 0.000256971 -5.314e-05 -5.88909e-05
0.000281744 0.000170076 -0.000847192 0.000271434 -5.36821e-05 -7.45216e-05
0.000284392 0.00016763 -0.000850696 0.000285625 -5.33375e-05 -9.13692e-05
0.000287143 0.000165417 -0.000854459 0.000299326 -5.20011e-05 -0.000109402
0.000289967 0.000163536 -0.00085854 0.000312278 -4.95909e-05 -0.000128505
0.000292821 0.000162104 -0.000862979 0.000324185 -4.60489e-05 -0.000148399
0.00029537 0.000161244 -0.000867708 0.000334694 -4.1357e-05 -0.000168436
0.000269849 0.000187288 -0.000836072 0.000205797 -4.12275e-05 1.59472e-06
0.000272028 0.000184661 -0.000839169 0.000220578 -4.43883e-05 -9.41803e-06
0.000274295 0.00018198 -0.000842314 0.000235619 -4.71297e-05 -2.15608e-05
0.000276657 0.000179268 -0.000845524 0.000250856 -4.93349e-05 -3.48945e-05
0.000279128 0.000176558 -0.000848828 0.000266189 -5.0881e-05 -4.94766e-05
0.000281715 0.000173902 -0.000852263 0.000281476 -5.16368e-05 -6.53523e-05
0.000284422 0.000171358 -0.000855883 0.000296523 -5.14823e-05 -8.25438e-05
0.000287246 0.000168998 -0.000859745 0.000311083 -5.03008e-05 -0.000101033
0.00029016 0.000166929 -0.000863909 0.000324892 -4.79797e-05 -0.000120691
0.000293121 0.000165282 -0.000868422 0.000337643 -4.44542e-05 -0.000141258
0.000295794 0.000164196 -0.000873225 0.000348942 -3.96991e-05 -0.000162062
0.000291072 0.000139906 -0.000809702 0.000149525 -8.50951e-05 -5.64414e-05
0.000293904 0.000136293 -0.000812466 0.000159553 -8.63541e-05 -6.70185e-05
0.000296832 0.000132831 -0.000815482 0.000169618 -8.71072e-05 -7.83777e-05
0.000299861 0.000129564 -0.00081879 0.000179654 -8.72938e-05 -9.0531e-05
0.000302995 0.000126538 -0.000822441 0.000189578 -8.68511e-05 -0.000103478
0.000306236 0.000123809 -0.000826493 0.000199287 -8.57191e-05 -0.000117207
0.000290744 0.000143416 -0.000813115 0.000155396 -8.54623e-05 -4.99286e-05
0.000293567 0.000139837 -0.000815978 0.000165923 -8.68699e-05 -6.05668e-05
0.000296488 0.000136381 -0.000819084 0.000176511 -8.77615e-05 -7.20204e-05
0.000299516 0.000133092 -0.000822472 0.000187086 -8.80703e-05 -8.43088e-05
0.000302655 0.000130024 -0.000826192 0.000197561 -8.77268e-05 -9.74386e-05
0.000305908 0.00012724 -0.000830303 0.000207829 -8.66604e-05 -0.000111402
0.000290381 0.000147104 -0.000816643 0.000161269 -8.54706e-05 -4.30695e-05
0.000293193 0.000143562 -0.000819617 0.000172307 -8.70426e-05 -5.37576e-05
0.000296109 0.000140121 -0.000822819 0.000183429 -8.80868e-05 -6.53015e-05
0.000299137 0.000136823 -0.000826291 0.000194561 -8.85306e-05 -7.77248e-05
0.000302281 0.000133721 -0.000830085 0.000205612 -8.82971e-05 -9.10398e-05
0.000305547 0.000130876 -0.000834259 0.000216475 -8.73093e-05 -0.000105245
0.000308934 0.000128352 -0.00083887 0.000227002 -8.55046e-05 -0.000120316
0.000312435 0.000126232 -0.000843985 0.000237019 -8.28401e-05 -0.000136195
0.000316024 0.000124602 -0.000849665 0.000246338 -7.92798e-05 -0.000152768
0.000289982 0.000150972 -0.000820287 0.000167132 -8.50955e-05 -3.58497e-05
0.000292784 0.000147477 -0.000823378 0.000178694 -8.68437e-05 -4.65792e-05
0.000295693 0.000144059 -0.000826684 0.000190369 -8.8054e-05 -5.82077e-05
0.00029872 0.000140759 -0.000830248 0.00020208 -8.86486e-05 -7.07627e-05
0.000301871 0.000137626 -0.000834121 0.000213733 -8.85428e-05 -8.42628e-05
0.000305151 0.000134722 -0.000838361 0.00022521 -8.76543e-05 -9.87126e-05
0.000308562 0.000132115 -0.000843031 0.000236362 -8.59102e-05 -0.000114095
0.000312095 0.000129885 -0.000848197 0.000247011 -8.32554e-05 -0.000130352
0.000315728 0.00012812 -0.000853922 0.000256948 -7.9654e-05 -0.000147371
0.000289545 0.000155023 -0.000824045 0.000172979 -8.43128e-05 -2.82559e-05
0.000292335 0.000151586 -0.00082726 0.00018508 -8.62489e-05 -3.90161e-05
0.000295239 0.0001482 -0.000830678 0.000197326 -8.76396e-05 -5.07215e-05
0.000298265 0.000144904 -0.000834341 0.000209638 -8.84017e-05 -6.34029e-05
0.000301423 0.000141747 -0.000838299 0.00022192 -8.84426e-05 -7.70863e-05
0.000304718 0.000138787 -0.000842611 0.000234048 -8.76716e-05 -9.17827e-05
0.000308153 0.000136096 -0.000847341 0.000245865 -8.60074e-05 -0.000107481
0.000311722 0.000133754 -0.000852558 0.000257182 -8.33855e-05 -0.000124129
0.000315401 0.000131854 -0.00085833 0.000267776 -7.97624e-05 -0.000141618
0.000289068 0.000159261 -0.000827914 0.000178801 -8.30971e-05 -2.02743e-05
0.000291847 0.000155893 -0.000831261 0.000191458 -8.52326e-05 -3.10521e-05
0.000294744 0.00015255 -0.0008348 0.000204294 -8.68185e-05 -4.28241e-05
0.00029777 0.000149268 -0.00083857 0.000217231 -8.7766e-05 -5.56247e-05
0.000300934 0.000146092 -0.000842619 0.00023017 -8.79737e-05 -6.94877e-05
0.000304245 0.000143082 -0.000847007 0.000242982 -8.73417e-05 -8.4432e-05
0.000307707 0.000140307 -0.000851801 0.000255504 -8.57787e-05 -0.000100454
0.000311313 0.000137852 -0.000857072 0.000267533 -8.32096e-05 -0.000117508
0.000315043 0.000135813 -0.00086289 0.000278832 -7.95829e-05 -0.000135489
0.00028855 0.000163687 -0.000831889 0.000184591 -8.14223e-05 -1.18907e-05
0.000291317 0.000160402 -0.000835378 0.00019782 -8.3768e-05 -2.26702e-05
0.000294207 0.000157114 -0.000839047 0.000211267 -8.55641e-05 -3.44959e-05
0.000297232 0.000153856 -0.000842932 0.000224853 -8.67152e-05 -4.74057e-05
0.000300403 0.000150671 -0.000847081 0.000238479 -8.71112e-05 -6.14424e-05
0.000303731 0.000147615 -0.000851552 0.000252011 -8.66413e-05 -7.66339e-05
0.00030722 0.00014476 -0.000856414 0.000265278 -8.5203e-05 -9.29852e-05
0.000310866 0.000142191 -0.000861741 0.000278068 -8.27094e-05 -0.000110459
0.000314649 0.00014001 -0.000867605 0.000290122 -7.90984e-05 -0.000128955
0.000318487 0.000138329 -0.000874042 0.000301142 -7.43402e-05 -0.000148198
0.000285351 0.000171453 -0.00083245 0.000176812 -7.62688e-05 6.69151e-06
0.00028799 0.000168311 -0.000835965 0.000190324 -7.92675e-05 -3.08261e-06
0.000290743 0.000165116 -0.000839606 0.000204158 -8.18269e-05 -1.38523e-05
0.000293625 0.000161898 -0.000843417 0.000218237 -8.38478e-05 -2.57158e-05
0.000296649 0.000158676 -0.000847428 0.000232498 -8.52212e-05 -3.87221e-05
0.000299827 0.000155491 -0.000851685 0.000246841 -8.5828e-05 -5.29239e-05
0.000303172 0.000152398 -0.000856245 0.00026113 -8.55449e-05 -6.83594e-05
0.00030669 0.000149466 -0.000861179 0.000275189 -8.42574e-05 -8.50442e-05
0.000310379 0.000146783 -0.000866565 0.00028879 -8.18646e-05 -0.00010295
0.000314219 0.000144454 -0.000872477 0.00030166 -7.82927e-05 -0.000121983
0.000318128 0.0001426 -0.000878959 0.000313473 -7.34996e-05 -0.000141861
0.00032187 0.00014135 -0.000885951 0.000323799 -6.74989e-05 -0.000162109
0.000287385 0.00017312 -0.000840134 0.000196031 -7.6594e-05 6.15653e-06
0.000290125 0.000170047 -0.000843945 0.000210454 -7.93823e-05 -4.59068e-06
0.000292998 0.00016691 -0.000847908 0.000225173 -8.16466e-05 -1.64718e-05
0.000296019 0.000163737 -0.000852054 0.00024013 -8.32619e-05 -2.95542e-05
0.000299204 0.000160563 -0.000856428 0.000255233 -8.4099e-05 -4.39033e-05
0.000302565 0.000157444 -0.000861085 0.000270338 -8.40234e-05 -5.9571e-05
0.000306112 0.000154445 -0.000866099 0.000285248 -8.29119e-05 -7.65894e-05
0.000309845 0.000151646 -0.000871548 0.000299711 -8.06536e-05 -9.49458e-05
0.000313747 0.000149159 -0.000877507 0.00031345 -7.71452e-05 -0.000114533
0.000317735 0.00014712 -0.000884032 0.000326126 -7.2335e-05 -0.000135087
0.000321572 0.000145672 -0.00089107 0.000337263 -6.62315e-05 -0.000156115
0.000300565 0.000118637 -0.000814153 0.000150033 -0.000114887 -4.61887e-05
0.00030409 0.000114296 -0.000817816 0.000159499 -0.000115772 -5.6103e-05
0.000307771 0.00011011 -0.00082185 0.000168946 -0.000116075 -6.67788e-05
0.000311618 0.000106129 -0.000826306 0.00017831 -0.000115731 -7.82403e-05
0.000315643 0.000102399 -0.000831248 0.000187511 -0.000114677 -9.0497e-05
0.000319852 9.89825e-05 -0.000836749 0.000196452 -0.000112853 -0.000103542
0.000299871 0.000122886 -0.000817503 0.000155963 -0.000116064 -4.03013e-05
0.000303359 0.000118606 -0.000821241 0.000165911 -0.000117093 -5.02591e-05
0.000307007 0.000114452 -0.000825338 0.000175863 -0.000117527 -6.10091e-05
0.000310827 0.000110473 -0.000829846 0.000185743 -0.000117294 -7.25813e-05
0.000314831 0.000106727 -0.00083483 0.000195466 -0.000116325 -8.49917e-05
0.000319026 0.000103277 -0.000840362 0.000204929 -0.000114546 -9.82404e-05
0.000299132 0.000127351 -0.000820968 0.000161897 -0.000116843 -3.41055e-05
0.000302582 0.000123138 -0.000824791 0.000172343 -0.000118034 -4.40952e-05
0.000306195 0.000119027 -0.000828957 0.00018281 -0.000118614 -5.49141e-05
0.000309987 0.000115066 -0.000833523 0.000193223 -0.000118508 -6.65951e-05
0.000313968 0.000111309 -0.000838552 0.000203493 -0.000117636 -7.91597e-05
0.00031815 0.000107821 -0.000844117 0.000213516 -0.00011592 -9.26161e-05
0.000322539 0.000104672 -0.000850292 0.00022316 -0.000113303 -0.000106951
0.000327133 0.000101949 -0.00085716 0.00023227 -0.000109741 -0.000122132
0.000331914 9.97428e-05 -0.000864794 0.000240678 -0.000105209 -0.00013807
0.000298348 0.000132035 -0.000824552 0.000167821 -0.000117198 -2.75884e-05
0.000301758 0.0001279 -0.000828465 0.00017878 -0.000118563 -3.7601e-05
0.000305335 0.000123842 -0.000832708 0.000189783 -0.000119306 -4.84822e-05
0.000309097 0.000119906 -0.000837335 0.000200752 -0.000119343 -6.02671e-05
0.000313055 0.000116146 -0.000842413 0.000211595 -0.000118587 -7.29841e-05
0.000317223 0.000112625 -0.000848014 0.000222198 -0.000116955 -8.66488e-05
0.000321609 0.000109417 -0.000854218 0.000232426 -0.000114376 -0.000101257
0.000326209 0.000106606 -0.000861107 0.00024212 -0.000110798 -0.000116777
0.000331011 0.000104286 -0.00086876 0.000251093 -0.000106196 -0.000133124
0.000297518 0.000136943 -0.000828251 0.000173729 -0.0001171 -2.07384e-05
0.000300885 0.000132899 -0.000832262 0.000185218 -0.000118654 -3.07634e-05
0.000304425 0.000128905 -0.000836588 0.000196778 -0.000119575 -4.16981e-05
0.000308155 0.000125003 -0.000841284 0.000208327 -0.000119775 -5.35805e-05
0.000312089 0.000121246 -0.000846415 0.00021977 -0.000119156 -6.64464e-05
0.000316242 0.000117696 -0.000852055 0.000230989 -0.000117628 -8.03192e-05
0.000320624 0.000114428 -0.000858287 0.000241841 -0.00011511 -9.52032e-05
0.000325232 0.00011153 -0.000865197 0.000252154 -0.000111541 -0.000111073
0.000330055 0.000109098 -0.000872868 0.000261728 -0.000106887 -0.000127848
0.00029664 0.000142078 -0.000832064 0.000179614 -0.000116523 -1.35431e-05
0.000299963 0.000138139 -0.00083618 0.000191651 -0.000118279 -2.35682e-05
0.000303463 0.000134221 -0.000840597 0.000203788 -0.000119395 -3.45458e-05
0.000307159 0.000130365 -0.000845368 0.000215942 -0.000119776 -4.65173e-05
0.000311068 0.000126619 -0.000850557 0.000228016 -0.000119317 -5.95266e-05
0.000315205 0.000123047 -0.000856241 0.000239885 -0.000117916 -7.36064e-05
0.000319582 0.000119723 -0.000862503 0.000251399 -0.000115482 -8.87699e-05
0.000324199 0.000116737 -0.000869433 0.000262373 -0.000111944 -0.000104999
0.000329045 0.00011419 -0.00087712 0.000272595 -0.000107259 -0.00012222
0.000295713 0.000147444 -0.000835986 0.000185467 -0.000115436 -5.98983e-06
0.00029899 0.000143625 -0.000840216 0.000198071 -0.000117407 -1.60004e-05
0.000302448 0.000139798 -0.000844733 0.000210807 -0.000118735 -2.70083e-05
0.000306109 0.000136 -0.000849587 0.000223594 -0.000119319 -3.90583e-05
0.00030999 0.000132276 -0.000854841 0.000236329 -0.000119043 -5.22035e-05
0.000314109 0.000128688 -0.000860572 0.000248885 -0.000117794 -6.6487e-05
0.000318481 0.000125312 -0.000866866 0.000261101 -0.00011547 -8.19323e-05
0.000323107 0.000122239 -0.000873818 0.000272783 -0.000111987 -9.85308e-05
0.000327977 0.000119577 -0.000881518 0.000283699 -0.00010729 -0.000116215
0.000332988 0.000117441 -0.000890014 0.000293592 -0.000101363 -0.000134827
0.000291677 0.000156673 -0.000835878 0.000178298 -0.000111096 1.09899e-05
0.000294737 0.000153048 -0.000840013 0.000191263 -0.000113815 1.94094e-06
0.000297964 0.000149361 -0.000844367 0.000204468 -0.000116007 -8.04431e-06
0.000301379 0.000145642 -0.000848995 0.000217828 -0.000117564 -1.90674e-05
0.000305001 0.000141916 -0.000853941 0.000231275 -0.000118371 -3.1183e-05
0.000308852 0.000138227 -0.000859267 0.000244704 -0.000118303 -4.44541e-05
0.000312953 0.000134633 -0.000865051 0.000257985 -0.000117234 -5.89354e-05
0.000317318 0.000131211 -0.00087138 0.000270949 -0.000115048 -7.46625e-05
0.000321953 0.000128053 -0.000878353 0.000283389 -0.000111647 -9.16379e-05
0.000326848 0.000125269 -0.000886066 0.00029506 -0.000106965 -0.000109803
0.000331903 0.000122987 -0.000894575 0.000305674 -0.000100971 -0.000128996
0.00033696 0.00012134 -0.000903837 0.000314878 -9.37073e-05 -0.000148835
0.000293709 0.000158883 -0.000844138 0.00019703 -0.00011162 1.02552e-05
0.000296885 0.000155359 -0.000848633 0.000210822 -0.000114051 3.06928e-07
0.000300253 0.000151763 -0.000853381 0.000224817 -0.000115858 -1.07123e-05
0.000303835 0.000148125 -0.000858428 0.000238949 -0.00011691 -2.28741e-05
0.000307654 0.000144484 -0.000863834 0.000253116 -0.000117072 -3.62527e-05
0.000311732 0.000140898 -0.000869675 0.000267182 -0.000116205 -5.09171e-05
0.000316089 0.00013744 -0.000876044 0.000280958 -0.000114182 -6.69231e-05
0.000320732 0.000134196 -0.000883042 0.000294206 -0.000110898 -8.42899e-05
0.000325655 0.000131284 -0.000890765 0.000306679 -0.000106257 -0.000102946
0.000330757 0.000128847 -0.000899284 0.000318081 -0.000100217 -0.000122755
0.000335882 0.00012703 -0.000908562 0.000328016 -9.28146e-05 -0.000143321
0.00032034 9.74051e-05 -0.000818284 0.000145706 -0.000145078 -3.1292e-05
0.000324554 9.23309e-05 -0.000822796 0.000154576 -0.000145595 -3.97489e-05
0.000328968 8.74175e-05 -0.000827791 0.000163398 -0.00014545 -4.88143e-05
0.000333598 8.27152e-05 -0.00083333 0.000172117 -0.000144577 -5.85013e-05
0.000338459 7.82755e-05 -0.000839491 0.000180663 -0.000142909 -6.88108e-05
0.000343562 7.41639e-05 -0.000846359 0.000188946 -0.000140385 -7.97335e-05
0.00031937 0.000102395 -0.000821554 0.000151925 -0.00014706 -2.57275e-05
0.000323527 9.74101e-05 -0.000826118 0.000161252 -0.000147718 -3.42383e-05
0.000327887 9.25548e-05 -0.000831151 0.00017055 -0.000147699 -4.33852e-05
0.000332469 8.78801e-05 -0.000836716 0.000179754 -0.000146927 -5.31857e-05
0.000337286 8.34467e-05 -0.000842892 0.000188784 -0.000145329 -6.3645e-05
0.000342353 7.93241e-05 -0.000849764 0.000197547 -0.000142832 -7.47589e-05
0.000318339 0.000107639 -0.000824941 0.000158166 -0.000148605 -1.98673e-05
0.000322436 0.000102751 -0.000829565 0.000167966 -0.000149423 -2.84241e-05
0.00032674 9.79664e-05 -0.000834641 0.000177754 -0.000149546 -3.76495e-05
0.00033127 9.33354e-05 -0.000840237 0.000187456 -0.000148892 -4.75625e-05
0.000336043 8.89171e-05 -0.00084643 0.000196994 -0.00014738 -5.81737e-05
0.000341074 8.47776e-05 -0.000853306 0.000206273 -0.000144931 -6.94851e-05
0.000346375 8.09947e-05 -0.000860957 0.000215177 -0.00014149 -8.14882e-05
0.000351953 7.76594e-05 -0.000869481 0.000223572 -0.000137013 -9.41718e-05
0.000357796 7.48645e-05 -0.000878969 0.000231324 -0.000131483 -0.000107497
0.000317244 0.000113142 -0.000828446 0.000164416 -0.000149683 -1.36982e-05
0.000321279 0.000108364 -0.000833136 0.000174707 -0.000150676 -2.22944e-05
0.000325525 0.000103662 -0.000838262 0.000185002 -0.000150958 -3.15943e-05
0.000330002 9.9084e-05 -0.000843891 0.000195226 -0.000150442 -4.16181e-05
0.000334728 9.46881e-05 -0.000850103 0.000205296 -0.000149036 -5.23818e-05
0.00033972 9.0542e-05 -0.000856986 0.00021511 -0.000146657 -6.38934e-05
0.000344993 8.67237e-05 -0.000864635 0.000224549 -0.000143232 -7.6151e-05
0.000350554 8.33215e-05 -0.00087315 0.000233476 -0.000138714 -8.91422e-05
0.000356391 8.04337e-05 -0.000882631 0.000241739 -0.000133084 -0.000102832
0.000316085 0.000118909 -0.000832068 0.00017067 -0.000150263 -7.20849e-06
0.000320055 0.000114255 -0.00083683 0.000181469 -0.000151447 -1.58362e-05
0.000324239 0.000109648 -0.000842012 0.000192292 -0.000151907 -2.52048e-05
0.00032866 0.000105135 -0.00084768 0.000203062 -0.000151549 -3.5336e-05
0.000333337 0.00010077 -0.000853915 0.000213692 -0.000150274 -4.62514e-05
0.000338289 9.66218e-05 -0.000860805 0.000224076 -0.000147985 -5.7965e-05
0.000343532 9.27686e-05 -0.000868451 0.000234088 -0.000144604 -7.04803e-05
0.000349075 8.93025e-05 -0.000876956 0.000243579 -0.000140072 -8.37896e-05
0.000354907 8.63258e-05 -0.000886425 0.000252385 -0.000134362 -9.78617e-05
0.00031486 0.000124944 -0.000835805 0.000176922 -0.000150315 -3.85743e-07
0.000318761 0.00012043 -0.000840646 0.000188248 -0.000151705 -9.03514e-06
0.000322882 0.000115934 -0.000845891 0.000199621 -0.000152362 -1.8465e-05
0.000327244 0.000111498 -0.000851604 0.000210962 -0.000152185 -2.86985e-05
0.00033187 0.000107175 -0.000857866 0.000222181 -0.000151063 -3.97634e-05
0.000336779 0.000103032 -0.000864766 0.000233167 -0.000148892 -5.16803e-05
0.00034199 9.91488e-05 -0.000872408 0.000243786 -0.00014558 -6.44592e-05
0.000347514 9.562e-05 -0.000880901 0.000253881 -0.000141057 -7.80983e-05
0.000353342 9.25521e-05 -0.000890355 0.000263272 -0.000135287 -9.25707e-05
0.000313566 0.000131252 -0.000839653 0.000183164 -0.000149807 6.78307e-06
0.000317397 0.000126896 -0.000844582 0.000195036 -0.000151418 -1.87614e-06
0.00032145 0.000122527 -0.000849898 0.000206983 -0.000152291 -1.13578e-05
0.000325751 0.000118184 -0.000855664 0.000218922 -0.000152318 -2.16867e-05
0.000330322 0.000113915 -0.000861957 0.000230761 -0.000151376 -3.2897e-05
0.000335186 0.000109786 -0.00086887 0.000242384 -0.000149349 -4.5017e-05
0.000340364 0.000105879 -0.000876509 0.000253649 -0.000146133 -5.80644e-05
0.000345868 0.00010229 -0.000884988 0.00026439 -0.000141646 -7.2044e-05
0.000351691 9.91314e-05 -0.000894422 0.00027441 -0.000135838 -8.69355e-05
0.000357772 9.6526e-05 -0.000904893 0.000283508 -0.000128702 -0.000102763
0.000308652 0.000141947 -0.000838886 0.000177089 -0.000146252 2.22012e-05
0.000312204 0.000137838 -0.000843608 0.000189371 -0.000148709 1.4319e-05
0.000315959 0.000133657 -0.000848635 0.000201826 -0.00015055 5.65723e-06
0.000319943 0.000129435 -0.000854032 0.000214372 -0.000151659 -3.86465e-06
0.000324178 0.0001252 -0.000859858 0.000226938 -0.000151912 -1.428e-05
0.000328692 0.000121 -0.000866189 0.000239429 -0.000151178 -2.56298e-05
0.000333508 0.000116898 -0.000873119 0.000251726 -0.000149325 -3.79508e-05
0.00033865 0.000112974 -0.000880757 0.000263681 -0.000146236 -5.12697e-05
0.000344132 0.000109328 -0.000889221 0.000275113 -0.000141814 -6.55996e-05
0.000349951 0.000106075 -0.000898632 0.000285817 -0.000135997 -8.09278e-05
0.000356046 0.000103348 -0.000909083 0.000295566 -0.000128764 -9.72734e-05
0.000362188 0.000101289 -0.000920563 0.000304158 -0.000120167 -0.000114631
0.00031077 0.0001447 -0.000847665 0.000195571 -0.00014698 2.22285e-05
0.000314448 0.000140724 -0.000852806 0.000208597 -0.000149072 1.35731e-05
0.000318358 0.000136667 -0.000858293 0.000221753 -0.000150439 4.02596e-06
0.000322524 0.00013256 -0.000864187 0.000234974 -0.000150944 -6.46065e-06
0.000326976 0.000128445 -0.000870563 0.000248161 -0.000150442 -1.79359e-05
0.000331741 0.000124384 -0.000877514 0.000261192 -0.000148787 -3.04487e-05
0.000336845 0.000120457 -0.000885152 0.000273899 -0.000145852 -4.40407e-05
0.000342303 0.000116755 -0.000893603 0.00028607 -0.000141531 -5.87369e-05
0.000348117 0.000113403 -0.000902986 0.000297501 -0.000135733 -7.45117e-05
0.000354227 0.000110549 -0.000913411 0.000307957 -0.000128425 -9.14078e-05
0.000360404 0.000108346 -0.000924876 0.000317204 -0.000119652 -0.00010941
0.000316524 7.61202e-05 -0.000822497 0.000129369 -0.000175971 -2.19855e-05
0.000321433 7.03067e-05 -0.000827862 0.000137695 -0.00017612 -2.93671e-05
0.000326575 6.46585e-05 -0.000833819 0.000146033 -0.000175523 -3.72236e-05
0.000331967 5.92287e-05 -0.000840443 0.000154331 -0.000174109 -4.55488e-05
0.000337626 5.4072e-05 -0.000847822 0.000162523 -0.00017181 -5.43277e-05
0.000343563 4.92585e-05 -0.000856056 0.000170521 -0.000168565 -6.35414e-05
0.000315014 8.18514e-05 -0.000825678 0.00013477 -0.000178819 -1.64943e-05
0.000319841 7.61551e-05 -0.000831071 0.000143512 -0.000179108 -2.39597e-05
0.000324905 7.05909e-05 -0.000837042 0.000152289 -0.00017863 -3.19264e-05
0.000330225 6.5213e-05 -0.000843667 0.000161036 -0.000177307 -4.0393e-05
0.000335818 6.00857e-05 -0.000851035 0.000169682 -0.000175065 -4.93477e-05
0.000341698 5.52832e-05 -0.000859246 0.000178138 -0.000171827 -5.87742e-05
0.000313417 8.78759e-05 -0.000828975 0.000140181 -0.000181191 -1.07031e-05
0.000318158 8.23052e-05 -0.000834405 0.000149352 -0.000181639 -1.82463e-05
0.000323141 7.68393e-05 -0.000840394 0.000158574 -0.000181301 -2.6323e-05
0.000328385 7.15311e-05 -0.000847022 0.000167784 -0.00018009 -3.49329e-05
0.00033391 6.64432e-05 -0.00085438 0.000176905 -0.000177921 -4.40684e-05
0.000339731 6.1645e-05 -0.000862568 0.000185852 -0.000174717 -5.3717e-05
0.000345865 5.72201e-05 -0.000871695 0.000194502 -0.000170421 -6.38603e-05
0.000352323 5.32652e-05 -0.000881876 0.000202713 -0.000164994 -7.44863e-05
0.000359095 4.98758e-05 -0.000893224 0.000210344 -0.000158426 -8.55846e-05
0.000311732 9.41988e-05 -0.00083239 0.000145589 -0.000183055 -4.59709e-06
0.000316383 8.87687e-05 -0.000837861 0.000155201 -0.00018368 -1.2214e-05
0.00032128 8.34147e-05 -0.000843874 0.000164884 -0.0001835 -2.03994e-05
0.000326445 7.81873e-05 -0.000850509 0.000174574 -0.000182422 -2.91541e-05
0.000331898 7.31478e-05 -0.000857858 0.000184194 -0.000180351 -3.84744e-05
0.000337658 6.83684e-05 -0.000866024 0.000193644 -0.0001772 -4.8351e-05
0.000343741 6.39317e-05 -0.000875119 0.000202805 -0.000172899 -5.87694e-05
0.000350159 5.99308e-05 -0.000885262 0.000211534 -0.000167404 -6.97126e-05
0.000356905 5.64686e-05 -0.000896575 0.000219669 -0.000160704 -8.11725e-05
0.000309957 0.000100826 -0.000835921 0.00015099 -0.000184377 1.83624e-06
0.000314514 9.5553e-05 -0.000841441 0.000161056 -0.000185198 -5.84841e-06
0.000319322 9.0326e-05 -0.000847483 0.000171217 -0.000185198 -1.41396e-05
0.000324403 8.51924e-05 -0.000854129 0.000181407 -0.000184276 -2.30389e-05
0.000329781 8.02116e-05 -0.000861471 0.000191546 -0.000182327 -3.25466e-05
0.000335475 7.54555e-05 -0.000869613 0.000201533 -0.000179255 -4.26564e-05
0.000341504 7.10081e-05 -0.000878674 0.00021124 -0.000174979 -5.33558e-05
0.00034788 6.69661e-05 -0.000888776 0.000220516 -0.000169445 -6.46298e-05
0.0003546 6.34371e-05 -0.00090005 0.000229187 -0.000162632 -7.64734e-05
0.00030809 0.000107762 -0.000839568 0.000156379 -0.000185126 8.60998e-06
0.000312548 0.000102665 -0.000845142 0.000166912 -0.000186159 8.65888e-07
0.000317262 9.75819e-05 -0.00085122 0.000177567 -0.00018636 -7.5263e-06
0.000322256 9.2557e-05 -0.000857882 0.000188277 -0.000185618 -1.65684e-05
0.000327554 8.76474e-05 -0.00086522 0.00019896 -0.000183819 -2.62649e-05
0.000333179 8.29239e-05 -0.000873341 0.000209511 -0.000180854 -3.66131e-05
0.00033915 7.84722e-05 -0.000882365 0.000219797 -0.00017663 -4.76035e-05
0.000345484 7.43918e-05 -0.000892423 0.000229656 -0.000171083 -5.92243e-05
0.000352176 7.07949e-05 -0.000903651 0.000238903 -0.00016418 -7.14719e-05
0.00030613 0.000115012 -0.000843328 0.000161747 -0.000185264 1.57381e-05
0.000310484 0.000110112 -0.000848964 0.000172763 -0.000186527 7.94529e-06
0.000315099 0.000105192 -0.000855086 0.000183931 -0.00018695 -5.40784e-07
0.000320001 0.000100292 -0.00086177 0.000195182 -0.000186416 -9.72206e-06
0.000325215 9.54682e-05 -0.000869108 0.000206434 -0.000184795 -1.96072e-05
0.000330766 9.07888e-05 -0.000877208 0.000217579 -0.000181967 -3.01979e-05
0.000336677 8.63404e-05 -0.000886195 0.000228477 -0.000177826 -4.1489e-05
0.000342965 8.22253e-05 -0.000896206 0.000238958 -0.000172293 -5.34719e-05
0.000349629 7.85624e-05 -0.000907381 0.000248821 -0.000165324 -6.61473e-05
0.000356647 7.54797e-05 -0.000919849 0.000257853 -0.000156923 -7.96041e-05
0.000300071 0.000127185 -0.000841879 0.000155782 -0.00018254 3.04077e-05
0.000304074 0.000122583 -0.000847197 0.000167073 -0.000184757 2.32445e-05
0.000308319 0.000117899 -0.000852905 0.000178604 -0.000186264 1.54076e-05
0.00031283 0.000113164 -0.00085908 0.000190303 -0.000186932 6.83705e-06
0.000317634 0.00010841 -0.000865793 0.000202117 -0.00018663 -2.47761e-06
0.00032276 0.000103688 -0.000873135 0.000213965 -0.000185219 -1.25495e-05
0.000328233 9.90655e-05 -0.000881218 0.000225734 -0.00018256 -2.33852e-05
0.00033408 9.46299e-05 -0.000890168 0.000237282 -0.000178535 -3.49853e-05
0.00034032 9.04852e-05 -0.000900127 0.000248428 -0.000173049 -4.73456e-05
0.000346953 8.67534e-05 -0.000911245 0.000258959 -0.000166043 -6.04708e-05
0.000353961 8.35739e-05 -0.00092366 0.000268636 -0.000157511 -7.44406e-05
0.000361096 8.10945e-05 -0.000937439 0.000277234 -0.000147513 -8.96454e-05
0.000301921 0.000130474 -0.000851169 0.000172386 -0.000183566 3.11355e-05
0.000306051 0.000126036 -0.000856964 0.000184414 -0.000185337 2.32617e-05
0.000310453 0.000121508 -0.000863201 0.000196651 -0.000186277 1.46189e-05
0.000315155 0.000116921 -0.00086995 0.000209048 -0.000186235 5.18335e-06
0.000320185 0.00011232 -0.000877304 0.000221528 -0.00018506 -5.06512e-06
0.000325576 0.000107773 -0.000885371 0.000233974 -0.000182598 -1.61423e-05
0.000331354 0.000103365 -0.000894284 0.000246226 -0.000178717 -2.80579e-05
0.000337542 9.91935e-05 -0.000904193 0.000258077 -0.000173315 -4.08155e-05
0.000344143 9.53904e-05 -0.000915245 0.000269316 -0.000166304 -5.44045e-05
0.00035114 9.2111e-05 -0.0009276 0.000279697 -0.000157663 -6.89245e-05
0.000358287 8.95137e-05 -0.000941334 0.000288956 -0.000147447 -8.47504e-05
0.000337234 5.46097e-05 -0.000826616 0.000117661 -0.000206782 -1.08501e-05
0.00034288 4.80483e-05 -0.00083287 0.000125269 -0.000206569 -1.8014e-05
0.000348809 4.1657e-05 -0.000839831 0.000132922 -0.000205527 -2.56522e-05
0.000355041 3.54917e-05 -0.000847588 0.000140568 -0.000203581 -3.376e-05
0.000361597 2.96109e-05 -0.000856242 0.000148139 -0.000200662 -4.23228e-05
0.000368496 2.40901e-05 -0.000865906 0.000155554 -0.000196706 -5.13186e-05
0.000335493 6.10775e-05 -0.000829739 0.000121663 -0.000210532 -5.99828e-06
0.000341037 5.46598e-05 -0.000835997 0.000129643 -0.000210457 -1.32512e-05
0.000346867 4.83776e-05 -0.000842947 0.000137692 -0.000209529 -2.10053e-05
0.000353005 4.22884e-05 -0.000850678 0.000145747 -0.000207665 -2.92603e-05
0.000359474 3.64602e-05 -0.000859293 0.000153738 -0.000204789 -3.80056e-05
0.000366294 3.09716e-05 -0.000868906 0.000161581 -0.00020082 -4.72231e-05
0.000333649 6.78769e-05 -0.000832979 0.000125637 -0.000213769 -8.77745e-07
0.000339085 6.16132e-05 -0.000839248 0.000133998 -0.000213854 -8.21199e-06
0.000344812 5.54561e-05 -0.00084619 0.000142447 -0.000213062 -1.60806e-05
0.000350852 4.94618e-05 -0.000853897 0.000150923 -0.000211303 -2.44847e-05
0.00035723 4.36969e-05 -0.000862474 0.000159353 -0.000208488 -3.34173e-05
0.000363967 3.82331e-05 -0.000872035 0.000167655 -0.000204539 -4.28636e-05
0.000371087 3.31605e-05 -0.000882709 0.000175708 -0.000199402 -5.27974e-05
0.000378608 2.85814e-05 -0.000894626 0.000183368 -0.000193038 -6.31964e-05
0.00038654 2.45943e-05 -0.000907925 0.000190487 -0.000185448 -7.40508e-05
0.000331698 7.50142e-05 -0.000836339 0.000129568 -0.000216459 4.5247e-06
0.000337022 6.89214e-05 -0.000842624 0.000138319 -0.000216724 -2.88596e-06
0.00034264 6.29048e-05 -0.000849562 0.000147181 -0.000216089 -1.08667e-05
0.000348578 5.70182e-05 -0.000857247 0.000156094 -0.000214458 -1.942e-05
0.00035486 5.13266e-05 -0.000865785 0.000164983 -0.000211731 -2.85425e-05
0.000361512 4.59065e-05 -0.000875294 0.000173754 -0.00020782 -3.82223e-05
0.000368556 4.08452e-05 -0.000885905 0.000182287 -0.000202655 -4.84389e-05
0.000376013 3.62405e-05 -0.000897755 0.000190438 -0.000196197 -5.91655e-05
0.000383894 3.22008e-05 -0.000910992 0.000198042 -0.000188442 -7.03938e-05
0.000329638 8.24956e-05 -0.000839817 0.000133452 -0.000218567 1.022e-05
0.000334845 7.65926e-05 -0.000846124 0.000142602 -0.000219031 2.73967e-06
0.000340351 7.07335e-05 -0.000853064 0.00015189 -0.000218578 -5.34924e-06
0.000346181 6.49692e-05 -0.00086073 0.000161256 -0.0002171 -1.40502e-05
0.000352363 5.9363e-05 -0.000869229 0.000170623 -0.000214488 -2.33639e-05
0.000358923 5.39912e-05 -0.000878683 0.000179892 -0.000210642 -3.32819e-05
0.000365888 4.89428e-05 -0.000889227 0.000188939 -0.000205484 -4.37867e-05
0.000373277 4.43197e-05 -0.000901005 0.00019761 -0.000198962 -5.48543e-05
0.000381106 4.02348e-05 -0.000914175 0.000205728 -0.000191063 -6.64779e-05
0.000327468 9.03274e-05 -0.000843414 0.000137282 -0.000220056 1.62198e-05
0.000332552 8.46349e-05 -0.000849748 0.000146842 -0.000220739 8.67847e-06
0.000337939 7.89522e-05 -0.000856695 0.000156569 -0.00022049 4.87191e-07
0.000343656 7.3327e-05 -0.000864346 0.000166403 -0.000219193 -8.3581e-06
0.000349733 6.78203e-05 -0.000872809 0.000176268 -0.000216726 -1.7863e-05
0.000356198 6.25078e-05 -0.000882208 0.000186061 -0.000212977 -2.80233e-05
0.000363079 5.74801e-05 -0.000892681 0.000195651 -0.000207855 -3.88256e-05
0.000370398 5.28423e-05 -0.000904382 0.000204876 -0.000201295 -5.0249e-05
0.000378172 4.87123e-05 -0.000917474 0.000213547 -0.000193275 -6.22879e-05
0.000325185 9.85155e-05 -0.000847127 0.00014105 -0.000220888 2.25363e-05
0.00033014 9.30561e-05 -0.000853496 0.00015103 -0.00022181 1.49448e-05
0.000335403 8.75712e-05 -0.000860457 0.00016121 -0.00022179 6.65918e-06
0.000341002 8.21041e-05 -0.000868098 0.00017153 -0.000220701 -2.32538e-06
0.000346968 7.67131e-05 -0.000876527 0.000181914 -0.00021841 -1.20199e-05
0.000353332 7.14729e-05 -0.00088587 0.000192256 -0.000214791 -2.24254e-05
0.000360124 6.64749e-05 -0.000896271 0.00020242 -0.000209737 -3.35334e-05
0.000367369 6.18275e-05 -0.000907889 0.000212236 -0.000203171 -4.53267e-05
0.000375087 5.76554e-05 -0.000920895 0.000221499 -0.000195056 -5.78038e-05
0.00038326 5.40923e-05 -0.000935454 0.000229989 -0.000185407 -7.10224e-05
0.000318248 0.000112175 -0.00084502 0.000134594 -0.000219039 3.61581e-05
0.000322786 0.000107065 -0.000850953 0.000144735 -0.000221023 2.91909e-05
0.000327607 0.000101864 -0.000857367 0.000155161 -0.000222201 2.15542e-05
0.000332739 9.66003e-05 -0.00086435 0.000165807 -0.000222435 1.31844e-05
0.000338214 9.1313e-05 -0.000871988 0.00017663 -0.000221585 4.06772e-06
0.000344064 8.60565e-05 -0.000880386 0.000187554 -0.000219503 -5.81286e-06
0.000350322 8.09036e-05 -0.000889674 0.000198472 -0.000216049 -1.64646e-05
0.00035702 7.59466e-05 -0.0009 0.000209243 -0.000211099 -2.78851e-05
0.000364187 7.12959e-05 -0.000911529 0.000219689 -0.000204561 -4.0062e-05
0.000371845 6.708e-05 -0.000924442 0.000229594 -0.000196382 -5.29981e-05
0.000379978 6.34446e-05 -0.000938917 0.00023871 -0.000186568 -6.67422e-05
0.000388516 6.05434e-05 -0.00095513 0.00024678 -0.00017519 -8.17327e-05
0.000320271 0.000115982 -0.000854889 0.000148366 -0.000220421 3.61877e-05
0.000324951 0.000111066 -0.000861362 0.000159216 -0.000221878 2.85131e-05
0.000329946 0.00010605 -0.000868375 0.000170329 -0.000222396 2.00723e-05
0.000335289 0.000100968 -0.000876015 0.000181668 -0.000221814 1.08365e-05
0.000341016 9.58672e-05 -0.000884387 0.000193162 -0.000219973 7.80793e-07
0.000347161 9.08212e-05 -0.000893622 0.000204702 -0.000216713 -1.01113e-05
0.00035376 8.59205e-05 -0.00090387 0.000216129 -0.000211897 -2.18485e-05
0.000360844 8.12711e-05 -0.00091531 0.000227242 -0.000205425 -3.44283e-05
0.000368439 7.70112e-05 -0.000928119 0.000237826 -0.000197216 -4.78372e-05
0.000376531 7.33025e-05 -0.000942499 0.000247624 -0.000187259 -6.21432e-05
0.00038505 7.03091e-05 -0.000958636 0.00025634 -0.000175622 -7.77727e-05
0.000344179 3.29337e-05 -0.000830125 0.00011113 -0.000237617 1.05e-05
0.000350515 2.56154e-05 -0.000837221 0.000117543 -0.000237068 4.44748e-06
0.000357197 1.84713e-05 -0.000845139 0.000123932 -0.000235609 -2.03546e-06
0.000364252 1.15605e-05 -0.000853978 0.000130254 -0.000233164 -8.95615e-06
0.000371707 4.94552e-06 -0.000863857 0.000136454 -0.000229659 -1.63106e-05
0.000379586 -1.29334e-06 -0.000874902 0.000142463 -0.00022503 -2.40844e-05
0.000342047 4.01349e-05 -0.00083321 0.000114892 -0.000242227 1.42828e-05
0.000348253 3.29866e-05 -0.000840283 0.000121633 -0.000241812 8.16747e-06
0.000354809 2.59765e-05 -0.000848162 0.000128368 -0.000240463 1.59869e-06
0.000361743 1.91658e-05 -0.000856948 0.000135045 -0.000238092 -5.43396e-06
0.000369085 1.26259e-05 -0.000866758 0.000141601 -0.000234617 -1.29301e-05
0.00037686 6.44013e-06 -0.000877721 0.000147966 -0.000229957 -2.08808e-05
0.000339806 4.77057e-05 -0.000836415 0.00011863 -0.000246285 1.82723e-05
0.000345876 4.07395e-05 -0.000843472 0.00012571 -0.00024603 1.21025e-05
0.0003523 3.38812e-05 -0.000851315 0.000132797 -0.000244814 5.45057e-06
0.000359108 2.71903e-05 -0.000860047 0.000139837 -0.00024254 -1.6941e-06
0.00036633 2.07371e-05 -0.000869787 0.000146767 -0.000239117 -9.33428e-06
0.000373996 1.45965e-05 -0.000880666 0.000153518 -0.000234463 -1.7465e-05
0.000382138 8.86453e-06 -0.000892831 0.000159996 -0.000228528 -2.60676e-05
0.00039078 3.64922e-06 -0.000906429 0.000166089 -0.00022127 -3.51356e-05
0.000399951 -9.47801e-07 -0.000921626 0.000171684 -0.000212698 -4.4669e-05
0.000337454 5.56535e-05 -0.000839742 0.00012233 -0.000249755 2.24787e-05
0.000343382 4.88884e-05 -0.000846788 0.000129759 -0.000249682 1.62598e-05
0.000349667 4.21989e-05 -0.000854598 0.000137211 -0.000248623 9.52822e-06
0.000356342 3.56423e-05 -0.000863276 0.000144631 -0.000246472 2.27352e-06
0.000363439 2.92873e-05 -0.000872945 0.000151953 -0.000243128 -5.51083e-06
0.000370991 2.32148e-05 -0.000883739 0.0001591 -0.000238499 -1.38231e-05
0.000379029 1.75166e-05 -0.000895806 0.000165976 -0.000232515 -2.26538e-05
0.000387581 1.22957e-05 -0.000909305 0.000172472 -0.000225139 -3.19932e-05
0.000396679 7.66577e-06 -0.000924411 0.000178458 -0.000216373 -4.18429e-05
0.000334989 6.39857e-05 -0.000843192 0.000125986 -0.0002526 2.691e-05
0.000340768 5.74426e-05 -0.000850232 0.000133775 -0.00025273 2.06485e-05
0.000346908 5.09408e-05 -0.000858013 0.000141606 -0.000251853 1.38423e-05
0.000353444 4.45347e-05 -0.00086664 0.000149422 -0.000249853 6.48085e-06
0.000360409 3.82915e-05 -0.000876236 0.000157156 -0.000246618 -1.44667e-06
0.000367839 3.22919e-05 -0.00088694 0.000164727 -0.000242044 -9.94333e-06
0.000375768 2.66297e-05 -0.000898905 0.000172032 -0.000236051 -1.90045e-05
0.000384226 2.14122e-05 -0.000912297 0.000178955 -0.000228588 -2.86246e-05
0.000393246 1.67581e-05 -0.000927302 0.000185358 -0.00021965 -3.88066e-05
0.00033241 7.27094e-05 -0.000846766 0.000129591 -0.00025478 3.15749e-05
0.000338033 6.6411e-05 -0.000853805 0.000137752 -0.000255136 2.52786e-05
0.000344021 6.01179e-05 -0.000861561 0.000145977 -0.000254466 1.84042e-05
0.00035041 5.3881e-05 -0.000870139 0.000154206 -0.000252647 1.09406e-05
0.000357237 4.77653e-05 -0.000879663 0.000162373 -0.000249553 2.87216e-06
0.000364538 4.18511e-05 -0.000890274 0.00017039 -0.000245067 -5.81003e-06
0.000372352 3.62339e-05 -0.000902132 0.000178152 -0.000239095 -1.51068e-05
0.000380709 3.10249e-05 -0.00091541 0.000185532 -0.000231575 -2.50172e-05
0.000389648 2.63477e-05 -0.000930303 0.000192383 -0.000222488 -3.5546e-05
0.000329715 8.18314e-05 -0.000850461 0.000133139 -0.000256254 3.64828e-05
0.000335175 7.58026e-05 -0.000857506 0.000141684 -0.000256856 3.01607e-05
0.000341003 6.97417e-05 -0.000865244 0.000150317 -0.000256421 2.32259e-05
0.000347239 6.3695e-05 -0.000873778 0.000158979 -0.000254814 1.56664e-05
0.000353919 5.77248e-05 -0.000883231 0.000167598 -0.000251895 7.46061e-06
0.000361085 5.19105e-05 -0.000893747 0.000176087 -0.000247532 -1.40685e-06
0.000368776 4.63491e-05 -0.000905492 0.000184334 -0.000241617 -1.09431e-05
0.000377028 4.11548e-05 -0.000918648 0.000192204 -0.000234072 -2.11522e-05
0.00038588 3.64586e-05 -0.000933417 0.000199537 -0.000224865 -3.20441e-05
0.000395326 3.24001e-05 -0.000950007 0.00020617 -0.000214018 -4.37384e-05
0.000321953 9.69843e-05 -0.000847782 0.000127819 -0.000255214 4.74194e-05
0.000326904 9.13561e-05 -0.000854275 0.000136607 -0.000256977 4.16503e-05
0.000332192 8.56261e-05 -0.000861335 0.000145564 -0.000257847 3.53062e-05
0.000337853 7.98233e-05 -0.000869063 0.000154621 -0.000257675 2.83203e-05
0.000343926 7.39907e-05 -0.000877557 0.000163733 -0.000256311 2.06725e-05
0.000350453 6.81867e-05 -0.000886941 0.000172828 -0.000253603 1.23348e-05
0.000357476 6.24893e-05 -0.000897363 0.000181814 -0.000249401 3.28403e-06
0.000365037 5.69962e-05 -0.000908991 0.000190577 -0.000243581 -6.49391e-06
0.000373176 5.18243e-05 -0.000922016 0.000198973 -0.000236048 -1.70094e-05
0.000381936 4.71086e-05 -0.000936652 0.000206832 -0.000226754 -2.82788e-05
0.000391313 4.30013e-05 -0.000953121 0.000213968 -0.000215711 -4.04175e-05
0.000401373 3.96625e-05 -0.000971687 0.000220179 -0.000203007 -5.37384e-05
0.000323973 0.000101293 -0.000858206 0.000140022 -0.00025691 4.70796e-05
0.000329082 9.58885e-05 -0.000865295 0.00014937 -0.000258073 4.07197e-05
0.000334568 9.03738e-05 -0.00087302 0.000158854 -0.000258195 3.36948e-05
0.00034047 8.47832e-05 -0.000881479 0.000168432 -0.000257109 2.59705e-05
0.000346834 7.91696e-05 -0.000890798 0.000178034 -0.000254644 1.7512e-05
0.000353704 7.36103e-05 -0.000901123 0.000187565 -0.000250636 8.28685e-06
0.000361127 6.8202e-05 -0.00091263 0.000196892 -0.000244941 -1.73358e-06
0.000369147 6.30582e-05 -0.000925522 0.000205845 -0.00023746 -1.25697e-05
0.000377809 5.83247e-05 -0.000940011 0.000214261 -0.000228116 -2.42237e-05
0.000387114 5.41696e-05 -0.000956345 0.000221948 -0.000216901 -3.68348e-05
0.000397129 5.07634e-05 -0.000974803 0.000228673 -0.000203901 -5.07103e-05
0 0 0 0 0 0
0 0 0 0 0 0
0 0 0 0 0 0
0 0 0 0 0 0
0 0 0 0 0 0
0 0 0 0 0 0
0 0 0 0 0 0
0 0 0 0 0 0
0 0 0 0 0 0
0 0 0 0 0 0
0 0 0 0 0 0
0 0 0 0 0 0
0 0 0 0 0 0
0 0 0 0 0 0
0 0 0 0 0 0
0 0 0 0 0 0
0 0 0 0 0 0
0 0 0 0 0 0
0 0 0 0 0 0
0 0 0 0 0 0
0 0 0 0 0 0
0 0 0 0 0 0
0 0 0 0 0 0
0 0 0 0 0 0
0 0 0 0 0 0
0 0 0 0 0 0
0 0 0 0 0 0
0 0 0 0 0 0
0 0 0 0 0 0
0 0 0 0 0 0
0 0 0 0 0 0
0 0 0 0 0 0
0 0 0 0 0 0
0 0 0 0 0 0
0 0 0 0 0 0
0 0 0 0 0 0
0 0 0 0 0 0
0 0 0 0 0 0
0 0 0 0 0 0
0 0 0 0 0 0
0 0 0 0 0 0
0 0 0 0 0 0
0 0 0 0 0 0
0 0 0 0 0 0
0 0 0 0 0 0
0 0 0 0 0 0
0 0 0 0 0 0
0 0 0 0 0 0
0 0 0 0 0 0
0 0 0 0 0 0
0 0 0 0 0 0
0 0 0 0 0 0
0 0 0 0 0 0
0 0 0 0 0 0
0 0 0 0 0 0
0 0 0 0 0 0
0 0 0 0 0 0
0 0 0 0 0 0
0 0 0 0 0 0
0 0 0 0 0 0
0 0 0 0 0 0
0 0 0 0 0 0
0 0 0 0 0 0
0 0 0 0 0 0
0 0 0 0 0 0
0 0 0 0 0 0
0 0 0 0 0 0
0 0 0 0 0 0
0 0 0 0 0 0
0 0 0 0 0 0
0 0 0 0 0 0
0 0 0 0 0 0
0 0 0 0 0 0
0 0 0 0 0 0
0 0 0 0 0 0
0 0 0 0 0 0
0 0 0 0 0 0
0 0 0 0 0 0
0 0 0 0 0 0
0 0 0 0 0 0
0 0 0 0 0 0
0.000363565 1.12836e-05 -0.000833047 9.76888e-05 -0.000269069 4.02427e-05
0.000370505 3.19988e-06 -0.000840887 0.000102975 -0.000268184 3.69167e-05
0.000377831 -4.70592e-06 -0.000849653 0.000108196 -0.000266308 3.34112e-05
0.000385575 -1.2372e-05 -0.000859457 0.000113322 -0.000263358 2.97341e-05
0.000393769 -1.97326e-05 -0.000870428 0.000118311 -0.000259257 2.59022e-05
0.000402444 -2.67027e-05 -0.000882707 0.000123109 -0.000253939 2.19354e-05
0.000361227 1.9222e-05 -0.00083607 0.000101754 -0.000274524 4.34142e-05
0.000368017 1.13354e-05 -0.000843863 0.000107322 -0.000273773 4.00202e-05
0.000375195 3.58854e-06 -0.000852564 0.000112839 -0.000272002 3.64303e-05
0.000382796 -3.95439e-06 -0.000862285 0.000118263 -0.000269118 3.26513e-05
0.000390853 -1.1218e-05 -0.000873158 0.000123546 -0.000265035 2.86987e-05
0.000399398 -1.81146e-05 -0.000885324 0.00012863 -0.00025967 2.45896e-05
0.000358765 2.75679e-05 -0.000839214 0.000105827 -0.000279387 4.67592e-05
0.000365397 1.98918e-05 -0.000846966 0.000111688 -0.000278797 4.33012e-05
0.000372421 1.23233e-05 -0.000855603 0.000117506 -0.000277158 3.96264e-05
0.000379871 4.92515e-06 -0.000865241 0.000123235 -0.000274366 3.57436e-05
0.000387784 -2.22857e-06 -0.000876013 0.000128825 -0.000270325 3.16664e-05
0.000396194 -9.05982e-06 -0.000888063 0.000134223 -0.000264952 2.741e-05
0.00040514 -1.54665e-05 -0.000901557 0.000139356 -0.000258197 2.29975e-05
0.000414661 -2.13342e-05 -0.000916662 0.000144139 -0.000250016 1.8429e-05
0.00042479 -2.65579e-05 -0.000933565 0.000148489 -0.000240427 1.37201e-05
0.000356175 3.63304e-05 -0.000842483 0.000109893 -0.000283621 5.02882e-05
0.000362643 2.88857e-05 -0.000850198 0.000116058 -0.000283216 4.6768e-05
0.000369505 2.15145e-05 -0.000858773 0.000122189 -0.000281733 4.30082e-05
0.000376798 1.42771e-05 -0.000868328 0.000128237 -0.000279062 3.90197e-05
0.000384559 7.24637e-06 -0.000878995 0.000134152 -0.000275093 3.48143e-05
0.000392828 5.07331e-07 -0.000890928 0.000139871 -0.000269733 3.04068e-05
0.000401642 -5.84332e-06 -0.000904289 0.000145322 -0.00026291 2.58146e-05
0.000411044 -1.16975e-05 -0.00091926 0.000150424 -0.000254587 2.10449e-05
0.00042107 -1.69357e-05 -0.000936038 0.000155081 -0.000244774 1.61124e-05
0.000353455 4.55176e-05 -0.000845878 0.000113949 -0.000287185 5.40089e-05
0.000359752 3.83273e-05 -0.00085356 0.00012043 -0.000286988 5.04293e-05
0.000366445 3.11742e-05 -0.000862077 0.000126887 -0.00028569 4.65853e-05
0.000373573 2.41157e-05 -0.000871548 0.00013327 -0.000283169 4.24902e-05
0.000381176 1.7223e-05 -0.00088211 0.000139527 -0.000279305 3.81539e-05
0.000389295 1.0581e-05 -0.000893917 0.000145592 -0.00027399 3.35898e-05
0.000397971 4.28877e-06 -0.00090714 0.00015139 -0.000267141 2.88145e-05
0.000407248 -1.54089e-06 -0.000921967 0.000156832 -0.00025871 2.38344e-05
0.000417165 -6.78329e-06 -0.000938609 0.000161813 -0.000248695 1.86641e-05
0.000350605 5.51376e-05 -0.000849399 0.00011799 -0.000290037 5.79295e-05
0.000356721 4.82265e-05 -0.000857053 0.0001248 -0.000290073 5.42942e-05
0.000363238 4.13146e-05 -0.000865516 0.000131597 -0.000288988 5.03681e-05
0.000370194 3.44556e-05 -0.000874906 0.000138333 -0.000286649 4.61665e-05
0.000377631 2.77183e-05 -0.000885361 0.00014495 -0.000282924 4.16973e-05
0.000385592 2.11875e-05 -0.000897038 0.000151382 -0.000277689 3.69725e-05
0.000394122 1.49642e-05 -0.000910115 0.000157548 -0.000270849 3.2007e-05
0.000403267 9.16513e-06 -0.00092479 0.000163353 -0.000262341 2.68061e-05
0.000413069 3.9205e-06 -0.000941281 0.000168686 -0.00025215 2.13847e-05
0.00034762 6.51978e-05 -0.000853045 0.000122011 -0.000292131 6.20588e-05
0.00035355 5.85935e-05 -0.000860678 0.000129162 -0.000292424 5.83733e-05
0.000359881 5.19484e-05 -0.000869092 0.000136316 -0.000291582 5.43682e-05
0.000366657 4.5312e-05 -0.000878405 0.000143421 -0.00028946 5.0061e-05
0.000373919 3.87501e-05 -0.000888753 0.000150419 -0.000285909 4.5458e-05
0.000381715 3.23467e-05 -0.000900297 0.00015724 -0.000280794 4.05687e-05
0.000390091 2.62044e-05 -0.000913221 0.000163799 -0.000274 3.5406e-05
0.000399096 2.04434e-05 -0.000927733 0.000169995 -0.000265449 2.99743e-05
0.000408778 1.52018e-05 -0.00094406 0.000175704 -0.000255113 2.42857e-05
0.000419201 1.06258e-05 -0.000962466 0.000180815 -0.000243019 1.81822e-05
0.000339134 8.1853e-05 -0.000849838 0.000118541 -0.000291862 6.98481e-05
0.000344501 7.57023e-05 -0.000856816 0.000125991 -0.000293419 6.64158e-05
0.000350234 6.94377e-05 -0.000864435 0.000133512 -0.000293995 6.26776e-05
0.000356372 6.30881e-05 -0.000872809 0.00014104 -0.000293425 5.85977e-05
0.000362958 5.67004e-05 -0.000882047 0.000148534 -0.000291554 5.41871e-05
0.000370038 5.03366e-05 -0.000892289 0.000155933 -0.000288219 4.94502e-05
0.00037766 4.40793e-05 -0.000903699 0.000163166 -0.000283263 4.43936e-05
0.000385874 3.80323e-05 -0.000916464 0.000170145 -0.000276556 3.90276e-05
0.000394732 3.23187e-05 -0.000930803 0.00017676 -0.000268002 3.33551e-05
0.000404285 2.70804e-05 -0.000946953 0.000182884 -0.000257556 2.73854e-05
0.000414604 2.24771e-05 -0.000965196 0.000188385 -0.000245234 2.09686e-05
0.000425617 1.86768e-05 -0.000985826 0.00019309 -0.000231149 1.39846e-05
0.000341244 8.66645e-05 -0.000860708 0.000129957 -0.000293863 7.10024e-05
0.000346772 8.07648e-05 -0.000868328 0.00013783 -0.000294745 6.72136e-05
0.000352708 7.47437e-05 -0.000876667 0.000145735 -0.000294483 6.30648e-05
0.000359096 6.86359e-05 -0.000885836 0.000153634 -0.000292901 5.85559e-05
0.000365983 6.24971e-05 -0.000895975 0.000161465 -0.000289817 5.36895e-05
0.000373421 5.64095e-05 -0.000907246 0.000169155 -0.000285056 4.8467e-05
0.000381463 5.04759e-05 -0.000919846 0.000176599 -0.000278469 4.28916e-05
0.000390165 4.48164e-05 -0.000934006 0.000183661 -0.000269954 3.69632e-05
0.000399584 3.95847e-05 -0.000949964 0.000190222 -0.000259437 3.07073e-05
0.000409791 3.49573e-05 -0.000968028 0.000196151 -0.000246913 2.39526e-05
0.000420722 3.11124e-05 -0.00098851 0.00020125 -0.000232491 1.65883e-05
0 0 0 0 0 0
0 0 0 0 0 0
0 0 0 0 0 0
0 0 0 0 0 0
0 0 0 0 0 0
0 0 0 0 0 0
0 0 0 0 0 0
0 0 0 0 0 0
0 0 0 0 0 0
0 0 0 0 0 0
0 0 0 0 0 0
0 0 0 0 0 0
0 0 0 0 0 0
0 0 0 0 0 0
0 0 0 0 0 0
0 0 0 0 0 0
0 0 0 0 0 0
0 0 0 0 0 0
0 0 0 0 0 0
0 0 0 0 0 0
0 0 0 0 0 0
0 0 0 0 0 0
0 0 0 0 0 0
0 0 0 0 0 0
0 0 0 0 0 0
0 0 0 0 0 0
0 0 0 0 0 0
0 0 0 0 0 0
0 0 0 0 0 0
0 0 0 0 0 0
0 0 0 0 0 0
0 0 0 0 0 0
0 0 0 0 0 0
0 0 0 0 0 0
0 0 0 0 0 0
0 0 0 0 0 0
0 0 0 0 0 0
0 0 0 0 0 0
0 0 0 0 0 0
0 0 0 0 0 0
0 0 0 0 0 0
0 0 0 0 0 0
0 0 0 0 0 0
0 0 0 0 0 0
0 0 0 0 0 0
0 0 0 0 0 0
0 0 0 0 0 0
0 0 0 0 0 0
0 0 0 0 0 0
0 0 0 0 0 0
0 0 0 0 0 0
0 0 0 0 0 0
0 0 0 0 0 0
0 0 0 0 0 0
0 0 0 0 0 0
0 0 0 0 0 0
0 0 0 0 0 0
0 0 0 0 0 0
0 0 0 0 0 0
0 0 0 0 0 0
0 0 0 0 0 0
0 0 0 0 0 0
0 0 0 0 0 0
0 0 0 0 0 0
0 0 0 0 0 0
0 0 0 0 0 0
0 0 0 0 0 0
0 0 0 0 0 0
0 0 0 0 0 0
0 0 0 0 0 0
0 0 0 0 0 0
0 0 0 0 0 0
0 0 0 0 0 0
0 0 0 0 0 0
0 0 0 0 0 0
0 0 0 0 0 0
0 0 0 0 0 0
0 0 0 0 0 0
0 0 0 0 0 0
0 0 0 0 0 0
0 0 0 0 0 0
0.00036041 -1.04664e-05 -0.000836303 7.20716e-05 -0.000301341 5.68184e-05
0.00036798 -1.93266e-05 -0.000844901 7.64193e-05 -0.000300114 5.53842e-05
0.000375956 -2.80054e-05 -0.000854529 8.07774e-05 -0.000297806 5.39869e-05
0.000384368 -3.64384e-05 -0.000865308 8.5118e-05 -0.000294329 5.26607e-05
0.00039325 -4.45563e-05 -0.000877381 8.94024e-05 -0.000289604 5.14473e-05
0.000402632 -5.2269e-05 -0.000890904 9.35795e-05 -0.000283561 5.03838e-05
0.000357504 -1.78975e-06 -0.00083925 7.48354e-05 -0.000307731 5.96927e-05
0.000364899 -1.04267e-05 -0.000847779 7.93997e-05 -0.00030664 5.815e-05
0.000372702 -1.89224e-05 -0.000857316 8.39918e-05 -0.000304434 5.66304e-05
0.000380948 -2.72096e-05 -0.000867985 8.8573e-05 -0.000301016 5.51679e-05
0.00038967 -3.52092e-05 -0.000879932 9.31007e-05 -0.000296297 5.38042e-05
0.0003989 -4.28283e-05 -0.000893311 9.75238e-05 -0.000290188 5.25771e-05
0.000354446 7.33226e-06 -0.000842321 7.75837e-05 -0.000313493 6.27369e-05
0.000361657 -1.06616e-06 -0.000850783 8.23695e-05 -0.000312566 6.1086e-05
0.000369281 -9.3575e-06 -0.00086023 8.71942e-05 -0.000310491 5.94397e-05
0.000377352 -1.74757e-05 -0.000870788 9.20198e-05 -0.000307161 5.78352e-05
0.000385906 -2.53428e-05 -0.000882604 9.68024e-05 -0.000302475 5.63135e-05
0.000394978 -3.28776e-05 -0.000895837 0.000101495 -0.000296345 5.49135e-05
0.000404609 -3.99716e-05 -0.000910669 0.000106019 -0.000288723 5.36812e-05
0.000414841 -4.6504e-05 -0.000927287 0.000110279 -0.000279564 5.26382e-05
0.0004257 -5.23658e-05 -0.000945895 0.00011418 -0.000268897 5.18257e-05
0.000351233 1.69106e-05 -0.000845516 8.03038e-05 -0.000318586 6.59631e-05
0.000358253 8.77347e-06 -0.000853916 8.53166e-05 -0.000317849 6.42024e-05
0.000365688 7.07255e-07 -0.000863274 9.03812e-05 -0.000315934 6.24253e-05
0.000373576 -7.2243e-06 -0.00087372 9.54604e-05 -0.000312723 6.06719e-05
0.000381954 -1.49445e-05 -0.000885401 0.000100509 -0.000308102 5.89834e-05
0.00039086 -2.23638e-05 -0.000898484 0.00010547 -0.000301972 5.74024e-05
0.000400335 -2.93803e-05 -0.00091315 0.000110269 -0.000294261 5.59739e-05
0.000410424 -3.58805e-05 -0.0009296 0.000114813 -0.000284934 5.47325e-05
0.000421157 -4.17389e-05 -0.000948049 0.000118998 -0.00027401 5.37204e-05
0.000347864 2.69544e-05 -0.000848838 8.29927e-05 -0.000322968 6.93803e-05
0.000354682 1.91034e-05 -0.00085718 8.8238e-05 -0.000322448 6.75092e-05
0.000361921 1.1285e-05 -0.000866453 9.35502e-05 -0.000320723 6.55977e-05
0.000369616 3.55997e-06 -0.000876786 9.88924e-05 -0.000317663 6.36894e-05
0.000377809 -3.99684e-06 -0.000888329 0.000104219 -0.000313142 6.18264e-05
0.00038654 -1.12957e-05 -0.000901252 0.000109469 -0.000307047 6.00543e-05
0.000395852 -1.82323e-05 -0.000915744 0.000114565 -0.000299294 5.84228e-05
0.000405791 -2.46879e-05 -0.000932015 0.000119412 -0.000289835 5.69697e-05
0.00041639 -3.05316e-05 -0.000950294 0.000123896 -0.000278676 5.57397e-05
0.000344335 3.74724e-05 -0.000852288 8.56465e-05 -0.000326593 7.29975e-05
0.000350943 2.99348e-05 -0.000860577 9.11303e-05 -0.000326317 7.1017e-05
0.000357975 2.23893e-05 -0.000869767 9.66977e-05 -0.000324813 6.89688e-05
0.00036547 1.48931e-05 -0.000879988 0.000102312 -0.00032194 6.69007e-05
0.000373469 7.51881e-06 -0.000891392 0.000107928 -0.000317556 6.48559e-05
0.000382015 3.55944e-07 -0.00090415 0.000113482 -0.000311535 6.28832e-05
0.000391154 -6.48893e-06 -0.000918459 0.000118893 -0.000303776 6.10356e-05
0.000400935 -1.28928e-05 -0.000934539 0.000124063 -0.000294217 5.93548e-05
0.000411394 -1.87189e-05 -0.00095263 0.000128868 -0.000282851 5.78898e-05
0.000340644 4.84731e-05 -0.000855866 8.82607e-05 -0.000329413 7.68244e-05
0.000347032 4.12785e-05 -0.000864108 9.39896e-05 -0.000329408 7.47377e-05
0.000353848 3.4034e-05 -0.000873221 9.98201e-05 -0.000328158 7.25519e-05
0.000361132 2.67918e-05 -0.000883332 0.000105717 -0.000325508 7.03198e-05
0.000368927 1.96217e-05 -0.000894594 0.000111633 -0.000321302 6.80864e-05
0.00037728 1.26127e-05 -0.000907183 0.000117506 -0.000315396 6.5903e-05
0.000386237 5.87303e-06 -0.000921301 0.000123251 -0.000307672 6.38258e-05
0.000395851 -4.7053e-07 -0.000937178 0.000128766 -0.000298051 6.19008e-05
0.000406163 -6.27296e-06 -0.000955065 0.000133915 -0.000286512 6.01789e-05
0.000417304 -1.13807e-05 -0.000975277 0.000138572 -0.000273084 5.86173e-05
0.000331022 6.66477e-05 -0.000852087 8.49815e-05 -0.000329997 8.29666e-05
0.000336789 5.99601e-05 -0.000859572 9.08177e-05 -0.000331373 8.08848e-05
0.000342947 5.31455e-05 -0.000867774 9.68115e-05 -0.000331669 7.86842e-05
0.000349536 4.62328e-05 -0.000876816 0.000102914 -0.000330707 7.63612e-05
0.000356599 3.92729e-05 -0.000886822 0.000109102 -0.00032832 7.3962e-05
0.00036418 3.23318e-05 -0.000897943 0.000115331 -0.000324334 7.15337e-05
0.000372329 2.54971e-05 -0.000910358 0.000121539 -0.000318588 6.91299e-05
0.000381095 1.88785e-05 -0.000924277 0.000127637 -0.000310943 6.68095e-05
0.000390533 1.26056e-05 -0.000939938 0.000133519 -0.000301302 6.46228e-05
0.000400689 6.82831e-06 -0.000957606 0.000139044 -0.000289625 6.26246e-05
0.000411697 1.71374e-06 -0.000977614 0.000144067 -0.000275934 6.07886e-05
0.000423306 -2.56198e-06 -0.00100029 0.000148389 -0.000260373 5.8835e-05
0.000332769 7.19501e-05 -0.000863403 9.33481e-05 -0.000332438 8.51799e-05
0.000338686 6.55398e-05 -0.000871579 9.95812e-05 -0.000333059 8.28642e-05
0.000345038 5.89952e-05 -0.000880557 0.000105949 -0.000332423 8.04047e-05
0.000351868 5.23523e-05 -0.000890461 0.000112435 -0.00033034 7.78384e-05
0.000359224 4.56697e-05 -0.000901441 0.000118998 -0.000326617 7.52131e-05
0.000367157 3.90346e-05 -0.000913679 0.000125574 -0.000321069 7.25818e-05
0.00037572 3.25566e-05 -0.000927389 0.00013206 -0.000313539 7.00049e-05
0.000384973 2.63627e-05 -0.000942828 0.000138329 -0.000303921 6.75359e-05
0.000394964 2.06149e-05 -0.000960258 0.000144248 -0.000292149 6.52511e-05
0.000405832 1.54983e-05 -0.000980043 0.000149672 -0.00027822 6.31106e-05
0.000417329 1.11994e-05 -0.00100253 0.000154373 -0.000262276 6.08557e-05
0.000381381 -3.25868e-05 -0.000839585 5.33073e-05 -0.000333559 7.17831e-05
0.000389669 -4.22386e-05 -0.000849014 5.64363e-05 -0.000332002 7.05541e-05
0.000398411 -5.17053e-05 -0.000859584 5.96215e-05 -0.000329275 6.93674e-05
0.000407641 -6.09196e-05 -0.00087143 6.28358e-05 -0.000325286 6.82605e-05
0.000417398 -6.98082e-05 -0.000884708 6.60441e-05 -0.00031995 6.7278e-05
0.00042772 -7.82752e-05 -0.000899588 6.92028e-05 -0.000313195 6.64645e-05
0.000378319 -2.31799e-05 -0.000842496 5.3881e-05 -0.000340943 7.36665e-05
0.000386412 -3.25841e-05 -0.00085183 5.71515e-05 -0.000339525 7.23166e-05
0.00039496 -4.1845e-05 -0.000862283 6.04972e-05 -0.000336897 7.09945e-05
0.000404002 -5.08916e-05 -0.000873991 6.38827e-05 -0.000332959 6.97371e-05
0.000413576 -5.96406e-05 -0.000887113 6.72705e-05 -0.000327618 6.85886e-05
0.000423722 -6.79946e-05 -0.000901819 7.06171e-05 -0.00032078 6.75928e-05
0.000375089 -1.32902e-05 -0.000845533 5.43822e-05 -0.000347666 7.56773e-05
0.000382977 -2.24289e-05 -0.000854775 5.77933e-05 -0.000346414 7.42083e-05
0.000391323 -3.14602e-05 -0.000865109 6.12935e-05 -0.000343918 7.27473e-05
0.000400167 -4.03145e-05 -0.000876677 6.48508e-05 -0.000340065 7.13335e-05
0.000409549 -4.89095e-05 -0.000889637 6.84269e-05 -0.000334747 7.00109e-05
0.000419512 -5.71612e-05 -0.000904166 7.19826e-05 -0.000327875 6.88256e-05
0.000430103 -6.49549e-05 -0.000920462 7.54464e-05 -0.0003194 6.78373e-05
0.000441373 -7.21631e-05 -0.000938729 7.87273e-05 -0.000309278 6.71017e-05
0.000453356 -7.8672e-05 -0.000959194 8.17453e-05 -0.000297542 6.66457e-05
0.000371686 -2.90443e-06 -0.000848698 5.47959e-05 -0.000353683 7.78254e-05
0.00037936 -1.17531e-05 -0.000857851 5.83488e-05 -0.000352628 7.62364e-05
0.000387495 -2.05326e-05 -0.000868068 6.20072e-05 -0.000350294 7.46332e-05
0.000396132 -2.91754e-05 -0.000879492 6.57415e-05 -0.000346558 7.30574e-05
0.000405314 -3.7601e-05 -0.000892286 6.95129e-05 -0.000341299 7.15531e-05
0.000415085 -4.57151e-05 -0.000906631 7.3271e-05 -0.000334414 7.01714e-05
0.000425494 -5.34109e-05 -0.000922726 7.69476e-05 -0.00032583 6.89691e-05
0.000436593 -6.05687e-05 -0.00094079 8.04576e-05 -0.000315513 6.80149e-05
0.000448422 -6.70567e-05 -0.000961066 8.37114e-05 -0.000303487 6.73382e-05
0.000368109 7.98735e-06 -0.000851993 5.51177e-05 -0.00035895 8.01172e-05
0.000375559 -5.44557e-07 -0.000861061 5.88131e-05 -0.00035812 7.84083e-05
0.000383474 -9.04774e-06 -0.000871163 6.26326e-05 -0.000355982 7.66605e-05
0.000391895 -1.74579e-05 -0.000882443 6.65483e-05 -0.000352398 7.4918e-05
0.000400866 -2.56959e-05 -0.000895065 7.05213e-05 -0.000347235 7.32257e-05
0.000410435 -3.36675e-05 -0.000909215 7.44979e-05 -0.000340376 7.16376e-05
0.000420651 -4.12627e-05 -0.000925099 7.84065e-05 -0.000331733 7.02144e-05
0.000431571 -4.83566e-05 -0.000942949 8.21596e-05 -0.00032126 6.90279e-05
0.000443238 -5.48119e-05 -0.000963019 8.56627e-05 -0.000308967 6.81118e-05
0.000364354 1.93949e-05 -0.000855421 5.5343e-05 -0.000363418 8.25594e-05
0.000371571 1.12089e-05 -0.000864408 5.91809e-05 -0.000362844 8.07323e-05
0.000379255 3.00902e-06 -0.000874397 6.31634e-05 -0.000360935 7.88385e-05
0.000387449 -5.14441e-06 -0.000885532 6.72643e-05 -0.000357542 7.69259e-05
0.0003962 -1.31744e-05 -0.000897979 7.14447e-05 -0.000352516 7.50396e-05
0.000405557 -2.09864e-05 -0.000911926 7.5649e-05 -0.000345723 7.32362e-05
0.000415572 -2.84682e-05 -0.00092759 7.98033e-05 -0.000337061 7.15795e-05
0.000426304 -3.54902e-05 -0.00094521 8.38169e-05 -0.000326467 7.01449e-05
0.0004378 -4.19091e-05 -0.000965056 8.75878e-05 -0.000313936 6.89718e-05
0.000360418 3.13276e-05 -0.000858981 5.54663e-05 -0.000367038 8.51595e-05
0.000367392 2.35195e-05 -0.000867894 5.94462e-05 -0.000366748 8.32174e-05
0.000374835 1.56528e-05 -0.000877774 6.35929e-05 -0.000365105 8.11777e-05
0.000382793 7.78307e-06 -0.000888766 6.78818e-05 -0.000361943 7.90923e-05
0.000391313 -1.53547e-08 -0.000901034 7.22754e-05 -0.000357096 7.70067e-05
0.000400447 -7.6486e-06 -0.000914773 7.6717e-05 -0.000350415 7.4979e-05
0.000410249 -1.50024e-05 -0.000930205 8.11306e-05 -0.000341777 7.3076e-05
0.000420784 -2.19432e-05 -0.000947582 8.5422e-05 -0.000331101 7.1377e-05
0.000432101 -2.83187e-05 -0.000967184 8.94786e-05 -0.000318369 6.99248e-05
0.00044435 -3.39686e-05 -0.000989342 9.31802e-05 -0.000303616 6.88756e-05
0.000350009 5.10389e-05 -0.000854634 5.15521e-05 -0.000368537 8.98896e-05
0.0003563 4.37891e-05 -0.000862677 5.54698e-05 -0.000369746 8.79381e-05
0.00036302 3.63991e-05 -0.00087152 5.96031e-05 -0.000369779 8.58733e-05
0.00037021 2.88988e-05 -0.000881298 6.39144e-05 -0.000368437 8.36891e-05
0.00037792 2.13432e-05 -0.000892149 6.83935e-05 -0.000365548 8.14291e-05
0.000386198 1.38027e-05 -0.000904238 7.30054e-05 -0.000360928 7.91394e-05
0.000395098 6.37025e-06 -0.000917763 7.76934e-05 -0.000354407 7.68791e-05
0.000404679 -8.38613e-07 -0.000932953 8.23793e-05 -0.00034584 7.47172e-05
0.000415005 -7.6867e-06 -0.00095007 8.69661e-05 -0.000335128 7.27373e-05
0.000426132 -1.40167e-05 -0.000969411 9.1336e-05 -0.000322231 7.09866e-05
0.000438214 -1.96532e-05 -0.000991325 9.53486e-05 -0.00030718 6.96398e-05
0.000451094 -2.44128e-05 -0.00101625 9.89373e-05 -0.000290121 6.8207e-05
0.000351996 5.67995e-05 -0.000866504 5.53843e-05 -0.000371514 9.08928e-05
0.00035845 4.98524e-05 -0.000875292 5.96394e-05 -0.000371889 8.87045e-05
0.000365377 4.27577e-05 -0.000884974 6.41018e-05 -0.000370894 8.63772e-05
0.000372827 3.55534e-05 -0.000895686 6.8767e-05 -0.000368324 8.39435e-05
0.000380851 2.83026e-05 -0.000907595 7.36081e-05 -0.000363977 8.14485e-05
0.000389505 2.10972e-05 -0.000920901 7.85669e-05 -0.000357658 7.89503e-05
0.00039885 1.40538e-05 -0.000935836 8.35513e-05 -0.0003492 7.65177e-05
0.000408957 7.30785e-06 -0.000952686 8.8446e-05 -0.000338496 7.42359e-05
0.000419885 1.02918e-06 -0.000971743 9.31415e-05 -0.00032548 7.21752e-05
0.000431791 -4.5887e-06 -0.00099339 9.74978e-05 -0.000310154 7.04999e-05
0.000444525 -9.35081e-06 -0.00101809 0.000101419 -0.000292668 6.87424e-05
0.000385731 -5.49819e-05 -0.000841856 3.98638e-05 -0.000365946 0.000104372
0.000394703 -6.54405e-05 -0.000852046 4.11525e-05 -0.000364091 0.000104701
0.000404194 -7.5711e-05 -0.000863485 4.24109e-05 -0.000360982 0.000105136
0.000414248 -8.57228e-05 -0.000876322 4.36284e-05 -0.000356521 0.000105706
0.000424906 -9.53989e-05 -0.000890728 4.47872e-05 -0.00035062 0.000106443
0.000436214 -0.000104638 -0.000906889 4.58658e-05 -0.000343201 0.000107385
0.000382253 -4.48497e-05 -0.000844756 3.9909e-05 -0.000374263 0.000104751
0.000391001 -5.50367e-05 -0.000854822 4.12667e-05 -0.000372548 0.000104993
0.000400272 -6.50793e-05 -0.000866114 4.2606e-05 -0.000369537 0.000105334
0.000410109 -7.49022e-05 -0.000878782 4.39063e-05 -0.000365122 0.000105799
0.000420557 -8.44184e-05 -0.000892999 4.51464e-05 -0.000359206 0.000106424
0.000431664 -9.35252e-05 -0.000908951 4.6304e-05 -0.000351688 0.000107241
0.000378605 -3.41974e-05 -0.000847785 3.98896e-05 -0.000381882 0.000105171
0.000387119 -4.40924e-05 -0.00085773 4.13172e-05 -0.000380338 0.000105331
0.000396159 -5.38805e-05 -0.000868873 4.27315e-05 -0.000377459 0.000105574
0.000405769 -6.34883e-05 -0.000881368 4.41125e-05 -0.000373125 0.000105932
0.000415997 -7.28295e-05 -0.000895389 4.54385e-05 -0.000367225 0.000106438
0.000426894 -8.18167e-05 -0.000911128 4.66938e-05 -0.000359662 0.000107128
0.000438514 -9.03293e-05 -0.000928802 4.78437e-05 -0.000350387 0.000108059
0.000450913 -9.82331e-05 -0.000948629 4.88425e-05 -0.000339353 0.000109276
0.000464152 -0.000105409 -0.000970864 4.96835e-05 -0.000326592 0.000110831
0.000374785 -2.30096e-05 -0.000850948 3.97901e-05 -0.000388756 0.000105638
0.000383054 -3.25862e-05 -0.000860775 4.129e-05 -0.000387415 0.000105715
0.000391852 -4.20961e-05 -0.000871769 4.27828e-05 -0.000384701 0.000105859
0.000401224 -5.14682e-05 -0.000884086 4.42492e-05 -0.000380484 0.000106106
0.000411222 -6.06178e-05 -0.000897904 4.56666e-05 -0.000374637 0.000106489
0.000421897 -6.94464e-05 -0.000913421 4.70092e-05 -0.000367052 0.00010705
0.000433307 -7.78418e-05 -0.000930855 4.82473e-05 -0.00035765 0.000107838
0.000445508 -8.56777e-05 -0.000950441 4.93431e-05 -0.000346399 0.00010891
0.000458568 -9.28158e-05 -0.00097245 5.02816e-05 -0.000333319 0.000110322
0.00037079 -1.12753e-05 -0.000854247 3.96063e-05 -0.00039484 0.000106155
0.000378804 -2.0505e-05 -0.000863959 4.11804e-05 -0.000393732 0.000106148
0.000387349 -2.97105e-05 -0.000874805 4.27551e-05 -0.000391218 0.000106193
0.000396472 -3.88243e-05 -0.000886942 4.43112e-05 -0.000387156 0.000106326
0.000406227 -4.7763e-05 -0.000900551 4.58253e-05 -0.000381402 0.000106583
0.000416668 -5.64276e-05 -0.000915833 4.72692e-05 -0.000373835 0.000107007
0.000427855 -6.47026e-05 -0.000933014 4.86107e-05 -0.000364362 0.000107648
0.000439848 -7.24564e-05 -0.000952345 4.98104e-05 -0.000352934 0.000108567
0.00045272 -7.95451e-05 -0.000974109 5.0851e-05 -0.000339558 0.000109823
0.00036662 1.01621e-06 -0.000857686 3.93335e-05 -0.000400081 0.000106724
0.000374367 -7.83541e-06 -0.000867286 4.09834e-05 -0.000399238 0.000106635
0.000382646 -1.67079e-05 -0.000877986 4.2643e-05 -0.000396962 0.000106579
0.000391509 -2.55376e-05 -0.000889942 4.42928e-05 -0.000393095 0.000106597
0.000401008 -3.42433e-05 -0.000903335 4.59088e-05 -0.000387479 0.000106725
0.000411204 -4.27257e-05 -0.000918373 4.74607e-05 -0.000379974 0.000107006
0.000422156 -5.08665e-05 -0.00093529 4.89143e-05 -0.000370471 0.000107493
0.00043393 -5.85296e-05 -0.000954348 5.02279e-05 -0.000358903 0.000108249
0.000446603 -6.55644e-05 -0.000975845 5.13803e-05 -0.000345263 0.000109339
0.000362271 1.38753e-05 -0.000861265 3.89666e-05 -0.000404427 0.000107349
0.000369739 5.43575e-06 -0.00087076 4.06934e-05 -0.000403881 0.000107178
0.000377741 -3.0719e-06 -0.000881317 4.24404e-05 -0.000401881 0.000107022
0.000386331 -1.15887e-05 -0.000893091 4.41878e-05 -0.000398252 0.000106924
0.000395563 -2.00364e-05 -0.000906265 4.59108e-05 -0.00039282 0.000106919
0.0004055 -2.83158e-05 -0.000921051 4.75779e-05 -0.000385425 0.000107052
0.000416205 -3.63069e-05 -0.00093769 4.91524e-05 -0.000375937 0.000107378
0.000427747 -4.38689e-05 -0.000956458 5.05902e-05 -0.000364273 0.000107961
0.000440209 -5.08421e-05 -0.000977665 5.1863e-05 -0.000350409 0.000108869
0.000453662 -5.70589e-05 -0.00100166 5.28723e-05 -0.0003344 0.000110171
0.000351052 3.51352e-05 -0.000856474 3.67324e-05 -0.000406748 0.000108319
0.000357743 2.73058e-05 -0.00086499 3.84881e-05 -0.000407808 0.000108042
0.000364919 1.93216e-05 -0.000874383 4.03046e-05 -0.000407603 0.000107781
0.000372632 1.12142e-05 -0.000884802 4.2141e-05 -0.000405919 0.000107526
0.000380935 3.04253e-06 -0.000896396 4.39894e-05 -0.000402574 0.000107311
0.000389887 -5.11879e-06 -0.000909348 4.58247e-05 -0.000397374 0.000107171
0.000399551 -1.3172e-05 -0.000923874 4.76138e-05 -0.00039014 0.000107152
0.000409996 -2.09953e-05 -0.000940224 4.93182e-05 -0.00038072 0.000107309
0.000421293 -2.8444e-05 -0.000958683 5.08911e-05 -0.000369007 0.00010771
0.000433531 -3.53528e-05 -0.00097958 5.23027e-05 -0.000354957 0.000108425
0.000446786 -4.15373e-05 -0.00100329 5.34412e-05 -0.000338618 0.000109538
0.00046126 -4.68061e-05 -0.00103025 5.45983e-05 -0.000320062 0.000111246
0.000353034 4.13304e-05 -0.000868856 3.79268e-05 -0.0004102 0.0001088
0.000359905 3.38277e-05 -0.000878162 3.98023e-05 -0.000410354 0.000108446
0.000367315 2.61628e-05 -0.000888448 4.17164e-05 -0.000409034 0.000108091
0.000375318 1.83757e-05 -0.000899864 4.36634e-05 -0.000406023 0.000107759
0.000383975 1.0534e-05 -0.000912593 4.56224e-05 -0.000401108 0.000107484
0.000393352 2.73474e-06 -0.00092685 4.75579e-05 -0.000394082 0.00010731
0.000403521 -4.89952e-06 -0.000942894 4.94152e-05 -0.000384768 0.000107291
0.000414561 -1.22247e-05 -0.000961034 5.11279e-05 -0.000373052 0.000107496
0.000426562 -1.90625e-05 -0.000981594 5.26794e-05 -0.000358864 0.000108013
0.000439606 -2.521e-05 -0.00100498 5.39659e-05 -0.000342222 0.000108917
0.000453904 -3.04625e-05 -0.00103167 5.52585e-05 -0.000323198 0.000110422
0.000128344 0.000418077 -0.000742875 3.94743e-05 0.000302025 2.94784e-05
0.000121007 0.000424083 -0.000733331 4.31097e-05 0.000295145 2.49521e-05
0.000113057 0.000430181 -0.000722449 4.6787e-05 0.00028769 2.00914e-05
0.000104443 0.000436376 -0.000710112 5.04815e-05 0.000279691 1.48752e-05
9.51139e-05 0.000442675 -0.0006962 5.41573e-05 0.000271192 9.2909e-06
8.50158e-05 0.000449083 -0.00068059 5.77695e-05 0.000262247 3.32416e-06
0.000133141 0.000411938 -0.000747799 4.00806e-05 0.000312219 3.14693e-05
0.000126099 0.000417624 -0.00073868 4.38716e-05 0.000305114 2.69637e-05
0.000118446 0.000423395 -0.000728223 4.77223e-05 0.000297403 2.21183e-05
0.000110128 0.000429259 -0.000716311 5.1595e-05 0.00028911 1.69117e-05
0.000101092 0.000435224 -0.00070282 5.54467e-05 0.000280281 1.13301e-05
9.12823e-05 0.000441293 -0.000687625 5.92307e-05 0.000270974 5.35648e-06
0.00013815 0.000405477 -0.000752858 4.06592e-05 0.000322277 3.35793e-05
0.00013142 0.000410821 -0.000744182 4.46105e-05 0.000314954 2.90991e-05
0.00012408 0.00041625 -0.000734172 4.86286e-05 0.000306997 2.42704e-05
0.000116074 0.000421768 -0.00072271 5.26763e-05 0.000298424 1.9076e-05
0.000107349 0.000427383 -0.000709662 5.67096e-05 0.000289283 1.35e-05
9.78438e-05 0.000433112 -0.000694894 6.06878e-05 0.000279644 7.52339e-06
8.74954e-05 0.000438954 -0.000678247 6.4555e-05 0.000269606 1.13273e-06
7.62373e-05 0.000444918 -0.0006596 6.82441e-05 0.000259246 -5.70453e-06
6.4e-05 0.000451051 -0.000638807 7.17072e-05 0.000248737 -1.30499e-05
0.000143372 0.000398683 -0.000758045 4.11984e-05 0.000332184 3.58133e-05
0.00013697 0.00040367 -0.00074983 4.53131e-05 0.000324659 3.13609e-05
0.000129959 0.000408741 -0.000740289 4.95038e-05 0.000316467 2.65518e-05
0.000122285 0.000413898 -0.000729298 5.37326e-05 0.000307625 2.13717e-05
0.000113888 0.000419146 -0.000716717 5.79551e-05 0.000298178 1.58027e-05
0.000104706 0.000424492 -0.000702399 6.2121e-05 0.000288192 9.82582e-06
9.46739e-05 0.000429947 -0.000686194 6.61756e-05 0.000277761 3.41928e-06
8.37217e-05 0.000435531 -0.00066795 7.00568e-05 0.000267 -3.44308e-06
7.17752e-05 0.000441267 -0.000647514 7.37095e-05 0.000256069 -1.08294e-05
0.000148806 0.00039155 -0.000763352 4.16948e-05 0.000341932 3.81752e-05
0.00014275 0.000396163 -0.000755616 4.59757e-05 0.000334219 3.37534e-05
0.000136087 0.000400859 -0.000746565 5.03439e-05 0.000325806 2.89667e-05
0.000128762 0.000405638 -0.000736069 5.47608e-05 0.000316706 2.38033e-05
0.000120713 0.000410503 -0.00072398 5.91807e-05 0.00030696 1.82431e-05
0.000111876 0.000415458 -0.000710142 6.35504e-05 0.000296637 1.22654e-05
0.000102181 0.000420516 -0.000694398 6.78102e-05 0.000285832 5.84683e-06
9.15537e-05 0.000425693 -0.000676583 7.18939e-05 0.000274664 -1.04136e-06
7.99171e-05 0.000431014 -0.000656527 7.57413e-05 0.000263296 -8.47101e-06
0.000154454 0.00038407 -0.000768768 4.21442e-05 0.000351509 4.06692e-05
0.00014876 0.000388293 -0.000761528 4.65945e-05 0.000343623 3.62814e-05
0.000142465 0.000392597 -0.00075299 5.1145e-05 0.000335004 3.15203e-05
0.000135508 0.000396981 -0.000743013 5.5757e-05 0.000325657 2.63759e-05
0.000127828 0.000401444 -0.000731442 6.03831e-05 0.000315623 2.08267e-05
0.000119356 0.000405992 -0.000718112 6.49665e-05 0.00030497 1.48501e-05
0.000110019 0.000410633 -0.000702856 6.9443e-05 0.000293793 8.42044e-06
9.97394e-05 0.000415384 -0.000685498 7.37421e-05 0.000282218 1.50637e-06
8.84337e-05 0.000420268 -0.000665848 7.77973e-05 0.000270409 -5.96809e-06
0.000160315 0.000376237 -0.000774283 4.2542e-05 0.000360899 4.33001e-05
0.000155003 0.00038005 -0.000767557 4.71645e-05 0.00035286 3.89503e-05
0.000149093 0.000383944 -0.000759554 5.19023e-05 0.000344051 3.42178e-05
0.000142526 0.000387915 -0.000750121 5.67168e-05 0.000334471 2.9095e-05
0.000135236 0.00039196 -0.000739095 6.15587e-05 0.000324159 2.35591e-05
0.000127152 0.000396081 -0.000726302 6.63669e-05 0.000313182 1.75858e-05
0.000118196 0.000400286 -0.000711563 7.10725e-05 0.000301638 1.11464e-05
0.000108286 0.000404591 -0.00069469 7.56003e-05 0.000289656 4.20699e-06
9.73337e-05 0.000409021 -0.000675484 7.98792e-05 0.000277394 -3.31034e-06
8.52297e-05 0.000413609 -0.00065372 8.38499e-05 0.000265071 -1.15592e-05
0.000170763 0.000364749 -0.000784951 3.82389e-05 0.000377435 5.00617e-05
0.000166388 0.000368047 -0.000779885 4.28724e-05 0.000370087 4.6082e-05
0.000161477 0.000371427 -0.000773692 4.76805e-05 0.000361917 4.17663e-05
0.000155974 0.000374892 -0.000766245 5.26104e-05 0.000352935 3.70653e-05
0.000149818 0.000378431 -0.000757381 5.76349e-05 0.000343138 3.19664e-05
0.00014294 0.000382039 -0.00074693 6.27029e-05 0.000332561 2.64462e-05
0.000135267 0.000385714 -0.000734704 6.77486e-05 0.000321268 2.04789e-05
0.000126717 0.000389462 -0.000720513 7.2697e-05 0.00030936 1.40319e-05
0.000117202 0.000393299 -0.000704156 7.74678e-05 0.000296972 7.06785e-06
0.000106627 0.000397249 -0.000685425 8.19839e-05 0.000284276 -4.92701e-07
9.48771e-05 0.000401346 -0.00066406 8.6184e-05 0.000271469 -8.80548e-06
8.18765e-05 0.000405639 -0.000639773 9.01223e-05 0.000258888 -1.85739e-05
0.000172675 0.00035948 -0.000785553 4.31661e-05 0.000379059 4.90135e-05
0.000168184 0.000362414 -0.000779919 4.81269e-05 0.00037079 4.47302e-05
0.000163108 0.000365427 -0.000773052 5.32377e-05 0.000361651 4.00641e-05
0.000157385 0.000368513 -0.000764785 5.84731e-05 0.000351653 3.49943e-05
0.000150944 0.000371669 -0.000754937 6.37851e-05 0.000340824 2.94961e-05
0.000143708 0.000374889 -0.000743311 6.91016e-05 0.000329223 2.35399e-05
0.000135591 0.000378168 -0.000729702 7.43289e-05 0.000316952 1.70865e-05
0.000126496 0.00038151 -0.000713891 7.93598e-05 0.000304154 1.00902e-05
0.000116325 0.000384945 -0.000695661 8.41215e-05 0.000291019 2.48628e-06
0.000104955 0.000388517 -0.000674736 8.85524e-05 0.000277753 -5.89552e-06
9.23038e-05 0.00039228 -0.000650794 9.27052e-05 0.00026467 -1.57655e-05
0.000164894 0.00037407 -0.00075234 7.36167e-05 0.000241414 1.08826e-05
0.000159061 0.000378518 -0.000744634 7.947e-05 0.000235475 4.77285e-06
0.000152719 0.000383065 -0.000735841 8.53344e-05 0.000229136 -1.8611e-06
0.000145826 0.000387724 -0.000725867 9.11818e-05 0.000222437 -9.05394e-06
0.000138339 0.000392507 -0.00071462 9.69687e-05 0.000215427 -1.6833e-05
0.000130217 0.000397427 -0.000702011 0.000102639 0.000208163 -2.52266e-05
0.000168951 0.000369409 -0.000756985 7.6983e-05 0.000249979 1.44332e-05
0.000163364 0.000373589 -0.000749649 8.31265e-05 0.000243827 8.37061e-06
0.000157268 0.000377857 -0.000741223 8.92983e-05 0.000237253 1.77247e-06
0.000150622 0.000382228 -0.000731614 9.54584e-05 0.000230289 -5.39891e-06
0.00014338 0.000386717 -0.000720727 0.000101559 0.00022299 -1.31755e-05
0.0001355 0.000391338 -0.00070847 0.000107541 0.000215415 -2.15898e-05
0.000173182 0.000364504 -0.000761763 8.03818e-05 0.000258483 1.81568e-05
0.000167854 0.000368397 -0.000754814 8.68213e-05 0.000252123 1.21507e-05
0.000162019 0.000372374 -0.000746773 9.33012e-05 0.000245318 5.5926e-06
0.000155633 0.000376447 -0.00073755 9.97797e-05 0.0002381 -1.55374e-06
0.00014865 0.000380631 -0.000727041 0.000106206 0.000230523 -9.32389e-06
0.000141025 0.00038495 -0.000715147 0.000112525 0.000222661 -1.77539e-05
0.000132707 0.000389414 -0.000701744 0.000118655 0.000214611 -2.68717e-05
0.000123648 0.000394044 -0.000686755 0.000124505 0.000206445 -3.67249e-05
0.000113809 0.000398898 -0.000670086 0.000129992 0.000198318 -4.73877e-05
0.000177586 0.000359345 -0.000766669 8.38009e-05 0.000266919 2.206e-05
0.000172532 0.00036294 -0.000760121 9.05455e-05 0.00026036 1.61156e-05
0.000166971 0.000366614 -0.000752486 9.73442e-05 0.000253333 9.60363e-06
0.000160861 0.000370377 -0.000743667 0.000104154 0.000245866 2.48779e-06
0.000154153 0.000374241 -0.000733557 0.000110921 0.000238013 -5.27134e-06
0.000146799 0.000378221 -0.000722043 0.00011758 0.000229847 -1.37126e-05
0.000138747 0.00038234 -0.000709015 0.000124053 0.000221459 -2.28745e-05
0.000129947 0.000386628 -0.000694365 0.000130251 0.00021296 -3.28036e-05
0.000120356 0.000391119 -0.000677996 0.000136076 0.000204494 -4.35803e-05
0.000182163 0.000353929 -0.000771693 8.72375e-05 0.000275281 2.61475e-05
0.000177397 0.000357212 -0.000765562 9.42968e-05 0.000268534 2.02715e-05
0.000172127 0.00036057 -0.000758352 0.000101426 0.000261293 1.38123e-05
0.000166308 0.00036401 -0.000749959 0.000108579 0.000253583 6.73323e-06
0.000159892 0.00036754 -0.000740268 0.000115703 0.000245458 -1.00952e-06
0.000152826 0.000371176 -0.000729163 0.000122727 0.000236992 -9.45962e-06
0.000145058 0.00037494 -0.000716524 0.000129569 0.000228282 -1.86607e-05
0.000136533 0.000378859 -0.000702235 0.000136134 0.000219442 -2.86656e-05
0.000127207 0.000382971 -0.000686184 0.000142315 0.000210621 -3.95605e-05
0.000186913 0.000348249 -0.000776828 9.06881e-05 0.000283562 3.04248e-05
0.00018245 0.000351209 -0.00077113 9.8072e-05 0.000276639 2.46249e-05
0.000177486 0.000354237 -0.000764364 0.000105543 0.000269194 1.82259e-05
0.000171975 0.000357339 -0.000756417 0.000113056 0.000261248 1.11907e-05
0.000165868 0.000360523 -0.000747169 0.000120552 0.000252856 3.47059e-06
0.000159109 0.0003638 -0.000736495 0.000127962 0.000244092 -4.98334e-06
0.000151643 0.000367191 -0.000724267 0.000135194 0.000235058 -1.42208e-05
0.000143411 0.000370726 -0.000710361 0.000142149 0.000225874 -2.43009e-05
0.000134367 0.000374439 -0.000694651 0.000148709 0.000216692 -3.53172e-05
0.000191836 0.0003423 -0.000782063 9.41484e-05 0.000291756 3.48978e-05
0.000187691 0.000344922 -0.000776815 0.000101868 0.00028467 2.91828e-05
0.00018305 0.000347608 -0.000770513 0.000109694 0.000277031 2.28521e-05
0.000177865 0.000350359 -0.000763035 0.000117581 0.000268858 1.58686e-05
0.000172084 0.000353181 -0.000754253 0.000125468 0.000260202 8.17854e-06
0.00016565 0.000356083 -0.000744034 0.000133283 0.000251143 -2.73055e-07
0.000158505 0.000359086 -0.000732242 0.000140931 0.000241784 -9.54285e-06
0.000150587 0.000362218 -0.000718743 0.0001483 0.000232253 -1.96969e-05
0.000141844 0.000365518 -0.000703403 0.000155269 0.000222697 -3.08344e-05
0.000132243 0.000369033 -0.000686119 0.00016172 0.000213316 -4.32326e-05
0.000200295 0.000333874 -0.000791232 8.96969e-05 0.000306465 4.46636e-05
0.000196931 0.000336083 -0.00078739 9.76016e-05 0.000299852 3.95814e-05
0.000193121 0.000338347 -0.000782608 0.00010568 0.000292619 3.39528e-05
0.00018882 0.000340676 -0.00077679 0.000113876 0.000284799 2.76993e-05
0.000183979 0.000343062 -0.000769803 0.000122152 0.000276407 2.07759e-05
0.000178543 0.000345507 -0.000761512 0.000130449 0.000267496 1.31243e-05
0.000172454 0.00034802 -0.000751774 0.000138691 0.000258143 4.68275e-06
0.00016565 0.000350617 -0.000740444 0.00014678 0.000248458 -4.61391e-06
0.000158067 0.000353326 -0.000727377 0.000154594 0.000238576 -1.48396e-05
0.000149645 0.000356187 -0.000712431 0.000161999 0.000228658 -2.60996e-05
0.000140349 0.000359252 -0.00069548 0.000168875 0.00021889 -3.86791e-05
0.000130267 0.000362583 -0.000676464 0.000175059 0.000209555 -5.30224e-05
0.000202198 0.000329576 -0.000792788 0.00010108 0.000307842 4.4475e-05
0.00019874 0.000331477 -0.000788498 0.000109493 0.000300491 3.89374e-05
0.000194796 0.00033343 -0.000783184 0.000118057 0.000292498 3.27713e-05
0.000190317 0.000335434 -0.000776712 0.000126736 0.000283897 2.59206e-05
0.000185246 0.000337492 -0.000768938 0.000135471 0.000274735 1.83205e-05
0.000179524 0.000339608 -0.000759709 0.000144182 0.000265092 9.90112e-06
0.000173084 0.00034179 -0.000748869 0.000152754 0.000255076 5.83973e-07
0.000165856 0.000344054 -0.000736257 0.000161043 0.000244833 -9.71884e-06
0.000157779 0.000346444 -0.000721728 0.000168913 0.000234545 -2.11014e-05
0.00014881 0.000349023 -0.000705141 0.000176238 0.000224406 -3.38726e-05
0.000139034 0.000351864 -0.000686412 0.000182843 0.000214686 -4.84815e-05
SCALARS PreDamageArea int 1
LOOKUP_TABLE default
0
0
0
0
0
0
0
0
0
0
0
0
0
0
0
0
0
0
0
0
0
0
0
0
0
0
0
0
0
0
0
0
0
0
0
0
0
0
0
0
0
0
0
0
0
0
0
0
0
0
0
0
0
0
0
0
0
0
0
0
0
0
0
0
0
0
0
0
0
0
0
0
0
0
0
0
0
0
0
0
0
0
0
0
0
0
0
0
0
0
0
0
0
0
0
0
0
0
0
0
0
0
0
0
0
0
0
0
0
0
0
0
0
0
0
0
0
0
0
0
0
0
0
0
0
0
0
0
0
0
0
0
0
0
0
0
0
0
0
0
0
0
0
0
0
0
0
0
0
0
0
0
0
0
0
0
0
0
0
0
0
0
0
0
0
0
0
0
0
0
0
0
0
0
0
0
0
0
0
0
0
0
0
0
0
0
0
0
0
0
0
0
0
0
0
0
0
0
0
0
0
0
0
0
0
0
0
0
0
0
0
0
0
0
0
0
0
0
0
0
0
0
0
0
0
0
0
0
0
0
0
0
0
0
0
0
0
0
0
0
0
0
0
0
0
0
0
0
0
0
0
0
0
0
0
0
0
0
0
0
0
0
0
0
0
0
0
0
0
0
0
0
0
0
0
0
0
0
0
0
0
0
0
0
0
0
0
0
0
0
0
0
0
0
0
0
0
0
0
0
0
0
0
0
0
0
0
0
0
0
0
0
0
0
0
0
0
0
0
0
0
0
0
0
0
0
0
0
0
0
0
0
0
0
0
0
0
0
0
0
0
0
0
0
0
0
0
0
0
0
0
0
0
0
0
0
0
0
0
0
0
0
0
0
0
0
0
0
0
0
0
0
0
0
0
0
0
0
0
0
0
0
0
0
0
0
0
0
0
0
0
0
0
0
0
0
0
0
0
0
0
0
0
0
0
0
0
0
0
0
0
0
0
0
0
0
0
0
0
0
0
0
0
0
0
0
0
0
0
0
0
0
0
0
0
0
0
0
0
0
0
0
0
0
0
0
0
0
0
0
0
0
0
0
0
0
0
0
0
0
0
0
0
0
0
0
0
0
0
0
0
0
0
0
0
0
0
0
0
0
0
0
0
0
0
0
0
0
0
0
0
0
0
0
0
0
0
0
0
0
0
0
0
0
0
0
0
0
0
0
0
0
0
0
0
0
0
0
0
0
0
0
0
0
0
0
0
0
0
0
0
0
0
0
0
0
0
0
0
0
0
0
0
0
0
0
0
0
0
0
0
0
0
0
0
0
0
0
0
0
0
0
0
0
0
0
0
0
0
0
0
0
0
0
0
0
0
0
0
0
0
0
0
0
0
0
0
0
0
0
0
0
0
0
0
0
0
0
0
0
0
0
0
0
0
0
0
0
0
0
0
0
0
0
0
0
0
0
0
0
0
0
0
0
0
0
0
0
0
0
0
0
0
0
0
0
0
0
0
0
0
0
0
0
0
0
0
0
0
0
0
0
0
0
0
0
0
0
0
0
0
0
0
0
0
0
0
0
0
0
0
0
0
0
0
0
0
0
0
0
0
0
0
0
0
0
0
0
0
0
0
0
0
0
0
0
0
0
0
0
0
0
0
0
0
0
0
0
0
0
0
0
0
0
0
0
0
0
0
0
0
0
0
0
0
0
0
0
0
0
0
0
0
0
0
0
0
0
0
0
0
0
0
0
0
0
0
0
0
0
0
0
0
0
0
0
0
0
0
0
0
0
0
0
0
0
0
0
0
0
0
0
0
0
0
0
0
0
0
0
0
0
0
0
0
0
0
0
0
0
0
0
0
0
0
0
0
0
0
0
0
0
0
0
0
0
0
0
0
0
0
0
0
0
0
0
0
0
0
0
0
0
0
0
0
0
0
0
0
0
0
0
0
0
0
0
0
0
0
0
0
0
0
0
0
0
0
0
0
0
0
0
0
0
0
0
0
0
0
0
0
0
0
0
0
0
0
0
0
0
0
0
0
0
0
0
0
0
0
0
0
0
0
0
0
0
0
0
0
0
0
0
0
0
0
0
0
0
0
0
0
0
0
0
0
0
0
0
0
0
0
0
0
0
0
0
0
0
0
0
0
0
0
0
0
0
0
0
0
0
0
0
0
0
0
0
0
0
0
0
0
0
0
0
0
0
0
0
0
0
0
0
0
0
0
0
0
0
0
0
0
0
0
0
0
0
0
0
0
0
0
0
1
1
1
1
1
1
1
1
1
1
1
1
1
1
1
1
1
1
1
1
1
1
1
1
1
1
1
1
1
1
1
1
1
1
1
1
1
1
1
1
1
1
1
1
1
1
1
1
1
1
1
1
1
1
1
1
1
1
1
1
1
1
1
1
1
1
1
1
1
0
1
1
1
1
1
1
1
1
1
1
0
0
0
0
0
0
0
0
0
0
0
0
0
0
0
0
0
0
0
0
0
0
0
0
0
0
0
0
0
0
0
0
0
0
0
0
0
0
0
0
0
0
0
0
0
0
0
0
0
0
0
0
0
0
0
0
0
0
0
0
0
0
0
0
0
0
0
0
0
0
0
0
0
0
0
0
0
0
0
0
0
0
0
0
0
0
0
0
0
0
0
0
0
0
0
0
0
0
0
0
0
0
0
0
0
0
0
0
0
0
0
0
0
0
0
0
0
0
0
0
0
0
0
0
0
0
0
0
0
0
0
0
0
0
0
0
0
0
0
0
0
0
0
0
0
0
0
0
0
0
0
0
0
0
0
0
0
0
0
0
0
0
0
0
0
0
0
0
0
0
0
0
0
0
0
0
0
0
0
0
0
0
0
0
0
0
0
0
0
0
0
0
0
0
0
0
0
0
0
0
0
0
0
0
0
0
0
0
0
0
0
0
0
0
0
0
0
0
0
0
0
0
0
0
0
0
0
0
0
0
0
0
0
0
0
0
0
0
0
0
0
0
0
0
0
0
0
0
0
0
0
0
0
0
0
0
0
0
0
0
0
0
0
0
0
0
0
0
0
0
0
0
0
0
0
0
0
0
0
0
0
0
0
0
0
0
0
0
0
0
0
0
0
0
0
0
0
0
0
0
0
0
0
0
0
0
0
0
0
0
0
0
0
0
0
0
0
0
0
0
0
0
0
0
0
0
0
0
0
0
0
0
0
0
0
0
0
0
0
0
0
0
0
0
0
0
0
0
0
0
0
0
0
0
0
0
0
0
0
0
0
0
0
0
0
0
0
0
0
0
0
0
0
0
0
0
0
0
0
0
0
0
0
0
0
0
0
0
0
0
0
0
0
0
0
0
0
0
0
0
0
0
0
0
0
0
0
0
0
0
0
0
0
0
0
0
0
0
0
0
0
0
0
0
0
0
0
0
0
0
0
0
0
0
0
0
0
0
0
0
0
0
0
0
0
0
0
0
0
0
0
0
0
0
0
0
0
0
0
0
0
0
0
0
0
0
0
0
0
0
0
0
0
0
0
0
0
0
0
0
0
0
0
0
0
0
0
0
0
0
0
0
0
0
0
0
0
0
0
0
0
0
0
0
0
0
0
0
0
0
0
0
0
0
0
0
0
0
0
0
0
0
0
0
0
0
0
0
0
0
0
0
0
0
0
0
0
0
0
0
0
0
0
0
0
0
0
0
0
0
0
0
0
0
0
0
0
0
0
0
0
0
0
0
0
0
0
0
0
0
0
0
0
0
0
0
0
0
0
0
0
0
0
0
0
0
0
0
0
0
0
0
0
0
0
0
0
0
0
0
0
0
0
0
0
0
0
0
0
0
0
0
0
0
0
0
0
0
0
0
0
0
0
0
0
0
0
0
0
0
0
0
0
0
0
0
0
0
0
0
0
0
0
0
0
0
0
0
0
0
0
0
0
0
0
0
0
0
0
0
0
0
0
0
0
0
0
0
0
0
0
0
0
0
0
0
0
0
0
0
0
0
0
0
0
0
0
0
0
0
0
0
0
0
0
0
0
0
0
0
0
0
0
0
0
0
0
0
0
0
0
0
0
0
0
0
0
0
0
0
0
0
0
0
0
0
0
0
0
0
0
0
0
0
0
0
0
0
0
0
0
0
0
0
0
0
0
0
0
0
0
0
0
0
0
0
0
0
0
0
0
0
0
0
0
0
0
0
0
0
0
0
0
0
0
0
0
0
0
0
0
0
0
0
0
0
0
0
0
0
0
0
0
0
0
0
0
0
0
0
0
0
0
0
0
0
0
0
0
0
0
0
0
0
0
0
0
0
0
0
0
0
0
0
0
0
0
0
0
0
0
0
0
0
0
0
0
0
0
0
0
0
0
0
0
0
0
0
0
0
0
0
0
0
0
0
0
0
0
0
0
0
0
0
0
0
0
0
0
0
0
0
0
0
0
0
0
0
0
0
0
0
0
0
0
0
0
0
0
0
0
0
0
0
0
0
0
0
0
0
0
0
0
0
0
0
0
0
0
0
0
0
0
0
0
0
0
0
0
0
0
0
0
0
0
0
0
0
0
0
0
0
0
0
0
0
0
0
0
0
0
0
0
0
0
0
0
0
0
0
0
0
0
0
0
0
0
0
0
0
0
0
0
0
0
0
0
0
0
0
0
0
0
0
0
0
0
0
0
0
0
0
0
0
0
0
0
0
0
0
0
0
0
0
0
0
0
0
0
0
0
0
0
0
0
0
0
0
0
0
0
0
0
0
0
0
0
0
0
0
0
0
0
0
0
0
0
0
0
0
0
0
0
0
0
0
0
0
0
0
0
0
0
0
0
0
0
0
0
0
0
0
0
0
0
0
0
0
0
0
0
0
0
0
0
0
0
0
0
0
0
0
0
0
0
0
0
0
0
0
0
0
0
0
0
0
0
0
0
0
0
0
0
0
0
0
0
0
0
0
0
0
0
0
0
0
0
0
0
0
0
0
0
0
0
0
0
0
0
0
0
0
0
0
0
0
0
0
0
0
0
0
0
0
0
0
0
0
0
0
0
0
0
0
0
0
0
0
0
0
0
0
0
0
0
0
0
0
0
0
0
0
0
0
0
0
0
0
0
0
0
0
0
0
0
0
0
0
0
0
0
0
0
0
0
0
0
0
0
0
0
0
0
0
0
0
0
0
0
0
0
0
0
0
0
0
0
0
0
0
0
0
0
0
0
0
SCALARS d double 9
LOOKUP_TABLE default
0 0 0 0 0 0 0 0 0
0 0 0 0 0 0 0 0 0
0 0 0 0 0 0 0 0 0
0 0 0 0 0 0 0 0 0
0 0 0 0 0 0 0 0 0
0 0 0 0 0 0 0 0 0
0 0 0 0 0 0 0 0 0
0 0 0 0 0 0 0 0 0
0 0 0 0 0 0 0 0 0
0 0 0 0 0 0 0 0 0
0 0 0 0 0 0 0 0 0
0 0 0 0 0 0 0 0 0
0 0 0 0 0 0 0 0 0
0 0 0 0 0 0 0 0 0
0 0 0 0 0 0 0 0 0
0 0 0 0 0 0 0 0 0
0 0 0 0 0 0 0 0 0
0 0 0 0 0 0 0 0 0
0 0 0 0 0 0 0 0 0
0 0 0 0 0 0 0 0 0
0 0 0 0 0 0 0 0 0
0 0 0 0 0 0 0 0 0
0 0 0 0 0 0 0 0 0
0 0 0 0 0 0 0 0 0
0 0 0 0 0 0 0 0 0
0 0 0 0 0 0 0 0 0
0 0 0 0 0 0 0 0 0
0 0 0 0 0 0 0 0 0
0 0 0 0 0 0 0 0 0
0 0 0 0 0 0 0 0 0
0 0 0 0 0 0 0 0 0
0 0 0 0 0 0 0 0 0
0 0 0 0 0 0 0 0 0
0 0 0 0 0 0 0 0 0
0 0 0 0 0 0 0 0 0
0 0 0 0 0 0 0 0 0
0 0 0 0 0 0 0 0 0
0 0 0 0 0 0 0 0 0
0 0 0 0 0 0 0 0 0
0 0 0 0 0 0 0 0 0
0 0 0 0 0 0 0 0 0
0 0 0 0 0 0 0 0 0
0 0 0 0 0 0 0 0 0
0 0 0 0 0 0 0 0 0
0 0 0 0 0 0 0 0 0
0 0 0 0 0 0 0 0 0
0 0 0 0 0 0 0 0 0
0 0 0 0 0 0 0 0 0
0 0 0 0 0 0 0 0 0
0 0 0 0 0 0 0 0 0
0 0 0 0 0 0 0 0 0
0 0 0 0 0 0 0 0 0
0 0 0 0 0 0 0 0 0
0 0 0 0 0 0 0 0 0
0 0 0 0 0 0 0 0 0
0 0 0 0 0 0 0 0 0
0 0 0 0 0 0 0 0 0
0 0 0 0 0 0 0 0 0
0 0 0 0 0 0 0 0 0
0 0 0 0 0 0 0 0 0
0 0 0 0 0 0 0 0 0
0 0 0 0 0 0 0 0 0
0 0 0 0 0 0 0 0 0
0 0 0 0 0 0 0 0 0
0 0 0 0 0 0 0 0 0
0 0 0 0 0 0 0 0 0
0 0 0 0 0 0 0 0 0
0 0 0 0 0 0 0 0 0
0 0 0 0 0 0 0 0 0
0 0 0 0 0 0 0 0 0
0 0 0 0 0 0 0 0 0
0 0 0 0 0 0 0 0 0
0 0 0 0 0 0 0 0 0
0 0 0 0 0 0 0 0 0
0 0 0 0 0 0 0 0 0
0 0 0 0 0 0 0 0 0
0 0 0 0 0 0 0 0 0
0 0 0 0 0 0 0 0 0
0 0 0 0 0 0 0 0 0
0 0 0 0 0 0 0 0 0
0 0 0 0 0 0 0 0 0
0 0 0 0 0 0 0 0 0
0 0 0 0 0 0 0 0 0
0 0 0 0 0 0 0 0 0
0 0 0 0 0 0 0 0 0
0 0 0 0 0 0 0 0 0
0 0 0 0 0 0 0 0 0
0 0 0 0 0 0 0 0 0
0 0 0 0 0 0 0 0 0
0 0 0 0 0 0 0 0 0
0 0 0 0 0 0 0 0 0
0 0 0 0 0 0 0 0 0
0 0 0 0 0 0 0 0 0
0 0 0 0 0 0 0 0 0
0 0 0 0 0 0 0 0 0
0 0 0 0 0 0 0 0 0
0 0 0 0 0 0 0 0 0
0 0 0 0 0 0 0 0 0
0 0 0 0 0 0 0 0 0
0 0 0 0 0 0 0 0 0
0 0 0 0 0 0 0 0 0
0 0 0 0 0 0 0 0 0
0 0 0 0 0 0 0 0 0
0 0 0 0 0 0 0 0 0
0 0 0 0 0 0 0 0 0
0 0 0 0 0 0 0 0 0
0 0 0 0 0 0 0 0 0
0 0 0 0 0 0 0 0 0
0 0 0 0 0 0 0 0 0
0 0 0 0 0 0 0 0 0
0 0 0 0 0 0 0 0 0
0 0 0 0 0 0 0 0 0
0 0 0 0 0 0 0 0 0
0 0 0 0 0 0 0 0 0
0 0 0 0 0 0 0 0 0
0 0 0 0 0 0 0 0 0
0 0 0 0 0 0 0 0 0
0 0 0 0 0 0 0 0 0
0 0 0 0 0 0 0 0 0
0 0 0 0 0 0 0 0 0
0 0 0 0 0 0 0 0 0
0 0 0 0 0 0 0 0 0
0 0 0 0 0 0 0 0 0
0 0 0 0 0 0 0 0 0
0 0 0 0 0 0 0 0 0
0 0 0 0 0 0 0 0 0
0 0 0 0 0 0 0 0 0
0 0 0 0 0 0 0 0 0
0 0 0 0 0 0 0 0 0
0 0 0 0 0 0 0 0 0
0 0 0 0 0 0 0 0 0
0 0 0 0 0 0 0 0 0
0 0 0 0 0 0 0 0 0
0 0 0 0 0 0 0 0 0
0 0 0 0 0 0 0 0 0
0 0 0 0 0 0 0 0 0
0 0 0 0 0 0 0 0 0
0 0 0 0 0 0 0 0 0
0 0 0 0 0 0 0 0 0
0 0 0 0 0 0 0 0 0
0 0 0 0 0 0 0 0 0
0 0 0 0 0 0 0 0 0
0 0 0 0 0 0 0 0 0
0 0 0 0 0 0 0 0 0
0 0 0 0 0 0 0 0 0
0 0 0 0 0 0 0 0 0
0 0 0 0 0 0 0 0 0
0 0 0 0 0 0 0 0 0
0 0 0 0 0 0 0 0 0
0 0 0 0 0 0 0 0 0
0 0 0 0 0 0 0 0 0
0 0 0 0 0 0 0 0 0
0 0 0 0 0 0 0 0 0
0 0 0 0 0 0 0 0 0
0 0 0 0 0 0 0 0 0
0 0 0 0 0 0 0 0 0
0 0 0 0 0 0 0 0 0
0 0 0 0 0 0 0 0 0
0 0 0 0 0 0 0 0 0
0 0 0 0 0 0 0 0 0
0 0 0 0 0 0 0 0 0
0 0 0 0 0 0 0 0 0
0 0 0 0 0 0 0 0 0
0 0 0 0 0 0 0 0 0
0 0 0 0 0 0 0 0 0
0 0 0 0 0 0 0 0 0
0 0 0 0 0 0 0 0 0
0 0 0 0 0 0 0 0 0
0 0 0 0 0 0 0 0 0
0 0 0 0 0 0 0 0 0
0 0 0 0 0 0 0 0 0
0 0 0 0 0 0 0 0 0
0 0 0 0 0 0 0 0 0
0 0 0 0 0 0 0 0 0
0 0 0 0 0 0 0 0 0
0 0 0 0 0 0 0 0 0
0 0 0 0 0 0 0 0 0
0 0 0 0 0 0 0 0 0
0 0 0 0 0 0 0 0 0
0 0 0 0 0 0 0 0 0
0 0 0 0 0 0 0 0 0
0 0 0 0 0 0 0 0 0
0 0 0 0 0 0 0 0 0
0 0 0 0 0 0 0 0 0
0 0 0 0 0 0 0 0 0
0 0 0 0 0 0 0 0 0
0 0 0 0 0 0 0 0 0
0 0 0 0 0 0 0 0 0
0 0 0 0 0 0 0 0 0
0 0 0 0 0 0 0 0 0
0 0 0 0 0 0 0 0 0
0 0 0 0 0 0 0 0 0
0 0 0 0 0 0 0 0 0
0 0 0 0 0 0 0 0 0
0 0 0 0 0 0 0 0 0
0 0 0 0 0 0 0 0 0
0 0 0 0 0 0 0 0 0
0 0 0 0 0 0 0 0 0
0 0 0 0 0 0 0 0 0
0 0 0 0 0 0 0 0 0
0 0 0 0 0 0 0 0 0
0 0 0 0 0 0 0 0 0
0 0 0 0 0 0 0 0 0
0 0 0 0 0 0 0 0 0
0 0 0 0 0 0 0 0 0
0 0 0 0 0 0 0 0 0
0 0 0 0 0 0 0 0 0
0 0 0 0 0 0 0 0 0
0 0 0 0 0 0 0 0 0
0 0 0 0 0 0 0 0 0
0 0 0 0 0 0 0 0 0
0 0 0 0 0 0 0 0 0
0 0 0 0 0 0 0 0 0
0 0 0 0 0 0 0 0 0
0 0 0 0 0 0 0 0 0
0 0 0 0 0 0 0 0 0
0 0 0 0 0 0 0 0 0
0 0 0 0 0 0 0 0 0
0 0 0 0 0 0 0 0 0
0 0 0 0 0 0 0 0 0
0 0 0 0 0 0 0 0 0
0 0 0 0 0 0 0 0 0
0 0 0 0 0 0 0 0 0
0 0 0 0 0 0 0 0 0
0 0 0 0 0 0 0 0 0
0 0 0 0 0 0 0 0 0
0 0 0 0 0 0 0 0 0
0 0 0 0 0 0 0 0 0
0 0 0 0 0 0 0 0 0
0 0 0 0 0 0 0 0 0
0 0 0 0 0 0 0 0 0
0 0 0 0 0 0 0 0 0
0 0 0 0 0 0 0 0 0
0 0 0 0 0 0 0 0 0
0 0 0 0 0 0 0 0 0
0 0 0 0 0 0 0 0 0
0 0 0 0 0 0 0 0 0
0 0 0 0 0 0 0 0 0
0 0 0 0 0 0 0 0 0
0 0 0 0 0 0 0 0 0
0 0 0 0 0 0 0 0 0
0 0 0 0 0 0 0 0 0
0 0 0 0 0 0 0 0 0
0 0 0 0 0 0 0 0 0
0 0 0 0 0 0 0 0 0
0 0 0 0 0 0 0 0 0
0 0 0 0 0 0 0 0 0
0 0 0 0 0 0 0 0 0
0 0 0 0 0 0 0 0 0
0 0 0 0 0 0 0 0 0
0 0 0 0 0 0 0 0 0
0 0 0 0 0 0 0 0 0
0 0 0 0 0 0 0 0 0
0 0 0 0 0 0 0 0 0
0 0 0 0 0 0 0 0 0
0 0 0 0 0 0 0 0 0
0 0 0 0 0 0 0 0 0
0 0 0 0 0 0 0 0 0
0 0 0 0 0 0 0 0 0
0 0 0 0 0 0 0 0 0
0 0 0 0 0 0 0 0 0
0 0 0 0 0 0 0 0 0
0 0 0 0 0 0 0 0 0
0 0 0 0 0 0 0 0 0
0 0 0 0 0 0 0 0 0
0 0 0 0 0 0 0 0 0
0 0 0 0 0 0 0 0 0
0 0 0 0 0 0 0 0 0
0 0 0 0 0 0 0 0 0
0 0 0 0 0 0 0 0 0
0 0 0 0 0 0 0 0 0
0 0 0 0 0 0 0 0 0
0 0 0 0 0 0 0 0 0
0 0 0 0 0 0 0 0 0
0 0 0 0 0 0 0 0 0
0 0 0 0 0 0 0 0 0
0 0 0 0 0 0 0 0 0
0 0 0 0 0 0 0 0 0
0 0 0 0 0 0 0 0 0
0 0 0 0 0 0 0 0 0
0 0 0 0 0 0 0 0 0
0 0 0 0 0 0 0 0 0
0 0 0 0 0 0 0 0 0
0 0 0 0 0 0 0 0 0
0 0 0 0 0 0 0 0 0
0 0 0 0 0 0 0 0 0
0 0 0 0 0 0 0 0 0
0 0 0 0 0 0 0 0 0
0 0 0 0 0 0 0 0 0
0 0 0 0 0 0 0 0 0
0 0 0 0 0 0 0 0 0
0 0 0 0 0 0 0 0 0
0 0 0 0 0 0 0 0 0
0 0 0 0 0 0 0 0 0
0 0 0 0 0 0 0 0 0
0 0 0 0 0 0 0 0 0
0 0 0 0 0 0 0 0 0
0 0 0 0 0 0 0 0 0
0 0 0 0 0 0 0 0 0
0 0 0 0 0 0 0 0 0
0 0 0 0 0 0 0 0 0
0 0 0 0 0 0 0 0 0
0 0 0 0 0 0 0 0 0
0 0 0 0 0 0 0 0 0
0 0 0 0 0 0 0 0 0
0 0 0 0 0 0 0 0 0
0 0 0 0 0 0 0 0 0
0 0 0 0 0 0 0 0 0
0 0 0 0 0 0 0 0 0
0 0 0 0 0 0 0 0 0
0 0 0 0 0 0 0 0 0
0 0 0 0 0 0 0 0 0
0 0 0 0 0 0 0 0 0
0 0 0 0 0 0 0 0 0
0 0 0 0 0 0 0 0 0
0 0 0 0 0 0 0 0 0
0 0 0 0 0 0 0 0 0
0 0 0 0 0 0 0 0 0
0 0 0 0 0 0 0 0 0
0 0 0 0 0 0 0 0 0
0 0 0 0 0 0 0 0 0
0 0 0 0 0 0 0 0 0
0 0 0 0 0 0 0 0 0
0 0 0 0 0 0 0 0 0
0 0 0 0 0 0 0 0 0
0 0 0 0 0 0 0 0 0
0 0 0 0 0 0 0 0 0
0 0 0 0 0 0 0 0 0
0 0 0 0 0 0 0 0 0
0 0 0 0 0 0 0 0 0
0 0 0 0 0 0 0 0 0
0 0 0 0 0 0 0 0 0
0 0 0 0 0 0 0 0 0
0 0 0 0 0 0 0 0 0
0 0 0 0 0 0 0 0 0
0 0 0 0 0 0 0 0 0
0 0 0 0 0 0 0 0 0
0 0 0 0 0 0 0 0 0
0 0 0 0 0 0 0 0 0
0 0 0 0 0 0 0 0 0
0 0 0 0 0 0 0 0 0
0 0 0 0 0 0 0 0 0
0 0 0 0 0 0 0 0 0
0 0 0 0 0 0 0 0 0
0 0 0 0 0 0 0 0 0
0 0 0 0 0 0 0 0 0
0 0 0 0 0 0 0 0 0
0 0 0 0 0 0 0 0 0
0 0 0 0 0 0 0 0 0
0 0 0 0 0 0 0 0 0
0 0 0 0 0 0 0 0 0
0 0 0 0 0 0 0 0 0
0 0 0 0 0 0 0 0 0
0 0 0 0 0 0 0 0 0
0 0 0 0 0 0 0 0 0
0 0 0 0 0 0 0 0 0
0 0 0 0 0 0 0 0 0
0 0 0 0 0 0 0 0 0
0 0 0 0 0 0 0 0 0
0 0 0 0 0 0 0 0 0
0 0 0 0 0 0 0 0 0
0 0 0 0 0 0 0 0 0
0 0 0 0 0 0 0 0 0
0 0 0 0 0 0 0 0 0
0 0 0 0 0 0 0 0 0
0 0 0 0 0 0 0 0 0
0 0 0 0 0 0 0 0 0
0 0 0 0 0 0 0 0 0
0 0 0 0 0 0 0 0 0
0 0 0 0 0 0 0 0 0
0 0 0 0 0 0 0 0 0
0 0 0 0 0 0 0 0 0
0 0 0 0 0 0 0 0 0
0 0 0 0 0 0 0 0 0
0 0 0 0 0 0 0 0 0
0 0 0 0 0 0 0 0 0
0 0 0 0 0 0 0 0 0
0 0 0 0 0 0 0 0 0
0 0 0 0 0 0 0 0 0
0 0 0 0 0 0 0 0 0
0 0 0 0 0 0 0 0 0
0 0 0 0 0 0 0 0 0
0 0 0 0 0 0 0 0 0
0 0 0 0 0 0 0 0 0
0 0 0 0 0 0 0 0 0
0 0 0 0 0 0 0 0 0
0 0 0 0 0 0 0 0 0
0 0 0 0 0 0 0 0 0
0 0 0 0 0 0 0 0 0
0 0 0 0 0 0 0 0 0
0 0 0 0 0 0 0 0 0
0 0 0 0 0 0 0 0 0
0 0 0 0 0 0 0 0 0
0 0 0 0 0 0 0 0 0
0 0 0 0 0 0 0 0 0
0 0 0 0 0 0 0 0 0
0 0 0 0 0 0 0 0 0
0 0 0 0 0 0 0 0 0
0 0 0 0 0 0 0 0 0
0 0 0 0 0 0 0 0 0
0 0 0 0 0 0 0 0 0
0 0 0 0 0 0 0 0 0
0 0 0 0 0 0 0 0 0
0 0 0 0 0 0 0 0 0
0 0 0 0 0 0 0 0 0
0 0 0 0 0 0 0 0 0
0 0 0 0 0 0 0 0 0
0 0 0 0 0 0 0 0 0
0 0 0 0 0 0 0 0 0
0 0 0 0 0 0 0 0 0
0 0 0 0 0 0 0 0 0
0 0 0 0 0 0 0 0 0
0 0 0 0 0 0 0 0 0
0 0 0 0 0 0 0 0 0
0 0 0 0 0 0 0 0 0
0 0 0 0 0 0 0 0 0
0 0 0 0 0 0 0 0 0
0 0 0 0 0 0 0 0 0
0 0 0 0 0 0 0 0 0
0 0 0 0 0 0 0 0 0
0 0 0 0 0 0 0 0 0
0 0 0 0 0 0 0 0 0
0 0 0 0 0 0 0 0 0
0 0 0 0 0 0 0 0 0
0 0 0 0 0 0 0 0 0
0 0 0 0 0 0 0 0 0
0 0 0 0 0 0 0 0 0
0 0 0 0 0 0 0 0 0
0 0 0 0 0 0 0 0 0
0 0 0 0 0 0 0 0 0
0 0 0 0 0 0 0 0 0
0 0 0 0 0 0 0 0 0
0 0 0 0 0 0 0 0 0
0 0 0 0 0 0 0 0 0
0 0 0 0 0 0 0 0 0
0 0 0 0 0 0 0 0 0
0 0 0 0 0 0 0 0 0
0 0 0 0 0 0 0 0 0
0 0 0 0 0 0 0 0 0
0 0 0 0 0 0 0 0 0
0 0 0 0 0 0 0 0 0
0 0 0 0 0 0 0 0 0
0 0 0 0 0 0 0 0 0
0 0 0 0 0 0 0 0 0
0 0 0 0 0 0 0 0 0
0 0 0 0 0 0 0 0 0
0 0 0 0 0 0 0 0 0
0 0 0 0 0 0 0 0 0
0 0 0 0 0 0 0 0 0
0 0 0 0 0 0 0 0 0
0 0 0 0 0 0 0 0 0
0 0 0 0 0 0 0 0 0
0 0 0 0 0 0 0 0 0
0 0 0 0 0 0 0 0 0
0 0 0 0 0 0 0 0 0
0 0 0 0 0 0 0 0 0
0 0 0 0 0 0 0 0 0
0 0 0 0 0 0 0 0 0
0 0 0 0 0 0 0 0 0
0 0 0 0 0 0 0 0 0
0 0 0 0 0 0 0 0 0
0 0 0 0 0 0 0 0 0
0 0 0 0 0 0 0 0 0
0 0 0 0 0 0 0 0 0
0 0 0 0 0 0 0 0 0
0 0 0 0 0 0 0 0 0
0 0 0 0 0 0 0 0 0
0 0 0 0 0 0 0 0 0
0 0 0 0 0 0 0 0 0
0 0 0 0 0 0 0 0 0
0 0 0 0 0 0 0 0 0
0 0 0 0 0 0 0 0 0
0 0 0 0 0 0 0 0 0
0 0 0 0 0 0 0 0 0
0 0 0 0 0 0 0 0 0
0 0 0 0 0 0 0 0 0
0 0 0 0 0 0 0 0 0
0 0 0 0 0 0 0 0 0
0 0 0 0 0 0 0 0 0
0 0 0 0 0 0 0 0 0
0 0 0 0 0 0 0 0 0
0 0 0 0 0 0 0 0 0
0 0 0 0 0 0 0 0 0
0 0 0 0 0 0 0 0 0
0 0 0 0 0 0 0 0 0
0 0 0 0 0 0 0 0 0
0 0 0 0 0 0 0 0 0
0 0 0 0 0 0 0 0 0
0 0 0 0 0 0 0 0 0
0 0 0 0 0 0 0 0 0
0 0 0 0 0 0 0 0 0
0 0 0 0 0 0 0 0 0
0 0 0 0 0 0 0 0 0
0 0 0 0 0 0 0 0 0
0 0 0 0 0 0 0 0 0
0 0 0 0 0 0 0 0 0
0 0 0 0 0 0 0 0 0
0 0 0 0 0 0 0 0 0
0 0 0 0 0 0 0 0 0
0 0 0 0 0 0 0 0 0
0 0 0 0 0 0 0 0 0
0 0 0 0 0 0 0 0 0
0 0 0 0 0 0 0 0 0
0 0 0 0 0 0 0 0 0
0 0 0 0 0 0 0 0 0
0 0 0 0 0 0 0 0 0
0 0 0 0 0 0 0 0 0
0 0 0 0 0 0 0 0 0
0 0 0 0 0 0 0 0 0
0 0 0 0 0 0 0 0 0
0 0 0 0 0 0 0 0 0
0 0 0 0 0 0 0 0 0
0 0 0 0 0 0 0 0 0
0 0 0 0 0 0 0 0 0
0 0 0 0 0 0 0 0 0
0 0 0 0 0 0 0 0 0
0 0 0 0 0 0 0 0 0
0 0 0 0 0 0 0 0 0
0 0 0 0 0 0 0 0 0
0 0 0 0 0 0 0 0 0
0 0 0 0 0 0 0 0 0
0 0 0 0 0 0 0 0 0
0 0 0 0 0 0 0 0 0
0 0 0 0 0 0 0 0 0
0 0 0 0 0 0 0 0 0
0 0 0 0 0 0 0 0 0
0 0 0 0 0 0 0 0 0
0 0 0 0 0 0 0 0 0
0 0 0 0 0 0 0 0 0
0 0 0 0 0 0 0 0 0
0 0 0 0 0 0 0 0 0
0 0 0 0 0 0 0 0 0
0 0 0 0 0 0 0 0 0
0 0 0 0 0 0 0 0 0
0 0 0 0 0 0 0 0 0
0 0 0 0 0 0 0 0 0
0 0 0 0 0 0 0 0 0
0 0 0 0 0 0 0 0 0
0 0 0 0 0 0 0 0 0
0 0 0 0 0 0 0 0 0
0 0 0 0 0 0 0 0 0
0 0 0 0 0 0 0 0 0
0 0 0 0 0 0 0 0 0
0 0 0 0 0 0 0 0 0
0 0 0 0 0 0 0 0 0
0 0 0 0 0 0 0 0 0
0 0 0 0 0 0 0 0 0
0 0 0 0 0 0 0 0 0
0 0 0 0 0 0 0 0 0
0 0 0 0 0 0 0 0 0
0 0 0 0 0 0 0 0 0
0 0 0 0 0 0 0 0 0
0 0 0 0 0 0 0 0 0
0 0 0 0 0 0 0 0 0
0 0 0 0 0 0 0 0 0
0 0 0 0 0 0 0 0 0
0 0 0 0 0 0 0 0 0
0 0 0 0 0 0 0 0 0
0 0 0 0 0 0 0 0 0
0 0 0 0 0 0 0 0 0
0 0 0 0 0 0 0 0 0
0 0 0 0 0 0 0 0 0
0 0 0 0 0 0 0 0 0
0 0 0 0 0 0 0 0 0
0 0 0 0 0 0 0 0 0
0 0 0 0 0 0 0 0 0
0 0 0 0 0 0 0 0 0
0 0 0 0 0 0 0 0 0
0 0 0 0 0 0 0 0 0
0 0 0 0 0 0 0 0 0
0 0 0 0 0 0 0 0 0
0 0 0 0 0 0 0 0 0
0 0 0 0 0 0 0 0 0
0 0 0 0 0 0 0 0 0
0 0 0 0 0 0 0 0 0
0 0 0 0 0 0 0 0 0
0 0 0 0 0 0 0 0 0
0 0 0 0 0 0 0 0 0
0 0 0 0 0 0 0 0 0
0 0 0 0 0 0 0 0 0
0 0 0 0 0 0 0 0 0
0 0 0 0 0 0 0 0 0
0 0 0 0 0 0 0 0 0
0 0 0 0 0 0 0 0 0
0 0 0 0 0 0 0 0 0
0 0 0 0 0 0 0 0 0
0 0 0 0 0 0 0 0 0
0 0 0 0 0 0 0 0 0
0 0 0 0 0 0 0 0 0
0 0 0 0 0 0 0 0 0
0 0 0 0 0 0 0 0 0
0 0 0 0 0 0 0 0 0
0 0 0 0 0 0 0 0 0
0 0 0 0 0 0 0 0 0
0 0 0 0 0 0 0 0 0
0 0 0 0 0 0 0 0 0
0 0 0 0 0 0 0 0 0
0 0 0 0 0 0 0 0 0
0 0 0 0 0 0 0 0 0
0 0 0 0 0 0 0 0 0
0 0 0 0 0 0 0 0 0
0 0 0 0 0 0 0 0 0
0 0 0 0 0 0 0 0 0
0 0 0 0 0 0 0 0 0
0 0 0 0 0 0 0 0 0
0 0 0 0 0 0 0 0 0
0 0 0 0 0 0 0 0 0
0 0 0 0 0 0 0 0 0
0 0 0 0 0 0 0 0 0
0 0 0 0 0 0 0 0 0
0 0 0 0 0 0 0 0 0
0 0 0 0 0 0 0 0 0
0 0 0 0 0 0 0 0 0
0 0 0 0 0 0 0 0 0
0 0 0 0 0 0 0 0 0
0 0 0 0 0 0 0 0 0
0 0 0 0 0 0 0 0 0
0 0 0 0 0 0 0 0 0
0 0 0 0 0 0 0 0 0
0 0 0 0 0 0 0 0 0
0 0 0 0 0 0 0 0 0
0 0 0 0 0 0 0 0 0
0 0 0 0 0 0 0 0 0
0 0 0 0 0 0 0 0 0
0 0 0 0 0 0 0 0 0
0 0 0 0 0 0 0 0 0
0 0 0 0 0 0 0 0 0
0 0 0 0 0 0 0 0 0
0 0 0 0 0 0 0 0 0
0 0 0 0 0 0 0 0 0
0 0 0 0 0 0 0 0 0
0 0 0 0 0 0 0 0 0
0 0 0 0 0 0 0 0 0
0 0 0 0 0 0 0 0 0
0 0 0 0 0 0 0 0 0
0 0 0 0 0 0 0 0 0
0 0 0 0 0 0 0 0 0
0 0 0 0 0 0 0 0 0
0 0 0 0 0 0 0 0 0
0 0 0 0 0 0 0 0 0
0 0 0 0 0 0 0 0 0
0 0 0 0 0 0 0 0 0
0 0 0 0 0 0 0 0 0
0 0 0 0 0 0 0 0 0
0 0 0 0 0 0 0 0 0
0 0 0 0 0 0 0 0 0
0 0 0 0 0 0 0 0 0
0 0 0 0 0 0 0 0 0
0 0 0 0 0 0 0 0 0
0 0 0 0 0 0 0 0 0
0 0 0 0 0 0 0 0 0
0 0 0 0 0 0 0 0 0
0 0 0 0 0 0 0 0 0
0 0 0 0 0 0 0 0 0
0 0 0 0 0 0 0 0 0
0 0 0 0 0 0 0 0 0
0 0 0 0 0 0 0 0 0
0 0 0 0 0 0 0 0 0
0 0 0 0 0 0 0 0 0
0 0 0 0 0 0 0 0 0
0 0 0 0 0 0 0 0 0
0 0 0 0 0 0 0 0 0
0 0 0 0 0 0 0 0 0
0 0 0 0 0 0 0 0 0
0 0 0 0 0 0 0 0 0
0 0 0 0 0 0 0 0 0
0 0 0 0 0 0 0 0 0
0 0 0 0 0 0 0 0 0
0 0 0 0 0 0 0 0 0
0 0 0 0 0 0 0 0 0
0 0 0 0 0 0 0 0 0
0 0 0 0 0 0 0 0 0
0 0 0 0 0 0 0 0 0
0 0 0 0 0 0 0 0 0
0 0 0 0 0 0 0 0 0
0 0 0 0 0 0 0 0 0
0 0 0 0 0 0 0 0 0
0 0 0 0 0 0 0 0 0
0 0 0 0 0 0 0 0 0
0 0 0 0 0 0 0 0 0
0 0 0 0 0 0 0 0 0
0 0 0 0 0 0 0 0 0
0 0 0 0 0 0 0 0 0
0 0 0 0 0 0 0 0 0
0 0 0 0 0 0 0 0 0
0 0 0 0 0 0 0 0 0
0 0 0 0 0 0 0 0 0
0 0 0 0 0 0 0 0 0
0 0 0 0 0 0 0 0 0
0 0 0 0 0 0 0 0 0
0 0 0 0 0 0 0 0 0
0 0 0 0 0 0 0 0 0
0 0 0 0 0 0 0 0 0
0 0 0 0 0 0 0 0 0
0 0 0 0 0 0 0 0 0
0 0 0 0 0 0 0 0 0
0 0 0 0 0 0 0 0 0
0 0 0 0 0 0 0 0 0
0 0 0 0 0 0 0 0 0
0 0 0 0 0 0 0 0 0
0 0 0 0 0 0 0 0 0
0 0 0 0 0 0 0 0 0
0 0 0 0 0 0 0 0 0
0 0 0 0 0 0 0 0 0
0 0 0 0 0 0 0 0 0
0 0 0 0 0 0 0 0 0
0 0 0 0 0 0 0 0 0
0 0 0 0 0 0 0 0 0
0 0 0 0 0 0 0 0 0
0 0 0 0 0 0 0 0 0
0 0 0 0 0 0 0 0 0
0 0 0 0 0 0 0 0 0
0 0 0 0 0 0 0 0 0
0 0 0 0 0 0 0 0 0
0 0 0 0 0 0 0 0 0
0 0 0 0 0 0 0 0 0
0 0 0 0 0 0 0 0 0
0 0 0 0 0 0 0 0 0
0 0 0 0 0 0 0 0 0
0 0 0 0 0 0 0 0 0
0 0 0 0 0 0 0 0 0
0 0 0 0 0 0 0 0 0
0 0 0 0 0 0 0 0 0
0 0 0 0 0 0 0 0 0
0 0 0 0 0 0 0 0 0
0 0 0 0 0 0 0 0 0
0 0 0 0 0 0 0 0 0
0 0 0 0 0 0 0 0 0
0 0 0 0 0 0 0 0 0
0 0 0 0 0 0 0 0 0
0 0 0 0 0 0 0 0 0
0 0 0 0 0 0 0 0 0
0 0 0 0 0 0 0 0 0
0 0 0 0 0 0 0 0 0
0 0 0 0 0 0 0 0 0
0 0 0 0 0 0 0 0 0
0 0 0 0 0 0 0 0 0
0 0 0 0 0 0 0 0 0
0 0 0 0 0 0 0 0 0
0 0 0 0 0 0 0 0 0
0 0 0 0 0 0 0 0 0
0 0 0 0 0 0 0 0 0
0 0 0 0 0 0 0 0 0
0 0 0 0 0 0 0 0 0
0 0 0 0 0 0 0 0 0
0 0 0 0 0 0 0 0 0
0 0 0 0 0 0 0 0 0
0 0 0 0 0 0 0 0 0
0 0 0 0 0 0 0 0 0
0 0 0 0 0 0 0 0 0
0 0 0 0 0 0 0 0 0
0 0 0 0 0 0 0 0 0
0 0 0 0 0 0 0 0 0
0 0 0 0 0 0 0 0 0
0 0 0 0 0 0 0 0 0
0 0 0 0 0 0 0 0 0
0 0 0 0 0 0 0 0 0
0 0 0 0 0 0 0 0 0
0 0 0 0 0 0 0 0 0
0 0 0 0 0 0 0 0 0
0 0 0 0 0 0 0 0 0
0 0 0 0 0 0 0 0 0
0 0 0 0 0 0 0 0 0
0 0 0 0 0 0 0 0 0
0 0 0 0 0 0 0 0 0
0 0 0 0 0 0 0 0 0
0 0 0 0 0 0 0 0 0
0 0 0 0 0 0 0 0 0
0 0 0 0 0 0 0 0 0
0 0 0 0 0 0 0 0 0
0 0 0 0 0 0 0 0 0
0 0 0 0 0 0 0 0 0
0 0 0 0 0 0 0 0 0
0 0 0 0 0 0 0 0 0
0 0 0 0 0 0 0 0 0
0 0 0 0 0 0 0 0 0
0 0 0 0 0 0 0 0 0
0 0 0 0 0 0 0 0 0
0 0 0 0 0 0 0 0 0
0 0 0 0 0 0 0 0 0
0 0 0 0 0 0 0 0 0
0 0 0 0 0 0 0 0 0
0 0 0 0 0 0 0 0 0
0 0 0 0 0 0 0 0 0
0 0 0 0 0 0 0 0 0
0 0 0 0 0 0 0 0 0
0 0 0 0 0 0 0 0 0
0 0 0 0 0 0 0 0 0
0 0 0 0 0 0 0 0 0
0 0 0 0 0 0 0 0 0
0 0 0 0 0 0 0 0 0
0 0 0 0 0 0 0 0 0
0 0 0 0 0 0 0 0 0
0 0 0 0 0 0 0 0 0
0 0 0 0 0 0 0 0 0
0 0 0 0 0 0 0 0 0
0 0 0 0 0 0 0 0 0
0 0 0 0 0 0 0 0 0
0 0 0 0 0 0 0 0 0
0 0 0 0 0 0 0 0 0
0 0 0 0 0 0 0 0 0
0 0 0 0 0 0 0 0 0
0 0 0 0 0 0 0 0 0
0 0 0 0 0 0 0 0 0
0 0 0 0 0 0 0 0 0
0 0 0 0 0 0 0 0 0
0 0 0 0 0 0 0 0 0
0 0 0 0 0 0 0 0 0
0 0 0 0 0 0 0 0 0
0 0 0 0 0 0 0 0 0
0 0 0 0 0 0 0 0 0
0 0 0 0 0 0 0 0 0
0 0 0 0 0 0 0 0 0
0 0 0 0 0 0 0 0 0
0 0 0 0 0 0 0 0 0
0 0 0 0 0 0 0 0 0
0 0 0 0 0 0 0 0 0
0 0 0 0 0 0 0 0 0
0 0 0 0 0 0 0 0 0
0 0 0 0 0 0 0 0 0
0 0 0 0 0 0 0 0 0
0 0 0 0 0 0 0 0 0
0 0 0 0 0 0 0 0 0
0 0 0 0 0 0 0 0 0
0 0 0 0 0 0 0 0 0
0 0 0 0 0 0 0 0 0
0 0 0 0 0 0 0 0 0
0 0 0 0 0 0 0 0 0
0 0 0 0 0 0 0 0 0
0 0 0 0 0 0 0 0 0
0 0 0 0 0 0 0 0 0
0 0 0 0 0 0 0 0 0
0 0 0 0 0 0 0 0 0
0 0 0 0 0 0 0 0 0
0 0 0 0 0 0 0 0 0
0 0 0 0 0 0 0 0 0
0 0 0 0 0 0 0 0 0
0 0 0 0 0 0 0 0 0
0 0 0 0 0 0 0 0 0
0 0 0 0 0 0 0 0 0
0 0 0 0 0 0 0 0 0
0 0 0 0 0 0 0 0 0
0 0 0 0 0 0 0 0 0
0 0 0 0 0 0 0 0 0
0 0 0 0 0 0 0 0 0
0 0 0 0 0 0 0 0 0
0 0 0 0 0 0 0 0 0
0 0 0 0 0 0 0 0 0
0 0 0 0 0 0 0 0 0
0 0 0 0 0 0 0 0 0
0 0 0 0 0 0 0 0 0
0 0 0 0 0 0 0 0 0
0 0 0 0 0 0 0 0 0
0 0 0 0 0 0 0 0 0
0 0 0 0 0 0 0 0 0
0 0 0 0 0 0 0 0 0
0 0 0 0 0 0 0 0 0
0 0 0 0 0 0 0 0 0
0 0 0 0 0 0 0 0 0
0 0 0 0 0 0 0 0 0
0 0 0 0 0 0 0 0 0
0 0 0 0 0 0 0 0 0
0 0 0 0 0 0 0 0 0
0 0 0 0 0 0 0 0 0
0 0 0 0 0 0 0 0 0
0 0 0 0 0 0 0 0 0
0 0 0 0 0 0 0 0 0
0 0 0 0 0 0 0 0 0
0 0 0 0 0 0 0 0 0
0 0 0 0 0 0 0 0 0
0 0 0 0 0 0 0 0 0
0 0 0 0 0 0 0 0 0
0 0 0 0 0 0 0 0 0
0 0 0 0 0 0 0 0 0
0 0 0 0 0 0 0 0 0
0 0 0 0 0 0 0 0 0
0 0 0 0 0 0 0 0 0
0 0 0 0 0 0 0 0 0
0 0 0 0 0 0 0 0 0
0 0 0 0 0 0 0 0 0
0 0 0 0 0 0 0 0 0
0 0 0 0 0 0 0 0 0
0 0 0 0 0 0 0 0 0
0 0 0 0 0 0 0 0 0
0 0 0 0 0 0 0 0 0
0 0 0 0 0 0 0 0 0
0 0 0 0 0 0 0 0 0
0 0 0 0 0 0 0 0 0
0 0 0 0 0 0 0 0 0
0 0 0 0 0 0 0 0 0
0 0 0 0 0 0 0 0 0
0 0 0 0 0 0 0 0 0
0 0 0 0 0 0 0 0 0
0 0 0 0 0 0 0 0 0
0 0 0 0 0 0 0 0 0
0 0 0 0 0 0 0 0 0
0 0 0 0 0 0 0 0 0
0 0 0 0 0 0 0 0 0
0 0 0 0 0 0 0 0 0
0 0 0 0 0 0 0 0 0
0 0 0 0 0 0 0 0 0
0 0 0 0 0 0 0 0 0
0 0 0 0 0 0 0 0 0
0 0 0 0 0 0 0 0 0
0 0 0 0 0 0 0 0 0
0 0 0 0 0 0 0 0 0
0 0 0 0 0 0 0 0 0
0 0 0 0 0 0 0 0 0
0 0 0 0 0 0 0 0 0
0 0 0 0 0 0 0 0 0
0 0 0 0 0 0 0 0 0
0 0 0 0 0 0 0 0 0
0 0 0 0 0 0 0 0 0
0 0 0 0 0 0 0 0 0
0 0 0 0 0 0 0 0 0
0 0 0 0 0 0 0 0 0
0 0 0 0 0 0 0 0 0
0 0 0 0 0 0 0 0 0
0 0 0 0 0 0 0 0 0
0 0 0 0 0 0 0 0 0
0 0 0 0 0 0 0 0 0
0 0 0 0 0 0 0 0 0
0 0 0 0 0 0 0 0 0
0 0 0 0 0 0 0 0 0
0 0 0 0 0 0 0 0 0
0 0 0 0 0 0 0 0 0
0 0 0 0 0 0 0 0 0
0 0 0 0 0 0 0 0 0
0 0 0 0 0 0 0 0 0
0 0 0 0 0 0 0 0 0
0 0 0 0 0 0 0 0 0
0 0 0 0 0 0 0 0 0
0 0 0 0 0 0 0 0 0
0 0 0 0 0 0 0 0 0
0 0 0 0 0 0 0 0 0
0 0 0 0 0 0 0 0 0
0 0 0 0 0 0 0 0 0
0 0 0 0 0 0 0 0 0
0 0 0 0 0 0 0 0 0
0 0 0 0 0 0 0 0 0
0 0 0 0 0 0 0 0 0
0 0 0 0 0 0 0 0 0
0 0 0 0 0 0 0 0 0
0 0 0 0 0 0 0 0 0
0 0 0 0 0 0 0 0 0
0 0 0 0 0 0 0 0 0
0 0 0 0 0 0 0 0 0
0 0 0 0 0 0 0 0 0
0 0 0 0 0 0 0 0 0
0 0 0 0 0 0 0 0 0
0 0 0 0 0 0 0 0 0
0 0 0 0 0 0 0 0 0
0 0 0 0 0 0 0 0 0
0 0 0 0 0 0 0 0 0
0 0 0 0 0 0 0 0 0
0 0 0 0 0 0 0 0 0
0 0 0 0 0 0 0 0 0
0 0 0 0 0 0 0 0 0
0 0 0 0 0 0 0 0 0
0 0 0 0 0 0 0 0 0
0 0 0 0 0 0 0 0 0
0 0 0 0 0 0 0 0 0
0 0 0 0 0 0 0 0 0
0 0 0 0 0 0 0 0 0
0 0 0 0 0 0 0 0 0
0 0 0 0 0 0 0 0 0
0 0 0 0 0 0 0 0 0
0 0 0 0 0 0 0 0 0
0 0 0 0 0 0 0 0 0
0 0 0 0 0 0 0 0 0
0 0 0 0 0 0 0 0 0
0 0 0 0 0 0 0 0 0
0 0 0 0 0 0 0 0 0
0 0 0 0 0 0 0 0 0
0 0 0 0 0 0 0 0 0
0 0 0 0 0 0 0 0 0
0 0 0 0 0 0 0 0 0
0 0 0 0 0 0 0 0 0
0 0 0 0 0 0 0 0 0
0 0 0 0 0 0 0 0 0
0 0 0 0 0 0 0 0 0
0 0 0 0 0 0 0 0 0
0 0 0 0 0 0 0 0 0
0 0 0 0 0 0 0 0 0
0 0 0 0 0 0 0 0 0
0 0 0 0 0 0 0 0 0
0 0 0 0 0 0 0 0 0
0 0 0 0 0 0 0 0 0
0 0 0 0 0 0 0 0 0
0 0 0 0 0 0 0 0 0
0 0 0 0 0 0 0 0 0
0 0 0 0 0 0 0 0 0
0 0 0 0 0 0 0 0 0
0 0 0 0 0 0 0 0 0
0 0 0 0 0 0 0 0 0
0 0 0 0 0 0 0 0 0
0 0 0 0 0 0 0 0 0
0 0 0 0 0 0 0 0 0
0 0 0 0 0 0 0 0 0
0 0 0 0 0 0 0 0 0
0 0 0 0 0 0 0 0 0
0 0 0 0 0 0 0 0 0
0 0 0 0 0 0 0 0 0
0 0 0 0 0 0 0 0 0
0 0 0 0 0 0 0 0 0
0 0 0 0 0 0 0 0 0
0 0 0 0 0 0 0 0 0
0 0 0 0 0 0 0 0 0
0 0 0 0 0 0 0 0 0
0 0 0 0 0 0 0 0 0
0 0 0 0 0 0 0 0 0
0 0 0 0 0 0 0 0 0
0 0 0 0 0 0 0 0 0
0 0 0 0 0 0 0 0 0
0 0 0 0 0 0 0 0 0
0 0 0 0 0 0 0 0 0
0 0 0 0 0 0 0 0 0
0 0 0 0 0 0 0 0 0
0 0 0 0 0 0 0 0 0
0 0 0 0 0 0 0 0 0
0 0 0 0 0 0 0 0 0
0 0 0 0 0 0 0 0 0
0 0 0 0 0 0 0 0 0
0 0 0 0 0 0 0 0 0
0 0 0 0 0 0 0 0 0
0 0 0 0 0 0 0 0 0
0 0 0 0 0 0 0 0 0
0 0 0 0 0 0 0 0 0
0 0 0 0 0 0 0 0 0
0 0 0 0 0 0 0 0 0
0 0 0 0 0 0 0 0 0
0 0 0 0 0 0 0 0 0
0 0 0 0 0 0 0 0 0
0 0 0 0 0 0 0 0 0
0 0 0 0 0 0 0 0 0
0 0 0 0 0 0 0 0 0
0 0 0 0 0 0 0 0 0
0 0 0 0 0 0 0 0 0
0 0 0 0 0 0 0 0 0
0 0 0 0 0 0 0 0 0
0 0 0 0 0 0 0 0 0
0 0 0 0 0 0 0 0 0
0 0 0 0 0 0 0 0 0
0 0 0 0 0 0 0 0 0
0 0 0 0 0 0 0 0 0
0 0 0 0 0 0 0 0 0
0 0 0 0 0 0 0 0 0
0 0 0 0 0 0 0 0 0
0 0 0 0 0 0 0 0 0
0 0 0 0 0 0 0 0 0
0 0 0 0 0 0 0 0 0
0 0 0 0 0 0 0 0 0
0 0 0 0 0 0 0 0 0
0 0 0 0 0 0 0 0 0
0 0 0 0 0 0 0 0 0
0 0 0 0 0 0 0 0 0
0 0 0 0 0 0 0 0 0
0 0 0 0 0 0 0 0 0
0 0 0 0 0 0 0 0 0
0 0 0 0 0 0 0 0 0
0 0 0 0 0 0 0 0 0
0 0 0 0 0 0 0 0 0
0 0 0 0 0 0 0 0 0
0 0 0 0 0 0 0 0 0
0 0 0 0 0 0 0 0 0
0 0 0 0 0 0 0 0 0
0 0 0 0 0 0 0 0 0
0 0 0 0 0 0 0 0 0
0 0 0 0 0 0 0 0 0
0 0 0 0 0 0 0 0 0
0 0 0 0 0 0 0 0 0
0 0 0 0 0 0 0 0 0
0 0 0 0 0 0 0 0 0
0 0 0 0 0 0 0 0 0
0 0 0 0 0 0 0 0 0
0 0 0 0 0 0 0 0 0
0 0 0 0 0 0 0 0 0
0 0 0 0 0 0 0 0 0
0 0 0 0 0 0 0 0 0
0 0 0 0 0 0 0 0 0
0 0 0 0 0 0 0 0 0
0 0 0 0 0 0 0 0 0
0 0 0 0 0 0 0 0 0
0 0 0 0 0 0 0 0 0
0 0 0 0 0 0 0 0 0
0 0 0 0 0 0 0 0 0
0 0 0 0 0 0 0 0 0
0 0 0 0 0 0 0 0 0
0 0 0 0 0 0 0 0 0
0 0 0 0 0 0 0 0 0
0 0 0 0 0 0 0 0 0
0 0 0 0 0 0 0 0 0
0 0 0 0 0 0 0 0 0
0 0 0 0 0 0 0 0 0
0 0 0 0 0 0 0 0 0
0 0 0 0 0 0 0 0 0
0 0 0 0 0 0 0 0 0
0 0 0 0 0 0 0 0 0
0 0 0 0 0 0 0 0 0
0 0 0 0 0 0 0 0 0
0 0 0 0 0 0 0 0 0
0 0 0 0 0 0 0 0 0
0 0 0 0 0 0 0 0 0
0 0 0 0 0 0 0 0 0
0 0 0 0 0 0 0 0 0
0 0 0 0 0 0 0 0 0
0 0 0 0 0 0 0 0 0
0 0 0 0 0 0 0 0 0
0 0 0 0 0 0 0 0 0
0 0 0 0 0 0 0 0 0
0 0 0 0 0 0 0 0 0
0 0 0 0 0 0 0 0 0
0 0 0 0 0 0 0 0 0
0 0 0 0 0 0 0 0 0
0 0 0 0 0 0 0 0 0
0 0 0 0 0 0 0 0 0
0 0 0 0 0 0 0 0 0
0 0 0 0 0 0 0 0 0
0 0 0 0 0 0 0 0 0
0 0 0 0 0 0 0 0 0
0 0 0 0 0 0 0 0 0
0 0 0 0 0 0 0 0 0
0 0 0 0 0 0 0 0 0
0 0 0 0 0 0 0 0 0
0 0 0 0 0 0 0 0 0
0 0 0 0 0 0 0 0 0
0 0 0 0 0 0 0 0 0
0 0 0 0 0 0 0 0 0
0 0 0 0 0 0 0 0 0
0 0 0 0 0 0 0 0 0
0 0 0 0 0 0 0 0 0
0 0 0 0 0 0 0 0 0
0 0 0 0 0 0 0 0 0
0 0 0 0 0 0 0 0 0
0 0 0 0 0 0 0 0 0
0 0 0 0 0 0 0 0 0
0 0 0 0 0 0 0 0 0
0 0 0 0 0 0 0 0 0
0 0 0 0 0 0 0 0 0
0 0 0 0 0 0 0 0 0
0 0 0 0 0 0 0 0 0
0 0 0 0 0 0 0 0 0
0 0 0 0 0 0 0 0 0
0 0 0 0 0 0 0 0 0
0 0 0 0 0 0 0 0 0
0 0 0 0 0 0 0 0 0
0 0 0 0 0 0 0 0 0
0 0 0 0 0 0 0 0 0
0 0 0 0 0 0 0 0 0
0 0 0 0 0 0 0 0 0
0 0 0 0 0 0 0 0 0
0 0 0 0 0 0 0 0 0
0 0 0 0 0 0 0 0 0
0 0 0 0 0 0 0 0 0
0 0 0 0 0 0 0 0 0
0 0 0 0 0 0 0 0 0
0 0 0 0 0 0 0 0 0
0 0 0 0 0 0 0 0 0
0 0 0 0 0 0 0 0 0
0 0 0 0 0 0 0 0 0
0 0 0 0 0 0 0 0 0
0 0 0 0 0 0 0 0 0
0 0 0 0 0 0 0 0 0
0 0 0 0 0 0 0 0 0
0 0 0 0 0 0 0 0 0
0 0 0 0 0 0 0 0 0
0 0 0 0 0 0 0 0 0
0 0 0 0 0 0 0 0 0
0 0 0 0 0 0 0 0 0
0 0 0 0 0 0 0 0 0
0 0 0 0 0 0 0 0 0
0 0 0 0 0 0 0 0 0
0 0 0 0 0 0 0 0 0
0 0 0 0 0 0 0 0 0
0 0 0 0 0 0 0 0 0
0 0 0 0 0 0 0 0 0
0 0 0 0 0 0 0 0 0
0 0 0 0 0 0 0 0 0
0 0 0 0 0 0 0 0 0
0 0 0 0 0 0 0 0 0
0 0 0 0 0 0 0 0 0
0 0 0 0 0 0 0 0 0
0 0 0 0 0 0 0 0 0
0 0 0 0 0 0 0 0 0
0 0 0 0 0 0 0 0 0
0 0 0 0 0 0 0 0 0
0 0 0 0 0 0 0 0 0
0 0 0 0 0 0 0 0 0
0 0 0 0 0 0 0 0 0
0 0 0 0 0 0 0 0 0
0 0 0 0 0 0 0 0 0
0 0 0 0 0 0 0 0 0
0 0 0 0 0 0 0 0 0
0 0 0 0 0 0 0 0 0
0 0 0 0 0 0 0 0 0
0 0 0 0 0 0 0 0 0
0 0 0 0 0 0 0 0 0
0 0 0 0 0 0 0 0 0
0 0 0 0 0 0 0 0 0
0 0 0 0 0 0 0 0 0
0 0 0 0 0 0 0 0 0
0 0 0 0 0 0 0 0 0
0 0 0 0 0 0 0 0 0
0 0 0 0 0 0 0 0 0
0 0 0 0 0 0 0 0 0
0 0 0 0 0 0 0 0 0
0 0 0 0 0 0 0 0 0
0 0 0 0 0 0 0 0 0
0 0 0 0 0 0 0 0 0
0 0 0 0 0 0 0 0 0
0 0 0 0 0 0 0 0 0
0 0 0 0 0 0 0 0 0
0 0 0 0 0 0 0 0 0
0 0 0 0 0 0 0 0 0
0 0 0 0 0 0 0 0 0
0 0 0 0 0 0 0 0 0
0 0 0 0 0 0 0 0 0
0 0 0 0 0 0 0 0 0
0 0 0 0 0 0 0 0 0
0 0 0 0 0 0 0 0 0
0 0 0 0 0 0 0 0 0
0 0 0 0 0 0 0 0 0
0 0 0 0 0 0 0 0 0
0 0 0 0 0 0 0 0 0
0 0 0 0 0 0 0 0 0
0 0 0 0 0 0 0 0 0
0 0 0 0 0 0 0 0 0
0 0 0 0 0 0 0 0 0
0 0 0 0 0 0 0 0 0
0 0 0 0 0 0 0 0 0
0 0 0 0 0 0 0 0 0
0 0 0 0 0 0 0 0 0
0 0 0 0 0 0 0 0 0
0 0 0 0 0 0 0 0 0
0 0 0 0 0 0 0 0 0
0 0 0 0 0 0 0 0 0
0 0 0 0 0 0 0 0 0
0 0 0 0 0 0 0 0 0
0 0 0 0 0 0 0 0 0
0 0 0 0 0 0 0 0 0
0 0 0 0 0 0 0 0 0
0 0 0 0 0 0 0 0 0
0 0 0 0 0 0 0 0 0
0 0 0 0 0 0 0 0 0
0 0 0 0 0 0 0 0 0
0 0 0 0 0 0 0 0 0
0 0 0 0 0 0 0 0 0
0 0 0 0 0 0 0 0 0
0 0 0 0 0 0 0 0 0
0 0 0 0 0 0 0 0 0
0 0 0 0 0 0 0 0 0
0 0 0 0 0 0 0 0 0
0 0 0 0 0 0 0 0 0
0 0 0 0 0 0 0 0 0
0 0 0 0 0 0 0 0 0
0 0 0 0 0 0 0 0 0
0 0 0 0 0 0 0 0 0
0 0 0 0 0 0 0 0 0
0 0 0 0 0 0 0 0 0
0 0 0 0 0 0 0 0 0
0 0 0 0 0 0 0 0 0
0 0 0 0 0 0 0 0 0
0 0 0 0 0 0 0 0 0
0 0 0 0 0 0 0 0 0
0 0 0 0 0 0 0 0 0
0 0 0 0 0 0 0 0 0
0 0 0 0 0 0 0 0 0
0 0 0 0 0 0 0 0 0
0 0 0 0 0 0 0 0 0
0 0 0 0 0 0 0 0 0
0 0 0 0 0 0 0 0 0
0 0 0 0 0 0 0 0 0
0 0 0 0 0 0 0 0 0
0 0 0 0 0 0 0 0 0
0 0 0 0 0 0 0 0 0
0 0 0 0 0 0 0 0 0
0 0 0 0 0 0 0 0 0
0 0 0 0 0 0 0 0 0
0 0 0 0 0 0 0 0 0
0 0 0 0 0 0 0 0 0
0 0 0 0 0 0 0 0 0
0 0 0 0 0 0 0 0 0
0 0 0 0 0 0 0 0 0
0 0 0 0 0 0 0 0 0
0 0 0 0 0 0 0 0 0
0 0 0 0 0 0 0 0 0
0 0 0 0 0 0 0 0 0
0 0 0 0 0 0 0 0 0
0 0 0 0 0 0 0 0 0
0 0 0 0 0 0 0 0 0
0 0 0 0 0 0 0 0 0
0 0 0 0 0 0 0 0 0
0 0 0 0 0 0 0 0 0
0 0 0 0 0 0 0 0 0
0 0 0 0 0 0 0 0 0
0 0 0 0 0 0 0 0 0
0 0 0 0 0 0 0 0 0
0 0 0 0 0 0 0 0 0
0 0 0 0 0 0 0 0 0
0 0 0 0 0 0 0 0 0
0 0 0 0 0 0 0 0 0
0 0 0 0 0 0 0 0 0
0 0 0 0 0 0 0 0 0
0 0 0 0 0 0 0 0 0
0 0 0 0 0 0 0 0 0
0 0 0 0 0 0 0 0 0
0 0 0 0 0 0 0 0 0
0 0 0 0 0 0 0 0 0
0 0 0 0 0 0 0 0 0
0 0 0 0 0 0 0 0 0
0 0 0 0 0 0 0 0 0
0 0 0 0 0 0 0 0 0
0 0 0 0 0 0 0 0 0
0 0 0 0 0 0 0 0 0
0 0 0 0 0 0 0 0 0
0 0 0 0 0 0 0 0 0
0 0 0 0 0 0 0 0 0
0 0 0 0 0 0 0 0 0
0 0 0 0 0 0 0 0 0
0 0 0 0 0 0 0 0 0
0 0 0 0 0 0 0 0 0
0 0 0 0 0 0 0 0 0
0 0 0 0 0 0 0 0 0
0 0 0 0 0 0 0 0 0
0 0 0 0 0 0 0 0 0
0 0 0 0 0 0 0 0 0
0 0 0 0 0 0 0 0 0
0 0 0 0 0 0 0 0 0
0 0 0 0 0 0 0 0 0
0 0 0 0 0 0 0 0 0
0 0 0 0 0 0 0 0 0
0 0 0 0 0 0 0 0 0
0 0 0 0 0 0 0 0 0
0 0 0 0 0 0 0 0 0
0 0 0 0 0 0 0 0 0
0 0 0 0 0 0 0 0 0
0 0 0 0 0 0 0 0 0
0 0 0 0 0 0 0 0 0
0 0 0 0 0 0 0 0 0
0 0 0 0 0 0 0 0 0
0 0 0 0 0 0 0 0 0
0 0 0 0 0 0 0 0 0
0 0 0 0 0 0 0 0 0
0 0 0 0 0 0 0 0 0
0 0 0 0 0 0 0 0 0
0 0 0 0 0 0 0 0 0
0 0 0 0 0 0 0 0 0
0 0 0 0 0 0 0 0 0
0 0 0 0 0 0 0 0 0
0 0 0 0 0 0 0 0 0
0 0 0 0 0 0 0 0 0
0 0 0 0 0 0 0 0 0
0 0 0 0 0 0 0 0 0
0 0 0 0 0 0 0 0 0
0 0 0 0 0 0 0 0 0
0 0 0 0 0 0 0 0 0
0 0 0 0 0 0 0 0 0
0 0 0 0 0 0 0 0 0
0 0 0 0 0 0 0 0 0
0 0 0 0 0 0 0 0 0
0 0 0 0 0 0 0 0 0
0 0 0 0 0 0 0 0 0
0 0 0 0 0 0 0 0 0
0 0 0 0 0 0 0 0 0
0 0 0 0 0 0 0 0 0
0 0 0 0 0 0 0 0 0
0 0 0 0 0 0 0 0 0
0 0 0 0 0 0 0 0 0
0 0 0 0 0 0 0 0 0
0 0 0 0 0 0 0 0 0
0 0 0 0 0 0 0 0 0
0 0 0 0 0 0 0 0 0
0 0 0 0 0 0 0 0 0
0 0 0 0 0 0 0 0 0
0 0 0 0 0 0 0 0 0
0 0 0 0 0 0 0 0 0
0 0 0 0 0 0 0 0 0
0 0 0 0 0 0 0 0 0
0 0 0 0 0 0 0 0 0
0 0 0 0 0 0 0 0 0
0 0 0 0 0 0 0 0 0
0 0 0 0 0 0 0 0 0
0 0 0 0 0 0 0 0 0
0 0 0 0 0 0 0 0 0
0 0 0 0 0 0 0 0 0
0 0 0 0 0 0 0 0 0
0 0 0 0 0 0 0 0 0
0 0 0 0 0 0 0 0 0
0 0 0 0 0 0 0 0 0
0 0 0 0 0 0 0 0 0
0 0 0 0 0 0 0 0 0
0 0 0 0 0 0 0 0 0
0 0 0 0 0 0 0 0 0
0 0 0 0 0 0 0 0 0
0 0 0 0 0 0 0 0 0
0 0 0 0 0 0 0 0 0
0 0 0 0 0 0 0 0 0
0 0 0 0 0 0 0 0 0
0 0 0 0 0 0 0 0 0
0 0 0 0 0 0 0 0 0
0 0 0 0 0 0 0 0 0
0 0 0 0 0 0 0 0 0
0 0 0 0 0 0 0 0 0
0 0 0 0 0 0 0 0 0
0 0 0 0 0 0 0 0 0
0 0 0 0 0 0 0 0 0
0 0 0 0 0 0 0 0 0
0 0 0 0 0 0 0 0 0
0 0 0 0 0 0 0 0 0
0 0 0 0 0 0 0 0 0
0 0 0 0 0 0 0 0 0
0 0 0 0 0 0 0 0 0
0 0 0 0 0 0 0 0 0
0 0 0 0 0 0 0 0 0
0 0 0 0 0 0 0 0 0
0 0 0 0 0 0 0 0 0
0 0 0 0 0 0 0 0 0
0 0 0 0 0 0 0 0 0
0 0 0 0 0 0 0 0 0
0 0 0 0 0 0 0 0 0
0 0 0 0 0 0 0 0 0
0 0 0 0 0 0 0 0 0
0 0 0 0 0 0 0 0 0
0 0 0 0 0 0 0 0 0
0 0 0 0 0 0 0 0 0
0 0 0 0 0 0 0 0 0
0 0 0 0 0 0 0 0 0
0 0 0 0 0 0 0 0 0
0 0 0 0 0 0 0 0 0
0 0 0 0 0 0 0 0 0
0 0 0 0 0 0 0 0 0
0 0 0 0 0 0 0 0 0
0 0 0 0 0 0 0 0 0
0 0 0 0 0 0 0 0 0
0 0 0 0 0 0 0 0 0
0 0 0 0 0 0 0 0 0
0 0 0 0 0 0 0 0 0
0 0 0 0 0 0 0 0 0
0 0 0 0 0 0 0 0 0
0 0 0 0 0 0 0 0 0
0 0 0 0 0 0 0 0 0
0 0 0 0 0 0 0 0 0
0 0 0 0 0 0 0 0 0
0 0 0 0 0 0 0 0 0
0 0 0 0 0 0 0 0 0
0 0 0 0 0 0 0 0 0
0 0 0 0 0 0 0 0 0
0 0 0 0 0 0 0 0 0
0 0 0 0 0 0 0 0 0
0 0 0 0 0 0 0 0 0
0 0 0 0 0 0 0 0 0
0 0 0 0 0 0 0 0 0
0 0 0 0 0 0 0 0 0
0 0 0 0 0 0 0 0 0
0 0 0 0 0 0 0 0 0
0 0 0 0 0 0 0 0 0
0 0 0 0 0 0 0 0 0
0 0 0 0 0 0 0 0 0
0 0 0 0 0 0 0 0 0
0 0 0 0 0 0 0 0 0
0 0 0 0 0 0 0 0 0
0 0 0 0 0 0 0 0 0
0 0 0 0 0 0 0 0 0
0 0 0 0 0 0 0 0 0
0 0 0 0 0 0 0 0 0
0 0 0 0 0 0 0 0 0
0 0 0 0 0 0 0 0 0
0 0 0 0 0 0 0 0 0
0 0 0 0 0 0 0 0 0
0 0 0 0 0 0 0 0 0
0 0 0 0 0 0 0 0 0
0 0 0 0 0 0 0 0 0
0 0 0 0 0 0 0 0 0
0 0 0 0 0 0 0 0 0
0 0 0 0 0 0 0 0 0
0 0 0 0 0 0 0 0 0
0 0 0 0 0 0 0 0 0
0 0 0 0 0 0 0 0 0
0 0 0 0 0 0 0 0 0
0 0 0 0 0 0 0 0 0
0 0 0 0 0 0 0 0 0
0 0 0 0 0 0 0 0 0
0 0 0 0 0 0 0 0 0
0 0 0 0 0 0 0 0 0
0 0 0 0 0 0 0 0 0
0 0 0 0 0 0 0 0 0
0 0 0 0 0 0 0 0 0
0 0 0 0 0 0 0 0 0
0 0 0 0 0 0 0 0 0
0 0 0 0 0 0 0 0 0
0 0 0 0 0 0 0 0 0
0 0 0 0 0 0 0 0 0
0 0 0 0 0 0 0 0 0
0 0 0 0 0 0 0 0 0
0 0 0 0 0 0 0 0 0
0 0 0 0 0 0 0 0 0
0 0 0 0 0 0 0 0 0
0 0 0 0 0 0 0 0 0
0 0 0 0 0 0 0 0 0
0 0 0 0 0 0 0 0 0
0 0 0 0 0 0 0 0 0
0 0 0 0 0 0 0 0 0
0 0 0 0 0 0 0 0 0
0 0 0 0 0 0 0 0 0
0 0 0 0 0 0 0 0 0
0 0 0 0 0 0 0 0 0
0 0 0 0 0 0 0 0 0
0 0 0 0 0 0 0 0 0
0 0 0 0 0 0 0 0 0
0 0 0 0 0 0 0 0 0
0 0 0 0 0 0 0 0 0
0 0 0 0 0 0 0 0 0
0 0 0 0 0 0 0 0 0
0 0 0 0 0 0 0 0 0
0 0 0 0 0 0 0 0 0
0 0 0 0 0 0 0 0 0
0 0 0 0 0 0 0 0 0
0 0 0 0 0 0 0 0 0
0 0 0 0 0 0 0 0 0
0 0 0 0 0 0 0 0 0
0 0 0 0 0 0 0 0 0
0 0 0 0 0 0 0 0 0
0 0 0 0 0 0 0 0 0
0 0 0 0 0 0 0 0 0
0 0 0 0 0 0 0 0 0
0 0 0 0 0 0 0 0 0
0 0 0 0 0 0 0 0 0
0 0 0 0 0 0 0 0 0
0 0 0 0 0 0 0 0 0
0 0 0 0 0 0 0 0 0
0 0 0 0 0 0 0 0 0
0 0 0 0 0 0 0 0 0
0 0 0 0 0 0 0 0 0
0 0 0 0 0 0 0 0 0
0 0 0 0 0 0 0 0 0
0 0 0 0 0 0 0 0 0
0 0 0 0 0 0 0 0 0
0 0 0 0 0 0 0 0 0
0 0 0 0 0 0 0 0 0
0 0 0 0 0 0 0 0 0
0 0 0 0 0 0 0 0 0
0 0 0 0 0 0 0 0 0
0 0 0 0 0 0 0 0 0
0 0 0 0 0 0 0 0 0
0 0 0 0 0 0 0 0 0
0 0 0 0 0 0 0 0 0
0 0 0 0 0 0 0 0 0
0 0 0 0 0 0 0 0 0
0 0 0 0 0 0 0 0 0
0 0 0 0 0 0 0 0 0
0 0 0 0 0 0 0 0 0
0 0 0 0 0 0 0 0 0
0 0 0 0 0 0 0 0 0
0 0 0 0 0 0 0 0 0
0 0 0 0 0 0 0 0 0
0 0 0 0 0 0 0 0 0
0 0 0 0 0 0 0 0 0
0 0 0 0 0 0 0 0 0
0 0 0 0 0 0 0 0 0
0 0 0 0 0 0 0 0 0
0 0 0 0 0 0 0 0 0
0 0 0 0 0 0 0 0 0
0 0 0 0 0 0 0 0 0
0 0 0 0 0 0 0 0 0
0 0 0 0 0 0 0 0 0
0 0 0 0 0 0 0 0 0
0 0 0 0 0 0 0 0 0
0 0 0 0 0 0 0 0 0
0 0 0 0 0 0 0 0 0
0 0 0 0 0 0 0 0 0
0 0 0 0 0 0 0 0 0
0 0 0 0 0 0 0 0 0
0 0 0 0 0 0 0 0 0
0 0 0 0 0 0 0 0 0
0 0 0 0 0 0 0 0 0
0 0 0 0 0 0 0 0 0
0 0 0 0 0 0 0 0 0
0 0 0 0 0 0 0 0 0
0 0 0 0 0 0 0 0 0
0 0 0 0 0 0 0 0 0
0 0 0 0 0 0 0 0 0
0 0 0 0 0 0 0 0 0
0 0 0 0 0 0 0 0 0
0 0 0 0 0 0 0 0 0
0 0 0 0 0 0 0 0 0
0 0 0 0 0 0 0 0 0
0 0 0 0 0 0 0 0 0
0 0 0 0 0 0 0 0 0
0 0 0 0 0 0 0 0 0
0 0 0 0 0 0 0 0 0
0 0 0 0 0 0 0 0 0
0 0 0 0 0 0 0 0 0
0 0 0 0 0 0 0 0 0
0 0 0 0 0 0 0 0 0
0 0 0 0 0 0 0 0 0
0 0 0 0 0 0 0 0 0
0 0 0 0 0 0 0 0 0
0 0 0 0 0 0 0 0 0
0 0 0 0 0 0 0 0 0
0 0 0 0 0 0 0 0 0
0 0 0 0 0 0 0 0 0
0 0 0 0 0 0 0 0 0
0 0 0 0 0 0 0 0 0
0 0 0 0 0 0 0 0 0
0 0 0 0 0 0 0 0 0
0 0 0 0 0 0 0 0 0
0 0 0 0 0 0 0 0 0
0 0 0 0 0 0 0 0 0
0 0 0 0 0 0 0 0 0
0 0 0 0 0 0 0 0 0
0 0 0 0 0 0 0 0 0
0 0 0 0 0 0 0 0 0
0 0 0 0 0 0 0 0 0
0 0 0 0 0 0 0 0 0
0 0 0 0 0 0 0 0 0
0 0 0 0 0 0 0 0 0
0 0 0 0 0 0 0 0 0
0 0 0 0 0 0 0 0 0
0 0 0 0 0 0 0 0 0
0 0 0 0 0 0 0 0 0
0 0 0 0 0 0 0 0 0
0 0 0 0 0 0 0 0 0
0 0 0 0 0 0 0 0 0
0 0 0 0 0 0 0 0 0
0 0 0 0 0 0 0 0 0
0 0 0 0 0 0 0 0 0
0 0 0 0 0 0 0 0 0
0 0 0 0 0 0 0 0 0
0 0 0 0 0 0 0 0 0
0 0 0 0 0 0 0 0 0
0 0 0 0 0 0 0 0 0
0 0 0 0 0 0 0 0 0
0 0 0 0 0 0 0 0 0
0 0 0 0 0 0 0 0 0
0 0 0 0 0 0 0 0 0
0 0 0 0 0 0 0 0 0
0 0 0 0 0 0 0 0 0
0 0 0 0 0 0 0 0 0
0 0 0 0 0 0 0 0 0
0 0 0 0 0 0 0 0 0
0 0 0 0 0 0 0 0 0
0 0 0 0 0 0 0 0 0
0 0 0 0 0 0 0 0 0
0 0 0 0 0 0 0 0 0
0 0 0 0 0 0 0 0 0
0 0 0 0 0 0 0 0 0
0 0 0 0 0 0 0 0 0
0 0 0 0 0 0 0 0 0
0 0 0 0 0 0 0 0 0
0 0 0 0 0 0 0 0 0
0 0 0 0 0 0 0 0 0
0 0 0 0 0 0 0 0 0
0 0 0 0 0 0 0 0 0
0 0 0 0 0 0 0 0 0
0 0 0 0 0 0 0 0 0
0 0 0 0 0 0 0 0 0
0 0 0 0 0 0 0 0 0
0 0 0 0 0 0 0 0 0
0 0 0 0 0 0 0 0 0
0 0 0 0 0 0 0 0 0
0 0 0 0 0 0 0 0 0
0 0 0 0 0 0 0 0 0
0 0 0 0 0 0 0 0 0
0 0 0 0 0 0 0 0 0
0 0 0 0 0 0 0 0 0
0 0 0 0 0 0 0 0 0
0 0 0 0 0 0 0 0 0
0 0 0 0 0 0 0 0 0
0 0 0 0 0 0 0 0 0
0 0 0 0 0 0 0 0 0
0 0 0 0 0 0 0 0 0
0 0 0 0 0 0 0 0 0
0 0 0 0 0 0 0 0 0
0 0 0 0 0 0 0 0 0
0 0 0 0 0 0 0 0 0
0 0 0 0 0 0 0 0 0
0 0 0 0 0 0 0 0 0
0 0 0 0 0 0 0 0 0
0 0 0 0 0 0 0 0 0
0 0 0 0 0 0 0 0 0
0 0 0 0 0 0 0 0 0
0 0 0 0 0 0 0 0 0
0 0 0 0 0 0 0 0 0
0 0 0 0 0 0 0 0 0
0 0 0 0 0 0 0 0 0
0 0 0 0 0 0 0 0 0
0 0 0 0 0 0 0 0 0
0 0 0 0 0 0 0 0 0
0 0 0 0 0 0 0 0 0
0 0 0 0 0 0 0 0 0
0 0 0 0 0 0 0 0 0
0 0 0 0 0 0 0 0 0
0 0 0 0 0 0 0 0 0
0 0 0 0 0 0 0 0 0
0 0 0 0 0 0 0 0 0
0 0 0 0 0 0 0 0 0
0 0 0 0 0 0 0 0 0
0 0 0 0 0 0 0 0 0
0 0 0 0 0 0 0 0 0
0 0 0 0 0 0 0 0 0
0 0 0 0 0 0 0 0 0
0 0 0 0 0 0 0 0 0
0 0 0 0 0 0 0 0 0
0 0 0 0 0 0 0 0 0
0 0 0 0 0 0 0 0 0
0 0 0 0 0 0 0 0 0
0 0 0 0 0 0 0 0 0
0 0 0 0 0 0 0 0 0
0 0 0 0 0 0 0 0 0
0 0 0 0 0 0 0 0 0
0 0 0 0 0 0 0 0 0
0 0 0 0 0 0 0 0 0
0 0 0 0 0 0 0 0 0
0 0 0 0 0 0 0 0 0
0 0 0 0 0 0 0 0 0
0 0 0 0 0 0 0 0 0
0 0 0 0 0 0 0 0 0
0 0 0 0 0 0 0 0 0
0 0 0 0 0 0 0 0 0
0 0 0 0 0 0 0 0 0
0 0 0 0 0 0 0 0 0
0 0 0 0 0 0 0 0 0
0 0 0 0 0 0 0 0 0
0 0 0 0 0 0 0 0 0
0 0 0 0 0 0 0 0 0
0 0 0 0 0 0 0 0 0
0 0 0 0 0 0 0 0 0
0 0 0 0 0 0 0 0 0
0 0 0 0 0 0 0 0 0
0 0 0 0 0 0 0 0 0
0 0 0 0 0 0 0 0 0
0 0 0 0 0 0 0 0 0
0 0 0 0 0 0 0 0 0
0 0 0 0 0 0 0 0 0
0 0 0 0 0 0 0 0 0
0 0 0 0 0 0 0 0 0
0 0 0 0 0 0 0 0 0
0 0 0 0 0 0 0 0 0
0 0 0 0 0 0 0 0 0
0 0 0 0 0 0 0 0 0
0 0 0 0 0 0 0 0 0
0 0 0 0 0 0 0 0 0
0 0 0 0 0 0 0 0 0
0 0 0 0 0 0 0 0 0
0 0 0 0 0 0 0 0 0
0 0 0 0 0 0 0 0 0
0 0 0 0 0 0 0 0 0
0 0 0 0 0 0 0 0 0
0 0 0 0 0 0 0 0 0
0 0 0 0 0 0 0 0 0
0 0 0 0 0 0 0 0 0
0 0 0 0 0 0 0 0 0
0 0 0 0 0 0 0 0 0
0 0 0 0 0 0 0 0 0
0 0 0 0 0 0 0 0 0
0 0 0 0 0 0 0 0 0
0 0 0 0 0 0 0 0 0
0 0 0 0 0 0 0 0 0
0 0 0 0 0 0 0 0 0
0 0 0 0 0 0 0 0 0
0 0 0 0 0 0 0 0 0
0 0 0 0 0 0 0 0 0
0 0 0 0 0 0 0 0 0
0 0 0 0 0 0 0 0 0
0 0 0 0 0 0 0 0 0
0 0 0 0 0 0 0 0 0
0 0 0 0 0 0 0 0 0
0 0 0 0 0 0 0 0 0
0 0 0 0 0 0 0 0 0
0 0 0 0 0 0 0 0 0
0 0 0 0 0 0 0 0 0
0 0 0 0 0 0 0 0 0
0 0 0 0 0 0 0 0 0
0 0 0 0 0 0 0 0 0
0 0 0 0 0 0 0 0 0
0 0 0 0 0 0 0 0 0
0 0 0 0 0 0 0 0 0
0 0 0 0 0 0 0 0 0
0 0 0 0 0 0 0 0 0
0 0 0 0 0 0 0 0 0
0 0 0 0 0 0 0 0 0
0 0 0 0 0 0 0 0 0
0 0 0 0 0 0 0 0 0
0 0 0 0 0 0 0 0 0
0 0 0 0 0 0 0 0 0
0 0 0 0 0 0 0 0 0
0 0 0 0 0 0 0 0 0
0 0 0 0 0 0 0 0 0
0 0 0 0 0 0 0 0 0
0 0 0 0 0 0 0 0 0
0 0 0 0 0 0 0 0 0
0 0 0 0 0 0 0 0 0
0 0 0 0 0 0 0 0 0
0 0 0 0 0 0 0 0 0
0 0 0 0 0 0 0 0 0
0 0 0 0 0 0 0 0 0
0 0 0 0 0 0 0 0 0
0 0 0 0 0 0 0 0 0
0 0 0 0 0 0 0 0 0
0 0 0 0 0 0 0 0 0
0 0 0 0 0 0 0 0 0
0 0 0 0 0 0 0 0 0
0 0 0 0 0 0 0 0 0
0 0 0 0 0 0 0 0 0
0 0 0 0 0 0 0 0 0
0 0 0 0 0 0 0 0 0
0 0 0 0 0 0 0 0 0
0 0 0 0 0 0 0 0 0
0 0 0 0 0 0 0 0 0
0 0 0 0 0 0 0 0 0
0 0 0 0 0 0 0 0 0
0 0 0 0 0 0 0 0 0
0 0 0 0 0 0 0 0 0
0 0 0 0 0 0 0 0 0
0 0 0 0 0 0 0 0 0
0 0 0 0 0 0 0 0 0
0 0 0 0 0 0 0 0 0
0 0 0 0 0 0 0 0 0
0 0 0 0 0 0 0 0 0
0 0 0 0 0 0 0 0 0
0 0 0 0 0 0 0 0 0
0 0 0 0 0 0 0 0 0
0 0 0 0 0 0 0 0 0
0 0 0 0 0 0 0 0 0
0 0 0 0 0 0 0 0 0
0 0 0 0 0 0 0 0 0
0 0 0 0 0 0 0 0 0
0 0 0 0 0 0 0 0 0
0 0 0 0 0 0 0 0 0
0 0 0 0 0 0 0 0 0
0 0 0 0 0 0 0 0 0
0 0 0 0 0 0 0 0 0
0 0 0 0 0 0 0 0 0
0 0 0 0 0 0 0 0 0
0 0 0 0 0 0 0 0 0
0 0 0 0 0 0 0 0 0
0 0 0 0 0 0 0 0 0
0 0 0 0 0 0 0 0 0
0 0 0 0 0 0 0 0 0
0 0 0 0 0 0 0 0 0
0 0 0 0 0 0 0 0 0
0 0 0 0 0 0 0 0 0
0 0 0 0 0 0 0 0 0
0 0 0 0 0 0 0 0 0
0 0 0 0 0 0 0 0 0
0 0 0 0 0 0 0 0 0
0 0 0 0 0 0 0 0 0
0 0 0 0 0 0 0 0 0
0 0 0 0 0 0 0 0 0
0 0 0 0 0 0 0 0 0
0 0 0 0 0 0 0 0 0
0 0 0 0 0 0 0 0 0
0 0 0 0 0 0 0 0 0
0 0 0 0 0 0 0 0 0
0 0 0 0 0 0 0 0 0
0 0 0 0 0 0 0 0 0
0 0 0 0 0 0 0 0 0
0 0 0 0 0 0 0 0 0
0 0 0 0 0 0 0 0 0
0 0 0 0 0 0 0 0 0
0 0 0 0 0 0 0 0 0
0 0 0 0 0 0 0 0 0
0 0 0 0 0 0 0 0 0
0 0 0 0 0 0 0 0 0
0 0 0 0 0 0 0 0 0
0 0 0 0 0 0 0 0 0
0 0 0 0 0 0 0 0 0
0 0 0 0 0 0 0 0 0
0 0 0 0 0 0 0 0 0
0 0 0 0 0 0 0 0 0
0 0 0 0 0 0 0 0 0
0 0 0 0 0 0 0 0 0
0 0 0 0 0 0 0 0 0
0 0 0 0 0 0 0 0 0
0 0 0 0 0 0 0 0 0
0 0 0 0 0 0 0 0 0
0 0 0 0 0 0 0 0 0
0 0 0 0 0 0 0 0 0
0 0 0 0 0 0 0 0 0
0 0 0 0 0 0 0 0 0
0 0 0 0 0 0 0 0 0
0 0 0 0 0 0 0 0 0
0 0 0 0 0 0 0 0 0
0 0 0 0 0 0 0 0 0
0 0 0 0 0 0 0 0 0
0 0 0 0 0 0 0 0 0
0 0 0 0 0 0 0 0 0
0 0 0 0 0 0 0 0 0
0 0 0 0 0 0 0 0 0
0 0 0 0 0 0 0 0 0
0 0 0 0 0 0 0 0 0
0 0 0 0 0 0 0 0 0
0 0 0 0 0 0 0 0 0
0 0 0 0 0 0 0 0 0
0 0 0 0 0 0 0 0 0
0 0 0 0 0 0 0 0 0
0 0 0 0 0 0 0 0 0
0 0 0 0 0 0 0 0 0
0 0 0 0 0 0 0 0 0
0 0 0 0 0 0 0 0 0
0 0 0 0 0 0 0 0 0
0 0 0 0 0 0 0 0 0
0 0 0 0 0 0 0 0 0
0 0 0 0 0 0 0 0 0
0 0 0 0 0 0 0 0 0
0 0 0 0 0 0 0 0 0
0 0 0 0 0 0 0 0 0
0 0 0 0 0 0 0 0 0
0 0 0 0 0 0 0 0 0
0 0 0 0 0 0 0 0 0
0 0 0 0 0 0 0 0 0
0 0 0 0 0 0 0 0 0
0 0 0 0 0 0 0 0 0
0 0 0 0 0 0 0 0 0
0 0 0 0 0 0 0 0 0
0 0 0 0 0 0 0 0 0
0 0 0 0 0 0 0 0 0
0 0 0 0 0 0 0 0 0
0 0 0 0 0 0 0 0 0
0 0 0 0 0 0 0 0 0
0 0 0 0 0 0 0 0 0
0 0 0 0 0 0 0 0 0
0 0 0 0 0 0 0 0 0
0 0 0 0 0 0 0 0 0
0 0 0 0 0 0 0 0 0
0 0 0 0 0 0 0 0 0
0 0 0 0 0 0 0 0 0
0 0 0 0 0 0 0 0 0
0 0 0 0 0 0 0 0 0
0 0 0 0 0 0 0 0 0
0 0 0 0 0 0 0 0 0
0 0 0 0 0 0 0 0 0
0 0 0 0 0 0 0 0 0
0 0 0 0 0 0 0 0 0
0 0 0 0 0 0 0 0 0
0 0 0 0 0 0 0 0 0
0 0 0 0 0 0 0 0 0
0 0 0 0 0 0 0 0 0
0 0 0 0 0 0 0 0 0
0 0 0 0 0 0 0 0 0
0 0 0 0 0 0 0 0 0
0 0 0 0 0 0 0 0 0
0 0 0 0 0 0 0 0 0
0 0 0 0 0 0 0 0 0
0 0 0 0 0 0 0 0 0
0 0 0 0 0 0 0 0 0
0 0 0 0 0 0 0 0 0
0 0 0 0 0 0 0 0 0
0 0 0 0 0 0 0 0 0
0 0 0 0 0 0 0 0 0
0 0 0 0 0 0 0 0 0
0 0 0 0 0 0 0 0 0
0 0 0 0 0 0 0 0 0
0 0 0 0 0 0 0 0 0
0 0 0 0 0 0 0 0 0
0 0 0 0 0 0 0 0 0
0 0 0 0 0 0 0 0 0
0 0 0 0 0 0 0 0 0
0 0 0 0 0 0 0 0 0
0 0 0 0 0 0 0 0 0
0 0 0 0 0 0 0 0 0
0 0 0 0 0 0 0 0 0
0 0 0 0 0 0 0 0 0
0 0 0 0 0 0 0 0 0
0 0 0 0 0 0 0 0 0
0 0 0 0 0 0 0 0 0
0 0 0 0 0 0 0 0 0
0 0 0 0 0 0 0 0 0
0 0 0 0 0 0 0 0 0
0 0 0 0 0 0 0 0 0
0 0 0 0 0 0 0 0 0
0 0 0 0 0 0 0 0 0
0 0 0 0 0 0 0 0 0
0 0 0 0 0 0 0 0 0
0 0 0 0 0 0 0 0 0
0 0 0 0 0 0 0 0 0
0 0 0 0 0 0 0 0 0
0 0 0 0 0 0 0 0 0
0 0 0 0 0 0 0 0 0
0 0 0 0 0 0 0 0 0
0 0 0 0 0 0 0 0 0
0 0 0 0 0 0 0 0 0
0 0 0 0 0 0 0 0 0
0 0 0 0 0 0 0 0 0
0 0 0 0 0 0 0 0 0
0 0 0 0 0 0 0 0 0
0 0 0 0 0 0 0 0 0
0 0 0 0 0 0 0 0 0
0 0 0 0 0 0 0 0 0
0 0 0 0 0 0 0 0 0
0 0 0 0 0 0 0 0 0
0 0 0 0 0 0 0 0 0
0 0 0 0 0 0 0 0 0
0 0 0 0 0 0 0 0 0
0 0 0 0 0 0 0 0 0
0 0 0 0 0 0 0 0 0
0 0 0 0 0 0 0 0 0
0 0 0 0 0 0 0 0 0
0 0 0 0 0 0 0 0 0
0 0 0 0 0 0 0 0 0
0 0 0 0 0 0 0 0 0
0 0 0 0 0 0 0 0 0
0 0 0 0 0 0 0 0 0
0 0 0 0 0 0 0 0 0
0 0 0 0 0 0 0 0 0
0 0 0 0 0 0 0 0 0
0 0 0 0 0 0 0 0 0
0 0 0 0 0 0 0 0 0
0 0 0 0 0 0 0 0 0
0 0 0 0 0 0 0 0 0
0 0 0 0 0 0 0 0 0
0 0 0 0 0 0 0 0 0
0 0 0 0 0 0 0 0 0
0 0 0 0 0 0 0 0 0
0 0 0 0 0 0 0 0 0
0 0 0 0 0 0 0 0 0
0 0 0 0 0 0 0 0 0
0 0 0 0 0 0 0 0 0
0 0 0 0 0 0 0 0 0
0 0 0 0 0 0 0 0 0
0 0 0 0 0 0 0 0 0
0 0 0 0 0 0 0 0 0
0 0 0 0 0 0 0 0 0
0 0 0 0 0 0 0 0 0
0 0 0 0 0 0 0 0 0
0 0 0 0 0 0 0 0 0
0 0 0 0 0 0 0 0 0
0 0 0 0 0 0 0 0 0
0 0 0 0 0 0 0 0 0
0 0 0 0 0 0 0 0 0
0 0 0 0 0 0 0 0 0
0 0 0 0 0 0 0 0 0
0 0 0 0 0 0 0 0 0
0 0 0 0 0 0 0 0 0
0 0 0 0 0 0 0 0 0
0 0 0 0 0 0 0 0 0
0 0 0 0 0 0 0 0 0
0 0 0 0 0 0 0 0 0
0 0 0 0 0 0 0 0 0
0 0 0 0 0 0 0 0 0
0 0 0 0 0 0 0 0 0
0 0 0 0 0 0 0 0 0
0 0 0 0 0 0 0 0 0
0 0 0 0 0 0 0 0 0
0 0 0 0 0 0 0 0 0
0 0 0 0 0 0 0 0 0
0 0 0 0 0 0 0 0 0
0 0 0 0 0 0 0 0 0
0 0 0 0 0 0 0 0 0
0 0 0 0 0 0 0 0 0
0 0 0 0 0 0 0 0 0
0 0 0 0 0 0 0 0 0
0 0 0 0 0 0 0 0 0
0 0 0 0 0 0 0 0 0
0 0 0 0 0 0 0 0 0
0 0 0 0 0 0 0 0 0
0 0 0 0 0 0 0 0 0
0 0 0 0 0 0 0 0 0
0 0 0 0 0 0 0 0 0
0 0 0 0 0 0 0 0 0
0 0 0 0 0 0 0 0 0
0 0 0 0 0 0 0 0 0
0 0 0 0 0 0 0 0 0
0 0 0 0 0 0 0 0 0
0 0 0 0 0 0 0 0 0
0 0 0 0 0 0 0 0 0
0 0 0 0 0 0 0 0 0
0 0 0 0 0 0 0 0 0
0 0 0 0 0 0 0 0 0
0 0 0 0 0 0 0 0 0
0 0 0 0 0 0 0 0 0
0 0 0 0 0 0 0 0 0
0 0 0 0 0 0 0 0 0
0 0 0 0 0 0 0 0 0
0 0 0 0 0 0 0 0 0
0 0 0 0 0 0 0 0 0
0 0 0 0 0 0 0 0 0
0 0 0 0 0 0 0 0 0
0 0 0 0 0 0 0 0 0
0 0 0 0 0 0 0 0 0
0 0 0 0 0 0 0 0 0
0 0 0 0 0 0 0 0 0
0 0 0 0 0 0 0 0 0
0 0 0 0 0 0 0 0 0
0 0 0 0 0 0 0 0 0
0 0 0 0 0 0 0 0 0
0 0 0 0 0 0 0 0 0
0 0 0 0 0 0 0 0 0
0 0 0 0 0 0 0 0 0
0 0 0 0 0 0 0 0 0
0 0 0 0 0 0 0 0 0
0 0 0 0 0 0 0 0 0
0 0 0 0 0 0 0 0 0
0 0 0 0 0 0 0 0 0
0 0 0 0 0 0 0 0 0
0 0 0 0 0 0 0 0 0
0 0 0 0 0 0 0 0 0
0 0 0 0 0 0 0 0 0
0 0 0 0 0 0 0 0 0
0 0 0 0 0 0 0 0 0
0 0 0 0 0 0 0 0 0
0 0 0 0 0 0 0 0 0
0 0 0 0 0 0 0 0 0
0 0 0 0 0 0 0 0 0
0 0 0 0 0 0 0 0 0
0 0 0 0 0 0 0 0 0
0 0 0 0 0 0 0 0 0
0 0 0 0 0 0 0 0 0
0 0 0 0 0 0 0 0 0
0 0 0 0 0 0 0 0 0
0 0 0 0 0 0 0 0 0
0 0 0 0 0 0 0 0 0
0 0 0 0 0 0 0 0 0
0 0 0 0 0 0 0 0 0
0 0 0 0 0 0 0 0 0
0 0 0 0 0 0 0 0 0
0 0 0 0 0 0 0 0 0
0 0 0 0 0 0 0 0 0
0 0 0 0 0 0 0 0 0
0 0 0 0 0 0 0 0 0
0 0 0 0 0 0 0 0 0
0 0 0 0 0 0 0 0 0
0 0 0 0 0 0 0 0 0
0 0 0 0 0 0 0 0 0
0 0 0 0 0 0 0 0 0
0 0 0 0 0 0 0 0 0
0 0 0 0 0 0 0 0 0
0 0 0 0 0 0 0 0 0
0 0 0 0 0 0 0 0 0
0 0 0 0 0 0 0 0 0
0 0 0 0 0 0 0 0 0
0 0 0 0 0 0 0 0 0
0 0 0 0 0 0 0 0 0
0 0 0 0 0 0 0 0 0
0 0 0 0 0 0 0 0 0
0 0 0 0 0 0 0 0 0
0 0 0 0 0 0 0 0 0
0 0 0 0 0 0 0 0 0
0 0 0 0 0 0 0 0 0
0 0 0 0 0 0 0 0 0
0 0 0 0 0 0 0 0 0
0 0 0 0 0 0 0 0 0
0 0 0 0 0 0 0 0 0
0 0 0 0 0 0 0 0 0
0 0 0 0 0 0 0 0 0
0 0 0 0 0 0 0 0 0
0 0 0 0 0 0 0 0 0
0 0 0 0 0 0 0 0 0
0 0 0 0 0 0 0 0 0
0 0 0 0 0 0 0 0 0
0 0 0 0 0 0 0 0 0
0 0 0 0 0 0 0 0 0
0 0 0 0 0 0 0 0 0
0 0 0 0 0 0 0 0 0
0 0 0 0 0 0 0 0 0
0 0 0 0 0 0 0 0 0
0 0 0 0 0 0 0 0 0
0 0 0 0 0 0 0 0 0
0 0 0 0 0 0 0 0 0
0 0 0 0 0 0 0 0 0
0 0 0 0 0 0 0 0 0
0 0 0 0 0 0 0 0 0
0 0 0 0 0 0 0 0 0
0 0 0 0 0 0 0 0 0
0 0 0 0 0 0 0 0 0
0 0 0 0 0 0 0 0 0
0 0 0 0 0 0 0 0 0
0 0 0 0 0 0 0 0 0
0 0 0 0 0 0 0 0 0
0 0 0 0 0 0 0 0 0
0 0 0 0 0 0 0 0 0
0 0 0 0 0 0 0 0 0
0 0 0 0 0 0 0 0 0
0 0 0 0 0 0 0 0 0
0 0 0 0 0 0 0 0 0
0 0 0 0 0 0 0 0 0
0 0 0 0 0 0 0 0 0
0 0 0 0 0 0 0 0 0
0 0 0 0 0 0 0 0 0
0 0 0 0 0 0 0 0 0
0 0 0 0 0 0 0 0 0
0 0 0 0 0 0 0 0 0
0 0 0 0 0 0 0 0 0
0 0 0 0 0 0 0 0 0
0 0 0 0 0 0 0 0 0
0 0 0 0 0 0 0 0 0
0 0 0 0 0 0 0 0 0
0 0 0 0 0 0 0 0 0
0 0 0 0 0 0 0 0 0
0 0 0 0 0 0 0 0 0
0 0 0 0 0 0 0 0 0
0 0 0 0 0 0 0 0 0
0 0 0 0 0 0 0 0 0
0 0 0 0 0 0 0 0 0
0 0 0 0 0 0 0 0 0
0 0 0 0 0 0 0 0 0
0 0 0 0 0 0 0 0 0
0 0 0 0 0 0 0 0 0
0 0 0 0 0 0 0 0 0
0 0 0 0 0 0 0 0 0
0 0 0 0 0 0 0 0 0
0 0 0 0 0 0 0 0 0
0 0 0 0 0 0 0 0 0
0 0 0 0 0 0 0 0 0
0 0 0 0 0 0 0 0 0
0 0 0 0 0 0 0 0 0
0 0 0 0 0 0 0 0 0
0 0 0 0 0 0 0 0 0
0 0 0 0 0 0 0 0 0
0 0 0 0 0 0 0 0 0
0 0 0 0 0 0 0 0 0
0 0 0 0 0 0 0 0 0
0 0 0 0 0 0 0 0 0
0 0 0 0 0 0 0 0 0
0 0 0 0 0 0 0 0 0
0 0 0 0 0 0 0 0 0
0 0 0 0 0 0 0 0 0
0 0 0 0 0 0 0 0 0
0 0 0 0 0 0 0 0 0
0 0 0 0 0 0 0 0 0
0 0 0 0 0 0 0 0 0
0 0 0 0 0 0 0 0 0
0 0 0 0 0 0 0 0 0
0 0 0 0 0 0 0 0 0
0 0 0 0 0 0 0 0 0
0 0 0 0 0 0 0 0 0
0 0 0 0 0 0 0 0 0
0 0 0 0 0 0 0 0 0
0 0 0 0 0 0 0 0 0
0 0 0 0 0 0 0 0 0
0 0 0 0 0 0 0 0 0
0 0 0 0 0 0 0 0 0
0 0 0 0 0 0 0 0 0
0 0 0 0 0 0 0 0 0
0 0 0 0 0 0 0 0 0
0 0 0 0 0 0 0 0 0
0 0 0 0 0 0 0 0 0
0 0 0 0 0 0 0 0 0
0 0 0 0 0 0 0 0 0
0 0 0 0 0 0 0 0 0
0 0 0 0 0 0 0 0 0
0 0 0 0 0 0 0 0 0
0 0 0 0 0 0 0 0 0
0 0 0 0 0 0 0 0 0
0 0 0 0 0 0 0 0 0
0 0 0 0 0 0 0 0 0
0 0 0 0 0 0 0 0 0
0 0 0 0 0 0 0 0 0
0 0 0 0 0 0 0 0 0
0 0 0 0 0 0 0 0 0
0 0 0 0 0 0 0 0 0
0 0 0 0 0 0 0 0 0
0 0 0 0 0 0 0 0 0
0 0 0 0 0 0 0 0 0
0 0 0 0 0 0 0 0 0
0 0 0 0 0 0 0 0 0
0 0 0 0 0 0 0 0 0
0 0 0 0 0 0 0 0 0
0 0 0 0 0 0 0 0 0
0 0 0 0 0 0 0 0 0
0 0 0 0 0 0 0 0 0
0 0 0 0 0 0 0 0 0
0 0 0 0 0 0 0 0 0
0 0 0 0 0 0 0 0 0
0 0 0 0 0 0 0 0 0
0 0 0 0 0 0 0 0 0
0 0 0 0 0 0 0 0 0
0 0 0 0 0 0 0 0 0
SCALARS max_shear_normal_tau double 9
LOOKUP_TABLE default
0 0 0 0 0 0 0 0 0
0 0 0 0 0 0 0 0 0
0 0 0 0 0 0 0 0 0
0 0 0 0 0 0 0 0 0
0 0 0 0 0 0 0 0 0
0 0 0 0 0 0 0 0 0
0 0 0 0 0 0 0 0 0
0 0 0 0 0 0 0 0 0
0 0 0 0 0 0 0 0 0
0 0 0 0 0 0 0 0 0
0 0 0 0 0 0 0 0 0
0 0 0 0 0 0 0 0 0
0 0 0 0 0 0 0 0 0
0 0 0 0 0 0 0 0 0
0 0 0 0 0 0 0 0 0
0 0 0 0 0 0 0 0 0
0 0 0 0 0 0 0 0 0
0 0 0 0 0 0 0 0 0
0 0 0 0 0 0 0 0 0
0 0 0 0 0 0 0 0 0
0 0 0 0 0 0 0 0 0
0 0 0 0 0 0 0 0 0
0 0 0 0 0 0 0 0 0
0 0 0 0 0 0 0 0 0
0 0 0 0 0 0 0 0 0
0 0 0 0 0 0 0 0 0
0 0 0 0 0 0 0 0 0
0 0 0 0 0 0 0 0 0
0 0 0 0 0 0 0 0 0
0 0 0 0 0 0 0 0 0
0 0 0 0 0 0 0 0 0
0 0 0 0 0 0 0 0 0
0 0 0 0 0 0 0 0 0
0 0 0 0 0 0 0 0 0
0 0 0 0 0 0 0 0 0
0 0 0 0 0 0 0 0 0
0 0 0 0 0 0 0 0 0
0 0 0 0 0 0 0 0 0
0 0 0 0 0 0 0 0 0
0 0 0 0 0 0 0 0 0
0 0 0 0 0 0 0 0 0
0 0 0 0 0 0 0 0 0
0 0 0 0 0 0 0 0 0
0 0 0 0 0 0 0 0 0
0 0 0 0 0 0 0 0 0
0 0 0 0 0 0 0 0 0
0 0 0 0 0 0 0 0 0
0 0 0 0 0 0 0 0 0
0 0 0 0 0 0 0 0 0
0 0 0 0 0 0 0 0 0
0 0 0 0 0 0 0 0 0
0 0 0 0 0 0 0 0 0
0 0 0 0 0 0 0 0 0
0 0 0 0 0 0 0 0 0
0 0 0 0 0 0 0 0 0
0 0 0 0 0 0 0 0 0
0 0 0 0 0 0 0 0 0
0 0 0 0 0 0 0 0 0
0 0 0 0 0 0 0 0 0
0 0 0 0 0 0 0 0 0
0 0 0 0 0 0 0 0 0
0 0 0 0 0 0 0 0 0
0 0 0 0 0 0 0 0 0
0 0 0 0 0 0 0 0 0
0 0 0 0 0 0 0 0 0
0 0 0 0 0 0 0 0 0
0 0 0 0 0 0 0 0 0
0 0 0 0 0 0 0 0 0
0 0 0 0 0 0 0 0 0
0 0 0 0 0 0 0 0 0
0 0 0 0 0 0 0 0 0
0 0 0 0 0 0 0 0 0
0 0 0 0 0 0 0 0 0
0 0 0 0 0 0 0 0 0
0 0 0 0 0 0 0 0 0
0 0 0 0 0 0 0 0 0
0 0 0 0 0 0 0 0 0
0 0 0 0 0 0 0 0 0
0 0 0 0 0 0 0 0 0
0 0 0 0 0 0 0 0 0
0 0 0 0 0 0 0 0 0
0 0 0 0 0 0 0 0 0
0 0 0 0 0 0 0 0 0
0 0 0 0 0 0 0 0 0
0 0 0 0 0 0 0 0 0
0 0 0 0 0 0 0 0 0
0 0 0 0 0 0 0 0 0
0 0 0 0 0 0 0 0 0
0 0 0 0 0 0 0 0 0
0 0 0 0 0 0 0 0 0
0 0 0 0 0 0 0 0 0
0 0 0 0 0 0 0 0 0
0 0 0 0 0 0 0 0 0
0 0 0 0 0 0 0 0 0
0 0 0 0 0 0 0 0 0
0 0 0 0 0 0 0 0 0
0 0 0 0 0 0 0 0 0
0 0 0 0 0 0 0 0 0
0 0 0 0 0 0 0 0 0
0 0 0 0 0 0 0 0 0
0 0 0 0 0 0 0 0 0
0 0 0 0 0 0 0 0 0
0 0 0 0 0 0 0 0 0
0 0 0 0 0 0 0 0 0
0 0 0 0 0 0 0 0 0
0 0 0 0 0 0 0 0 0
0 0 0 0 0 0 0 0 0
0 0 0 0 0 0 0 0 0
0 0 0 0 0 0 0 0 0
0 0 0 0 0 0 0 0 0
0 0 0 0 0 0 0 0 0
0 0 0 0 0 0 0 0 0
0 0 0 0 0 0 0 0 0
0 0 0 0 0 0 0 0 0
0 0 0 0 0 0 0 0 0
0 0 0 0 0 0 0 0 0
0 0 0 0 0 0 0 0 0
0 0 0 0 0 0 0 0 0
0 0 0 0 0 0 0 0 0
0 0 0 0 0 0 0 0 0
0 0 0 0 0 0 0 0 0
0 0 0 0 0 0 0 0 0
0 0 0 0 0 0 0 0 0
0 0 0 0 0 0 0 0 0
0 0 0 0 0 0 0 0 0
0 0 0 0 0 0 0 0 0
0 0 0 0 0 0 0 0 0
0 0 0 0 0 0 0 0 0
0 0 0 0 0 0 0 0 0
0 0 0 0 0 0 0 0 0
0 0 0 0 0 0 0 0 0
0 0 0 0 0 0 0 0 0
0 0 0 0 0 0 0 0 0
0 0 0 0 0 0 0 0 0
0 0 0 0 0 0 0 0 0
0 0 0 0 0 0 0 0 0
0 0 0 0 0 0 0 0 0
0 0 0 0 0 0 0 0 0
0 0 0 0 0 0 0 0 0
0 0 0 0 0 0 0 0 0
0 0 0 0 0 0 0 0 0
0 0 0 0 0 0 0 0 0
0 0 0 0 0 0 0 0 0
0 0 0 0 0 0 0 0 0
0 0 0 0 0 0 0 0 0
0 0 0 0 0 0 0 0 0
0 0 0 0 0 0 0 0 0
0 0 0 0 0 0 0 0 0
0 0 0 0 0 0 0 0 0
0 0 0 0 0 0 0 0 0
0 0 0 0 0 0 0 0 0
0 0 0 0 0 0 0 0 0
0 0 0 0 0 0 0 0 0
0 0 0 0 0 0 0 0 0
0 0 0 0 0 0 0 0 0
0 0 0 0 0 0 0 0 0
0 0 0 0 0 0 0 0 0
0 0 0 0 0 0 0 0 0
0 0 0 0 0 0 0 0 0
0 0 0 0 0 0 0 0 0
0 0 0 0 0 0 0 0 0
0 0 0 0 0 0 0 0 0
0.64361 0.667758 0.643346 0.66716 0.64361 0.667758 0.643346 0.66716 0
0.685837 0.711074 0.684995 0.709903 0.685837 0.711074 0.684995 0.709903 0
0.729939 0.75624 0.728525 0.754489 0.729939 0.75624 0.728525 0.754489 0
0.775872 0.803208 0.77387 0.800851 0.775872 0.803208 0.77387 0.800851 0
0.823584 0.851919 0.820961 0.848922 0.823584 0.851919 0.820961 0.848922 0
0.873005 0.902284 0.869729 0.898616 0.873005 0.902284 0.869729 0.898616 0
0.644416 0.669131 0.643895 0.668285 0.644416 0.669131 0.643895 0.668285 0
0.68763 0.713453 0.686541 0.712024 0.68763 0.713453 0.686541 0.712024 0
0.732756 0.759665 0.731072 0.757625 0.732756 0.759665 0.731072 0.757625 0
0.779754 0.807727 0.777448 0.805049 0.779754 0.807727 0.777448 0.805049 0
0.828581 0.857584 0.825625 0.854239 0.828581 0.857584 0.825625 0.854239 0
0.879166 0.909132 0.875533 0.9051 0.879166 0.909132 0.875533 0.9051 0
0.645693 0.670993 0.644896 0.669854 0.645693 0.670993 0.644896 0.669854 0
0.689926 0.716349 0.688535 0.714611 0.689926 0.716349 0.688535 0.714611 0
0.736102 0.763643 0.734102 0.761276 0.736102 0.763643 0.734102 0.761276 0
0.784205 0.81284 0.781563 0.809813 0.784205 0.81284 0.781563 0.809813 0
0.834189 0.863884 0.830874 0.860167 0.834189 0.863884 0.830874 0.860167 0
0.885984 0.916671 0.881965 0.912231 0.885984 0.916671 0.881965 0.912231 0
0.939471 0.971081 0.934713 0.965876 0.939471 0.971081 0.934713 0.965876 0
0.994509 1.02692 0.988971 1.02092 0.994509 1.02692 0.988971 1.02092 0
1.05105 1.08461 1.04472 1.07782 1.05105 1.08461 1.04472 1.07782 0
0.647498 0.673396 0.646388 0.67194 0.647498 0.673396 0.646388 0.67194 0
0.692775 0.719817 0.69106 0.717742 0.692775 0.719817 0.69106 0.717742 0
0.740033 0.768223 0.73769 0.765503 0.740033 0.768223 0.73769 0.765503 0
0.789272 0.818591 0.786269 0.81519 0.789272 0.818591 0.786269 0.81519 0
0.840453 0.870865 0.836754 0.866749 0.840453 0.870865 0.836754 0.866749 0
0.893501 0.924941 0.889073 0.920075 0.893501 0.924941 0.889073 0.920075 0
0.948304 0.980707 0.943111 0.975054 0.948304 0.980707 0.943111 0.975054 0
1.00473 1.03796 0.998729 1.03148 1.00473 1.03796 0.998729 1.03148 0
1.06271 1.09711 1.05587 1.08978 1.06271 1.09711 1.05587 1.08978 0
0.649884 0.676389 0.648433 0.674586 0.649884 0.676389 0.648433 0.674586 0
0.696222 0.7239 0.694155 0.721464 0.696222 0.7239 0.694155 0.721464 0
0.744593 0.773451 0.741881 0.770351 0.744593 0.773451 0.741881 0.770351 0
0.795001 0.825025 0.79161 0.821224 0.795001 0.825025 0.79161 0.821224 0
0.847416 0.878573 0.843308 0.874031 0.847416 0.878573 0.843308 0.874031 0
0.901768 0.933992 0.896901 0.928668 0.901768 0.933992 0.896901 0.928668 0
0.957945 0.991172 0.952278 0.985025 0.957945 0.991172 0.952278 0.985025 0
1.01581 1.04991 1.0093 1.04289 1.01581 1.04991 1.0093 1.04289 0
1.07529 1.11057 1.06791 1.10268 1.07529 1.11057 1.06791 1.10268 0
0.652895 0.680019 0.651077 0.677842 0.652895 0.680019 0.651077 0.677842 0
0.700316 0.728646 0.69787 0.725822 0.700316 0.728646 0.69787 0.725822 0
0.749827 0.77937 0.74672 0.775865 0.749827 0.77937 0.74672 0.775865 0
0.801437 0.832186 0.797632 0.82796 0.801437 0.832186 0.797632 0.82796 0
0.855125 0.887053 0.85058 0.88206 0.855125 0.887053 0.85058 0.88206 0
0.910831 0.943873 0.905499 0.938065 0.910831 0.943873 0.905499 0.938065 0
0.96844 1.00253 0.962274 0.995861 0.96844 1.00253 0.962274 0.995861 0
1.02781 1.06281 1.02077 1.05524 1.02781 1.06281 1.02077 1.05524 0
1.08887 1.12508 1.08091 1.11658 1.08887 1.12508 1.08091 1.11658 0
0.656579 0.684333 0.654367 0.681756 0.656579 0.684333 0.654367 0.681756 0
0.705105 0.7341 0.702252 0.730861 0.705105 0.7341 0.702252 0.730861 0
0.755783 0.786029 0.752253 0.782091 0.755783 0.786029 0.752253 0.782091 0
0.808626 0.840122 0.80438 0.835443 0.808626 0.840122 0.80438 0.835443 0
0.863626 0.896353 0.858618 0.890881 0.863626 0.896353 0.858618 0.890881 0
0.920734 0.95463 0.914911 0.94831 0.920734 0.95463 0.914911 0.94831 0
0.97984 1.01484 0.973145 1.00761 0.97984 1.01484 0.973145 1.00761 0
1.0408 1.07675 1.03318 1.06858 1.0408 1.07675 1.03318 1.06858 0
1.10351 1.1407 1.09492 1.13155 1.10351 1.1407 1.09492 1.13155 0
1.1682 1.20617 1.15862 1.196 1.1682 1.20617 1.15862 1.196 0
0.613488 0.640678 0.611452 0.638283 0.613488 0.640678 0.611452 0.638283 0
0.661014 0.689385 0.658358 0.686375 0.661014 0.689385 0.658358 0.686375 0
0.710631 0.740309 0.707347 0.736629 0.710631 0.740309 0.707347 0.736629 0
0.762505 0.793473 0.758527 0.789076 0.762505 0.793473 0.758527 0.789076 0
0.816615 0.848879 0.811901 0.84372 0.816615 0.848879 0.811901 0.84372 0
0.872965 0.906516 0.867468 0.90054 0.872965 0.906516 0.867468 0.90054 0
0.931524 0.966312 0.925183 0.959451 0.931524 0.966312 0.925183 0.959451 0
0.992196 1.02814 0.984942 1.02033 0.992196 1.02814 0.984942 1.02033 0
1.05482 1.09177 1.04659 1.08296 1.05482 1.09177 1.04659 1.08296 0
1.11927 1.1575 1.11003 1.14765 1.11927 1.1575 1.11003 1.14765 0
1.18577 1.22481 1.17547 1.21389 1.18577 1.22481 1.17547 1.21389 0
1.25519 1.29931 1.24381 1.28732 1.25519 1.29931 1.24381 1.28732 0
0.666207 0.695258 0.663114 0.691762 0.666207 0.695258 0.663114 0.691762 0
0.717007 0.747378 0.713216 0.743186 0.717007 0.747378 0.713216 0.743186 0
0.770097 0.801804 0.765602 0.796881 0.770097 0.801804 0.765602 0.796881 0
0.825501 0.858547 0.820256 0.852849 0.825501 0.858547 0.820256 0.852849 0
0.883223 0.917607 0.877183 0.911086 0.883223 0.917607 0.877183 0.911086 0
0.943249 0.97894 0.936362 0.971531 0.943249 0.97894 0.936362 0.971531 0
1.00552 1.04246 0.997706 1.03407 1.00552 1.04246 0.997706 1.03407 0
1.06989 1.10793 1.06106 1.09846 1.06989 1.10793 1.06106 1.09846 0
1.13623 1.17558 1.12629 1.16498 1.13623 1.17558 1.12629 1.16498 0
1.20467 1.24484 1.19359 1.2331 1.20467 1.24484 1.19359 1.2331 0
1.27669 1.3236 1.26399 1.30899 1.27669 1.3236 1.26399 1.30899 0
0 0 0 0 0 0 0 0 0
0 0 0 0 0 0 0 0 0
0 0 0 0 0 0 0 0 0
0 0 0 0 0 0 0 0 0
0 0 0 0 0 0 0 0 0
0 0 0 0 0 0 0 0 0
0 0 0 0 0 0 0 0 0
0 0 0 0 0 0 0 0 0
0 0 0 0 0 0 0 0 0
0 0 0 0 0 0 0 0 0
0 0 0 0 0 0 0 0 0
0 0 0 0 0 0 0 0 0
0 0 0 0 0 0 0 0 0
0 0 0 0 0 0 0 0 0
0 0 0 0 0 0 0 0 0
0 0 0 0 0 0 0 0 0
0 0 0 0 0 0 0 0 0
0 0 0 0 0 0 0 0 0
0 0 0 0 0 0 0 0 0
0 0 0 0 0 0 0 0 0
0 0 0 0 0 0 0 0 0
0 0 0 0 0 0 0 0 0
0 0 0 0 0 0 0 0 0
0 0 0 0 0 0 0 0 0
0 0 0 0 0 0 0 0 0
0 0 0 0 0 0 0 0 0
0 0 0 0 0 0 0 0 0
0 0 0 0 0 0 0 0 0
0 0 0 0 0 0 0 0 0
0 0 0 0 0 0 0 0 0
0 0 0 0 0 0 0 0 0
0 0 0 0 0 0 0 0 0
0 0 0 0 0 0 0 0 0
0 0 0 0 0 0 0 0 0
0 0 0 0 0 0 0 0 0
0 0 0 0 0 0 0 0 0
0 0 0 0 0 0 0 0 0
0 0 0 0 0 0 0 0 0
0 0 0 0 0 0 0 0 0
0 0 0 0 0 0 0 0 0
0 0 0 0 0 0 0 0 0
0 0 0 0 0 0 0 0 0
0 0 0 0 0 0 0 0 0
0 0 0 0 0 0 0 0 0
0 0 0 0 0 0 0 0 0
0 0 0 0 0 0 0 0 0
0 0 0 0 0 0 0 0 0
0 0 0 0 0 0 0 0 0
0 0 0 0 0 0 0 0 0
0 0 0 0 0 0 0 0 0
0 0 0 0 0 0 0 0 0
0 0 0 0 0 0 0 0 0
0 0 0 0 0 0 0 0 0
0 0 0 0 0 0 0 0 0
0 0 0 0 0 0 0 0 0
0 0 0 0 0 0 0 0 0
0 0 0 0 0 0 0 0 0
0 0 0 0 0 0 0 0 0
0 0 0 0 0 0 0 0 0
0 0 0 0 0 0 0 0 0
0 0 0 0 0 0 0 0 0
0 0 0 0 0 0 0 0 0
0 0 0 0 0 0 0 0 0
0 0 0 0 0 0 0 0 0
0 0 0 0 0 0 0 0 0
0 0 0 0 0 0 0 0 0
0 0 0 0 0 0 0 0 0
0 0 0 0 0 0 0 0 0
0 0 0 0 0 0 0 0 0
0 0 0 0 0 0 0 0 0
0 0 0 0 0 0 0 0 0
0 0 0 0 0 0 0 0 0
0 0 0 0 0 0 0 0 0
0 0 0 0 0 0 0 0 0
0 0 0 0 0 0 0 0 0
0 0 0 0 0 0 0 0 0
0 0 0 0 0 0 0 0 0
0 0 0 0 0 0 0 0 0
0 0 0 0 0 0 0 0 0
0 0 0 0 0 0 0 0 0
0 0 0 0 0 0 0 0 0
0 0 0 0 0 0 0 0 0
0 0 0 0 0 0 0 0 0
0 0 0 0 0 0 0 0 0
0 0 0 0 0 0 0 0 0
0 0 0 0 0 0 0 0 0
0 0 0 0 0 0 0 0 0
0 0 0 0 0 0 0 0 0
0 0 0 0 0 0 0 0 0
0 0 0 0 0 0 0 0 0
0 0 0 0 0 0 0 0 0
0 0 0 0 0 0 0 0 0
0 0 0 0 0 0 0 0 0
0 0 0 0 0 0 0 0 0
0 0 0 0 0 0 0 0 0
0 0 0 0 0 0 0 0 0
0 0 0 0 0 0 0 0 0
0 0 0 0 0 0 0 0 0
0 0 0 0 0 0 0 0 0
0 0 0 0 0 0 0 0 0
0 0 0 0 0 0 0 0 0
0 0 0 0 0 0 0 0 0
0 0 0 0 0 0 0 0 0
0 0 0 0 0 0 0 0 0
0 0 0 0 0 0 0 0 0
0 0 0 0 0 0 0 0 0
0 0 0 0 0 0 0 0 0
0 0 0 0 0 0 0 0 0
0 0 0 0 0 0 0 0 0
0 0 0 0 0 0 0 0 0
0 0 0 0 0 0 0 0 0
0 0 0 0 0 0 0 0 0
0 0 0 0 0 0 0 0 0
0 0 0 0 0 0 0 0 0
0 0 0 0 0 0 0 0 0
0 0 0 0 0 0 0 0 0
0 0 0 0 0 0 0 0 0
0 0 0 0 0 0 0 0 0
0 0 0 0 0 0 0 0 0
0 0 0 0 0 0 0 0 0
0 0 0 0 0 0 0 0 0
0 0 0 0 0 0 0 0 0
0 0 0 0 0 0 0 0 0
0 0 0 0 0 0 0 0 0
0 0 0 0 0 0 0 0 0
0 0 0 0 0 0 0 0 0
0 0 0 0 0 0 0 0 0
0 0 0 0 0 0 0 0 0
0 0 0 0 0 0 0 0 0
0 0 0 0 0 0 0 0 0
0 0 0 0 0 0 0 0 0
0 0 0 0 0 0 0 0 0
0 0 0 0 0 0 0 0 0
0 0 0 0 0 0 0 0 0
0 0 0 0 0 0 0 0 0
0 0 0 0 0 0 0 0 0
0 0 0 0 0 0 0 0 0
0 0 0 0 0 0 0 0 0
0 0 0 0 0 0 0 0 0
0 0 0 0 0 0 0 0 0
0 0 0 0 0 0 0 0 0
0 0 0 0 0 0 0 0 0
0 0 0 0 0 0 0 0 0
0 0 0 0 0 0 0 0 0
0 0 0 0 0 0 0 0 0
0 0 0 0 0 0 0 0 0
0 0 0 0 0 0 0 0 0
0 0 0 0 0 0 0 0 0
0 0 0 0 0 0 0 0 0
0 0 0 0 0 0 0 0 0
0 0 0 0 0 0 0 0 0
0 0 0 0 0 0 0 0 0
0 0 0 0 0 0 0 0 0
0 0 0 0 0 0 0 0 0
0 0 0 0 0 0 0 0 0
0 0 0 0 0 0 0 0 0
0 0 0 0 0 0 0 0 0
0 0 0 0 0 0 0 0 0
0 0 0 0 0 0 0 0 0
0 0 0 0 0 0 0 0 0
0 0 0 0 0 0 0 0 0
0 0 0 0 0 0 0 0 0
0 0 0 0 0 0 0 0 0
0 0 0 0 0 0 0 0 0
0 0 0 0 0 0 0 0 0
0 0 0 0 0 0 0 0 0
0 0 0 0 0 0 0 0 0
0 0 0 0 0 0 0 0 0
0 0 0 0 0 0 0 0 0
0 0 0 0 0 0 0 0 0
0 0 0 0 0 0 0 0 0
0 0 0 0 0 0 0 0 0
0 0 0 0 0 0 0 0 0
0 0 0 0 0 0 0 0 0
0 0 0 0 0 0 0 0 0
0 0 0 0 0 0 0 0 0
0 0 0 0 0 0 0 0 0
0 0 0 0 0 0 0 0 0
0 0 0 0 0 0 0 0 0
0 0 0 0 0 0 0 0 0
0 0 0 0 0 0 0 0 0
0 0 0 0 0 0 0 0 0
0 0 0 0 0 0 0 0 0
0 0 0 0 0 0 0 0 0
0 0 0 0 0 0 0 0 0
0 0 0 0 0 0 0 0 0
0 0 0 0 0 0 0 0 0
0 0 0 0 0 0 0 0 0
0 0 0 0 0 0 0 0 0
0 0 0 0 0 0 0 0 0
0 0 0 0 0 0 0 0 0
0 0 0 0 0 0 0 0 0
0 0 0 0 0 0 0 0 0
0 0 0 0 0 0 0 0 0
0 0 0 0 0 0 0 0 0
0 0 0 0 0 0 0 0 0
0 0 0 0 0 0 0 0 0
0 0 0 0 0 0 0 0 0
0 0 0 0 0 0 0 0 0
0 0 0 0 0 0 0 0 0
0 0 0 0 0 0 0 0 0
0 0 0 0 0 0 0 0 0
0 0 0 0 0 0 0 0 0
0 0 0 0 0 0 0 0 0
0 0 0 0 0 0 0 0 0
0 0 0 0 0 0 0 0 0
0 0 0 0 0 0 0 0 0
0 0 0 0 0 0 0 0 0
0 0 0 0 0 0 0 0 0
0 0 0 0 0 0 0 0 0
0 0 0 0 0 0 0 0 0
0 0 0 0 0 0 0 0 0
0 0 0 0 0 0 0 0 0
0 0 0 0 0 0 0 0 0
0 0 0 0 0 0 0 0 0
0 0 0 0 0 0 0 0 0
0 0 0 0 0 0 0 0 0
0 0 0 0 0 0 0 0 0
0 0 0 0 0 0 0 0 0
0 0 0 0 0 0 0 0 0
0 0 0 0 0 0 0 0 0
0 0 0 0 0 0 0 0 0
0 0 0 0 0 0 0 0 0
0 0 0 0 0 0 0 0 0
0 0 0 0 0 0 0 0 0
0 0 0 0 0 0 0 0 0
0 0 0 0 0 0 0 0 0
0 0 0 0 0 0 0 0 0
0 0 0 0 0 0 0 0 0
0 0 0 0 0 0 0 0 0
0 0 0 0 0 0 0 0 0
0 0 0 0 0 0 0 0 0
0 0 0 0 0 0 0 0 0
0 0 0 0 0 0 0 0 0
0 0 0 0 0 0 0 0 0
0 0 0 0 0 0 0 0 0
0 0 0 0 0 0 0 0 0
0 0 0 0 0 0 0 0 0
0 0 0 0 0 0 0 0 0
0 0 0 0 0 0 0 0 0
0 0 0 0 0 0 0 0 0
0 0 0 0 0 0 0 0 0
0 0 0 0 0 0 0 0 0
0 0 0 0 0 0 0 0 0
0 0 0 0 0 0 0 0 0
0 0 0 0 0 0 0 0 0
0 0 0 0 0 0 0 0 0
0 0 0 0 0 0 0 0 0
0 0 0 0 0 0 0 0 0
0 0 0 0 0 0 0 0 0
0 0 0 0 0 0 0 0 0
0 0 0 0 0 0 0 0 0
0 0 0 0 0 0 0 0 0
0 0 0 0 0 0 0 0 0
0 0 0 0 0 0 0 0 0
0 0 0 0 0 0 0 0 0
0 0 0 0 0 0 0 0 0
0 0 0 0 0 0 0 0 0
0 0 0 0 0 0 0 0 0
0 0 0 0 0 0 0 0 0
0 0 0 0 0 0 0 0 0
0 0 0 0 0 0 0 0 0
0 0 0 0 0 0 0 0 0
0 0 0 0 0 0 0 0 0
0 0 0 0 0 0 0 0 0
0 0 0 0 0 0 0 0 0
0 0 0 0 0 0 0 0 0
0 0 0 0 0 0 0 0 0
0 0 0 0 0 0 0 0 0
0 0 0 0 0 0 0 0 0
0 0 0 0 0 0 0 0 0
0 0 0 0 0 0 0 0 0
0 0 0 0 0 0 0 0 0
0 0 0 0 0 0 0 0 0
0 0 0 0 0 0 0 0 0
0 0 0 0 0 0 0 0 0
0 0 0 0 0 0 0 0 0
0 0 0 0 0 0 0 0 0
0 0 0 0 0 0 0 0 0
0 0 0 0 0 0 0 0 0
0 0 0 0 0 0 0 0 0
0 0 0 0 0 0 0 0 0
0 0 0 0 0 0 0 0 0
0 0 0 0 0 0 0 0 0
0 0 0 0 0 0 0 0 0
0 0 0 0 0 0 0 0 0
0 0 0 0 0 0 0 0 0
0 0 0 0 0 0 0 0 0
0 0 0 0 0 0 0 0 0
0 0 0 0 0 0 0 0 0
0 0 0 0 0 0 0 0 0
0 0 0 0 0 0 0 0 0
0 0 0 0 0 0 0 0 0
0 0 0 0 0 0 0 0 0
0 0 0 0 0 0 0 0 0
0 0 0 0 0 0 0 0 0
0 0 0 0 0 0 0 0 0
0 0 0 0 0 0 0 0 0
0 0 0 0 0 0 0 0 0
0 0 0 0 0 0 0 0 0
0 0 0 0 0 0 0 0 0
0 0 0 0 0 0 0 0 0
0 0 0 0 0 0 0 0 0
0 0 0 0 0 0 0 0 0
0 0 0 0 0 0 0 0 0
0 0 0 0 0 0 0 0 0
0 0 0 0 0 0 0 0 0
0 0 0 0 0 0 0 0 0
0 0 0 0 0 0 0 0 0
0 0 0 0 0 0 0 0 0
0 0 0 0 0 0 0 0 0
0 0 0 0 0 0 0 0 0
0 0 0 0 0 0 0 0 0
0 0 0 0 0 0 0 0 0
0 0 0 0 0 0 0 0 0
0 0 0 0 0 0 0 0 0
0 0 0 0 0 0 0 0 0
0 0 0 0 0 0 0 0 0
0 0 0 0 0 0 0 0 0
0 0 0 0 0 0 0 0 0
0 0 0 0 0 0 0 0 0
0 0 0 0 0 0 0 0 0
0 0 0 0 0 0 0 0 0
0 0 0 0 0 0 0 0 0
0 0 0 0 0 0 0 0 0
0 0 0 0 0 0 0 0 0
0 0 0 0 0 0 0 0 0
0 0 0 0 0 0 0 0 0
0 0 0 0 0 0 0 0 0
0 0 0 0 0 0 0 0 0
0 0 0 0 0 0 0 0 0
0 0 0 0 0 0 0 0 0
0 0 0 0 0 0 0 0 0
0 0 0 0 0 0 0 0 0
0 0 0 0 0 0 0 0 0
0 0 0 0 0 0 0 0 0
0 0 0 0 0 0 0 0 0
0 0 0 0 0 0 0 0 0
0 0 0 0 0 0 0 0 0
0 0 0 0 0 0 0 0 0
0 0 0 0 0 0 0 0 0
0 0 0 0 0 0 0 0 0
0 0 0 0 0 0 0 0 0
0 0 0 0 0 0 0 0 0
0 0 0 0 0 0 0 0 0
0 0 0 0 0 0 0 0 0
0 0 0 0 0 0 0 0 0
0 0 0 0 0 0 0 0 0
0 0 0 0 0 0 0 0 0
0 0 0 0 0 0 0 0 0
0 0 0 0 0 0 0 0 0
0 0 0 0 0 0 0 0 0
0 0 0 0 0 0 0 0 0
0 0 0 0 0 0 0 0 0
0 0 0 0 0 0 0 0 0
0 0 0 0 0 0 0 0 0
0 0 0 0 0 0 0 0 0
0 0 0 0 0 0 0 0 0
0 0 0 0 0 0 0 0 0
0 0 0 0 0 0 0 0 0
0 0 0 0 0 0 0 0 0
0 0 0 0 0 0 0 0 0
0 0 0 0 0 0 0 0 0
0 0 0 0 0 0 0 0 0
0 0 0 0 0 0 0 0 0
0 0 0 0 0 0 0 0 0
0 0 0 0 0 0 0 0 0
0 0 0 0 0 0 0 0 0
0 0 0 0 0 0 0 0 0
0 0 0 0 0 0 0 0 0
0 0 0 0 0 0 0 0 0
0 0 0 0 0 0 0 0 0
0 0 0 0 0 0 0 0 0
0 0 0 0 0 0 0 0 0
0 0 0 0 0 0 0 0 0
0 0 0 0 0 0 0 0 0
0 0 0 0 0 0 0 0 0
0 0 0 0 0 0 0 0 0
0 0 0 0 0 0 0 0 0
0 0 0 0 0 0 0 0 0
0 0 0 0 0 0 0 0 0
0 0 0 0 0 0 0 0 0
0 0 0 0 0 0 0 0 0
0 0 0 0 0 0 0 0 0
0 0 0 0 0 0 0 0 0
0 0 0 0 0 0 0 0 0
0 0 0 0 0 0 0 0 0
0 0 0 0 0 0 0 0 0
0 0 0 0 0 0 0 0 0
0 0 0 0 0 0 0 0 0
0 0 0 0 0 0 0 0 0
0 0 0 0 0 0 0 0 0
0 0 0 0 0 0 0 0 0
0 0 0 0 0 0 0 0 0
0 0 0 0 0 0 0 0 0
0 0 0 0 0 0 0 0 0
0 0 0 0 0 0 0 0 0
0 0 0 0 0 0 0 0 0
0 0 0 0 0 0 0 0 0
0 0 0 0 0 0 0 0 0
0 0 0 0 0 0 0 0 0
0 0 0 0 0 0 0 0 0
0 0 0 0 0 0 0 0 0
0 0 0 0 0 0 0 0 0
0 0 0 0 0 0 0 0 0
0 0 0 0 0 0 0 0 0
0 0 0 0 0 0 0 0 0
0 0 0 0 0 0 0 0 0
0 0 0 0 0 0 0 0 0
0 0 0 0 0 0 0 0 0
0 0 0 0 0 0 0 0 0
0 0 0 0 0 0 0 0 0
0 0 0 0 0 0 0 0 0
0 0 0 0 0 0 0 0 0
0 0 0 0 0 0 0 0 0
0 0 0 0 0 0 0 0 0
0 0 0 0 0 0 0 0 0
0 0 0 0 0 0 0 0 0
0 0 0 0 0 0 0 0 0
0 0 0 0 0 0 0 0 0
0 0 0 0 0 0 0 0 0
0 0 0 0 0 0 0 0 0
0 0 0 0 0 0 0 0 0
0 0 0 0 0 0 0 0 0
0 0 0 0 0 0 0 0 0
0 0 0 0 0 0 0 0 0
0 0 0 0 0 0 0 0 0
0 0 0 0 0 0 0 0 0
0 0 0 0 0 0 0 0 0
0 0 0 0 0 0 0 0 0
0 0 0 0 0 0 0 0 0
0 0 0 0 0 0 0 0 0
0 0 0 0 0 0 0 0 0
0 0 0 0 0 0 0 0 0
0 0 0 0 0 0 0 0 0
0 0 0 0 0 0 0 0 0
0 0 0 0 0 0 0 0 0
0 0 0 0 0 0 0 0 0
0 0 0 0 0 0 0 0 0
0 0 0 0 0 0 0 0 0
0 0 0 0 0 0 0 0 0
0 0 0 0 0 0 0 0 0
0 0 0 0 0 0 0 0 0
0 0 0 0 0 0 0 0 0
0 0 0 0 0 0 0 0 0
0 0 0 0 0 0 0 0 0
0 0 0 0 0 0 0 0 0
0 0 0 0 0 0 0 0 0
0 0 0 0 0 0 0 0 0
0 0 0 0 0 0 0 0 0
0 0 0 0 0 0 0 0 0
0 0 0 0 0 0 0 0 0
0 0 0 0 0 0 0 0 0
0 0 0 0 0 0 0 0 0
0 0 0 0 0 0 0 0 0
0 0 0 0 0 0 0 0 0
0 0 0 0 0 0 0 0 0
0 0 0 0 0 0 0 0 0
0 0 0 0 0 0 0 0 0
0 0 0 0 0 0 0 0 0
0 0 0 0 0 0 0 0 0
0 0 0 0 0 0 0 0 0
0 0 0 0 0 0 0 0 0
0 0 0 0 0 0 0 0 0
0 0 0 0 0 0 0 0 0
0 0 0 0 0 0 0 0 0
0 0 0 0 0 0 0 0 0
0 0 0 0 0 0 0 0 0
0 0 0 0 0 0 0 0 0
0 0 0 0 0 0 0 0 0
0 0 0 0 0 0 0 0 0
0 0 0 0 0 0 0 0 0
0 0 0 0 0 0 0 0 0
0 0 0 0 0 0 0 0 0
0 0 0 0 0 0 0 0 0
0 0 0 0 0 0 0 0 0
0 0 0 0 0 0 0 0 0
0 0 0 0 0 0 0 0 0
0 0 0 0 0 0 0 0 0
0 0 0 0 0 0 0 0 0
0 0 0 0 0 0 0 0 0
0 0 0 0 0 0 0 0 0
0 0 0 0 0 0 0 0 0
0 0 0 0 0 0 0 0 0
0 0 0 0 0 0 0 0 0
0 0 0 0 0 0 0 0 0
0 0 0 0 0 0 0 0 0
0 0 0 0 0 0 0 0 0
0 0 0 0 0 0 0 0 0
0 0 0 0 0 0 0 0 0
0 0 0 0 0 0 0 0 0
0 0 0 0 0 0 0 0 0
0 0 0 0 0 0 0 0 0
0 0 0 0 0 0 0 0 0
0 0 0 0 0 0 0 0 0
0 0 0 0 0 0 0 0 0
0 0 0 0 0 0 0 0 0
0 0 0 0 0 0 0 0 0
0 0 0 0 0 0 0 0 0
0 0 0 0 0 0 0 0 0
0 0 0 0 0 0 0 0 0
0 0 0 0 0 0 0 0 0
0 0 0 0 0 0 0 0 0
0 0 0 0 0 0 0 0 0
0 0 0 0 0 0 0 0 0
0 0 0 0 0 0 0 0 0
0 0 0 0 0 0 0 0 0
0 0 0 0 0 0 0 0 0
0 0 0 0 0 0 0 0 0
0 0 0 0 0 0 0 0 0
0 0 0 0 0 0 0 0 0
0 0 0 0 0 0 0 0 0
0 0 0 0 0 0 0 0 0
0 0 0 0 0 0 0 0 0
0 0 0 0 0 0 0 0 0
0 0 0 0 0 0 0 0 0
0 0 0 0 0 0 0 0 0
0 0 0 0 0 0 0 0 0
0 0 0 0 0 0 0 0 0
0 0 0 0 0 0 0 0 0
0 0 0 0 0 0 0 0 0
0 0 0 0 0 0 0 0 0
0 0 0 0 0 0 0 0 0
0 0 0 0 0 0 0 0 0
0 0 0 0 0 0 0 0 0
0 0 0 0 0 0 0 0 0
0 0 0 0 0 0 0 0 0
0 0 0 0 0 0 0 0 0
0 0 0 0 0 0 0 0 0
0 0 0 0 0 0 0 0 0
0 0 0 0 0 0 0 0 0
0 0 0 0 0 0 0 0 0
0 0 0 0 0 0 0 0 0
0 0 0 0 0 0 0 0 0
0 0 0 0 0 0 0 0 0
0 0 0 0 0 0 0 0 0
0 0 0 0 0 0 0 0 0
0 0 0 0 0 0 0 0 0
0 0 0 0 0 0 0 0 0
0 0 0 0 0 0 0 0 0
0 0 0 0 0 0 0 0 0
0 0 0 0 0 0 0 0 0
0 0 0 0 0 0 0 0 0
0 0 0 0 0 0 0 0 0
0 0 0 0 0 0 0 0 0
0 0 0 0 0 0 0 0 0
0 0 0 0 0 0 0 0 0
0 0 0 0 0 0 0 0 0
0 0 0 0 0 0 0 0 0
0 0 0 0 0 0 0 0 0
0 0 0 0 0 0 0 0 0
0 0 0 0 0 0 0 0 0
0 0 0 0 0 0 0 0 0
0 0 0 0 0 0 0 0 0
0 0 0 0 0 0 0 0 0
0 0 0 0 0 0 0 0 0
0 0 0 0 0 0 0 0 0
0 0 0 0 0 0 0 0 0
0 0 0 0 0 0 0 0 0
0 0 0 0 0 0 0 0 0
0 0 0 0 0 0 0 0 0
0 0 0 0 0 0 0 0 0
0 0 0 0 0 0 0 0 0
0 0 0 0 0 0 0 0 0
0 0 0 0 0 0 0 0 0
0 0 0 0 0 0 0 0 0
0 0 0 0 0 0 0 0 0
0 0 0 0 0 0 0 0 0
0 0 0 0 0 0 0 0 0
0 0 0 0 0 0 0 0 0
0 0 0 0 0 0 0 0 0
0 0 0 0 0 0 0 0 0
0 0 0 0 0 0 0 0 0
0 0 0 0 0 0 0 0 0
0 0 0 0 0 0 0 0 0
0 0 0 0 0 0 0 0 0
0 0 0 0 0 0 0 0 0
0 0 0 0 0 0 0 0 0
0 0 0 0 0 0 0 0 0
0 0 0 0 0 0 0 0 0
0 0 0 0 0 0 0 0 0
0 0 0 0 0 0 0 0 0
0 0 0 0 0 0 0 0 0
0 0 0 0 0 0 0 0 0
0 0 0 0 0 0 0 0 0
0 0 0 0 0 0 0 0 0
0 0 0 0 0 0 0 0 0
0 0 0 0 0 0 0 0 0
0 0 0 0 0 0 0 0 0
0 0 0 0 0 0 0 0 0
0 0 0 0 0 0 0 0 0
0 0 0 0 0 0 0 0 0
0 0 0 0 0 0 0 0 0
0 0 0 0 0 0 0 0 0
0 0 0 0 0 0 0 0 0
0 0 0 0 0 0 0 0 0
0 0 0 0 0 0 0 0 0
0 0 0 0 0 0 0 0 0
0 0 0 0 0 0 0 0 0
0 0 0 0 0 0 0 0 0
0 0 0 0 0 0 0 0 0
0 0 0 0 0 0 0 0 0
0 0 0 0 0 0 0 0 0
0 0 0 0 0 0 0 0 0
0 0 0 0 0 0 0 0 0
0 0 0 0 0 0 0 0 0
0 0 0 0 0 0 0 0 0
0 0 0 0 0 0 0 0 0
0 0 0 0 0 0 0 0 0
0 0 0 0 0 0 0 0 0
0 0 0 0 0 0 0 0 0
0 0 0 0 0 0 0 0 0
0 0 0 0 0 0 0 0 0
0 0 0 0 0 0 0 0 0
0 0 0 0 0 0 0 0 0
0 0 0 0 0 0 0 0 0
0 0 0 0 0 0 0 0 0
0 0 0 0 0 0 0 0 0
0 0 0 0 0 0 0 0 0
0 0 0 0 0 0 0 0 0
0 0 0 0 0 0 0 0 0
0 0 0 0 0 0 0 0 0
0 0 0 0 0 0 0 0 0
0 0 0 0 0 0 0 0 0
0 0 0 0 0 0 0 0 0
0 0 0 0 0 0 0 0 0
0 0 0 0 0 0 0 0 0
0 0 0 0 0 0 0 0 0
0 0 0 0 0 0 0 0 0
0 0 0 0 0 0 0 0 0
0 0 0 0 0 0 0 0 0
0 0 0 0 0 0 0 0 0
0 0 0 0 0 0 0 0 0
0 0 0 0 0 0 0 0 0
0 0 0 0 0 0 0 0 0
0 0 0 0 0 0 0 0 0
0 0 0 0 0 0 0 0 0
0 0 0 0 0 0 0 0 0
0 0 0 0 0 0 0 0 0
0 0 0 0 0 0 0 0 0
0 0 0 0 0 0 0 0 0
0 0 0 0 0 0 0 0 0
0 0 0 0 0 0 0 0 0
0 0 0 0 0 0 0 0 0
0 0 0 0 0 0 0 0 0
0 0 0 0 0 0 0 0 0
0 0 0 0 0 0 0 0 0
0 0 0 0 0 0 0 0 0
0 0 0 0 0 0 0 0 0
0 0 0 0 0 0 0 0 0
0 0 0 0 0 0 0 0 0
0 0 0 0 0 0 0 0 0
0 0 0 0 0 0 0 0 0
0 0 0 0 0 0 0 0 0
0 0 0 0 0 0 0 0 0
0 0 0 0 0 0 0 0 0
0 0 0 0 0 0 0 0 0
0 0 0 0 0 0 0 0 0
0 0 0 0 0 0 0 0 0
0 0 0 0 0 0 0 0 0
0 0 0 0 0 0 0 0 0
0 0 0 0 0 0 0 0 0
0 0 0 0 0 0 0 0 0
0 0 0 0 0 0 0 0 0
0 0 0 0 0 0 0 0 0
0 0 0 0 0 0 0 0 0
0 0 0 0 0 0 0 0 0
0 0 0 0 0 0 0 0 0
0 0 0 0 0 0 0 0 0
0 0 0 0 0 0 0 0 0
0 0 0 0 0 0 0 0 0
0 0 0 0 0 0 0 0 0
0 0 0 0 0 0 0 0 0
0 0 0 0 0 0 0 0 0
0 0 0 0 0 0 0 0 0
0 0 0 0 0 0 0 0 0
0 0 0 0 0 0 0 0 0
0 0 0 0 0 0 0 0 0
0 0 0 0 0 0 0 0 0
0 0 0 0 0 0 0 0 0
0 0 0 0 0 0 0 0 0
0 0 0 0 0 0 0 0 0
0 0 0 0 0 0 0 0 0
0 0 0 0 0 0 0 0 0
0 0 0 0 0 0 0 0 0
0 0 0 0 0 0 0 0 0
0 0 0 0 0 0 0 0 0
0 0 0 0 0 0 0 0 0
0 0 0 0 0 0 0 0 0
0 0 0 0 0 0 0 0 0
0 0 0 0 0 0 0 0 0
0 0 0 0 0 0 0 0 0
0 0 0 0 0 0 0 0 0
0 0 0 0 0 0 0 0 0
0 0 0 0 0 0 0 0 0
0 0 0 0 0 0 0 0 0
0 0 0 0 0 0 0 0 0
0 0 0 0 0 0 0 0 0
0 0 0 0 0 0 0 0 0
0 0 0 0 0 0 0 0 0
0 0 0 0 0 0 0 0 0
0 0 0 0 0 0 0 0 0
0 0 0 0 0 0 0 0 0
0 0 0 0 0 0 0 0 0
0 0 0 0 0 0 0 0 0
0 0 0 0 0 0 0 0 0
0 0 0 0 0 0 0 0 0
0 0 0 0 0 0 0 0 0
0 0 0 0 0 0 0 0 0
0 0 0 0 0 0 0 0 0
0 0 0 0 0 0 0 0 0
0 0 0 0 0 0 0 0 0
0 0 0 0 0 0 0 0 0
0 0 0 0 0 0 0 0 0
0 0 0 0 0 0 0 0 0
0 0 0 0 0 0 0 0 0
0 0 0 0 0 0 0 0 0
0 0 0 0 0 0 0 0 0
0 0 0 0 0 0 0 0 0
0 0 0 0 0 0 0 0 0
0 0 0 0 0 0 0 0 0
0 0 0 0 0 0 0 0 0
0 0 0 0 0 0 0 0 0
0 0 0 0 0 0 0 0 0
0 0 0 0 0 0 0 0 0
0 0 0 0 0 0 0 0 0
0 0 0 0 0 0 0 0 0
0 0 0 0 0 0 0 0 0
0 0 0 0 0 0 0 0 0
1.1667 1.20997 1.16711 1.20971 1.1667 1.20997 1.16711 1.20971 0
1.24228 1.28728 1.24152 1.28583 1.24228 1.28728 1.24152 1.28583 0
1.32082 1.36744 1.31886 1.36476 1.32082 1.36744 1.31886 1.36476 0
1.40211 1.45022 1.3989 1.44626 1.40211 1.45022 1.3989 1.44626 0
1.48591 1.53533 1.4814 1.53004 1.48591 1.53533 1.4814 1.53004 0
1.57191 1.62243 1.56604 1.61575 1.57191 1.62243 1.56604 1.61575 0
1.16652 1.21098 1.16654 1.21031 1.16652 1.21098 1.16654 1.21031 0
1.24418 1.29041 1.24299 1.28851 1.24418 1.29041 1.24299 1.28851 0
1.32486 1.37275 1.32243 1.36958 1.32486 1.37275 1.32243 1.36958 0
1.40838 1.45781 1.40465 1.45331 1.40838 1.45781 1.40465 1.45331 0
1.4945 1.54531 1.48942 1.53942 1.4945 1.54531 1.48942 1.53942 0
1.58293 1.63487 1.57644 1.62755 1.58293 1.63487 1.57644 1.62755 0
1.16715 1.21282 1.16668 1.21165 1.16715 1.21282 1.16668 1.21165 0
1.24692 1.2944 1.24523 1.29198 1.24692 1.2944 1.24523 1.29198 0
1.32979 1.37899 1.32682 1.37527 1.32979 1.37899 1.32682 1.37527 0
1.4156 1.46641 1.41131 1.46132 1.4156 1.46641 1.41131 1.46132 0
1.50414 1.55639 1.49844 1.54986 1.50414 1.55639 1.49844 1.54986 0
1.59508 1.64854 1.58792 1.64049 1.59508 1.64854 1.58792 1.64049 0
1.68802 1.74243 1.67931 1.73281 1.68802 1.74243 1.67931 1.73281 0
1.78238 1.83716 1.77209 1.82593 1.78238 1.83716 1.77209 1.82593 0
1.87733 1.93234 1.86542 1.91951 1.87733 1.93234 1.86542 1.91951 0
1.16869 1.21558 1.16768 1.21387 1.16869 1.21558 1.16768 1.21387 0
1.2506 1.29936 1.24835 1.29637 1.2506 1.29936 1.24835 1.29637 0
1.33571 1.38626 1.33216 1.38193 1.33571 1.38626 1.33216 1.38193 0
1.42388 1.47611 1.41897 1.47037 1.42388 1.47611 1.41897 1.47037 0
1.5149 1.56864 1.50854 1.56142 1.5149 1.56864 1.50854 1.56142 0
1.60845 1.66348 1.60058 1.6547 1.60845 1.66348 1.60058 1.6547 0
1.70412 1.76015 1.69467 1.74975 1.70412 1.76015 1.69467 1.74975 0
1.80131 1.85774 1.79021 1.84568 1.80131 1.85774 1.79021 1.84568 0
1.89914 1.95584 1.88637 1.94208 1.89914 1.95584 1.88637 1.94208 0
1.17126 1.21939 1.16964 1.21706 1.17126 1.21939 1.16964 1.21706 0
1.25533 1.30539 1.25246 1.30177 1.25533 1.30539 1.25246 1.30177 0
1.34272 1.39464 1.33853 1.38966 1.34272 1.39464 1.33853 1.38966 0
1.4333 1.48698 1.42771 1.48056 1.4333 1.48698 1.42771 1.48056 0
1.52687 1.58215 1.5198 1.57419 1.52687 1.58215 1.5198 1.57419 0
1.62312 1.67976 1.61449 1.67019 1.62312 1.67976 1.61449 1.67019 0
1.72162 1.77933 1.71134 1.76807 1.72162 1.77933 1.71134 1.76807 0
1.82174 1.87993 1.80975 1.86692 1.82174 1.87993 1.80975 1.86692 0
1.92262 1.9811 1.90886 1.9663 1.92262 1.9811 1.90886 1.9663 0
1.17498 1.22435 1.17268 1.22134 1.17498 1.22435 1.17268 1.22134 0
1.26122 1.3126 1.25767 1.30828 1.26122 1.3126 1.25767 1.30828 0
1.35092 1.40424 1.34603 1.39855 1.35092 1.40424 1.34603 1.39855 0
1.44395 1.49913 1.43764 1.49196 1.44395 1.49913 1.43764 1.49196 0
1.54014 1.59701 1.53231 1.58826 1.54014 1.59701 1.53231 1.58826 0
1.63917 1.69749 1.62973 1.68707 1.63917 1.69749 1.62973 1.68707 0
1.74061 1.80008 1.72945 1.7879 1.74061 1.80008 1.72945 1.7879 0
1.84381 1.90383 1.83087 1.88982 1.84381 1.90383 1.83087 1.88982 0
1.94788 2.00823 1.93307 1.99233 1.94788 2.00823 1.93307 1.99233 0
1.17999 1.23059 1.17694 1.22682 1.17999 1.23059 1.17694 1.22682 0
1.26839 1.32109 1.26409 1.31602 1.26839 1.32109 1.26409 1.31602 0
1.36042 1.41516 1.35477 1.40869 1.36042 1.41516 1.35477 1.40869 0
1.45595 1.51265 1.44885 1.50467 1.45595 1.51265 1.44885 1.50467 0
1.55481 1.61331 1.54616 1.60372 1.55481 1.61331 1.54616 1.60372 0
1.6567 1.71676 1.64639 1.70544 1.6567 1.71676 1.64639 1.70544 0
1.76118 1.8225 1.7491 1.80935 1.76118 1.8225 1.7491 1.80935 0
1.86761 1.92956 1.85365 1.91448 1.86761 1.92956 1.85365 1.91448 0
1.97504 2.03736 1.95912 2.0203 1.97504 2.03736 1.95912 2.0203 0
2.08198 2.14155 2.06405 2.12241 2.08198 2.14155 2.06405 2.12241 0
1.09954 1.14925 1.09682 1.14586 1.09954 1.14925 1.09682 1.14586 0
1.18641 1.23822 1.18252 1.23363 1.18641 1.23822 1.18252 1.23363 0
1.27696 1.33098 1.27183 1.32509 1.27696 1.33098 1.27183 1.32509 0
1.37132 1.4275 1.36484 1.42019 1.37132 1.4275 1.36484 1.42019 0
1.46937 1.52762 1.46144 1.51879 1.46937 1.52762 1.46144 1.51879 0
1.57096 1.63114 1.56145 1.62065 1.57096 1.63114 1.56145 1.62065 0
1.6758 1.73767 1.66457 1.72539 1.6758 1.73767 1.66457 1.72539 0
1.78345 1.84669 1.77038 1.8325 1.78345 1.84669 1.77038 1.8325 0
1.89324 1.95722 1.87821 1.94101 1.89324 1.95722 1.87821 1.94101 0
2.0042 2.06862 1.98711 2.05031 2.0042 2.06862 1.98711 2.05031 0
2.1148 2.17654 2.09558 2.15605 2.1148 2.17654 2.09558 2.15605 0
2.22244 2.28621 2.20105 2.26363 2.22244 2.28621 2.20105 2.26363 0
1.19436 1.24743 1.18957 1.24191 1.19436 1.24743 1.18957 1.24191 0
1.28711 1.34247 1.28104 1.33563 1.28711 1.34247 1.28104 1.33563 0
1.38382 1.44144 1.37639 1.43318 1.38382 1.44144 1.37639 1.43318 0
1.48442 1.54422 1.47552 1.53443 1.48442 1.54422 1.47552 1.53443 0
1.58875 1.65062 1.57827 1.63916 1.58875 1.65062 1.57827 1.63916 0
1.69657 1.76028 1.68437 1.74701 1.69657 1.76028 1.68437 1.74701 0
1.80747 1.8727 1.79338 1.85745 1.80747 1.8727 1.79338 1.85745 0
1.92077 1.98691 1.90464 1.96951 1.92077 1.98691 1.90464 1.96951 0
2.03549 2.10214 2.01716 2.0825 2.03549 2.10214 2.01716 2.0825 0
2.14999 2.21407 2.12937 2.19209 2.14999 2.21407 2.12937 2.19209 0
2.2616 2.32752 2.23866 2.30333 2.2616 2.32752 2.23866 2.30333 0
0 0 0 0 0 0 0 0 0
0 0 0 0 0 0 0 0 0
0 0 0 0 0 0 0 0 0
0 0 0 0 0 0 0 0 0
0 0 0 0 0 0 0 0 0
0 0 0 0 0 0 0 0 0
0 0 0 0 0 0 0 0 0
0 0 0 0 0 0 0 0 0
0 0 0 0 0 0 0 0 0
0 0 0 0 0 0 0 0 0
0 0 0 0 0 0 0 0 0
0 0 0 0 0 0 0 0 0
0 0 0 0 0 0 0 0 0
0 0 0 0 0 0 0 0 0
0 0 0 0 0 0 0 0 0
0 0 0 0 0 0 0 0 0
0 0 0 0 0 0 0 0 0
0 0 0 0 0 0 0 0 0
0 0 0 0 0 0 0 0 0
0 0 0 0 0 0 0 0 0
0 0 0 0 0 0 0 0 0
0 0 0 0 0 0 0 0 0
0 0 0 0 0 0 0 0 0
0 0 0 0 0 0 0 0 0
0 0 0 0 0 0 0 0 0
0 0 0 0 0 0 0 0 0
0 0 0 0 0 0 0 0 0
0 0 0 0 0 0 0 0 0
0 0 0 0 0 0 0 0 0
0 0 0 0 0 0 0 0 0
0 0 0 0 0 0 0 0 0
0 0 0 0 0 0 0 0 0
0 0 0 0 0 0 0 0 0
0 0 0 0 0 0 0 0 0
0 0 0 0 0 0 0 0 0
0 0 0 0 0 0 0 0 0
0 0 0 0 0 0 0 0 0
0 0 0 0 0 0 0 0 0
0 0 0 0 0 0 0 0 0
0 0 0 0 0 0 0 0 0
0 0 0 0 0 0 0 0 0
0 0 0 0 0 0 0 0 0
0 0 0 0 0 0 0 0 0
0 0 0 0 0 0 0 0 0
0 0 0 0 0 0 0 0 0
0 0 0 0 0 0 0 0 0
0 0 0 0 0 0 0 0 0
0 0 0 0 0 0 0 0 0
0 0 0 0 0 0 0 0 0
0 0 0 0 0 0 0 0 0
0 0 0 0 0 0 0 0 0
0 0 0 0 0 0 0 0 0
0 0 0 0 0 0 0 0 0
0 0 0 0 0 0 0 0 0
0 0 0 0 0 0 0 0 0
0 0 0 0 0 0 0 0 0
0 0 0 0 0 0 0 0 0
0 0 0 0 0 0 0 0 0
0 0 0 0 0 0 0 0 0
0 0 0 0 0 0 0 0 0
0 0 0 0 0 0 0 0 0
0 0 0 0 0 0 0 0 0
0 0 0 0 0 0 0 0 0
0 0 0 0 0 0 0 0 0
0 0 0 0 0 0 0 0 0
0 0 0 0 0 0 0 0 0
0 0 0 0 0 0 0 0 0
0 0 0 0 0 0 0 0 0
0 0 0 0 0 0 0 0 0
0 0 0 0 0 0 0 0 0
0 0 0 0 0 0 0 0 0
0 0 0 0 0 0 0 0 0
0 0 0 0 0 0 0 0 0
0 0 0 0 0 0 0 0 0
0 0 0 0 0 0 0 0 0
0 0 0 0 0 0 0 0 0
0 0 0 0 0 0 0 0 0
0 0 0 0 0 0 0 0 0
0 0 0 0 0 0 0 0 0
0 0 0 0 0 0 0 0 0
0 0 0 0 0 0 0 0 0
0 0 0 0 0 0 0 0 0
0 0 0 0 0 0 0 0 0
0 0 0 0 0 0 0 0 0
0 0 0 0 0 0 0 0 0
0 0 0 0 0 0 0 0 0
0 0 0 0 0 0 0 0 0
0 0 0 0 0 0 0 0 0
0 0 0 0 0 0 0 0 0
0 0 0 0 0 0 0 0 0
0 0 0 0 0 0 0 0 0
0 0 0 0 0 0 0 0 0
0 0 0 0 0 0 0 0 0
0 0 0 0 0 0 0 0 0
0 0 0 0 0 0 0 0 0
0 0 0 0 0 0 0 0 0
0 0 0 0 0 0 0 0 0
0 0 0 0 0 0 0 0 0
0 0 0 0 0 0 0 0 0
0 0 0 0 0 0 0 0 0
0 0 0 0 0 0 0 0 0
0 0 0 0 0 0 0 0 0
0 0 0 0 0 0 0 0 0
0 0 0 0 0 0 0 0 0
0 0 0 0 0 0 0 0 0
0 0 0 0 0 0 0 0 0
0 0 0 0 0 0 0 0 0
0 0 0 0 0 0 0 0 0
0 0 0 0 0 0 0 0 0
0 0 0 0 0 0 0 0 0
0 0 0 0 0 0 0 0 0
0 0 0 0 0 0 0 0 0
0 0 0 0 0 0 0 0 0
0 0 0 0 0 0 0 0 0
0 0 0 0 0 0 0 0 0
0 0 0 0 0 0 0 0 0
0 0 0 0 0 0 0 0 0
0 0 0 0 0 0 0 0 0
0 0 0 0 0 0 0 0 0
0 0 0 0 0 0 0 0 0
0 0 0 0 0 0 0 0 0
0 0 0 0 0 0 0 0 0
0 0 0 0 0 0 0 0 0
0 0 0 0 0 0 0 0 0
0 0 0 0 0 0 0 0 0
0 0 0 0 0 0 0 0 0
0 0 0 0 0 0 0 0 0
0 0 0 0 0 0 0 0 0
0 0 0 0 0 0 0 0 0
0 0 0 0 0 0 0 0 0
0 0 0 0 0 0 0 0 0
0 0 0 0 0 0 0 0 0
0 0 0 0 0 0 0 0 0
0 0 0 0 0 0 0 0 0
0 0 0 0 0 0 0 0 0
0 0 0 0 0 0 0 0 0
0 0 0 0 0 0 0 0 0
0 0 0 0 0 0 0 0 0
0 0 0 0 0 0 0 0 0
0 0 0 0 0 0 0 0 0
0 0 0 0 0 0 0 0 0
0 0 0 0 0 0 0 0 0
0 0 0 0 0 0 0 0 0
0 0 0 0 0 0 0 0 0
0 0 0 0 0 0 0 0 0
0 0 0 0 0 0 0 0 0
0 0 0 0 0 0 0 0 0
0 0 0 0 0 0 0 0 0
0 0 0 0 0 0 0 0 0
0 0 0 0 0 0 0 0 0
0 0 0 0 0 0 0 0 0
0 0 0 0 0 0 0 0 0
0 0 0 0 0 0 0 0 0
0 0 0 0 0 0 0 0 0
0 0 0 0 0 0 0 0 0
0 0 0 0 0 0 0 0 0
0 0 0 0 0 0 0 0 0
0 0 0 0 0 0 0 0 0
0 0 0 0 0 0 0 0 0
0 0 0 0 0 0 0 0 0
0 0 0 0 0 0 0 0 0
0 0 0 0 0 0 0 0 0
0 0 0 0 0 0 0 0 0
0 0 0 0 0 0 0 0 0
0 0 0 0 0 0 0 0 0
0 0 0 0 0 0 0 0 0
0 0 0 0 0 0 0 0 0
0 0 0 0 0 0 0 0 0
0 0 0 0 0 0 0 0 0
0 0 0 0 0 0 0 0 0
0 0 0 0 0 0 0 0 0
0 0 0 0 0 0 0 0 0
0 0 0 0 0 0 0 0 0
0 0 0 0 0 0 0 0 0
0 0 0 0 0 0 0 0 0
0 0 0 0 0 0 0 0 0
0 0 0 0 0 0 0 0 0
0 0 0 0 0 0 0 0 0
0 0 0 0 0 0 0 0 0
0 0 0 0 0 0 0 0 0
0 0 0 0 0 0 0 0 0
0 0 0 0 0 0 0 0 0
0 0 0 0 0 0 0 0 0
0 0 0 0 0 0 0 0 0
0 0 0 0 0 0 0 0 0
0 0 0 0 0 0 0 0 0
0 0 0 0 0 0 0 0 0
0 0 0 0 0 0 0 0 0
0 0 0 0 0 0 0 0 0
0 0 0 0 0 0 0 0 0
0 0 0 0 0 0 0 0 0
0 0 0 0 0 0 0 0 0
0 0 0 0 0 0 0 0 0
0 0 0 0 0 0 0 0 0
0 0 0 0 0 0 0 0 0
0 0 0 0 0 0 0 0 0
0 0 0 0 0 0 0 0 0
0 0 0 0 0 0 0 0 0
0 0 0 0 0 0 0 0 0
0 0 0 0 0 0 0 0 0
0 0 0 0 0 0 0 0 0
0 0 0 0 0 0 0 0 0
0 0 0 0 0 0 0 0 0
0 0 0 0 0 0 0 0 0
0 0 0 0 0 0 0 0 0
0 0 0 0 0 0 0 0 0
0 0 0 0 0 0 0 0 0
0 0 0 0 0 0 0 0 0
0 0 0 0 0 0 0 0 0
0 0 0 0 0 0 0 0 0
0 0 0 0 0 0 0 0 0
0 0 0 0 0 0 0 0 0
0 0 0 0 0 0 0 0 0
0 0 0 0 0 0 0 0 0
0 0 0 0 0 0 0 0 0
0 0 0 0 0 0 0 0 0
0 0 0 0 0 0 0 0 0
0 0 0 0 0 0 0 0 0
0 0 0 0 0 0 0 0 0
0 0 0 0 0 0 0 0 0
0 0 0 0 0 0 0 0 0
0 0 0 0 0 0 0 0 0
0 0 0 0 0 0 0 0 0
0 0 0 0 0 0 0 0 0
0 0 0 0 0 0 0 0 0
0 0 0 0 0 0 0 0 0
0 0 0 0 0 0 0 0 0
0 0 0 0 0 0 0 0 0
0 0 0 0 0 0 0 0 0
0 0 0 0 0 0 0 0 0
0 0 0 0 0 0 0 0 0
0 0 0 0 0 0 0 0 0
0 0 0 0 0 0 0 0 0
0 0 0 0 0 0 0 0 0
0 0 0 0 0 0 0 0 0
0 0 0 0 0 0 0 0 0
0 0 0 0 0 0 0 0 0
0 0 0 0 0 0 0 0 0
0 0 0 0 0 0 0 0 0
0 0 0 0 0 0 0 0 0
0 0 0 0 0 0 0 0 0
0 0 0 0 0 0 0 0 0
0 0 0 0 0 0 0 0 0
0 0 0 0 0 0 0 0 0
0 0 0 0 0 0 0 0 0
0 0 0 0 0 0 0 0 0
0 0 0 0 0 0 0 0 0
0 0 0 0 0 0 0 0 0
0 0 0 0 0 0 0 0 0
0 0 0 0 0 0 0 0 0
0 0 0 0 0 0 0 0 0
0 0 0 0 0 0 0 0 0
0 0 0 0 0 0 0 0 0
0 0 0 0 0 0 0 0 0
0 0 0 0 0 0 0 0 0
0 0 0 0 0 0 0 0 0
0 0 0 0 0 0 0 0 0
0 0 0 0 0 0 0 0 0
0 0 0 0 0 0 0 0 0
0 0 0 0 0 0 0 0 0
0 0 0 0 0 0 0 0 0
0 0 0 0 0 0 0 0 0
0 0 0 0 0 0 0 0 0
0 0 0 0 0 0 0 0 0
0 0 0 0 0 0 0 0 0
0 0 0 0 0 0 0 0 0
0 0 0 0 0 0 0 0 0
0 0 0 0 0 0 0 0 0
0 0 0 0 0 0 0 0 0
0 0 0 0 0 0 0 0 0
0 0 0 0 0 0 0 0 0
0 0 0 0 0 0 0 0 0
0 0 0 0 0 0 0 0 0
0 0 0 0 0 0 0 0 0
0 0 0 0 0 0 0 0 0
0 0 0 0 0 0 0 0 0
0 0 0 0 0 0 0 0 0
0 0 0 0 0 0 0 0 0
0 0 0 0 0 0 0 0 0
0 0 0 0 0 0 0 0 0
0 0 0 0 0 0 0 0 0
0 0 0 0 0 0 0 0 0
0 0 0 0 0 0 0 0 0
0 0 0 0 0 0 0 0 0
0 0 0 0 0 0 0 0 0
0 0 0 0 0 0 0 0 0
0 0 0 0 0 0 0 0 0
0 0 0 0 0 0 0 0 0
0 0 0 0 0 0 0 0 0
0 0 0 0 0 0 0 0 0
0 0 0 0 0 0 0 0 0
0 0 0 0 0 0 0 0 0
0 0 0 0 0 0 0 0 0
0 0 0 0 0 0 0 0 0
0 0 0 0 0 0 0 0 0
0 0 0 0 0 0 0 0 0
0 0 0 0 0 0 0 0 0
0 0 0 0 0 0 0 0 0
0 0 0 0 0 0 0 0 0
0 0 0 0 0 0 0 0 0
0 0 0 0 0 0 0 0 0
0 0 0 0 0 0 0 0 0
0 0 0 0 0 0 0 0 0
0 0 0 0 0 0 0 0 0
0 0 0 0 0 0 0 0 0
0 0 0 0 0 0 0 0 0
0 0 0 0 0 0 0 0 0
0 0 0 0 0 0 0 0 0
0 0 0 0 0 0 0 0 0
0 0 0 0 0 0 0 0 0
0 0 0 0 0 0 0 0 0
0 0 0 0 0 0 0 0 0
0 0 0 0 0 0 0 0 0
0 0 0 0 0 0 0 0 0
0 0 0 0 0 0 0 0 0
0 0 0 0 0 0 0 0 0
0 0 0 0 0 0 0 0 0
0 0 0 0 0 0 0 0 0
0 0 0 0 0 0 0 0 0
0 0 0 0 0 0 0 0 0
0 0 0 0 0 0 0 0 0
0 0 0 0 0 0 0 0 0
0 0 0 0 0 0 0 0 0
0 0 0 0 0 0 0 0 0
0 0 0 0 0 0 0 0 0
0 0 0 0 0 0 0 0 0
0 0 0 0 0 0 0 0 0
0 0 0 0 0 0 0 0 0
0 0 0 0 0 0 0 0 0
0 0 0 0 0 0 0 0 0
0 0 0 0 0 0 0 0 0
0 0 0 0 0 0 0 0 0
0 0 0 0 0 0 0 0 0
0 0 0 0 0 0 0 0 0
0 0 0 0 0 0 0 0 0
0 0 0 0 0 0 0 0 0
0 0 0 0 0 0 0 0 0
0 0 0 0 0 0 0 0 0
0 0 0 0 0 0 0 0 0
0 0 0 0 0 0 0 0 0
0 0 0 0 0 0 0 0 0
0 0 0 0 0 0 0 0 0
0 0 0 0 0 0 0 0 0
0 0 0 0 0 0 0 0 0
0 0 0 0 0 0 0 0 0
0 0 0 0 0 0 0 0 0
0 0 0 0 0 0 0 0 0
0 0 0 0 0 0 0 0 0
0 0 0 0 0 0 0 0 0
0 0 0 0 0 0 0 0 0
0 0 0 0 0 0 0 0 0
0 0 0 0 0 0 0 0 0
0 0 0 0 0 0 0 0 0
0 0 0 0 0 0 0 0 0
0 0 0 0 0 0 0 0 0
0 0 0 0 0 0 0 0 0
0 0 0 0 0 0 0 0 0
0 0 0 0 0 0 0 0 0
0 0 0 0 0 0 0 0 0
0 0 0 0 0 0 0 0 0
0 0 0 0 0 0 0 0 0
0 0 0 0 0 0 0 0 0
0 0 0 0 0 0 0 0 0
0 0 0 0 0 0 0 0 0
0 0 0 0 0 0 0 0 0
0 0 0 0 0 0 0 0 0
0 0 0 0 0 0 0 0 0
0 0 0 0 0 0 0 0 0
0 0 0 0 0 0 0 0 0
0 0 0 0 0 0 0 0 0
0 0 0 0 0 0 0 0 0
0 0 0 0 0 0 0 0 0
0 0 0 0 0 0 0 0 0
0 0 0 0 0 0 0 0 0
0 0 0 0 0 0 0 0 0
0 0 0 0 0 0 0 0 0
0 0 0 0 0 0 0 0 0
0 0 0 0 0 0 0 0 0
0 0 0 0 0 0 0 0 0
0 0 0 0 0 0 0 0 0
0 0 0 0 0 0 0 0 0
0 0 0 0 0 0 0 0 0
0 0 0 0 0 0 0 0 0
0 0 0 0 0 0 0 0 0
0 0 0 0 0 0 0 0 0
0 0 0 0 0 0 0 0 0
0 0 0 0 0 0 0 0 0
0 0 0 0 0 0 0 0 0
0 0 0 0 0 0 0 0 0
0 0 0 0 0 0 0 0 0
0 0 0 0 0 0 0 0 0
0 0 0 0 0 0 0 0 0
0 0 0 0 0 0 0 0 0
0 0 0 0 0 0 0 0 0
0 0 0 0 0 0 0 0 0
0 0 0 0 0 0 0 0 0
0 0 0 0 0 0 0 0 0
0 0 0 0 0 0 0 0 0
0 0 0 0 0 0 0 0 0
0 0 0 0 0 0 0 0 0
0 0 0 0 0 0 0 0 0
0 0 0 0 0 0 0 0 0
0 0 0 0 0 0 0 0 0
0 0 0 0 0 0 0 0 0
0 0 0 0 0 0 0 0 0
0 0 0 0 0 0 0 0 0
0 0 0 0 0 0 0 0 0
0 0 0 0 0 0 0 0 0
0 0 0 0 0 0 0 0 0
0 0 0 0 0 0 0 0 0
0 0 0 0 0 0 0 0 0
0 0 0 0 0 0 0 0 0
0 0 0 0 0 0 0 0 0
0 0 0 0 0 0 0 0 0
0 0 0 0 0 0 0 0 0
0 0 0 0 0 0 0 0 0
0 0 0 0 0 0 0 0 0
0 0 0 0 0 0 0 0 0
0 0 0 0 0 0 0 0 0
0 0 0 0 0 0 0 0 0
0 0 0 0 0 0 0 0 0
0 0 0 0 0 0 0 0 0
0 0 0 0 0 0 0 0 0
0 0 0 0 0 0 0 0 0
0 0 0 0 0 0 0 0 0
0 0 0 0 0 0 0 0 0
0 0 0 0 0 0 0 0 0
0 0 0 0 0 0 0 0 0
0 0 0 0 0 0 0 0 0
0 0 0 0 0 0 0 0 0
0 0 0 0 0 0 0 0 0
0 0 0 0 0 0 0 0 0
0 0 0 0 0 0 0 0 0
0 0 0 0 0 0 0 0 0
0 0 0 0 0 0 0 0 0
0 0 0 0 0 0 0 0 0
0 0 0 0 0 0 0 0 0
0 0 0 0 0 0 0 0 0
0 0 0 0 0 0 0 0 0
0 0 0 0 0 0 0 0 0
0 0 0 0 0 0 0 0 0
0 0 0 0 0 0 0 0 0
0 0 0 0 0 0 0 0 0
0 0 0 0 0 0 0 0 0
0 0 0 0 0 0 0 0 0
0 0 0 0 0 0 0 0 0
0 0 0 0 0 0 0 0 0
0 0 0 0 0 0 0 0 0
0 0 0 0 0 0 0 0 0
0 0 0 0 0 0 0 0 0
0 0 0 0 0 0 0 0 0
0 0 0 0 0 0 0 0 0
0 0 0 0 0 0 0 0 0
0 0 0 0 0 0 0 0 0
0 0 0 0 0 0 0 0 0
0 0 0 0 0 0 0 0 0
0 0 0 0 0 0 0 0 0
0 0 0 0 0 0 0 0 0
0 0 0 0 0 0 0 0 0
0 0 0 0 0 0 0 0 0
0 0 0 0 0 0 0 0 0
0 0 0 0 0 0 0 0 0
0 0 0 0 0 0 0 0 0
0 0 0 0 0 0 0 0 0
0 0 0 0 0 0 0 0 0
0 0 0 0 0 0 0 0 0
0 0 0 0 0 0 0 0 0
0 0 0 0 0 0 0 0 0
0 0 0 0 0 0 0 0 0
0 0 0 0 0 0 0 0 0
0 0 0 0 0 0 0 0 0
0 0 0 0 0 0 0 0 0
0 0 0 0 0 0 0 0 0
0 0 0 0 0 0 0 0 0
0 0 0 0 0 0 0 0 0
0 0 0 0 0 0 0 0 0
0 0 0 0 0 0 0 0 0
0 0 0 0 0 0 0 0 0
0 0 0 0 0 0 0 0 0
0 0 0 0 0 0 0 0 0
0 0 0 0 0 0 0 0 0
0 0 0 0 0 0 0 0 0
0 0 0 0 0 0 0 0 0
0 0 0 0 0 0 0 0 0
0 0 0 0 0 0 0 0 0
0 0 0 0 0 0 0 0 0
0 0 0 0 0 0 0 0 0
0 0 0 0 0 0 0 0 0
0 0 0 0 0 0 0 0 0
0 0 0 0 0 0 0 0 0
0 0 0 0 0 0 0 0 0
0 0 0 0 0 0 0 0 0
0 0 0 0 0 0 0 0 0
0 0 0 0 0 0 0 0 0
0 0 0 0 0 0 0 0 0
0 0 0 0 0 0 0 0 0
0 0 0 0 0 0 0 0 0
0 0 0 0 0 0 0 0 0
0 0 0 0 0 0 0 0 0
0 0 0 0 0 0 0 0 0
0 0 0 0 0 0 0 0 0
0 0 0 0 0 0 0 0 0
0 0 0 0 0 0 0 0 0
0 0 0 0 0 0 0 0 0
0 0 0 0 0 0 0 0 0
0 0 0 0 0 0 0 0 0
0 0 0 0 0 0 0 0 0
0 0 0 0 0 0 0 0 0
0 0 0 0 0 0 0 0 0
0 0 0 0 0 0 0 0 0
0 0 0 0 0 0 0 0 0
0 0 0 0 0 0 0 0 0
0 0 0 0 0 0 0 0 0
0 0 0 0 0 0 0 0 0
0 0 0 0 0 0 0 0 0
0 0 0 0 0 0 0 0 0
0 0 0 0 0 0 0 0 0
0 0 0 0 0 0 0 0 0
0 0 0 0 0 0 0 0 0
0 0 0 0 0 0 0 0 0
0 0 0 0 0 0 0 0 0
0 0 0 0 0 0 0 0 0
0 0 0 0 0 0 0 0 0
0 0 0 0 0 0 0 0 0
0 0 0 0 0 0 0 0 0
0 0 0 0 0 0 0 0 0
0 0 0 0 0 0 0 0 0
0 0 0 0 0 0 0 0 0
0 0 0 0 0 0 0 0 0
0 0 0 0 0 0 0 0 0
0 0 0 0 0 0 0 0 0
0 0 0 0 0 0 0 0 0
0 0 0 0 0 0 0 0 0
0 0 0 0 0 0 0 0 0
0 0 0 0 0 0 0 0 0
0 0 0 0 0 0 0 0 0
0 0 0 0 0 0 0 0 0
0 0 0 0 0 0 0 0 0
0 0 0 0 0 0 0 0 0
0 0 0 0 0 0 0 0 0
0 0 0 0 0 0 0 0 0
0 0 0 0 0 0 0 0 0
0 0 0 0 0 0 0 0 0
0 0 0 0 0 0 0 0 0
0 0 0 0 0 0 0 0 0
0 0 0 0 0 0 0 0 0
0 0 0 0 0 0 0 0 0
0 0 0 0 0 0 0 0 0
0 0 0 0 0 0 0 0 0
0 0 0 0 0 0 0 0 0
0 0 0 0 0 0 0 0 0
0 0 0 0 0 0 0 0 0
0 0 0 0 0 0 0 0 0
0 0 0 0 0 0 0 0 0
0 0 0 0 0 0 0 0 0
0 0 0 0 0 0 0 0 0
0 0 0 0 0 0 0 0 0
0 0 0 0 0 0 0 0 0
0 0 0 0 0 0 0 0 0
0 0 0 0 0 0 0 0 0
0 0 0 0 0 0 0 0 0
0 0 0 0 0 0 0 0 0
0 0 0 0 0 0 0 0 0
0 0 0 0 0 0 0 0 0
0 0 0 0 0 0 0 0 0
0 0 0 0 0 0 0 0 0
0 0 0 0 0 0 0 0 0
0.63895 0.662795 0.638673 0.662202 0.63895 0.662795 0.638673 0.662202 0
0.680645 0.705566 0.679819 0.704417 0.680645 0.705566 0.679819 0.704417 0
0.724201 0.750189 0.722812 0.748466 0.724201 0.750189 0.722812 0.748466 0
0.769602 0.796651 0.767631 0.794336 0.769602 0.796651 0.767631 0.794336 0
0.816825 0.844893 0.814256 0.841973 0.816825 0.844893 0.814256 0.841973 0
0.865787 0.894802 0.862601 0.891245 0.865787 0.894802 0.862601 0.891245 0
0.639768 0.66418 0.639242 0.663323 0.639768 0.66418 0.639242 0.663323 0
0.682451 0.707952 0.681349 0.706512 0.682451 0.707952 0.681349 0.706512 0
0.727018 0.753603 0.725326 0.751564 0.727018 0.753603 0.725326 0.751564 0
0.773458 0.801117 0.771162 0.798466 0.773458 0.801117 0.771162 0.798466 0
0.821746 0.850447 0.81883 0.847163 0.821746 0.850447 0.81883 0.847163 0
0.871811 0.90148 0.868253 0.897543 0.871811 0.90148 0.868253 0.897543 0
0.641072 0.666067 0.640256 0.664914 0.641072 0.666067 0.640256 0.664914 0
0.68477 0.71087 0.683366 0.709118 0.68477 0.71087 0.683366 0.709118 0
0.73038 0.75758 0.72837 0.755213 0.73038 0.75758 0.72837 0.755213 0
0.777892 0.806185 0.775259 0.803183 0.777892 0.806185 0.775259 0.803183 0
0.827285 0.856644 0.82401 0.852986 0.827285 0.856644 0.82401 0.852986 0
0.878501 0.908862 0.874555 0.904512 0.878501 0.908862 0.874555 0.904512 0
0.931446 0.962795 0.926793 0.957717 0.931446 0.962795 0.926793 0.957717 0
0.986033 1.01818 0.980636 1.01234 0.986033 1.01818 0.980636 1.01234 0
1.04221 1.07574 1.03604 1.06913 1.04221 1.07574 1.03604 1.06913 0
0.642919 0.668509 0.641783 0.667028 0.642919 0.668509 0.641783 0.667028 0
0.687654 0.714368 0.685917 0.712275 0.687654 0.714368 0.685917 0.712275 0
0.734333 0.762167 0.731976 0.759442 0.734333 0.762167 0.731976 0.759442 0
0.782949 0.811897 0.779951 0.808517 0.782949 0.811897 0.779951 0.808517 0
0.833487 0.863528 0.829823 0.859467 0.833487 0.863528 0.829823 0.859467 0
0.885898 0.916979 0.881539 0.912201 0.885898 0.916979 0.881539 0.912201 0
0.940103 0.972208 0.935012 0.966677 0.940103 0.972208 0.935012 0.966677 0
0.996011 1.02895 0.990151 1.02263 0.996011 1.02895 0.990151 1.02263 0
1.05356 1.08788 1.0469 1.08076 1.05356 1.08788 1.0469 1.08076 0
0.645362 0.671558 0.643876 0.66972 0.645362 0.671558 0.643876 0.66972 0
0.691155 0.718497 0.689055 0.716033 0.691155 0.718497 0.689055 0.716033 0
0.73893 0.767414 0.736195 0.764301 0.73893 0.767414 0.736195 0.764301 0
0.788682 0.818305 0.785287 0.814517 0.788682 0.818305 0.785287 0.814517 0
0.840401 0.87115 0.836319 0.866656 0.840401 0.87115 0.836319 0.866656 0
0.894052 0.925878 0.889249 0.920642 0.894052 0.925878 0.889249 0.920642 0
0.949562 0.982451 0.944 0.976433 0.949562 0.982451 0.944 0.976433 0
1.00684 1.0406 1.00048 1.03376 1.00684 1.0406 1.00048 1.03376 0
1.06582 1.10098 1.05862 1.0933 1.06582 1.10098 1.05862 1.0933 0
0.648451 0.675268 0.646585 0.673042 0.648451 0.675268 0.646585 0.673042 0
0.695327 0.723311 0.692833 0.720445 0.695327 0.723311 0.692833 0.720445 0
0.744223 0.773376 0.741079 0.769843 0.744223 0.773376 0.741079 0.769843 0
0.795143 0.825463 0.79132 0.821236 0.795143 0.825463 0.79132 0.821236 0
0.848082 0.879562 0.843551 0.874606 0.848082 0.879562 0.843551 0.874606 0
0.903014 0.935615 0.897738 0.929888 0.903014 0.935615 0.897738 0.929888 0
0.95988 0.993584 0.953815 0.987045 0.95988 0.993584 0.953815 0.987045 0
1.01859 1.05321 1.01169 1.04581 1.01859 1.05321 1.01169 1.04581 0
1.07906 1.1151 1.07129 1.10682 1.07906 1.1151 1.07129 1.10682 0
0.652234 0.679687 0.649961 0.677046 0.652234 0.679687 0.649961 0.677046 0
0.700219 0.728862 0.697303 0.725564 0.700219 0.728862 0.697303 0.725564 0
0.750267 0.780107 0.746683 0.776123 0.750267 0.780107 0.746683 0.776123 0
0.802388 0.833426 0.798106 0.828727 0.802388 0.833426 0.798106 0.828727 0
0.856584 0.888821 0.851571 0.883369 0.856584 0.888821 0.851571 0.883369 0
0.912842 0.946245 0.907059 0.939996 0.912842 0.946245 0.907059 0.939996 0
0.971113 1.00567 0.964513 0.998573 0.971113 1.00567 0.964513 0.998573 0
1.03131 1.06683 1.02384 1.05884 1.03131 1.06683 1.02384 1.05884 0
1.09335 1.1303 1.08497 1.12139 1.09335 1.1303 1.08497 1.12139 0
1.15733 1.19425 1.14801 1.18433 1.15733 1.19425 1.14801 1.18433 0
0.609707 0.63663 0.607624 0.634186 0.609707 0.63663 0.607624 0.634186 0
0.656769 0.684866 0.654056 0.68178 0.656769 0.684866 0.654056 0.68178 0
0.705881 0.735202 0.702515 0.731442 0.705881 0.735202 0.702515 0.731442 0
0.757114 0.787661 0.753059 0.783196 0.757114 0.787661 0.753059 0.783196 0
0.810472 0.842251 0.805698 0.837047 0.810472 0.842251 0.805698 0.837047 0
0.865962 0.898976 0.860437 0.893 0.865962 0.898976 0.860437 0.893 0
0.923588 0.957829 0.917268 0.951021 0.923588 0.957829 0.917268 0.951021 0
0.983327 1.01877 0.976152 1.01108 0.983327 1.01877 0.976152 1.01108 0
1.04508 1.08154 1.037 1.07292 1.04508 1.08154 1.037 1.07292 0
1.10876 1.14668 1.09972 1.13708 1.10876 1.14668 1.09972 1.13708 0
1.17445 1.21241 1.16442 1.20178 1.17445 1.21241 1.16442 1.20178 0
1.2429 1.28848 1.23185 1.27692 1.2429 1.28848 1.23185 1.27692 0
0.662104 0.690863 0.658922 0.687297 0.662104 0.690863 0.658922 0.687297 0
0.71237 0.742375 0.708519 0.738129 0.71237 0.742375 0.708519 0.738129 0
0.764808 0.796097 0.760259 0.791115 0.764808 0.796097 0.760259 0.791115 0
0.819457 0.851996 0.814155 0.846253 0.819457 0.851996 0.814155 0.846253 0
0.876277 0.910087 0.870204 0.903552 0.876277 0.910087 0.870204 0.903552 0
0.9353 0.97039 0.928417 0.963016 0.9353 0.97039 0.928417 0.963016 0
0.99654 1.03292 0.988787 1.02462 0.99654 1.03292 0.988787 1.02462 0
1.05993 1.0974 1.05122 1.0881 1.05993 1.0974 1.05122 1.0881 0
1.12536 1.16432 1.11563 1.15398 1.12536 1.16432 1.11563 1.15398 0
1.19288 1.23195 1.18207 1.2205 1.19288 1.23195 1.18207 1.2205 0
1.26317 1.30968 1.25129 1.29726 1.26317 1.30968 1.25129 1.29726 0
0 0 0 0 0 0 0 0 0
0 0 0 0 0 0 0 0 0
0 0 0 0 0 0 0 0 0
0 0 0 0 0 0 0 0 0
0 0 0 0 0 0 0 0 0
0 0 0 0 0 0 0 0 0
0 0 0 0 0 0 0 0 0
0 0 0 0 0 0 0 0 0
0 0 0 0 0 0 0 0 0
0 0 0 0 0 0 0 0 0
0 0 0 0 0 0 0 0 0
0 0 0 0 0 0 0 0 0
0 0 0 0 0 0 0 0 0
0 0 0 0 0 0 0 0 0
0 0 0 0 0 0 0 0 0
0 0 0 0 0 0 0 0 0
0 0 0 0 0 0 0 0 0
0 0 0 0 0 0 0 0 0
0 0 0 0 0 0 0 0 0
0 0 0 0 0 0 0 0 0
0 0 0 0 0 0 0 0 0
0 0 0 0 0 0 0 0 0
0 0 0 0 0 0 0 0 0
0 0 0 0 0 0 0 0 0
0 0 0 0 0 0 0 0 0
0 0 0 0 0 0 0 0 0
0 0 0 0 0 0 0 0 0
0 0 0 0 0 0 0 0 0
0 0 0 0 0 0 0 0 0
0 0 0 0 0 0 0 0 0
0 0 0 0 0 0 0 0 0
0 0 0 0 0 0 0 0 0
0 0 0 0 0 0 0 0 0
0 0 0 0 0 0 0 0 0
0 0 0 0 0 0 0 0 0
0 0 0 0 0 0 0 0 0
0 0 0 0 0 0 0 0 0
0 0 0 0 0 0 0 0 0
0 0 0 0 0 0 0 0 0
0 0 0 0 0 0 0 0 0
0 0 0 0 0 0 0 0 0
0 0 0 0 0 0 0 0 0
0 0 0 0 0 0 0 0 0
0 0 0 0 0 0 0 0 0
0 0 0 0 0 0 0 0 0
0 0 0 0 0 0 0 0 0
0 0 0 0 0 0 0 0 0
0 0 0 0 0 0 0 0 0
0 0 0 0 0 0 0 0 0
0 0 0 0 0 0 0 0 0
0 0 0 0 0 0 0 0 0
0 0 0 0 0 0 0 0 0
0 0 0 0 0 0 0 0 0
0 0 0 0 0 0 0 0 0
0 0 0 0 0 0 0 0 0
0 0 0 0 0 0 0 0 0
0 0 0 0 0 0 0 0 0
0 0 0 0 0 0 0 0 0
0 0 0 0 0 0 0 0 0
0 0 0 0 0 0 0 0 0
0 0 0 0 0 0 0 0 0
0 0 0 0 0 0 0 0 0
0 0 0 0 0 0 0 0 0
0 0 0 0 0 0 0 0 0
0 0 0 0 0 0 0 0 0
0 0 0 0 0 0 0 0 0
0 0 0 0 0 0 0 0 0
0 0 0 0 0 0 0 0 0
0 0 0 0 0 0 0 0 0
0 0 0 0 0 0 0 0 0
0 0 0 0 0 0 0 0 0
0 0 0 0 0 0 0 0 0
0 0 0 0 0 0 0 0 0
0 0 0 0 0 0 0 0 0
0 0 0 0 0 0 0 0 0
0 0 0 0 0 0 0 0 0
0 0 0 0 0 0 0 0 0
0 0 0 0 0 0 0 0 0
0 0 0 0 0 0 0 0 0
0 0 0 0 0 0 0 0 0
0 0 0 0 0 0 0 0 0
0.533596 0.551311 0.530923 0.54815 0.533596 0.551311 0.530923 0.54815 0
0.564386 0.582388 0.560865 0.578369 0.564386 0.582388 0.560865 0.578369 0
0.595625 0.613784 0.591237 0.608882 0.595625 0.613784 0.591237 0.608882 0
0.627087 0.645267 0.621805 0.63946 0.627087 0.645267 0.621805 0.63946 0
0.658527 0.676568 0.652334 0.669846 0.658527 0.676568 0.652334 0.669846 0
0.689667 0.707407 0.682556 0.699763 0.689667 0.707407 0.682556 0.699763 0
0.538648 0.557235 0.535664 0.553744 0.538648 0.557235 0.535664 0.553744 0
0.570955 0.589845 0.567088 0.585461 0.570955 0.589845 0.567088 0.585461 0
0.60374 0.622807 0.598974 0.617514 0.60374 0.622807 0.598974 0.617514 0
0.636781 0.655888 0.631098 0.649668 0.636781 0.655888 0.631098 0.649668 0
0.669833 0.68882 0.663215 0.681652 0.669833 0.68882 0.663215 0.681652 0
0.702612 0.7213 0.695041 0.713177 0.702612 0.7213 0.695041 0.713177 0
0.544296 0.563766 0.540959 0.559918 0.544296 0.563766 0.540959 0.559918 0
0.57814 0.597937 0.573914 0.593186 0.57814 0.597937 0.573914 0.593186 0
0.612504 0.632502 0.607364 0.626822 0.612504 0.632502 0.607364 0.626822 0
0.647167 0.66723 0.641086 0.660592 0.647167 0.66723 0.641086 0.660592 0
0.681884 0.701852 0.674834 0.694232 0.681884 0.701852 0.674834 0.694232 0
0.716369 0.736057 0.708326 0.727431 0.716369 0.736057 0.708326 0.727431 0
0.750305 0.769536 0.741252 0.759902 0.750305 0.769536 0.741252 0.759902 0
0.783351 0.801857 0.773296 0.791234 0.783351 0.801857 0.773296 0.791234 0
0.815147 0.832946 0.804125 0.821403 0.815147 0.832946 0.804125 0.821403 0
0.550588 0.570944 0.546874 0.566717 0.550588 0.570944 0.546874 0.566717 0
0.585978 0.606694 0.58137 0.601554 0.585978 0.606694 0.58137 0.601554 0
0.621946 0.642895 0.61641 0.636808 0.621946 0.642895 0.61641 0.636808 0
0.658268 0.679314 0.65177 0.672245 0.658268 0.679314 0.65177 0.672245 0
0.6947 0.715682 0.687205 0.707599 0.6947 0.715682 0.687205 0.707599 0
0.73095 0.751674 0.72243 0.742553 0.73095 0.751674 0.72243 0.742553 0
0.766679 0.786944 0.757117 0.776782 0.766679 0.786944 0.757117 0.776782 0
0.801508 0.821027 0.79091 0.80984 0.801508 0.821027 0.79091 0.80984 0
0.835039 0.853798 0.82343 0.841627 0.835039 0.853798 0.82343 0.841627 0
0.557574 0.578815 0.553453 0.574183 0.557574 0.578815 0.553453 0.574183 0
0.594513 0.616156 0.589497 0.610604 0.594513 0.616156 0.589497 0.610604 0
0.632101 0.654017 0.626148 0.647504 0.632101 0.654017 0.626148 0.647504 0
0.670113 0.692169 0.663181 0.684651 0.670113 0.692169 0.663181 0.684651 0
0.708305 0.730333 0.700352 0.721773 0.708305 0.730333 0.700352 0.721773 0
0.746374 0.768169 0.737365 0.758537 0.746374 0.768169 0.737365 0.758537 0
0.78396 0.805304 0.773871 0.794586 0.78396 0.805304 0.773871 0.794586 0
0.820653 0.841242 0.809477 0.829441 0.820653 0.841242 0.809477 0.829441 0
0.85602 0.875804 0.843771 0.862956 0.85602 0.875804 0.843771 0.862956 0
0.565298 0.587423 0.560745 0.58236 0.565298 0.587423 0.560745 0.58236 0
0.603785 0.62636 0.598338 0.620375 0.603785 0.62636 0.598338 0.620375 0
0.643005 0.665903 0.636615 0.658945 0.643005 0.665903 0.636615 0.658945 0
0.682735 0.705821 0.675351 0.697839 0.682735 0.705821 0.675351 0.697839 0
0.722727 0.745828 0.714299 0.736777 0.722727 0.745828 0.714299 0.736777 0
0.762669 0.785573 0.753153 0.775413 0.762669 0.785573 0.753153 0.775413 0
0.802182 0.824653 0.791546 0.81336 0.802182 0.824653 0.791546 0.81336 0
0.840829 0.862548 0.829054 0.850113 0.840829 0.862548 0.829054 0.850113 0
0.878137 0.899007 0.865228 0.885464 0.878137 0.899007 0.865228 0.885464 0
0.57381 0.596812 0.568796 0.591293 0.57381 0.596812 0.568796 0.591293 0
0.613837 0.637346 0.607935 0.630904 0.613837 0.637346 0.607935 0.630904 0
0.654696 0.678588 0.647847 0.671164 0.654696 0.678588 0.647847 0.671164 0
0.696167 0.720301 0.688311 0.711837 0.696167 0.720301 0.688311 0.711837 0
0.737994 0.762196 0.729074 0.752638 0.737994 0.762196 0.729074 0.752638 0
0.779859 0.803912 0.769823 0.793208 0.779859 0.803912 0.769823 0.793208 0
0.821373 0.845025 0.810173 0.833137 0.821373 0.845025 0.810173 0.833137 0
0.862069 0.884981 0.849675 0.871891 0.862069 0.884981 0.849675 0.871891 0
0.901432 0.923467 0.887838 0.90919 0.901432 0.923467 0.887838 0.90919 0
0.938933 0.959145 0.924165 0.943715 0.938933 0.959145 0.924165 0.943715 0
0.542601 0.565862 0.537938 0.560742 0.542601 0.565862 0.537938 0.560742 0
0.583122 0.607015 0.577645 0.601022 0.583122 0.607015 0.577645 0.601022 0
0.624708 0.649154 0.618328 0.642233 0.624708 0.649154 0.618328 0.642233 0
0.667213 0.692106 0.659883 0.684196 0.667213 0.692106 0.659883 0.684196 0
0.710441 0.73564 0.702094 0.726676 0.710441 0.73564 0.702094 0.726676 0
0.754134 0.779462 0.744706 0.769381 0.754134 0.779462 0.744706 0.769381 0
0.797972 0.823214 0.7874 0.81195 0.797972 0.823214 0.7874 0.81195 0
0.841563 0.866452 0.829783 0.85395 0.841563 0.866452 0.829783 0.85395 0
0.884409 0.908578 0.871375 0.894811 0.884409 0.908578 0.871375 0.894811 0
0.925941 0.949208 0.911642 0.934189 0.925941 0.949208 0.911642 0.934189 0
0.965569 0.98699 0.950027 0.97074 0.965569 0.98699 0.950027 0.97074 0
1.00325 1.02635 0.986546 1.00912 1.00325 1.02635 0.986546 1.00912 0
0.59334 0.618094 0.587324 0.611586 0.59334 0.618094 0.587324 0.611586 0
0.636443 0.661821 0.629558 0.654399 0.636443 0.661821 0.629558 0.654399 0
0.680594 0.706508 0.67276 0.698082 0.680594 0.706508 0.67276 0.698082 0
0.725612 0.751891 0.71674 0.742394 0.725612 0.751891 0.71674 0.742394 0
0.771199 0.79767 0.76123 0.787039 0.771199 0.79767 0.76123 0.787039 0
0.817046 0.843511 0.805914 0.831668 0.817046 0.843511 0.805914 0.831668 0
0.862777 0.888947 0.850402 0.875827 0.862777 0.888947 0.850402 0.875827 0
0.907862 0.933366 0.894184 0.918908 0.907862 0.933366 0.894184 0.918908 0
0.951702 0.976295 0.936674 0.96049 0.951702 0.976295 0.936674 0.96049 0
0.99362 1.01635 0.977249 0.99921 0.99362 1.01635 0.977249 0.99921 0
1.03344 1.05752 1.01581 1.03932 1.03344 1.05752 1.01581 1.03932 0
0 0 0 0 0 0 0 0 0
0 0 0 0 0 0 0 0 0
0 0 0 0 0 0 0 0 0
0 0 0 0 0 0 0 0 0
0 0 0 0 0 0 0 0 0
0 0 0 0 0 0 0 0 0
0 0 0 0 0 0 0 0 0
0 0 0 0 0 0 0 0 0
0 0 0 0 0 0 0 0 0
0 0 0 0 0 0 0 0 0
0 0 0 0 0 0 0 0 0
0 0 0 0 0 0 0 0 0
0 0 0 0 0 0 0 0 0
0 0 0 0 0 0 0 0 0
0 0 0 0 0 0 0 0 0
0 0 0 0 0 0 0 0 0
0 0 0 0 0 0 0 0 0
0 0 0 0 0 0 0 0 0
0 0 0 0 0 0 0 0 0
0 0 0 0 0 0 0 0 0
0 0 0 0 0 0 0 0 0
0 0 0 0 0 0 0 0 0
0 0 0 0 0 0 0 0 0
0 0 0 0 0 0 0 0 0
0 0 0 0 0 0 0 0 0
0 0 0 0 0 0 0 0 0
0 0 0 0 0 0 0 0 0
0 0 0 0 0 0 0 0 0
0 0 0 0 0 0 0 0 0
0 0 0 0 0 0 0 0 0
0 0 0 0 0 0 0 0 0
0 0 0 0 0 0 0 0 0
0 0 0 0 0 0 0 0 0
0 0 0 0 0 0 0 0 0
0 0 0 0 0 0 0 0 0
0 0 0 0 0 0 0 0 0
0 0 0 0 0 0 0 0 0
0 0 0 0 0 0 0 0 0
0 0 0 0 0 0 0 0 0
0 0 0 0 0 0 0 0 0
0 0 0 0 0 0 0 0 0
0 0 0 0 0 0 0 0 0
0 0 0 0 0 0 0 0 0
0 0 0 0 0 0 0 0 0
0 0 0 0 0 0 0 0 0
0 0 0 0 0 0 0 0 0
0 0 0 0 0 0 0 0 0
0 0 0 0 0 0 0 0 0
0 0 0 0 0 0 0 0 0
0 0 0 0 0 0 0 0 0
0 0 0 0 0 0 0 0 0
0 0 0 0 0 0 0 0 0
0 0 0 0 0 0 0 0 0
0 0 0 0 0 0 0 0 0
0 0 0 0 0 0 0 0 0
0 0 0 0 0 0 0 0 0
0 0 0 0 0 0 0 0 0
0 0 0 0 0 0 0 0 0
0 0 0 0 0 0 0 0 0
0 0 0 0 0 0 0 0 0
0 0 0 0 0 0 0 0 0
0 0 0 0 0 0 0 0 0
0 0 0 0 0 0 0 0 0
0 0 0 0 0 0 0 0 0
0 0 0 0 0 0 0 0 0
0 0 0 0 0 0 0 0 0
0 0 0 0 0 0 0 0 0
0 0 0 0 0 0 0 0 0
0 0 0 0 0 0 0 0 0
0 0 0 0 0 0 0 0 0
0 0 0 0 0 0 0 0 0
0 0 0 0 0 0 0 0 0
0 0 0 0 0 0 0 0 0
0 0 0 0 0 0 0 0 0
0 0 0 0 0 0 0 0 0
0 0 0 0 0 0 0 0 0
0 0 0 0 0 0 0 0 0
0 0 0 0 0 0 0 0 0
0 0 0 0 0 0 0 0 0
0 0 0 0 0 0 0 0 0
0 0 0 0 0 0 0 0 0
0 0 0 0 0 0 0 0 0
0 0 0 0 0 0 0 0 0
0 0 0 0 0 0 0 0 0
0 0 0 0 0 0 0 0 0
0 0 0 0 0 0 0 0 0
0 0 0 0 0 0 0 0 0
0 0 0 0 0 0 0 0 0
0 0 0 0 0 0 0 0 0
0 0 0 0 0 0 0 0 0
0 0 0 0 0 0 0 0 0
0 0 0 0 0 0 0 0 0
0 0 0 0 0 0 0 0 0
0 0 0 0 0 0 0 0 0
0 0 0 0 0 0 0 0 0
0 0 0 0 0 0 0 0 0
0 0 0 0 0 0 0 0 0
0 0 0 0 0 0 0 0 0
0 0 0 0 0 0 0 0 0
0 0 0 0 0 0 0 0 0
0 0 0 0 0 0 0 0 0
0 0 0 0 0 0 0 0 0
0 0 0 0 0 0 0 0 0
0 0 0 0 0 0 0 0 0
0 0 0 0 0 0 0 0 0
0 0 0 0 0 0 0 0 0
0 0 0 0 0 0 0 0 0
0 0 0 0 0 0 0 0 0
0 0 0 0 0 0 0 0 0
0 0 0 0 0 0 0 0 0
0 0 0 0 0 0 0 0 0
0 0 0 0 0 0 0 0 0
0 0 0 0 0 0 0 0 0
0 0 0 0 0 0 0 0 0
0 0 0 0 0 0 0 0 0
0 0 0 0 0 0 0 0 0
0 0 0 0 0 0 0 0 0
0 0 0 0 0 0 0 0 0
0 0 0 0 0 0 0 0 0
0 0 0 0 0 0 0 0 0
0 0 0 0 0 0 0 0 0
0 0 0 0 0 0 0 0 0
0 0 0 0 0 0 0 0 0
0 0 0 0 0 0 0 0 0
0 0 0 0 0 0 0 0 0
0 0 0 0 0 0 0 0 0
0 0 0 0 0 0 0 0 0
0 0 0 0 0 0 0 0 0
0 0 0 0 0 0 0 0 0
0 0 0 0 0 0 0 0 0
0 0 0 0 0 0 0 0 0
0 0 0 0 0 0 0 0 0
0 0 0 0 0 0 0 0 0
0 0 0 0 0 0 0 0 0
0 0 0 0 0 0 0 0 0
0 0 0 0 0 0 0 0 0
0 0 0 0 0 0 0 0 0
0 0 0 0 0 0 0 0 0
0 0 0 0 0 0 0 0 0
0 0 0 0 0 0 0 0 0
0 0 0 0 0 0 0 0 0
0 0 0 0 0 0 0 0 0
0 0 0 0 0 0 0 0 0
0 0 0 0 0 0 0 0 0
0 0 0 0 0 0 0 0 0
0 0 0 0 0 0 0 0 0
0 0 0 0 0 0 0 0 0
0 0 0 0 0 0 0 0 0
0 0 0 0 0 0 0 0 0
0 0 0 0 0 0 0 0 0
0 0 0 0 0 0 0 0 0
0 0 0 0 0 0 0 0 0
0 0 0 0 0 0 0 0 0
0 0 0 0 0 0 0 0 0
0 0 0 0 0 0 0 0 0
0 0 0 0 0 0 0 0 0
0 0 0 0 0 0 0 0 0
0 0 0 0 0 0 0 0 0
0 0 0 0 0 0 0 0 0
0 0 0 0 0 0 0 0 0
0 0 0 0 0 0 0 0 0
0 0 0 0 0 0 0 0 0
0 0 0 0 0 0 0 0 0
0 0 0 0 0 0 0 0 0
0 0 0 0 0 0 0 0 0
0 0 0 0 0 0 0 0 0
0 0 0 0 0 0 0 0 0
0 0 0 0 0 0 0 0 0
0 0 0 0 0 0 0 0 0
0 0 0 0 0 0 0 0 0
0 0 0 0 0 0 0 0 0
0 0 0 0 0 0 0 0 0
0 0 0 0 0 0 0 0 0
0 0 0 0 0 0 0 0 0
0 0 0 0 0 0 0 0 0
0 0 0 0 0 0 0 0 0
0 0 0 0 0 0 0 0 0
0 0 0 0 0 0 0 0 0
0 0 0 0 0 0 0 0 0
0 0 0 0 0 0 0 0 0
0 0 0 0 0 0 0 0 0
0 0 0 0 0 0 0 0 0
0 0 0 0 0 0 0 0 0
0 0 0 0 0 0 0 0 0
0 0 0 0 0 0 0 0 0
0 0 0 0 0 0 0 0 0
0 0 0 0 0 0 0 0 0
0 0 0 0 0 0 0 0 0
0 0 0 0 0 0 0 0 0
0 0 0 0 0 0 0 0 0
0 0 0 0 0 0 0 0 0
0 0 0 0 0 0 0 0 0
0 0 0 0 0 0 0 0 0
0 0 0 0 0 0 0 0 0
0 0 0 0 0 0 0 0 0
0 0 0 0 0 0 0 0 0
0 0 0 0 0 0 0 0 0
0 0 0 0 0 0 0 0 0
0 0 0 0 0 0 0 0 0
0 0 0 0 0 0 0 0 0
0 0 0 0 0 0 0 0 0
0 0 0 0 0 0 0 0 0
0 0 0 0 0 0 0 0 0
0 0 0 0 0 0 0 0 0
0 0 0 0 0 0 0 0 0
0 0 0 0 0 0 0 0 0
0 0 0 0 0 0 0 0 0
0 0 0 0 0 0 0 0 0
0 0 0 0 0 0 0 0 0
0 0 0 0 0 0 0 0 0
0 0 0 0 0 0 0 0 0
0 0 0 0 0 0 0 0 0
0 0 0 0 0 0 0 0 0
0 0 0 0 0 0 0 0 0
0 0 0 0 0 0 0 0 0
0 0 0 0 0 0 0 0 0
0 0 0 0 0 0 0 0 0
0 0 0 0 0 0 0 0 0
0 0 0 0 0 0 0 0 0
0 0 0 0 0 0 0 0 0
0 0 0 0 0 0 0 0 0
0 0 0 0 0 0 0 0 0
0 0 0 0 0 0 0 0 0
0 0 0 0 0 0 0 0 0
0 0 0 0 0 0 0 0 0
0 0 0 0 0 0 0 0 0
0 0 0 0 0 0 0 0 0
0 0 0 0 0 0 0 0 0
0 0 0 0 0 0 0 0 0
0 0 0 0 0 0 0 0 0
0 0 0 0 0 0 0 0 0
0 0 0 0 0 0 0 0 0
0 0 0 0 0 0 0 0 0
0 0 0 0 0 0 0 0 0
0 0 0 0 0 0 0 0 0
0 0 0 0 0 0 0 0 0
0 0 0 0 0 0 0 0 0
0 0 0 0 0 0 0 0 0
0 0 0 0 0 0 0 0 0
0 0 0 0 0 0 0 0 0
0 0 0 0 0 0 0 0 0
0 0 0 0 0 0 0 0 0
0 0 0 0 0 0 0 0 0
0 0 0 0 0 0 0 0 0
0 0 0 0 0 0 0 0 0
0 0 0 0 0 0 0 0 0
0 0 0 0 0 0 0 0 0
0 0 0 0 0 0 0 0 0
0 0 0 0 0 0 0 0 0
0 0 0 0 0 0 0 0 0
0 0 0 0 0 0 0 0 0
0 0 0 0 0 0 0 0 0
0 0 0 0 0 0 0 0 0
0 0 0 0 0 0 0 0 0
0 0 0 0 0 0 0 0 0
0 0 0 0 0 0 0 0 0
0 0 0 0 0 0 0 0 0
0 0 0 0 0 0 0 0 0
0 0 0 0 0 0 0 0 0
0 0 0 0 0 0 0 0 0
0 0 0 0 0 0 0 0 0
0 0 0 0 0 0 0 0 0
0 0 0 0 0 0 0 0 0
0 0 0 0 0 0 0 0 0
0 0 0 0 0 0 0 0 0
0 0 0 0 0 0 0 0 0
0 0 0 0 0 0 0 0 0
0 0 0 0 0 0 0 0 0
0 0 0 0 0 0 0 0 0
0 0 0 0 0 0 0 0 0
0 0 0 0 0 0 0 0 0
0 0 0 0 0 0 0 0 0
0 0 0 0 0 0 0 0 0
0 0 0 0 0 0 0 0 0
0 0 0 0 0 0 0 0 0
0 0 0 0 0 0 0 0 0
0 0 0 0 0 0 0 0 0
0 0 0 0 0 0 0 0 0
0 0 0 0 0 0 0 0 0
0 0 0 0 0 0 0 0 0
0 0 0 0 0 0 0 0 0
0 0 0 0 0 0 0 0 0
0 0 0 0 0 0 0 0 0
0 0 0 0 0 0 0 0 0
0 0 0 0 0 0 0 0 0
0 0 0 0 0 0 0 0 0
0 0 0 0 0 0 0 0 0
0 0 0 0 0 0 0 0 0
0 0 0 0 0 0 0 0 0
0 0 0 0 0 0 0 0 0
0 0 0 0 0 0 0 0 0
0 0 0 0 0 0 0 0 0
0 0 0 0 0 0 0 0 0
0 0 0 0 0 0 0 0 0
0 0 0 0 0 0 0 0 0
0 0 0 0 0 0 0 0 0
0 0 0 0 0 0 0 0 0
0 0 0 0 0 0 0 0 0
0 0 0 0 0 0 0 0 0
0 0 0 0 0 0 0 0 0
0 0 0 0 0 0 0 0 0
0 0 0 0 0 0 0 0 0
0 0 0 0 0 0 0 0 0
0 0 0 0 0 0 0 0 0
0 0 0 0 0 0 0 0 0
0 0 0 0 0 0 0 0 0
0 0 0 0 0 0 0 0 0
0 0 0 0 0 0 0 0 0
0 0 0 0 0 0 0 0 0
0 0 0 0 0 0 0 0 0
0 0 0 0 0 0 0 0 0
0 0 0 0 0 0 0 0 0
0 0 0 0 0 0 0 0 0
0 0 0 0 0 0 0 0 0
0 0 0 0 0 0 0 0 0
0 0 0 0 0 0 0 0 0
0 0 0 0 0 0 0 0 0
0 0 0 0 0 0 0 0 0
0 0 0 0 0 0 0 0 0
0 0 0 0 0 0 0 0 0
0 0 0 0 0 0 0 0 0
0 0 0 0 0 0 0 0 0
0 0 0 0 0 0 0 0 0
0 0 0 0 0 0 0 0 0
0 0 0 0 0 0 0 0 0
0 0 0 0 0 0 0 0 0
0 0 0 0 0 0 0 0 0
0 0 0 0 0 0 0 0 0
0 0 0 0 0 0 0 0 0
0 0 0 0 0 0 0 0 0
0 0 0 0 0 0 0 0 0
0 0 0 0 0 0 0 0 0
0 0 0 0 0 0 0 0 0
0 0 0 0 0 0 0 0 0
0 0 0 0 0 0 0 0 0
0 0 0 0 0 0 0 0 0
0 0 0 0 0 0 0 0 0
0 0 0 0 0 0 0 0 0
0 0 0 0 0 0 0 0 0
0 0 0 0 0 0 0 0 0
0 0 0 0 0 0 0 0 0
0 0 0 0 0 0 0 0 0
0 0 0 0 0 0 0 0 0
0 0 0 0 0 0 0 0 0
0 0 0 0 0 0 0 0 0
0 0 0 0 0 0 0 0 0
0 0 0 0 0 0 0 0 0
0 0 0 0 0 0 0 0 0
0 0 0 0 0 0 0 0 0
0 0 0 0 0 0 0 0 0
0 0 0 0 0 0 0 0 0
0 0 0 0 0 0 0 0 0
0 0 0 0 0 0 0 0 0
0 0 0 0 0 0 0 0 0
0 0 0 0 0 0 0 0 0
0 0 0 0 0 0 0 0 0
0 0 0 0 0 0 0 0 0
0 0 0 0 0 0 0 0 0
0 0 0 0 0 0 0 0 0
0 0 0 0 0 0 0 0 0
0 0 0 0 0 0 0 0 0
0 0 0 0 0 0 0 0 0
0 0 0 0 0 0 0 0 0
0 0 0 0 0 0 0 0 0
0 0 0 0 0 0 0 0 0
0 0 0 0 0 0 0 0 0
0 0 0 0 0 0 0 0 0
0 0 0 0 0 0 0 0 0
0 0 0 0 0 0 0 0 0
0 0 0 0 0 0 0 0 0
0 0 0 0 0 0 0 0 0
0 0 0 0 0 0 0 0 0
0 0 0 0 0 0 0 0 0
0 0 0 0 0 0 0 0 0
0 0 0 0 0 0 0 0 0
0 0 0 0 0 0 0 0 0
0 0 0 0 0 0 0 0 0
0 0 0 0 0 0 0 0 0
0 0 0 0 0 0 0 0 0
0 0 0 0 0 0 0 0 0
0 0 0 0 0 0 0 0 0
0 0 0 0 0 0 0 0 0
0 0 0 0 0 0 0 0 0
0 0 0 0 0 0 0 0 0
0 0 0 0 0 0 0 0 0
0 0 0 0 0 0 0 0 0
0 0 0 0 0 0 0 0 0
0 0 0 0 0 0 0 0 0
0 0 0 0 0 0 0 0 0
0 0 0 0 0 0 0 0 0
0 0 0 0 0 0 0 0 0
0 0 0 0 0 0 0 0 0
0 0 0 0 0 0 0 0 0
0 0 0 0 0 0 0 0 0
0 0 0 0 0 0 0 0 0
0 0 0 0 0 0 0 0 0
0 0 0 0 0 0 0 0 0
0 0 0 0 0 0 0 0 0
0 0 0 0 0 0 0 0 0
0 0 0 0 0 0 0 0 0
0 0 0 0 0 0 0 0 0
0 0 0 0 0 0 0 0 0
0 0 0 0 0 0 0 0 0
0 0 0 0 0 0 0 0 0
0 0 0 0 0 0 0 0 0
SCALARS tauN double 9
LOOKUP_TABLE default
0 0 0 0 0 0 0 0 0
0 0 0 0 0 0 0 0 0
0 0 0 0 0 0 0 0 0
0 0 0 0 0 0 0 0 0
0 0 0 0 0 0 0 0 0
0 0 0 0 0 0 0 0 0
0 0 0 0 0 0 0 0 0
0 0 0 0 0 0 0 0 0
0 0 0 0 0 0 0 0 0
0 0 0 0 0 0 0 0 0
0 0 0 0 0 0 0 0 0
0 0 0 0 0 0 0 0 0
0 0 0 0 0 0 0 0 0
0 0 0 0 0 0 0 0 0
0 0 0 0 0 0 0 0 0
0 0 0 0 0 0 0 0 0
0 0 0 0 0 0 0 0 0
0 0 0 0 0 0 0 0 0
0 0 0 0 0 0 0 0 0
0 0 0 0 0 0 0 0 0
0 0 0 0 0 0 0 0 0
0 0 0 0 0 0 0 0 0
0 0 0 0 0 0 0 0 0
0 0 0 0 0 0 0 0 0
0 0 0 0 0 0 0 0 0
0 0 0 0 0 0 0 0 0
0 0 0 0 0 0 0 0 0
0 0 0 0 0 0 0 0 0
0 0 0 0 0 0 0 0 0
0 0 0 0 0 0 0 0 0
0 0 0 0 0 0 0 0 0
0 0 0 0 0 0 0 0 0
0 0 0 0 0 0 0 0 0
0 0 0 0 0 0 0 0 0
0 0 0 0 0 0 0 0 0
0 0 0 0 0 0 0 0 0
0 0 0 0 0 0 0 0 0
0 0 0 0 0 0 0 0 0
0 0 0 0 0 0 0 0 0
0 0 0 0 0 0 0 0 0
0 0 0 0 0 0 0 0 0
0 0 0 0 0 0 0 0 0
0 0 0 0 0 0 0 0 0
0 0 0 0 0 0 0 0 0
0 0 0 0 0 0 0 0 0
0 0 0 0 0 0 0 0 0
0 0 0 0 0 0 0 0 0
0 0 0 0 0 0 0 0 0
0 0 0 0 0 0 0 0 0
0 0 0 0 0 0 0 0 0
0 0 0 0 0 0 0 0 0
0 0 0 0 0 0 0 0 0
0 0 0 0 0 0 0 0 0
0 0 0 0 0 0 0 0 0
0 0 0 0 0 0 0 0 0
0 0 0 0 0 0 0 0 0
0 0 0 0 0 0 0 0 0
0 0 0 0 0 0 0 0 0
0 0 0 0 0 0 0 0 0
0 0 0 0 0 0 0 0 0
0 0 0 0 0 0 0 0 0
0 0 0 0 0 0 0 0 0
0 0 0 0 0 0 0 0 0
0 0 0 0 0 0 0 0 0
0 0 0 0 0 0 0 0 0
0 0 0 0 0 0 0 0 0
0 0 0 0 0 0 0 0 0
0 0 0 0 0 0 0 0 0
0 0 0 0 0 0 0 0 0
0 0 0 0 0 0 0 0 0
0 0 0 0 0 0 0 0 0
0 0 0 0 0 0 0 0 0
0 0 0 0 0 0 0 0 0
0 0 0 0 0 0 0 0 0
0 0 0 0 0 0 0 0 0
0 0 0 0 0 0 0 0 0
0 0 0 0 0 0 0 0 0
0 0 0 0 0 0 0 0 0
0 0 0 0 0 0 0 0 0
0 0 0 0 0 0 0 0 0
0 0 0 0 0 0 0 0 0
0 0 0 0 0 0 0 0 0
0 0 0 0 0 0 0 0 0
0 0 0 0 0 0 0 0 0
0 0 0 0 0 0 0 0 0
0 0 0 0 0 0 0 0 0
0 0 0 0 0 0 0 0 0
0 0 0 0 0 0 0 0 0
0 0 0 0 0 0 0 0 0
0 0 0 0 0 0 0 0 0
0 0 0 0 0 0 0 0 0
0 0 0 0 0 0 0 0 0
0 0 0 0 0 0 0 0 0
0 0 0 0 0 0 0 0 0
0 0 0 0 0 0 0 0 0
0 0 0 0 0 0 0 0 0
0 0 0 0 0 0 0 0 0
0 0 0 0 0 0 0 0 0
0 0 0 0 0 0 0 0 0
0 0 0 0 0 0 0 0 0
0 0 0 0 0 0 0 0 0
0 0 0 0 0 0 0 0 0
0 0 0 0 0 0 0 0 0
0 0 0 0 0 0 0 0 0
0 0 0 0 0 0 0 0 0
0 0 0 0 0 0 0 0 0
0 0 0 0 0 0 0 0 0
0 0 0 0 0 0 0 0 0
0 0 0 0 0 0 0 0 0
0 0 0 0 0 0 0 0 0
0 0 0 0 0 0 0 0 0
0 0 0 0 0 0 0 0 0
0 0 0 0 0 0 0 0 0
0 0 0 0 0 0 0 0 0
0 0 0 0 0 0 0 0 0
0 0 0 0 0 0 0 0 0
0 0 0 0 0 0 0 0 0
0 0 0 0 0 0 0 0 0
0 0 0 0 0 0 0 0 0
0 0 0 0 0 0 0 0 0
0 0 0 0 0 0 0 0 0
0 0 0 0 0 0 0 0 0
0 0 0 0 0 0 0 0 0
0 0 0 0 0 0 0 0 0
0 0 0 0 0 0 0 0 0
0 0 0 0 0 0 0 0 0
0 0 0 0 0 0 0 0 0
0 0 0 0 0 0 0 0 0
0 0 0 0 0 0 0 0 0
0 0 0 0 0 0 0 0 0
0 0 0 0 0 0 0 0 0
0 0 0 0 0 0 0 0 0
0 0 0 0 0 0 0 0 0
0 0 0 0 0 0 0 0 0
0 0 0 0 0 0 0 0 0
0 0 0 0 0 0 0 0 0
0 0 0 0 0 0 0 0 0
0 0 0 0 0 0 0 0 0
0 0 0 0 0 0 0 0 0
0 0 0 0 0 0 0 0 0
0 0 0 0 0 0 0 0 0
0 0 0 0 0 0 0 0 0
0 0 0 0 0 0 0 0 0
0 0 0 0 0 0 0 0 0
0 0 0 0 0 0 0 0 0
0 0 0 0 0 0 0 0 0
0 0 0 0 0 0 0 0 0
0 0 0 0 0 0 0 0 0
0 0 0 0 0 0 0 0 0
0 0 0 0 0 0 0 0 0
0 0 0 0 0 0 0 0 0
0 0 0 0 0 0 0 0 0
0 0 0 0 0 0 0 0 0
0 0 0 0 0 0 0 0 0
0 0 0 0 0 0 0 0 0
0 0 0 0 0 0 0 0 0
0 0 0 0 0 0 0 0 0
0 0 0 0 0 0 0 0 0
0 0 0 0 0 0 0 0 0
0 0 0 0 0 0 0 0 0
0 0 0 0 0 0 0 0 0
0 0 0 0 0 0 0 0 0
0.0228933 0.0237352 0.0233235 0.0241651 0.0228933 0.0237352 0.0233235 0.0241651 0
0.0243262 0.0252411 0.0247559 0.0256665 0.0243262 0.0252411 0.0247559 0.0256665 0
0.0258837 0.0268717 0.0263065 0.0272874 0.0258837 0.0268717 0.0263065 0.0272874 0
0.0275669 0.0286298 0.0279789 0.0290344 0.0275669 0.0286298 0.0279789 0.0290344 0
0.0293806 0.0305235 0.0297813 0.0309164 0.0293806 0.0305235 0.0297813 0.0309164 0
0.0313354 0.0325668 0.0317234 0.0329444 0.0313354 0.0325668 0.0317234 0.0329444 0
0.0220688 0.0229146 0.0225212 0.0233628 0.0220688 0.0229146 0.0225212 0.0233628 0
0.0235031 0.0244189 0.0239511 0.0248659 0.0235031 0.0244189 0.0239511 0.0248659 0
0.0250595 0.0260535 0.0255064 0.0264965 0.0250595 0.0260535 0.0255064 0.0264965 0
0.0267496 0.0278218 0.0271906 0.0282566 0.0267496 0.0278218 0.0271906 0.0282566 0
0.0285758 0.0297317 0.0290069 0.0301539 0.0285758 0.0297317 0.0290069 0.0301539 0
0.0305499 0.0317994 0.0309663 0.0322039 0.0305499 0.0317994 0.0309663 0.0322039 0
0.0212093 0.0220556 0.0216811 0.0225268 0.0212093 0.0220556 0.0216811 0.0225268 0
0.0226405 0.0235578 0.0231122 0.0240272 0.0226405 0.0235578 0.0231122 0.0240272 0
0.0241956 0.025193 0.0246647 0.0256593 0.0241956 0.025193 0.0246647 0.0256593 0
0.0258883 0.0269683 0.0263533 0.0274278 0.0258883 0.0269683 0.0263533 0.0274278 0
0.0277246 0.0288927 0.028181 0.029341 0.0277246 0.0288927 0.028181 0.029341 0
0.0297165 0.0309834 0.0301598 0.0314156 0.0297165 0.0309834 0.0301598 0.0314156 0
0.0318835 0.0332606 0.0323081 0.0336702 0.0318835 0.0332606 0.0323081 0.0336702 0
0.0342649 0.0358151 0.0346632 0.0361919 0.0342649 0.0358151 0.0346632 0.0361919 0
0.0369696 0.0387535 0.0373303 0.0390859 0.0369696 0.0387535 0.0373303 0.0390859 0
0.0203132 0.0211594 0.0208065 0.0216516 0.0203132 0.0211594 0.0208065 0.0216516 0
0.0217397 0.0226572 0.0222328 0.0231494 0.0217397 0.0226572 0.0222328 0.0231494 0
0.0232911 0.0242909 0.0237838 0.0247812 0.0232911 0.0242909 0.0237838 0.0247812 0
0.0249844 0.0260706 0.0254739 0.0265555 0.0249844 0.0260706 0.0254739 0.0265555 0
0.0268281 0.0280077 0.0273105 0.0284823 0.0268281 0.0280077 0.0273105 0.0284823 0
0.0288367 0.0301213 0.0293063 0.0305793 0.0288367 0.0301213 0.0293063 0.0305793 0
0.0310311 0.0324326 0.0314815 0.0328677 0.0310311 0.0324326 0.0314815 0.0328677 0
0.0334527 0.0350372 0.0338768 0.0354405 0.0334527 0.0350372 0.0338768 0.0354405 0
0.0362151 0.0380438 0.0366032 0.0384053 0.0362151 0.0380438 0.0366032 0.0384053 0
0.0193818 0.0202244 0.0198952 0.0207394 0.0193818 0.0202244 0.0198952 0.0207394 0
0.0207988 0.0217163 0.0213156 0.0222319 0.0207988 0.0217163 0.0213156 0.0222319 0
0.0223457 0.0233466 0.0228621 0.0238614 0.0223457 0.0233466 0.0228621 0.0238614 0
0.0240369 0.0251279 0.0245517 0.0256389 0.0240369 0.0251279 0.0245517 0.0256389 0
0.0258853 0.0270747 0.0263945 0.0275772 0.0258853 0.0270747 0.0263945 0.0275772 0
0.0279076 0.0292084 0.0284061 0.0296964 0.0279076 0.0292084 0.0284061 0.0296964 0
0.0301271 0.0315521 0.0306082 0.0320184 0.0301271 0.0315521 0.0306082 0.0320184 0
0.0325878 0.0342072 0.0330432 0.0346411 0.0325878 0.0342072 0.0330432 0.0346411 0
0.0354077 0.0372791 0.0358267 0.0376724 0.0354077 0.0372791 0.0358267 0.0376724 0
0.0184112 0.019251 0.0189483 0.0197883 0.0184112 0.019251 0.0189483 0.0197883 0
0.019819 0.0207348 0.0203582 0.0212742 0.019819 0.0207348 0.0203582 0.0212742 0
0.0213584 0.0223593 0.0218994 0.0228992 0.0213584 0.0223593 0.0218994 0.0228992 0
0.0230452 0.0241389 0.0235858 0.024677 0.0230452 0.0241389 0.0235858 0.024677 0
0.0248944 0.0260913 0.0254317 0.0266233 0.0248944 0.0260913 0.0254317 0.0266233 0
0.0269264 0.0282416 0.0274553 0.0287612 0.0269264 0.0282416 0.0274553 0.0287612 0
0.029168 0.0306159 0.0296811 0.0311146 0.029168 0.0306159 0.0296811 0.0311146 0
0.0316661 0.0333187 0.0321546 0.0337871 0.0316661 0.0333187 0.0321546 0.0337871 0
0.0345411 0.0364557 0.034995 0.0368833 0.0345411 0.0364557 0.034995 0.0368833 0
0.0174027 0.0182383 0.0179617 0.0187989 0.0174027 0.0182383 0.0179617 0.0187989 0
0.0187989 0.0197123 0.0193621 0.0202758 0.0187989 0.0197123 0.0193621 0.0202758 0
0.0203292 0.0213285 0.0208948 0.021894 0.0203292 0.0213285 0.0208948 0.021894 0
0.0220085 0.0231029 0.0225756 0.0236686 0.0220085 0.0231029 0.0225756 0.0236686 0
0.0238544 0.0250558 0.0244207 0.0256186 0.0238544 0.0250558 0.0244207 0.0256186 0
0.0258909 0.0272181 0.0264518 0.0277711 0.0258909 0.0272181 0.0264518 0.0277711 0
0.0281505 0.02962 0.0286981 0.0301541 0.0281505 0.02962 0.0286981 0.0301541 0
0.0306837 0.0323689 0.031208 0.0328731 0.0306837 0.0323689 0.031208 0.0328731 0
0.0336123 0.0355691 0.0341025 0.0360339 0.0336123 0.0355691 0.0341025 0.0360339 0
0.037335 0.0404407 0.0377791 0.0408467 0.037335 0.0404407 0.0377791 0.0408467 0
0.0150979 0.0158565 0.0156725 0.0164334 0.0150979 0.0158565 0.0156725 0.0164334 0
0.0163576 0.0171864 0.0169382 0.0177701 0.0163576 0.0171864 0.0169382 0.0177701 0
0.0177382 0.0186476 0.0183255 0.0192362 0.0177382 0.0186476 0.0183255 0.0192362 0
0.0192566 0.0202526 0.0198481 0.020845 0.0192566 0.0202526 0.0198481 0.020845 0
0.0209253 0.0220182 0.0215202 0.0226129 0.0209253 0.0220182 0.0215202 0.0226129 0
0.0227638 0.0239667 0.0233601 0.0245612 0.0227638 0.0239667 0.0233601 0.0245612 0
0.0247994 0.0261356 0.0253935 0.0267235 0.0247994 0.0261356 0.0253935 0.0267235 0
0.0270719 0.0285606 0.0276557 0.0291324 0.0270719 0.0285606 0.0276557 0.0291324 0
0.0296366 0.0313543 0.0301993 0.031897 0.0296366 0.0313543 0.0301993 0.031897 0
0.0326189 0.0346191 0.0331472 0.0351208 0.0326189 0.0346191 0.0331472 0.0351208 0
0.0364166 0.0395829 0.0368982 0.0400289 0.0364166 0.0395829 0.0368982 0.0400289 0
0.0420598 0.045905 0.0424766 0.0462708 0.0420598 0.045905 0.0424766 0.0462708 0
0.0152754 0.0161009 0.0158783 0.016704 0.0152754 0.0161009 0.0158783 0.016704 0
0.0166443 0.0175476 0.0172504 0.0181564 0.0166443 0.0175476 0.0172504 0.0181564 0
0.0181468 0.0191363 0.0187596 0.0197522 0.0181468 0.0191363 0.0187596 0.0197522 0
0.0197995 0.0208884 0.0204192 0.0215094 0.0197995 0.0208884 0.0204192 0.0215094 0
0.0216256 0.0228261 0.0222498 0.0234509 0.0216256 0.0228261 0.0222498 0.0234509 0
0.0236528 0.0249925 0.0242794 0.0256165 0.0236528 0.0249925 0.0242794 0.0256165 0
0.0259279 0.027429 0.0265509 0.0280445 0.0259279 0.027429 0.0265509 0.0280445 0
0.028515 0.0302664 0.0291229 0.0308533 0.028515 0.0302664 0.0291229 0.0308533 0
0.0315537 0.0336013 0.0321252 0.0341436 0.0315537 0.0336013 0.0321252 0.0341436 0
0.0354315 0.0386585 0.0359527 0.0391434 0.0354315 0.0386585 0.0359527 0.0391434 0
0.0414687 0.0461825 0.0417151 0.0458054 0.0414687 0.0461825 0.0417151 0.0458054 0
0 0 0 0 0 0 0 0 0
0 0 0 0 0 0 0 0 0
0 0 0 0 0 0 0 0 0
0 0 0 0 0 0 0 0 0
0 0 0 0 0 0 0 0 0
0 0 0 0 0 0 0 0 0
0 0 0 0 0 0 0 0 0
0 0 0 0 0 0 0 0 0
0 0 0 0 0 0 0 0 0
0 0 0 0 0 0 0 0 0
0 0 0 0 0 0 0 0 0
0 0 0 0 0 0 0 0 0
0 0 0 0 0 0 0 0 0
0 0 0 0 0 0 0 0 0
0 0 0 0 0 0 0 0 0
0 0 0 0 0 0 0 0 0
0 0 0 0 0 0 0 0 0
0 0 0 0 0 0 0 0 0
0 0 0 0 0 0 0 0 0
0 0 0 0 0 0 0 0 0
0 0 0 0 0 0 0 0 0
0 0 0 0 0 0 0 0 0
0 0 0 0 0 0 0 0 0
0 0 0 0 0 0 0 0 0
0 0 0 0 0 0 0 0 0
0 0 0 0 0 0 0 0 0
0 0 0 0 0 0 0 0 0
0 0 0 0 0 0 0 0 0
0 0 0 0 0 0 0 0 0
0 0 0 0 0 0 0 0 0
0 0 0 0 0 0 0 0 0
0 0 0 0 0 0 0 0 0
0 0 0 0 0 0 0 0 0
0 0 0 0 0 0 0 0 0
0 0 0 0 0 0 0 0 0
0 0 0 0 0 0 0 0 0
0 0 0 0 0 0 0 0 0
0 0 0 0 0 0 0 0 0
0 0 0 0 0 0 0 0 0
0 0 0 0 0 0 0 0 0
0 0 0 0 0 0 0 0 0
0 0 0 0 0 0 0 0 0
0 0 0 0 0 0 0 0 0
0 0 0 0 0 0 0 0 0
0 0 0 0 0 0 0 0 0
0 0 0 0 0 0 0 0 0
0 0 0 0 0 0 0 0 0
0 0 0 0 0 0 0 0 0
0 0 0 0 0 0 0 0 0
0 0 0 0 0 0 0 0 0
0 0 0 0 0 0 0 0 0
0 0 0 0 0 0 0 0 0
0 0 0 0 0 0 0 0 0
0 0 0 0 0 0 0 0 0
0 0 0 0 0 0 0 0 0
0 0 0 0 0 0 0 0 0
0 0 0 0 0 0 0 0 0
0 0 0 0 0 0 0 0 0
0 0 0 0 0 0 0 0 0
0 0 0 0 0 0 0 0 0
0 0 0 0 0 0 0 0 0
0 0 0 0 0 0 0 0 0
0 0 0 0 0 0 0 0 0
0 0 0 0 0 0 0 0 0
0 0 0 0 0 0 0 0 0
0 0 0 0 0 0 0 0 0
0 0 0 0 0 0 0 0 0
0 0 0 0 0 0 0 0 0
0 0 0 0 0 0 0 0 0
0 0 0 0 0 0 0 0 0
0 0 0 0 0 0 0 0 0
0 0 0 0 0 0 0 0 0
0 0 0 0 0 0 0 0 0
0 0 0 0 0 0 0 0 0
0 0 0 0 0 0 0 0 0
0 0 0 0 0 0 0 0 0
0 0 0 0 0 0 0 0 0
0 0 0 0 0 0 0 0 0
0 0 0 0 0 0 0 0 0
0 0 0 0 0 0 0 0 0
0 0 0 0 0 0 0 0 0
0 0 0 0 0 0 0 0 0
0 0 0 0 0 0 0 0 0
0 0 0 0 0 0 0 0 0
0 0 0 0 0 0 0 0 0
0 0 0 0 0 0 0 0 0
0 0 0 0 0 0 0 0 0
0 0 0 0 0 0 0 0 0
0 0 0 0 0 0 0 0 0
0 0 0 0 0 0 0 0 0
0 0 0 0 0 0 0 0 0
0 0 0 0 0 0 0 0 0
0 0 0 0 0 0 0 0 0
0 0 0 0 0 0 0 0 0
0 0 0 0 0 0 0 0 0
0 0 0 0 0 0 0 0 0
0 0 0 0 0 0 0 0 0
0 0 0 0 0 0 0 0 0
0 0 0 0 0 0 0 0 0
0 0 0 0 0 0 0 0 0
0 0 0 0 0 0 0 0 0
0 0 0 0 0 0 0 0 0
0 0 0 0 0 0 0 0 0
0 0 0 0 0 0 0 0 0
0 0 0 0 0 0 0 0 0
0 0 0 0 0 0 0 0 0
0 0 0 0 0 0 0 0 0
0 0 0 0 0 0 0 0 0
0 0 0 0 0 0 0 0 0
0 0 0 0 0 0 0 0 0
0 0 0 0 0 0 0 0 0
0 0 0 0 0 0 0 0 0
0 0 0 0 0 0 0 0 0
0 0 0 0 0 0 0 0 0
0 0 0 0 0 0 0 0 0
0 0 0 0 0 0 0 0 0
0 0 0 0 0 0 0 0 0
0 0 0 0 0 0 0 0 0
0 0 0 0 0 0 0 0 0
0 0 0 0 0 0 0 0 0
0 0 0 0 0 0 0 0 0
0 0 0 0 0 0 0 0 0
0 0 0 0 0 0 0 0 0
0 0 0 0 0 0 0 0 0
0 0 0 0 0 0 0 0 0
0 0 0 0 0 0 0 0 0
0 0 0 0 0 0 0 0 0
0 0 0 0 0 0 0 0 0
0 0 0 0 0 0 0 0 0
0 0 0 0 0 0 0 0 0
0 0 0 0 0 0 0 0 0
0 0 0 0 0 0 0 0 0
0 0 0 0 0 0 0 0 0
0 0 0 0 0 0 0 0 0
0 0 0 0 0 0 0 0 0
0 0 0 0 0 0 0 0 0
0 0 0 0 0 0 0 0 0
0 0 0 0 0 0 0 0 0
0 0 0 0 0 0 0 0 0
0 0 0 0 0 0 0 0 0
0 0 0 0 0 0 0 0 0
0 0 0 0 0 0 0 0 0
0 0 0 0 0 0 0 0 0
0 0 0 0 0 0 0 0 0
0 0 0 0 0 0 0 0 0
0 0 0 0 0 0 0 0 0
0 0 0 0 0 0 0 0 0
0 0 0 0 0 0 0 0 0
0 0 0 0 0 0 0 0 0
0 0 0 0 0 0 0 0 0
0 0 0 0 0 0 0 0 0
0 0 0 0 0 0 0 0 0
0 0 0 0 0 0 0 0 0
0 0 0 0 0 0 0 0 0
0 0 0 0 0 0 0 0 0
0 0 0 0 0 0 0 0 0
0 0 0 0 0 0 0 0 0
0 0 0 0 0 0 0 0 0
0 0 0 0 0 0 0 0 0
0 0 0 0 0 0 0 0 0
0 0 0 0 0 0 0 0 0
0 0 0 0 0 0 0 0 0
0 0 0 0 0 0 0 0 0
0 0 0 0 0 0 0 0 0
0 0 0 0 0 0 0 0 0
0 0 0 0 0 0 0 0 0
0 0 0 0 0 0 0 0 0
0 0 0 0 0 0 0 0 0
0 0 0 0 0 0 0 0 0
0 0 0 0 0 0 0 0 0
0 0 0 0 0 0 0 0 0
0 0 0 0 0 0 0 0 0
0 0 0 0 0 0 0 0 0
0 0 0 0 0 0 0 0 0
0 0 0 0 0 0 0 0 0
0 0 0 0 0 0 0 0 0
0 0 0 0 0 0 0 0 0
0 0 0 0 0 0 0 0 0
0 0 0 0 0 0 0 0 0
0 0 0 0 0 0 0 0 0
0 0 0 0 0 0 0 0 0
0 0 0 0 0 0 0 0 0
0 0 0 0 0 0 0 0 0
0 0 0 0 0 0 0 0 0
0 0 0 0 0 0 0 0 0
0 0 0 0 0 0 0 0 0
0 0 0 0 0 0 0 0 0
0 0 0 0 0 0 0 0 0
0 0 0 0 0 0 0 0 0
0 0 0 0 0 0 0 0 0
0 0 0 0 0 0 0 0 0
0 0 0 0 0 0 0 0 0
0 0 0 0 0 0 0 0 0
0 0 0 0 0 0 0 0 0
0 0 0 0 0 0 0 0 0
0 0 0 0 0 0 0 0 0
0 0 0 0 0 0 0 0 0
0 0 0 0 0 0 0 0 0
0 0 0 0 0 0 0 0 0
0 0 0 0 0 0 0 0 0
0 0 0 0 0 0 0 0 0
0 0 0 0 0 0 0 0 0
0 0 0 0 0 0 0 0 0
0 0 0 0 0 0 0 0 0
0 0 0 0 0 0 0 0 0
0 0 0 0 0 0 0 0 0
0 0 0 0 0 0 0 0 0
0 0 0 0 0 0 0 0 0
0 0 0 0 0 0 0 0 0
0 0 0 0 0 0 0 0 0
0 0 0 0 0 0 0 0 0
0 0 0 0 0 0 0 0 0
0 0 0 0 0 0 0 0 0
0 0 0 0 0 0 0 0 0
0 0 0 0 0 0 0 0 0
0 0 0 0 0 0 0 0 0
0 0 0 0 0 0 0 0 0
0 0 0 0 0 0 0 0 0
0 0 0 0 0 0 0 0 0
0 0 0 0 0 0 0 0 0
0 0 0 0 0 0 0 0 0
0 0 0 0 0 0 0 0 0
0 0 0 0 0 0 0 0 0
0 0 0 0 0 0 0 0 0
0 0 0 0 0 0 0 0 0
0 0 0 0 0 0 0 0 0
0 0 0 0 0 0 0 0 0
0 0 0 0 0 0 0 0 0
0 0 0 0 0 0 0 0 0
0 0 0 0 0 0 0 0 0
0 0 0 0 0 0 0 0 0
0 0 0 0 0 0 0 0 0
0 0 0 0 0 0 0 0 0
0 0 0 0 0 0 0 0 0
0 0 0 0 0 0 0 0 0
0 0 0 0 0 0 0 0 0
0 0 0 0 0 0 0 0 0
0 0 0 0 0 0 0 0 0
0 0 0 0 0 0 0 0 0
0 0 0 0 0 0 0 0 0
0 0 0 0 0 0 0 0 0
0 0 0 0 0 0 0 0 0
0 0 0 0 0 0 0 0 0
0 0 0 0 0 0 0 0 0
0 0 0 0 0 0 0 0 0
0 0 0 0 0 0 0 0 0
0 0 0 0 0 0 0 0 0
0 0 0 0 0 0 0 0 0
0 0 0 0 0 0 0 0 0
0 0 0 0 0 0 0 0 0
0 0 0 0 0 0 0 0 0
0 0 0 0 0 0 0 0 0
0 0 0 0 0 0 0 0 0
0 0 0 0 0 0 0 0 0
0 0 0 0 0 0 0 0 0
0 0 0 0 0 0 0 0 0
0 0 0 0 0 0 0 0 0
0 0 0 0 0 0 0 0 0
0 0 0 0 0 0 0 0 0
0 0 0 0 0 0 0 0 0
0 0 0 0 0 0 0 0 0
0 0 0 0 0 0 0 0 0
0 0 0 0 0 0 0 0 0
0 0 0 0 0 0 0 0 0
0 0 0 0 0 0 0 0 0
0 0 0 0 0 0 0 0 0
0 0 0 0 0 0 0 0 0
0 0 0 0 0 0 0 0 0
0 0 0 0 0 0 0 0 0
0 0 0 0 0 0 0 0 0
0 0 0 0 0 0 0 0 0
0 0 0 0 0 0 0 0 0
0 0 0 0 0 0 0 0 0
0 0 0 0 0 0 0 0 0
0 0 0 0 0 0 0 0 0
0 0 0 0 0 0 0 0 0
0 0 0 0 0 0 0 0 0
0 0 0 0 0 0 0 0 0
0 0 0 0 0 0 0 0 0
0 0 0 0 0 0 0 0 0
0 0 0 0 0 0 0 0 0
0 0 0 0 0 0 0 0 0
0 0 0 0 0 0 0 0 0
0 0 0 0 0 0 0 0 0
0 0 0 0 0 0 0 0 0
0 0 0 0 0 0 0 0 0
0 0 0 0 0 0 0 0 0
0 0 0 0 0 0 0 0 0
0 0 0 0 0 0 0 0 0
0 0 0 0 0 0 0 0 0
0 0 0 0 0 0 0 0 0
0 0 0 0 0 0 0 0 0
0 0 0 0 0 0 0 0 0
0 0 0 0 0 0 0 0 0
0 0 0 0 0 0 0 0 0
0 0 0 0 0 0 0 0 0
0 0 0 0 0 0 0 0 0
0 0 0 0 0 0 0 0 0
0 0 0 0 0 0 0 0 0
0 0 0 0 0 0 0 0 0
0 0 0 0 0 0 0 0 0
0 0 0 0 0 0 0 0 0
0 0 0 0 0 0 0 0 0
0 0 0 0 0 0 0 0 0
0 0 0 0 0 0 0 0 0
0 0 0 0 0 0 0 0 0
0 0 0 0 0 0 0 0 0
0 0 0 0 0 0 0 0 0
0 0 0 0 0 0 0 0 0
0 0 0 0 0 0 0 0 0
0 0 0 0 0 0 0 0 0
0 0 0 0 0 0 0 0 0
0 0 0 0 0 0 0 0 0
0 0 0 0 0 0 0 0 0
0 0 0 0 0 0 0 0 0
0 0 0 0 0 0 0 0 0
0 0 0 0 0 0 0 0 0
0 0 0 0 0 0 0 0 0
0 0 0 0 0 0 0 0 0
0 0 0 0 0 0 0 0 0
0 0 0 0 0 0 0 0 0
0 0 0 0 0 0 0 0 0
0 0 0 0 0 0 0 0 0
0 0 0 0 0 0 0 0 0
0 0 0 0 0 0 0 0 0
0 0 0 0 0 0 0 0 0
0 0 0 0 0 0 0 0 0
0 0 0 0 0 0 0 0 0
0 0 0 0 0 0 0 0 0
0 0 0 0 0 0 0 0 0
0 0 0 0 0 0 0 0 0
0 0 0 0 0 0 0 0 0
0 0 0 0 0 0 0 0 0
0 0 0 0 0 0 0 0 0
0 0 0 0 0 0 0 0 0
0 0 0 0 0 0 0 0 0
0 0 0 0 0 0 0 0 0
0 0 0 0 0 0 0 0 0
0 0 0 0 0 0 0 0 0
0 0 0 0 0 0 0 0 0
0 0 0 0 0 0 0 0 0
0 0 0 0 0 0 0 0 0
0 0 0 0 0 0 0 0 0
0 0 0 0 0 0 0 0 0
0 0 0 0 0 0 0 0 0
0 0 0 0 0 0 0 0 0
0 0 0 0 0 0 0 0 0
0 0 0 0 0 0 0 0 0
0 0 0 0 0 0 0 0 0
0 0 0 0 0 0 0 0 0
0 0 0 0 0 0 0 0 0
0 0 0 0 0 0 0 0 0
0 0 0 0 0 0 0 0 0
0 0 0 0 0 0 0 0 0
0 0 0 0 0 0 0 0 0
0 0 0 0 0 0 0 0 0
0 0 0 0 0 0 0 0 0
0 0 0 0 0 0 0 0 0
0 0 0 0 0 0 0 0 0
0 0 0 0 0 0 0 0 0
0 0 0 0 0 0 0 0 0
0 0 0 0 0 0 0 0 0
0 0 0 0 0 0 0 0 0
0 0 0 0 0 0 0 0 0
0 0 0 0 0 0 0 0 0
0 0 0 0 0 0 0 0 0
0 0 0 0 0 0 0 0 0
0 0 0 0 0 0 0 0 0
0 0 0 0 0 0 0 0 0
0 0 0 0 0 0 0 0 0
0 0 0 0 0 0 0 0 0
0 0 0 0 0 0 0 0 0
0 0 0 0 0 0 0 0 0
0 0 0 0 0 0 0 0 0
0 0 0 0 0 0 0 0 0
0 0 0 0 0 0 0 0 0
0 0 0 0 0 0 0 0 0
0 0 0 0 0 0 0 0 0
0 0 0 0 0 0 0 0 0
0 0 0 0 0 0 0 0 0
0 0 0 0 0 0 0 0 0
0 0 0 0 0 0 0 0 0
0 0 0 0 0 0 0 0 0
0 0 0 0 0 0 0 0 0
0 0 0 0 0 0 0 0 0
0 0 0 0 0 0 0 0 0
0 0 0 0 0 0 0 0 0
0 0 0 0 0 0 0 0 0
0 0 0 0 0 0 0 0 0
0 0 0 0 0 0 0 0 0
0 0 0 0 0 0 0 0 0
0 0 0 0 0 0 0 0 0
0 0 0 0 0 0 0 0 0
0 0 0 0 0 0 0 0 0
0 0 0 0 0 0 0 0 0
0 0 0 0 0 0 0 0 0
0 0 0 0 0 0 0 0 0
0 0 0 0 0 0 0 0 0
0 0 0 0 0 0 0 0 0
0 0 0 0 0 0 0 0 0
0 0 0 0 0 0 0 0 0
0 0 0 0 0 0 0 0 0
0 0 0 0 0 0 0 0 0
0 0 0 0 0 0 0 0 0
0 0 0 0 0 0 0 0 0
0 0 0 0 0 0 0 0 0
0 0 0 0 0 0 0 0 0
0 0 0 0 0 0 0 0 0
0 0 0 0 0 0 0 0 0
0 0 0 0 0 0 0 0 0
0 0 0 0 0 0 0 0 0
0 0 0 0 0 0 0 0 0
0 0 0 0 0 0 0 0 0
0 0 0 0 0 0 0 0 0
0 0 0 0 0 0 0 0 0
0 0 0 0 0 0 0 0 0
0 0 0 0 0 0 0 0 0
0 0 0 0 0 0 0 0 0
0 0 0 0 0 0 0 0 0
0 0 0 0 0 0 0 0 0
0 0 0 0 0 0 0 0 0
0 0 0 0 0 0 0 0 0
0 0 0 0 0 0 0 0 0
0 0 0 0 0 0 0 0 0
0 0 0 0 0 0 0 0 0
0 0 0 0 0 0 0 0 0
0 0 0 0 0 0 0 0 0
0 0 0 0 0 0 0 0 0
0 0 0 0 0 0 0 0 0
0 0 0 0 0 0 0 0 0
0 0 0 0 0 0 0 0 0
0 0 0 0 0 0 0 0 0
0 0 0 0 0 0 0 0 0
0 0 0 0 0 0 0 0 0
0 0 0 0 0 0 0 0 0
0 0 0 0 0 0 0 0 0
0 0 0 0 0 0 0 0 0
0 0 0 0 0 0 0 0 0
0 0 0 0 0 0 0 0 0
0 0 0 0 0 0 0 0 0
0 0 0 0 0 0 0 0 0
0 0 0 0 0 0 0 0 0
0 0 0 0 0 0 0 0 0
0 0 0 0 0 0 0 0 0
0 0 0 0 0 0 0 0 0
0 0 0 0 0 0 0 0 0
0 0 0 0 0 0 0 0 0
0 0 0 0 0 0 0 0 0
0 0 0 0 0 0 0 0 0
0 0 0 0 0 0 0 0 0
0 0 0 0 0 0 0 0 0
0 0 0 0 0 0 0 0 0
0 0 0 0 0 0 0 0 0
0 0 0 0 0 0 0 0 0
0 0 0 0 0 0 0 0 0
0 0 0 0 0 0 0 0 0
0 0 0 0 0 0 0 0 0
0 0 0 0 0 0 0 0 0
0 0 0 0 0 0 0 0 0
0 0 0 0 0 0 0 0 0
0 0 0 0 0 0 0 0 0
0 0 0 0 0 0 0 0 0
0 0 0 0 0 0 0 0 0
0 0 0 0 0 0 0 0 0
0 0 0 0 0 0 0 0 0
0 0 0 0 0 0 0 0 0
0 0 0 0 0 0 0 0 0
0 0 0 0 0 0 0 0 0
0 0 0 0 0 0 0 0 0
0 0 0 0 0 0 0 0 0
0 0 0 0 0 0 0 0 0
0 0 0 0 0 0 0 0 0
0 0 0 0 0 0 0 0 0
0 0 0 0 0 0 0 0 0
0 0 0 0 0 0 0 0 0
0 0 0 0 0 0 0 0 0
0 0 0 0 0 0 0 0 0
0 0 0 0 0 0 0 0 0
0 0 0 0 0 0 0 0 0
0 0 0 0 0 0 0 0 0
0 0 0 0 0 0 0 0 0
0 0 0 0 0 0 0 0 0
0 0 0 0 0 0 0 0 0
0 0 0 0 0 0 0 0 0
0 0 0 0 0 0 0 0 0
0 0 0 0 0 0 0 0 0
0 0 0 0 0 0 0 0 0
0 0 0 0 0 0 0 0 0
0 0 0 0 0 0 0 0 0
0 0 0 0 0 0 0 0 0
0 0 0 0 0 0 0 0 0
0 0 0 0 0 0 0 0 0
0 0 0 0 0 0 0 0 0
0 0 0 0 0 0 0 0 0
0 0 0 0 0 0 0 0 0
0 0 0 0 0 0 0 0 0
0 0 0 0 0 0 0 0 0
0 0 0 0 0 0 0 0 0
0 0 0 0 0 0 0 0 0
0 0 0 0 0 0 0 0 0
0 0 0 0 0 0 0 0 0
0 0 0 0 0 0 0 0 0
0 0 0 0 0 0 0 0 0
0 0 0 0 0 0 0 0 0
0 0 0 0 0 0 0 0 0
0 0 0 0 0 0 0 0 0
0 0 0 0 0 0 0 0 0
0 0 0 0 0 0 0 0 0
0 0 0 0 0 0 0 0 0
0 0 0 0 0 0 0 0 0
0 0 0 0 0 0 0 0 0
0 0 0 0 0 0 0 0 0
0 0 0 0 0 0 0 0 0
0 0 0 0 0 0 0 0 0
0 0 0 0 0 0 0 0 0
0 0 0 0 0 0 0 0 0
0 0 0 0 0 0 0 0 0
0 0 0 0 0 0 0 0 0
0 0 0 0 0 0 0 0 0
0 0 0 0 0 0 0 0 0
0 0 0 0 0 0 0 0 0
0 0 0 0 0 0 0 0 0
0 0 0 0 0 0 0 0 0
0 0 0 0 0 0 0 0 0
0 0 0 0 0 0 0 0 0
0 0 0 0 0 0 0 0 0
0 0 0 0 0 0 0 0 0
0 0 0 0 0 0 0 0 0
0 0 0 0 0 0 0 0 0
0 0 0 0 0 0 0 0 0
0 0 0 0 0 0 0 0 0
0 0 0 0 0 0 0 0 0
0 0 0 0 0 0 0 0 0
0 0 0 0 0 0 0 0 0
0 0 0 0 0 0 0 0 0
0 0 0 0 0 0 0 0 0
0 0 0 0 0 0 0 0 0
0 0 0 0 0 0 0 0 0
0 0 0 0 0 0 0 0 0
0 0 0 0 0 0 0 0 0
0 0 0 0 0 0 0 0 0
0 0 0 0 0 0 0 0 0
0 0 0 0 0 0 0 0 0
0 0 0 0 0 0 0 0 0
0 0 0 0 0 0 0 0 0
0 0 0 0 0 0 0 0 0
0 0 0 0 0 0 0 0 0
0 0 0 0 0 0 0 0 0
0 0 0 0 0 0 0 0 0
0 0 0 0 0 0 0 0 0
0 0 0 0 0 0 0 0 0
0 0 0 0 0 0 0 0 0
0 0 0 0 0 0 0 0 0
0 0 0 0 0 0 0 0 0
0 0 0 0 0 0 0 0 0
0 0 0 0 0 0 0 0 0
0 0 0 0 0 0 0 0 0
0 0 0 0 0 0 0 0 0
0 0 0 0 0 0 0 0 0
0 0 0 0 0 0 0 0 0
0 0 0 0 0 0 0 0 0
0 0 0 0 0 0 0 0 0
0 0 0 0 0 0 0 0 0
0 0 0 0 0 0 0 0 0
0 0 0 0 0 0 0 0 0
0 0 0 0 0 0 0 0 0
0 0 0 0 0 0 0 0 0
0 0 0 0 0 0 0 0 0
0 0 0 0 0 0 0 0 0
0 0 0 0 0 0 0 0 0
0 0 0 0 0 0 0 0 0
0 0 0 0 0 0 0 0 0
0 0 0 0 0 0 0 0 0
0 0 0 0 0 0 0 0 0
0 0 0 0 0 0 0 0 0
0 0 0 0 0 0 0 0 0
0 0 0 0 0 0 0 0 0
0 0 0 0 0 0 0 0 0
0 0 0 0 0 0 0 0 0
0 0 0 0 0 0 0 0 0
0 0 0 0 0 0 0 0 0
0 0 0 0 0 0 0 0 0
0 0 0 0 0 0 0 0 0
0 0 0 0 0 0 0 0 0
0 0 0 0 0 0 0 0 0
0 0 0 0 0 0 0 0 0
0 0 0 0 0 0 0 0 0
0 0 0 0 0 0 0 0 0
0 0 0 0 0 0 0 0 0
0 0 0 0 0 0 0 0 0
0 0 0 0 0 0 0 0 0
0 0 0 0 0 0 0 0 0
0 0 0 0 0 0 0 0 0
0 0 0 0 0 0 0 0 0
0 0 0 0 0 0 0 0 0
0 0 0 0 0 0 0 0 0
0 0 0 0 0 0 0 0 0
0 0 0 0 0 0 0 0 0
0 0 0 0 0 0 0 0 0
0 0 0 0 0 0 0 0 0
0 0 0 0 0 0 0 0 0
0 0 0 0 0 0 0 0 0
0 0 0 0 0 0 0 0 0
0 0 0 0 0 0 0 0 0
0 0 0 0 0 0 0 0 0
0 0 0 0 0 0 0 0 0
0 0 0 0 0 0 0 0 0
0 0 0 0 0 0 0 0 0
0 0 0 0 0 0 0 0 0
0 0 0 0 0 0 0 0 0
0 0 0 0 0 0 0 0 0
0 0 0 0 0 0 0 0 0
0 0 0 0 0 0 0 0 0
0 0 0 0 0 0 0 0 0
0 0 0 0 0 0 0 0 0
0 0 0 0 0 0 0 0 0
0 0 0 0 0 0 0 0 0
0 0 0 0 0 0 0 0 0
0 0 0 0 0 0 0 0 0
0 0 0 0 0 0 0 0 0
0 0 0 0 0 0 0 0 0
0 0 0 0 0 0 0 0 0
0 0 0 0 0 0 0 0 0
0 0 0 0 0 0 0 0 0
0 0 0 0 0 0 0 0 0
0 0 0 0 0 0 0 0 0
0 0 0 0 0 0 0 0 0
0 0 0 0 0 0 0 0 0
0 0 0 0 0 0 0 0 0
0 0 0 0 0 0 0 0 0
0 0 0 0 0 0 0 0 0
0 0 0 0 0 0 0 0 0
0 0 0 0 0 0 0 0 0
0 0 0 0 0 0 0 0 0
0 0 0 0 0 0 0 0 0
0 0 0 0 0 0 0 0 0
0 0 0 0 0 0 0 0 0
0 0 0 0 0 0 0 0 0
0 0 0 0 0 0 0 0 0
0 0 0 0 0 0 0 0 0
0 0 0 0 0 0 0 0 0
0 0 0 0 0 0 0 0 0
0 0 0 0 0 0 0 0 0
0 0 0 0 0 0 0 0 0
0 0 0 0 0 0 0 0 0
0 0 0 0 0 0 0 0 0
0 0 0 0 0 0 0 0 0
0 0 0 0 0 0 0 0 0
0 0 0 0 0 0 0 0 0
0 0 0 0 0 0 0 0 0
0 0 0 0 0 0 0 0 0
0 0 0 0 0 0 0 0 0
0 0 0 0 0 0 0 0 0
0 0 0 0 0 0 0 0 0
0 0 0 0 0 0 0 0 0
0 0 0 0 0 0 0 0 0
0 0 0 0 0 0 0 0 0
0 0 0 0 0 0 0 0 0
0 0 0 0 0 0 0 0 0
0 0 0 0 0 0 0 0 0
0 0 0 0 0 0 0 0 0
0 0 0 0 0 0 0 0 0
0 0 0 0 0 0 0 0 0
0 0 0 0 0 0 0 0 0
0 0 0 0 0 0 0 0 0
0 0 0 0 0 0 0 0 0
0 0 0 0 0 0 0 0 0
0 0 0 0 0 0 0 0 0
0 0 0 0 0 0 0 0 0
0 0 0 0 0 0 0 0 0
0 0 0 0 0 0 0 0 0
0 0 0 0 0 0 0 0 0
0 0 0 0 0 0 0 0 0
0 0 0 0 0 0 0 0 0
0 0 0 0 0 0 0 0 0
0 0 0 0 0 0 0 0 0
0 0 0 0 0 0 0 0 0
0 0 0 0 0 0 0 0 0
0 0 0 0 0 0 0 0 0
0 0 0 0 0 0 0 0 0
0 0 0 0 0 0 0 0 0
0 0 0 0 0 0 0 0 0
0 0 0 0 0 0 0 0 0
0 0 0 0 0 0 0 0 0
0 0 0 0 0 0 0 0 0
0 0 0 0 0 0 0 0 0
0 0 0 0 0 0 0 0 0
0 0 0 0 0 0 0 0 0
0 0 0 0 0 0 0 0 0
0 0 0 0 0 0 0 0 0
0 0 0 0 0 0 0 0 0
0 0 0 0 0 0 0 0 0
0 0 0 0 0 0 0 0 0
0 0 0 0 0 0 0 0 0
0 0 0 0 0 0 0 0 0
0 0 0 0 0 0 0 0 0
0 0 0 0 0 0 0 0 0
0 0 0 0 0 0 0 0 0
0 0 0 0 0 0 0 0 0
0 0 0 0 0 0 0 0 0
0 0 0 0 0 0 0 0 0
0 0 0 0 0 0 0 0 0
0 0 0 0 0 0 0 0 0
0 0 0 0 0 0 0 0 0
0 0 0 0 0 0 0 0 0
0 0 0 0 0 0 0 0 0
0 0 0 0 0 0 0 0 0
0 0 0 0 0 0 0 0 0
0 0 0 0 0 0 0 0 0
0 0 0 0 0 0 0 0 0
0 0 0 0 0 0 0 0 0
0 0 0 0 0 0 0 0 0
0 0 0 0 0 0 0 0 0
0 0 0 0 0 0 0 0 0
0 0 0 0 0 0 0 0 0
0 0 0 0 0 0 0 0 0
0 0 0 0 0 0 0 0 0
0 0 0 0 0 0 0 0 0
0 0 0 0 0 0 0 0 0
0 0 0 0 0 0 0 0 0
0 0 0 0 0 0 0 0 0
0 0 0 0 0 0 0 0 0
0 0 0 0 0 0 0 0 0
0 0 0 0 0 0 0 0 0
0 0 0 0 0 0 0 0 0
0 0 0 0 0 0 0 0 0
0 0 0 0 0 0 0 0 0
0 0 0 0 0 0 0 0 0
0 0 0 0 0 0 0 0 0
0.0380259 0.0396585 0.0390561 0.0406839 0.0380259 0.0396585 0.0390561 0.0406839 0
0.0408122 0.0425987 0.0418364 0.043617 0.0408122 0.0425987 0.0418364 0.043617 0
0.0438653 0.0458179 0.0448796 0.0468193 0.0438653 0.0458179 0.0448796 0.0468193 0
0.0472033 0.0493241 0.0481962 0.0502985 0.0472033 0.0493241 0.0481962 0.0502985 0
0.0508277 0.0531109 0.0517895 0.0540481 0.0508277 0.0531109 0.0517895 0.0540481 0
0.0547284 0.0571656 0.055648 0.058053 0.0547284 0.0571656 0.055648 0.058053 0
0.0360844 0.0377162 0.037166 0.0387973 0.0360844 0.0377162 0.037166 0.0387973 0
0.0388634 0.0406538 0.0399456 0.0417322 0.0388634 0.0406538 0.0399456 0.0417322 0
0.041919 0.0438859 0.0429954 0.0449527 0.041919 0.0438859 0.0429954 0.0449527 0
0.0452776 0.0474244 0.0463378 0.0484679 0.0452776 0.0474244 0.0463378 0.0484679 0
0.0489434 0.0512669 0.0499747 0.0522726 0.0489434 0.0512669 0.0499747 0.0522726 0
0.0529108 0.0554047 0.0538974 0.0563558 0.0529108 0.0554047 0.0538974 0.0563558 0
0.0340567 0.0356825 0.0351871 0.036815 0.0340567 0.0356825 0.0351871 0.036815 0
0.0368198 0.0386111 0.0379551 0.0397443 0.0368198 0.0386111 0.0379551 0.0397443 0
0.0398719 0.041849 0.0410046 0.0429743 0.0398719 0.041849 0.0410046 0.0429743 0
0.0432438 0.0454132 0.0443642 0.0465188 0.0432438 0.0454132 0.0443642 0.0465188 0
0.0469453 0.049307 0.0480402 0.050378 0.0469453 0.049307 0.0480402 0.050378 0
0.0509769 0.0535299 0.0520294 0.054546 0.0509769 0.0535299 0.0520294 0.054546 0
0.0553248 0.0580316 0.056314 0.058974 0.0553248 0.0580316 0.056314 0.058974 0
0.0599529 0.0628514 0.0608586 0.0636936 0.0599529 0.0628514 0.0608586 0.0636936 0
0.0647683 0.0674595 0.065564 0.0681818 0.0647683 0.0674595 0.065564 0.0681818 0
0.0319418 0.0335586 0.0331227 0.034743 0.0319418 0.0335586 0.0331227 0.034743 0
0.0346833 0.0364715 0.0358721 0.0376605 0.0346833 0.0364715 0.0358721 0.0376605 0
0.0377247 0.0397077 0.0389152 0.0408932 0.0377247 0.0397077 0.0389152 0.0408932 0
0.0411023 0.0432901 0.0422849 0.0444604 0.0411023 0.0432901 0.0422849 0.0444604 0
0.0448323 0.0472292 0.0459935 0.0483683 0.0448323 0.0472292 0.0459935 0.0483683 0
0.0489231 0.051533 0.0500449 0.0526202 0.0489231 0.051533 0.0500449 0.0526202 0
0.0533677 0.0561541 0.0544283 0.0571662 0.0533677 0.0561541 0.0544283 0.0571662 0
0.0581321 0.061134 0.0591079 0.0620486 0.0581321 0.061134 0.0591079 0.0620486 0
0.0631256 0.0659455 0.0639934 0.0667363 0.0631256 0.0659455 0.0639934 0.0667363 0
0.029743 0.0313433 0.0309719 0.0325807 0.029743 0.0313433 0.0309719 0.0325807 0
0.0324514 0.0342335 0.0336957 0.0354796 0.0324514 0.0342335 0.0336957 0.0354796 0
0.0354759 0.0374596 0.0367252 0.0387071 0.0354759 0.0374596 0.0367252 0.0387071 0
0.03885 0.0410512 0.0400969 0.0422887 0.03885 0.0410512 0.0400969 0.0422887 0
0.0426 0.0450281 0.0438305 0.0462389 0.0426 0.0450281 0.0438305 0.0462389 0
0.0467428 0.0494064 0.0479382 0.050569 0.0467428 0.0494064 0.0479382 0.050569 0
0.051279 0.0541437 0.0524162 0.0552338 0.051279 0.0541437 0.0524162 0.0552338 0
0.0561785 0.0592864 0.057232 0.060276 0.0561785 0.0592864 0.057232 0.060276 0
0.0613537 0.0643037 0.0622958 0.0651686 0.0613537 0.0643037 0.0622958 0.0651686 0
0.0274587 0.0290393 0.0287377 0.0303279 0.0274587 0.0290393 0.0287377 0.0303279 0
0.0301273 0.0318972 0.0314247 0.0332004 0.0301273 0.0318972 0.0314247 0.0332004 0
0.0331243 0.035103 0.0344335 0.0364136 0.0331243 0.035103 0.0344335 0.0364136 0
0.0364847 0.0386934 0.0377974 0.0400003 0.0364847 0.0386934 0.0377974 0.0400003 0
0.0402441 0.0426978 0.0415467 0.0439841 0.0402441 0.0426978 0.0415467 0.0439841 0
0.0444293 0.0471418 0.0457026 0.0483853 0.0444293 0.0471418 0.0457026 0.0483853 0
0.0490494 0.0519903 0.0502692 0.053164 0.0490494 0.0519903 0.0502692 0.053164 0
0.054081 0.0572956 0.0552188 0.0583696 0.054081 0.0572956 0.0552188 0.0583696 0
0.0594403 0.0625254 0.0604656 0.0634699 0.0594403 0.0625254 0.0604656 0.0634699 0
0.0250916 0.0266477 0.0264185 0.0279876 0.0250916 0.0266477 0.0264185 0.0279876 0
0.0277115 0.0294634 0.0290626 0.0308235 0.0277115 0.0294634 0.0290626 0.0308235 0
0.0306703 0.0326372 0.0320392 0.0340117 0.0306703 0.0326372 0.0320392 0.0340117 0
0.034005 0.0362139 0.0353846 0.037592 0.034005 0.0362139 0.0353846 0.037592 0
0.037761 0.0402329 0.0391382 0.0415982 0.037761 0.0402329 0.0391382 0.0415982 0
0.0419759 0.0447314 0.0433314 0.0460606 0.0419759 0.0447314 0.0433314 0.0460606 0
0.04667 0.0496836 0.0479778 0.0509476 0.04667 0.0496836 0.0479778 0.0509476 0
0.0518287 0.0551508 0.0530576 0.0563153 0.0518287 0.0551508 0.0530576 0.0563153 0
0.0573742 0.0605988 0.0584893 0.0616307 0.0573742 0.0605988 0.0584893 0.0616307 0
0.0630876 0.0671258 0.0640523 0.0679775 0.0630876 0.0671258 0.0640523 0.0679775 0
0.0203839 0.0217403 0.0217228 0.0230963 0.0203839 0.0217403 0.0217228 0.0230963 0
0.0226476 0.024172 0.0240193 0.0255609 0.0226476 0.024172 0.0240193 0.0255609 0
0.0252064 0.0269334 0.0266097 0.0283499 0.0252064 0.0269334 0.0266097 0.0283499 0
0.0281148 0.0300626 0.0295433 0.0315009 0.0281148 0.0300626 0.0295433 0.0315009 0
0.0314102 0.033611 0.0328574 0.0350617 0.0314102 0.033611 0.0328574 0.0350617 0
0.0351479 0.0376293 0.0366016 0.0390762 0.0351479 0.0376293 0.0366016 0.0390762 0
0.0393771 0.0421668 0.0408182 0.043587 0.0393771 0.0421668 0.0408182 0.043587 0
0.0441309 0.0472117 0.0455332 0.0485735 0.0441309 0.0472117 0.0455332 0.0485735 0
0.0494089 0.0528387 0.050737 0.0541023 0.0494089 0.0528387 0.050737 0.0541023 0
0.055143 0.0585138 0.0563558 0.059639 0.055143 0.0585138 0.0563558 0.059639 0
0.0611147 0.0653454 0.0621712 0.0662887 0.0611147 0.0653454 0.0621712 0.0662887 0
0.0662946 0.0651373 0.0671535 0.0658659 0.0662946 0.0651373 0.0671535 0.0658659 0
0.0201195 0.0216138 0.0215423 0.0230516 0.0201195 0.0216138 0.0215423 0.0230516 0
0.0226167 0.0243118 0.0240697 0.025782 0.0226167 0.0243118 0.0240697 0.025782 0
0.0254621 0.0273826 0.0269476 0.0288828 0.0254621 0.0273826 0.0269476 0.0288828 0
0.0287038 0.0308873 0.0302165 0.0324088 0.0287038 0.0308873 0.0302165 0.0324088 0
0.032406 0.0348846 0.0339354 0.0364149 0.032406 0.0348846 0.0339354 0.0364149 0
0.0366297 0.0394462 0.0381586 0.040958 0.0366297 0.0394462 0.0381586 0.040958 0
0.0414292 0.0445673 0.042927 0.046031 0.0414292 0.0445673 0.042927 0.046031 0
0.0468095 0.0503382 0.0482442 0.0517149 0.0468095 0.0503382 0.0482442 0.0517149 0
0.0527214 0.0562428 0.054049 0.0574808 0.0527214 0.0562428 0.054049 0.0574808 0
0.0589634 0.0634049 0.0601273 0.0644423 0.0589634 0.0634049 0.0601273 0.0644423 0
0.0645035 0.0635768 0.0654497 0.0643869 0.0645035 0.0635768 0.0654497 0.0643869 0
0 0 0 0 0 0 0 0 0
0 0 0 0 0 0 0 0 0
0 0 0 0 0 0 0 0 0
0 0 0 0 0 0 0 0 0
0 0 0 0 0 0 0 0 0
0 0 0 0 0 0 0 0 0
0 0 0 0 0 0 0 0 0
0 0 0 0 0 0 0 0 0
0 0 0 0 0 0 0 0 0
0 0 0 0 0 0 0 0 0
0 0 0 0 0 0 0 0 0
0 0 0 0 0 0 0 0 0
0 0 0 0 0 0 0 0 0
0 0 0 0 0 0 0 0 0
0 0 0 0 0 0 0 0 0
0 0 0 0 0 0 0 0 0
0 0 0 0 0 0 0 0 0
0 0 0 0 0 0 0 0 0
0 0 0 0 0 0 0 0 0
0 0 0 0 0 0 0 0 0
0 0 0 0 0 0 0 0 0
0 0 0 0 0 0 0 0 0
0 0 0 0 0 0 0 0 0
0 0 0 0 0 0 0 0 0
0 0 0 0 0 0 0 0 0
0 0 0 0 0 0 0 0 0
0 0 0 0 0 0 0 0 0
0 0 0 0 0 0 0 0 0
0 0 0 0 0 0 0 0 0
0 0 0 0 0 0 0 0 0
0 0 0 0 0 0 0 0 0
0 0 0 0 0 0 0 0 0
0 0 0 0 0 0 0 0 0
0 0 0 0 0 0 0 0 0
0 0 0 0 0 0 0 0 0
0 0 0 0 0 0 0 0 0
0 0 0 0 0 0 0 0 0
0 0 0 0 0 0 0 0 0
0 0 0 0 0 0 0 0 0
0 0 0 0 0 0 0 0 0
0 0 0 0 0 0 0 0 0
0 0 0 0 0 0 0 0 0
0 0 0 0 0 0 0 0 0
0 0 0 0 0 0 0 0 0
0 0 0 0 0 0 0 0 0
0 0 0 0 0 0 0 0 0
0 0 0 0 0 0 0 0 0
0 0 0 0 0 0 0 0 0
0 0 0 0 0 0 0 0 0
0 0 0 0 0 0 0 0 0
0 0 0 0 0 0 0 0 0
0 0 0 0 0 0 0 0 0
0 0 0 0 0 0 0 0 0
0 0 0 0 0 0 0 0 0
0 0 0 0 0 0 0 0 0
0 0 0 0 0 0 0 0 0
0 0 0 0 0 0 0 0 0
0 0 0 0 0 0 0 0 0
0 0 0 0 0 0 0 0 0
0 0 0 0 0 0 0 0 0
0 0 0 0 0 0 0 0 0
0 0 0 0 0 0 0 0 0
0 0 0 0 0 0 0 0 0
0 0 0 0 0 0 0 0 0
0 0 0 0 0 0 0 0 0
0 0 0 0 0 0 0 0 0
0 0 0 0 0 0 0 0 0
0 0 0 0 0 0 0 0 0
0 0 0 0 0 0 0 0 0
0 0 0 0 0 0 0 0 0
0 0 0 0 0 0 0 0 0
0 0 0 0 0 0 0 0 0
0 0 0 0 0 0 0 0 0
0 0 0 0 0 0 0 0 0
0 0 0 0 0 0 0 0 0
0 0 0 0 0 0 0 0 0
0 0 0 0 0 0 0 0 0
0 0 0 0 0 0 0 0 0
0 0 0 0 0 0 0 0 0
0 0 0 0 0 0 0 0 0
0 0 0 0 0 0 0 0 0
0 0 0 0 0 0 0 0 0
0 0 0 0 0 0 0 0 0
0 0 0 0 0 0 0 0 0
0 0 0 0 0 0 0 0 0
0 0 0 0 0 0 0 0 0
0 0 0 0 0 0 0 0 0
0 0 0 0 0 0 0 0 0
0 0 0 0 0 0 0 0 0
0 0 0 0 0 0 0 0 0
0 0 0 0 0 0 0 0 0
0 0 0 0 0 0 0 0 0
0 0 0 0 0 0 0 0 0
0 0 0 0 0 0 0 0 0
0 0 0 0 0 0 0 0 0
0 0 0 0 0 0 0 0 0
0 0 0 0 0 0 0 0 0
0 0 0 0 0 0 0 0 0
0 0 0 0 0 0 0 0 0
0 0 0 0 0 0 0 0 0
0 0 0 0 0 0 0 0 0
0 0 0 0 0 0 0 0 0
0 0 0 0 0 0 0 0 0
0 0 0 0 0 0 0 0 0
0 0 0 0 0 0 0 0 0
0 0 0 0 0 0 0 0 0
0 0 0 0 0 0 0 0 0
0 0 0 0 0 0 0 0 0
0 0 0 0 0 0 0 0 0
0 0 0 0 0 0 0 0 0
0 0 0 0 0 0 0 0 0
0 0 0 0 0 0 0 0 0
0 0 0 0 0 0 0 0 0
0 0 0 0 0 0 0 0 0
0 0 0 0 0 0 0 0 0
0 0 0 0 0 0 0 0 0
0 0 0 0 0 0 0 0 0
0 0 0 0 0 0 0 0 0
0 0 0 0 0 0 0 0 0
0 0 0 0 0 0 0 0 0
0 0 0 0 0 0 0 0 0
0 0 0 0 0 0 0 0 0
0 0 0 0 0 0 0 0 0
0 0 0 0 0 0 0 0 0
0 0 0 0 0 0 0 0 0
0 0 0 0 0 0 0 0 0
0 0 0 0 0 0 0 0 0
0 0 0 0 0 0 0 0 0
0 0 0 0 0 0 0 0 0
0 0 0 0 0 0 0 0 0
0 0 0 0 0 0 0 0 0
0 0 0 0 0 0 0 0 0
0 0 0 0 0 0 0 0 0
0 0 0 0 0 0 0 0 0
0 0 0 0 0 0 0 0 0
0 0 0 0 0 0 0 0 0
0 0 0 0 0 0 0 0 0
0 0 0 0 0 0 0 0 0
0 0 0 0 0 0 0 0 0
0 0 0 0 0 0 0 0 0
0 0 0 0 0 0 0 0 0
0 0 0 0 0 0 0 0 0
0 0 0 0 0 0 0 0 0
0 0 0 0 0 0 0 0 0
0 0 0 0 0 0 0 0 0
0 0 0 0 0 0 0 0 0
0 0 0 0 0 0 0 0 0
0 0 0 0 0 0 0 0 0
0 0 0 0 0 0 0 0 0
0 0 0 0 0 0 0 0 0
0 0 0 0 0 0 0 0 0
0 0 0 0 0 0 0 0 0
0 0 0 0 0 0 0 0 0
0 0 0 0 0 0 0 0 0
0 0 0 0 0 0 0 0 0
0 0 0 0 0 0 0 0 0
0 0 0 0 0 0 0 0 0
0 0 0 0 0 0 0 0 0
0 0 0 0 0 0 0 0 0
0 0 0 0 0 0 0 0 0
0 0 0 0 0 0 0 0 0
0 0 0 0 0 0 0 0 0
0 0 0 0 0 0 0 0 0
0 0 0 0 0 0 0 0 0
0 0 0 0 0 0 0 0 0
0 0 0 0 0 0 0 0 0
0 0 0 0 0 0 0 0 0
0 0 0 0 0 0 0 0 0
0 0 0 0 0 0 0 0 0
0 0 0 0 0 0 0 0 0
0 0 0 0 0 0 0 0 0
0 0 0 0 0 0 0 0 0
0 0 0 0 0 0 0 0 0
0 0 0 0 0 0 0 0 0
0 0 0 0 0 0 0 0 0
0 0 0 0 0 0 0 0 0
0 0 0 0 0 0 0 0 0
0 0 0 0 0 0 0 0 0
0 0 0 0 0 0 0 0 0
0 0 0 0 0 0 0 0 0
0 0 0 0 0 0 0 0 0
0 0 0 0 0 0 0 0 0
0 0 0 0 0 0 0 0 0
0 0 0 0 0 0 0 0 0
0 0 0 0 0 0 0 0 0
0 0 0 0 0 0 0 0 0
0 0 0 0 0 0 0 0 0
0 0 0 0 0 0 0 0 0
0 0 0 0 0 0 0 0 0
0 0 0 0 0 0 0 0 0
0 0 0 0 0 0 0 0 0
0 0 0 0 0 0 0 0 0
0 0 0 0 0 0 0 0 0
0 0 0 0 0 0 0 0 0
0 0 0 0 0 0 0 0 0
0 0 0 0 0 0 0 0 0
0 0 0 0 0 0 0 0 0
0 0 0 0 0 0 0 0 0
0 0 0 0 0 0 0 0 0
0 0 0 0 0 0 0 0 0
0 0 0 0 0 0 0 0 0
0 0 0 0 0 0 0 0 0
0 0 0 0 0 0 0 0 0
0 0 0 0 0 0 0 0 0
0 0 0 0 0 0 0 0 0
0 0 0 0 0 0 0 0 0
0 0 0 0 0 0 0 0 0
0 0 0 0 0 0 0 0 0
0 0 0 0 0 0 0 0 0
0 0 0 0 0 0 0 0 0
0 0 0 0 0 0 0 0 0
0 0 0 0 0 0 0 0 0
0 0 0 0 0 0 0 0 0
0 0 0 0 0 0 0 0 0
0 0 0 0 0 0 0 0 0
0 0 0 0 0 0 0 0 0
0 0 0 0 0 0 0 0 0
0 0 0 0 0 0 0 0 0
0 0 0 0 0 0 0 0 0
0 0 0 0 0 0 0 0 0
0 0 0 0 0 0 0 0 0
0 0 0 0 0 0 0 0 0
0 0 0 0 0 0 0 0 0
0 0 0 0 0 0 0 0 0
0 0 0 0 0 0 0 0 0
0 0 0 0 0 0 0 0 0
0 0 0 0 0 0 0 0 0
0 0 0 0 0 0 0 0 0
0 0 0 0 0 0 0 0 0
0 0 0 0 0 0 0 0 0
0 0 0 0 0 0 0 0 0
0 0 0 0 0 0 0 0 0
0 0 0 0 0 0 0 0 0
0 0 0 0 0 0 0 0 0
0 0 0 0 0 0 0 0 0
0 0 0 0 0 0 0 0 0
0 0 0 0 0 0 0 0 0
0 0 0 0 0 0 0 0 0
0 0 0 0 0 0 0 0 0
0 0 0 0 0 0 0 0 0
0 0 0 0 0 0 0 0 0
0 0 0 0 0 0 0 0 0
0 0 0 0 0 0 0 0 0
0 0 0 0 0 0 0 0 0
0 0 0 0 0 0 0 0 0
0 0 0 0 0 0 0 0 0
0 0 0 0 0 0 0 0 0
0 0 0 0 0 0 0 0 0
0 0 0 0 0 0 0 0 0
0 0 0 0 0 0 0 0 0
0 0 0 0 0 0 0 0 0
0 0 0 0 0 0 0 0 0
0 0 0 0 0 0 0 0 0
0 0 0 0 0 0 0 0 0
0 0 0 0 0 0 0 0 0
0 0 0 0 0 0 0 0 0
0 0 0 0 0 0 0 0 0
0 0 0 0 0 0 0 0 0
0 0 0 0 0 0 0 0 0
0 0 0 0 0 0 0 0 0
0 0 0 0 0 0 0 0 0
0 0 0 0 0 0 0 0 0
0 0 0 0 0 0 0 0 0
0 0 0 0 0 0 0 0 0
0 0 0 0 0 0 0 0 0
0 0 0 0 0 0 0 0 0
0 0 0 0 0 0 0 0 0
0 0 0 0 0 0 0 0 0
0 0 0 0 0 0 0 0 0
0 0 0 0 0 0 0 0 0
0 0 0 0 0 0 0 0 0
0 0 0 0 0 0 0 0 0
0 0 0 0 0 0 0 0 0
0 0 0 0 0 0 0 0 0
0 0 0 0 0 0 0 0 0
0 0 0 0 0 0 0 0 0
0 0 0 0 0 0 0 0 0
0 0 0 0 0 0 0 0 0
0 0 0 0 0 0 0 0 0
0 0 0 0 0 0 0 0 0
0 0 0 0 0 0 0 0 0
0 0 0 0 0 0 0 0 0
0 0 0 0 0 0 0 0 0
0 0 0 0 0 0 0 0 0
0 0 0 0 0 0 0 0 0
0 0 0 0 0 0 0 0 0
0 0 0 0 0 0 0 0 0
0 0 0 0 0 0 0 0 0
0 0 0 0 0 0 0 0 0
0 0 0 0 0 0 0 0 0
0 0 0 0 0 0 0 0 0
0 0 0 0 0 0 0 0 0
0 0 0 0 0 0 0 0 0
0 0 0 0 0 0 0 0 0
0 0 0 0 0 0 0 0 0
0 0 0 0 0 0 0 0 0
0 0 0 0 0 0 0 0 0
0 0 0 0 0 0 0 0 0
0 0 0 0 0 0 0 0 0
0 0 0 0 0 0 0 0 0
0 0 0 0 0 0 0 0 0
0 0 0 0 0 0 0 0 0
0 0 0 0 0 0 0 0 0
0 0 0 0 0 0 0 0 0
0 0 0 0 0 0 0 0 0
0 0 0 0 0 0 0 0 0
0 0 0 0 0 0 0 0 0
0 0 0 0 0 0 0 0 0
0 0 0 0 0 0 0 0 0
0 0 0 0 0 0 0 0 0
0 0 0 0 0 0 0 0 0
0 0 0 0 0 0 0 0 0
0 0 0 0 0 0 0 0 0
0 0 0 0 0 0 0 0 0
0 0 0 0 0 0 0 0 0
0 0 0 0 0 0 0 0 0
0 0 0 0 0 0 0 0 0
0 0 0 0 0 0 0 0 0
0 0 0 0 0 0 0 0 0
0 0 0 0 0 0 0 0 0
0 0 0 0 0 0 0 0 0
0 0 0 0 0 0 0 0 0
0 0 0 0 0 0 0 0 0
0 0 0 0 0 0 0 0 0
0 0 0 0 0 0 0 0 0
0 0 0 0 0 0 0 0 0
0 0 0 0 0 0 0 0 0
0 0 0 0 0 0 0 0 0
0 0 0 0 0 0 0 0 0
0 0 0 0 0 0 0 0 0
0 0 0 0 0 0 0 0 0
0 0 0 0 0 0 0 0 0
0 0 0 0 0 0 0 0 0
0 0 0 0 0 0 0 0 0
0 0 0 0 0 0 0 0 0
0 0 0 0 0 0 0 0 0
0 0 0 0 0 0 0 0 0
0 0 0 0 0 0 0 0 0
0 0 0 0 0 0 0 0 0
0 0 0 0 0 0 0 0 0
0 0 0 0 0 0 0 0 0
0 0 0 0 0 0 0 0 0
0 0 0 0 0 0 0 0 0
0 0 0 0 0 0 0 0 0
0 0 0 0 0 0 0 0 0
0 0 0 0 0 0 0 0 0
0 0 0 0 0 0 0 0 0
0 0 0 0 0 0 0 0 0
0 0 0 0 0 0 0 0 0
0 0 0 0 0 0 0 0 0
0 0 0 0 0 0 0 0 0
0 0 0 0 0 0 0 0 0
0 0 0 0 0 0 0 0 0
0 0 0 0 0 0 0 0 0
0 0 0 0 0 0 0 0 0
0 0 0 0 0 0 0 0 0
0 0 0 0 0 0 0 0 0
0 0 0 0 0 0 0 0 0
0 0 0 0 0 0 0 0 0
0 0 0 0 0 0 0 0 0
0 0 0 0 0 0 0 0 0
0 0 0 0 0 0 0 0 0
0 0 0 0 0 0 0 0 0
0 0 0 0 0 0 0 0 0
0 0 0 0 0 0 0 0 0
0 0 0 0 0 0 0 0 0
0 0 0 0 0 0 0 0 0
0 0 0 0 0 0 0 0 0
0 0 0 0 0 0 0 0 0
0 0 0 0 0 0 0 0 0
0 0 0 0 0 0 0 0 0
0 0 0 0 0 0 0 0 0
0 0 0 0 0 0 0 0 0
0 0 0 0 0 0 0 0 0
0 0 0 0 0 0 0 0 0
0 0 0 0 0 0 0 0 0
0 0 0 0 0 0 0 0 0
0 0 0 0 0 0 0 0 0
0 0 0 0 0 0 0 0 0
0 0 0 0 0 0 0 0 0
0 0 0 0 0 0 0 0 0
0 0 0 0 0 0 0 0 0
0 0 0 0 0 0 0 0 0
0 0 0 0 0 0 0 0 0
0 0 0 0 0 0 0 0 0
0 0 0 0 0 0 0 0 0
0 0 0 0 0 0 0 0 0
0 0 0 0 0 0 0 0 0
0 0 0 0 0 0 0 0 0
0 0 0 0 0 0 0 0 0
0 0 0 0 0 0 0 0 0
0 0 0 0 0 0 0 0 0
0 0 0 0 0 0 0 0 0
0 0 0 0 0 0 0 0 0
0 0 0 0 0 0 0 0 0
0 0 0 0 0 0 0 0 0
0 0 0 0 0 0 0 0 0
0 0 0 0 0 0 0 0 0
0 0 0 0 0 0 0 0 0
0 0 0 0 0 0 0 0 0
0 0 0 0 0 0 0 0 0
0 0 0 0 0 0 0 0 0
0 0 0 0 0 0 0 0 0
0 0 0 0 0 0 0 0 0
0 0 0 0 0 0 0 0 0
0 0 0 0 0 0 0 0 0
0 0 0 0 0 0 0 0 0
0 0 0 0 0 0 0 0 0
0 0 0 0 0 0 0 0 0
0 0 0 0 0 0 0 0 0
0 0 0 0 0 0 0 0 0
0 0 0 0 0 0 0 0 0
0 0 0 0 0 0 0 0 0
0 0 0 0 0 0 0 0 0
0 0 0 0 0 0 0 0 0
0 0 0 0 0 0 0 0 0
0 0 0 0 0 0 0 0 0
0 0 0 0 0 0 0 0 0
0 0 0 0 0 0 0 0 0
0 0 0 0 0 0 0 0 0
0 0 0 0 0 0 0 0 0
0 0 0 0 0 0 0 0 0
0 0 0 0 0 0 0 0 0
0 0 0 0 0 0 0 0 0
0 0 0 0 0 0 0 0 0
0 0 0 0 0 0 0 0 0
0 0 0 0 0 0 0 0 0
0 0 0 0 0 0 0 0 0
0 0 0 0 0 0 0 0 0
0 0 0 0 0 0 0 0 0
0 0 0 0 0 0 0 0 0
0 0 0 0 0 0 0 0 0
0 0 0 0 0 0 0 0 0
0 0 0 0 0 0 0 0 0
0 0 0 0 0 0 0 0 0
0 0 0 0 0 0 0 0 0
0 0 0 0 0 0 0 0 0
0 0 0 0 0 0 0 0 0
0 0 0 0 0 0 0 0 0
0 0 0 0 0 0 0 0 0
0 0 0 0 0 0 0 0 0
0 0 0 0 0 0 0 0 0
0 0 0 0 0 0 0 0 0
0 0 0 0 0 0 0 0 0
0 0 0 0 0 0 0 0 0
0 0 0 0 0 0 0 0 0
0 0 0 0 0 0 0 0 0
0 0 0 0 0 0 0 0 0
0 0 0 0 0 0 0 0 0
0 0 0 0 0 0 0 0 0
0 0 0 0 0 0 0 0 0
0 0 0 0 0 0 0 0 0
0 0 0 0 0 0 0 0 0
0 0 0 0 0 0 0 0 0
0 0 0 0 0 0 0 0 0
0 0 0 0 0 0 0 0 0
0 0 0 0 0 0 0 0 0
0 0 0 0 0 0 0 0 0
0 0 0 0 0 0 0 0 0
0 0 0 0 0 0 0 0 0
0 0 0 0 0 0 0 0 0
0 0 0 0 0 0 0 0 0
0 0 0 0 0 0 0 0 0
0 0 0 0 0 0 0 0 0
0 0 0 0 0 0 0 0 0
0 0 0 0 0 0 0 0 0
0 0 0 0 0 0 0 0 0
0 0 0 0 0 0 0 0 0
0 0 0 0 0 0 0 0 0
0 0 0 0 0 0 0 0 0
0 0 0 0 0 0 0 0 0
0 0 0 0 0 0 0 0 0
0 0 0 0 0 0 0 0 0
0 0 0 0 0 0 0 0 0
0 0 0 0 0 0 0 0 0
0 0 0 0 0 0 0 0 0
0 0 0 0 0 0 0 0 0
0 0 0 0 0 0 0 0 0
0 0 0 0 0 0 0 0 0
0 0 0 0 0 0 0 0 0
0 0 0 0 0 0 0 0 0
0 0 0 0 0 0 0 0 0
0 0 0 0 0 0 0 0 0
0 0 0 0 0 0 0 0 0
0 0 0 0 0 0 0 0 0
0 0 0 0 0 0 0 0 0
0 0 0 0 0 0 0 0 0
0 0 0 0 0 0 0 0 0
0 0 0 0 0 0 0 0 0
0 0 0 0 0 0 0 0 0
0 0 0 0 0 0 0 0 0
0 0 0 0 0 0 0 0 0
0 0 0 0 0 0 0 0 0
0 0 0 0 0 0 0 0 0
0 0 0 0 0 0 0 0 0
0 0 0 0 0 0 0 0 0
0 0 0 0 0 0 0 0 0
0 0 0 0 0 0 0 0 0
0 0 0 0 0 0 0 0 0
0 0 0 0 0 0 0 0 0
0 0 0 0 0 0 0 0 0
0 0 0 0 0 0 0 0 0
0 0 0 0 0 0 0 0 0
0 0 0 0 0 0 0 0 0
0 0 0 0 0 0 0 0 0
0 0 0 0 0 0 0 0 0
0 0 0 0 0 0 0 0 0
0 0 0 0 0 0 0 0 0
0 0 0 0 0 0 0 0 0
0 0 0 0 0 0 0 0 0
0 0 0 0 0 0 0 0 0
0 0 0 0 0 0 0 0 0
0 0 0 0 0 0 0 0 0
0 0 0 0 0 0 0 0 0
0 0 0 0 0 0 0 0 0
0 0 0 0 0 0 0 0 0
0 0 0 0 0 0 0 0 0
0 0 0 0 0 0 0 0 0
0 0 0 0 0 0 0 0 0
0 0 0 0 0 0 0 0 0
0 0 0 0 0 0 0 0 0
0 0 0 0 0 0 0 0 0
0 0 0 0 0 0 0 0 0
0 0 0 0 0 0 0 0 0
0 0 0 0 0 0 0 0 0
0 0 0 0 0 0 0 0 0
0 0 0 0 0 0 0 0 0
0 0 0 0 0 0 0 0 0
0 0 0 0 0 0 0 0 0
0 0 0 0 0 0 0 0 0
0 0 0 0 0 0 0 0 0
0 0 0 0 0 0 0 0 0
0 0 0 0 0 0 0 0 0
0 0 0 0 0 0 0 0 0
0 0 0 0 0 0 0 0 0
0 0 0 0 0 0 0 0 0
0 0 0 0 0 0 0 0 0
0 0 0 0 0 0 0 0 0
0 0 0 0 0 0 0 0 0
0 0 0 0 0 0 0 0 0
0 0 0 0 0 0 0 0 0
0 0 0 0 0 0 0 0 0
0 0 0 0 0 0 0 0 0
0 0 0 0 0 0 0 0 0
0 0 0 0 0 0 0 0 0
0 0 0 0 0 0 0 0 0
0 0 0 0 0 0 0 0 0
0 0 0 0 0 0 0 0 0
0 0 0 0 0 0 0 0 0
0 0 0 0 0 0 0 0 0
0 0 0 0 0 0 0 0 0
0 0 0 0 0 0 0 0 0
0 0 0 0 0 0 0 0 0
0 0 0 0 0 0 0 0 0
0 0 0 0 0 0 0 0 0
0 0 0 0 0 0 0 0 0
0 0 0 0 0 0 0 0 0
0 0 0 0 0 0 0 0 0
0 0 0 0 0 0 0 0 0
0 0 0 0 0 0 0 0 0
0 0 0 0 0 0 0 0 0
0 0 0 0 0 0 0 0 0
0 0 0 0 0 0 0 0 0
0 0 0 0 0 0 0 0 0
0 0 0 0 0 0 0 0 0
0 0 0 0 0 0 0 0 0
0 0 0 0 0 0 0 0 0
0.0212247 0.0221978 0.0218005 0.022771 0.0212247 0.0221978 0.0218005 0.022771 0
0.0228889 0.0239494 0.0234618 0.0245204 0.0228889 0.0239494 0.0234618 0.0245204 0
0.0247085 0.0258741 0.0252776 0.0264357 0.0247085 0.0258741 0.0252776 0.0264357 0
0.026709 0.0279825 0.0272649 0.0285259 0.026709 0.0279825 0.0272649 0.0285259 0
0.0288935 0.030272 0.029428 0.03079 0.0288935 0.030272 0.029428 0.03079 0
0.0312523 0.0327189 0.0317593 0.0332075 0.0312523 0.0327189 0.0317593 0.0332075 0
0.0201391 0.0211097 0.0207462 0.0217181 0.0201391 0.0211097 0.0207462 0.0217181 0
0.0217969 0.022861 0.0224061 0.0234668 0.0217969 0.022861 0.0224061 0.0234668 0
0.0236205 0.0247961 0.0242243 0.0253933 0.0236205 0.0247961 0.0242243 0.0253933 0
0.0256362 0.0269266 0.0262288 0.0275088 0.0256362 0.0269266 0.0262288 0.0275088 0
0.0278481 0.0292515 0.0284227 0.0298109 0.0278481 0.0292515 0.0284227 0.0298109 0
0.0302489 0.0317507 0.0307964 0.032276 0.0302489 0.0317507 0.0307964 0.032276 0
0.0190056 0.0199717 0.0196389 0.0206067 0.0190056 0.0199717 0.0196389 0.0206067 0
0.0206536 0.0217196 0.0212901 0.0223543 0.0206536 0.0217196 0.0212901 0.0223543 0
0.0224781 0.0236614 0.0231119 0.02429 0.0224781 0.0236614 0.0231119 0.02429 0
0.0245047 0.0258095 0.0251298 0.0264255 0.0245047 0.0258095 0.0251298 0.0264255 0
0.0267396 0.028166 0.0273489 0.0287612 0.0267396 0.028166 0.0273489 0.0287612 0
0.02918 0.0307183 0.0297637 0.0312798 0.02918 0.0307183 0.0297637 0.0312798 0
0.0318132 0.0334636 0.0323577 0.0339785 0.0318132 0.0334636 0.0323577 0.0339785 0
0.034615 0.0363088 0.0351059 0.0367586 0.034615 0.0363088 0.0351059 0.0367586 0
0.0375328 0.0393811 0.0379532 0.0397571 0.0375328 0.0393811 0.0379532 0.0397571 0
0.0178242 0.0187848 0.0184853 0.0194482 0.0178242 0.0187848 0.0184853 0.0194482 0
0.0194598 0.0205246 0.0201256 0.0211905 0.0194598 0.0205246 0.0201256 0.0211905 0
0.0212797 0.0224676 0.0219461 0.0231306 0.0212797 0.0224676 0.0219461 0.0231306 0
0.0233119 0.0246283 0.0239727 0.0252816 0.0233119 0.0246283 0.0239727 0.0252816 0
0.0255655 0.0270138 0.026213 0.0276477 0.0255655 0.0270138 0.026213 0.0276477 0
0.0280438 0.0296187 0.0286665 0.0302191 0.0280438 0.0296187 0.0286665 0.0302191 0
0.0307407 0.0324437 0.0313232 0.0329943 0.0307407 0.0324437 0.0313232 0.0329943 0
0.0336321 0.0353897 0.0341595 0.0358801 0.0336321 0.0353897 0.0341595 0.0358801 0
0.0366617 0.0385924 0.0371224 0.0390034 0.0366617 0.0385924 0.0371224 0.0390034 0
0.0165988 0.0175475 0.0172845 0.01824 0.0165988 0.0175475 0.0172845 0.01824 0
0.0182124 0.0192743 0.0189095 0.0199722 0.0182124 0.0192743 0.0189095 0.0199722 0
0.0200237 0.0212126 0.0207233 0.021911 0.0200237 0.0212126 0.0207233 0.021911 0
0.0220553 0.0233807 0.0227531 0.0240724 0.0220553 0.0233807 0.0227531 0.0240724 0
0.0243233 0.025792 0.0250101 0.0264661 0.0243233 0.025792 0.0250101 0.0264661 0
0.0268367 0.028447 0.0275005 0.0290893 0.0268367 0.028447 0.0275005 0.0290893 0
0.0295949 0.031349 0.0302205 0.0319443 0.0295949 0.031349 0.0302205 0.0319443 0
0.0325743 0.0343975 0.0331462 0.0349299 0.0325743 0.0343975 0.0331462 0.0349299 0
0.0357166 0.0377266 0.0362199 0.0381839 0.0357166 0.0377266 0.0362199 0.0381839 0
0.0153254 0.0162611 0.0160398 0.0169818 0.0153254 0.0162611 0.0160398 0.0169818 0
0.0169137 0.0179679 0.0176401 0.0186983 0.0169137 0.0179679 0.0176401 0.0186983 0
0.0187086 0.0198949 0.0194426 0.0206297 0.0187086 0.0198949 0.0194426 0.0206297 0
0.0207336 0.0220649 0.0214692 0.0227963 0.0207336 0.0220649 0.0214692 0.0227963 0
0.0230105 0.0244969 0.0237385 0.0252138 0.0230105 0.0244969 0.0237385 0.0252138 0
0.0255544 0.0271972 0.0262621 0.0278853 0.0255544 0.0271972 0.0262621 0.0278853 0
0.0283691 0.0301725 0.0290415 0.0308155 0.0283691 0.0301725 0.0290415 0.0308155 0
0.0314338 0.033323 0.032054 0.0339041 0.0314338 0.033323 0.032054 0.0339041 0
0.0346909 0.0367851 0.0352415 0.037285 0.0346909 0.0367851 0.0352415 0.037285 0
0.0140059 0.0149248 0.0147467 0.0156748 0.0140059 0.0149248 0.0147467 0.0156748 0
0.0155623 0.0166046 0.0163197 0.0173683 0.0155623 0.0166046 0.0163197 0.0173683 0
0.0173335 0.0185132 0.0181025 0.0192854 0.0173335 0.0185132 0.0181025 0.0192854 0
0.0193448 0.020678 0.0201196 0.021451 0.0193448 0.020678 0.0201196 0.021451 0
0.0216238 0.023124 0.0223951 0.0238866 0.0216238 0.023124 0.0223951 0.0238866 0
0.0241913 0.0258636 0.0249465 0.026601 0.0241913 0.0258636 0.0249465 0.026601 0
0.0270572 0.0289072 0.0277803 0.0296025 0.0270572 0.0289072 0.0277803 0.0296025 0
0.0302039 0.0321601 0.0308767 0.0327929 0.0302039 0.0321601 0.0308767 0.0327929 0
0.0335793 0.0357635 0.0341801 0.0363106 0.0335793 0.0357635 0.0341801 0.0363106 0
0.0370672 0.0387049 0.0375741 0.0391491 0.0370672 0.0387049 0.0375741 0.0391491 0
0.0113162 0.0121038 0.0120607 0.0128611 0.0113162 0.0121038 0.0120607 0.0128611 0
0.012641 0.0135408 0.0134084 0.0143184 0.012641 0.0135408 0.0134084 0.0143184 0
0.0141608 0.0151879 0.0149471 0.0159823 0.0141608 0.0151879 0.0149471 0.0159823 0
0.015902 0.0170708 0.0167035 0.0178779 0.015902 0.0170708 0.0167035 0.0178779 0
0.0178918 0.0192216 0.0187036 0.0200349 0.0178918 0.0192216 0.0187036 0.0200349 0
0.0201638 0.0216734 0.0209777 0.0224812 0.0201638 0.0216734 0.0209777 0.0224812 0
0.0227467 0.0244426 0.0235495 0.0252313 0.0227467 0.0244426 0.0235495 0.0252313 0
0.0256546 0.0275486 0.0264309 0.0282986 0.0256546 0.0275486 0.0264309 0.0282986 0
0.0288797 0.0309039 0.0296078 0.0315916 0.0288797 0.0309039 0.0296078 0.0315916 0
0.0323759 0.0346547 0.0330307 0.0352532 0.0323759 0.0346547 0.0330307 0.0352532 0
0.0360258 0.0377709 0.0365832 0.0382651 0.0360258 0.0377709 0.0365832 0.0382651 0
0.0392446 0.041797 0.0396883 0.0421585 0.0392446 0.041797 0.0396883 0.0421585 0
0.011228 0.0121027 0.0120242 0.0129132 0.011228 0.0121027 0.0120242 0.0129132 0
0.0127017 0.0137094 0.0135232 0.0145415 0.0127017 0.0137094 0.0135232 0.0145415 0
0.0144052 0.0155576 0.0152466 0.0164081 0.0144052 0.0155576 0.0152466 0.0164081 0
0.016364 0.0176859 0.0172215 0.0185474 0.016364 0.0176859 0.0172215 0.0185474 0
0.0186194 0.0201296 0.0194845 0.0209943 0.0186194 0.0201296 0.0194845 0.0209943 0
0.0212049 0.0229228 0.0220669 0.023771 0.0212049 0.0229228 0.0220669 0.023771 0
0.024151 0.0260849 0.0249879 0.026898 0.024151 0.0260849 0.0249879 0.026898 0
0.0274472 0.0295348 0.0282406 0.0302911 0.0274472 0.0295348 0.0282406 0.0302911 0
0.0310583 0.0334333 0.031783 0.0341012 0.0310583 0.0334333 0.031783 0.0341012 0
0.0348757 0.0367383 0.0354997 0.0372919 0.0348757 0.0367383 0.0354997 0.0372919 0
0.038302 0.0410014 0.0388008 0.0414134 0.038302 0.0410014 0.0388008 0.0414134 0
0 0 0 0 0 0 0 0 0
0 0 0 0 0 0 0 0 0
0 0 0 0 0 0 0 0 0
0 0 0 0 0 0 0 0 0
0 0 0 0 0 0 0 0 0
0 0 0 0 0 0 0 0 0
0 0 0 0 0 0 0 0 0
0 0 0 0 0 0 0 0 0
0 0 0 0 0 0 0 0 0
0 0 0 0 0 0 0 0 0
0 0 0 0 0 0 0 0 0
0 0 0 0 0 0 0 0 0
0 0 0 0 0 0 0 0 0
0 0 0 0 0 0 0 0 0
0 0 0 0 0 0 0 0 0
0 0 0 0 0 0 0 0 0
0 0 0 0 0 0 0 0 0
0 0 0 0 0 0 0 0 0
0 0 0 0 0 0 0 0 0
0 0 0 0 0 0 0 0 0
0 0 0 0 0 0 0 0 0
0 0 0 0 0 0 0 0 0
0 0 0 0 0 0 0 0 0
0 0 0 0 0 0 0 0 0
0 0 0 0 0 0 0 0 0
0 0 0 0 0 0 0 0 0
0 0 0 0 0 0 0 0 0
0 0 0 0 0 0 0 0 0
0 0 0 0 0 0 0 0 0
0 0 0 0 0 0 0 0 0
0 0 0 0 0 0 0 0 0
0 0 0 0 0 0 0 0 0
0 0 0 0 0 0 0 0 0
0 0 0 0 0 0 0 0 0
0 0 0 0 0 0 0 0 0
0 0 0 0 0 0 0 0 0
0 0 0 0 0 0 0 0 0
0 0 0 0 0 0 0 0 0
0 0 0 0 0 0 0 0 0
0 0 0 0 0 0 0 0 0
0 0 0 0 0 0 0 0 0
0 0 0 0 0 0 0 0 0
0 0 0 0 0 0 0 0 0
0 0 0 0 0 0 0 0 0
0 0 0 0 0 0 0 0 0
0 0 0 0 0 0 0 0 0
0 0 0 0 0 0 0 0 0
0 0 0 0 0 0 0 0 0
0 0 0 0 0 0 0 0 0
0 0 0 0 0 0 0 0 0
0 0 0 0 0 0 0 0 0
0 0 0 0 0 0 0 0 0
0 0 0 0 0 0 0 0 0
0 0 0 0 0 0 0 0 0
0 0 0 0 0 0 0 0 0
0 0 0 0 0 0 0 0 0
0 0 0 0 0 0 0 0 0
0 0 0 0 0 0 0 0 0
0 0 0 0 0 0 0 0 0
0 0 0 0 0 0 0 0 0
0 0 0 0 0 0 0 0 0
0 0 0 0 0 0 0 0 0
0 0 0 0 0 0 0 0 0
0 0 0 0 0 0 0 0 0
0 0 0 0 0 0 0 0 0
0 0 0 0 0 0 0 0 0
0 0 0 0 0 0 0 0 0
0 0 0 0 0 0 0 0 0
0 0 0 0 0 0 0 0 0
0 0 0 0 0 0 0 0 0
0 0 0 0 0 0 0 0 0
0 0 0 0 0 0 0 0 0
0 0 0 0 0 0 0 0 0
0 0 0 0 0 0 0 0 0
0 0 0 0 0 0 0 0 0
0 0 0 0 0 0 0 0 0
0 0 0 0 0 0 0 0 0
0 0 0 0 0 0 0 0 0
0 0 0 0 0 0 0 0 0
0 0 0 0 0 0 0 0 0
0 0 0 0 0 0 0 0 0
0.0131629 0.0136784 0.013706 0.0142153 0.0131629 0.0136784 0.013706 0.0142153 0
0.0140173 0.0145708 0.0145508 0.0150972 0.0140173 0.0145708 0.0145508 0.0150972 0
0.0149397 0.0155437 0.0154608 0.0160534 0.0149397 0.0155437 0.0154608 0.0160534 0
0.0159467 0.0165991 0.016448 0.0170848 0.0159467 0.0165991 0.016448 0.0170848 0
0.0170319 0.0177223 0.0175068 0.0181787 0.0170319 0.0177223 0.0175068 0.0181787 0
0.0181786 0.018899 0.0186226 0.0193232 0.0181786 0.018899 0.0186226 0.0193232 0
0.0121364 0.0126601 0.0127101 0.0132282 0.0121364 0.0126601 0.0127101 0.0132282 0
0.0130028 0.0135696 0.013567 0.0141247 0.0130028 0.0135696 0.013567 0.0141247 0
0.0139456 0.0145677 0.0144948 0.0151055 0.0139456 0.0145677 0.0144948 0.0151055 0
0.0149812 0.0156568 0.0155113 0.0161728 0.0149812 0.0156568 0.0155113 0.0161728 0
0.0161041 0.0168238 0.01661 0.0173119 0.0161041 0.0168238 0.01661 0.0173119 0
0.0172998 0.0180577 0.0177745 0.018509 0.0172998 0.0180577 0.0177745 0.018509 0
0.0110602 0.0115902 0.0116617 0.0121874 0.0110602 0.0115902 0.0116617 0.0121874 0
0.0119356 0.0125153 0.0125298 0.0131011 0.0119356 0.0125153 0.0125298 0.0131011 0
0.0128978 0.0135369 0.0134783 0.0141067 0.0128978 0.0135369 0.0134783 0.0141067 0
0.0139599 0.0146572 0.0145226 0.0152065 0.0139599 0.0146572 0.0145226 0.0152065 0
0.0151181 0.0158665 0.0156577 0.0163885 0.0151181 0.0158665 0.0156577 0.0163885 0
0.0163613 0.017156 0.0168707 0.0176434 0.0163613 0.017156 0.0168707 0.0176434 0
0.0176729 0.0184848 0.0181436 0.0189267 0.0176729 0.0184848 0.0181436 0.0189267 0
0.0190398 0.0199401 0.0194598 0.0203237 0.0190398 0.0199401 0.0194598 0.0203237 0
0.0204104 0.0209904 0.0207701 0.0213156 0.0204104 0.0209904 0.0207701 0.0213156 0
0.00993117 0.0104683 0.0105637 0.0110955 0.00993117 0.0104683 0.0105637 0.0110955 0
0.0108158 0.0114057 0.0114402 0.0120235 0.0108158 0.0114057 0.0114402 0.0120235 0
0.011793 0.0124472 0.0124065 0.0130512 0.011793 0.0124472 0.0124065 0.0130512 0
0.0128785 0.0135965 0.013476 0.0141812 0.0128785 0.0135965 0.013476 0.0141812 0
0.0140703 0.0148473 0.0146457 0.0154051 0.0140703 0.0148473 0.0146457 0.0154051 0
0.0153619 0.0161964 0.0159061 0.016716 0.0153619 0.0161964 0.0159061 0.016716 0
0.0167411 0.0176037 0.0172423 0.0180741 0.0167411 0.0176037 0.0172423 0.0180741 0
0.018192 0.0191474 0.0186415 0.0195649 0.018192 0.0191474 0.0186415 0.0195649 0
0.0196562 0.0203008 0.0200496 0.0206549 0.0196562 0.0203008 0.0200496 0.0206549 0
0.00875425 0.00929217 0.00941344 0.00995096 0.00875425 0.00929217 0.00941344 0.00995096 0
0.00963901 0.0102386 0.0102969 0.0108899 0.00963901 0.0102386 0.0102969 0.0108899 0
0.0106292 0.011296 0.0112769 0.0119358 0.0106292 0.011296 0.0112769 0.0119358 0
0.0117341 0.0124715 0.0123683 0.0130935 0.0117341 0.0124715 0.0123683 0.0130935 0
0.0129576 0.0137631 0.0135707 0.0143586 0.0129576 0.0137631 0.0135707 0.0143586 0
0.0142972 0.0151715 0.0148796 0.01573 0.0142972 0.0151715 0.0148796 0.01573 0
0.0157435 0.0166563 0.0162844 0.0171672 0.0157435 0.0166563 0.0162844 0.0171672 0
0.0172785 0.0182917 0.0177677 0.0187458 0.0172785 0.0182917 0.0177677 0.0187458 0
0.018839 0.0195469 0.0192689 0.0199397 0.018839 0.0195469 0.0192689 0.0199397 0
0.00752474 0.00806264 0.00821541 0.00875217 0.00752474 0.00806264 0.00821541 0.00875217 0
0.008407 0.00901226 0.00909647 0.00969803 0.008407 0.00901226 0.00909647 0.00969803 0
0.00940389 0.0100811 0.0100876 0.010758 0.00940389 0.0100811 0.0100876 0.010758 0
0.0105242 0.0112794 0.0111965 0.0119406 0.0105242 0.0112794 0.0111965 0.0119406 0
0.0117768 0.0126097 0.0124297 0.0132458 0.0117768 0.0126097 0.0124297 0.0132458 0
0.0131625 0.0140753 0.0137859 0.0146755 0.0131625 0.0140753 0.0137859 0.0146755 0
0.0146737 0.0156359 0.0152567 0.0161893 0.0146737 0.0156359 0.0152567 0.0161893 0
0.016292 0.0173644 0.0168238 0.0178609 0.016292 0.0173644 0.0168238 0.0178609 0
0.0179522 0.0187276 0.0184231 0.0191576 0.0179522 0.0187276 0.0184231 0.0191576 0
0.00624452 0.00677844 0.00696419 0.00750008 0.00624452 0.00677844 0.00696419 0.00750008 0
0.00711757 0.00772511 0.00784095 0.00844648 0.00711757 0.00772511 0.00784095 0.00844648 0
0.00811538 0.00880004 0.00883606 0.0095157 0.00811538 0.00880004 0.00883606 0.0095157 0
0.00924636 0.0100169 0.0099586 0.0107195 0.00924636 0.0100169 0.0099586 0.0107195 0
0.0105238 0.0113823 0.0112191 0.012062 0.0105238 0.0113823 0.0112191 0.012062 0
0.0119522 0.0129017 0.0126202 0.0135476 0.0119522 0.0129017 0.0126202 0.0135476 0
0.0135254 0.0145361 0.0141548 0.0151365 0.0135254 0.0145361 0.0141548 0.0151365 0
0.0152264 0.0163606 0.0158049 0.0169019 0.0152264 0.0163606 0.0158049 0.0169019 0
0.0169932 0.017846 0.017506 0.0183117 0.0169932 0.017846 0.017506 0.0183117 0
0.0188313 0.0209261 0.0192639 0.0213093 0.0188313 0.0209261 0.0192639 0.0213093 0
0.00416636 0.0046259 0.00490613 0.00537356 0.00416636 0.0046259 0.00490613 0.00537356 0
0.00490935 0.00543914 0.00566202 0.00619306 0.00490935 0.00543914 0.00566202 0.00619306 0
0.00577165 0.006378 0.00652786 0.0071343 0.00577165 0.006378 0.00652786 0.0071343 0
0.00676428 0.0074529 0.00752147 0.00820717 0.00676428 0.0074529 0.00752147 0.00820717 0
0.00789958 0.00868178 0.00865215 0.00942705 0.00789958 0.00868178 0.00865215 0.00942705 0
0.00919566 0.0100773 0.00993523 0.0108027 0.00919566 0.0100773 0.00993523 0.0108027 0
0.0106619 0.011645 0.0113771 0.0123401 0.0106619 0.011645 0.0113771 0.0123401 0
0.0122919 0.0133493 0.0129718 0.0140013 0.0122919 0.0133493 0.0129718 0.0140013 0
0.0140741 0.015273 0.0147041 0.0158641 0.0140741 0.015273 0.0147041 0.0158641 0
0.0159526 0.0168868 0.0165143 0.0174001 0.0159526 0.0168868 0.0165143 0.0174001 0
0.0179295 0.0201174 0.0184071 0.0205388 0.0179295 0.0201174 0.0184071 0.0205388 0
0.0193729 0.0154179 0.0197575 0.0157514 0.0193729 0.0154179 0.0197575 0.0157514 0
0.00352177 0.00404038 0.00430473 0.00482994 0.00352177 0.00404038 0.00430473 0.00482994 0
0.00436295 0.00496617 0.00515714 0.00576133 0.00436295 0.00496617 0.00515714 0.00576133 0
0.00534732 0.00603887 0.00614381 0.00683264 0.00534732 0.00603887 0.00614381 0.00683264 0
0.00648415 0.00727442 0.00727708 0.00806199 0.00648415 0.00727442 0.00727708 0.00806199 0
0.00779116 0.00868834 0.0085757 0.00946385 0.00779116 0.00868834 0.0085757 0.00946385 0
0.00928499 0.0103021 0.0100518 0.0110479 0.00928499 0.0103021 0.0100518 0.0110479 0
0.0109722 0.0120766 0.0117025 0.0127785 0.0109722 0.0120766 0.0117025 0.0127785 0
0.0128337 0.0140919 0.0135152 0.014739 0.0128337 0.0140919 0.0135152 0.014739 0
0.0148172 0.0158347 0.015436 0.0164041 0.0148172 0.0158347 0.015436 0.0164041 0
0.0169381 0.0192263 0.01747 0.0196985 0.0169381 0.0192263 0.01747 0.0196985 0
0.0185471 0.0146881 0.0189789 0.0150622 0.0185471 0.0146881 0.0189789 0.0150622 0
0 0 0 0 0 0 0 0 0
0 0 0 0 0 0 0 0 0
0 0 0 0 0 0 0 0 0
0 0 0 0 0 0 0 0 0
0 0 0 0 0 0 0 0 0
0 0 0 0 0 0 0 0 0
0 0 0 0 0 0 0 0 0
0 0 0 0 0 0 0 0 0
0 0 0 0 0 0 0 0 0
0 0 0 0 0 0 0 0 0
0 0 0 0 0 0 0 0 0
0 0 0 0 0 0 0 0 0
0 0 0 0 0 0 0 0 0
0 0 0 0 0 0 0 0 0
0 0 0 0 0 0 0 0 0
0 0 0 0 0 0 0 0 0
0 0 0 0 0 0 0 0 0
0 0 0 0 0 0 0 0 0
0 0 0 0 0 0 0 0 0
0 0 0 0 0 0 0 0 0
0 0 0 0 0 0 0 0 0
0 0 0 0 0 0 0 0 0
0 0 0 0 0 0 0 0 0
0 0 0 0 0 0 0 0 0
0 0 0 0 0 0 0 0 0
0 0 0 0 0 0 0 0 0
0 0 0 0 0 0 0 0 0
0 0 0 0 0 0 0 0 0
0 0 0 0 0 0 0 0 0
0 0 0 0 0 0 0 0 0
0 0 0 0 0 0 0 0 0
0 0 0 0 0 0 0 0 0
0 0 0 0 0 0 0 0 0
0 0 0 0 0 0 0 0 0
0 0 0 0 0 0 0 0 0
0 0 0 0 0 0 0 0 0
0 0 0 0 0 0 0 0 0
0 0 0 0 0 0 0 0 0
0 0 0 0 0 0 0 0 0
0 0 0 0 0 0 0 0 0
0 0 0 0 0 0 0 0 0
0 0 0 0 0 0 0 0 0
0 0 0 0 0 0 0 0 0
0 0 0 0 0 0 0 0 0
0 0 0 0 0 0 0 0 0
0 0 0 0 0 0 0 0 0
0 0 0 0 0 0 0 0 0
0 0 0 0 0 0 0 0 0
0 0 0 0 0 0 0 0 0
0 0 0 0 0 0 0 0 0
0 0 0 0 0 0 0 0 0
0 0 0 0 0 0 0 0 0
0 0 0 0 0 0 0 0 0
0 0 0 0 0 0 0 0 0
0 0 0 0 0 0 0 0 0
0 0 0 0 0 0 0 0 0
0 0 0 0 0 0 0 0 0
0 0 0 0 0 0 0 0 0
0 0 0 0 0 0 0 0 0
0 0 0 0 0 0 0 0 0
0 0 0 0 0 0 0 0 0
0 0 0 0 0 0 0 0 0
0 0 0 0 0 0 0 0 0
0 0 0 0 0 0 0 0 0
0 0 0 0 0 0 0 0 0
0 0 0 0 0 0 0 0 0
0 0 0 0 0 0 0 0 0
0 0 0 0 0 0 0 0 0
0 0 0 0 0 0 0 0 0
0 0 0 0 0 0 0 0 0
0 0 0 0 0 0 0 0 0
0 0 0 0 0 0 0 0 0
0 0 0 0 0 0 0 0 0
0 0 0 0 0 0 0 0 0
0 0 0 0 0 0 0 0 0
0 0 0 0 0 0 0 0 0
0 0 0 0 0 0 0 0 0
0 0 0 0 0 0 0 0 0
0 0 0 0 0 0 0 0 0
0 0 0 0 0 0 0 0 0
0 0 0 0 0 0 0 0 0
0 0 0 0 0 0 0 0 0
0 0 0 0 0 0 0 0 0
0 0 0 0 0 0 0 0 0
0 0 0 0 0 0 0 0 0
0 0 0 0 0 0 0 0 0
0 0 0 0 0 0 0 0 0
0 0 0 0 0 0 0 0 0
0 0 0 0 0 0 0 0 0
0 0 0 0 0 0 0 0 0
0 0 0 0 0 0 0 0 0
0 0 0 0 0 0 0 0 0
0 0 0 0 0 0 0 0 0
0 0 0 0 0 0 0 0 0
0 0 0 0 0 0 0 0 0
0 0 0 0 0 0 0 0 0
0 0 0 0 0 0 0 0 0
0 0 0 0 0 0 0 0 0
0 0 0 0 0 0 0 0 0
0 0 0 0 0 0 0 0 0
0 0 0 0 0 0 0 0 0
0 0 0 0 0 0 0 0 0
0 0 0 0 0 0 0 0 0
0 0 0 0 0 0 0 0 0
0 0 0 0 0 0 0 0 0
0 0 0 0 0 0 0 0 0
0 0 0 0 0 0 0 0 0
0 0 0 0 0 0 0 0 0
0 0 0 0 0 0 0 0 0
0 0 0 0 0 0 0 0 0
0 0 0 0 0 0 0 0 0
0 0 0 0 0 0 0 0 0
0 0 0 0 0 0 0 0 0
0 0 0 0 0 0 0 0 0
0 0 0 0 0 0 0 0 0
0 0 0 0 0 0 0 0 0
0 0 0 0 0 0 0 0 0
0 0 0 0 0 0 0 0 0
0 0 0 0 0 0 0 0 0
0 0 0 0 0 0 0 0 0
0 0 0 0 0 0 0 0 0
0 0 0 0 0 0 0 0 0
0 0 0 0 0 0 0 0 0
0 0 0 0 0 0 0 0 0
0 0 0 0 0 0 0 0 0
0 0 0 0 0 0 0 0 0
0 0 0 0 0 0 0 0 0
0 0 0 0 0 0 0 0 0
0 0 0 0 0 0 0 0 0
0 0 0 0 0 0 0 0 0
0 0 0 0 0 0 0 0 0
0 0 0 0 0 0 0 0 0
0 0 0 0 0 0 0 0 0
0 0 0 0 0 0 0 0 0
0 0 0 0 0 0 0 0 0
0 0 0 0 0 0 0 0 0
0 0 0 0 0 0 0 0 0
0 0 0 0 0 0 0 0 0
0 0 0 0 0 0 0 0 0
0 0 0 0 0 0 0 0 0
0 0 0 0 0 0 0 0 0
0 0 0 0 0 0 0 0 0
0 0 0 0 0 0 0 0 0
0 0 0 0 0 0 0 0 0
0 0 0 0 0 0 0 0 0
0 0 0 0 0 0 0 0 0
0 0 0 0 0 0 0 0 0
0 0 0 0 0 0 0 0 0
0 0 0 0 0 0 0 0 0
0 0 0 0 0 0 0 0 0
0 0 0 0 0 0 0 0 0
0 0 0 0 0 0 0 0 0
0 0 0 0 0 0 0 0 0
0 0 0 0 0 0 0 0 0
0 0 0 0 0 0 0 0 0
0 0 0 0 0 0 0 0 0
0 0 0 0 0 0 0 0 0
0 0 0 0 0 0 0 0 0
0 0 0 0 0 0 0 0 0
0 0 0 0 0 0 0 0 0
0 0 0 0 0 0 0 0 0
0 0 0 0 0 0 0 0 0
0 0 0 0 0 0 0 0 0
0 0 0 0 0 0 0 0 0
0 0 0 0 0 0 0 0 0
0 0 0 0 0 0 0 0 0
0 0 0 0 0 0 0 0 0
0 0 0 0 0 0 0 0 0
0 0 0 0 0 0 0 0 0
0 0 0 0 0 0 0 0 0
0 0 0 0 0 0 0 0 0
0 0 0 0 0 0 0 0 0
0 0 0 0 0 0 0 0 0
0 0 0 0 0 0 0 0 0
0 0 0 0 0 0 0 0 0
0 0 0 0 0 0 0 0 0
0 0 0 0 0 0 0 0 0
0 0 0 0 0 0 0 0 0
0 0 0 0 0 0 0 0 0
0 0 0 0 0 0 0 0 0
0 0 0 0 0 0 0 0 0
0 0 0 0 0 0 0 0 0
0 0 0 0 0 0 0 0 0
0 0 0 0 0 0 0 0 0
0 0 0 0 0 0 0 0 0
0 0 0 0 0 0 0 0 0
0 0 0 0 0 0 0 0 0
0 0 0 0 0 0 0 0 0
0 0 0 0 0 0 0 0 0
0 0 0 0 0 0 0 0 0
0 0 0 0 0 0 0 0 0
0 0 0 0 0 0 0 0 0
0 0 0 0 0 0 0 0 0
0 0 0 0 0 0 0 0 0
0 0 0 0 0 0 0 0 0
0 0 0 0 0 0 0 0 0
0 0 0 0 0 0 0 0 0
0 0 0 0 0 0 0 0 0
0 0 0 0 0 0 0 0 0
0 0 0 0 0 0 0 0 0
0 0 0 0 0 0 0 0 0
0 0 0 0 0 0 0 0 0
0 0 0 0 0 0 0 0 0
0 0 0 0 0 0 0 0 0
0 0 0 0 0 0 0 0 0
0 0 0 0 0 0 0 0 0
0 0 0 0 0 0 0 0 0
0 0 0 0 0 0 0 0 0
0 0 0 0 0 0 0 0 0
0 0 0 0 0 0 0 0 0
0 0 0 0 0 0 0 0 0
0 0 0 0 0 0 0 0 0
0 0 0 0 0 0 0 0 0
0 0 0 0 0 0 0 0 0
0 0 0 0 0 0 0 0 0
0 0 0 0 0 0 0 0 0
0 0 0 0 0 0 0 0 0
0 0 0 0 0 0 0 0 0
0 0 0 0 0 0 0 0 0
0 0 0 0 0 0 0 0 0
0 0 0 0 0 0 0 0 0
0 0 0 0 0 0 0 0 0
0 0 0 0 0 0 0 0 0
0 0 0 0 0 0 0 0 0
0 0 0 0 0 0 0 0 0
0 0 0 0 0 0 0 0 0
0 0 0 0 0 0 0 0 0
0 0 0 0 0 0 0 0 0
0 0 0 0 0 0 0 0 0
0 0 0 0 0 0 0 0 0
0 0 0 0 0 0 0 0 0
0 0 0 0 0 0 0 0 0
0 0 0 0 0 0 0 0 0
0 0 0 0 0 0 0 0 0
0 0 0 0 0 0 0 0 0
0 0 0 0 0 0 0 0 0
0 0 0 0 0 0 0 0 0
0 0 0 0 0 0 0 0 0
0 0 0 0 0 0 0 0 0
0 0 0 0 0 0 0 0 0
0 0 0 0 0 0 0 0 0
0 0 0 0 0 0 0 0 0
0 0 0 0 0 0 0 0 0
0 0 0 0 0 0 0 0 0
0 0 0 0 0 0 0 0 0
0 0 0 0 0 0 0 0 0
0 0 0 0 0 0 0 0 0
0 0 0 0 0 0 0 0 0
0 0 0 0 0 0 0 0 0
0 0 0 0 0 0 0 0 0
0 0 0 0 0 0 0 0 0
0 0 0 0 0 0 0 0 0
0 0 0 0 0 0 0 0 0
0 0 0 0 0 0 0 0 0
0 0 0 0 0 0 0 0 0
0 0 0 0 0 0 0 0 0
0 0 0 0 0 0 0 0 0
0 0 0 0 0 0 0 0 0
0 0 0 0 0 0 0 0 0
0 0 0 0 0 0 0 0 0
0 0 0 0 0 0 0 0 0
0 0 0 0 0 0 0 0 0
0 0 0 0 0 0 0 0 0
0 0 0 0 0 0 0 0 0
0 0 0 0 0 0 0 0 0
0 0 0 0 0 0 0 0 0
0 0 0 0 0 0 0 0 0
0 0 0 0 0 0 0 0 0
0 0 0 0 0 0 0 0 0
0 0 0 0 0 0 0 0 0
0 0 0 0 0 0 0 0 0
0 0 0 0 0 0 0 0 0
0 0 0 0 0 0 0 0 0
0 0 0 0 0 0 0 0 0
0 0 0 0 0 0 0 0 0
0 0 0 0 0 0 0 0 0
0 0 0 0 0 0 0 0 0
0 0 0 0 0 0 0 0 0
0 0 0 0 0 0 0 0 0
0 0 0 0 0 0 0 0 0
0 0 0 0 0 0 0 0 0
0 0 0 0 0 0 0 0 0
0 0 0 0 0 0 0 0 0
0 0 0 0 0 0 0 0 0
0 0 0 0 0 0 0 0 0
0 0 0 0 0 0 0 0 0
0 0 0 0 0 0 0 0 0
0 0 0 0 0 0 0 0 0
0 0 0 0 0 0 0 0 0
0 0 0 0 0 0 0 0 0
0 0 0 0 0 0 0 0 0
0 0 0 0 0 0 0 0 0
0 0 0 0 0 0 0 0 0
0 0 0 0 0 0 0 0 0
0 0 0 0 0 0 0 0 0
0 0 0 0 0 0 0 0 0
0 0 0 0 0 0 0 0 0
0 0 0 0 0 0 0 0 0
0 0 0 0 0 0 0 0 0
0 0 0 0 0 0 0 0 0
0 0 0 0 0 0 0 0 0
0 0 0 0 0 0 0 0 0
0 0 0 0 0 0 0 0 0
0 0 0 0 0 0 0 0 0
0 0 0 0 0 0 0 0 0
0 0 0 0 0 0 0 0 0
0 0 0 0 0 0 0 0 0
0 0 0 0 0 0 0 0 0
0 0 0 0 0 0 0 0 0
0 0 0 0 0 0 0 0 0
0 0 0 0 0 0 0 0 0
0 0 0 0 0 0 0 0 0
0 0 0 0 0 0 0 0 0
0 0 0 0 0 0 0 0 0
0 0 0 0 0 0 0 0 0
0 0 0 0 0 0 0 0 0
0 0 0 0 0 0 0 0 0
0 0 0 0 0 0 0 0 0
0 0 0 0 0 0 0 0 0
0 0 0 0 0 0 0 0 0
0 0 0 0 0 0 0 0 0
0 0 0 0 0 0 0 0 0
0 0 0 0 0 0 0 0 0
0 0 0 0 0 0 0 0 0
0 0 0 0 0 0 0 0 0
0 0 0 0 0 0 0 0 0
0 0 0 0 0 0 0 0 0
0 0 0 0 0 0 0 0 0
0 0 0 0 0 0 0 0 0
0 0 0 0 0 0 0 0 0
0 0 0 0 0 0 0 0 0
0 0 0 0 0 0 0 0 0
0 0 0 0 0 0 0 0 0
0 0 0 0 0 0 0 0 0
0 0 0 0 0 0 0 0 0
0 0 0 0 0 0 0 0 0
0 0 0 0 0 0 0 0 0
0 0 0 0 0 0 0 0 0
0 0 0 0 0 0 0 0 0
0 0 0 0 0 0 0 0 0
0 0 0 0 0 0 0 0 0
0 0 0 0 0 0 0 0 0
0 0 0 0 0 0 0 0 0
0 0 0 0 0 0 0 0 0
0 0 0 0 0 0 0 0 0
0 0 0 0 0 0 0 0 0
0 0 0 0 0 0 0 0 0
0 0 0 0 0 0 0 0 0
0 0 0 0 0 0 0 0 0
0 0 0 0 0 0 0 0 0
0 0 0 0 0 0 0 0 0
0 0 0 0 0 0 0 0 0
0 0 0 0 0 0 0 0 0
0 0 0 0 0 0 0 0 0
0 0 0 0 0 0 0 0 0
0 0 0 0 0 0 0 0 0
0 0 0 0 0 0 0 0 0
0 0 0 0 0 0 0 0 0
0 0 0 0 0 0 0 0 0
0 0 0 0 0 0 0 0 0
0 0 0 0 0 0 0 0 0
0 0 0 0 0 0 0 0 0
0 0 0 0 0 0 0 0 0
0 0 0 0 0 0 0 0 0
0 0 0 0 0 0 0 0 0
0 0 0 0 0 0 0 0 0
0 0 0 0 0 0 0 0 0
0 0 0 0 0 0 0 0 0
0 0 0 0 0 0 0 0 0
0 0 0 0 0 0 0 0 0
0 0 0 0 0 0 0 0 0
0 0 0 0 0 0 0 0 0
0 0 0 0 0 0 0 0 0
0 0 0 0 0 0 0 0 0
0 0 0 0 0 0 0 0 0
0 0 0 0 0 0 0 0 0
0 0 0 0 0 0 0 0 0
0 0 0 0 0 0 0 0 0
0 0 0 0 0 0 0 0 0
0 0 0 0 0 0 0 0 0
0 0 0 0 0 0 0 0 0
0 0 0 0 0 0 0 0 0
0 0 0 0 0 0 0 0 0
0 0 0 0 0 0 0 0 0
0 0 0 0 0 0 0 0 0
0 0 0 0 0 0 0 0 0
0 0 0 0 0 0 0 0 0
0 0 0 0 0 0 0 0 0
0 0 0 0 0 0 0 0 0
0 0 0 0 0 0 0 0 0
0 0 0 0 0 0 0 0 0
0 0 0 0 0 0 0 0 0
0 0 0 0 0 0 0 0 0
0 0 0 0 0 0 0 0 0
0 0 0 0 0 0 0 0 0
0 0 0 0 0 0 0 0 0
0 0 0 0 0 0 0 0 0
0 0 0 0 0 0 0 0 0
0 0 0 0 0 0 0 0 0
0 0 0 0 0 0 0 0 0
0 0 0 0 0 0 0 0 0
0 0 0 0 0 0 0 0 0
0 0 0 0 0 0 0 0 0
0 0 0 0 0 0 0 0 0
0 0 0 0 0 0 0 0 0
SCALARS tauS double 9
LOOKUP_TABLE default
0 0 0 0 0 0 0 0 0
0 0 0 0 0 0 0 0 0
0 0 0 0 0 0 0 0 0
0 0 0 0 0 0 0 0 0
0 0 0 0 0 0 0 0 0
0 0 0 0 0 0 0 0 0
0 0 0 0 0 0 0 0 0
0 0 0 0 0 0 0 0 0
0 0 0 0 0 0 0 0 0
0 0 0 0 0 0 0 0 0
0 0 0 0 0 0 0 0 0
0 0 0 0 0 0 0 0 0
0 0 0 0 0 0 0 0 0
0 0 0 0 0 0 0 0 0
0 0 0 0 0 0 0 0 0
0 0 0 0 0 0 0 0 0
0 0 0 0 0 0 0 0 0
0 0 0 0 0 0 0 0 0
0 0 0 0 0 0 0 0 0
0 0 0 0 0 0 0 0 0
0 0 0 0 0 0 0 0 0
0 0 0 0 0 0 0 0 0
0 0 0 0 0 0 0 0 0
0 0 0 0 0 0 0 0 0
0 0 0 0 0 0 0 0 0
0 0 0 0 0 0 0 0 0
0 0 0 0 0 0 0 0 0
0 0 0 0 0 0 0 0 0
0 0 0 0 0 0 0 0 0
0 0 0 0 0 0 0 0 0
0 0 0 0 0 0 0 0 0
0 0 0 0 0 0 0 0 0
0 0 0 0 0 0 0 0 0
0 0 0 0 0 0 0 0 0
0 0 0 0 0 0 0 0 0
0 0 0 0 0 0 0 0 0
0 0 0 0 0 0 0 0 0
0 0 0 0 0 0 0 0 0
0 0 0 0 0 0 0 0 0
0 0 0 0 0 0 0 0 0
0 0 0 0 0 0 0 0 0
0 0 0 0 0 0 0 0 0
0 0 0 0 0 0 0 0 0
0 0 0 0 0 0 0 0 0
0 0 0 0 0 0 0 0 0
0 0 0 0 0 0 0 0 0
0 0 0 0 0 0 0 0 0
0 0 0 0 0 0 0 0 0
0 0 0 0 0 0 0 0 0
0 0 0 0 0 0 0 0 0
0 0 0 0 0 0 0 0 0
0 0 0 0 0 0 0 0 0
0 0 0 0 0 0 0 0 0
0 0 0 0 0 0 0 0 0
0 0 0 0 0 0 0 0 0
0 0 0 0 0 0 0 0 0
0 0 0 0 0 0 0 0 0
0 0 0 0 0 0 0 0 0
0 0 0 0 0 0 0 0 0
0 0 0 0 0 0 0 0 0
0 0 0 0 0 0 0 0 0
0 0 0 0 0 0 0 0 0
0 0 0 0 0 0 0 0 0
0 0 0 0 0 0 0 0 0
0 0 0 0 0 0 0 0 0
0 0 0 0 0 0 0 0 0
0 0 0 0 0 0 0 0 0
0 0 0 0 0 0 0 0 0
0 0 0 0 0 0 0 0 0
0 0 0 0 0 0 0 0 0
0 0 0 0 0 0 0 0 0
0 0 0 0 0 0 0 0 0
0 0 0 0 0 0 0 0 0
0 0 0 0 0 0 0 0 0
0 0 0 0 0 0 0 0 0
0 0 0 0 0 0 0 0 0
0 0 0 0 0 0 0 0 0
0 0 0 0 0 0 0 0 0
0 0 0 0 0 0 0 0 0
0 0 0 0 0 0 0 0 0
0 0 0 0 0 0 0 0 0
0 0 0 0 0 0 0 0 0
0 0 0 0 0 0 0 0 0
0 0 0 0 0 0 0 0 0
0 0 0 0 0 0 0 0 0
0 0 0 0 0 0 0 0 0
0 0 0 0 0 0 0 0 0
0 0 0 0 0 0 0 0 0
0 0 0 0 0 0 0 0 0
0 0 0 0 0 0 0 0 0
0 0 0 0 0 0 0 0 0
0 0 0 0 0 0 0 0 0
0 0 0 0 0 0 0 0 0
0 0 0 0 0 0 0 0 0
0 0 0 0 0 0 0 0 0
0 0 0 0 0 0 0 0 0
0 0 0 0 0 0 0 0 0
0 0 0 0 0 0 0 0 0
0 0 0 0 0 0 0 0 0
0 0 0 0 0 0 0 0 0
0 0 0 0 0 0 0 0 0
0 0 0 0 0 0 0 0 0
0 0 0 0 0 0 0 0 0
0 0 0 0 0 0 0 0 0
0 0 0 0 0 0 0 0 0
0 0 0 0 0 0 0 0 0
0 0 0 0 0 0 0 0 0
0 0 0 0 0 0 0 0 0
0 0 0 0 0 0 0 0 0
0 0 0 0 0 0 0 0 0
0 0 0 0 0 0 0 0 0
0 0 0 0 0 0 0 0 0
0 0 0 0 0 0 0 0 0
0 0 0 0 0 0 0 0 0
0 0 0 0 0 0 0 0 0
0 0 0 0 0 0 0 0 0
0 0 0 0 0 0 0 0 0
0 0 0 0 0 0 0 0 0
0 0 0 0 0 0 0 0 0
0 0 0 0 0 0 0 0 0
0 0 0 0 0 0 0 0 0
0 0 0 0 0 0 0 0 0
0 0 0 0 0 0 0 0 0
0 0 0 0 0 0 0 0 0
0 0 0 0 0 0 0 0 0
0 0 0 0 0 0 0 0 0
0 0 0 0 0 0 0 0 0
0 0 0 0 0 0 0 0 0
0 0 0 0 0 0 0 0 0
0 0 0 0 0 0 0 0 0
0 0 0 0 0 0 0 0 0
0 0 0 0 0 0 0 0 0
0 0 0 0 0 0 0 0 0
0 0 0 0 0 0 0 0 0
0 0 0 0 0 0 0 0 0
0 0 0 0 0 0 0 0 0
0 0 0 0 0 0 0 0 0
0 0 0 0 0 0 0 0 0
0 0 0 0 0 0 0 0 0
0 0 0 0 0 0 0 0 0
0 0 0 0 0 0 0 0 0
0 0 0 0 0 0 0 0 0
0 0 0 0 0 0 0 0 0
0 0 0 0 0 0 0 0 0
0 0 0 0 0 0 0 0 0
0 0 0 0 0 0 0 0 0
0 0 0 0 0 0 0 0 0
0 0 0 0 0 0 0 0 0
0 0 0 0 0 0 0 0 0
0 0 0 0 0 0 0 0 0
0 0 0 0 0 0 0 0 0
0 0 0 0 0 0 0 0 0
0 0 0 0 0 0 0 0 0
0 0 0 0 0 0 0 0 0
0 0 0 0 0 0 0 0 0
0 0 0 0 0 0 0 0 0
0 0 0 0 0 0 0 0 0
0 0 0 0 0 0 0 0 0
0 0 0 0 0 0 0 0 0
0 0 0 0 0 0 0 0 0
0 0 0 0 0 0 0 0 0
0 0 0 0 0 0 0 0 0
0.407387 0.422745 0.395896 0.410793 0.407387 0.422745 0.395896 0.410793 0
0.433991 0.449308 0.421701 0.436549 0.433991 0.449308 0.421701 0.436549 0
0.46049 0.475657 0.447386 0.462076 0.46049 0.475657 0.447386 0.462076 0
0.486693 0.50159 0.472759 0.487168 0.486693 0.50159 0.472759 0.487168 0
0.512383 0.526866 0.497601 0.511588 0.512383 0.526866 0.497601 0.511588 0
0.537301 0.551194 0.521664 0.53507 0.537301 0.551194 0.521664 0.53507 0
0.427445 0.443614 0.41587 0.43157 0.427445 0.443614 0.41587 0.43157 0
0.455464 0.47162 0.44307 0.458738 0.455464 0.47162 0.44307 0.458738 0
0.483423 0.499452 0.47018 0.485707 0.483423 0.499452 0.47018 0.485707 0
0.511122 0.526897 0.497007 0.512272 0.511122 0.526897 0.497007 0.512272 0
0.538333 0.553702 0.523334 0.538188 0.538333 0.553702 0.523334 0.538188 0
0.564782 0.579556 0.548892 0.563154 0.564782 0.579556 0.548892 0.563154 0
0.447644 0.464651 0.435989 0.452509 0.447644 0.464651 0.435989 0.452509 0
0.477125 0.494151 0.46462 0.481141 0.477125 0.494151 0.46462 0.481141 0
0.5066 0.523527 0.493215 0.50962 0.5066 0.523527 0.493215 0.50962 0
0.53586 0.552555 0.521567 0.537727 0.53586 0.552555 0.521567 0.537727 0
0.564666 0.580964 0.549445 0.565202 0.564666 0.580964 0.549445 0.565202 0
0.592722 0.608429 0.576564 0.591727 0.592722 0.608429 0.576564 0.591727 0
0.619681 0.634565 0.602583 0.616926 0.619681 0.634565 0.602583 0.616926 0
0.645142 0.658968 0.627114 0.640418 0.645142 0.658968 0.627114 0.640418 0
0.66868 0.68116 0.649769 0.66178 0.66868 0.68116 0.649769 0.66178 0
0.467972 0.485847 0.456244 0.473615 0.467972 0.485847 0.456244 0.473615 0
0.498968 0.516896 0.48636 0.503764 0.498968 0.516896 0.48636 0.503764 0
0.530017 0.54788 0.516494 0.533813 0.530017 0.54788 0.516494 0.533813 0
0.560907 0.578563 0.546436 0.563533 0.560907 0.578563 0.546436 0.563533 0
0.591383 0.608661 0.575939 0.592647 0.591383 0.608661 0.575939 0.592647 0
0.621136 0.637827 0.604703 0.620821 0.621136 0.637827 0.604703 0.620821 0
0.649796 0.66566 0.632371 0.647665 0.649796 0.66566 0.632371 0.647665 0
0.676938 0.691709 0.658533 0.672754 0.676938 0.691709 0.658533 0.672754 0
0.702088 0.715452 0.682741 0.695586 0.702088 0.715452 0.682741 0.695586 0
0.488416 0.507187 0.476622 0.494873 0.488416 0.507187 0.476622 0.494873 0
0.520978 0.539844 0.508274 0.526596 0.520978 0.539844 0.508274 0.526596 0
0.553664 0.572504 0.540009 0.558281 0.553664 0.572504 0.540009 0.558281 0
0.586256 0.604922 0.57161 0.589689 0.586256 0.604922 0.57161 0.589689 0
0.618487 0.636798 0.60282 0.620529 0.618487 0.636798 0.60282 0.620529 0
0.650032 0.667769 0.633319 0.650447 0.650032 0.667769 0.633319 0.650447 0
0.680497 0.697401 0.662731 0.679028 0.680497 0.697401 0.662731 0.679028 0
0.709426 0.725208 0.690616 0.705807 0.709426 0.725208 0.690616 0.705807 0
0.736302 0.750618 0.716482 0.730242 0.736302 0.750618 0.716482 0.730242 0
0.508952 0.52865 0.497107 0.516267 0.508952 0.52865 0.497107 0.516267 0
0.543137 0.56298 0.530349 0.549625 0.543137 0.56298 0.530349 0.549625 0
0.577529 0.597389 0.56375 0.583016 0.577529 0.597389 0.56375 0.583016 0
0.6119 0.631625 0.597085 0.616194 0.6119 0.631625 0.597085 0.616194 0
0.645976 0.665378 0.630086 0.648853 0.645976 0.665378 0.630086 0.648853 0
0.679415 0.698262 0.662421 0.680621 0.679415 0.698262 0.662421 0.680621 0
0.7118 0.729812 0.693685 0.71105 0.7118 0.729812 0.693685 0.71105 0
0.742637 0.759502 0.723406 0.739639 0.742637 0.759502 0.723406 0.739639 0
0.771365 0.78671 0.75105 0.765793 0.771365 0.78671 0.75105 0.765793 0
0.529559 0.550217 0.517675 0.537776 0.529559 0.550217 0.517675 0.537776 0
0.565427 0.586287 0.552565 0.572834 0.565427 0.586287 0.552565 0.572834 0
0.601598 0.622523 0.587702 0.608007 0.601598 0.622523 0.587702 0.608007 0
0.637831 0.658668 0.622851 0.643041 0.637831 0.658668 0.622851 0.643041 0
0.673845 0.694399 0.657736 0.677619 0.673845 0.694399 0.657736 0.677619 0
0.709286 0.729313 0.69201 0.711349 0.709286 0.729313 0.69201 0.711349 0
0.743714 0.762914 0.725244 0.74375 0.743714 0.762914 0.725244 0.74375 0
0.776595 0.794626 0.75693 0.774279 0.776595 0.794626 0.75693 0.774279 0
0.807321 0.823788 0.786485 0.802294 0.807321 0.823788 0.786485 0.802294 0
0.835255 0.849877 0.813302 0.827326 0.835255 0.849877 0.813302 0.827326 0
0.513109 0.534467 0.502151 0.522964 0.513109 0.534467 0.502151 0.522964 0
0.550217 0.571863 0.538305 0.559378 0.550217 0.571863 0.538305 0.559378 0
0.587821 0.609742 0.574902 0.596206 0.587821 0.609742 0.574902 0.596206 0
0.625848 0.647891 0.611849 0.633242 0.625848 0.647891 0.611849 0.633242 0
0.664032 0.686036 0.648897 0.670222 0.664032 0.686036 0.648897 0.670222 0
0.702082 0.723851 0.685762 0.706823 0.702082 0.723851 0.685762 0.706823 0
0.739641 0.760926 0.722086 0.742636 0.739641 0.760926 0.722086 0.742636 0
0.77625 0.796724 0.75742 0.777149 0.77625 0.796724 0.75742 0.777149 0
0.811329 0.830615 0.791212 0.809763 0.811329 0.830615 0.791212 0.809763 0
0.844207 0.86188 0.82283 0.839799 0.844207 0.86188 0.82283 0.839799 0
0.874199 0.889956 0.851616 0.866705 0.874199 0.889956 0.851616 0.866705 0
0.900608 0.913669 0.876903 0.889388 0.900608 0.913669 0.876903 0.889388 0
0.570885 0.59359 0.558972 0.581056 0.570885 0.59359 0.558972 0.581056 0
0.610339 0.633363 0.597343 0.619727 0.610339 0.633363 0.597343 0.619727 0
0.650302 0.673519 0.636181 0.658714 0.650302 0.673519 0.636181 0.658714 0
0.690537 0.713767 0.675221 0.697737 0.690537 0.713767 0.675221 0.697737 0
0.730724 0.753762 0.714164 0.736464 0.730724 0.753762 0.714164 0.736464 0
0.770496 0.793094 0.752649 0.774484 0.770496 0.793094 0.752649 0.774484 0
0.809394 0.831225 0.790215 0.811254 0.809394 0.831225 0.790215 0.811254 0
0.846825 0.867485 0.82627 0.846123 0.846825 0.867485 0.82627 0.846123 0
0.882061 0.901057 0.86012 0.878339 0.882061 0.901057 0.86012 0.878339 0
0.914304 0.93129 0.89104 0.907307 0.914304 0.93129 0.89104 0.907307 0
0.94434 0.962736 0.918723 0.933371 0.94434 0.962736 0.918723 0.933371 0
0 0 0 0 0 0 0 0 0
0 0 0 0 0 0 0 0 0
0 0 0 0 0 0 0 0 0
0 0 0 0 0 0 0 0 0
0 0 0 0 0 0 0 0 0
0 0 0 0 0 0 0 0 0
0 0 0 0 0 0 0 0 0
0 0 0 0 0 0 0 0 0
0 0 0 0 0 0 0 0 0
0 0 0 0 0 0 0 0 0
0 0 0 0 0 0 0 0 0
0 0 0 0 0 0 0 0 0
0 0 0 0 0 0 0 0 0
0 0 0 0 0 0 0 0 0
0 0 0 0 0 0 0 0 0
0 0 0 0 0 0 0 0 0
0 0 0 0 0 0 0 0 0
0 0 0 0 0 0 0 0 0
0 0 0 0 0 0 0 0 0
0 0 0 0 0 0 0 0 0
0 0 0 0 0 0 0 0 0
0 0 0 0 0 0 0 0 0
0 0 0 0 0 0 0 0 0
0 0 0 0 0 0 0 0 0
0 0 0 0 0 0 0 0 0
0 0 0 0 0 0 0 0 0
0 0 0 0 0 0 0 0 0
0 0 0 0 0 0 0 0 0
0 0 0 0 0 0 0 0 0
0 0 0 0 0 0 0 0 0
0 0 0 0 0 0 0 0 0
0 0 0 0 0 0 0 0 0
0 0 0 0 0 0 0 0 0
0 0 0 0 0 0 0 0 0
0 0 0 0 0 0 0 0 0
0 0 0 0 0 0 0 0 0
0 0 0 0 0 0 0 0 0
0 0 0 0 0 0 0 0 0
0 0 0 0 0 0 0 0 0
0 0 0 0 0 0 0 0 0
0 0 0 0 0 0 0 0 0
0 0 0 0 0 0 0 0 0
0 0 0 0 0 0 0 0 0
0 0 0 0 0 0 0 0 0
0 0 0 0 0 0 0 0 0
0 0 0 0 0 0 0 0 0
0 0 0 0 0 0 0 0 0
0 0 0 0 0 0 0 0 0
0 0 0 0 0 0 0 0 0
0 0 0 0 0 0 0 0 0
0 0 0 0 0 0 0 0 0
0 0 0 0 0 0 0 0 0
0 0 0 0 0 0 0 0 0
0 0 0 0 0 0 0 0 0
0 0 0 0 0 0 0 0 0
0 0 0 0 0 0 0 0 0
0 0 0 0 0 0 0 0 0
0 0 0 0 0 0 0 0 0
0 0 0 0 0 0 0 0 0
0 0 0 0 0 0 0 0 0
0 0 0 0 0 0 0 0 0
0 0 0 0 0 0 0 0 0
0 0 0 0 0 0 0 0 0
0 0 0 0 0 0 0 0 0
0 0 0 0 0 0 0 0 0
0 0 0 0 0 0 0 0 0
0 0 0 0 0 0 0 0 0
0 0 0 0 0 0 0 0 0
0 0 0 0 0 0 0 0 0
0 0 0 0 0 0 0 0 0
0 0 0 0 0 0 0 0 0
0 0 0 0 0 0 0 0 0
0 0 0 0 0 0 0 0 0
0 0 0 0 0 0 0 0 0
0 0 0 0 0 0 0 0 0
0 0 0 0 0 0 0 0 0
0 0 0 0 0 0 0 0 0
0 0 0 0 0 0 0 0 0
0 0 0 0 0 0 0 0 0
0 0 0 0 0 0 0 0 0
0 0 0 0 0 0 0 0 0
0 0 0 0 0 0 0 0 0
0 0 0 0 0 0 0 0 0
0 0 0 0 0 0 0 0 0
0 0 0 0 0 0 0 0 0
0 0 0 0 0 0 0 0 0
0 0 0 0 0 0 0 0 0
0 0 0 0 0 0 0 0 0
0 0 0 0 0 0 0 0 0
0 0 0 0 0 0 0 0 0
0 0 0 0 0 0 0 0 0
0 0 0 0 0 0 0 0 0
0 0 0 0 0 0 0 0 0
0 0 0 0 0 0 0 0 0
0 0 0 0 0 0 0 0 0
0 0 0 0 0 0 0 0 0
0 0 0 0 0 0 0 0 0
0 0 0 0 0 0 0 0 0
0 0 0 0 0 0 0 0 0
0 0 0 0 0 0 0 0 0
0 0 0 0 0 0 0 0 0
0 0 0 0 0 0 0 0 0
0 0 0 0 0 0 0 0 0
0 0 0 0 0 0 0 0 0
0 0 0 0 0 0 0 0 0
0 0 0 0 0 0 0 0 0
0 0 0 0 0 0 0 0 0
0 0 0 0 0 0 0 0 0
0 0 0 0 0 0 0 0 0
0 0 0 0 0 0 0 0 0
0 0 0 0 0 0 0 0 0
0 0 0 0 0 0 0 0 0
0 0 0 0 0 0 0 0 0
0 0 0 0 0 0 0 0 0
0 0 0 0 0 0 0 0 0
0 0 0 0 0 0 0 0 0
0 0 0 0 0 0 0 0 0
0 0 0 0 0 0 0 0 0
0 0 0 0 0 0 0 0 0
0 0 0 0 0 0 0 0 0
0 0 0 0 0 0 0 0 0
0 0 0 0 0 0 0 0 0
0 0 0 0 0 0 0 0 0
0 0 0 0 0 0 0 0 0
0 0 0 0 0 0 0 0 0
0 0 0 0 0 0 0 0 0
0 0 0 0 0 0 0 0 0
0 0 0 0 0 0 0 0 0
0 0 0 0 0 0 0 0 0
0 0 0 0 0 0 0 0 0
0 0 0 0 0 0 0 0 0
0 0 0 0 0 0 0 0 0
0 0 0 0 0 0 0 0 0
0 0 0 0 0 0 0 0 0
0 0 0 0 0 0 0 0 0
0 0 0 0 0 0 0 0 0
0 0 0 0 0 0 0 0 0
0 0 0 0 0 0 0 0 0
0 0 0 0 0 0 0 0 0
0 0 0 0 0 0 0 0 0
0 0 0 0 0 0 0 0 0
0 0 0 0 0 0 0 0 0
0 0 0 0 0 0 0 0 0
0 0 0 0 0 0 0 0 0
0 0 0 0 0 0 0 0 0
0 0 0 0 0 0 0 0 0
0 0 0 0 0 0 0 0 0
0 0 0 0 0 0 0 0 0
0 0 0 0 0 0 0 0 0
0 0 0 0 0 0 0 0 0
0 0 0 0 0 0 0 0 0
0 0 0 0 0 0 0 0 0
0 0 0 0 0 0 0 0 0
0 0 0 0 0 0 0 0 0
0 0 0 0 0 0 0 0 0
0 0 0 0 0 0 0 0 0
0 0 0 0 0 0 0 0 0
0 0 0 0 0 0 0 0 0
0 0 0 0 0 0 0 0 0
0 0 0 0 0 0 0 0 0
0 0 0 0 0 0 0 0 0
0 0 0 0 0 0 0 0 0
0 0 0 0 0 0 0 0 0
0 0 0 0 0 0 0 0 0
0 0 0 0 0 0 0 0 0
0 0 0 0 0 0 0 0 0
0 0 0 0 0 0 0 0 0
0 0 0 0 0 0 0 0 0
0 0 0 0 0 0 0 0 0
0 0 0 0 0 0 0 0 0
0 0 0 0 0 0 0 0 0
0 0 0 0 0 0 0 0 0
0 0 0 0 0 0 0 0 0
0 0 0 0 0 0 0 0 0
0 0 0 0 0 0 0 0 0
0 0 0 0 0 0 0 0 0
0 0 0 0 0 0 0 0 0
0 0 0 0 0 0 0 0 0
0 0 0 0 0 0 0 0 0
0 0 0 0 0 0 0 0 0
0 0 0 0 0 0 0 0 0
0 0 0 0 0 0 0 0 0
0 0 0 0 0 0 0 0 0
0 0 0 0 0 0 0 0 0
0 0 0 0 0 0 0 0 0
0 0 0 0 0 0 0 0 0
0 0 0 0 0 0 0 0 0
0 0 0 0 0 0 0 0 0
0 0 0 0 0 0 0 0 0
0 0 0 0 0 0 0 0 0
0 0 0 0 0 0 0 0 0
0 0 0 0 0 0 0 0 0
0 0 0 0 0 0 0 0 0
0 0 0 0 0 0 0 0 0
0 0 0 0 0 0 0 0 0
0 0 0 0 0 0 0 0 0
0 0 0 0 0 0 0 0 0
0 0 0 0 0 0 0 0 0
0 0 0 0 0 0 0 0 0
0 0 0 0 0 0 0 0 0
0 0 0 0 0 0 0 0 0
0 0 0 0 0 0 0 0 0
0 0 0 0 0 0 0 0 0
0 0 0 0 0 0 0 0 0
0 0 0 0 0 0 0 0 0
0 0 0 0 0 0 0 0 0
0 0 0 0 0 0 0 0 0
0 0 0 0 0 0 0 0 0
0 0 0 0 0 0 0 0 0
0 0 0 0 0 0 0 0 0
0 0 0 0 0 0 0 0 0
0 0 0 0 0 0 0 0 0
0 0 0 0 0 0 0 0 0
0 0 0 0 0 0 0 0 0
0 0 0 0 0 0 0 0 0
0 0 0 0 0 0 0 0 0
0 0 0 0 0 0 0 0 0
0 0 0 0 0 0 0 0 0
0 0 0 0 0 0 0 0 0
0 0 0 0 0 0 0 0 0
0 0 0 0 0 0 0 0 0
0 0 0 0 0 0 0 0 0
0 0 0 0 0 0 0 0 0
0 0 0 0 0 0 0 0 0
0 0 0 0 0 0 0 0 0
0 0 0 0 0 0 0 0 0
0 0 0 0 0 0 0 0 0
0 0 0 0 0 0 0 0 0
0 0 0 0 0 0 0 0 0
0 0 0 0 0 0 0 0 0
0 0 0 0 0 0 0 0 0
0 0 0 0 0 0 0 0 0
0 0 0 0 0 0 0 0 0
0 0 0 0 0 0 0 0 0
0 0 0 0 0 0 0 0 0
0 0 0 0 0 0 0 0 0
0 0 0 0 0 0 0 0 0
0 0 0 0 0 0 0 0 0
0 0 0 0 0 0 0 0 0
0 0 0 0 0 0 0 0 0
0 0 0 0 0 0 0 0 0
0 0 0 0 0 0 0 0 0
0 0 0 0 0 0 0 0 0
0 0 0 0 0 0 0 0 0
0 0 0 0 0 0 0 0 0
0 0 0 0 0 0 0 0 0
0 0 0 0 0 0 0 0 0
0 0 0 0 0 0 0 0 0
0 0 0 0 0 0 0 0 0
0 0 0 0 0 0 0 0 0
0 0 0 0 0 0 0 0 0
0 0 0 0 0 0 0 0 0
0 0 0 0 0 0 0 0 0
0 0 0 0 0 0 0 0 0
0 0 0 0 0 0 0 0 0
0 0 0 0 0 0 0 0 0
0 0 0 0 0 0 0 0 0
0 0 0 0 0 0 0 0 0
0 0 0 0 0 0 0 0 0
0 0 0 0 0 0 0 0 0
0 0 0 0 0 0 0 0 0
0 0 0 0 0 0 0 0 0
0 0 0 0 0 0 0 0 0
0 0 0 0 0 0 0 0 0
0 0 0 0 0 0 0 0 0
0 0 0 0 0 0 0 0 0
0 0 0 0 0 0 0 0 0
0 0 0 0 0 0 0 0 0
0 0 0 0 0 0 0 0 0
0 0 0 0 0 0 0 0 0
0 0 0 0 0 0 0 0 0
0 0 0 0 0 0 0 0 0
0 0 0 0 0 0 0 0 0
0 0 0 0 0 0 0 0 0
0 0 0 0 0 0 0 0 0
0 0 0 0 0 0 0 0 0
0 0 0 0 0 0 0 0 0
0 0 0 0 0 0 0 0 0
0 0 0 0 0 0 0 0 0
0 0 0 0 0 0 0 0 0
0 0 0 0 0 0 0 0 0
0 0 0 0 0 0 0 0 0
0 0 0 0 0 0 0 0 0
0 0 0 0 0 0 0 0 0
0 0 0 0 0 0 0 0 0
0 0 0 0 0 0 0 0 0
0 0 0 0 0 0 0 0 0
0 0 0 0 0 0 0 0 0
0 0 0 0 0 0 0 0 0
0 0 0 0 0 0 0 0 0
0 0 0 0 0 0 0 0 0
0 0 0 0 0 0 0 0 0
0 0 0 0 0 0 0 0 0
0 0 0 0 0 0 0 0 0
0 0 0 0 0 0 0 0 0
0 0 0 0 0 0 0 0 0
0 0 0 0 0 0 0 0 0
0 0 0 0 0 0 0 0 0
0 0 0 0 0 0 0 0 0
0 0 0 0 0 0 0 0 0
0 0 0 0 0 0 0 0 0
0 0 0 0 0 0 0 0 0
0 0 0 0 0 0 0 0 0
0 0 0 0 0 0 0 0 0
0 0 0 0 0 0 0 0 0
0 0 0 0 0 0 0 0 0
0 0 0 0 0 0 0 0 0
0 0 0 0 0 0 0 0 0
0 0 0 0 0 0 0 0 0
0 0 0 0 0 0 0 0 0
0 0 0 0 0 0 0 0 0
0 0 0 0 0 0 0 0 0
0 0 0 0 0 0 0 0 0
0 0 0 0 0 0 0 0 0
0 0 0 0 0 0 0 0 0
0 0 0 0 0 0 0 0 0
0 0 0 0 0 0 0 0 0
0 0 0 0 0 0 0 0 0
0 0 0 0 0 0 0 0 0
0 0 0 0 0 0 0 0 0
0 0 0 0 0 0 0 0 0
0 0 0 0 0 0 0 0 0
0 0 0 0 0 0 0 0 0
0 0 0 0 0 0 0 0 0
0 0 0 0 0 0 0 0 0
0 0 0 0 0 0 0 0 0
0 0 0 0 0 0 0 0 0
0 0 0 0 0 0 0 0 0
0 0 0 0 0 0 0 0 0
0 0 0 0 0 0 0 0 0
0 0 0 0 0 0 0 0 0
0 0 0 0 0 0 0 0 0
0 0 0 0 0 0 0 0 0
0 0 0 0 0 0 0 0 0
0 0 0 0 0 0 0 0 0
0 0 0 0 0 0 0 0 0
0 0 0 0 0 0 0 0 0
0 0 0 0 0 0 0 0 0
0 0 0 0 0 0 0 0 0
0 0 0 0 0 0 0 0 0
0 0 0 0 0 0 0 0 0
0 0 0 0 0 0 0 0 0
0 0 0 0 0 0 0 0 0
0 0 0 0 0 0 0 0 0
0 0 0 0 0 0 0 0 0
0 0 0 0 0 0 0 0 0
0 0 0 0 0 0 0 0 0
0 0 0 0 0 0 0 0 0
0 0 0 0 0 0 0 0 0
0 0 0 0 0 0 0 0 0
0 0 0 0 0 0 0 0 0
0 0 0 0 0 0 0 0 0
0 0 0 0 0 0 0 0 0
0 0 0 0 0 0 0 0 0
0 0 0 0 0 0 0 0 0
0 0 0 0 0 0 0 0 0
0 0 0 0 0 0 0 0 0
0 0 0 0 0 0 0 0 0
0 0 0 0 0 0 0 0 0
0 0 0 0 0 0 0 0 0
0 0 0 0 0 0 0 0 0
0 0 0 0 0 0 0 0 0
0 0 0 0 0 0 0 0 0
0 0 0 0 0 0 0 0 0
0 0 0 0 0 0 0 0 0
0 0 0 0 0 0 0 0 0
0 0 0 0 0 0 0 0 0
0 0 0 0 0 0 0 0 0
0 0 0 0 0 0 0 0 0
0 0 0 0 0 0 0 0 0
0 0 0 0 0 0 0 0 0
0 0 0 0 0 0 0 0 0
0 0 0 0 0 0 0 0 0
0 0 0 0 0 0 0 0 0
0 0 0 0 0 0 0 0 0
0 0 0 0 0 0 0 0 0
0 0 0 0 0 0 0 0 0
0 0 0 0 0 0 0 0 0
0 0 0 0 0 0 0 0 0
0 0 0 0 0 0 0 0 0
0 0 0 0 0 0 0 0 0
0 0 0 0 0 0 0 0 0
0 0 0 0 0 0 0 0 0
0 0 0 0 0 0 0 0 0
0 0 0 0 0 0 0 0 0
0 0 0 0 0 0 0 0 0
0 0 0 0 0 0 0 0 0
0 0 0 0 0 0 0 0 0
0 0 0 0 0 0 0 0 0
0 0 0 0 0 0 0 0 0
0 0 0 0 0 0 0 0 0
0 0 0 0 0 0 0 0 0
0 0 0 0 0 0 0 0 0
0 0 0 0 0 0 0 0 0
0 0 0 0 0 0 0 0 0
0 0 0 0 0 0 0 0 0
0 0 0 0 0 0 0 0 0
0 0 0 0 0 0 0 0 0
0 0 0 0 0 0 0 0 0
0 0 0 0 0 0 0 0 0
0 0 0 0 0 0 0 0 0
0 0 0 0 0 0 0 0 0
0 0 0 0 0 0 0 0 0
0 0 0 0 0 0 0 0 0
0 0 0 0 0 0 0 0 0
0 0 0 0 0 0 0 0 0
0 0 0 0 0 0 0 0 0
0 0 0 0 0 0 0 0 0
0 0 0 0 0 0 0 0 0
0 0 0 0 0 0 0 0 0
0 0 0 0 0 0 0 0 0
0 0 0 0 0 0 0 0 0
0 0 0 0 0 0 0 0 0
0 0 0 0 0 0 0 0 0
0 0 0 0 0 0 0 0 0
0 0 0 0 0 0 0 0 0
0 0 0 0 0 0 0 0 0
0 0 0 0 0 0 0 0 0
0 0 0 0 0 0 0 0 0
0 0 0 0 0 0 0 0 0
0 0 0 0 0 0 0 0 0
0 0 0 0 0 0 0 0 0
0 0 0 0 0 0 0 0 0
0 0 0 0 0 0 0 0 0
0 0 0 0 0 0 0 0 0
0 0 0 0 0 0 0 0 0
0 0 0 0 0 0 0 0 0
0 0 0 0 0 0 0 0 0
0 0 0 0 0 0 0 0 0
0 0 0 0 0 0 0 0 0
0 0 0 0 0 0 0 0 0
0 0 0 0 0 0 0 0 0
0 0 0 0 0 0 0 0 0
0 0 0 0 0 0 0 0 0
0 0 0 0 0 0 0 0 0
0 0 0 0 0 0 0 0 0
0 0 0 0 0 0 0 0 0
0 0 0 0 0 0 0 0 0
0 0 0 0 0 0 0 0 0
0 0 0 0 0 0 0 0 0
0 0 0 0 0 0 0 0 0
0 0 0 0 0 0 0 0 0
0 0 0 0 0 0 0 0 0
0 0 0 0 0 0 0 0 0
0 0 0 0 0 0 0 0 0
0 0 0 0 0 0 0 0 0
0 0 0 0 0 0 0 0 0
0 0 0 0 0 0 0 0 0
0 0 0 0 0 0 0 0 0
0 0 0 0 0 0 0 0 0
0 0 0 0 0 0 0 0 0
0 0 0 0 0 0 0 0 0
0 0 0 0 0 0 0 0 0
0 0 0 0 0 0 0 0 0
0 0 0 0 0 0 0 0 0
0 0 0 0 0 0 0 0 0
0 0 0 0 0 0 0 0 0
0 0 0 0 0 0 0 0 0
0 0 0 0 0 0 0 0 0
0 0 0 0 0 0 0 0 0
0 0 0 0 0 0 0 0 0
0 0 0 0 0 0 0 0 0
0 0 0 0 0 0 0 0 0
0 0 0 0 0 0 0 0 0
0 0 0 0 0 0 0 0 0
0 0 0 0 0 0 0 0 0
0 0 0 0 0 0 0 0 0
0 0 0 0 0 0 0 0 0
0 0 0 0 0 0 0 0 0
0 0 0 0 0 0 0 0 0
0 0 0 0 0 0 0 0 0
0 0 0 0 0 0 0 0 0
0 0 0 0 0 0 0 0 0
0 0 0 0 0 0 0 0 0
0 0 0 0 0 0 0 0 0
0 0 0 0 0 0 0 0 0
0 0 0 0 0 0 0 0 0
0 0 0 0 0 0 0 0 0
0 0 0 0 0 0 0 0 0
0 0 0 0 0 0 0 0 0
0 0 0 0 0 0 0 0 0
0 0 0 0 0 0 0 0 0
0 0 0 0 0 0 0 0 0
0 0 0 0 0 0 0 0 0
0 0 0 0 0 0 0 0 0
0 0 0 0 0 0 0 0 0
0 0 0 0 0 0 0 0 0
0 0 0 0 0 0 0 0 0
0 0 0 0 0 0 0 0 0
0 0 0 0 0 0 0 0 0
0 0 0 0 0 0 0 0 0
0 0 0 0 0 0 0 0 0
0 0 0 0 0 0 0 0 0
0 0 0 0 0 0 0 0 0
0 0 0 0 0 0 0 0 0
0 0 0 0 0 0 0 0 0
0 0 0 0 0 0 0 0 0
0 0 0 0 0 0 0 0 0
0 0 0 0 0 0 0 0 0
0 0 0 0 0 0 0 0 0
0 0 0 0 0 0 0 0 0
0 0 0 0 0 0 0 0 0
0 0 0 0 0 0 0 0 0
0 0 0 0 0 0 0 0 0
0 0 0 0 0 0 0 0 0
0 0 0 0 0 0 0 0 0
0 0 0 0 0 0 0 0 0
0 0 0 0 0 0 0 0 0
0 0 0 0 0 0 0 0 0
0 0 0 0 0 0 0 0 0
0 0 0 0 0 0 0 0 0
0 0 0 0 0 0 0 0 0
0 0 0 0 0 0 0 0 0
0 0 0 0 0 0 0 0 0
0 0 0 0 0 0 0 0 0
0 0 0 0 0 0 0 0 0
0 0 0 0 0 0 0 0 0
0 0 0 0 0 0 0 0 0
0 0 0 0 0 0 0 0 0
0 0 0 0 0 0 0 0 0
0 0 0 0 0 0 0 0 0
0 0 0 0 0 0 0 0 0
0 0 0 0 0 0 0 0 0
0 0 0 0 0 0 0 0 0
0 0 0 0 0 0 0 0 0
0 0 0 0 0 0 0 0 0
0 0 0 0 0 0 0 0 0
0 0 0 0 0 0 0 0 0
0 0 0 0 0 0 0 0 0
0 0 0 0 0 0 0 0 0
0 0 0 0 0 0 0 0 0
0 0 0 0 0 0 0 0 0
0 0 0 0 0 0 0 0 0
0 0 0 0 0 0 0 0 0
0 0 0 0 0 0 0 0 0
0 0 0 0 0 0 0 0 0
0 0 0 0 0 0 0 0 0
0 0 0 0 0 0 0 0 0
0 0 0 0 0 0 0 0 0
0 0 0 0 0 0 0 0 0
0 0 0 0 0 0 0 0 0
0 0 0 0 0 0 0 0 0
0 0 0 0 0 0 0 0 0
0 0 0 0 0 0 0 0 0
0 0 0 0 0 0 0 0 0
0 0 0 0 0 0 0 0 0
0 0 0 0 0 0 0 0 0
0 0 0 0 0 0 0 0 0
0 0 0 0 0 0 0 0 0
0 0 0 0 0 0 0 0 0
0 0 0 0 0 0 0 0 0
0 0 0 0 0 0 0 0 0
0 0 0 0 0 0 0 0 0
0 0 0 0 0 0 0 0 0
0 0 0 0 0 0 0 0 0
0 0 0 0 0 0 0 0 0
0 0 0 0 0 0 0 0 0
0 0 0 0 0 0 0 0 0
0 0 0 0 0 0 0 0 0
0 0 0 0 0 0 0 0 0
0 0 0 0 0 0 0 0 0
0 0 0 0 0 0 0 0 0
0 0 0 0 0 0 0 0 0
0 0 0 0 0 0 0 0 0
0 0 0 0 0 0 0 0 0
0 0 0 0 0 0 0 0 0
0 0 0 0 0 0 0 0 0
0 0 0 0 0 0 0 0 0
0 0 0 0 0 0 0 0 0
0 0 0 0 0 0 0 0 0
0 0 0 0 0 0 0 0 0
0 0 0 0 0 0 0 0 0
0 0 0 0 0 0 0 0 0
0 0 0 0 0 0 0 0 0
0 0 0 0 0 0 0 0 0
0 0 0 0 0 0 0 0 0
0 0 0 0 0 0 0 0 0
0 0 0 0 0 0 0 0 0
0 0 0 0 0 0 0 0 0
0 0 0 0 0 0 0 0 0
0 0 0 0 0 0 0 0 0
0 0 0 0 0 0 0 0 0
0 0 0 0 0 0 0 0 0
0 0 0 0 0 0 0 0 0
0 0 0 0 0 0 0 0 0
0 0 0 0 0 0 0 0 0
0 0 0 0 0 0 0 0 0
0 0 0 0 0 0 0 0 0
0 0 0 0 0 0 0 0 0
0 0 0 0 0 0 0 0 0
0 0 0 0 0 0 0 0 0
0 0 0 0 0 0 0 0 0
0 0 0 0 0 0 0 0 0
0 0 0 0 0 0 0 0 0
0 0 0 0 0 0 0 0 0
0 0 0 0 0 0 0 0 0
0 0 0 0 0 0 0 0 0
0 0 0 0 0 0 0 0 0
0 0 0 0 0 0 0 0 0
0 0 0 0 0 0 0 0 0
0 0 0 0 0 0 0 0 0
0 0 0 0 0 0 0 0 0
0 0 0 0 0 0 0 0 0
0 0 0 0 0 0 0 0 0
0 0 0 0 0 0 0 0 0
0 0 0 0 0 0 0 0 0
0 0 0 0 0 0 0 0 0
0 0 0 0 0 0 0 0 0
0 0 0 0 0 0 0 0 0
0 0 0 0 0 0 0 0 0
0 0 0 0 0 0 0 0 0
0 0 0 0 0 0 0 0 0
0 0 0 0 0 0 0 0 0
0 0 0 0 0 0 0 0 0
0 0 0 0 0 0 0 0 0
0 0 0 0 0 0 0 0 0
0 0 0 0 0 0 0 0 0
0 0 0 0 0 0 0 0 0
0 0 0 0 0 0 0 0 0
0 0 0 0 0 0 0 0 0
0 0 0 0 0 0 0 0 0
0 0 0 0 0 0 0 0 0
0 0 0 0 0 0 0 0 0
0 0 0 0 0 0 0 0 0
0 0 0 0 0 0 0 0 0
0 0 0 0 0 0 0 0 0
0 0 0 0 0 0 0 0 0
0 0 0 0 0 0 0 0 0
0 0 0 0 0 0 0 0 0
0 0 0 0 0 0 0 0 0
0 0 0 0 0 0 0 0 0
0 0 0 0 0 0 0 0 0
0 0 0 0 0 0 0 0 0
0 0 0 0 0 0 0 0 0
0 0 0 0 0 0 0 0 0
0 0 0 0 0 0 0 0 0
0 0 0 0 0 0 0 0 0
0 0 0 0 0 0 0 0 0
0 0 0 0 0 0 0 0 0
0 0 0 0 0 0 0 0 0
0 0 0 0 0 0 0 0 0
0 0 0 0 0 0 0 0 0
0 0 0 0 0 0 0 0 0
0 0 0 0 0 0 0 0 0
0 0 0 0 0 0 0 0 0
0 0 0 0 0 0 0 0 0
0 0 0 0 0 0 0 0 0
0 0 0 0 0 0 0 0 0
0 0 0 0 0 0 0 0 0
0 0 0 0 0 0 0 0 0
0 0 0 0 0 0 0 0 0
0 0 0 0 0 0 0 0 0
0 0 0 0 0 0 0 0 0
0 0 0 0 0 0 0 0 0
0 0 0 0 0 0 0 0 0
0 0 0 0 0 0 0 0 0
0 0 0 0 0 0 0 0 0
0 0 0 0 0 0 0 0 0
0 0 0 0 0 0 0 0 0
0 0 0 0 0 0 0 0 0
0 0 0 0 0 0 0 0 0
0 0 0 0 0 0 0 0 0
0 0 0 0 0 0 0 0 0
0 0 0 0 0 0 0 0 0
0 0 0 0 0 0 0 0 0
0 0 0 0 0 0 0 0 0
0 0 0 0 0 0 0 0 0
0 0 0 0 0 0 0 0 0
0 0 0 0 0 0 0 0 0
0 0 0 0 0 0 0 0 0
0 0 0 0 0 0 0 0 0
0 0 0 0 0 0 0 0 0
0 0 0 0 0 0 0 0 0
0 0 0 0 0 0 0 0 0
0 0 0 0 0 0 0 0 0
0 0 0 0 0 0 0 0 0
0 0 0 0 0 0 0 0 0
0 0 0 0 0 0 0 0 0
0 0 0 0 0 0 0 0 0
0 0 0 0 0 0 0 0 0
0 0 0 0 0 0 0 0 0
0 0 0 0 0 0 0 0 0
0 0 0 0 0 0 0 0 0
0 0 0 0 0 0 0 0 0
0 0 0 0 0 0 0 0 0
0 0 0 0 0 0 0 0 0
0 0 0 0 0 0 0 0 0
0 0 0 0 0 0 0 0 0
0 0 0 0 0 0 0 0 0
0 0 0 0 0 0 0 0 0
0 0 0 0 0 0 0 0 0
0 0 0 0 0 0 0 0 0
0 0 0 0 0 0 0 0 0
0 0 0 0 0 0 0 0 0
0 0 0 0 0 0 0 0 0
0 0 0 0 0 0 0 0 0
0 0 0 0 0 0 0 0 0
0 0 0 0 0 0 0 0 0
0 0 0 0 0 0 0 0 0
0 0 0 0 0 0 0 0 0
0 0 0 0 0 0 0 0 0
0 0 0 0 0 0 0 0 0
0 0 0 0 0 0 0 0 0
0 0 0 0 0 0 0 0 0
0 0 0 0 0 0 0 0 0
0 0 0 0 0 0 0 0 0
0 0 0 0 0 0 0 0 0
0 0 0 0 0 0 0 0 0
0 0 0 0 0 0 0 0 0
0 0 0 0 0 0 0 0 0
0 0 0 0 0 0 0 0 0
0 0 0 0 0 0 0 0 0
0 0 0 0 0 0 0 0 0
0 0 0 0 0 0 0 0 0
0 0 0 0 0 0 0 0 0
0 0 0 0 0 0 0 0 0
0 0 0 0 0 0 0 0 0
0 0 0 0 0 0 0 0 0
0 0 0 0 0 0 0 0 0
0 0 0 0 0 0 0 0 0
0 0 0 0 0 0 0 0 0
0 0 0 0 0 0 0 0 0
0 0 0 0 0 0 0 0 0
0 0 0 0 0 0 0 0 0
0 0 0 0 0 0 0 0 0
0 0 0 0 0 0 0 0 0
0 0 0 0 0 0 0 0 0
0 0 0 0 0 0 0 0 0
0 0 0 0 0 0 0 0 0
0.750663 0.779096 0.730204 0.75781 0.750663 0.779096 0.730204 0.75781 0
0.799939 0.82836 0.778041 0.805613 0.799939 0.82836 0.778041 0.805613 0
0.849127 0.877329 0.825752 0.853082 0.849127 0.877329 0.825752 0.853082 0
0.897865 0.925623 0.872975 0.899844 0.897865 0.925623 0.872975 0.899844 0
0.945747 0.972786 0.919316 0.94546 0.945747 0.972786 0.919316 0.94546 0
0.992283 1.01828 0.964305 0.989416 0.992283 1.01828 0.964305 0.989416 0
0.786315 0.816229 0.765752 0.794804 0.786315 0.816229 0.765752 0.794804 0
0.83817 0.868118 0.816107 0.845167 0.83817 0.868118 0.816107 0.845167 0
0.890016 0.919784 0.866406 0.895263 0.890016 0.919784 0.866406 0.895263 0
0.941474 0.970828 0.916282 0.944708 0.941474 0.970828 0.916282 0.944708 0
0.992124 1.02078 0.965321 0.993034 0.992124 1.02078 0.965321 0.993034 0
1.04145 1.06906 1.01302 1.03969 1.04145 1.06906 1.01302 1.03969 0
0.82218 0.853622 0.801488 0.832044 0.82218 0.853622 0.801488 0.832044 0
0.876701 0.908233 0.854463 0.885075 0.876701 0.908233 0.854463 0.885075 0
0.931305 0.962705 0.907464 0.937916 0.931305 0.962705 0.907464 0.937916 0
0.985601 1.01662 0.96011 0.990163 0.985601 1.01662 0.96011 0.990163 0
1.03915 1.0695 1.01197 1.04133 1.03915 1.0695 1.01197 1.04133 0
1.09141 1.12072 1.06252 1.09084 1.09141 1.12072 1.06252 1.09084 0
1.14174 1.1696 1.11114 1.13801 1.14174 1.1696 1.11114 1.13801 0
1.18942 1.21539 1.15712 1.18213 1.18942 1.21539 1.15712 1.18213 0
1.23365 1.25716 1.19972 1.22235 1.23365 1.25716 1.19972 1.22235 0
0.858244 0.891263 0.83744 0.869544 0.858244 0.891263 0.83744 0.869544 0
0.915518 0.948693 0.893116 0.925337 0.915518 0.948693 0.893116 0.925337 0
0.972985 1.00608 0.94892 0.981032 0.972985 1.00608 0.94892 0.981032 0
1.03024 1.06301 1.00445 1.03621 1.03024 1.06301 1.00445 1.03621 0
1.08682 1.11895 1.05927 1.09036 1.08682 1.11895 1.05927 1.09036 0
1.14217 1.17328 1.11282 1.14288 1.14217 1.17328 1.11282 1.14288 0
1.19561 1.22526 1.16445 1.19306 1.19561 1.22526 1.16445 1.19306 0
1.24636 1.27406 1.21341 1.2401 1.24636 1.27406 1.21341 1.2401 0
1.29353 1.31867 1.25886 1.28304 1.29353 1.31867 1.25886 1.28304 0
0.894479 0.929127 0.873579 0.907281 0.894479 0.929127 0.873579 0.907281 0
0.954601 0.989478 0.932047 0.965936 0.954601 0.989478 0.932047 0.965936 0
1.01504 1.04991 0.99076 1.0246 1.01504 1.04991 0.99076 1.0246 0
1.07538 1.10999 1.04931 1.08284 1.07538 1.10999 1.04931 1.08284 0
1.13515 1.16916 1.10722 1.14013 1.13515 1.16916 1.10722 1.14013 0
1.19376 1.22677 1.16393 1.19583 1.19376 1.22677 1.16393 1.19583 0
1.25048 1.28202 1.21873 1.24917 1.25048 1.28202 1.21873 1.24917 0
1.30449 1.33403 1.27084 1.2993 1.30449 1.33403 1.27084 1.2993 0
1.35482 1.38171 1.31932 1.34518 1.35482 1.38171 1.31932 1.34518 0
0.93085 0.967183 0.909874 0.94523 0.93085 0.967183 0.909874 0.94523 0
0.993919 1.03057 0.971232 1.00685 0.993919 1.03057 0.971232 1.00685 0
1.05745 1.09417 1.03297 1.06861 1.05745 1.09417 1.03297 1.06861 0
1.12102 1.15755 1.09466 1.13007 1.12102 1.15755 1.09466 1.13007 0
1.18413 1.22012 1.15583 1.19066 1.18413 1.22012 1.15583 1.19066 0
1.24617 1.2812 1.21586 1.24971 1.24617 1.2812 1.21586 1.24971 0
1.30638 1.33994 1.27403 1.30642 1.30638 1.33994 1.27403 1.30642 0
1.36386 1.39539 1.32949 1.35985 1.36386 1.39539 1.32949 1.35985 0
1.41759 1.44637 1.38122 1.4089 1.41759 1.44637 1.38122 1.4089 0
0.967318 1.00539 0.94629 0.983353 0.967318 1.00539 0.94629 0.983353 0
1.03344 1.07193 1.01064 1.04806 1.03344 1.07193 1.01064 1.04806 0
1.10019 1.13884 1.07552 1.11305 1.10019 1.13884 1.07552 1.11305 0
1.16713 1.20567 1.1405 1.17786 1.16713 1.20567 1.1405 1.17786 0
1.23376 1.27183 1.20508 1.24193 1.23376 1.27183 1.20508 1.24193 0
1.29942 1.33658 1.26863 1.30454 1.29942 1.33658 1.26863 1.30454 0
1.36333 1.39905 1.33038 1.36483 1.36333 1.39905 1.33038 1.36483 0
1.42453 1.45818 1.3894 1.42181 1.42453 1.45818 1.3894 1.42181 0
1.4819 1.51274 1.44464 1.47427 1.4819 1.51274 1.44464 1.47427 0
1.53421 1.56165 1.4949 1.52122 1.53421 1.56165 1.4949 1.52122 0
0.935548 0.974824 0.916231 0.95453 0.935548 0.974824 0.916231 0.95453 0
1.00381 1.0437 0.982777 1.02161 1.00381 1.0437 0.982777 1.02161 0
1.07311 1.11352 1.05023 1.08952 1.07311 1.11352 1.05023 1.08952 0
1.14322 1.18389 1.11838 1.15788 1.14322 1.18389 1.11838 1.15788 0
1.21369 1.25435 1.1868 1.22623 1.21369 1.25435 1.1868 1.22623 0
1.28401 1.32428 1.25497 1.29396 1.28401 1.32428 1.25497 1.29396 0
1.35351 1.39294 1.32223 1.36034 1.35351 1.39294 1.32223 1.36034 0
1.42136 1.45938 1.38778 1.42445 1.42136 1.45938 1.38778 1.42445 0
1.48653 1.52247 1.45063 1.48523 1.48653 1.52247 1.45063 1.48523 0
1.54783 1.58088 1.50963 1.54138 1.54783 1.58088 1.50963 1.54138 0
1.60392 1.63342 1.5635 1.59179 1.60392 1.63342 1.5635 1.59179 0
1.65332 1.67772 1.61085 1.63416 1.65332 1.67772 1.61085 1.63416 0
1.04032 1.08211 1.01928 1.05996 1.04032 1.08211 1.01928 1.05996 0
1.11294 1.15533 1.08996 1.1312 1.11294 1.15533 1.08996 1.1312 0
1.18654 1.22934 1.16153 1.20309 1.18654 1.22934 1.16153 1.20309 0
1.26072 1.3036 1.23356 1.27514 1.26072 1.3036 1.23356 1.27514 0
1.33492 1.37751 1.30549 1.34673 1.33492 1.37751 1.30549 1.34673 0
1.40845 1.45029 1.37668 1.41711 1.40845 1.45029 1.37668 1.41711 0
1.48048 1.52096 1.44626 1.48531 1.48048 1.52096 1.44626 1.48531 0
1.54992 1.58834 1.51321 1.55017 1.54992 1.58834 1.51321 1.55017 0
1.61548 1.65095 1.57627 1.61032 1.61548 1.65095 1.57627 1.61032 0
1.67568 1.70744 1.63405 1.66449 1.67568 1.70744 1.63405 1.66449 0
1.7289 1.7553 1.68503 1.71026 1.7289 1.7553 1.68503 1.71026 0
0 0 0 0 0 0 0 0 0
0 0 0 0 0 0 0 0 0
0 0 0 0 0 0 0 0 0
0 0 0 0 0 0 0 0 0
0 0 0 0 0 0 0 0 0
0 0 0 0 0 0 0 0 0
0 0 0 0 0 0 0 0 0
0 0 0 0 0 0 0 0 0
0 0 0 0 0 0 0 0 0
0 0 0 0 0 0 0 0 0
0 0 0 0 0 0 0 0 0
0 0 0 0 0 0 0 0 0
0 0 0 0 0 0 0 0 0
0 0 0 0 0 0 0 0 0
0 0 0 0 0 0 0 0 0
0 0 0 0 0 0 0 0 0
0 0 0 0 0 0 0 0 0
0 0 0 0 0 0 0 0 0
0 0 0 0 0 0 0 0 0
0 0 0 0 0 0 0 0 0
0 0 0 0 0 0 0 0 0
0 0 0 0 0 0 0 0 0
0 0 0 0 0 0 0 0 0
0 0 0 0 0 0 0 0 0
0 0 0 0 0 0 0 0 0
0 0 0 0 0 0 0 0 0
0 0 0 0 0 0 0 0 0
0 0 0 0 0 0 0 0 0
0 0 0 0 0 0 0 0 0
0 0 0 0 0 0 0 0 0
0 0 0 0 0 0 0 0 0
0 0 0 0 0 0 0 0 0
0 0 0 0 0 0 0 0 0
0 0 0 0 0 0 0 0 0
0 0 0 0 0 0 0 0 0
0 0 0 0 0 0 0 0 0
0 0 0 0 0 0 0 0 0
0 0 0 0 0 0 0 0 0
0 0 0 0 0 0 0 0 0
0 0 0 0 0 0 0 0 0
0 0 0 0 0 0 0 0 0
0 0 0 0 0 0 0 0 0
0 0 0 0 0 0 0 0 0
0 0 0 0 0 0 0 0 0
0 0 0 0 0 0 0 0 0
0 0 0 0 0 0 0 0 0
0 0 0 0 0 0 0 0 0
0 0 0 0 0 0 0 0 0
0 0 0 0 0 0 0 0 0
0 0 0 0 0 0 0 0 0
0 0 0 0 0 0 0 0 0
0 0 0 0 0 0 0 0 0
0 0 0 0 0 0 0 0 0
0 0 0 0 0 0 0 0 0
0 0 0 0 0 0 0 0 0
0 0 0 0 0 0 0 0 0
0 0 0 0 0 0 0 0 0
0 0 0 0 0 0 0 0 0
0 0 0 0 0 0 0 0 0
0 0 0 0 0 0 0 0 0
0 0 0 0 0 0 0 0 0
0 0 0 0 0 0 0 0 0
0 0 0 0 0 0 0 0 0
0 0 0 0 0 0 0 0 0
0 0 0 0 0 0 0 0 0
0 0 0 0 0 0 0 0 0
0 0 0 0 0 0 0 0 0
0 0 0 0 0 0 0 0 0
0 0 0 0 0 0 0 0 0
0 0 0 0 0 0 0 0 0
0 0 0 0 0 0 0 0 0
0 0 0 0 0 0 0 0 0
0 0 0 0 0 0 0 0 0
0 0 0 0 0 0 0 0 0
0 0 0 0 0 0 0 0 0
0 0 0 0 0 0 0 0 0
0 0 0 0 0 0 0 0 0
0 0 0 0 0 0 0 0 0
0 0 0 0 0 0 0 0 0
0 0 0 0 0 0 0 0 0
0 0 0 0 0 0 0 0 0
0 0 0 0 0 0 0 0 0
0 0 0 0 0 0 0 0 0
0 0 0 0 0 0 0 0 0
0 0 0 0 0 0 0 0 0
0 0 0 0 0 0 0 0 0
0 0 0 0 0 0 0 0 0
0 0 0 0 0 0 0 0 0
0 0 0 0 0 0 0 0 0
0 0 0 0 0 0 0 0 0
0 0 0 0 0 0 0 0 0
0 0 0 0 0 0 0 0 0
0 0 0 0 0 0 0 0 0
0 0 0 0 0 0 0 0 0
0 0 0 0 0 0 0 0 0
0 0 0 0 0 0 0 0 0
0 0 0 0 0 0 0 0 0
0 0 0 0 0 0 0 0 0
0 0 0 0 0 0 0 0 0
0 0 0 0 0 0 0 0 0
0 0 0 0 0 0 0 0 0
0 0 0 0 0 0 0 0 0
0 0 0 0 0 0 0 0 0
0 0 0 0 0 0 0 0 0
0 0 0 0 0 0 0 0 0
0 0 0 0 0 0 0 0 0
0 0 0 0 0 0 0 0 0
0 0 0 0 0 0 0 0 0
0 0 0 0 0 0 0 0 0
0 0 0 0 0 0 0 0 0
0 0 0 0 0 0 0 0 0
0 0 0 0 0 0 0 0 0
0 0 0 0 0 0 0 0 0
0 0 0 0 0 0 0 0 0
0 0 0 0 0 0 0 0 0
0 0 0 0 0 0 0 0 0
0 0 0 0 0 0 0 0 0
0 0 0 0 0 0 0 0 0
0 0 0 0 0 0 0 0 0
0 0 0 0 0 0 0 0 0
0 0 0 0 0 0 0 0 0
0 0 0 0 0 0 0 0 0
0 0 0 0 0 0 0 0 0
0 0 0 0 0 0 0 0 0
0 0 0 0 0 0 0 0 0
0 0 0 0 0 0 0 0 0
0 0 0 0 0 0 0 0 0
0 0 0 0 0 0 0 0 0
0 0 0 0 0 0 0 0 0
0 0 0 0 0 0 0 0 0
0 0 0 0 0 0 0 0 0
0 0 0 0 0 0 0 0 0
0 0 0 0 0 0 0 0 0
0 0 0 0 0 0 0 0 0
0 0 0 0 0 0 0 0 0
0 0 0 0 0 0 0 0 0
0 0 0 0 0 0 0 0 0
0 0 0 0 0 0 0 0 0
0 0 0 0 0 0 0 0 0
0 0 0 0 0 0 0 0 0
0 0 0 0 0 0 0 0 0
0 0 0 0 0 0 0 0 0
0 0 0 0 0 0 0 0 0
0 0 0 0 0 0 0 0 0
0 0 0 0 0 0 0 0 0
0 0 0 0 0 0 0 0 0
0 0 0 0 0 0 0 0 0
0 0 0 0 0 0 0 0 0
0 0 0 0 0 0 0 0 0
0 0 0 0 0 0 0 0 0
0 0 0 0 0 0 0 0 0
0 0 0 0 0 0 0 0 0
0 0 0 0 0 0 0 0 0
0 0 0 0 0 0 0 0 0
0 0 0 0 0 0 0 0 0
0 0 0 0 0 0 0 0 0
0 0 0 0 0 0 0 0 0
0 0 0 0 0 0 0 0 0
0 0 0 0 0 0 0 0 0
0 0 0 0 0 0 0 0 0
0 0 0 0 0 0 0 0 0
0 0 0 0 0 0 0 0 0
0 0 0 0 0 0 0 0 0
0 0 0 0 0 0 0 0 0
0 0 0 0 0 0 0 0 0
0 0 0 0 0 0 0 0 0
0 0 0 0 0 0 0 0 0
0 0 0 0 0 0 0 0 0
0 0 0 0 0 0 0 0 0
0 0 0 0 0 0 0 0 0
0 0 0 0 0 0 0 0 0
0 0 0 0 0 0 0 0 0
0 0 0 0 0 0 0 0 0
0 0 0 0 0 0 0 0 0
0 0 0 0 0 0 0 0 0
0 0 0 0 0 0 0 0 0
0 0 0 0 0 0 0 0 0
0 0 0 0 0 0 0 0 0
0 0 0 0 0 0 0 0 0
0 0 0 0 0 0 0 0 0
0 0 0 0 0 0 0 0 0
0 0 0 0 0 0 0 0 0
0 0 0 0 0 0 0 0 0
0 0 0 0 0 0 0 0 0
0 0 0 0 0 0 0 0 0
0 0 0 0 0 0 0 0 0
0 0 0 0 0 0 0 0 0
0 0 0 0 0 0 0 0 0
0 0 0 0 0 0 0 0 0
0 0 0 0 0 0 0 0 0
0 0 0 0 0 0 0 0 0
0 0 0 0 0 0 0 0 0
0 0 0 0 0 0 0 0 0
0 0 0 0 0 0 0 0 0
0 0 0 0 0 0 0 0 0
0 0 0 0 0 0 0 0 0
0 0 0 0 0 0 0 0 0
0 0 0 0 0 0 0 0 0
0 0 0 0 0 0 0 0 0
0 0 0 0 0 0 0 0 0
0 0 0 0 0 0 0 0 0
0 0 0 0 0 0 0 0 0
0 0 0 0 0 0 0 0 0
0 0 0 0 0 0 0 0 0
0 0 0 0 0 0 0 0 0
0 0 0 0 0 0 0 0 0
0 0 0 0 0 0 0 0 0
0 0 0 0 0 0 0 0 0
0 0 0 0 0 0 0 0 0
0 0 0 0 0 0 0 0 0
0 0 0 0 0 0 0 0 0
0 0 0 0 0 0 0 0 0
0 0 0 0 0 0 0 0 0
0 0 0 0 0 0 0 0 0
0 0 0 0 0 0 0 0 0
0 0 0 0 0 0 0 0 0
0 0 0 0 0 0 0 0 0
0 0 0 0 0 0 0 0 0
0 0 0 0 0 0 0 0 0
0 0 0 0 0 0 0 0 0
0 0 0 0 0 0 0 0 0
0 0 0 0 0 0 0 0 0
0 0 0 0 0 0 0 0 0
0 0 0 0 0 0 0 0 0
0 0 0 0 0 0 0 0 0
0 0 0 0 0 0 0 0 0
0 0 0 0 0 0 0 0 0
0 0 0 0 0 0 0 0 0
0 0 0 0 0 0 0 0 0
0 0 0 0 0 0 0 0 0
0 0 0 0 0 0 0 0 0
0 0 0 0 0 0 0 0 0
0 0 0 0 0 0 0 0 0
0 0 0 0 0 0 0 0 0
0 0 0 0 0 0 0 0 0
0 0 0 0 0 0 0 0 0
0 0 0 0 0 0 0 0 0
0 0 0 0 0 0 0 0 0
0 0 0 0 0 0 0 0 0
0 0 0 0 0 0 0 0 0
0 0 0 0 0 0 0 0 0
0 0 0 0 0 0 0 0 0
0 0 0 0 0 0 0 0 0
0 0 0 0 0 0 0 0 0
0 0 0 0 0 0 0 0 0
0 0 0 0 0 0 0 0 0
0 0 0 0 0 0 0 0 0
0 0 0 0 0 0 0 0 0
0 0 0 0 0 0 0 0 0
0 0 0 0 0 0 0 0 0
0 0 0 0 0 0 0 0 0
0 0 0 0 0 0 0 0 0
0 0 0 0 0 0 0 0 0
0 0 0 0 0 0 0 0 0
0 0 0 0 0 0 0 0 0
0 0 0 0 0 0 0 0 0
0 0 0 0 0 0 0 0 0
0 0 0 0 0 0 0 0 0
0 0 0 0 0 0 0 0 0
0 0 0 0 0 0 0 0 0
0 0 0 0 0 0 0 0 0
0 0 0 0 0 0 0 0 0
0 0 0 0 0 0 0 0 0
0 0 0 0 0 0 0 0 0
0 0 0 0 0 0 0 0 0
0 0 0 0 0 0 0 0 0
0 0 0 0 0 0 0 0 0
0 0 0 0 0 0 0 0 0
0 0 0 0 0 0 0 0 0
0 0 0 0 0 0 0 0 0
0 0 0 0 0 0 0 0 0
0 0 0 0 0 0 0 0 0
0 0 0 0 0 0 0 0 0
0 0 0 0 0 0 0 0 0
0 0 0 0 0 0 0 0 0
0 0 0 0 0 0 0 0 0
0 0 0 0 0 0 0 0 0
0 0 0 0 0 0 0 0 0
0 0 0 0 0 0 0 0 0
0 0 0 0 0 0 0 0 0
0 0 0 0 0 0 0 0 0
0 0 0 0 0 0 0 0 0
0 0 0 0 0 0 0 0 0
0 0 0 0 0 0 0 0 0
0 0 0 0 0 0 0 0 0
0 0 0 0 0 0 0 0 0
0 0 0 0 0 0 0 0 0
0 0 0 0 0 0 0 0 0
0 0 0 0 0 0 0 0 0
0 0 0 0 0 0 0 0 0
0 0 0 0 0 0 0 0 0
0 0 0 0 0 0 0 0 0
0 0 0 0 0 0 0 0 0
0 0 0 0 0 0 0 0 0
0 0 0 0 0 0 0 0 0
0 0 0 0 0 0 0 0 0
0 0 0 0 0 0 0 0 0
0 0 0 0 0 0 0 0 0
0 0 0 0 0 0 0 0 0
0 0 0 0 0 0 0 0 0
0 0 0 0 0 0 0 0 0
0 0 0 0 0 0 0 0 0
0 0 0 0 0 0 0 0 0
0 0 0 0 0 0 0 0 0
0 0 0 0 0 0 0 0 0
0 0 0 0 0 0 0 0 0
0 0 0 0 0 0 0 0 0
0 0 0 0 0 0 0 0 0
0 0 0 0 0 0 0 0 0
0 0 0 0 0 0 0 0 0
0 0 0 0 0 0 0 0 0
0 0 0 0 0 0 0 0 0
0 0 0 0 0 0 0 0 0
0 0 0 0 0 0 0 0 0
0 0 0 0 0 0 0 0 0
0 0 0 0 0 0 0 0 0
0 0 0 0 0 0 0 0 0
0 0 0 0 0 0 0 0 0
0 0 0 0 0 0 0 0 0
0 0 0 0 0 0 0 0 0
0 0 0 0 0 0 0 0 0
0 0 0 0 0 0 0 0 0
0 0 0 0 0 0 0 0 0
0 0 0 0 0 0 0 0 0
0 0 0 0 0 0 0 0 0
0 0 0 0 0 0 0 0 0
0 0 0 0 0 0 0 0 0
0 0 0 0 0 0 0 0 0
0 0 0 0 0 0 0 0 0
0 0 0 0 0 0 0 0 0
0 0 0 0 0 0 0 0 0
0 0 0 0 0 0 0 0 0
0 0 0 0 0 0 0 0 0
0 0 0 0 0 0 0 0 0
0 0 0 0 0 0 0 0 0
0 0 0 0 0 0 0 0 0
0 0 0 0 0 0 0 0 0
0 0 0 0 0 0 0 0 0
0 0 0 0 0 0 0 0 0
0 0 0 0 0 0 0 0 0
0 0 0 0 0 0 0 0 0
0 0 0 0 0 0 0 0 0
0 0 0 0 0 0 0 0 0
0 0 0 0 0 0 0 0 0
0 0 0 0 0 0 0 0 0
0 0 0 0 0 0 0 0 0
0 0 0 0 0 0 0 0 0
0 0 0 0 0 0 0 0 0
0 0 0 0 0 0 0 0 0
0 0 0 0 0 0 0 0 0
0 0 0 0 0 0 0 0 0
0 0 0 0 0 0 0 0 0
0 0 0 0 0 0 0 0 0
0 0 0 0 0 0 0 0 0
0 0 0 0 0 0 0 0 0
0 0 0 0 0 0 0 0 0
0 0 0 0 0 0 0 0 0
0 0 0 0 0 0 0 0 0
0 0 0 0 0 0 0 0 0
0 0 0 0 0 0 0 0 0
0 0 0 0 0 0 0 0 0
0 0 0 0 0 0 0 0 0
0 0 0 0 0 0 0 0 0
0 0 0 0 0 0 0 0 0
0 0 0 0 0 0 0 0 0
0 0 0 0 0 0 0 0 0
0 0 0 0 0 0 0 0 0
0 0 0 0 0 0 0 0 0
0 0 0 0 0 0 0 0 0
0 0 0 0 0 0 0 0 0
0 0 0 0 0 0 0 0 0
0 0 0 0 0 0 0 0 0
0 0 0 0 0 0 0 0 0
0 0 0 0 0 0 0 0 0
0 0 0 0 0 0 0 0 0
0 0 0 0 0 0 0 0 0
0 0 0 0 0 0 0 0 0
0 0 0 0 0 0 0 0 0
0 0 0 0 0 0 0 0 0
0 0 0 0 0 0 0 0 0
0 0 0 0 0 0 0 0 0
0 0 0 0 0 0 0 0 0
0 0 0 0 0 0 0 0 0
0 0 0 0 0 0 0 0 0
0 0 0 0 0 0 0 0 0
0 0 0 0 0 0 0 0 0
0 0 0 0 0 0 0 0 0
0 0 0 0 0 0 0 0 0
0 0 0 0 0 0 0 0 0
0 0 0 0 0 0 0 0 0
0 0 0 0 0 0 0 0 0
0 0 0 0 0 0 0 0 0
0 0 0 0 0 0 0 0 0
0 0 0 0 0 0 0 0 0
0 0 0 0 0 0 0 0 0
0 0 0 0 0 0 0 0 0
0 0 0 0 0 0 0 0 0
0 0 0 0 0 0 0 0 0
0 0 0 0 0 0 0 0 0
0 0 0 0 0 0 0 0 0
0 0 0 0 0 0 0 0 0
0 0 0 0 0 0 0 0 0
0 0 0 0 0 0 0 0 0
0 0 0 0 0 0 0 0 0
0 0 0 0 0 0 0 0 0
0 0 0 0 0 0 0 0 0
0 0 0 0 0 0 0 0 0
0 0 0 0 0 0 0 0 0
0 0 0 0 0 0 0 0 0
0 0 0 0 0 0 0 0 0
0 0 0 0 0 0 0 0 0
0 0 0 0 0 0 0 0 0
0 0 0 0 0 0 0 0 0
0 0 0 0 0 0 0 0 0
0 0 0 0 0 0 0 0 0
0 0 0 0 0 0 0 0 0
0 0 0 0 0 0 0 0 0
0 0 0 0 0 0 0 0 0
0 0 0 0 0 0 0 0 0
0 0 0 0 0 0 0 0 0
0 0 0 0 0 0 0 0 0
0 0 0 0 0 0 0 0 0
0 0 0 0 0 0 0 0 0
0 0 0 0 0 0 0 0 0
0 0 0 0 0 0 0 0 0
0 0 0 0 0 0 0 0 0
0 0 0 0 0 0 0 0 0
0 0 0 0 0 0 0 0 0
0 0 0 0 0 0 0 0 0
0 0 0 0 0 0 0 0 0
0 0 0 0 0 0 0 0 0
0 0 0 0 0 0 0 0 0
0 0 0 0 0 0 0 0 0
0 0 0 0 0 0 0 0 0
0 0 0 0 0 0 0 0 0
0 0 0 0 0 0 0 0 0
0 0 0 0 0 0 0 0 0
0 0 0 0 0 0 0 0 0
0 0 0 0 0 0 0 0 0
0 0 0 0 0 0 0 0 0
0 0 0 0 0 0 0 0 0
0 0 0 0 0 0 0 0 0
0 0 0 0 0 0 0 0 0
0 0 0 0 0 0 0 0 0
0 0 0 0 0 0 0 0 0
0 0 0 0 0 0 0 0 0
0 0 0 0 0 0 0 0 0
0 0 0 0 0 0 0 0 0
0 0 0 0 0 0 0 0 0
0 0 0 0 0 0 0 0 0
0 0 0 0 0 0 0 0 0
0 0 0 0 0 0 0 0 0
0 0 0 0 0 0 0 0 0
0 0 0 0 0 0 0 0 0
0 0 0 0 0 0 0 0 0
0 0 0 0 0 0 0 0 0
0 0 0 0 0 0 0 0 0
0 0 0 0 0 0 0 0 0
0 0 0 0 0 0 0 0 0
0 0 0 0 0 0 0 0 0
0 0 0 0 0 0 0 0 0
0 0 0 0 0 0 0 0 0
0 0 0 0 0 0 0 0 0
0 0 0 0 0 0 0 0 0
0 0 0 0 0 0 0 0 0
0 0 0 0 0 0 0 0 0
0 0 0 0 0 0 0 0 0
0 0 0 0 0 0 0 0 0
0 0 0 0 0 0 0 0 0
0 0 0 0 0 0 0 0 0
0 0 0 0 0 0 0 0 0
0 0 0 0 0 0 0 0 0
0 0 0 0 0 0 0 0 0
0 0 0 0 0 0 0 0 0
0 0 0 0 0 0 0 0 0
0 0 0 0 0 0 0 0 0
0 0 0 0 0 0 0 0 0
0 0 0 0 0 0 0 0 0
0 0 0 0 0 0 0 0 0
0 0 0 0 0 0 0 0 0
0 0 0 0 0 0 0 0 0
0 0 0 0 0 0 0 0 0
0 0 0 0 0 0 0 0 0
0 0 0 0 0 0 0 0 0
0 0 0 0 0 0 0 0 0
0 0 0 0 0 0 0 0 0
0 0 0 0 0 0 0 0 0
0 0 0 0 0 0 0 0 0
0 0 0 0 0 0 0 0 0
0 0 0 0 0 0 0 0 0
0 0 0 0 0 0 0 0 0
0 0 0 0 0 0 0 0 0
0 0 0 0 0 0 0 0 0
0 0 0 0 0 0 0 0 0
0 0 0 0 0 0 0 0 0
0 0 0 0 0 0 0 0 0
0 0 0 0 0 0 0 0 0
0 0 0 0 0 0 0 0 0
0 0 0 0 0 0 0 0 0
0 0 0 0 0 0 0 0 0
0 0 0 0 0 0 0 0 0
0 0 0 0 0 0 0 0 0
0 0 0 0 0 0 0 0 0
0 0 0 0 0 0 0 0 0
0 0 0 0 0 0 0 0 0
0 0 0 0 0 0 0 0 0
0 0 0 0 0 0 0 0 0
0 0 0 0 0 0 0 0 0
0 0 0 0 0 0 0 0 0
0 0 0 0 0 0 0 0 0
0 0 0 0 0 0 0 0 0
0 0 0 0 0 0 0 0 0
0 0 0 0 0 0 0 0 0
0 0 0 0 0 0 0 0 0
0 0 0 0 0 0 0 0 0
0 0 0 0 0 0 0 0 0
0 0 0 0 0 0 0 0 0
0 0 0 0 0 0 0 0 0
0 0 0 0 0 0 0 0 0
0 0 0 0 0 0 0 0 0
0 0 0 0 0 0 0 0 0
0 0 0 0 0 0 0 0 0
0 0 0 0 0 0 0 0 0
0 0 0 0 0 0 0 0 0
0 0 0 0 0 0 0 0 0
0 0 0 0 0 0 0 0 0
0 0 0 0 0 0 0 0 0
0 0 0 0 0 0 0 0 0
0 0 0 0 0 0 0 0 0
0 0 0 0 0 0 0 0 0
0 0 0 0 0 0 0 0 0
0 0 0 0 0 0 0 0 0
0 0 0 0 0 0 0 0 0
0 0 0 0 0 0 0 0 0
0 0 0 0 0 0 0 0 0
0 0 0 0 0 0 0 0 0
0 0 0 0 0 0 0 0 0
0 0 0 0 0 0 0 0 0
0 0 0 0 0 0 0 0 0
0 0 0 0 0 0 0 0 0
0 0 0 0 0 0 0 0 0
0 0 0 0 0 0 0 0 0
0 0 0 0 0 0 0 0 0
0 0 0 0 0 0 0 0 0
0 0 0 0 0 0 0 0 0
0 0 0 0 0 0 0 0 0
0 0 0 0 0 0 0 0 0
0 0 0 0 0 0 0 0 0
0 0 0 0 0 0 0 0 0
0 0 0 0 0 0 0 0 0
0 0 0 0 0 0 0 0 0
0 0 0 0 0 0 0 0 0
0 0 0 0 0 0 0 0 0
0 0 0 0 0 0 0 0 0
0 0 0 0 0 0 0 0 0
0 0 0 0 0 0 0 0 0
0 0 0 0 0 0 0 0 0
0 0 0 0 0 0 0 0 0
0 0 0 0 0 0 0 0 0
0 0 0 0 0 0 0 0 0
0 0 0 0 0 0 0 0 0
0 0 0 0 0 0 0 0 0
0 0 0 0 0 0 0 0 0
0 0 0 0 0 0 0 0 0
0 0 0 0 0 0 0 0 0
0 0 0 0 0 0 0 0 0
0 0 0 0 0 0 0 0 0
0.404339 0.419572 0.392894 0.407682 0.404339 0.419572 0.392894 0.407682 0
0.430736 0.445957 0.418517 0.433281 0.430736 0.445957 0.418517 0.433281 0
0.457078 0.472176 0.444063 0.458691 0.457078 0.472176 0.444063 0.458691 0
0.483171 0.498033 0.46934 0.483724 0.483171 0.498033 0.46934 0.483724 0
0.50881 0.523288 0.49415 0.508148 0.50881 0.523288 0.49415 0.508148 0
0.533734 0.547666 0.518242 0.531692 0.533734 0.547666 0.518242 0.531692 0
0.424298 0.440336 0.412784 0.428352 0.424298 0.440336 0.412784 0.428352 0
0.452099 0.46815 0.439766 0.455333 0.452099 0.46815 0.439766 0.455333 0
0.479883 0.495828 0.466709 0.482161 0.479883 0.495828 0.466709 0.482161 0
0.507446 0.523167 0.493417 0.508638 0.507446 0.523167 0.493417 0.508638 0
0.534573 0.549917 0.519677 0.534517 0.534573 0.549917 0.519677 0.534517 0
0.560995 0.575793 0.545227 0.559522 0.560995 0.575793 0.545227 0.559522 0
0.444398 0.461271 0.432798 0.449188 0.444398 0.461271 0.432798 0.449188 0
0.473654 0.490565 0.461211 0.477623 0.473654 0.490565 0.461211 0.477623 0
0.502935 0.519762 0.489623 0.505938 0.502935 0.519762 0.489623 0.505938 0
0.53203 0.548649 0.517828 0.533923 0.53203 0.548649 0.517828 0.533923 0
0.560716 0.576972 0.545605 0.561331 0.560716 0.576972 0.545605 0.561331 0
0.588716 0.604427 0.572686 0.587864 0.588716 0.604427 0.572686 0.587864 0
0.615703 0.630651 0.598749 0.613162 0.615703 0.630651 0.598749 0.613162 0
0.641298 0.655256 0.623423 0.63686 0.641298 0.655256 0.623423 0.63686 0
0.665059 0.67766 0.646299 0.658424 0.665059 0.67766 0.646299 0.658424 0
0.46464 0.482372 0.452959 0.470193 0.46464 0.482372 0.452959 0.470193 0
0.495393 0.513196 0.482844 0.500129 0.495393 0.513196 0.482844 0.500129 0
0.526227 0.543971 0.512776 0.529987 0.526227 0.543971 0.512776 0.529987 0
0.556918 0.574478 0.542539 0.559551 0.556918 0.574478 0.542539 0.559551 0
0.587238 0.604454 0.571907 0.588565 0.587238 0.604454 0.571907 0.588565 0
0.616902 0.633585 0.600601 0.616717 0.616902 0.633585 0.600601 0.616717 0
0.645567 0.661482 0.628287 0.64364 0.645567 0.661482 0.628287 0.64364 0
0.672823 0.687717 0.654576 0.668926 0.672823 0.687717 0.654576 0.668926 0
0.698183 0.711667 0.679003 0.69197 0.698183 0.711667 0.679003 0.69197 0
0.48501 0.50363 0.473256 0.491361 0.48501 0.50363 0.473256 0.491361 0
0.517314 0.53604 0.50466 0.52285 0.517314 0.53604 0.50466 0.52285 0
0.549757 0.568458 0.536168 0.554313 0.549757 0.568458 0.536168 0.554313 0
0.582114 0.600659 0.567556 0.585528 0.582114 0.600659 0.567556 0.585528 0
0.614147 0.632373 0.598592 0.61623 0.614147 0.632373 0.598592 0.61623 0
0.645563 0.663269 0.628987 0.646098 0.645563 0.663269 0.628987 0.646098 0
0.675998 0.692936 0.65839 0.674732 0.675998 0.692936 0.65839 0.674732 0
0.705014 0.720909 0.686379 0.701689 0.705014 0.720909 0.686379 0.701689 0
0.732087 0.746528 0.712449 0.72633 0.732087 0.746528 0.712449 0.72633 0
0.505494 0.525034 0.493676 0.512682 0.505494 0.525034 0.493676 0.512682 0
0.539403 0.559088 0.526653 0.545781 0.539403 0.559088 0.526653 0.545781 0
0.57352 0.593219 0.559797 0.578915 0.57352 0.593219 0.559797 0.578915 0
0.607617 0.627195 0.592881 0.611858 0.607617 0.627195 0.592881 0.611858 0
0.641448 0.660735 0.625666 0.644335 0.641448 0.660735 0.625666 0.644335 0
0.674707 0.693496 0.657851 0.676009 0.674707 0.693496 0.657851 0.676009 0
0.707015 0.72504 0.689066 0.706457 0.707015 0.72504 0.689066 0.706457 0
0.737905 0.754873 0.718861 0.735202 0.737905 0.754873 0.718861 0.735202 0
0.766819 0.782294 0.746698 0.761567 0.766819 0.782294 0.746698 0.761567 0
0.526072 0.546565 0.514202 0.534141 0.526072 0.546565 0.514202 0.534141 0
0.561648 0.582332 0.548809 0.568912 0.561648 0.582332 0.548809 0.568912 0
0.59751 0.618253 0.583656 0.603792 0.59751 0.618253 0.583656 0.603792 0
0.633427 0.654087 0.618514 0.638544 0.633427 0.654087 0.618514 0.638544 0
0.669143 0.689547 0.653132 0.672886 0.669143 0.689547 0.653132 0.672886 0
0.704344 0.724277 0.687202 0.706468 0.704344 0.724277 0.687202 0.706468 0
0.738637 0.757821 0.720336 0.738844 0.738637 0.757821 0.720336 0.738844 0
0.771528 0.789646 0.752058 0.769504 0.771528 0.789646 0.752058 0.769504 0
0.802418 0.819013 0.781791 0.79773 0.802418 0.819013 0.781791 0.79773 0
0.830614 0.845483 0.808868 0.823122 0.830614 0.845483 0.808868 0.823122 0
0.509871 0.531057 0.498926 0.519581 0.509871 0.531057 0.498926 0.519581 0
0.546691 0.568195 0.534804 0.555717 0.546691 0.568195 0.534804 0.555717 0
0.58403 0.605757 0.571113 0.592234 0.58403 0.605757 0.571113 0.592234 0
0.621716 0.64355 0.607738 0.628937 0.621716 0.64355 0.607738 0.628937 0
0.659537 0.681332 0.644451 0.665585 0.659537 0.681332 0.644451 0.665585 0
0.697232 0.71881 0.680993 0.701888 0.697232 0.71881 0.680993 0.701888 0
0.73448 0.755629 0.717049 0.737488 0.73448 0.755629 0.717049 0.737488 0
0.770883 0.791303 0.752219 0.771918 0.770883 0.791303 0.752219 0.771918 0
0.805911 0.825265 0.785998 0.80463 0.805911 0.825265 0.785998 0.80463 0
0.838927 0.856726 0.81777 0.834865 0.838927 0.856726 0.81777 0.834865 0
0.869176 0.885172 0.846817 0.862155 0.869176 0.885172 0.846817 0.862155 0
0.89579 0.908527 0.87231 0.884437 0.89579 0.908527 0.87231 0.884437 0
0.567377 0.589904 0.555443 0.577382 0.567377 0.589904 0.555443 0.577382 0
0.606509 0.62932 0.593541 0.615723 0.606509 0.62932 0.593541 0.615723 0
0.646098 0.669092 0.632023 0.65434 0.646098 0.669092 0.632023 0.65434 0
0.685941 0.708935 0.670686 0.692981 0.685941 0.708935 0.670686 0.692981 0
0.725724 0.748539 0.709251 0.731345 0.725724 0.748539 0.709251 0.731345 0
0.765128 0.78756 0.747398 0.769083 0.765128 0.78756 0.747398 0.769083 0
0.803765 0.82551 0.784733 0.805703 0.803765 0.82551 0.784733 0.805703 0
0.841087 0.861774 0.820712 0.840619 0.841087 0.861774 0.820712 0.840619 0
0.876401 0.895517 0.854679 0.873022 0.876401 0.895517 0.854679 0.873022 0
0.908896 0.926129 0.885854 0.90236 0.908896 0.926129 0.885854 0.90236 0
0.937603 0.951457 0.91333 0.926532 0.937603 0.951457 0.91333 0.926532 0
0 0 0 0 0 0 0 0 0
0 0 0 0 0 0 0 0 0
0 0 0 0 0 0 0 0 0
0 0 0 0 0 0 0 0 0
0 0 0 0 0 0 0 0 0
0 0 0 0 0 0 0 0 0
0 0 0 0 0 0 0 0 0
0 0 0 0 0 0 0 0 0
0 0 0 0 0 0 0 0 0
0 0 0 0 0 0 0 0 0
0 0 0 0 0 0 0 0 0
0 0 0 0 0 0 0 0 0
0 0 0 0 0 0 0 0 0
0 0 0 0 0 0 0 0 0
0 0 0 0 0 0 0 0 0
0 0 0 0 0 0 0 0 0
0 0 0 0 0 0 0 0 0
0 0 0 0 0 0 0 0 0
0 0 0 0 0 0 0 0 0
0 0 0 0 0 0 0 0 0
0 0 0 0 0 0 0 0 0
0 0 0 0 0 0 0 0 0
0 0 0 0 0 0 0 0 0
0 0 0 0 0 0 0 0 0
0 0 0 0 0 0 0 0 0
0 0 0 0 0 0 0 0 0
0 0 0 0 0 0 0 0 0
0 0 0 0 0 0 0 0 0
0 0 0 0 0 0 0 0 0
0 0 0 0 0 0 0 0 0
0 0 0 0 0 0 0 0 0
0 0 0 0 0 0 0 0 0
0 0 0 0 0 0 0 0 0
0 0 0 0 0 0 0 0 0
0 0 0 0 0 0 0 0 0
0 0 0 0 0 0 0 0 0
0 0 0 0 0 0 0 0 0
0 0 0 0 0 0 0 0 0
0 0 0 0 0 0 0 0 0
0 0 0 0 0 0 0 0 0
0 0 0 0 0 0 0 0 0
0 0 0 0 0 0 0 0 0
0 0 0 0 0 0 0 0 0
0 0 0 0 0 0 0 0 0
0 0 0 0 0 0 0 0 0
0 0 0 0 0 0 0 0 0
0 0 0 0 0 0 0 0 0
0 0 0 0 0 0 0 0 0
0 0 0 0 0 0 0 0 0
0 0 0 0 0 0 0 0 0
0 0 0 0 0 0 0 0 0
0 0 0 0 0 0 0 0 0
0 0 0 0 0 0 0 0 0
0 0 0 0 0 0 0 0 0
0 0 0 0 0 0 0 0 0
0 0 0 0 0 0 0 0 0
0 0 0 0 0 0 0 0 0
0 0 0 0 0 0 0 0 0
0 0 0 0 0 0 0 0 0
0 0 0 0 0 0 0 0 0
0 0 0 0 0 0 0 0 0
0 0 0 0 0 0 0 0 0
0 0 0 0 0 0 0 0 0
0 0 0 0 0 0 0 0 0
0 0 0 0 0 0 0 0 0
0 0 0 0 0 0 0 0 0
0 0 0 0 0 0 0 0 0
0 0 0 0 0 0 0 0 0
0 0 0 0 0 0 0 0 0
0 0 0 0 0 0 0 0 0
0 0 0 0 0 0 0 0 0
0 0 0 0 0 0 0 0 0
0 0 0 0 0 0 0 0 0
0 0 0 0 0 0 0 0 0
0 0 0 0 0 0 0 0 0
0 0 0 0 0 0 0 0 0
0 0 0 0 0 0 0 0 0
0 0 0 0 0 0 0 0 0
0 0 0 0 0 0 0 0 0
0 0 0 0 0 0 0 0 0
0 0 0 0 0 0 0 0 0
0.397707 0.412766 0.386668 0.401304 0.397707 0.412766 0.386668 0.401304 0
0.423813 0.438902 0.412039 0.426694 0.423813 0.438902 0.412039 0.426694 0
0.449939 0.46496 0.43741 0.451984 0.449939 0.46496 0.43741 0.451984 0
0.475915 0.490767 0.462609 0.477007 0.475915 0.490767 0.462609 0.477007 0
0.501553 0.5161 0.487459 0.50155 0.501553 0.5161 0.487459 0.50155 0
0.526613 0.540705 0.511729 0.525361 0.526613 0.540705 0.511729 0.525361 0
0.41695 0.432774 0.405842 0.42122 0.41695 0.432774 0.405842 0.42122 0
0.444388 0.460265 0.432503 0.44792 0.444388 0.460265 0.432503 0.44792 0
0.471884 0.487708 0.459199 0.474556 0.471884 0.487708 0.459199 0.474556 0
0.499254 0.51492 0.485757 0.50095 0.499254 0.51492 0.485757 0.50095 0
0.526304 0.541674 0.511985 0.526876 0.526304 0.541674 0.511985 0.526876 0
0.552788 0.567703 0.537639 0.552075 0.552788 0.567703 0.537639 0.552075 0
0.436337 0.452951 0.425142 0.441297 0.436337 0.452951 0.425142 0.441297 0
0.465154 0.481848 0.453159 0.469378 0.465154 0.481848 0.453159 0.469378 0
0.49407 0.510732 0.48125 0.497425 0.49407 0.510732 0.48125 0.497425 0
0.522894 0.539412 0.509228 0.52525 0.522894 0.539412 0.509228 0.52525 0
0.551422 0.567657 0.536895 0.552626 0.551422 0.567657 0.536895 0.552626 0
0.579404 0.595188 0.564003 0.57928 0.579404 0.595188 0.564003 0.57928 0
0.606537 0.621668 0.590256 0.604876 0.606537 0.621668 0.590256 0.604876 0
0.63247 0.646739 0.615308 0.629076 0.63247 0.646739 0.615308 0.629076 0
0.656795 0.669861 0.638781 0.651388 0.656795 0.669861 0.638781 0.651388 0
0.455866 0.473295 0.44459 0.461546 0.455866 0.473295 0.44459 0.461546 0
0.486104 0.503644 0.474003 0.491051 0.486104 0.503644 0.474003 0.491051 0
0.516493 0.534024 0.503536 0.520561 0.516493 0.534024 0.503536 0.520561 0
0.546829 0.564239 0.532992 0.549883 0.546829 0.564239 0.532992 0.549883 0
0.576908 0.594053 0.562167 0.578782 0.576908 0.594053 0.562167 0.578782 0
0.606469 0.623176 0.590807 0.606975 0.606469 0.623176 0.590807 0.606975 0
0.635198 0.651252 0.618604 0.63412 0.635198 0.651252 0.618604 0.63412 0
0.662718 0.677886 0.645199 0.659844 0.662718 0.677886 0.645199 0.659844 0
0.688579 0.702496 0.670163 0.683581 0.688579 0.702496 0.670163 0.683581 0
0.475526 0.493799 0.464175 0.481957 0.475526 0.493799 0.464175 0.481957 0
0.507236 0.52565 0.49503 0.512936 0.507236 0.52565 0.49503 0.512936 0
0.53915 0.557588 0.526057 0.543967 0.53915 0.557588 0.526057 0.543967 0
0.571065 0.589409 0.557053 0.574854 0.571065 0.589409 0.557053 0.574854 0
0.602768 0.620871 0.58781 0.605355 0.602768 0.620871 0.58781 0.605355 0
0.633992 0.651671 0.618064 0.635177 0.633992 0.651671 0.618064 0.635177 0
0.664405 0.681433 0.647495 0.663955 0.664405 0.681433 0.647495 0.663955 0
0.693605 0.70973 0.675714 0.691279 0.693605 0.70973 0.675714 0.691279 0
0.721108 0.735945 0.702254 0.716553 0.721108 0.735945 0.702254 0.716553 0
0.495304 0.514449 0.483886 0.502524 0.495304 0.514449 0.483886 0.502524 0
0.528538 0.547862 0.516234 0.535029 0.528538 0.547862 0.516234 0.535029 0
0.56204 0.581423 0.548813 0.567646 0.56204 0.581423 0.548813 0.567646 0
0.595604 0.614926 0.581417 0.600169 0.595604 0.614926 0.581417 0.600169 0
0.629009 0.648118 0.61383 0.632353 0.629009 0.648118 0.61383 0.632353 0
0.661981 0.680688 0.645783 0.66389 0.661981 0.680688 0.645783 0.66389 0
0.694174 0.712237 0.676937 0.694396 0.694174 0.712237 0.676937 0.694396 0
0.725161 0.742311 0.706879 0.72343 0.725161 0.742311 0.706879 0.72343 0
0.754426 0.770258 0.735112 0.750361 0.754426 0.770258 0.735112 0.750361 0
0.515181 0.535232 0.503707 0.523232 0.515181 0.535232 0.503707 0.523232 0
0.549998 0.57027 0.537604 0.557324 0.549998 0.57027 0.537604 0.557324 0
0.585156 0.605528 0.571798 0.591595 0.585156 0.605528 0.571798 0.591595 0
0.620444 0.640791 0.606082 0.625832 0.620444 0.640791 0.606082 0.625832 0
0.655636 0.675802 0.640233 0.659783 0.655636 0.675802 0.640233 0.659783 0
0.690449 0.710241 0.673972 0.693132 0.690449 0.710241 0.673972 0.693132 0
0.724526 0.743691 0.70695 0.725471 0.724526 0.743691 0.70695 0.725471 0
0.757417 0.775667 0.738727 0.756334 0.757417 0.775667 0.738727 0.756334 0
0.788574 0.805479 0.768776 0.785052 0.788574 0.805479 0.768776 0.785052 0
0.817354 0.832758 0.796479 0.811285 0.817354 0.832758 0.796479 0.811285 0
0.499164 0.519842 0.488567 0.508738 0.499164 0.519842 0.488567 0.508738 0
0.535107 0.556119 0.523611 0.544062 0.535107 0.556119 0.523611 0.544062 0
0.571599 0.592861 0.559125 0.579811 0.571599 0.592861 0.559125 0.579811 0
0.608488 0.629895 0.595006 0.615811 0.608488 0.629895 0.595006 0.615811 0
0.645582 0.667004 0.631049 0.651844 0.645582 0.667004 0.631049 0.651844 0
0.682648 0.703926 0.667022 0.687653 0.682648 0.703926 0.667022 0.687653 0
0.719399 0.740344 0.702643 0.722915 0.719399 0.740344 0.702643 0.722915 0
0.755479 0.775819 0.737553 0.757206 0.755479 0.775819 0.737553 0.757206 0
0.790404 0.809831 0.771288 0.790026 0.790404 0.809831 0.771288 0.790026 0
0.823589 0.841651 0.803285 0.82067 0.823589 0.841651 0.803285 0.82067 0
0.854344 0.870836 0.832884 0.84874 0.854344 0.870836 0.832884 0.84874 0
0.88187 0.895372 0.859323 0.872226 0.88187 0.895372 0.859323 0.872226 0
0.555107 0.577093 0.543562 0.564986 0.555107 0.577093 0.543562 0.564986 0
0.593305 0.615595 0.580774 0.602468 0.593305 0.615595 0.580774 0.602468 0
0.632 0.654506 0.618418 0.640282 0.632 0.654506 0.618418 0.640282 0
0.671011 0.693568 0.656309 0.678204 0.671011 0.693568 0.656309 0.678204 0
0.710055 0.732503 0.694199 0.715965 0.710055 0.732503 0.694199 0.715965 0
0.748848 0.77101 0.731801 0.753253 0.748848 0.77101 0.731801 0.753253 0
0.787047 0.808644 0.768763 0.789626 0.787047 0.808644 0.768763 0.789626 0
0.824152 0.84485 0.804593 0.824545 0.824152 0.84485 0.804593 0.824545 0
0.859531 0.878853 0.838685 0.857266 0.859531 0.878853 0.838685 0.857266 0
0.892441 0.910126 0.870327 0.887309 0.892441 0.910126 0.870327 0.887309 0
0.921992 0.936583 0.898687 0.912642 0.921992 0.936583 0.898687 0.912642 0
0 0 0 0 0 0 0 0 0
0 0 0 0 0 0 0 0 0
0 0 0 0 0 0 0 0 0
0 0 0 0 0 0 0 0 0
0 0 0 0 0 0 0 0 0
0 0 0 0 0 0 0 0 0
0 0 0 0 0 0 0 0 0
0 0 0 0 0 0 0 0 0
0 0 0 0 0 0 0 0 0
0 0 0 0 0 0 0 0 0
0 0 0 0 0 0 0 0 0
0 0 0 0 0 0 0 0 0
0 0 0 0 0 0 0 0 0
0 0 0 0 0 0 0 0 0
0 0 0 0 0 0 0 0 0
0 0 0 0 0 0 0 0 0
0 0 0 0 0 0 0 0 0
0 0 0 0 0 0 0 0 0
0 0 0 0 0 0 0 0 0
0 0 0 0 0 0 0 0 0
0 0 0 0 0 0 0 0 0
0 0 0 0 0 0 0 0 0
0 0 0 0 0 0 0 0 0
0 0 0 0 0 0 0 0 0
0 0 0 0 0 0 0 0 0
0 0 0 0 0 0 0 0 0
0 0 0 0 0 0 0 0 0
0 0 0 0 0 0 0 0 0
0 0 0 0 0 0 0 0 0
0 0 0 0 0 0 0 0 0
0 0 0 0 0 0 0 0 0
0 0 0 0 0 0 0 0 0
0 0 0 0 0 0 0 0 0
0 0 0 0 0 0 0 0 0
0 0 0 0 0 0 0 0 0
0 0 0 0 0 0 0 0 0
0 0 0 0 0 0 0 0 0
0 0 0 0 0 0 0 0 0
0 0 0 0 0 0 0 0 0
0 0 0 0 0 0 0 0 0
0 0 0 0 0 0 0 0 0
0 0 0 0 0 0 0 0 0
0 0 0 0 0 0 0 0 0
0 0 0 0 0 0 0 0 0
0 0 0 0 0 0 0 0 0
0 0 0 0 0 0 0 0 0
0 0 0 0 0 0 0 0 0
0 0 0 0 0 0 0 0 0
0 0 0 0 0 0 0 0 0
0 0 0 0 0 0 0 0 0
0 0 0 0 0 0 0 0 0
0 0 0 0 0 0 0 0 0
0 0 0 0 0 0 0 0 0
0 0 0 0 0 0 0 0 0
0 0 0 0 0 0 0 0 0
0 0 0 0 0 0 0 0 0
0 0 0 0 0 0 0 0 0
0 0 0 0 0 0 0 0 0
0 0 0 0 0 0 0 0 0
0 0 0 0 0 0 0 0 0
0 0 0 0 0 0 0 0 0
0 0 0 0 0 0 0 0 0
0 0 0 0 0 0 0 0 0
0 0 0 0 0 0 0 0 0
0 0 0 0 0 0 0 0 0
0 0 0 0 0 0 0 0 0
0 0 0 0 0 0 0 0 0
0 0 0 0 0 0 0 0 0
0 0 0 0 0 0 0 0 0
0 0 0 0 0 0 0 0 0
0 0 0 0 0 0 0 0 0
0 0 0 0 0 0 0 0 0
0 0 0 0 0 0 0 0 0
0 0 0 0 0 0 0 0 0
0 0 0 0 0 0 0 0 0
0 0 0 0 0 0 0 0 0
0 0 0 0 0 0 0 0 0
0 0 0 0 0 0 0 0 0
0 0 0 0 0 0 0 0 0
0 0 0 0 0 0 0 0 0
0 0 0 0 0 0 0 0 0
0 0 0 0 0 0 0 0 0
0 0 0 0 0 0 0 0 0
0 0 0 0 0 0 0 0 0
0 0 0 0 0 0 0 0 0
0 0 0 0 0 0 0 0 0
0 0 0 0 0 0 0 0 0
0 0 0 0 0 0 0 0 0
0 0 0 0 0 0 0 0 0
0 0 0 0 0 0 0 0 0
0 0 0 0 0 0 0 0 0
0 0 0 0 0 0 0 0 0
0 0 0 0 0 0 0 0 0
0 0 0 0 0 0 0 0 0
0 0 0 0 0 0 0 0 0
0 0 0 0 0 0 0 0 0
0 0 0 0 0 0 0 0 0
0 0 0 0 0 0 0 0 0
0 0 0 0 0 0 0 0 0
0 0 0 0 0 0 0 0 0
0 0 0 0 0 0 0 0 0
0 0 0 0 0 0 0 0 0
0 0 0 0 0 0 0 0 0
0 0 0 0 0 0 0 0 0
0 0 0 0 0 0 0 0 0
0 0 0 0 0 0 0 0 0
0 0 0 0 0 0 0 0 0
0 0 0 0 0 0 0 0 0
0 0 0 0 0 0 0 0 0
0 0 0 0 0 0 0 0 0
0 0 0 0 0 0 0 0 0
0 0 0 0 0 0 0 0 0
0 0 0 0 0 0 0 0 0
0 0 0 0 0 0 0 0 0
0 0 0 0 0 0 0 0 0
0 0 0 0 0 0 0 0 0
0 0 0 0 0 0 0 0 0
0 0 0 0 0 0 0 0 0
0 0 0 0 0 0 0 0 0
0 0 0 0 0 0 0 0 0
0 0 0 0 0 0 0 0 0
0 0 0 0 0 0 0 0 0
0 0 0 0 0 0 0 0 0
0 0 0 0 0 0 0 0 0
0 0 0 0 0 0 0 0 0
0 0 0 0 0 0 0 0 0
0 0 0 0 0 0 0 0 0
0 0 0 0 0 0 0 0 0
0 0 0 0 0 0 0 0 0
0 0 0 0 0 0 0 0 0
0 0 0 0 0 0 0 0 0
0 0 0 0 0 0 0 0 0
0 0 0 0 0 0 0 0 0
0 0 0 0 0 0 0 0 0
0 0 0 0 0 0 0 0 0
0 0 0 0 0 0 0 0 0
0 0 0 0 0 0 0 0 0
0 0 0 0 0 0 0 0 0
0 0 0 0 0 0 0 0 0
0 0 0 0 0 0 0 0 0
0 0 0 0 0 0 0 0 0
0 0 0 0 0 0 0 0 0
0 0 0 0 0 0 0 0 0
0 0 0 0 0 0 0 0 0
0 0 0 0 0 0 0 0 0
0 0 0 0 0 0 0 0 0
0 0 0 0 0 0 0 0 0
0 0 0 0 0 0 0 0 0
0 0 0 0 0 0 0 0 0
0 0 0 0 0 0 0 0 0
0 0 0 0 0 0 0 0 0
0 0 0 0 0 0 0 0 0
0 0 0 0 0 0 0 0 0
0 0 0 0 0 0 0 0 0
0 0 0 0 0 0 0 0 0
0 0 0 0 0 0 0 0 0
0 0 0 0 0 0 0 0 0
0 0 0 0 0 0 0 0 0
0 0 0 0 0 0 0 0 0
0 0 0 0 0 0 0 0 0
0 0 0 0 0 0 0 0 0
0 0 0 0 0 0 0 0 0
0 0 0 0 0 0 0 0 0
0 0 0 0 0 0 0 0 0
0 0 0 0 0 0 0 0 0
0 0 0 0 0 0 0 0 0
0 0 0 0 0 0 0 0 0
0 0 0 0 0 0 0 0 0
0 0 0 0 0 0 0 0 0
0 0 0 0 0 0 0 0 0
0 0 0 0 0 0 0 0 0
0 0 0 0 0 0 0 0 0
0 0 0 0 0 0 0 0 0
0 0 0 0 0 0 0 0 0
0 0 0 0 0 0 0 0 0
0 0 0 0 0 0 0 0 0
0 0 0 0 0 0 0 0 0
0 0 0 0 0 0 0 0 0
0 0 0 0 0 0 0 0 0
0 0 0 0 0 0 0 0 0
0 0 0 0 0 0 0 0 0
0 0 0 0 0 0 0 0 0
0 0 0 0 0 0 0 0 0
0 0 0 0 0 0 0 0 0
0 0 0 0 0 0 0 0 0
0 0 0 0 0 0 0 0 0
0 0 0 0 0 0 0 0 0
0 0 0 0 0 0 0 0 0
0 0 0 0 0 0 0 0 0
0 0 0 0 0 0 0 0 0
0 0 0 0 0 0 0 0 0
0 0 0 0 0 0 0 0 0
0 0 0 0 0 0 0 0 0
0 0 0 0 0 0 0 0 0
0 0 0 0 0 0 0 0 0
0 0 0 0 0 0 0 0 0
0 0 0 0 0 0 0 0 0
0 0 0 0 0 0 0 0 0
0 0 0 0 0 0 0 0 0
0 0 0 0 0 0 0 0 0
0 0 0 0 0 0 0 0 0
0 0 0 0 0 0 0 0 0
0 0 0 0 0 0 0 0 0
0 0 0 0 0 0 0 0 0
0 0 0 0 0 0 0 0 0
0 0 0 0 0 0 0 0 0
0 0 0 0 0 0 0 0 0
0 0 0 0 0 0 0 0 0
0 0 0 0 0 0 0 0 0
0 0 0 0 0 0 0 0 0
0 0 0 0 0 0 0 0 0
0 0 0 0 0 0 0 0 0
0 0 0 0 0 0 0 0 0
0 0 0 0 0 0 0 0 0
0 0 0 0 0 0 0 0 0
0 0 0 0 0 0 0 0 0
0 0 0 0 0 0 0 0 0
0 0 0 0 0 0 0 0 0
0 0 0 0 0 0 0 0 0
0 0 0 0 0 0 0 0 0
0 0 0 0 0 0 0 0 0
0 0 0 0 0 0 0 0 0
0 0 0 0 0 0 0 0 0
0 0 0 0 0 0 0 0 0
0 0 0 0 0 0 0 0 0
0 0 0 0 0 0 0 0 0
0 0 0 0 0 0 0 0 0
0 0 0 0 0 0 0 0 0
0 0 0 0 0 0 0 0 0
0 0 0 0 0 0 0 0 0
0 0 0 0 0 0 0 0 0
0 0 0 0 0 0 0 0 0
0 0 0 0 0 0 0 0 0
0 0 0 0 0 0 0 0 0
0 0 0 0 0 0 0 0 0
0 0 0 0 0 0 0 0 0
0 0 0 0 0 0 0 0 0
0 0 0 0 0 0 0 0 0
0 0 0 0 0 0 0 0 0
0 0 0 0 0 0 0 0 0
0 0 0 0 0 0 0 0 0
0 0 0 0 0 0 0 0 0
0 0 0 0 0 0 0 0 0
0 0 0 0 0 0 0 0 0
0 0 0 0 0 0 0 0 0
0 0 0 0 0 0 0 0 0
0 0 0 0 0 0 0 0 0
0 0 0 0 0 0 0 0 0
0 0 0 0 0 0 0 0 0
0 0 0 0 0 0 0 0 0
0 0 0 0 0 0 0 0 0
0 0 0 0 0 0 0 0 0
0 0 0 0 0 0 0 0 0
0 0 0 0 0 0 0 0 0
0 0 0 0 0 0 0 0 0
0 0 0 0 0 0 0 0 0
0 0 0 0 0 0 0 0 0
0 0 0 0 0 0 0 0 0
0 0 0 0 0 0 0 0 0
0 0 0 0 0 0 0 0 0
0 0 0 0 0 0 0 0 0
0 0 0 0 0 0 0 0 0
0 0 0 0 0 0 0 0 0
0 0 0 0 0 0 0 0 0
0 0 0 0 0 0 0 0 0
0 0 0 0 0 0 0 0 0
0 0 0 0 0 0 0 0 0
0 0 0 0 0 0 0 0 0
0 0 0 0 0 0 0 0 0
0 0 0 0 0 0 0 0 0
0 0 0 0 0 0 0 0 0
0 0 0 0 0 0 0 0 0
0 0 0 0 0 0 0 0 0
0 0 0 0 0 0 0 0 0
0 0 0 0 0 0 0 0 0
0 0 0 0 0 0 0 0 0
0 0 0 0 0 0 0 0 0
0 0 0 0 0 0 0 0 0
0 0 0 0 0 0 0 0 0
0 0 0 0 0 0 0 0 0
0 0 0 0 0 0 0 0 0
0 0 0 0 0 0 0 0 0
0 0 0 0 0 0 0 0 0
0 0 0 0 0 0 0 0 0
0 0 0 0 0 0 0 0 0
0 0 0 0 0 0 0 0 0
0 0 0 0 0 0 0 0 0
0 0 0 0 0 0 0 0 0
0 0 0 0 0 0 0 0 0
0 0 0 0 0 0 0 0 0
0 0 0 0 0 0 0 0 0
0 0 0 0 0 0 0 0 0
0 0 0 0 0 0 0 0 0
0 0 0 0 0 0 0 0 0
0 0 0 0 0 0 0 0 0
0 0 0 0 0 0 0 0 0
0 0 0 0 0 0 0 0 0
0 0 0 0 0 0 0 0 0
0 0 0 0 0 0 0 0 0
0 0 0 0 0 0 0 0 0
0 0 0 0 0 0 0 0 0
0 0 0 0 0 0 0 0 0
0 0 0 0 0 0 0 0 0
0 0 0 0 0 0 0 0 0
0 0 0 0 0 0 0 0 0
0 0 0 0 0 0 0 0 0
0 0 0 0 0 0 0 0 0
0 0 0 0 0 0 0 0 0
0 0 0 0 0 0 0 0 0
0 0 0 0 0 0 0 0 0
0 0 0 0 0 0 0 0 0
0 0 0 0 0 0 0 0 0
0 0 0 0 0 0 0 0 0
0 0 0 0 0 0 0 0 0
0 0 0 0 0 0 0 0 0
0 0 0 0 0 0 0 0 0
0 0 0 0 0 0 0 0 0
0 0 0 0 0 0 0 0 0
0 0 0 0 0 0 0 0 0
0 0 0 0 0 0 0 0 0
0 0 0 0 0 0 0 0 0
0 0 0 0 0 0 0 0 0
0 0 0 0 0 0 0 0 0
0 0 0 0 0 0 0 0 0
0 0 0 0 0 0 0 0 0
0 0 0 0 0 0 0 0 0
0 0 0 0 0 0 0 0 0
0 0 0 0 0 0 0 0 0
0 0 0 0 0 0 0 0 0
0 0 0 0 0 0 0 0 0
0 0 0 0 0 0 0 0 0
0 0 0 0 0 0 0 0 0
0 0 0 0 0 0 0 0 0
0 0 0 0 0 0 0 0 0
0 0 0 0 0 0 0 0 0
0 0 0 0 0 0 0 0 0
0 0 0 0 0 0 0 0 0
0 0 0 0 0 0 0 0 0
0 0 0 0 0 0 0 0 0
0 0 0 0 0 0 0 0 0
0 0 0 0 0 0 0 0 0
0 0 0 0 0 0 0 0 0
0 0 0 0 0 0 0 0 0
0 0 0 0 0 0 0 0 0
0 0 0 0 0 0 0 0 0
0 0 0 0 0 0 0 0 0
0 0 0 0 0 0 0 0 0
0 0 0 0 0 0 0 0 0
0 0 0 0 0 0 0 0 0
0 0 0 0 0 0 0 0 0
0 0 0 0 0 0 0 0 0
0 0 0 0 0 0 0 0 0
0 0 0 0 0 0 0 0 0
0 0 0 0 0 0 0 0 0
0 0 0 0 0 0 0 0 0
0 0 0 0 0 0 0 0 0
0 0 0 0 0 0 0 0 0
0 0 0 0 0 0 0 0 0
0 0 0 0 0 0 0 0 0
0 0 0 0 0 0 0 0 0
0 0 0 0 0 0 0 0 0
0 0 0 0 0 0 0 0 0
0 0 0 0 0 0 0 0 0
0 0 0 0 0 0 0 0 0
0 0 0 0 0 0 0 0 0
0 0 0 0 0 0 0 0 0
0 0 0 0 0 0 0 0 0
0 0 0 0 0 0 0 0 0
0 0 0 0 0 0 0 0 0
0 0 0 0 0 0 0 0 0
0 0 0 0 0 0 0 0 0
0 0 0 0 0 0 0 0 0
0 0 0 0 0 0 0 0 0
0 0 0 0 0 0 0 0 0
0 0 0 0 0 0 0 0 0
0 0 0 0 0 0 0 0 0
0 0 0 0 0 0 0 0 0
0 0 0 0 0 0 0 0 0
0 0 0 0 0 0 0 0 0
0 0 0 0 0 0 0 0 0
0 0 0 0 0 0 0 0 0
0 0 0 0 0 0 0 0 0
0 0 0 0 0 0 0 0 0
0 0 0 0 0 0 0 0 0
0 0 0 0 0 0 0 0 0
0 0 0 0 0 0 0 0 0
0 0 0 0 0 0 0 0 0
0 0 0 0 0 0 0 0 0
0 0 0 0 0 0 0 0 0
0 0 0 0 0 0 0 0 0
0 0 0 0 0 0 0 0 0
0 0 0 0 0 0 0 0 0
0 0 0 0 0 0 0 0 0
0 0 0 0 0 0 0 0 0
0 0 0 0 0 0 0 0 0
0 0 0 0 0 0 0 0 0
0 0 0 0 0 0 0 0 0
0 0 0 0 0 0 0 0 0
0 0 0 0 0 0 0 0 0
0 0 0 0 0 0 0 0 0
0 0 0 0 0 0 0 0 0
0 0 0 0 0 0 0 0 0
0 0 0 0 0 0 0 0 0
0 0 0 0 0 0 0 0 0
0 0 0 0 0 0 0 0 0
SCALARS tauT double 9
LOOKUP_TABLE default
0 0 0 0 0 0 0 0 0
0 0 0 0 0 0 0 0 0
0 0 0 0 0 0 0 0 0
0 0 0 0 0 0 0 0 0
0 0 0 0 0 0 0 0 0
0 0 0 0 0 0 0 0 0
0 0 0 0 0 0 0 0 0
0 0 0 0 0 0 0 0 0
0 0 0 0 0 0 0 0 0
0 0 0 0 0 0 0 0 0
0 0 0 0 0 0 0 0 0
0 0 0 0 0 0 0 0 0
0 0 0 0 0 0 0 0 0
0 0 0 0 0 0 0 0 0
0 0 0 0 0 0 0 0 0
0 0 0 0 0 0 0 0 0
0 0 0 0 0 0 0 0 0
0 0 0 0 0 0 0 0 0
0 0 0 0 0 0 0 0 0
0 0 0 0 0 0 0 0 0
0 0 0 0 0 0 0 0 0
0 0 0 0 0 0 0 0 0
0 0 0 0 0 0 0 0 0
0 0 0 0 0 0 0 0 0
0 0 0 0 0 0 0 0 0
0 0 0 0 0 0 0 0 0
0 0 0 0 0 0 0 0 0
0 0 0 0 0 0 0 0 0
0 0 0 0 0 0 0 0 0
0 0 0 0 0 0 0 0 0
0 0 0 0 0 0 0 0 0
0 0 0 0 0 0 0 0 0
0 0 0 0 0 0 0 0 0
0 0 0 0 0 0 0 0 0
0 0 0 0 0 0 0 0 0
0 0 0 0 0 0 0 0 0
0 0 0 0 0 0 0 0 0
0 0 0 0 0 0 0 0 0
0 0 0 0 0 0 0 0 0
0 0 0 0 0 0 0 0 0
0 0 0 0 0 0 0 0 0
0 0 0 0 0 0 0 0 0
0 0 0 0 0 0 0 0 0
0 0 0 0 0 0 0 0 0
0 0 0 0 0 0 0 0 0
0 0 0 0 0 0 0 0 0
0 0 0 0 0 0 0 0 0
0 0 0 0 0 0 0 0 0
0 0 0 0 0 0 0 0 0
0 0 0 0 0 0 0 0 0
0 0 0 0 0 0 0 0 0
0 0 0 0 0 0 0 0 0
0 0 0 0 0 0 0 0 0
0 0 0 0 0 0 0 0 0
0 0 0 0 0 0 0 0 0
0 0 0 0 0 0 0 0 0
0 0 0 0 0 0 0 0 0
0 0 0 0 0 0 0 0 0
0 0 0 0 0 0 0 0 0
0 0 0 0 0 0 0 0 0
0 0 0 0 0 0 0 0 0
0 0 0 0 0 0 0 0 0
0 0 0 0 0 0 0 0 0
0 0 0 0 0 0 0 0 0
0 0 0 0 0 0 0 0 0
0 0 0 0 0 0 0 0 0
0 0 0 0 0 0 0 0 0
0 0 0 0 0 0 0 0 0
0 0 0 0 0 0 0 0 0
0 0 0 0 0 0 0 0 0
0 0 0 0 0 0 0 0 0
0 0 0 0 0 0 0 0 0
0 0 0 0 0 0 0 0 0
0 0 0 0 0 0 0 0 0
0 0 0 0 0 0 0 0 0
0 0 0 0 0 0 0 0 0
0 0 0 0 0 0 0 0 0
0 0 0 0 0 0 0 0 0
0 0 0 0 0 0 0 0 0
0 0 0 0 0 0 0 0 0
0 0 0 0 0 0 0 0 0
0 0 0 0 0 0 0 0 0
0 0 0 0 0 0 0 0 0
0 0 0 0 0 0 0 0 0
0 0 0 0 0 0 0 0 0
0 0 0 0 0 0 0 0 0
0 0 0 0 0 0 0 0 0
0 0 0 0 0 0 0 0 0
0 0 0 0 0 0 0 0 0
0 0 0 0 0 0 0 0 0
0 0 0 0 0 0 0 0 0
0 0 0 0 0 0 0 0 0
0 0 0 0 0 0 0 0 0
0 0 0 0 0 0 0 0 0
0 0 0 0 0 0 0 0 0
0 0 0 0 0 0 0 0 0
0 0 0 0 0 0 0 0 0
0 0 0 0 0 0 0 0 0
0 0 0 0 0 0 0 0 0
0 0 0 0 0 0 0 0 0
0 0 0 0 0 0 0 0 0
0 0 0 0 0 0 0 0 0
0 0 0 0 0 0 0 0 0
0 0 0 0 0 0 0 0 0
0 0 0 0 0 0 0 0 0
0 0 0 0 0 0 0 0 0
0 0 0 0 0 0 0 0 0
0 0 0 0 0 0 0 0 0
0 0 0 0 0 0 0 0 0
0 0 0 0 0 0 0 0 0
0 0 0 0 0 0 0 0 0
0 0 0 0 0 0 0 0 0
0 0 0 0 0 0 0 0 0
0 0 0 0 0 0 0 0 0
0 0 0 0 0 0 0 0 0
0 0 0 0 0 0 0 0 0
0 0 0 0 0 0 0 0 0
0 0 0 0 0 0 0 0 0
0 0 0 0 0 0 0 0 0
0 0 0 0 0 0 0 0 0
0 0 0 0 0 0 0 0 0
0 0 0 0 0 0 0 0 0
0 0 0 0 0 0 0 0 0
0 0 0 0 0 0 0 0 0
0 0 0 0 0 0 0 0 0
0 0 0 0 0 0 0 0 0
0 0 0 0 0 0 0 0 0
0 0 0 0 0 0 0 0 0
0 0 0 0 0 0 0 0 0
0 0 0 0 0 0 0 0 0
0 0 0 0 0 0 0 0 0
0 0 0 0 0 0 0 0 0
0 0 0 0 0 0 0 0 0
0 0 0 0 0 0 0 0 0
0 0 0 0 0 0 0 0 0
0 0 0 0 0 0 0 0 0
0 0 0 0 0 0 0 0 0
0 0 0 0 0 0 0 0 0
0 0 0 0 0 0 0 0 0
0 0 0 0 0 0 0 0 0
0 0 0 0 0 0 0 0 0
0 0 0 0 0 0 0 0 0
0 0 0 0 0 0 0 0 0
0 0 0 0 0 0 0 0 0
0 0 0 0 0 0 0 0 0
0 0 0 0 0 0 0 0 0
0 0 0 0 0 0 0 0 0
0 0 0 0 0 0 0 0 0
0 0 0 0 0 0 0 0 0
0 0 0 0 0 0 0 0 0
0 0 0 0 0 0 0 0 0
0 0 0 0 0 0 0 0 0
0 0 0 0 0 0 0 0 0
0 0 0 0 0 0 0 0 0
0 0 0 0 0 0 0 0 0
0 0 0 0 0 0 0 0 0
0 0 0 0 0 0 0 0 0
0 0 0 0 0 0 0 0 0
0 0 0 0 0 0 0 0 0
0 0 0 0 0 0 0 0 0
0 0 0 0 0 0 0 0 0
0 0 0 0 0 0 0 0 0
0.498266 0.516902 0.50711 0.525691 0.498266 0.516902 0.50711 0.525691 0
0.531059 0.551134 0.539803 0.55981 0.531059 0.551134 0.539803 0.55981 0
0.566357 0.587919 0.574973 0.596439 0.566357 0.587919 0.574973 0.596439 0
0.604242 0.627336 0.612677 0.635634 0.604242 0.627336 0.612677 0.635634 0
0.64479 0.669461 0.652971 0.677455 0.64479 0.669461 0.652971 0.677455 0
0.688075 0.714353 0.695913 0.721949 0.688075 0.714353 0.695913 0.721949 0
0.482248 0.500942 0.491581 0.510246 0.482248 0.500942 0.491581 0.510246 0
0.515158 0.535341 0.524431 0.544552 0.515158 0.535341 0.524431 0.544552 0
0.550666 0.572398 0.559818 0.581451 0.550666 0.572398 0.559818 0.581451 0
0.588872 0.612211 0.597837 0.621032 0.588872 0.612211 0.597837 0.621032 0
0.629876 0.654877 0.638575 0.663383 0.629876 0.654877 0.638575 0.663383 0
0.673762 0.700454 0.682112 0.708565 0.673762 0.700454 0.682112 0.708565 0
0.465333 0.484077 0.475189 0.493904 0.465333 0.484077 0.475189 0.493904 0
0.498347 0.518624 0.508143 0.528366 0.498347 0.518624 0.508143 0.528366 0
0.534044 0.555941 0.543732 0.565534 0.534044 0.555941 0.543732 0.565534 0
0.572565 0.596148 0.582072 0.605513 0.572565 0.596148 0.582072 0.605513 0
0.614023 0.639356 0.623268 0.648409 0.614023 0.639356 0.623268 0.648409 0
0.658519 0.685638 0.66741 0.69428 0.658519 0.685638 0.66741 0.69428 0
0.706117 0.735068 0.71455 0.743181 0.706117 0.735068 0.71455 0.743181 0
0.756862 0.787603 0.764717 0.79507 0.756862 0.787603 0.764717 0.79507 0
0.810912 0.844037 0.818068 0.850726 0.810912 0.844037 0.818068 0.850726 0
0.4475 0.466278 0.457886 0.476647 0.4475 0.466278 0.457886 0.476647 0
0.480591 0.500953 0.490936 0.51125 0.480591 0.500953 0.490936 0.51125 0
0.51646 0.538512 0.526707 0.548669 0.51646 0.538512 0.526707 0.548669 0
0.555279 0.579099 0.565355 0.589038 0.555279 0.579099 0.565355 0.589038 0
0.597182 0.622846 0.607002 0.632474 0.597182 0.622846 0.607002 0.632474 0
0.642289 0.669844 0.651755 0.679058 0.642289 0.669844 0.651755 0.679058 0
0.690686 0.720197 0.69969 0.728876 0.690686 0.720197 0.69969 0.728876 0
0.742449 0.773885 0.750862 0.781893 0.742449 0.773885 0.750862 0.781893 0
0.797758 0.831731 0.805438 0.838914 0.797758 0.831731 0.805438 0.838914 0
0.428718 0.447508 0.439655 0.45844 0.428718 0.447508 0.439655 0.45844 0
0.461852 0.482286 0.472767 0.493161 0.461852 0.482286 0.472767 0.493161 0
0.49787 0.520063 0.508702 0.530814 0.49787 0.520063 0.508702 0.530814 0
0.536965 0.561013 0.547639 0.571556 0.536965 0.561013 0.547639 0.571556 0
0.579299 0.605291 0.589725 0.615528 0.579299 0.605291 0.589725 0.615528 0
0.625016 0.653013 0.635089 0.66283 0.625016 0.653013 0.635089 0.66283 0
0.674226 0.704311 0.683828 0.713579 0.674226 0.704311 0.683828 0.713579 0
0.727036 0.759193 0.73603 0.767767 0.727036 0.759193 0.73603 0.767767 0
0.783651 0.818502 0.791886 0.826226 0.783651 0.818502 0.791886 0.826226 0
0.408949 0.427732 0.42046 0.439248 0.408949 0.427732 0.42046 0.439248 0
0.442092 0.462577 0.4536 0.474057 0.442092 0.462577 0.4536 0.474057 0
0.478227 0.500544 0.48967 0.511917 0.478227 0.500544 0.48967 0.511917 0
0.51757 0.541833 0.528873 0.553012 0.51757 0.541833 0.528873 0.553012 0
0.560316 0.586631 0.571383 0.597511 0.560316 0.586631 0.571383 0.597511 0
0.606636 0.63508 0.617354 0.645539 0.606636 0.63508 0.617354 0.645539 0
0.656672 0.687344 0.666912 0.697243 0.656672 0.687344 0.666912 0.697243 0
0.710557 0.743459 0.720173 0.752641 0.710557 0.743459 0.720173 0.752641 0
0.768526 0.804301 0.777354 0.812589 0.768526 0.804301 0.777354 0.812589 0
0.388154 0.406906 0.40026 0.419032 0.388154 0.406906 0.40026 0.419032 0
0.421266 0.441782 0.433393 0.453893 0.421266 0.441782 0.433393 0.453893 0
0.45748 0.479901 0.469565 0.491928 0.45748 0.479901 0.469565 0.491928 0
0.497039 0.5215 0.509003 0.533351 0.497039 0.5215 0.509003 0.533351 0
0.54017 0.566797 0.551914 0.578361 0.54017 0.566797 0.551914 0.578361 0
0.587081 0.615971 0.598485 0.627116 0.587081 0.615971 0.598485 0.627116 0
0.637946 0.66922 0.64887 0.679794 0.637946 0.66922 0.64887 0.679794 0
0.692933 0.726605 0.703218 0.736441 0.692933 0.726605 0.703218 0.736441 0
0.752303 0.789032 0.761773 0.797948 0.752303 0.789032 0.761773 0.797948 0
0.816726 0.85589 0.825191 0.863676 0.816726 0.85589 0.825191 0.863676 0
0.336284 0.353289 0.348882 0.365941 0.336284 0.353289 0.348882 0.365941 0
0.366335 0.384999 0.379029 0.397751 0.366335 0.384999 0.379029 0.397751 0
0.399328 0.419848 0.412102 0.432621 0.399328 0.419848 0.412102 0.432621 0
0.435578 0.45808 0.448334 0.470792 0.435578 0.45808 0.448334 0.470792 0
0.475312 0.49995 0.487971 0.512509 0.475312 0.49995 0.487971 0.512509 0
0.518795 0.54572 0.531254 0.558008 0.518795 0.54572 0.531254 0.558008 0
0.566276 0.59561 0.578408 0.607486 0.566276 0.59561 0.578408 0.607486 0
0.617971 0.649854 0.629624 0.661153 0.617971 0.649854 0.629624 0.661153 0
0.674081 0.708546 0.685083 0.719086 0.674081 0.708546 0.685083 0.719086 0
0.734903 0.772638 0.74506 0.782207 0.734903 0.772638 0.74506 0.782207 0
0.80114 0.841509 0.810239 0.849907 0.80114 0.841509 0.810239 0.849907 0
0.874298 0.923798 0.882108 0.930693 0.874298 0.923798 0.882108 0.930693 0
0.343398 0.361988 0.356751 0.375378 0.343398 0.361988 0.356751 0.375378 0
0.376279 0.396768 0.38969 0.410201 0.376279 0.396768 0.38969 0.410201 0
0.4125 0.435042 0.425935 0.448458 0.4125 0.435042 0.425935 0.448458 0
0.452339 0.477116 0.465721 0.490423 0.452339 0.477116 0.465721 0.490423 0
0.496109 0.523301 0.509333 0.536375 0.496109 0.523301 0.509333 0.536375 0
0.54411 0.573869 0.55704 0.586556 0.54411 0.573869 0.55704 0.586556 0
0.596612 0.629115 0.609079 0.641222 0.596612 0.629115 0.609079 0.641222 0
0.653877 0.689182 0.665673 0.700486 0.653877 0.689182 0.665673 0.700486 0
0.716235 0.755033 0.727133 0.76531 0.716235 0.755033 0.727133 0.76531 0
0.78439 0.826035 0.794168 0.835066 0.78439 0.826035 0.794168 0.835066 0
0.859167 0.908328 0.868107 0.917761 0.859167 0.908328 0.868107 0.917761 0
0 0 0 0 0 0 0 0 0
0 0 0 0 0 0 0 0 0
0 0 0 0 0 0 0 0 0
0 0 0 0 0 0 0 0 0
0 0 0 0 0 0 0 0 0
0 0 0 0 0 0 0 0 0
0 0 0 0 0 0 0 0 0
0 0 0 0 0 0 0 0 0
0 0 0 0 0 0 0 0 0
0 0 0 0 0 0 0 0 0
0 0 0 0 0 0 0 0 0
0 0 0 0 0 0 0 0 0
0 0 0 0 0 0 0 0 0
0 0 0 0 0 0 0 0 0
0 0 0 0 0 0 0 0 0
0 0 0 0 0 0 0 0 0
0 0 0 0 0 0 0 0 0
0 0 0 0 0 0 0 0 0
0 0 0 0 0 0 0 0 0
0 0 0 0 0 0 0 0 0
0 0 0 0 0 0 0 0 0
0 0 0 0 0 0 0 0 0
0 0 0 0 0 0 0 0 0
0 0 0 0 0 0 0 0 0
0 0 0 0 0 0 0 0 0
0 0 0 0 0 0 0 0 0
0 0 0 0 0 0 0 0 0
0 0 0 0 0 0 0 0 0
0 0 0 0 0 0 0 0 0
0 0 0 0 0 0 0 0 0
0 0 0 0 0 0 0 0 0
0 0 0 0 0 0 0 0 0
0 0 0 0 0 0 0 0 0
0 0 0 0 0 0 0 0 0
0 0 0 0 0 0 0 0 0
0 0 0 0 0 0 0 0 0
0 0 0 0 0 0 0 0 0
0 0 0 0 0 0 0 0 0
0 0 0 0 0 0 0 0 0
0 0 0 0 0 0 0 0 0
0 0 0 0 0 0 0 0 0
0 0 0 0 0 0 0 0 0
0 0 0 0 0 0 0 0 0
0 0 0 0 0 0 0 0 0
0 0 0 0 0 0 0 0 0
0 0 0 0 0 0 0 0 0
0 0 0 0 0 0 0 0 0
0 0 0 0 0 0 0 0 0
0 0 0 0 0 0 0 0 0
0 0 0 0 0 0 0 0 0
0 0 0 0 0 0 0 0 0
0 0 0 0 0 0 0 0 0
0 0 0 0 0 0 0 0 0
0 0 0 0 0 0 0 0 0
0 0 0 0 0 0 0 0 0
0 0 0 0 0 0 0 0 0
0 0 0 0 0 0 0 0 0
0 0 0 0 0 0 0 0 0
0 0 0 0 0 0 0 0 0
0 0 0 0 0 0 0 0 0
0 0 0 0 0 0 0 0 0
0 0 0 0 0 0 0 0 0
0 0 0 0 0 0 0 0 0
0 0 0 0 0 0 0 0 0
0 0 0 0 0 0 0 0 0
0 0 0 0 0 0 0 0 0
0 0 0 0 0 0 0 0 0
0 0 0 0 0 0 0 0 0
0 0 0 0 0 0 0 0 0
0 0 0 0 0 0 0 0 0
0 0 0 0 0 0 0 0 0
0 0 0 0 0 0 0 0 0
0 0 0 0 0 0 0 0 0
0 0 0 0 0 0 0 0 0
0 0 0 0 0 0 0 0 0
0 0 0 0 0 0 0 0 0
0 0 0 0 0 0 0 0 0
0 0 0 0 0 0 0 0 0
0 0 0 0 0 0 0 0 0
0 0 0 0 0 0 0 0 0
0 0 0 0 0 0 0 0 0
0 0 0 0 0 0 0 0 0
0 0 0 0 0 0 0 0 0
0 0 0 0 0 0 0 0 0
0 0 0 0 0 0 0 0 0
0 0 0 0 0 0 0 0 0
0 0 0 0 0 0 0 0 0
0 0 0 0 0 0 0 0 0
0 0 0 0 0 0 0 0 0
0 0 0 0 0 0 0 0 0
0 0 0 0 0 0 0 0 0
0 0 0 0 0 0 0 0 0
0 0 0 0 0 0 0 0 0
0 0 0 0 0 0 0 0 0
0 0 0 0 0 0 0 0 0
0 0 0 0 0 0 0 0 0
0 0 0 0 0 0 0 0 0
0 0 0 0 0 0 0 0 0
0 0 0 0 0 0 0 0 0
0 0 0 0 0 0 0 0 0
0 0 0 0 0 0 0 0 0
0 0 0 0 0 0 0 0 0
0 0 0 0 0 0 0 0 0
0 0 0 0 0 0 0 0 0
0 0 0 0 0 0 0 0 0
0 0 0 0 0 0 0 0 0
0 0 0 0 0 0 0 0 0
0 0 0 0 0 0 0 0 0
0 0 0 0 0 0 0 0 0
0 0 0 0 0 0 0 0 0
0 0 0 0 0 0 0 0 0
0 0 0 0 0 0 0 0 0
0 0 0 0 0 0 0 0 0
0 0 0 0 0 0 0 0 0
0 0 0 0 0 0 0 0 0
0 0 0 0 0 0 0 0 0
0 0 0 0 0 0 0 0 0
0 0 0 0 0 0 0 0 0
0 0 0 0 0 0 0 0 0
0 0 0 0 0 0 0 0 0
0 0 0 0 0 0 0 0 0
0 0 0 0 0 0 0 0 0
0 0 0 0 0 0 0 0 0
0 0 0 0 0 0 0 0 0
0 0 0 0 0 0 0 0 0
0 0 0 0 0 0 0 0 0
0 0 0 0 0 0 0 0 0
0 0 0 0 0 0 0 0 0
0 0 0 0 0 0 0 0 0
0 0 0 0 0 0 0 0 0
0 0 0 0 0 0 0 0 0
0 0 0 0 0 0 0 0 0
0 0 0 0 0 0 0 0 0
0 0 0 0 0 0 0 0 0
0 0 0 0 0 0 0 0 0
0 0 0 0 0 0 0 0 0
0 0 0 0 0 0 0 0 0
0 0 0 0 0 0 0 0 0
0 0 0 0 0 0 0 0 0
0 0 0 0 0 0 0 0 0
0 0 0 0 0 0 0 0 0
0 0 0 0 0 0 0 0 0
0 0 0 0 0 0 0 0 0
0 0 0 0 0 0 0 0 0
0 0 0 0 0 0 0 0 0
0 0 0 0 0 0 0 0 0
0 0 0 0 0 0 0 0 0
0 0 0 0 0 0 0 0 0
0 0 0 0 0 0 0 0 0
0 0 0 0 0 0 0 0 0
0 0 0 0 0 0 0 0 0
0 0 0 0 0 0 0 0 0
0 0 0 0 0 0 0 0 0
0 0 0 0 0 0 0 0 0
0 0 0 0 0 0 0 0 0
0 0 0 0 0 0 0 0 0
0 0 0 0 0 0 0 0 0
0 0 0 0 0 0 0 0 0
0 0 0 0 0 0 0 0 0
0 0 0 0 0 0 0 0 0
0 0 0 0 0 0 0 0 0
0 0 0 0 0 0 0 0 0
0 0 0 0 0 0 0 0 0
0 0 0 0 0 0 0 0 0
0 0 0 0 0 0 0 0 0
0 0 0 0 0 0 0 0 0
0 0 0 0 0 0 0 0 0
0 0 0 0 0 0 0 0 0
0 0 0 0 0 0 0 0 0
0 0 0 0 0 0 0 0 0
0 0 0 0 0 0 0 0 0
0 0 0 0 0 0 0 0 0
0 0 0 0 0 0 0 0 0
0 0 0 0 0 0 0 0 0
0 0 0 0 0 0 0 0 0
0 0 0 0 0 0 0 0 0
0 0 0 0 0 0 0 0 0
0 0 0 0 0 0 0 0 0
0 0 0 0 0 0 0 0 0
0 0 0 0 0 0 0 0 0
0 0 0 0 0 0 0 0 0
0 0 0 0 0 0 0 0 0
0 0 0 0 0 0 0 0 0
0 0 0 0 0 0 0 0 0
0 0 0 0 0 0 0 0 0
0 0 0 0 0 0 0 0 0
0 0 0 0 0 0 0 0 0
0 0 0 0 0 0 0 0 0
0 0 0 0 0 0 0 0 0
0 0 0 0 0 0 0 0 0
0 0 0 0 0 0 0 0 0
0 0 0 0 0 0 0 0 0
0 0 0 0 0 0 0 0 0
0 0 0 0 0 0 0 0 0
0 0 0 0 0 0 0 0 0
0 0 0 0 0 0 0 0 0
0 0 0 0 0 0 0 0 0
0 0 0 0 0 0 0 0 0
0 0 0 0 0 0 0 0 0
0 0 0 0 0 0 0 0 0
0 0 0 0 0 0 0 0 0
0 0 0 0 0 0 0 0 0
0 0 0 0 0 0 0 0 0
0 0 0 0 0 0 0 0 0
0 0 0 0 0 0 0 0 0
0 0 0 0 0 0 0 0 0
0 0 0 0 0 0 0 0 0
0 0 0 0 0 0 0 0 0
0 0 0 0 0 0 0 0 0
0 0 0 0 0 0 0 0 0
0 0 0 0 0 0 0 0 0
0 0 0 0 0 0 0 0 0
0 0 0 0 0 0 0 0 0
0 0 0 0 0 0 0 0 0
0 0 0 0 0 0 0 0 0
0 0 0 0 0 0 0 0 0
0 0 0 0 0 0 0 0 0
0 0 0 0 0 0 0 0 0
0 0 0 0 0 0 0 0 0
0 0 0 0 0 0 0 0 0
0 0 0 0 0 0 0 0 0
0 0 0 0 0 0 0 0 0
0 0 0 0 0 0 0 0 0
0 0 0 0 0 0 0 0 0
0 0 0 0 0 0 0 0 0
0 0 0 0 0 0 0 0 0
0 0 0 0 0 0 0 0 0
0 0 0 0 0 0 0 0 0
0 0 0 0 0 0 0 0 0
0 0 0 0 0 0 0 0 0
0 0 0 0 0 0 0 0 0
0 0 0 0 0 0 0 0 0
0 0 0 0 0 0 0 0 0
0 0 0 0 0 0 0 0 0
0 0 0 0 0 0 0 0 0
0 0 0 0 0 0 0 0 0
0 0 0 0 0 0 0 0 0
0 0 0 0 0 0 0 0 0
0 0 0 0 0 0 0 0 0
0 0 0 0 0 0 0 0 0
0 0 0 0 0 0 0 0 0
0 0 0 0 0 0 0 0 0
0 0 0 0 0 0 0 0 0
0 0 0 0 0 0 0 0 0
0 0 0 0 0 0 0 0 0
0 0 0 0 0 0 0 0 0
0 0 0 0 0 0 0 0 0
0 0 0 0 0 0 0 0 0
0 0 0 0 0 0 0 0 0
0 0 0 0 0 0 0 0 0
0 0 0 0 0 0 0 0 0
0 0 0 0 0 0 0 0 0
0 0 0 0 0 0 0 0 0
0 0 0 0 0 0 0 0 0
0 0 0 0 0 0 0 0 0
0 0 0 0 0 0 0 0 0
0 0 0 0 0 0 0 0 0
0 0 0 0 0 0 0 0 0
0 0 0 0 0 0 0 0 0
0 0 0 0 0 0 0 0 0
0 0 0 0 0 0 0 0 0
0 0 0 0 0 0 0 0 0
0 0 0 0 0 0 0 0 0
0 0 0 0 0 0 0 0 0
0 0 0 0 0 0 0 0 0
0 0 0 0 0 0 0 0 0
0 0 0 0 0 0 0 0 0
0 0 0 0 0 0 0 0 0
0 0 0 0 0 0 0 0 0
0 0 0 0 0 0 0 0 0
0 0 0 0 0 0 0 0 0
0 0 0 0 0 0 0 0 0
0 0 0 0 0 0 0 0 0
0 0 0 0 0 0 0 0 0
0 0 0 0 0 0 0 0 0
0 0 0 0 0 0 0 0 0
0 0 0 0 0 0 0 0 0
0 0 0 0 0 0 0 0 0
0 0 0 0 0 0 0 0 0
0 0 0 0 0 0 0 0 0
0 0 0 0 0 0 0 0 0
0 0 0 0 0 0 0 0 0
0 0 0 0 0 0 0 0 0
0 0 0 0 0 0 0 0 0
0 0 0 0 0 0 0 0 0
0 0 0 0 0 0 0 0 0
0 0 0 0 0 0 0 0 0
0 0 0 0 0 0 0 0 0
0 0 0 0 0 0 0 0 0
0 0 0 0 0 0 0 0 0
0 0 0 0 0 0 0 0 0
0 0 0 0 0 0 0 0 0
0 0 0 0 0 0 0 0 0
0 0 0 0 0 0 0 0 0
0 0 0 0 0 0 0 0 0
0 0 0 0 0 0 0 0 0
0 0 0 0 0 0 0 0 0
0 0 0 0 0 0 0 0 0
0 0 0 0 0 0 0 0 0
0 0 0 0 0 0 0 0 0
0 0 0 0 0 0 0 0 0
0 0 0 0 0 0 0 0 0
0 0 0 0 0 0 0 0 0
0 0 0 0 0 0 0 0 0
0 0 0 0 0 0 0 0 0
0 0 0 0 0 0 0 0 0
0 0 0 0 0 0 0 0 0
0 0 0 0 0 0 0 0 0
0 0 0 0 0 0 0 0 0
0 0 0 0 0 0 0 0 0
0 0 0 0 0 0 0 0 0
0 0 0 0 0 0 0 0 0
0 0 0 0 0 0 0 0 0
0 0 0 0 0 0 0 0 0
0 0 0 0 0 0 0 0 0
0 0 0 0 0 0 0 0 0
0 0 0 0 0 0 0 0 0
0 0 0 0 0 0 0 0 0
0 0 0 0 0 0 0 0 0
0 0 0 0 0 0 0 0 0
0 0 0 0 0 0 0 0 0
0 0 0 0 0 0 0 0 0
0 0 0 0 0 0 0 0 0
0 0 0 0 0 0 0 0 0
0 0 0 0 0 0 0 0 0
0 0 0 0 0 0 0 0 0
0 0 0 0 0 0 0 0 0
0 0 0 0 0 0 0 0 0
0 0 0 0 0 0 0 0 0
0 0 0 0 0 0 0 0 0
0 0 0 0 0 0 0 0 0
0 0 0 0 0 0 0 0 0
0 0 0 0 0 0 0 0 0
0 0 0 0 0 0 0 0 0
0 0 0 0 0 0 0 0 0
0 0 0 0 0 0 0 0 0
0 0 0 0 0 0 0 0 0
0 0 0 0 0 0 0 0 0
0 0 0 0 0 0 0 0 0
0 0 0 0 0 0 0 0 0
0 0 0 0 0 0 0 0 0
0 0 0 0 0 0 0 0 0
0 0 0 0 0 0 0 0 0
0 0 0 0 0 0 0 0 0
0 0 0 0 0 0 0 0 0
0 0 0 0 0 0 0 0 0
0 0 0 0 0 0 0 0 0
0 0 0 0 0 0 0 0 0
0 0 0 0 0 0 0 0 0
0 0 0 0 0 0 0 0 0
0 0 0 0 0 0 0 0 0
0 0 0 0 0 0 0 0 0
0 0 0 0 0 0 0 0 0
0 0 0 0 0 0 0 0 0
0 0 0 0 0 0 0 0 0
0 0 0 0 0 0 0 0 0
0 0 0 0 0 0 0 0 0
0 0 0 0 0 0 0 0 0
0 0 0 0 0 0 0 0 0
0 0 0 0 0 0 0 0 0
0 0 0 0 0 0 0 0 0
0 0 0 0 0 0 0 0 0
0 0 0 0 0 0 0 0 0
0 0 0 0 0 0 0 0 0
0 0 0 0 0 0 0 0 0
0 0 0 0 0 0 0 0 0
0 0 0 0 0 0 0 0 0
0 0 0 0 0 0 0 0 0
0 0 0 0 0 0 0 0 0
0 0 0 0 0 0 0 0 0
0 0 0 0 0 0 0 0 0
0 0 0 0 0 0 0 0 0
0 0 0 0 0 0 0 0 0
0 0 0 0 0 0 0 0 0
0 0 0 0 0 0 0 0 0
0 0 0 0 0 0 0 0 0
0 0 0 0 0 0 0 0 0
0 0 0 0 0 0 0 0 0
0 0 0 0 0 0 0 0 0
0 0 0 0 0 0 0 0 0
0 0 0 0 0 0 0 0 0
0 0 0 0 0 0 0 0 0
0 0 0 0 0 0 0 0 0
0 0 0 0 0 0 0 0 0
0 0 0 0 0 0 0 0 0
0 0 0 0 0 0 0 0 0
0 0 0 0 0 0 0 0 0
0 0 0 0 0 0 0 0 0
0 0 0 0 0 0 0 0 0
0 0 0 0 0 0 0 0 0
0 0 0 0 0 0 0 0 0
0 0 0 0 0 0 0 0 0
0 0 0 0 0 0 0 0 0
0 0 0 0 0 0 0 0 0
0 0 0 0 0 0 0 0 0
0 0 0 0 0 0 0 0 0
0 0 0 0 0 0 0 0 0
0 0 0 0 0 0 0 0 0
0 0 0 0 0 0 0 0 0
0 0 0 0 0 0 0 0 0
0 0 0 0 0 0 0 0 0
0 0 0 0 0 0 0 0 0
0 0 0 0 0 0 0 0 0
0 0 0 0 0 0 0 0 0
0 0 0 0 0 0 0 0 0
0 0 0 0 0 0 0 0 0
0 0 0 0 0 0 0 0 0
0 0 0 0 0 0 0 0 0
0 0 0 0 0 0 0 0 0
0 0 0 0 0 0 0 0 0
0 0 0 0 0 0 0 0 0
0 0 0 0 0 0 0 0 0
0 0 0 0 0 0 0 0 0
0 0 0 0 0 0 0 0 0
0 0 0 0 0 0 0 0 0
0 0 0 0 0 0 0 0 0
0 0 0 0 0 0 0 0 0
0 0 0 0 0 0 0 0 0
0 0 0 0 0 0 0 0 0
0 0 0 0 0 0 0 0 0
0 0 0 0 0 0 0 0 0
0 0 0 0 0 0 0 0 0
0 0 0 0 0 0 0 0 0
0 0 0 0 0 0 0 0 0
0 0 0 0 0 0 0 0 0
0 0 0 0 0 0 0 0 0
0 0 0 0 0 0 0 0 0
0 0 0 0 0 0 0 0 0
0 0 0 0 0 0 0 0 0
0 0 0 0 0 0 0 0 0
0 0 0 0 0 0 0 0 0
0 0 0 0 0 0 0 0 0
0 0 0 0 0 0 0 0 0
0 0 0 0 0 0 0 0 0
0 0 0 0 0 0 0 0 0
0 0 0 0 0 0 0 0 0
0 0 0 0 0 0 0 0 0
0 0 0 0 0 0 0 0 0
0 0 0 0 0 0 0 0 0
0 0 0 0 0 0 0 0 0
0 0 0 0 0 0 0 0 0
0 0 0 0 0 0 0 0 0
0 0 0 0 0 0 0 0 0
0 0 0 0 0 0 0 0 0
0 0 0 0 0 0 0 0 0
0 0 0 0 0 0 0 0 0
0 0 0 0 0 0 0 0 0
0 0 0 0 0 0 0 0 0
0 0 0 0 0 0 0 0 0
0 0 0 0 0 0 0 0 0
0 0 0 0 0 0 0 0 0
0 0 0 0 0 0 0 0 0
0 0 0 0 0 0 0 0 0
0 0 0 0 0 0 0 0 0
0 0 0 0 0 0 0 0 0
0 0 0 0 0 0 0 0 0
0 0 0 0 0 0 0 0 0
0 0 0 0 0 0 0 0 0
0 0 0 0 0 0 0 0 0
0 0 0 0 0 0 0 0 0
0 0 0 0 0 0 0 0 0
0 0 0 0 0 0 0 0 0
0 0 0 0 0 0 0 0 0
0 0 0 0 0 0 0 0 0
0 0 0 0 0 0 0 0 0
0 0 0 0 0 0 0 0 0
0 0 0 0 0 0 0 0 0
0 0 0 0 0 0 0 0 0
0 0 0 0 0 0 0 0 0
0 0 0 0 0 0 0 0 0
0 0 0 0 0 0 0 0 0
0 0 0 0 0 0 0 0 0
0 0 0 0 0 0 0 0 0
0 0 0 0 0 0 0 0 0
0 0 0 0 0 0 0 0 0
0 0 0 0 0 0 0 0 0
0 0 0 0 0 0 0 0 0
0 0 0 0 0 0 0 0 0
0 0 0 0 0 0 0 0 0
0 0 0 0 0 0 0 0 0
0 0 0 0 0 0 0 0 0
0 0 0 0 0 0 0 0 0
0 0 0 0 0 0 0 0 0
0 0 0 0 0 0 0 0 0
0 0 0 0 0 0 0 0 0
0 0 0 0 0 0 0 0 0
0 0 0 0 0 0 0 0 0
0 0 0 0 0 0 0 0 0
0 0 0 0 0 0 0 0 0
0 0 0 0 0 0 0 0 0
0 0 0 0 0 0 0 0 0
0 0 0 0 0 0 0 0 0
0 0 0 0 0 0 0 0 0
0 0 0 0 0 0 0 0 0
0 0 0 0 0 0 0 0 0
0 0 0 0 0 0 0 0 0
0 0 0 0 0 0 0 0 0
0 0 0 0 0 0 0 0 0
0 0 0 0 0 0 0 0 0
0 0 0 0 0 0 0 0 0
0 0 0 0 0 0 0 0 0
0 0 0 0 0 0 0 0 0
0 0 0 0 0 0 0 0 0
0 0 0 0 0 0 0 0 0
0 0 0 0 0 0 0 0 0
0 0 0 0 0 0 0 0 0
0 0 0 0 0 0 0 0 0
0 0 0 0 0 0 0 0 0
0 0 0 0 0 0 0 0 0
0 0 0 0 0 0 0 0 0
0 0 0 0 0 0 0 0 0
0 0 0 0 0 0 0 0 0
0 0 0 0 0 0 0 0 0
0 0 0 0 0 0 0 0 0
0 0 0 0 0 0 0 0 0
0 0 0 0 0 0 0 0 0
0 0 0 0 0 0 0 0 0
0 0 0 0 0 0 0 0 0
0 0 0 0 0 0 0 0 0
0 0 0 0 0 0 0 0 0
0 0 0 0 0 0 0 0 0
0 0 0 0 0 0 0 0 0
0 0 0 0 0 0 0 0 0
0 0 0 0 0 0 0 0 0
0 0 0 0 0 0 0 0 0
0 0 0 0 0 0 0 0 0
0 0 0 0 0 0 0 0 0
0 0 0 0 0 0 0 0 0
0 0 0 0 0 0 0 0 0
0 0 0 0 0 0 0 0 0
0 0 0 0 0 0 0 0 0
0 0 0 0 0 0 0 0 0
0 0 0 0 0 0 0 0 0
0 0 0 0 0 0 0 0 0
0 0 0 0 0 0 0 0 0
0 0 0 0 0 0 0 0 0
0 0 0 0 0 0 0 0 0
0 0 0 0 0 0 0 0 0
0 0 0 0 0 0 0 0 0
0 0 0 0 0 0 0 0 0
0 0 0 0 0 0 0 0 0
0 0 0 0 0 0 0 0 0
0 0 0 0 0 0 0 0 0
0 0 0 0 0 0 0 0 0
0 0 0 0 0 0 0 0 0
0 0 0 0 0 0 0 0 0
0 0 0 0 0 0 0 0 0
0 0 0 0 0 0 0 0 0
0 0 0 0 0 0 0 0 0
0 0 0 0 0 0 0 0 0
0 0 0 0 0 0 0 0 0
0 0 0 0 0 0 0 0 0
0 0 0 0 0 0 0 0 0
0 0 0 0 0 0 0 0 0
0 0 0 0 0 0 0 0 0
0 0 0 0 0 0 0 0 0
0 0 0 0 0 0 0 0 0
0 0 0 0 0 0 0 0 0
0 0 0 0 0 0 0 0 0
0 0 0 0 0 0 0 0 0
0 0 0 0 0 0 0 0 0
0 0 0 0 0 0 0 0 0
0 0 0 0 0 0 0 0 0
0 0 0 0 0 0 0 0 0
0 0 0 0 0 0 0 0 0
0 0 0 0 0 0 0 0 0
0 0 0 0 0 0 0 0 0
0 0 0 0 0 0 0 0 0
0 0 0 0 0 0 0 0 0
0 0 0 0 0 0 0 0 0
0 0 0 0 0 0 0 0 0
0 0 0 0 0 0 0 0 0
0 0 0 0 0 0 0 0 0
0 0 0 0 0 0 0 0 0
0 0 0 0 0 0 0 0 0
0 0 0 0 0 0 0 0 0
0 0 0 0 0 0 0 0 0
0 0 0 0 0 0 0 0 0
0 0 0 0 0 0 0 0 0
0 0 0 0 0 0 0 0 0
0 0 0 0 0 0 0 0 0
0 0 0 0 0 0 0 0 0
0 0 0 0 0 0 0 0 0
0 0 0 0 0 0 0 0 0
0 0 0 0 0 0 0 0 0
0 0 0 0 0 0 0 0 0
0 0 0 0 0 0 0 0 0
0 0 0 0 0 0 0 0 0
0 0 0 0 0 0 0 0 0
0 0 0 0 0 0 0 0 0
0 0 0 0 0 0 0 0 0
0 0 0 0 0 0 0 0 0
0 0 0 0 0 0 0 0 0
0 0 0 0 0 0 0 0 0
0 0 0 0 0 0 0 0 0
0 0 0 0 0 0 0 0 0
0 0 0 0 0 0 0 0 0
0 0 0 0 0 0 0 0 0
0 0 0 0 0 0 0 0 0
0 0 0 0 0 0 0 0 0
0 0 0 0 0 0 0 0 0
0 0 0 0 0 0 0 0 0
0 0 0 0 0 0 0 0 0
0 0 0 0 0 0 0 0 0
0 0 0 0 0 0 0 0 0
0 0 0 0 0 0 0 0 0
0 0 0 0 0 0 0 0 0
0 0 0 0 0 0 0 0 0
0 0 0 0 0 0 0 0 0
0 0 0 0 0 0 0 0 0
0 0 0 0 0 0 0 0 0
0 0 0 0 0 0 0 0 0
0 0 0 0 0 0 0 0 0
0 0 0 0 0 0 0 0 0
0 0 0 0 0 0 0 0 0
0 0 0 0 0 0 0 0 0
0 0 0 0 0 0 0 0 0
0 0 0 0 0 0 0 0 0
0 0 0 0 0 0 0 0 0
0 0 0 0 0 0 0 0 0
0 0 0 0 0 0 0 0 0
0 0 0 0 0 0 0 0 0
0 0 0 0 0 0 0 0 0
0 0 0 0 0 0 0 0 0
0 0 0 0 0 0 0 0 0
0 0 0 0 0 0 0 0 0
0 0 0 0 0 0 0 0 0
0 0 0 0 0 0 0 0 0
0 0 0 0 0 0 0 0 0
0 0 0 0 0 0 0 0 0
0 0 0 0 0 0 0 0 0
0 0 0 0 0 0 0 0 0
0 0 0 0 0 0 0 0 0
0 0 0 0 0 0 0 0 0
0 0 0 0 0 0 0 0 0
0 0 0 0 0 0 0 0 0
0 0 0 0 0 0 0 0 0
0 0 0 0 0 0 0 0 0
0 0 0 0 0 0 0 0 0
0 0 0 0 0 0 0 0 0
0 0 0 0 0 0 0 0 0
0 0 0 0 0 0 0 0 0
0 0 0 0 0 0 0 0 0
0 0 0 0 0 0 0 0 0
0 0 0 0 0 0 0 0 0
0 0 0 0 0 0 0 0 0
0 0 0 0 0 0 0 0 0
0 0 0 0 0 0 0 0 0
0 0 0 0 0 0 0 0 0
0 0 0 0 0 0 0 0 0
0 0 0 0 0 0 0 0 0
0 0 0 0 0 0 0 0 0
0 0 0 0 0 0 0 0 0
0 0 0 0 0 0 0 0 0
0 0 0 0 0 0 0 0 0
0 0 0 0 0 0 0 0 0
0 0 0 0 0 0 0 0 0
0 0 0 0 0 0 0 0 0
0 0 0 0 0 0 0 0 0
0 0 0 0 0 0 0 0 0
0 0 0 0 0 0 0 0 0
0 0 0 0 0 0 0 0 0
0 0 0 0 0 0 0 0 0
0 0 0 0 0 0 0 0 0
0 0 0 0 0 0 0 0 0
0 0 0 0 0 0 0 0 0
0 0 0 0 0 0 0 0 0
0 0 0 0 0 0 0 0 0
0 0 0 0 0 0 0 0 0
0 0 0 0 0 0 0 0 0
0 0 0 0 0 0 0 0 0
0 0 0 0 0 0 0 0 0
0 0 0 0 0 0 0 0 0
0 0 0 0 0 0 0 0 0
0 0 0 0 0 0 0 0 0
0 0 0 0 0 0 0 0 0
0 0 0 0 0 0 0 0 0
0 0 0 0 0 0 0 0 0
0 0 0 0 0 0 0 0 0
0 0 0 0 0 0 0 0 0
0 0 0 0 0 0 0 0 0
0 0 0 0 0 0 0 0 0
0 0 0 0 0 0 0 0 0
0 0 0 0 0 0 0 0 0
0 0 0 0 0 0 0 0 0
0 0 0 0 0 0 0 0 0
0 0 0 0 0 0 0 0 0
0 0 0 0 0 0 0 0 0
0 0 0 0 0 0 0 0 0
0 0 0 0 0 0 0 0 0
0 0 0 0 0 0 0 0 0
0 0 0 0 0 0 0 0 0
0 0 0 0 0 0 0 0 0
0 0 0 0 0 0 0 0 0
0 0 0 0 0 0 0 0 0
0 0 0 0 0 0 0 0 0
0 0 0 0 0 0 0 0 0
0 0 0 0 0 0 0 0 0
0 0 0 0 0 0 0 0 0
0 0 0 0 0 0 0 0 0
0 0 0 0 0 0 0 0 0
0 0 0 0 0 0 0 0 0
0 0 0 0 0 0 0 0 0
0 0 0 0 0 0 0 0 0
0 0 0 0 0 0 0 0 0
0 0 0 0 0 0 0 0 0
0 0 0 0 0 0 0 0 0
0 0 0 0 0 0 0 0 0
0 0 0 0 0 0 0 0 0
0 0 0 0 0 0 0 0 0
0 0 0 0 0 0 0 0 0
0 0 0 0 0 0 0 0 0
0 0 0 0 0 0 0 0 0
0 0 0 0 0 0 0 0 0
0 0 0 0 0 0 0 0 0
0 0 0 0 0 0 0 0 0
0 0 0 0 0 0 0 0 0
0 0 0 0 0 0 0 0 0
0 0 0 0 0 0 0 0 0
0 0 0 0 0 0 0 0 0
0 0 0 0 0 0 0 0 0
0 0 0 0 0 0 0 0 0
0 0 0 0 0 0 0 0 0
0 0 0 0 0 0 0 0 0
0 0 0 0 0 0 0 0 0
0 0 0 0 0 0 0 0 0
0 0 0 0 0 0 0 0 0
0 0 0 0 0 0 0 0 0
0 0 0 0 0 0 0 0 0
0.893142 0.925763 0.910469 0.942928 0.893142 0.925763 0.910469 0.942928 0
0.950454 0.985354 0.967485 1.00218 0.950454 0.985354 0.967485 1.00218 0
1.01171 1.0489 1.02836 1.06528 1.01171 1.0489 1.02836 1.06528 0
1.07692 1.1164 1.09309 1.13223 1.07692 1.1164 1.09309 1.13223 0
1.14608 1.18783 1.16163 1.20296 1.14608 1.18783 1.16163 1.20296 0
1.21913 1.26308 1.23393 1.27738 1.21913 1.26308 1.23393 1.27738 0
0.861677 0.894569 0.880025 0.912761 0.861677 0.894569 0.880025 0.912761 0
0.919486 0.954734 0.937548 0.972594 0.919486 0.954734 0.937548 0.972594 0
0.981386 1.01904 0.999075 1.03646 0.981386 1.01904 0.999075 1.03646 0
1.04745 1.08752 1.06464 1.10437 1.04745 1.08752 1.06464 1.10437 0
1.11769 1.16018 1.13426 1.17631 1.11769 1.16018 1.13426 1.17631 0
1.19207 1.2369 1.20786 1.25218 1.19207 1.2369 1.20786 1.25218 0
0.828402 0.861544 0.847798 0.880797 0.828402 0.861544 0.847798 0.880797 0
0.886677 0.922265 0.905806 0.941197 0.886677 0.922265 0.905806 0.941197 0
0.949211 0.987328 0.967973 1.00582 0.949211 0.987328 0.967973 1.00582 0
1.01613 1.05681 1.03439 1.07472 1.01613 1.05681 1.03439 1.07472 0
1.08747 1.13072 1.1051 1.14791 1.08747 1.13072 1.1051 1.14791 0
1.16324 1.209 1.18006 1.22527 1.16324 1.209 1.18006 1.22527 0
1.24332 1.29154 1.25916 1.30673 1.24332 1.29154 1.25916 1.30673 0
1.32747 1.37767 1.34215 1.39161 1.32747 1.37767 1.34215 1.39161 0
1.4151 1.46748 1.42845 1.47999 1.4151 1.46748 1.42845 1.47999 0
0.793247 0.826615 0.813735 0.846974 0.793247 0.826615 0.813735 0.846974 0
0.851951 0.887868 0.872194 0.907921 0.851951 0.887868 0.872194 0.907921 0
0.915103 0.95368 0.93499 0.9733 0.915103 0.95368 0.93499 0.9733 0
0.982872 1.02416 1.00227 1.0432 0.982872 1.02416 1.00227 1.0432 0
1.05533 1.09936 1.07408 1.11765 1.05533 1.09936 1.07408 1.11765 0
1.1325 1.17922 1.15044 1.1966 1.1325 1.17922 1.15044 1.1966 0
1.21431 1.26367 1.23124 1.27994 1.21431 1.26367 1.23124 1.27994 0
1.30049 1.35203 1.31624 1.367 1.30049 1.35203 1.31624 1.367 0
1.39051 1.44445 1.40487 1.4579 1.39051 1.44445 1.40487 1.4579 0
0.756143 0.789701 0.777762 0.811213 0.756143 0.789701 0.777762 0.811213 0
0.815222 0.851452 0.836629 0.872679 0.815222 0.851452 0.836629 0.872679 0
0.878967 0.917994 0.900033 0.9388 0.878967 0.917994 0.900033 0.9388 0
0.947573 0.989469 0.968155 1.0097 0.947573 0.989469 0.968155 1.0097 0
1.02115 1.06596 1.04109 1.08544 1.02115 1.06596 1.04109 1.08544 0
1.09975 1.14745 1.11886 1.16599 1.09975 1.14745 1.11886 1.16599 0
1.18333 1.23387 1.2014 1.25125 1.18333 1.23387 1.2014 1.25125 0
1.27164 1.32457 1.28848 1.34059 1.27164 1.32457 1.28848 1.34059 0
1.36416 1.41973 1.37954 1.43416 1.36416 1.41973 1.37954 1.43416 0
0.717013 0.750724 0.739809 0.773434 0.717013 0.750724 0.739809 0.773434 0
0.776406 0.812923 0.799025 0.835378 0.776406 0.812923 0.799025 0.835378 0
0.840701 0.880161 0.863006 0.902216 0.840701 0.880161 0.863006 0.902216 0
0.910119 0.952619 0.931956 0.974107 0.910119 0.952619 0.931956 0.974107 0
0.984813 1.03042 1.00601 1.05115 0.984813 1.03042 1.00601 1.05115 0
1.06486 1.11356 1.08522 1.13333 1.06486 1.11356 1.08522 1.13333 0
1.15025 1.20202 1.16955 1.2206 1.15025 1.20202 1.16955 1.2206 0
1.24078 1.29518 1.25879 1.31233 1.24078 1.29518 1.25879 1.31233 0
1.33593 1.3932 1.3524 1.40868 1.33593 1.3932 1.3524 1.40868 0
0.675775 0.709597 0.699794 0.733556 0.675775 0.709597 0.699794 0.733556 0
0.73541 0.772178 0.759297 0.795922 0.73541 0.772178 0.759297 0.795922 0
0.800197 0.840066 0.823804 0.863439 0.800197 0.840066 0.823804 0.863439 0
0.87039 0.913481 0.893553 0.936302 0.87039 0.913481 0.893553 0.936302 0
0.946183 0.992579 0.968712 1.01465 0.946183 0.992579 0.968712 1.01465 0
1.02769 1.07741 1.04938 1.0985 1.02769 1.07741 1.04938 1.0985 0
1.11494 1.16798 1.13554 1.18784 1.11494 1.16798 1.13554 1.18784 0
1.20776 1.26369 1.22703 1.28207 1.20776 1.26369 1.22703 1.28207 0
1.30566 1.36472 1.32332 1.38135 1.30566 1.36472 1.32332 1.38135 0
1.40742 1.46543 1.42323 1.48004 1.40742 1.46543 1.42323 1.48004 0
0.577706 0.608679 0.602938 0.633934 0.577706 0.608679 0.602938 0.633934 0
0.632387 0.666234 0.657649 0.691491 0.632387 0.666234 0.657649 0.691491 0
0.692132 0.729106 0.717346 0.754204 0.692132 0.729106 0.717346 0.754204 0
0.757339 0.797584 0.782316 0.822347 0.757339 0.797584 0.782316 0.822347 0
0.828256 0.871918 0.85282 0.896153 0.828256 0.871918 0.85282 0.896153 0
0.905119 0.952306 0.929067 0.975796 0.905119 0.952306 0.929067 0.975796 0
0.988089 1.03884 1.01119 1.06135 0.988089 1.03884 1.01119 1.06135 0
1.07723 1.13158 1.09924 1.15282 1.07723 1.13158 1.09924 1.15282 0
1.17242 1.22995 1.19305 1.24965 1.17242 1.22995 1.19305 1.24965 0
1.2732 1.33416 1.29215 1.352 1.2732 1.33416 1.29215 1.352 0
1.37834 1.4385 1.39531 1.45422 1.37834 1.4385 1.39531 1.45422 0
1.48518 1.55307 1.49992 1.56638 1.48518 1.55307 1.49992 1.56638 0
0.586705 0.620587 0.61331 0.647165 0.586705 0.620587 0.61331 0.647165 0
0.646556 0.683687 0.673093 0.710137 0.646556 0.683687 0.673093 0.710137 0
0.712094 0.752656 0.738448 0.778833 0.712094 0.752656 0.738448 0.778833 0
0.78363 0.827802 0.809638 0.853522 0.78363 0.827802 0.809638 0.853522 0
0.861464 0.909402 0.886923 0.934432 0.861464 0.909402 0.886923 0.934432 0
0.945838 0.997629 0.970493 1.02168 0.945838 0.997629 0.970493 1.02168 0
1.03688 1.09255 1.06044 1.11534 1.03688 1.09255 1.06044 1.11534 0
1.1345 1.19373 1.15665 1.21488 1.1345 1.19373 1.15665 1.21488 0
1.23832 1.30129 1.25869 1.32049 1.23832 1.30129 1.25869 1.32049 0
1.34705 1.40952 1.36532 1.42644 1.34705 1.40952 1.36532 1.42644 0
1.45799 1.52849 1.47386 1.54283 1.45799 1.52849 1.47386 1.54283 0
0 0 0 0 0 0 0 0 0
0 0 0 0 0 0 0 0 0
0 0 0 0 0 0 0 0 0
0 0 0 0 0 0 0 0 0
0 0 0 0 0 0 0 0 0
0 0 0 0 0 0 0 0 0
0 0 0 0 0 0 0 0 0
0 0 0 0 0 0 0 0 0
0 0 0 0 0 0 0 0 0
0 0 0 0 0 0 0 0 0
0 0 0 0 0 0 0 0 0
0 0 0 0 0 0 0 0 0
0 0 0 0 0 0 0 0 0
0 0 0 0 0 0 0 0 0
0 0 0 0 0 0 0 0 0
0 0 0 0 0 0 0 0 0
0 0 0 0 0 0 0 0 0
0 0 0 0 0 0 0 0 0
0 0 0 0 0 0 0 0 0
0 0 0 0 0 0 0 0 0
0 0 0 0 0 0 0 0 0
0 0 0 0 0 0 0 0 0
0 0 0 0 0 0 0 0 0
0 0 0 0 0 0 0 0 0
0 0 0 0 0 0 0 0 0
0 0 0 0 0 0 0 0 0
0 0 0 0 0 0 0 0 0
0 0 0 0 0 0 0 0 0
0 0 0 0 0 0 0 0 0
0 0 0 0 0 0 0 0 0
0 0 0 0 0 0 0 0 0
0 0 0 0 0 0 0 0 0
0 0 0 0 0 0 0 0 0
0 0 0 0 0 0 0 0 0
0 0 0 0 0 0 0 0 0
0 0 0 0 0 0 0 0 0
0 0 0 0 0 0 0 0 0
0 0 0 0 0 0 0 0 0
0 0 0 0 0 0 0 0 0
0 0 0 0 0 0 0 0 0
0 0 0 0 0 0 0 0 0
0 0 0 0 0 0 0 0 0
0 0 0 0 0 0 0 0 0
0 0 0 0 0 0 0 0 0
0 0 0 0 0 0 0 0 0
0 0 0 0 0 0 0 0 0
0 0 0 0 0 0 0 0 0
0 0 0 0 0 0 0 0 0
0 0 0 0 0 0 0 0 0
0 0 0 0 0 0 0 0 0
0 0 0 0 0 0 0 0 0
0 0 0 0 0 0 0 0 0
0 0 0 0 0 0 0 0 0
0 0 0 0 0 0 0 0 0
0 0 0 0 0 0 0 0 0
0 0 0 0 0 0 0 0 0
0 0 0 0 0 0 0 0 0
0 0 0 0 0 0 0 0 0
0 0 0 0 0 0 0 0 0
0 0 0 0 0 0 0 0 0
0 0 0 0 0 0 0 0 0
0 0 0 0 0 0 0 0 0
0 0 0 0 0 0 0 0 0
0 0 0 0 0 0 0 0 0
0 0 0 0 0 0 0 0 0
0 0 0 0 0 0 0 0 0
0 0 0 0 0 0 0 0 0
0 0 0 0 0 0 0 0 0
0 0 0 0 0 0 0 0 0
0 0 0 0 0 0 0 0 0
0 0 0 0 0 0 0 0 0
0 0 0 0 0 0 0 0 0
0 0 0 0 0 0 0 0 0
0 0 0 0 0 0 0 0 0
0 0 0 0 0 0 0 0 0
0 0 0 0 0 0 0 0 0
0 0 0 0 0 0 0 0 0
0 0 0 0 0 0 0 0 0
0 0 0 0 0 0 0 0 0
0 0 0 0 0 0 0 0 0
0 0 0 0 0 0 0 0 0
0 0 0 0 0 0 0 0 0
0 0 0 0 0 0 0 0 0
0 0 0 0 0 0 0 0 0
0 0 0 0 0 0 0 0 0
0 0 0 0 0 0 0 0 0
0 0 0 0 0 0 0 0 0
0 0 0 0 0 0 0 0 0
0 0 0 0 0 0 0 0 0
0 0 0 0 0 0 0 0 0
0 0 0 0 0 0 0 0 0
0 0 0 0 0 0 0 0 0
0 0 0 0 0 0 0 0 0
0 0 0 0 0 0 0 0 0
0 0 0 0 0 0 0 0 0
0 0 0 0 0 0 0 0 0
0 0 0 0 0 0 0 0 0
0 0 0 0 0 0 0 0 0
0 0 0 0 0 0 0 0 0
0 0 0 0 0 0 0 0 0
0 0 0 0 0 0 0 0 0
0 0 0 0 0 0 0 0 0
0 0 0 0 0 0 0 0 0
0 0 0 0 0 0 0 0 0
0 0 0 0 0 0 0 0 0
0 0 0 0 0 0 0 0 0
0 0 0 0 0 0 0 0 0
0 0 0 0 0 0 0 0 0
0 0 0 0 0 0 0 0 0
0 0 0 0 0 0 0 0 0
0 0 0 0 0 0 0 0 0
0 0 0 0 0 0 0 0 0
0 0 0 0 0 0 0 0 0
0 0 0 0 0 0 0 0 0
0 0 0 0 0 0 0 0 0
0 0 0 0 0 0 0 0 0
0 0 0 0 0 0 0 0 0
0 0 0 0 0 0 0 0 0
0 0 0 0 0 0 0 0 0
0 0 0 0 0 0 0 0 0
0 0 0 0 0 0 0 0 0
0 0 0 0 0 0 0 0 0
0 0 0 0 0 0 0 0 0
0 0 0 0 0 0 0 0 0
0 0 0 0 0 0 0 0 0
0 0 0 0 0 0 0 0 0
0 0 0 0 0 0 0 0 0
0 0 0 0 0 0 0 0 0
0 0 0 0 0 0 0 0 0
0 0 0 0 0 0 0 0 0
0 0 0 0 0 0 0 0 0
0 0 0 0 0 0 0 0 0
0 0 0 0 0 0 0 0 0
0 0 0 0 0 0 0 0 0
0 0 0 0 0 0 0 0 0
0 0 0 0 0 0 0 0 0
0 0 0 0 0 0 0 0 0
0 0 0 0 0 0 0 0 0
0 0 0 0 0 0 0 0 0
0 0 0 0 0 0 0 0 0
0 0 0 0 0 0 0 0 0
0 0 0 0 0 0 0 0 0
0 0 0 0 0 0 0 0 0
0 0 0 0 0 0 0 0 0
0 0 0 0 0 0 0 0 0
0 0 0 0 0 0 0 0 0
0 0 0 0 0 0 0 0 0
0 0 0 0 0 0 0 0 0
0 0 0 0 0 0 0 0 0
0 0 0 0 0 0 0 0 0
0 0 0 0 0 0 0 0 0
0 0 0 0 0 0 0 0 0
0 0 0 0 0 0 0 0 0
0 0 0 0 0 0 0 0 0
0 0 0 0 0 0 0 0 0
0 0 0 0 0 0 0 0 0
0 0 0 0 0 0 0 0 0
0 0 0 0 0 0 0 0 0
0 0 0 0 0 0 0 0 0
0 0 0 0 0 0 0 0 0
0 0 0 0 0 0 0 0 0
0 0 0 0 0 0 0 0 0
0 0 0 0 0 0 0 0 0
0 0 0 0 0 0 0 0 0
0 0 0 0 0 0 0 0 0
0 0 0 0 0 0 0 0 0
0 0 0 0 0 0 0 0 0
0 0 0 0 0 0 0 0 0
0 0 0 0 0 0 0 0 0
0 0 0 0 0 0 0 0 0
0 0 0 0 0 0 0 0 0
0 0 0 0 0 0 0 0 0
0 0 0 0 0 0 0 0 0
0 0 0 0 0 0 0 0 0
0 0 0 0 0 0 0 0 0
0 0 0 0 0 0 0 0 0
0 0 0 0 0 0 0 0 0
0 0 0 0 0 0 0 0 0
0 0 0 0 0 0 0 0 0
0 0 0 0 0 0 0 0 0
0 0 0 0 0 0 0 0 0
0 0 0 0 0 0 0 0 0
0 0 0 0 0 0 0 0 0
0 0 0 0 0 0 0 0 0
0 0 0 0 0 0 0 0 0
0 0 0 0 0 0 0 0 0
0 0 0 0 0 0 0 0 0
0 0 0 0 0 0 0 0 0
0 0 0 0 0 0 0 0 0
0 0 0 0 0 0 0 0 0
0 0 0 0 0 0 0 0 0
0 0 0 0 0 0 0 0 0
0 0 0 0 0 0 0 0 0
0 0 0 0 0 0 0 0 0
0 0 0 0 0 0 0 0 0
0 0 0 0 0 0 0 0 0
0 0 0 0 0 0 0 0 0
0 0 0 0 0 0 0 0 0
0 0 0 0 0 0 0 0 0
0 0 0 0 0 0 0 0 0
0 0 0 0 0 0 0 0 0
0 0 0 0 0 0 0 0 0
0 0 0 0 0 0 0 0 0
0 0 0 0 0 0 0 0 0
0 0 0 0 0 0 0 0 0
0 0 0 0 0 0 0 0 0
0 0 0 0 0 0 0 0 0
0 0 0 0 0 0 0 0 0
0 0 0 0 0 0 0 0 0
0 0 0 0 0 0 0 0 0
0 0 0 0 0 0 0 0 0
0 0 0 0 0 0 0 0 0
0 0 0 0 0 0 0 0 0
0 0 0 0 0 0 0 0 0
0 0 0 0 0 0 0 0 0
0 0 0 0 0 0 0 0 0
0 0 0 0 0 0 0 0 0
0 0 0 0 0 0 0 0 0
0 0 0 0 0 0 0 0 0
0 0 0 0 0 0 0 0 0
0 0 0 0 0 0 0 0 0
0 0 0 0 0 0 0 0 0
0 0 0 0 0 0 0 0 0
0 0 0 0 0 0 0 0 0
0 0 0 0 0 0 0 0 0
0 0 0 0 0 0 0 0 0
0 0 0 0 0 0 0 0 0
0 0 0 0 0 0 0 0 0
0 0 0 0 0 0 0 0 0
0 0 0 0 0 0 0 0 0
0 0 0 0 0 0 0 0 0
0 0 0 0 0 0 0 0 0
0 0 0 0 0 0 0 0 0
0 0 0 0 0 0 0 0 0
0 0 0 0 0 0 0 0 0
0 0 0 0 0 0 0 0 0
0 0 0 0 0 0 0 0 0
0 0 0 0 0 0 0 0 0
0 0 0 0 0 0 0 0 0
0 0 0 0 0 0 0 0 0
0 0 0 0 0 0 0 0 0
0 0 0 0 0 0 0 0 0
0 0 0 0 0 0 0 0 0
0 0 0 0 0 0 0 0 0
0 0 0 0 0 0 0 0 0
0 0 0 0 0 0 0 0 0
0 0 0 0 0 0 0 0 0
0 0 0 0 0 0 0 0 0
0 0 0 0 0 0 0 0 0
0 0 0 0 0 0 0 0 0
0 0 0 0 0 0 0 0 0
0 0 0 0 0 0 0 0 0
0 0 0 0 0 0 0 0 0
0 0 0 0 0 0 0 0 0
0 0 0 0 0 0 0 0 0
0 0 0 0 0 0 0 0 0
0 0 0 0 0 0 0 0 0
0 0 0 0 0 0 0 0 0
0 0 0 0 0 0 0 0 0
0 0 0 0 0 0 0 0 0
0 0 0 0 0 0 0 0 0
0 0 0 0 0 0 0 0 0
0 0 0 0 0 0 0 0 0
0 0 0 0 0 0 0 0 0
0 0 0 0 0 0 0 0 0
0 0 0 0 0 0 0 0 0
0 0 0 0 0 0 0 0 0
0 0 0 0 0 0 0 0 0
0 0 0 0 0 0 0 0 0
0 0 0 0 0 0 0 0 0
0 0 0 0 0 0 0 0 0
0 0 0 0 0 0 0 0 0
0 0 0 0 0 0 0 0 0
0 0 0 0 0 0 0 0 0
0 0 0 0 0 0 0 0 0
0 0 0 0 0 0 0 0 0
0 0 0 0 0 0 0 0 0
0 0 0 0 0 0 0 0 0
0 0 0 0 0 0 0 0 0
0 0 0 0 0 0 0 0 0
0 0 0 0 0 0 0 0 0
0 0 0 0 0 0 0 0 0
0 0 0 0 0 0 0 0 0
0 0 0 0 0 0 0 0 0
0 0 0 0 0 0 0 0 0
0 0 0 0 0 0 0 0 0
0 0 0 0 0 0 0 0 0
0 0 0 0 0 0 0 0 0
0 0 0 0 0 0 0 0 0
0 0 0 0 0 0 0 0 0
0 0 0 0 0 0 0 0 0
0 0 0 0 0 0 0 0 0
0 0 0 0 0 0 0 0 0
0 0 0 0 0 0 0 0 0
0 0 0 0 0 0 0 0 0
0 0 0 0 0 0 0 0 0
0 0 0 0 0 0 0 0 0
0 0 0 0 0 0 0 0 0
0 0 0 0 0 0 0 0 0
0 0 0 0 0 0 0 0 0
0 0 0 0 0 0 0 0 0
0 0 0 0 0 0 0 0 0
0 0 0 0 0 0 0 0 0
0 0 0 0 0 0 0 0 0
0 0 0 0 0 0 0 0 0
0 0 0 0 0 0 0 0 0
0 0 0 0 0 0 0 0 0
0 0 0 0 0 0 0 0 0
0 0 0 0 0 0 0 0 0
0 0 0 0 0 0 0 0 0
0 0 0 0 0 0 0 0 0
0 0 0 0 0 0 0 0 0
0 0 0 0 0 0 0 0 0
0 0 0 0 0 0 0 0 0
0 0 0 0 0 0 0 0 0
0 0 0 0 0 0 0 0 0
0 0 0 0 0 0 0 0 0
0 0 0 0 0 0 0 0 0
0 0 0 0 0 0 0 0 0
0 0 0 0 0 0 0 0 0
0 0 0 0 0 0 0 0 0
0 0 0 0 0 0 0 0 0
0 0 0 0 0 0 0 0 0
0 0 0 0 0 0 0 0 0
0 0 0 0 0 0 0 0 0
0 0 0 0 0 0 0 0 0
0 0 0 0 0 0 0 0 0
0 0 0 0 0 0 0 0 0
0 0 0 0 0 0 0 0 0
0 0 0 0 0 0 0 0 0
0 0 0 0 0 0 0 0 0
0 0 0 0 0 0 0 0 0
0 0 0 0 0 0 0 0 0
0 0 0 0 0 0 0 0 0
0 0 0 0 0 0 0 0 0
0 0 0 0 0 0 0 0 0
0 0 0 0 0 0 0 0 0
0 0 0 0 0 0 0 0 0
0 0 0 0 0 0 0 0 0
0 0 0 0 0 0 0 0 0
0 0 0 0 0 0 0 0 0
0 0 0 0 0 0 0 0 0
0 0 0 0 0 0 0 0 0
0 0 0 0 0 0 0 0 0
0 0 0 0 0 0 0 0 0
0 0 0 0 0 0 0 0 0
0 0 0 0 0 0 0 0 0
0 0 0 0 0 0 0 0 0
0 0 0 0 0 0 0 0 0
0 0 0 0 0 0 0 0 0
0 0 0 0 0 0 0 0 0
0 0 0 0 0 0 0 0 0
0 0 0 0 0 0 0 0 0
0 0 0 0 0 0 0 0 0
0 0 0 0 0 0 0 0 0
0 0 0 0 0 0 0 0 0
0 0 0 0 0 0 0 0 0
0 0 0 0 0 0 0 0 0
0 0 0 0 0 0 0 0 0
0 0 0 0 0 0 0 0 0
0 0 0 0 0 0 0 0 0
0 0 0 0 0 0 0 0 0
0 0 0 0 0 0 0 0 0
0 0 0 0 0 0 0 0 0
0 0 0 0 0 0 0 0 0
0 0 0 0 0 0 0 0 0
0 0 0 0 0 0 0 0 0
0 0 0 0 0 0 0 0 0
0 0 0 0 0 0 0 0 0
0 0 0 0 0 0 0 0 0
0 0 0 0 0 0 0 0 0
0 0 0 0 0 0 0 0 0
0 0 0 0 0 0 0 0 0
0 0 0 0 0 0 0 0 0
0 0 0 0 0 0 0 0 0
0 0 0 0 0 0 0 0 0
0 0 0 0 0 0 0 0 0
0 0 0 0 0 0 0 0 0
0 0 0 0 0 0 0 0 0
0 0 0 0 0 0 0 0 0
0 0 0 0 0 0 0 0 0
0 0 0 0 0 0 0 0 0
0 0 0 0 0 0 0 0 0
0 0 0 0 0 0 0 0 0
0 0 0 0 0 0 0 0 0
0 0 0 0 0 0 0 0 0
0 0 0 0 0 0 0 0 0
0 0 0 0 0 0 0 0 0
0 0 0 0 0 0 0 0 0
0 0 0 0 0 0 0 0 0
0 0 0 0 0 0 0 0 0
0 0 0 0 0 0 0 0 0
0 0 0 0 0 0 0 0 0
0 0 0 0 0 0 0 0 0
0 0 0 0 0 0 0 0 0
0 0 0 0 0 0 0 0 0
0 0 0 0 0 0 0 0 0
0 0 0 0 0 0 0 0 0
0 0 0 0 0 0 0 0 0
0 0 0 0 0 0 0 0 0
0 0 0 0 0 0 0 0 0
0 0 0 0 0 0 0 0 0
0 0 0 0 0 0 0 0 0
0 0 0 0 0 0 0 0 0
0 0 0 0 0 0 0 0 0
0 0 0 0 0 0 0 0 0
0 0 0 0 0 0 0 0 0
0 0 0 0 0 0 0 0 0
0 0 0 0 0 0 0 0 0
0 0 0 0 0 0 0 0 0
0 0 0 0 0 0 0 0 0
0 0 0 0 0 0 0 0 0
0 0 0 0 0 0 0 0 0
0 0 0 0 0 0 0 0 0
0 0 0 0 0 0 0 0 0
0 0 0 0 0 0 0 0 0
0 0 0 0 0 0 0 0 0
0 0 0 0 0 0 0 0 0
0 0 0 0 0 0 0 0 0
0 0 0 0 0 0 0 0 0
0 0 0 0 0 0 0 0 0
0 0 0 0 0 0 0 0 0
0 0 0 0 0 0 0 0 0
0 0 0 0 0 0 0 0 0
0 0 0 0 0 0 0 0 0
0 0 0 0 0 0 0 0 0
0 0 0 0 0 0 0 0 0
0 0 0 0 0 0 0 0 0
0 0 0 0 0 0 0 0 0
0 0 0 0 0 0 0 0 0
0 0 0 0 0 0 0 0 0
0 0 0 0 0 0 0 0 0
0 0 0 0 0 0 0 0 0
0 0 0 0 0 0 0 0 0
0 0 0 0 0 0 0 0 0
0 0 0 0 0 0 0 0 0
0 0 0 0 0 0 0 0 0
0 0 0 0 0 0 0 0 0
0 0 0 0 0 0 0 0 0
0 0 0 0 0 0 0 0 0
0 0 0 0 0 0 0 0 0
0 0 0 0 0 0 0 0 0
0 0 0 0 0 0 0 0 0
0 0 0 0 0 0 0 0 0
0 0 0 0 0 0 0 0 0
0 0 0 0 0 0 0 0 0
0 0 0 0 0 0 0 0 0
0 0 0 0 0 0 0 0 0
0 0 0 0 0 0 0 0 0
0 0 0 0 0 0 0 0 0
0 0 0 0 0 0 0 0 0
0 0 0 0 0 0 0 0 0
0 0 0 0 0 0 0 0 0
0 0 0 0 0 0 0 0 0
0 0 0 0 0 0 0 0 0
0 0 0 0 0 0 0 0 0
0 0 0 0 0 0 0 0 0
0 0 0 0 0 0 0 0 0
0 0 0 0 0 0 0 0 0
0 0 0 0 0 0 0 0 0
0 0 0 0 0 0 0 0 0
0 0 0 0 0 0 0 0 0
0 0 0 0 0 0 0 0 0
0 0 0 0 0 0 0 0 0
0 0 0 0 0 0 0 0 0
0 0 0 0 0 0 0 0 0
0 0 0 0 0 0 0 0 0
0 0 0 0 0 0 0 0 0
0 0 0 0 0 0 0 0 0
0 0 0 0 0 0 0 0 0
0 0 0 0 0 0 0 0 0
0 0 0 0 0 0 0 0 0
0 0 0 0 0 0 0 0 0
0 0 0 0 0 0 0 0 0
0 0 0 0 0 0 0 0 0
0 0 0 0 0 0 0 0 0
0 0 0 0 0 0 0 0 0
0 0 0 0 0 0 0 0 0
0 0 0 0 0 0 0 0 0
0 0 0 0 0 0 0 0 0
0 0 0 0 0 0 0 0 0
0 0 0 0 0 0 0 0 0
0 0 0 0 0 0 0 0 0
0 0 0 0 0 0 0 0 0
0 0 0 0 0 0 0 0 0
0 0 0 0 0 0 0 0 0
0 0 0 0 0 0 0 0 0
0 0 0 0 0 0 0 0 0
0 0 0 0 0 0 0 0 0
0 0 0 0 0 0 0 0 0
0 0 0 0 0 0 0 0 0
0 0 0 0 0 0 0 0 0
0 0 0 0 0 0 0 0 0
0 0 0 0 0 0 0 0 0
0 0 0 0 0 0 0 0 0
0 0 0 0 0 0 0 0 0
0 0 0 0 0 0 0 0 0
0 0 0 0 0 0 0 0 0
0 0 0 0 0 0 0 0 0
0 0 0 0 0 0 0 0 0
0 0 0 0 0 0 0 0 0
0 0 0 0 0 0 0 0 0
0 0 0 0 0 0 0 0 0
0 0 0 0 0 0 0 0 0
0 0 0 0 0 0 0 0 0
0 0 0 0 0 0 0 0 0
0 0 0 0 0 0 0 0 0
0 0 0 0 0 0 0 0 0
0 0 0 0 0 0 0 0 0
0 0 0 0 0 0 0 0 0
0 0 0 0 0 0 0 0 0
0 0 0 0 0 0 0 0 0
0 0 0 0 0 0 0 0 0
0 0 0 0 0 0 0 0 0
0 0 0 0 0 0 0 0 0
0 0 0 0 0 0 0 0 0
0 0 0 0 0 0 0 0 0
0 0 0 0 0 0 0 0 0
0 0 0 0 0 0 0 0 0
0 0 0 0 0 0 0 0 0
0 0 0 0 0 0 0 0 0
0 0 0 0 0 0 0 0 0
0 0 0 0 0 0 0 0 0
0 0 0 0 0 0 0 0 0
0 0 0 0 0 0 0 0 0
0 0 0 0 0 0 0 0 0
0 0 0 0 0 0 0 0 0
0 0 0 0 0 0 0 0 0
0 0 0 0 0 0 0 0 0
0 0 0 0 0 0 0 0 0
0 0 0 0 0 0 0 0 0
0 0 0 0 0 0 0 0 0
0 0 0 0 0 0 0 0 0
0 0 0 0 0 0 0 0 0
0 0 0 0 0 0 0 0 0
0 0 0 0 0 0 0 0 0
0 0 0 0 0 0 0 0 0
0 0 0 0 0 0 0 0 0
0 0 0 0 0 0 0 0 0
0 0 0 0 0 0 0 0 0
0 0 0 0 0 0 0 0 0
0 0 0 0 0 0 0 0 0
0 0 0 0 0 0 0 0 0
0 0 0 0 0 0 0 0 0
0 0 0 0 0 0 0 0 0
0 0 0 0 0 0 0 0 0
0 0 0 0 0 0 0 0 0
0 0 0 0 0 0 0 0 0
0 0 0 0 0 0 0 0 0
0 0 0 0 0 0 0 0 0
0 0 0 0 0 0 0 0 0
0 0 0 0 0 0 0 0 0
0 0 0 0 0 0 0 0 0
0 0 0 0 0 0 0 0 0
0 0 0 0 0 0 0 0 0
0 0 0 0 0 0 0 0 0
0 0 0 0 0 0 0 0 0
0 0 0 0 0 0 0 0 0
0 0 0 0 0 0 0 0 0
0 0 0 0 0 0 0 0 0
0 0 0 0 0 0 0 0 0
0 0 0 0 0 0 0 0 0
0 0 0 0 0 0 0 0 0
0 0 0 0 0 0 0 0 0
0 0 0 0 0 0 0 0 0
0 0 0 0 0 0 0 0 0
0 0 0 0 0 0 0 0 0
0.49474 0.513085 0.503526 0.52183 0.49474 0.513085 0.503526 0.52183 0
0.527015 0.546759 0.535721 0.555401 0.527015 0.546759 0.535721 0.555401 0
0.561736 0.582952 0.57032 0.591442 0.561736 0.582952 0.57032 0.591442 0
0.599027 0.621784 0.607435 0.630064 0.599027 0.621784 0.607435 0.630064 0
0.638996 0.663336 0.64717 0.671344 0.638996 0.663336 0.64717 0.671344 0
0.6817 0.707624 0.689569 0.715276 0.6817 0.707624 0.689569 0.715276 0
0.478827 0.497232 0.488098 0.50647 0.478827 0.497232 0.488098 0.50647 0
0.51122 0.531067 0.520425 0.540213 0.51122 0.531067 0.520425 0.540213 0
0.546138 0.567514 0.555231 0.576515 0.546138 0.567514 0.555231 0.576515 0
0.583725 0.6067 0.592647 0.615496 0.583725 0.6067 0.592647 0.615496 0
0.624098 0.64873 0.632787 0.657249 0.624098 0.64873 0.632787 0.657249 0
0.667337 0.693634 0.675715 0.701796 0.667337 0.693634 0.675715 0.701796 0
0.462043 0.480494 0.47182 0.490245 0.462043 0.480494 0.47182 0.490245 0
0.494533 0.514473 0.504256 0.524142 0.494533 0.514473 0.504256 0.524142 0
0.529633 0.551158 0.539252 0.560691 0.529633 0.551158 0.539252 0.560691 0
0.567503 0.590693 0.576959 0.600024 0.567503 0.590693 0.576959 0.600024 0
0.608275 0.6332 0.617501 0.642256 0.608275 0.6332 0.617501 0.642256 0
0.652057 0.678747 0.660968 0.687428 0.652057 0.678747 0.660968 0.687428 0
0.69893 0.727498 0.707421 0.735699 0.69893 0.727498 0.707421 0.735699 0
0.748998 0.779313 0.756961 0.786914 0.748998 0.779313 0.756961 0.786914 0
0.802433 0.835458 0.809743 0.842333 0.802433 0.835458 0.809743 0.842333 0
0.444359 0.46284 0.454657 0.473122 0.444359 0.46284 0.454657 0.473122 0
0.47692 0.496941 0.48718 0.507155 0.47692 0.496941 0.48718 0.507155 0
0.512182 0.533848 0.52235 0.543935 0.512182 0.533848 0.52235 0.543935 0
0.55032 0.573717 0.560334 0.583612 0.55032 0.573717 0.560334 0.583612 0
0.591482 0.616697 0.601272 0.626318 0.591482 0.616697 0.601272 0.626318 0
0.635804 0.662888 0.645282 0.672139 0.635804 0.662888 0.645282 0.672139 0
0.683402 0.712481 0.692461 0.721243 0.683402 0.712481 0.692461 0.721243 0
0.734402 0.765361 0.74292 0.773505 0.734402 0.765361 0.74292 0.773505 0
0.789002 0.822811 0.796843 0.830194 0.789002 0.822811 0.796843 0.830194 0
0.425743 0.444238 0.436582 0.455071 0.425743 0.444238 0.436582 0.455071 0
0.458347 0.478434 0.469164 0.489214 0.458347 0.478434 0.469164 0.489214 0
0.493746 0.515539 0.504486 0.526206 0.493746 0.515539 0.504486 0.526206 0
0.53213 0.555727 0.542729 0.566211 0.53213 0.555727 0.542729 0.566211 0
0.57367 0.599172 0.584052 0.609388 0.57367 0.599172 0.584052 0.609388 0
0.618528 0.646007 0.628601 0.655851 0.618528 0.646007 0.628601 0.655851 0
0.666854 0.696455 0.676505 0.705803 0.666854 0.696455 0.676505 0.705803 0
0.718808 0.750428 0.727906 0.759142 0.718808 0.750428 0.727906 0.759142 0
0.774607 0.809228 0.783009 0.817157 0.774607 0.809228 0.783009 0.817157 0
0.406157 0.424649 0.41756 0.436054 0.406157 0.424649 0.41756 0.436054 0
0.438775 0.458911 0.450172 0.470281 0.438775 0.458911 0.450172 0.470281 0
0.474282 0.496186 0.485619 0.50746 0.474282 0.496186 0.485619 0.50746 0
0.512887 0.536672 0.524099 0.547775 0.512887 0.536672 0.524099 0.547775 0
0.554786 0.580568 0.565792 0.591412 0.554786 0.580568 0.565792 0.591412 0
0.600171 0.628044 0.610873 0.638518 0.600171 0.628044 0.610873 0.638518 0
0.649229 0.679358 0.659508 0.68933 0.649229 0.679358 0.659508 0.68933 0
0.702152 0.734451 0.711869 0.743773 0.702152 0.734451 0.711869 0.743773 0
0.759184 0.794644 0.768185 0.803157 0.759184 0.794644 0.768185 0.803157 0
0.385561 0.404032 0.39755 0.416035 0.385561 0.404032 0.39755 0.416035 0
0.418161 0.438326 0.430163 0.450313 0.418161 0.438326 0.430163 0.450313 0
0.453743 0.475742 0.465704 0.48765 0.453743 0.475742 0.465704 0.48765 0
0.492541 0.516498 0.504394 0.528252 0.492541 0.516498 0.504394 0.528252 0
0.534774 0.560827 0.546436 0.572332 0.534774 0.560827 0.546436 0.572332 0
0.580672 0.608935 0.592039 0.620077 0.580672 0.608935 0.592039 0.620077 0
0.630457 0.661119 0.641405 0.671757 0.630457 0.661119 0.641405 0.671757 0
0.684361 0.717352 0.69474 0.72733 0.684361 0.717352 0.69474 0.72733 0
0.742653 0.778972 0.752302 0.788122 0.742653 0.778972 0.752302 0.788122 0
0.805918 0.843445 0.814653 0.851538 0.805918 0.843445 0.814653 0.851538 0
0.334327 0.351108 0.346814 0.363631 0.334327 0.351108 0.346814 0.363631 0
0.36397 0.382355 0.376528 0.394971 0.36397 0.382355 0.376528 0.394971 0
0.396456 0.41663 0.409092 0.429263 0.396456 0.41663 0.409092 0.429263 0
0.432077 0.454152 0.444694 0.466727 0.432077 0.454152 0.444694 0.466727 0
0.471036 0.495149 0.483563 0.507587 0.471036 0.495149 0.483563 0.507587 0
0.513575 0.53988 0.525928 0.552088 0.513575 0.53988 0.525928 0.552088 0
0.559959 0.58861 0.572033 0.600459 0.559959 0.58861 0.572033 0.600459 0
0.610468 0.641659 0.622125 0.65301 0.610468 0.641659 0.622125 0.65301 0
0.665354 0.699054 0.676444 0.709731 0.665354 0.699054 0.676444 0.709731 0
0.724944 0.762167 0.735279 0.771973 0.724944 0.762167 0.735279 0.771973 0
0.789854 0.828504 0.799231 0.83723 0.789854 0.828504 0.799231 0.83723 0
0.861603 0.913657 0.869794 0.921031 0.861603 0.913657 0.869794 0.921031 0
0.341271 0.35959 0.354486 0.372837 0.341271 0.35959 0.354486 0.372837 0
0.373656 0.393799 0.386922 0.407087 0.373656 0.393799 0.386922 0.407087 0
0.409253 0.431378 0.42254 0.444638 0.409253 0.431378 0.42254 0.444638 0
0.448324 0.472556 0.461551 0.485718 0.448324 0.472556 0.461551 0.485718 0
0.491108 0.517636 0.5042 0.530603 0.491108 0.517636 0.5042 0.530603 0
0.537926 0.566927 0.550775 0.579578 0.537926 0.566927 0.550775 0.579578 0
0.589112 0.620843 0.601577 0.632993 0.589112 0.620843 0.601577 0.632993 0
0.645006 0.67944 0.656884 0.69089 0.645006 0.67944 0.656884 0.69089 0
0.705943 0.744106 0.717038 0.754653 0.705943 0.744106 0.717038 0.754653 0
0.772568 0.812394 0.782664 0.821803 0.772568 0.812394 0.782664 0.821803 0
0.846464 0.900002 0.855307 0.907978 0.846464 0.900002 0.855307 0.907978 0
0 0 0 0 0 0 0 0 0
0 0 0 0 0 0 0 0 0
0 0 0 0 0 0 0 0 0
0 0 0 0 0 0 0 0 0
0 0 0 0 0 0 0 0 0
0 0 0 0 0 0 0 0 0
0 0 0 0 0 0 0 0 0
0 0 0 0 0 0 0 0 0
0 0 0 0 0 0 0 0 0
0 0 0 0 0 0 0 0 0
0 0 0 0 0 0 0 0 0
0 0 0 0 0 0 0 0 0
0 0 0 0 0 0 0 0 0
0 0 0 0 0 0 0 0 0
0 0 0 0 0 0 0 0 0
0 0 0 0 0 0 0 0 0
0 0 0 0 0 0 0 0 0
0 0 0 0 0 0 0 0 0
0 0 0 0 0 0 0 0 0
0 0 0 0 0 0 0 0 0
0 0 0 0 0 0 0 0 0
0 0 0 0 0 0 0 0 0
0 0 0 0 0 0 0 0 0
0 0 0 0 0 0 0 0 0
0 0 0 0 0 0 0 0 0
0 0 0 0 0 0 0 0 0
0 0 0 0 0 0 0 0 0
0 0 0 0 0 0 0 0 0
0 0 0 0 0 0 0 0 0
0 0 0 0 0 0 0 0 0
0 0 0 0 0 0 0 0 0
0 0 0 0 0 0 0 0 0
0 0 0 0 0 0 0 0 0
0 0 0 0 0 0 0 0 0
0 0 0 0 0 0 0 0 0
0 0 0 0 0 0 0 0 0
0 0 0 0 0 0 0 0 0
0 0 0 0 0 0 0 0 0
0 0 0 0 0 0 0 0 0
0 0 0 0 0 0 0 0 0
0 0 0 0 0 0 0 0 0
0 0 0 0 0 0 0 0 0
0 0 0 0 0 0 0 0 0
0 0 0 0 0 0 0 0 0
0 0 0 0 0 0 0 0 0
0 0 0 0 0 0 0 0 0
0 0 0 0 0 0 0 0 0
0 0 0 0 0 0 0 0 0
0 0 0 0 0 0 0 0 0
0 0 0 0 0 0 0 0 0
0 0 0 0 0 0 0 0 0
0 0 0 0 0 0 0 0 0
0 0 0 0 0 0 0 0 0
0 0 0 0 0 0 0 0 0
0 0 0 0 0 0 0 0 0
0 0 0 0 0 0 0 0 0
0 0 0 0 0 0 0 0 0
0 0 0 0 0 0 0 0 0
0 0 0 0 0 0 0 0 0
0 0 0 0 0 0 0 0 0
0 0 0 0 0 0 0 0 0
0 0 0 0 0 0 0 0 0
0 0 0 0 0 0 0 0 0
0 0 0 0 0 0 0 0 0
0 0 0 0 0 0 0 0 0
0 0 0 0 0 0 0 0 0
0 0 0 0 0 0 0 0 0
0 0 0 0 0 0 0 0 0
0 0 0 0 0 0 0 0 0
0 0 0 0 0 0 0 0 0
0 0 0 0 0 0 0 0 0
0 0 0 0 0 0 0 0 0
0 0 0 0 0 0 0 0 0
0 0 0 0 0 0 0 0 0
0 0 0 0 0 0 0 0 0
0 0 0 0 0 0 0 0 0
0 0 0 0 0 0 0 0 0
0 0 0 0 0 0 0 0 0
0 0 0 0 0 0 0 0 0
0 0 0 0 0 0 0 0 0
0 0 0 0 0 0 0 0 0
0.355745 0.365471 0.363823 0.373395 0.355745 0.365471 0.363823 0.373395 0
0.372713 0.382806 0.380517 0.390439 0.372713 0.382806 0.380517 0.390439 0
0.390287 0.400678 0.397786 0.40798 0.390287 0.400678 0.397786 0.40798 0
0.408342 0.418948 0.415493 0.42588 0.408342 0.418948 0.415493 0.42588 0
0.426735 0.437477 0.4335 0.444005 0.426735 0.437477 0.4335 0.444005 0
0.445331 0.456138 0.451681 0.462238 0.445331 0.456138 0.451681 0.462238 0
0.34102 0.351024 0.349612 0.359453 0.34102 0.351024 0.349612 0.359453 0
0.35848 0.368881 0.366784 0.377004 0.35848 0.368881 0.366784 0.377004 0
0.3766 0.387336 0.384585 0.39512 0.3766 0.387336 0.384585 0.39512 0
0.395267 0.406258 0.402896 0.413663 0.395267 0.406258 0.402896 0.413663 0
0.414343 0.425514 0.421575 0.432494 0.414343 0.425514 0.421575 0.432494 0
0.433692 0.444958 0.440483 0.45148 0.433692 0.444958 0.440483 0.45148 0
0.325374 0.335658 0.3345 0.344623 0.325374 0.335658 0.3345 0.344623 0
0.343333 0.354049 0.352171 0.362703 0.343333 0.354049 0.352171 0.362703 0
0.362017 0.373112 0.370526 0.381411 0.362017 0.373112 0.370526 0.381411 0
0.381324 0.392722 0.389458 0.400618 0.381324 0.392722 0.389458 0.400618 0
0.401122 0.412748 0.408834 0.420193 0.401122 0.412748 0.408834 0.420193 0
0.421278 0.433049 0.428516 0.439989 0.421278 0.433049 0.428516 0.439989 0
0.441667 0.453559 0.448387 0.459974 0.441667 0.453559 0.448387 0.459974 0
0.462191 0.474028 0.468383 0.47991 0.462191 0.474028 0.468383 0.47991 0
0.482789 0.495061 0.488443 0.500397 0.482789 0.495061 0.488443 0.500397 0
0.308761 0.319325 0.318451 0.328852 0.308761 0.319325 0.318451 0.328852 0
0.327221 0.338261 0.336619 0.347471 0.327221 0.338261 0.336619 0.347471 0
0.346485 0.357956 0.355545 0.366797 0.346485 0.357956 0.355545 0.366797 0
0.366462 0.378288 0.375131 0.386707 0.366462 0.378288 0.375131 0.386707 0
0.387021 0.399127 0.395246 0.407071 0.387021 0.399127 0.395246 0.407071 0
0.408023 0.420316 0.415755 0.427745 0.408023 0.420316 0.415755 0.427745 0
0.429324 0.44176 0.436527 0.448645 0.429324 0.44176 0.436527 0.448645 0
0.450798 0.463203 0.457447 0.469518 0.450798 0.463203 0.457447 0.469518 0
0.472387 0.485252 0.478454 0.490971 0.472387 0.485252 0.478454 0.490971 0
0.291141 0.301976 0.301415 0.312094 0.291141 0.301976 0.301415 0.312094 0
0.310092 0.321465 0.320083 0.331262 0.310092 0.321465 0.320083 0.331262 0
0.329952 0.341811 0.339595 0.351228 0.329952 0.341811 0.339595 0.351228 0
0.350623 0.362897 0.359862 0.371875 0.350623 0.362897 0.359862 0.371875 0
0.371977 0.384585 0.380752 0.393067 0.371977 0.384585 0.380752 0.393067 0
0.393865 0.406705 0.402123 0.414643 0.393865 0.406705 0.402123 0.414643 0
0.416125 0.429142 0.423822 0.436498 0.416125 0.429142 0.423822 0.436498 0
0.438616 0.451632 0.445718 0.458374 0.438616 0.451632 0.445718 0.458374 0
0.461274 0.474781 0.467748 0.480879 0.461274 0.474781 0.467748 0.480879 0
0.272463 0.283563 0.283353 0.2943 0.272463 0.283563 0.283353 0.2943 0
0.291898 0.303602 0.302508 0.31402 0.291898 0.303602 0.302508 0.31402 0
0.312356 0.324614 0.322619 0.334645 0.312356 0.324614 0.322619 0.334645 0
0.333742 0.346481 0.343589 0.356057 0.333742 0.346481 0.343589 0.356057 0
0.355923 0.369057 0.365288 0.378115 0.355923 0.369057 0.365288 0.378115 0
0.37874 0.392158 0.387563 0.400642 0.37874 0.392158 0.387563 0.400642 0
0.402018 0.415658 0.410245 0.42352 0.402018 0.415658 0.410245 0.42352 0
0.425601 0.439276 0.433189 0.446476 0.425601 0.439276 0.433189 0.446476 0
0.449406 0.463592 0.456322 0.470111 0.449406 0.463592 0.456322 0.470111 0
0.252679 0.26403 0.264212 0.275419 0.252679 0.26403 0.264212 0.275419 0
0.272577 0.284609 0.283844 0.295686 0.272577 0.284609 0.283844 0.295686 0
0.293632 0.306296 0.304554 0.316981 0.293632 0.306296 0.304554 0.316981 0
0.315748 0.328968 0.326245 0.339184 0.315748 0.328968 0.326245 0.339184 0
0.338786 0.352468 0.348784 0.362146 0.338786 0.352468 0.348784 0.362146 0
0.362576 0.376605 0.372006 0.385677 0.362576 0.376605 0.372006 0.385677 0
0.386932 0.401237 0.395731 0.409646 0.386932 0.401237 0.395731 0.409646 0
0.411683 0.426067 0.419798 0.433766 0.411683 0.426067 0.419798 0.433766 0
0.436729 0.451657 0.444116 0.458606 0.436729 0.451657 0.444116 0.458606 0
0.462091 0.475892 0.468724 0.482094 0.462091 0.475892 0.468724 0.482094 0
0.212723 0.223527 0.225122 0.235834 0.212723 0.223527 0.225122 0.235834 0
0.231715 0.243308 0.243938 0.25539 0.231715 0.243308 0.243938 0.25539 0
0.252061 0.264416 0.264024 0.276193 0.252061 0.264416 0.264024 0.276193 0
0.273707 0.286781 0.285329 0.298164 0.273707 0.286781 0.285329 0.298164 0
0.296564 0.310277 0.307755 0.321181 0.296564 0.310277 0.307755 0.321181 0
0.320485 0.334738 0.331163 0.345082 0.320485 0.334738 0.331163 0.345082 0
0.34529 0.359961 0.355375 0.369671 0.34529 0.359961 0.355375 0.369671 0
0.370783 0.385802 0.380205 0.394804 0.370783 0.385802 0.380205 0.394804 0
0.396787 0.411932 0.405474 0.420173 0.396787 0.411932 0.405474 0.420173 0
0.423163 0.438885 0.431072 0.446329 0.423163 0.438885 0.431072 0.446329 0
0.449911 0.464536 0.457008 0.471145 0.449911 0.464536 0.457008 0.471145 0
0.478338 0.501695 0.484598 0.507485 0.478338 0.501695 0.484598 0.507485 0
0.209544 0.221368 0.222463 0.234154 0.209544 0.221368 0.222463 0.234154 0
0.230323 0.243 0.242992 0.255482 0.230323 0.243 0.242992 0.255482 0
0.252557 0.266036 0.264886 0.27813 0.252557 0.266036 0.264886 0.27813 0
0.276147 0.290349 0.288052 0.301972 0.276147 0.290349 0.288052 0.301972 0
0.300948 0.315778 0.312346 0.326841 0.300948 0.315778 0.312346 0.326841 0
0.326788 0.342133 0.337585 0.352536 0.326788 0.342133 0.337585 0.352536 0
0.35347 0.369217 0.363575 0.378899 0.35347 0.369217 0.363575 0.378899 0
0.38077 0.396739 0.390122 0.405606 0.38077 0.396739 0.390122 0.405606 0
0.408586 0.42517 0.417092 0.433169 0.408586 0.42517 0.417092 0.433169 0
0.436841 0.45237 0.444462 0.45946 0.436841 0.45237 0.444462 0.45946 0
0.466828 0.491076 0.473533 0.497254 0.466828 0.491076 0.473533 0.497254 0
0 0 0 0 0 0 0 0 0
0 0 0 0 0 0 0 0 0
0 0 0 0 0 0 0 0 0
0 0 0 0 0 0 0 0 0
0 0 0 0 0 0 0 0 0
0 0 0 0 0 0 0 0 0
0 0 0 0 0 0 0 0 0
0 0 0 0 0 0 0 0 0
0 0 0 0 0 0 0 0 0
0 0 0 0 0 0 0 0 0
0 0 0 0 0 0 0 0 0
0 0 0 0 0 0 0 0 0
0 0 0 0 0 0 0 0 0
0 0 0 0 0 0 0 0 0
0 0 0 0 0 0 0 0 0
0 0 0 0 0 0 0 0 0
0 0 0 0 0 0 0 0 0
0 0 0 0 0 0 0 0 0
0 0 0 0 0 0 0 0 0
0 0 0 0 0 0 0 0 0
0 0 0 0 0 0 0 0 0
0 0 0 0 0 0 0 0 0
0 0 0 0 0 0 0 0 0
0 0 0 0 0 0 0 0 0
0 0 0 0 0 0 0 0 0
0 0 0 0 0 0 0 0 0
0 0 0 0 0 0 0 0 0
0 0 0 0 0 0 0 0 0
0 0 0 0 0 0 0 0 0
0 0 0 0 0 0 0 0 0
0 0 0 0 0 0 0 0 0
0 0 0 0 0 0 0 0 0
0 0 0 0 0 0 0 0 0
0 0 0 0 0 0 0 0 0
0 0 0 0 0 0 0 0 0
0 0 0 0 0 0 0 0 0
0 0 0 0 0 0 0 0 0
0 0 0 0 0 0 0 0 0
0 0 0 0 0 0 0 0 0
0 0 0 0 0 0 0 0 0
0 0 0 0 0 0 0 0 0
0 0 0 0 0 0 0 0 0
0 0 0 0 0 0 0 0 0
0 0 0 0 0 0 0 0 0
0 0 0 0 0 0 0 0 0
0 0 0 0 0 0 0 0 0
0 0 0 0 0 0 0 0 0
0 0 0 0 0 0 0 0 0
0 0 0 0 0 0 0 0 0
0 0 0 0 0 0 0 0 0
0 0 0 0 0 0 0 0 0
0 0 0 0 0 0 0 0 0
0 0 0 0 0 0 0 0 0
0 0 0 0 0 0 0 0 0
0 0 0 0 0 0 0 0 0
0 0 0 0 0 0 0 0 0
0 0 0 0 0 0 0 0 0
0 0 0 0 0 0 0 0 0
0 0 0 0 0 0 0 0 0
0 0 0 0 0 0 0 0 0
0 0 0 0 0 0 0 0 0
0 0 0 0 0 0 0 0 0
0 0 0 0 0 0 0 0 0
0 0 0 0 0 0 0 0 0
0 0 0 0 0 0 0 0 0
0 0 0 0 0 0 0 0 0
0 0 0 0 0 0 0 0 0
0 0 0 0 0 0 0 0 0
0 0 0 0 0 0 0 0 0
0 0 0 0 0 0 0 0 0
0 0 0 0 0 0 0 0 0
0 0 0 0 0 0 0 0 0
0 0 0 0 0 0 0 0 0
0 0 0 0 0 0 0 0 0
0 0 0 0 0 0 0 0 0
0 0 0 0 0 0 0 0 0
0 0 0 0 0 0 0 0 0
0 0 0 0 0 0 0 0 0
0 0 0 0 0 0 0 0 0
0 0 0 0 0 0 0 0 0
0 0 0 0 0 0 0 0 0
0 0 0 0 0 0 0 0 0
0 0 0 0 0 0 0 0 0
0 0 0 0 0 0 0 0 0
0 0 0 0 0 0 0 0 0
0 0 0 0 0 0 0 0 0
0 0 0 0 0 0 0 0 0
0 0 0 0 0 0 0 0 0
0 0 0 0 0 0 0 0 0
0 0 0 0 0 0 0 0 0
0 0 0 0 0 0 0 0 0
0 0 0 0 0 0 0 0 0
0 0 0 0 0 0 0 0 0
0 0 0 0 0 0 0 0 0
0 0 0 0 0 0 0 0 0
0 0 0 0 0 0 0 0 0
0 0 0 0 0 0 0 0 0
0 0 0 0 0 0 0 0 0
0 0 0 0 0 0 0 0 0
0 0 0 0 0 0 0 0 0
0 0 0 0 0 0 0 0 0
0 0 0 0 0 0 0 0 0
0 0 0 0 0 0 0 0 0
0 0 0 0 0 0 0 0 0
0 0 0 0 0 0 0 0 0
0 0 0 0 0 0 0 0 0
0 0 0 0 0 0 0 0 0
0 0 0 0 0 0 0 0 0
0 0 0 0 0 0 0 0 0
0 0 0 0 0 0 0 0 0
0 0 0 0 0 0 0 0 0
0 0 0 0 0 0 0 0 0
0 0 0 0 0 0 0 0 0
0 0 0 0 0 0 0 0 0
0 0 0 0 0 0 0 0 0
0 0 0 0 0 0 0 0 0
0 0 0 0 0 0 0 0 0
0 0 0 0 0 0 0 0 0
0 0 0 0 0 0 0 0 0
0 0 0 0 0 0 0 0 0
0 0 0 0 0 0 0 0 0
0 0 0 0 0 0 0 0 0
0 0 0 0 0 0 0 0 0
0 0 0 0 0 0 0 0 0
0 0 0 0 0 0 0 0 0
0 0 0 0 0 0 0 0 0
0 0 0 0 0 0 0 0 0
0 0 0 0 0 0 0 0 0
0 0 0 0 0 0 0 0 0
0 0 0 0 0 0 0 0 0
0 0 0 0 0 0 0 0 0
0 0 0 0 0 0 0 0 0
0 0 0 0 0 0 0 0 0
0 0 0 0 0 0 0 0 0
0 0 0 0 0 0 0 0 0
0 0 0 0 0 0 0 0 0
0 0 0 0 0 0 0 0 0
0 0 0 0 0 0 0 0 0
0 0 0 0 0 0 0 0 0
0 0 0 0 0 0 0 0 0
0 0 0 0 0 0 0 0 0
0 0 0 0 0 0 0 0 0
0 0 0 0 0 0 0 0 0
0 0 0 0 0 0 0 0 0
0 0 0 0 0 0 0 0 0
0 0 0 0 0 0 0 0 0
0 0 0 0 0 0 0 0 0
0 0 0 0 0 0 0 0 0
0 0 0 0 0 0 0 0 0
0 0 0 0 0 0 0 0 0
0 0 0 0 0 0 0 0 0
0 0 0 0 0 0 0 0 0
0 0 0 0 0 0 0 0 0
0 0 0 0 0 0 0 0 0
0 0 0 0 0 0 0 0 0
0 0 0 0 0 0 0 0 0
0 0 0 0 0 0 0 0 0
0 0 0 0 0 0 0 0 0
0 0 0 0 0 0 0 0 0
0 0 0 0 0 0 0 0 0
0 0 0 0 0 0 0 0 0
0 0 0 0 0 0 0 0 0
0 0 0 0 0 0 0 0 0
0 0 0 0 0 0 0 0 0
0 0 0 0 0 0 0 0 0
0 0 0 0 0 0 0 0 0
0 0 0 0 0 0 0 0 0
0 0 0 0 0 0 0 0 0
0 0 0 0 0 0 0 0 0
0 0 0 0 0 0 0 0 0
0 0 0 0 0 0 0 0 0
0 0 0 0 0 0 0 0 0
0 0 0 0 0 0 0 0 0
0 0 0 0 0 0 0 0 0
0 0 0 0 0 0 0 0 0
0 0 0 0 0 0 0 0 0
0 0 0 0 0 0 0 0 0
0 0 0 0 0 0 0 0 0
0 0 0 0 0 0 0 0 0
0 0 0 0 0 0 0 0 0
0 0 0 0 0 0 0 0 0
0 0 0 0 0 0 0 0 0
0 0 0 0 0 0 0 0 0
0 0 0 0 0 0 0 0 0
0 0 0 0 0 0 0 0 0
0 0 0 0 0 0 0 0 0
0 0 0 0 0 0 0 0 0
0 0 0 0 0 0 0 0 0
0 0 0 0 0 0 0 0 0
0 0 0 0 0 0 0 0 0
0 0 0 0 0 0 0 0 0
0 0 0 0 0 0 0 0 0
0 0 0 0 0 0 0 0 0
0 0 0 0 0 0 0 0 0
0 0 0 0 0 0 0 0 0
0 0 0 0 0 0 0 0 0
0 0 0 0 0 0 0 0 0
0 0 0 0 0 0 0 0 0
0 0 0 0 0 0 0 0 0
0 0 0 0 0 0 0 0 0
0 0 0 0 0 0 0 0 0
0 0 0 0 0 0 0 0 0
0 0 0 0 0 0 0 0 0
0 0 0 0 0 0 0 0 0
0 0 0 0 0 0 0 0 0
0 0 0 0 0 0 0 0 0
0 0 0 0 0 0 0 0 0
0 0 0 0 0 0 0 0 0
0 0 0 0 0 0 0 0 0
0 0 0 0 0 0 0 0 0
0 0 0 0 0 0 0 0 0
0 0 0 0 0 0 0 0 0
0 0 0 0 0 0 0 0 0
0 0 0 0 0 0 0 0 0
0 0 0 0 0 0 0 0 0
0 0 0 0 0 0 0 0 0
0 0 0 0 0 0 0 0 0
0 0 0 0 0 0 0 0 0
0 0 0 0 0 0 0 0 0
0 0 0 0 0 0 0 0 0
0 0 0 0 0 0 0 0 0
0 0 0 0 0 0 0 0 0
0 0 0 0 0 0 0 0 0
0 0 0 0 0 0 0 0 0
0 0 0 0 0 0 0 0 0
0 0 0 0 0 0 0 0 0
0 0 0 0 0 0 0 0 0
0 0 0 0 0 0 0 0 0
0 0 0 0 0 0 0 0 0
0 0 0 0 0 0 0 0 0
0 0 0 0 0 0 0 0 0
0 0 0 0 0 0 0 0 0
0 0 0 0 0 0 0 0 0
0 0 0 0 0 0 0 0 0
0 0 0 0 0 0 0 0 0
0 0 0 0 0 0 0 0 0
0 0 0 0 0 0 0 0 0
0 0 0 0 0 0 0 0 0
0 0 0 0 0 0 0 0 0
0 0 0 0 0 0 0 0 0
0 0 0 0 0 0 0 0 0
0 0 0 0 0 0 0 0 0
0 0 0 0 0 0 0 0 0
0 0 0 0 0 0 0 0 0
0 0 0 0 0 0 0 0 0
0 0 0 0 0 0 0 0 0
0 0 0 0 0 0 0 0 0
0 0 0 0 0 0 0 0 0
0 0 0 0 0 0 0 0 0
0 0 0 0 0 0 0 0 0
0 0 0 0 0 0 0 0 0
0 0 0 0 0 0 0 0 0
0 0 0 0 0 0 0 0 0
0 0 0 0 0 0 0 0 0
0 0 0 0 0 0 0 0 0
0 0 0 0 0 0 0 0 0
0 0 0 0 0 0 0 0 0
0 0 0 0 0 0 0 0 0
0 0 0 0 0 0 0 0 0
0 0 0 0 0 0 0 0 0
0 0 0 0 0 0 0 0 0
0 0 0 0 0 0 0 0 0
0 0 0 0 0 0 0 0 0
0 0 0 0 0 0 0 0 0
0 0 0 0 0 0 0 0 0
0 0 0 0 0 0 0 0 0
0 0 0 0 0 0 0 0 0
0 0 0 0 0 0 0 0 0
0 0 0 0 0 0 0 0 0
0 0 0 0 0 0 0 0 0
0 0 0 0 0 0 0 0 0
0 0 0 0 0 0 0 0 0
0 0 0 0 0 0 0 0 0
0 0 0 0 0 0 0 0 0
0 0 0 0 0 0 0 0 0
0 0 0 0 0 0 0 0 0
0 0 0 0 0 0 0 0 0
0 0 0 0 0 0 0 0 0
0 0 0 0 0 0 0 0 0
0 0 0 0 0 0 0 0 0
0 0 0 0 0 0 0 0 0
0 0 0 0 0 0 0 0 0
0 0 0 0 0 0 0 0 0
0 0 0 0 0 0 0 0 0
0 0 0 0 0 0 0 0 0
0 0 0 0 0 0 0 0 0
0 0 0 0 0 0 0 0 0
0 0 0 0 0 0 0 0 0
0 0 0 0 0 0 0 0 0
0 0 0 0 0 0 0 0 0
0 0 0 0 0 0 0 0 0
0 0 0 0 0 0 0 0 0
0 0 0 0 0 0 0 0 0
0 0 0 0 0 0 0 0 0
0 0 0 0 0 0 0 0 0
0 0 0 0 0 0 0 0 0
0 0 0 0 0 0 0 0 0
0 0 0 0 0 0 0 0 0
0 0 0 0 0 0 0 0 0
0 0 0 0 0 0 0 0 0
0 0 0 0 0 0 0 0 0
0 0 0 0 0 0 0 0 0
0 0 0 0 0 0 0 0 0
0 0 0 0 0 0 0 0 0
0 0 0 0 0 0 0 0 0
0 0 0 0 0 0 0 0 0
0 0 0 0 0 0 0 0 0
0 0 0 0 0 0 0 0 0
0 0 0 0 0 0 0 0 0
0 0 0 0 0 0 0 0 0
0 0 0 0 0 0 0 0 0
0 0 0 0 0 0 0 0 0
0 0 0 0 0 0 0 0 0
0 0 0 0 0 0 0 0 0
0 0 0 0 0 0 0 0 0
0 0 0 0 0 0 0 0 0
0 0 0 0 0 0 0 0 0
0 0 0 0 0 0 0 0 0
0 0 0 0 0 0 0 0 0
0 0 0 0 0 0 0 0 0
0 0 0 0 0 0 0 0 0
0 0 0 0 0 0 0 0 0
0 0 0 0 0 0 0 0 0
0 0 0 0 0 0 0 0 0
0 0 0 0 0 0 0 0 0
0 0 0 0 0 0 0 0 0
0 0 0 0 0 0 0 0 0
0 0 0 0 0 0 0 0 0
0 0 0 0 0 0 0 0 0
0 0 0 0 0 0 0 0 0
0 0 0 0 0 0 0 0 0
0 0 0 0 0 0 0 0 0
0 0 0 0 0 0 0 0 0
0 0 0 0 0 0 0 0 0
0 0 0 0 0 0 0 0 0
0 0 0 0 0 0 0 0 0
0 0 0 0 0 0 0 0 0
0 0 0 0 0 0 0 0 0
0 0 0 0 0 0 0 0 0
0 0 0 0 0 0 0 0 0
0 0 0 0 0 0 0 0 0
0 0 0 0 0 0 0 0 0
0 0 0 0 0 0 0 0 0
0 0 0 0 0 0 0 0 0
0 0 0 0 0 0 0 0 0
0 0 0 0 0 0 0 0 0
0 0 0 0 0 0 0 0 0
0 0 0 0 0 0 0 0 0
0 0 0 0 0 0 0 0 0
0 0 0 0 0 0 0 0 0
0 0 0 0 0 0 0 0 0
0 0 0 0 0 0 0 0 0
0 0 0 0 0 0 0 0 0
0 0 0 0 0 0 0 0 0
0 0 0 0 0 0 0 0 0
0 0 0 0 0 0 0 0 0
0 0 0 0 0 0 0 0 0
0 0 0 0 0 0 0 0 0
0 0 0 0 0 0 0 0 0
0 0 0 0 0 0 0 0 0
0 0 0 0 0 0 0 0 0
0 0 0 0 0 0 0 0 0
0 0 0 0 0 0 0 0 0
0 0 0 0 0 0 0 0 0
0 0 0 0 0 0 0 0 0
0 0 0 0 0 0 0 0 0
0 0 0 0 0 0 0 0 0
0 0 0 0 0 0 0 0 0
0 0 0 0 0 0 0 0 0
0 0 0 0 0 0 0 0 0
0 0 0 0 0 0 0 0 0
0 0 0 0 0 0 0 0 0
0 0 0 0 0 0 0 0 0
0 0 0 0 0 0 0 0 0
0 0 0 0 0 0 0 0 0
0 0 0 0 0 0 0 0 0
0 0 0 0 0 0 0 0 0
0 0 0 0 0 0 0 0 0
0 0 0 0 0 0 0 0 0
0 0 0 0 0 0 0 0 0
0 0 0 0 0 0 0 0 0
0 0 0 0 0 0 0 0 0
0 0 0 0 0 0 0 0 0
0 0 0 0 0 0 0 0 0
0 0 0 0 0 0 0 0 0
0 0 0 0 0 0 0 0 0
0 0 0 0 0 0 0 0 0
0 0 0 0 0 0 0 0 0
0 0 0 0 0 0 0 0 0
0 0 0 0 0 0 0 0 0
0 0 0 0 0 0 0 0 0
0 0 0 0 0 0 0 0 0
0 0 0 0 0 0 0 0 0
0 0 0 0 0 0 0 0 0
0 0 0 0 0 0 0 0 0
0 0 0 0 0 0 0 0 0
0 0 0 0 0 0 0 0 0
0 0 0 0 0 0 0 0 0
0 0 0 0 0 0 0 0 0
0 0 0 0 0 0 0 0 0
0 0 0 0 0 0 0 0 0
0 0 0 0 0 0 0 0 0
0 0 0 0 0 0 0 0 0
0 0 0 0 0 0 0 0 0
0 0 0 0 0 0 0 0 0
SCALARS F_CZ double 9
LOOKUP_TABLE default
0 0 0 0 0 0 0 0 0
0 0 0 0 0 0 0 0 0
0 0 0 0 0 0 0 0 0
0 0 0 0 0 0 0 0 0
0 0 0 0 0 0 0 0 0
0 0 0 0 0 0 0 0 0
0 0 0 0 0 0 0 0 0
0 0 0 0 0 0 0 0 0
0 0 0 0 0 0 0 0 0
0 0 0 0 0 0 0 0 0
0 0 0 0 0 0 0 0 0
0 0 0 0 0 0 0 0 0
0 0 0 0 0 0 0 0 0
0 0 0 0 0 0 0 0 0
0 0 0 0 0 0 0 0 0
0 0 0 0 0 0 0 0 0
0 0 0 0 0 0 0 0 0
0 0 0 0 0 0 0 0 0
0 0 0 0 0 0 0 0 0
0 0 0 0 0 0 0 0 0
0 0 0 0 0 0 0 0 0
0 0 0 0 0 0 0 0 0
0 0 0 0 0 0 0 0 0
0 0 0 0 0 0 0 0 0
0 0 0 0 0 0 0 0 0
0 0 0 0 0 0 0 0 0
0 0 0 0 0 0 0 0 0
0 0 0 0 0 0 0 0 0
0 0 0 0 0 0 0 0 0
0 0 0 0 0 0 0 0 0
0 0 0 0 0 0 0 0 0
0 0 0 0 0 0 0 0 0
0 0 0 0 0 0 0 0 0
0 0 0 0 0 0 0 0 0
0 0 0 0 0 0 0 0 0
0 0 0 0 0 0 0 0 0
0 0 0 0 0 0 0 0 0
0 0 0 0 0 0 0 0 0
0 0 0 0 0 0 0 0 0
0 0 0 0 0 0 0 0 0
0 0 0 0 0 0 0 0 0
0 0 0 0 0 0 0 0 0
0 0 0 0 0 0 0 0 0
0 0 0 0 0 0 0 0 0
0 0 0 0 0 0 0 0 0
0 0 0 0 0 0 0 0 0
0 0 0 0 0 0 0 0 0
0 0 0 0 0 0 0 0 0
0 0 0 0 0 0 0 0 0
0 0 0 0 0 0 0 0 0
0 0 0 0 0 0 0 0 0
0 0 0 0 0 0 0 0 0
0 0 0 0 0 0 0 0 0
0 0 0 0 0 0 0 0 0
0 0 0 0 0 0 0 0 0
0 0 0 0 0 0 0 0 0
0 0 0 0 0 0 0 0 0
0 0 0 0 0 0 0 0 0
0 0 0 0 0 0 0 0 0
0 0 0 0 0 0 0 0 0
0 0 0 0 0 0 0 0 0
0 0 0 0 0 0 0 0 0
0 0 0 0 0 0 0 0 0
0 0 0 0 0 0 0 0 0
0 0 0 0 0 0 0 0 0
0 0 0 0 0 0 0 0 0
0 0 0 0 0 0 0 0 0
0 0 0 0 0 0 0 0 0
0 0 0 0 0 0 0 0 0
0 0 0 0 0 0 0 0 0
0 0 0 0 0 0 0 0 0
0 0 0 0 0 0 0 0 0
0 0 0 0 0 0 0 0 0
0 0 0 0 0 0 0 0 0
0 0 0 0 0 0 0 0 0
0 0 0 0 0 0 0 0 0
0 0 0 0 0 0 0 0 0
0 0 0 0 0 0 0 0 0
0 0 0 0 0 0 0 0 0
0 0 0 0 0 0 0 0 0
0 0 0 0 0 0 0 0 0
0 0 0 0 0 0 0 0 0
0 0 0 0 0 0 0 0 0
0 0 0 0 0 0 0 0 0
0 0 0 0 0 0 0 0 0
0 0 0 0 0 0 0 0 0
0 0 0 0 0 0 0 0 0
0 0 0 0 0 0 0 0 0
0 0 0 0 0 0 0 0 0
0 0 0 0 0 0 0 0 0
0 0 0 0 0 0 0 0 0
0 0 0 0 0 0 0 0 0
0 0 0 0 0 0 0 0 0
0 0 0 0 0 0 0 0 0
0 0 0 0 0 0 0 0 0
0 0 0 0 0 0 0 0 0
0 0 0 0 0 0 0 0 0
0 0 0 0 0 0 0 0 0
0 0 0 0 0 0 0 0 0
0 0 0 0 0 0 0 0 0
0 0 0 0 0 0 0 0 0
0 0 0 0 0 0 0 0 0
0 0 0 0 0 0 0 0 0
0 0 0 0 0 0 0 0 0
0 0 0 0 0 0 0 0 0
0 0 0 0 0 0 0 0 0
0 0 0 0 0 0 0 0 0
0 0 0 0 0 0 0 0 0
0 0 0 0 0 0 0 0 0
0 0 0 0 0 0 0 0 0
0 0 0 0 0 0 0 0 0
0 0 0 0 0 0 0 0 0
0 0 0 0 0 0 0 0 0
0 0 0 0 0 0 0 0 0
0 0 0 0 0 0 0 0 0
0 0 0 0 0 0 0 0 0
0 0 0 0 0 0 0 0 0
0 0 0 0 0 0 0 0 0
0 0 0 0 0 0 0 0 0
0 0 0 0 0 0 0 0 0
0 0 0 0 0 0 0 0 0
0 0 0 0 0 0 0 0 0
0 0 0 0 0 0 0 0 0
0 0 0 0 0 0 0 0 0
0 0 0 0 0 0 0 0 0
0 0 0 0 0 0 0 0 0
0 0 0 0 0 0 0 0 0
0 0 0 0 0 0 0 0 0
0 0 0 0 0 0 0 0 0
0 0 0 0 0 0 0 0 0
0 0 0 0 0 0 0 0 0
0 0 0 0 0 0 0 0 0
0 0 0 0 0 0 0 0 0
0 0 0 0 0 0 0 0 0
0 0 0 0 0 0 0 0 0
0 0 0 0 0 0 0 0 0
0 0 0 0 0 0 0 0 0
0 0 0 0 0 0 0 0 0
0 0 0 0 0 0 0 0 0
0 0 0 0 0 0 0 0 0
0 0 0 0 0 0 0 0 0
0 0 0 0 0 0 0 0 0
0 0 0 0 0 0 0 0 0
0 0 0 0 0 0 0 0 0
0 0 0 0 0 0 0 0 0
0 0 0 0 0 0 0 0 0
0 0 0 0 0 0 0 0 0
0 0 0 0 0 0 0 0 0
0 0 0 0 0 0 0 0 0
0 0 0 0 0 0 0 0 0
0 0 0 0 0 0 0 0 0
0 0 0 0 0 0 0 0 0
0 0 0 0 0 0 0 0 0
0 0 0 0 0 0 0 0 0
0 0 0 0 0 0 0 0 0
0 0 0 0 0 0 0 0 0
0 0 0 0 0 0 0 0 0
0 0 0 0 0 0 0 0 0
0 0 0 0 0 0 0 0 0
0 0 0 0 0 0 0 0 0
0 0 0 0 0 0 0 0 0
0 0 0 0 0 0 0 0 0
0.00667572 0.00692639 0.00664252 0.00688904 0.00667572 0.00692639 0.00664252 0.00688904 0
0.00711334 0.00737332 0.00707298 0.00732887 0.00711334 0.00737332 0.00707298 0.00732887 0
0.00756691 0.00783569 0.00751946 0.00778413 0.00756691 0.00783569 0.00751946 0.00778413 0
0.00803553 0.00831258 0.00798091 0.0082537 0.00803553 0.00831258 0.00798091 0.0082537 0
0.00851824 0.00880289 0.0084562 0.00873647 0.00851824 0.00880289 0.0084562 0.00873647 0
0.00901381 0.00930518 0.00894415 0.00923107 0.00901381 0.00930518 0.00894415 0.00923107 0
0.00673833 0.00699612 0.00670145 0.00695514 0.00673833 0.00699612 0.00670145 0.00695514 0
0.00718834 0.00745561 0.00714431 0.00740734 0.00718834 0.00745561 0.00714431 0.00740734 0
0.0076546 0.00793085 0.00760318 0.00787507 0.0076546 0.00793085 0.00760318 0.00787507 0
0.00813624 0.00842096 0.00807722 0.00835746 0.00813624 0.00842096 0.00807722 0.00835746 0
0.00863231 0.00892483 0.0085655 0.00885343 0.00863231 0.00892483 0.0085655 0.00885343 0
0.00914153 0.00944083 0.00906677 0.00936147 0.00914153 0.00944083 0.00906677 0.00936147 0
0.00680744 0.00707261 0.00676679 0.00702766 0.00680744 0.00707261 0.00676679 0.00702766 0
0.00727028 0.00754507 0.00722216 0.00749258 0.00727028 0.00754507 0.00722216 0.00749258 0
0.00774965 0.0080337 0.00769391 0.00797343 0.00774965 0.0080337 0.00769391 0.00797343 0
0.00824487 0.00853762 0.00818123 0.0084693 0.00824487 0.00853762 0.00818123 0.0084693 0
0.00875491 0.00905566 0.00868314 0.00897909 0.00875491 0.00905566 0.00868314 0.00897909 0
0.00927843 0.00958611 0.00919832 0.0095011 0.00927843 0.00958611 0.00919832 0.0095011 0
0.00981356 0.010127 0.00972491 0.0100333 0.00981356 0.010127 0.00972491 0.0100333 0
0.0103582 0.0106759 0.0102608 0.0105734 0.0103582 0.0106759 0.0102608 0.0105734 0
0.010911 0.0112353 0.0108049 0.0111245 0.010911 0.0112353 0.0108049 0.0111245 0
0.00688337 0.00715613 0.00683874 0.00710709 0.00688337 0.00715613 0.00683874 0.00710709 0
0.00735943 0.00764202 0.00730712 0.00758518 0.00735943 0.00764202 0.00730712 0.00758518 0
0.00785241 0.00814453 0.00779219 0.00807962 0.00785241 0.00814453 0.00779219 0.00807962 0
0.00836171 0.00866283 0.0082933 0.00858955 0.00836171 0.00866283 0.0082933 0.00858955 0
0.00888633 0.00919569 0.00880943 0.00911377 0.00888633 0.00919569 0.00880943 0.00911377 0
0.00942483 0.00974134 0.0093392 0.00965057 0.00942483 0.00974134 0.0093392 0.00965057 0
0.00997531 0.0102978 0.00988074 0.010198 0.00997531 0.0102978 0.00988074 0.010198 0
0.0105356 0.0108624 0.0104319 0.0107534 0.0105356 0.0108624 0.0104319 0.0107534 0
0.0111041 0.0114374 0.0109912 0.0113193 0.0111041 0.0114374 0.0109912 0.0113193 0
0.00696639 0.00724692 0.00691764 0.00719366 0.00696639 0.00724692 0.00691764 0.00719366 0
0.00745601 0.00774667 0.00739939 0.00768536 0.00745601 0.00774667 0.00739939 0.00768536 0
0.00796308 0.00826359 0.00789827 0.0081939 0.00796308 0.00826359 0.00789827 0.0081939 0
0.00848702 0.00879685 0.0084137 0.00871846 0.00848702 0.00879685 0.0084137 0.00871846 0
0.00902684 0.00934523 0.00894466 0.00925779 0.00902684 0.00934523 0.00894466 0.00925779 0
0.00958108 0.00990689 0.00948972 0.0098101 0.00958108 0.00990689 0.00948972 0.0098101 0
0.0101477 0.0104798 0.0100469 0.0103734 0.0101477 0.0104798 0.0100469 0.0103734 0
0.0107246 0.011061 0.0106141 0.0109449 0.0107246 0.011061 0.0106141 0.0109449 0
0.0113097 0.0116525 0.0111895 0.0115268 0.0113097 0.0116525 0.0111895 0.0115268 0
0.00705665 0.00734516 0.0070037 0.00728757 0.00705665 0.00734516 0.0070037 0.00728757 0
0.00756022 0.00785923 0.00749917 0.00779333 0.00756022 0.00785923 0.00749917 0.00779333 0
0.00808187 0.00839107 0.00801235 0.0083165 0.00808187 0.00839107 0.00801235 0.0083165 0
0.008621 0.00893992 0.00854264 0.00885627 0.008621 0.00893992 0.00854264 0.00885627 0
0.00917669 0.00950455 0.00908909 0.00941143 0.00917669 0.00950455 0.00908909 0.00941143 0
0.00974745 0.0100831 0.00965022 0.00998013 0.00974745 0.0100831 0.00965022 0.00998013 0
0.0103312 0.0106734 0.010224 0.0105602 0.0103312 0.0106734 0.010224 0.0105602 0
0.0109255 0.0112722 0.0108081 0.0111488 0.0109255 0.0112722 0.0108081 0.0111488 0
0.0115284 0.0118813 0.0114006 0.0117476 0.0115284 0.0118813 0.0114006 0.0117476 0
0.00715429 0.007451 0.00709706 0.00738901 0.00715429 0.007451 0.00709706 0.00738901 0
0.00767222 0.00797987 0.00760666 0.00790928 0.00767222 0.00797987 0.00760666 0.00790928 0
0.00820896 0.0085272 0.00813462 0.00844761 0.00820896 0.0085272 0.00813462 0.00844761 0
0.00876389 0.00909226 0.00868036 0.00900323 0.00876389 0.00909226 0.00868036 0.00900323 0
0.00933612 0.00967391 0.00924296 0.00957497 0.00933612 0.00967391 0.00924296 0.00957497 0
0.00992423 0.0102702 0.00982096 0.0101609 0.00992423 0.0102702 0.00982096 0.0101609 0
0.0105261 0.0108789 0.0104123 0.0107588 0.0105261 0.0108789 0.0104123 0.0107588 0
0.011139 0.0114966 0.0110143 0.0113655 0.011139 0.0114966 0.0110143 0.0113655 0
0.0117607 0.0121244 0.0116249 0.0119823 0.0117607 0.0121244 0.0116249 0.0119823 0
0.0123916 0.0127574 0.0122449 0.0126045 0.0123916 0.0127574 0.0122449 0.0126045 0
0.00674607 0.00704037 0.00669248 0.00698206 0.00674607 0.00704037 0.00669248 0.00698206 0
0.0072597 0.00756463 0.00719793 0.00749812 0.0072597 0.00756463 0.00719793 0.00749812 0
0.00779212 0.00810871 0.00772198 0.00803337 0.00779212 0.00810871 0.00772198 0.00803337 0
0.00834451 0.00867213 0.00826527 0.00858743 0.00834451 0.00867213 0.00826527 0.00858743 0
0.00891585 0.00925407 0.00882706 0.00915956 0.00891585 0.00925407 0.00882706 0.00915956 0
0.00950532 0.0098535 0.0094065 0.00974863 0.00950532 0.0098535 0.0094065 0.00974863 0
0.0101116 0.0104686 0.0100022 0.0103528 0.0101116 0.0104686 0.0100022 0.0103528 0
0.0107327 0.0110969 0.010612 0.0109696 0.0107327 0.0110969 0.010612 0.0109696 0
0.0113654 0.0117347 0.0112332 0.0115956 0.0113654 0.0117347 0.0112332 0.0115956 0
0.0120072 0.0123826 0.0118632 0.0122318 0.0120072 0.0123826 0.0118632 0.0122318 0
0.0126582 0.0130356 0.0125024 0.012873 0.0126582 0.0130356 0.0125024 0.012873 0
0.0133246 0.0137381 0.0131574 0.0135647 0.0133246 0.0137381 0.0131574 0.0135647 0
0.00737262 0.00768656 0.00730657 0.00761518 0.00737262 0.00768656 0.00730657 0.00761518 0
0.00792071 0.0082465 0.00784544 0.00816588 0.00792071 0.0082465 0.00784544 0.00816588 0
0.00848923 0.00882661 0.00840459 0.00873629 0.00848923 0.00882661 0.00840459 0.00873629 0
0.00907763 0.00942606 0.00898306 0.00932556 0.00907763 0.00942606 0.00898306 0.00932556 0
0.00968495 0.0100438 0.00958001 0.00993268 0.00968495 0.0100438 0.00958001 0.00993268 0
0.01031 0.0106783 0.0101942 0.0105559 0.01031 0.0106783 0.0101942 0.0105559 0
0.0109509 0.0113272 0.0108235 0.0111929 0.0109509 0.0113272 0.0108235 0.0111929 0
0.0116048 0.0119868 0.0114651 0.0118396 0.0116048 0.0119868 0.0114651 0.0118396 0
0.0122686 0.0126567 0.012116 0.0124966 0.0122686 0.0126567 0.012116 0.0124966 0
0.0129414 0.0133312 0.0127759 0.0131584 0.0129414 0.0133312 0.0127759 0.0131584 0
0.0136394 0.0140915 0.0134538 0.013879 0.0136394 0.0140915 0.0134538 0.013879 0
0 0 0 0 0 0 0 0 0
0 0 0 0 0 0 0 0 0
0 0 0 0 0 0 0 0 0
0 0 0 0 0 0 0 0 0
0 0 0 0 0 0 0 0 0
0 0 0 0 0 0 0 0 0
0 0 0 0 0 0 0 0 0
0 0 0 0 0 0 0 0 0
0 0 0 0 0 0 0 0 0
0 0 0 0 0 0 0 0 0
0 0 0 0 0 0 0 0 0
0 0 0 0 0 0 0 0 0
0 0 0 0 0 0 0 0 0
0 0 0 0 0 0 0 0 0
0 0 0 0 0 0 0 0 0
0 0 0 0 0 0 0 0 0
0 0 0 0 0 0 0 0 0
0 0 0 0 0 0 0 0 0
0 0 0 0 0 0 0 0 0
0 0 0 0 0 0 0 0 0
0 0 0 0 0 0 0 0 0
0 0 0 0 0 0 0 0 0
0 0 0 0 0 0 0 0 0
0 0 0 0 0 0 0 0 0
0 0 0 0 0 0 0 0 0
0 0 0 0 0 0 0 0 0
0 0 0 0 0 0 0 0 0
0 0 0 0 0 0 0 0 0
0 0 0 0 0 0 0 0 0
0 0 0 0 0 0 0 0 0
0 0 0 0 0 0 0 0 0
0 0 0 0 0 0 0 0 0
0 0 0 0 0 0 0 0 0
0 0 0 0 0 0 0 0 0
0 0 0 0 0 0 0 0 0
0 0 0 0 0 0 0 0 0
0 0 0 0 0 0 0 0 0
0 0 0 0 0 0 0 0 0
0 0 0 0 0 0 0 0 0
0 0 0 0 0 0 0 0 0
0 0 0 0 0 0 0 0 0
0 0 0 0 0 0 0 0 0
0 0 0 0 0 0 0 0 0
0 0 0 0 0 0 0 0 0
0 0 0 0 0 0 0 0 0
0 0 0 0 0 0 0 0 0
0 0 0 0 0 0 0 0 0
0 0 0 0 0 0 0 0 0
0 0 0 0 0 0 0 0 0
0 0 0 0 0 0 0 0 0
0 0 0 0 0 0 0 0 0
0 0 0 0 0 0 0 0 0
0 0 0 0 0 0 0 0 0
0 0 0 0 0 0 0 0 0
0 0 0 0 0 0 0 0 0
0 0 0 0 0 0 0 0 0
0 0 0 0 0 0 0 0 0
0 0 0 0 0 0 0 0 0
0 0 0 0 0 0 0 0 0
0 0 0 0 0 0 0 0 0
0 0 0 0 0 0 0 0 0
0 0 0 0 0 0 0 0 0
0 0 0 0 0 0 0 0 0
0 0 0 0 0 0 0 0 0
0 0 0 0 0 0 0 0 0
0 0 0 0 0 0 0 0 0
0 0 0 0 0 0 0 0 0
0 0 0 0 0 0 0 0 0
0 0 0 0 0 0 0 0 0
0 0 0 0 0 0 0 0 0
0 0 0 0 0 0 0 0 0
0 0 0 0 0 0 0 0 0
0 0 0 0 0 0 0 0 0
0 0 0 0 0 0 0 0 0
0 0 0 0 0 0 0 0 0
0 0 0 0 0 0 0 0 0
0 0 0 0 0 0 0 0 0
0 0 0 0 0 0 0 0 0
0 0 0 0 0 0 0 0 0
0 0 0 0 0 0 0 0 0
0 0 0 0 0 0 0 0 0
0 0 0 0 0 0 0 0 0
0 0 0 0 0 0 0 0 0
0 0 0 0 0 0 0 0 0
0 0 0 0 0 0 0 0 0
0 0 0 0 0 0 0 0 0
0 0 0 0 0 0 0 0 0
0 0 0 0 0 0 0 0 0
0 0 0 0 0 0 0 0 0
0 0 0 0 0 0 0 0 0
0 0 0 0 0 0 0 0 0
0 0 0 0 0 0 0 0 0
0 0 0 0 0 0 0 0 0
0 0 0 0 0 0 0 0 0
0 0 0 0 0 0 0 0 0
0 0 0 0 0 0 0 0 0
0 0 0 0 0 0 0 0 0
0 0 0 0 0 0 0 0 0
0 0 0 0 0 0 0 0 0
0 0 0 0 0 0 0 0 0
0 0 0 0 0 0 0 0 0
0 0 0 0 0 0 0 0 0
0 0 0 0 0 0 0 0 0
0 0 0 0 0 0 0 0 0
0 0 0 0 0 0 0 0 0
0 0 0 0 0 0 0 0 0
0 0 0 0 0 0 0 0 0
0 0 0 0 0 0 0 0 0
0 0 0 0 0 0 0 0 0
0 0 0 0 0 0 0 0 0
0 0 0 0 0 0 0 0 0
0 0 0 0 0 0 0 0 0
0 0 0 0 0 0 0 0 0
0 0 0 0 0 0 0 0 0
0 0 0 0 0 0 0 0 0
0 0 0 0 0 0 0 0 0
0 0 0 0 0 0 0 0 0
0 0 0 0 0 0 0 0 0
0 0 0 0 0 0 0 0 0
0 0 0 0 0 0 0 0 0
0 0 0 0 0 0 0 0 0
0 0 0 0 0 0 0 0 0
0 0 0 0 0 0 0 0 0
0 0 0 0 0 0 0 0 0
0 0 0 0 0 0 0 0 0
0 0 0 0 0 0 0 0 0
0 0 0 0 0 0 0 0 0
0 0 0 0 0 0 0 0 0
0 0 0 0 0 0 0 0 0
0 0 0 0 0 0 0 0 0
0 0 0 0 0 0 0 0 0
0 0 0 0 0 0 0 0 0
0 0 0 0 0 0 0 0 0
0 0 0 0 0 0 0 0 0
0 0 0 0 0 0 0 0 0
0 0 0 0 0 0 0 0 0
0 0 0 0 0 0 0 0 0
0 0 0 0 0 0 0 0 0
0 0 0 0 0 0 0 0 0
0 0 0 0 0 0 0 0 0
0 0 0 0 0 0 0 0 0
0 0 0 0 0 0 0 0 0
0 0 0 0 0 0 0 0 0
0 0 0 0 0 0 0 0 0
0 0 0 0 0 0 0 0 0
0 0 0 0 0 0 0 0 0
0 0 0 0 0 0 0 0 0
0 0 0 0 0 0 0 0 0
0 0 0 0 0 0 0 0 0
0 0 0 0 0 0 0 0 0
0 0 0 0 0 0 0 0 0
0 0 0 0 0 0 0 0 0
0 0 0 0 0 0 0 0 0
0 0 0 0 0 0 0 0 0
0 0 0 0 0 0 0 0 0
0 0 0 0 0 0 0 0 0
0 0 0 0 0 0 0 0 0
0 0 0 0 0 0 0 0 0
0 0 0 0 0 0 0 0 0
0 0 0 0 0 0 0 0 0
0 0 0 0 0 0 0 0 0
0 0 0 0 0 0 0 0 0
0 0 0 0 0 0 0 0 0
0 0 0 0 0 0 0 0 0
0 0 0 0 0 0 0 0 0
0 0 0 0 0 0 0 0 0
0 0 0 0 0 0 0 0 0
0 0 0 0 0 0 0 0 0
0 0 0 0 0 0 0 0 0
0 0 0 0 0 0 0 0 0
0 0 0 0 0 0 0 0 0
0 0 0 0 0 0 0 0 0
0 0 0 0 0 0 0 0 0
0 0 0 0 0 0 0 0 0
0 0 0 0 0 0 0 0 0
0 0 0 0 0 0 0 0 0
0 0 0 0 0 0 0 0 0
0 0 0 0 0 0 0 0 0
0 0 0 0 0 0 0 0 0
0 0 0 0 0 0 0 0 0
0 0 0 0 0 0 0 0 0
0 0 0 0 0 0 0 0 0
0 0 0 0 0 0 0 0 0
0 0 0 0 0 0 0 0 0
0 0 0 0 0 0 0 0 0
0 0 0 0 0 0 0 0 0
0 0 0 0 0 0 0 0 0
0 0 0 0 0 0 0 0 0
0 0 0 0 0 0 0 0 0
0 0 0 0 0 0 0 0 0
0 0 0 0 0 0 0 0 0
0 0 0 0 0 0 0 0 0
0 0 0 0 0 0 0 0 0
0 0 0 0 0 0 0 0 0
0 0 0 0 0 0 0 0 0
0 0 0 0 0 0 0 0 0
0 0 0 0 0 0 0 0 0
0 0 0 0 0 0 0 0 0
0 0 0 0 0 0 0 0 0
0 0 0 0 0 0 0 0 0
0 0 0 0 0 0 0 0 0
0 0 0 0 0 0 0 0 0
0 0 0 0 0 0 0 0 0
0 0 0 0 0 0 0 0 0
0 0 0 0 0 0 0 0 0
0 0 0 0 0 0 0 0 0
0 0 0 0 0 0 0 0 0
0 0 0 0 0 0 0 0 0
0 0 0 0 0 0 0 0 0
0 0 0 0 0 0 0 0 0
0 0 0 0 0 0 0 0 0
0 0 0 0 0 0 0 0 0
0 0 0 0 0 0 0 0 0
0 0 0 0 0 0 0 0 0
0 0 0 0 0 0 0 0 0
0 0 0 0 0 0 0 0 0
0 0 0 0 0 0 0 0 0
0 0 0 0 0 0 0 0 0
0 0 0 0 0 0 0 0 0
0 0 0 0 0 0 0 0 0
0 0 0 0 0 0 0 0 0
0 0 0 0 0 0 0 0 0
0 0 0 0 0 0 0 0 0
0 0 0 0 0 0 0 0 0
0 0 0 0 0 0 0 0 0
0 0 0 0 0 0 0 0 0
0 0 0 0 0 0 0 0 0
0 0 0 0 0 0 0 0 0
0 0 0 0 0 0 0 0 0
0 0 0 0 0 0 0 0 0
0 0 0 0 0 0 0 0 0
0 0 0 0 0 0 0 0 0
0 0 0 0 0 0 0 0 0
0 0 0 0 0 0 0 0 0
0 0 0 0 0 0 0 0 0
0 0 0 0 0 0 0 0 0
0 0 0 0 0 0 0 0 0
0 0 0 0 0 0 0 0 0
0 0 0 0 0 0 0 0 0
0 0 0 0 0 0 0 0 0
0 0 0 0 0 0 0 0 0
0 0 0 0 0 0 0 0 0
0 0 0 0 0 0 0 0 0
0 0 0 0 0 0 0 0 0
0 0 0 0 0 0 0 0 0
0 0 0 0 0 0 0 0 0
0 0 0 0 0 0 0 0 0
0 0 0 0 0 0 0 0 0
0 0 0 0 0 0 0 0 0
0 0 0 0 0 0 0 0 0
0 0 0 0 0 0 0 0 0
0 0 0 0 0 0 0 0 0
0 0 0 0 0 0 0 0 0
0 0 0 0 0 0 0 0 0
0 0 0 0 0 0 0 0 0
0 0 0 0 0 0 0 0 0
0 0 0 0 0 0 0 0 0
0 0 0 0 0 0 0 0 0
0 0 0 0 0 0 0 0 0
0 0 0 0 0 0 0 0 0
0 0 0 0 0 0 0 0 0
0 0 0 0 0 0 0 0 0
0 0 0 0 0 0 0 0 0
0 0 0 0 0 0 0 0 0
0 0 0 0 0 0 0 0 0
0 0 0 0 0 0 0 0 0
0 0 0 0 0 0 0 0 0
0 0 0 0 0 0 0 0 0
0 0 0 0 0 0 0 0 0
0 0 0 0 0 0 0 0 0
0 0 0 0 0 0 0 0 0
0 0 0 0 0 0 0 0 0
0 0 0 0 0 0 0 0 0
0 0 0 0 0 0 0 0 0
0 0 0 0 0 0 0 0 0
0 0 0 0 0 0 0 0 0
0 0 0 0 0 0 0 0 0
0 0 0 0 0 0 0 0 0
0 0 0 0 0 0 0 0 0
0 0 0 0 0 0 0 0 0
0 0 0 0 0 0 0 0 0
0 0 0 0 0 0 0 0 0
0 0 0 0 0 0 0 0 0
0 0 0 0 0 0 0 0 0
0 0 0 0 0 0 0 0 0
0 0 0 0 0 0 0 0 0
0 0 0 0 0 0 0 0 0
0 0 0 0 0 0 0 0 0
0 0 0 0 0 0 0 0 0
0 0 0 0 0 0 0 0 0
0 0 0 0 0 0 0 0 0
0 0 0 0 0 0 0 0 0
0 0 0 0 0 0 0 0 0
0 0 0 0 0 0 0 0 0
0 0 0 0 0 0 0 0 0
0 0 0 0 0 0 0 0 0
0 0 0 0 0 0 0 0 0
0 0 0 0 0 0 0 0 0
0 0 0 0 0 0 0 0 0
0 0 0 0 0 0 0 0 0
0 0 0 0 0 0 0 0 0
0 0 0 0 0 0 0 0 0
0 0 0 0 0 0 0 0 0
0 0 0 0 0 0 0 0 0
0 0 0 0 0 0 0 0 0
0 0 0 0 0 0 0 0 0
0 0 0 0 0 0 0 0 0
0 0 0 0 0 0 0 0 0
0 0 0 0 0 0 0 0 0
0 0 0 0 0 0 0 0 0
0 0 0 0 0 0 0 0 0
0 0 0 0 0 0 0 0 0
0 0 0 0 0 0 0 0 0
0 0 0 0 0 0 0 0 0
0 0 0 0 0 0 0 0 0
0 0 0 0 0 0 0 0 0
0 0 0 0 0 0 0 0 0
0 0 0 0 0 0 0 0 0
0 0 0 0 0 0 0 0 0
0 0 0 0 0 0 0 0 0
0 0 0 0 0 0 0 0 0
0 0 0 0 0 0 0 0 0
0 0 0 0 0 0 0 0 0
0 0 0 0 0 0 0 0 0
0 0 0 0 0 0 0 0 0
0 0 0 0 0 0 0 0 0
0 0 0 0 0 0 0 0 0
0 0 0 0 0 0 0 0 0
0 0 0 0 0 0 0 0 0
0 0 0 0 0 0 0 0 0
0 0 0 0 0 0 0 0 0
0 0 0 0 0 0 0 0 0
0 0 0 0 0 0 0 0 0
0 0 0 0 0 0 0 0 0
0 0 0 0 0 0 0 0 0
0 0 0 0 0 0 0 0 0
0 0 0 0 0 0 0 0 0
0 0 0 0 0 0 0 0 0
0 0 0 0 0 0 0 0 0
0 0 0 0 0 0 0 0 0
0 0 0 0 0 0 0 0 0
0 0 0 0 0 0 0 0 0
0 0 0 0 0 0 0 0 0
0 0 0 0 0 0 0 0 0
0 0 0 0 0 0 0 0 0
0 0 0 0 0 0 0 0 0
0 0 0 0 0 0 0 0 0
0 0 0 0 0 0 0 0 0
0 0 0 0 0 0 0 0 0
0 0 0 0 0 0 0 0 0
0 0 0 0 0 0 0 0 0
0 0 0 0 0 0 0 0 0
0 0 0 0 0 0 0 0 0
0 0 0 0 0 0 0 0 0
0 0 0 0 0 0 0 0 0
0 0 0 0 0 0 0 0 0
0 0 0 0 0 0 0 0 0
0 0 0 0 0 0 0 0 0
0 0 0 0 0 0 0 0 0
0 0 0 0 0 0 0 0 0
0 0 0 0 0 0 0 0 0
0 0 0 0 0 0 0 0 0
0 0 0 0 0 0 0 0 0
0 0 0 0 0 0 0 0 0
0 0 0 0 0 0 0 0 0
0 0 0 0 0 0 0 0 0
0 0 0 0 0 0 0 0 0
0 0 0 0 0 0 0 0 0
0 0 0 0 0 0 0 0 0
0 0 0 0 0 0 0 0 0
0 0 0 0 0 0 0 0 0
0 0 0 0 0 0 0 0 0
0 0 0 0 0 0 0 0 0
0 0 0 0 0 0 0 0 0
0 0 0 0 0 0 0 0 0
0 0 0 0 0 0 0 0 0
0 0 0 0 0 0 0 0 0
0 0 0 0 0 0 0 0 0
0 0 0 0 0 0 0 0 0
0 0 0 0 0 0 0 0 0
0 0 0 0 0 0 0 0 0
0 0 0 0 0 0 0 0 0
0 0 0 0 0 0 0 0 0
0 0 0 0 0 0 0 0 0
0 0 0 0 0 0 0 0 0
0 0 0 0 0 0 0 0 0
0 0 0 0 0 0 0 0 0
0 0 0 0 0 0 0 0 0
0 0 0 0 0 0 0 0 0
0 0 0 0 0 0 0 0 0
0 0 0 0 0 0 0 0 0
0 0 0 0 0 0 0 0 0
0 0 0 0 0 0 0 0 0
0 0 0 0 0 0 0 0 0
0 0 0 0 0 0 0 0 0
0 0 0 0 0 0 0 0 0
0 0 0 0 0 0 0 0 0
0 0 0 0 0 0 0 0 0
0 0 0 0 0 0 0 0 0
0 0 0 0 0 0 0 0 0
0 0 0 0 0 0 0 0 0
0 0 0 0 0 0 0 0 0
0 0 0 0 0 0 0 0 0
0 0 0 0 0 0 0 0 0
0 0 0 0 0 0 0 0 0
0 0 0 0 0 0 0 0 0
0 0 0 0 0 0 0 0 0
0 0 0 0 0 0 0 0 0
0 0 0 0 0 0 0 0 0
0 0 0 0 0 0 0 0 0
0 0 0 0 0 0 0 0 0
0 0 0 0 0 0 0 0 0
0 0 0 0 0 0 0 0 0
0 0 0 0 0 0 0 0 0
0 0 0 0 0 0 0 0 0
0 0 0 0 0 0 0 0 0
0 0 0 0 0 0 0 0 0
0 0 0 0 0 0 0 0 0
0 0 0 0 0 0 0 0 0
0 0 0 0 0 0 0 0 0
0 0 0 0 0 0 0 0 0
0 0 0 0 0 0 0 0 0
0 0 0 0 0 0 0 0 0
0 0 0 0 0 0 0 0 0
0 0 0 0 0 0 0 0 0
0 0 0 0 0 0 0 0 0
0 0 0 0 0 0 0 0 0
0 0 0 0 0 0 0 0 0
0 0 0 0 0 0 0 0 0
0 0 0 0 0 0 0 0 0
0 0 0 0 0 0 0 0 0
0 0 0 0 0 0 0 0 0
0 0 0 0 0 0 0 0 0
0 0 0 0 0 0 0 0 0
0 0 0 0 0 0 0 0 0
0 0 0 0 0 0 0 0 0
0 0 0 0 0 0 0 0 0
0 0 0 0 0 0 0 0 0
0 0 0 0 0 0 0 0 0
0 0 0 0 0 0 0 0 0
0 0 0 0 0 0 0 0 0
0 0 0 0 0 0 0 0 0
0 0 0 0 0 0 0 0 0
0 0 0 0 0 0 0 0 0
0 0 0 0 0 0 0 0 0
0 0 0 0 0 0 0 0 0
0 0 0 0 0 0 0 0 0
0 0 0 0 0 0 0 0 0
0 0 0 0 0 0 0 0 0
0 0 0 0 0 0 0 0 0
0 0 0 0 0 0 0 0 0
0 0 0 0 0 0 0 0 0
0 0 0 0 0 0 0 0 0
0 0 0 0 0 0 0 0 0
0 0 0 0 0 0 0 0 0
0 0 0 0 0 0 0 0 0
0 0 0 0 0 0 0 0 0
0 0 0 0 0 0 0 0 0
0 0 0 0 0 0 0 0 0
0 0 0 0 0 0 0 0 0
0 0 0 0 0 0 0 0 0
0 0 0 0 0 0 0 0 0
0 0 0 0 0 0 0 0 0
0 0 0 0 0 0 0 0 0
0 0 0 0 0 0 0 0 0
0 0 0 0 0 0 0 0 0
0 0 0 0 0 0 0 0 0
0 0 0 0 0 0 0 0 0
0 0 0 0 0 0 0 0 0
0 0 0 0 0 0 0 0 0
0 0 0 0 0 0 0 0 0
0 0 0 0 0 0 0 0 0
0 0 0 0 0 0 0 0 0
0 0 0 0 0 0 0 0 0
0 0 0 0 0 0 0 0 0
0 0 0 0 0 0 0 0 0
0 0 0 0 0 0 0 0 0
0 0 0 0 0 0 0 0 0
0 0 0 0 0 0 0 0 0
0 0 0 0 0 0 0 0 0
0 0 0 0 0 0 0 0 0
0 0 0 0 0 0 0 0 0
0 0 0 0 0 0 0 0 0
0 0 0 0 0 0 0 0 0
0 0 0 0 0 0 0 0 0
0 0 0 0 0 0 0 0 0
0 0 0 0 0 0 0 0 0
0 0 0 0 0 0 0 0 0
0 0 0 0 0 0 0 0 0
0 0 0 0 0 0 0 0 0
0 0 0 0 0 0 0 0 0
0 0 0 0 0 0 0 0 0
0 0 0 0 0 0 0 0 0
0 0 0 0 0 0 0 0 0
0 0 0 0 0 0 0 0 0
0 0 0 0 0 0 0 0 0
0 0 0 0 0 0 0 0 0
0 0 0 0 0 0 0 0 0
0 0 0 0 0 0 0 0 0
0 0 0 0 0 0 0 0 0
0 0 0 0 0 0 0 0 0
0 0 0 0 0 0 0 0 0
0 0 0 0 0 0 0 0 0
0 0 0 0 0 0 0 0 0
0 0 0 0 0 0 0 0 0
0 0 0 0 0 0 0 0 0
0 0 0 0 0 0 0 0 0
0 0 0 0 0 0 0 0 0
0 0 0 0 0 0 0 0 0
0 0 0 0 0 0 0 0 0
0 0 0 0 0 0 0 0 0
0 0 0 0 0 0 0 0 0
0 0 0 0 0 0 0 0 0
0 0 0 0 0 0 0 0 0
0 0 0 0 0 0 0 0 0
0 0 0 0 0 0 0 0 0
0 0 0 0 0 0 0 0 0
0 0 0 0 0 0 0 0 0
0 0 0 0 0 0 0 0 0
0 0 0 0 0 0 0 0 0
0 0 0 0 0 0 0 0 0
0 0 0 0 0 0 0 0 0
0 0 0 0 0 0 0 0 0
0 0 0 0 0 0 0 0 0
0 0 0 0 0 0 0 0 0
0 0 0 0 0 0 0 0 0
0 0 0 0 0 0 0 0 0
0 0 0 0 0 0 0 0 0
0 0 0 0 0 0 0 0 0
0 0 0 0 0 0 0 0 0
0 0 0 0 0 0 0 0 0
0 0 0 0 0 0 0 0 0
0 0 0 0 0 0 0 0 0
0 0 0 0 0 0 0 0 0
0 0 0 0 0 0 0 0 0
0 0 0 0 0 0 0 0 0
0 0 0 0 0 0 0 0 0
0 0 0 0 0 0 0 0 0
0 0 0 0 0 0 0 0 0
0 0 0 0 0 0 0 0 0
0 0 0 0 0 0 0 0 0
0 0 0 0 0 0 0 0 0
0 0 0 0 0 0 0 0 0
0 0 0 0 0 0 0 0 0
0 0 0 0 0 0 0 0 0
0 0 0 0 0 0 0 0 0
0 0 0 0 0 0 0 0 0
0 0 0 0 0 0 0 0 0
0 0 0 0 0 0 0 0 0
0 0 0 0 0 0 0 0 0
0 0 0 0 0 0 0 0 0
0 0 0 0 0 0 0 0 0
0 0 0 0 0 0 0 0 0
0 0 0 0 0 0 0 0 0
0 0 0 0 0 0 0 0 0
0 0 0 0 0 0 0 0 0
0 0 0 0 0 0 0 0 0
0 0 0 0 0 0 0 0 0
0 0 0 0 0 0 0 0 0
0 0 0 0 0 0 0 0 0
0 0 0 0 0 0 0 0 0
0 0 0 0 0 0 0 0 0
0 0 0 0 0 0 0 0 0
0 0 0 0 0 0 0 0 0
0 0 0 0 0 0 0 0 0
0 0 0 0 0 0 0 0 0
0 0 0 0 0 0 0 0 0
0 0 0 0 0 0 0 0 0
0 0 0 0 0 0 0 0 0
0 0 0 0 0 0 0 0 0
0 0 0 0 0 0 0 0 0
0 0 0 0 0 0 0 0 0
0 0 0 0 0 0 0 0 0
0 0 0 0 0 0 0 0 0
0 0 0 0 0 0 0 0 0
0 0 0 0 0 0 0 0 0
0 0 0 0 0 0 0 0 0
0 0 0 0 0 0 0 0 0
0 0 0 0 0 0 0 0 0
0 0 0 0 0 0 0 0 0
0 0 0 0 0 0 0 0 0
0 0 0 0 0 0 0 0 0
0 0 0 0 0 0 0 0 0
0 0 0 0 0 0 0 0 0
0 0 0 0 0 0 0 0 0
0 0 0 0 0 0 0 0 0
0 0 0 0 0 0 0 0 0
0 0 0 0 0 0 0 0 0
0 0 0 0 0 0 0 0 0
0 0 0 0 0 0 0 0 0
0 0 0 0 0 0 0 0 0
0 0 0 0 0 0 0 0 0
0 0 0 0 0 0 0 0 0
0 0 0 0 0 0 0 0 0
0 0 0 0 0 0 0 0 0
0 0 0 0 0 0 0 0 0
0 0 0 0 0 0 0 0 0
0 0 0 0 0 0 0 0 0
0 0 0 0 0 0 0 0 0
0 0 0 0 0 0 0 0 0
0 0 0 0 0 0 0 0 0
0 0 0 0 0 0 0 0 0
0 0 0 0 0 0 0 0 0
0 0 0 0 0 0 0 0 0
0 0 0 0 0 0 0 0 0
0 0 0 0 0 0 0 0 0
0 0 0 0 0 0 0 0 0
0 0 0 0 0 0 0 0 0
0 0 0 0 0 0 0 0 0
0 0 0 0 0 0 0 0 0
0 0 0 0 0 0 0 0 0
0 0 0 0 0 0 0 0 0
0 0 0 0 0 0 0 0 0
0 0 0 0 0 0 0 0 0
0 0 0 0 0 0 0 0 0
0 0 0 0 0 0 0 0 0
0 0 0 0 0 0 0 0 0
0 0 0 0 0 0 0 0 0
0 0 0 0 0 0 0 0 0
0 0 0 0 0 0 0 0 0
0 0 0 0 0 0 0 0 0
0 0 0 0 0 0 0 0 0
0 0 0 0 0 0 0 0 0
0 0 0 0 0 0 0 0 0
0 0 0 0 0 0 0 0 0
0 0 0 0 0 0 0 0 0
0 0 0 0 0 0 0 0 0
0 0 0 0 0 0 0 0 0
0 0 0 0 0 0 0 0 0
0 0 0 0 0 0 0 0 0
0 0 0 0 0 0 0 0 0
0 0 0 0 0 0 0 0 0
0 0 0 0 0 0 0 0 0
0 0 0 0 0 0 0 0 0
0 0 0 0 0 0 0 0 0
0 0 0 0 0 0 0 0 0
0 0 0 0 0 0 0 0 0
0 0 0 0 0 0 0 0 0
0 0 0 0 0 0 0 0 0
0 0 0 0 0 0 0 0 0
0 0 0 0 0 0 0 0 0
0 0 0 0 0 0 0 0 0
0 0 0 0 0 0 0 0 0
0 0 0 0 0 0 0 0 0
0 0 0 0 0 0 0 0 0
0 0 0 0 0 0 0 0 0
0 0 0 0 0 0 0 0 0
0 0 0 0 0 0 0 0 0
0 0 0 0 0 0 0 0 0
0 0 0 0 0 0 0 0 0
0 0 0 0 0 0 0 0 0
0 0 0 0 0 0 0 0 0
0 0 0 0 0 0 0 0 0
0 0 0 0 0 0 0 0 0
0 0 0 0 0 0 0 0 0
0 0 0 0 0 0 0 0 0
0 0 0 0 0 0 0 0 0
0 0 0 0 0 0 0 0 0
0 0 0 0 0 0 0 0 0
0 0 0 0 0 0 0 0 0
0 0 0 0 0 0 0 0 0
0 0 0 0 0 0 0 0 0
0 0 0 0 0 0 0 0 0
0 0 0 0 0 0 0 0 0
0 0 0 0 0 0 0 0 0
0 0 0 0 0 0 0 0 0
0 0 0 0 0 0 0 0 0
0 0 0 0 0 0 0 0 0
0 0 0 0 0 0 0 0 0
0 0 0 0 0 0 0 0 0
0 0 0 0 0 0 0 0 0
0 0 0 0 0 0 0 0 0
0 0 0 0 0 0 0 0 0
0 0 0 0 0 0 0 0 0
0 0 0 0 0 0 0 0 0
0 0 0 0 0 0 0 0 0
0 0 0 0 0 0 0 0 0
0 0 0 0 0 0 0 0 0
0 0 0 0 0 0 0 0 0
0 0 0 0 0 0 0 0 0
0 0 0 0 0 0 0 0 0
0 0 0 0 0 0 0 0 0
0 0 0 0 0 0 0 0 0
0 0 0 0 0 0 0 0 0
0 0 0 0 0 0 0 0 0
0 0 0 0 0 0 0 0 0
0 0 0 0 0 0 0 0 0
0 0 0 0 0 0 0 0 0
0 0 0 0 0 0 0 0 0
0 0 0 0 0 0 0 0 0
0 0 0 0 0 0 0 0 0
0 0 0 0 0 0 0 0 0
0 0 0 0 0 0 0 0 0
0 0 0 0 0 0 0 0 0
0 0 0 0 0 0 0 0 0
0 0 0 0 0 0 0 0 0
0 0 0 0 0 0 0 0 0
0 0 0 0 0 0 0 0 0
0 0 0 0 0 0 0 0 0
0 0 0 0 0 0 0 0 0
0 0 0 0 0 0 0 0 0
0 0 0 0 0 0 0 0 0
0 0 0 0 0 0 0 0 0
0 0 0 0 0 0 0 0 0
0 0 0 0 0 0 0 0 0
0 0 0 0 0 0 0 0 0
0 0 0 0 0 0 0 0 0
0 0 0 0 0 0 0 0 0
0 0 0 0 0 0 0 0 0
0 0 0 0 0 0 0 0 0
0 0 0 0 0 0 0 0 0
0 0 0 0 0 0 0 0 0
0 0 0 0 0 0 0 0 0
0 0 0 0 0 0 0 0 0
0 0 0 0 0 0 0 0 0
0 0 0 0 0 0 0 0 0
0 0 0 0 0 0 0 0 0
0 0 0 0 0 0 0 0 0
0 0 0 0 0 0 0 0 0
0 0 0 0 0 0 0 0 0
0 0 0 0 0 0 0 0 0
0 0 0 0 0 0 0 0 0
0 0 0 0 0 0 0 0 0
0 0 0 0 0 0 0 0 0
0 0 0 0 0 0 0 0 0
0 0 0 0 0 0 0 0 0
0 0 0 0 0 0 0 0 0
0 0 0 0 0 0 0 0 0
0 0 0 0 0 0 0 0 0
0.0121335 0.0125852 0.0120813 0.0125249 0.0121335 0.0125852 0.0120813 0.0125249 0
0.0129214 0.0133881 0.0128551 0.0133135 0.0129214 0.0133881 0.0128551 0.0133135 0
0.0137347 0.0142147 0.013654 0.0141256 0.0137347 0.0142147 0.013654 0.0141256 0
0.0145705 0.0150622 0.0144751 0.0149581 0.0145705 0.0150622 0.0144751 0.0149581 0
0.0154257 0.0159269 0.0153152 0.0158074 0.0154257 0.0159269 0.0153152 0.0158074 0
0.0162965 0.0168044 0.0161704 0.0166693 0.0162965 0.0168044 0.0161704 0.0166693 0
0.0122321 0.0126983 0.012174 0.0126318 0.0122321 0.0126983 0.012174 0.0126318 0
0.0130452 0.0135265 0.0129724 0.0134453 0.0130452 0.0135265 0.0129724 0.0134453 0
0.0138841 0.0143792 0.0137964 0.0142828 0.0138841 0.0143792 0.0137964 0.0142828 0
0.0147462 0.0152535 0.0146433 0.0151415 0.0147462 0.0152535 0.0146433 0.0151415 0
0.0156286 0.0161458 0.0155099 0.0160177 0.0156286 0.0161458 0.0155099 0.0160177 0
0.0165271 0.0170513 0.0163922 0.0169069 0.0165271 0.0170513 0.0163922 0.0169069 0
0.0123421 0.0128229 0.0122773 0.0127496 0.0123421 0.0128229 0.0122773 0.0127496 0
0.0131808 0.0136773 0.0131011 0.0135888 0.0131808 0.0136773 0.0131011 0.0135888 0
0.0140461 0.0145569 0.0139511 0.0144528 0.0140461 0.0145569 0.0139511 0.0144528 0
0.0149356 0.015459 0.0148247 0.0153387 0.0149356 0.015459 0.0148247 0.0153387 0
0.0158462 0.01638 0.0157189 0.016243 0.0158462 0.01638 0.0157189 0.016243 0
0.0167738 0.0173151 0.0166295 0.0171608 0.0167738 0.0173151 0.0166295 0.0171608 0
0.0177131 0.0182586 0.0175514 0.0180867 0.0177131 0.0182586 0.0175514 0.0180867 0
0.0186575 0.0192011 0.0184781 0.0190115 0.0186575 0.0192011 0.0184781 0.0190115 0
0.0195976 0.0201367 0.0194007 0.0199299 0.0195976 0.0201367 0.0194007 0.0199299 0
0.012464 0.0129599 0.0123922 0.0128794 0.012464 0.0129599 0.0123922 0.0128794 0
0.0133288 0.0138409 0.0132419 0.0137449 0.0133288 0.0138409 0.0132419 0.0137449 0
0.0142213 0.0147483 0.0141186 0.0146362 0.0142213 0.0147483 0.0141186 0.0146362 0
0.015139 0.0156793 0.0150199 0.0155504 0.015139 0.0156793 0.0150199 0.0155504 0
0.0160789 0.0166302 0.0159428 0.0164839 0.0160789 0.0166302 0.0159428 0.0164839 0
0.0170368 0.0175961 0.016883 0.0174319 0.0170368 0.0175961 0.016883 0.0174319 0
0.0180073 0.018571 0.0178354 0.0183885 0.0180073 0.018571 0.0178354 0.0183885 0
0.0189832 0.0195451 0.018793 0.0193442 0.0189832 0.0195451 0.018793 0.0193442 0
0.019955 0.020512 0.0197463 0.0202928 0.019955 0.020512 0.0197463 0.0202928 0
0.0125985 0.0131096 0.0125194 0.0130217 0.0125985 0.0131096 0.0125194 0.0130217 0
0.01349 0.014018 0.0133954 0.0139142 0.01349 0.014018 0.0133954 0.0139142 0
0.0144103 0.0149539 0.0142996 0.0148335 0.0144103 0.0149539 0.0142996 0.0148335 0
0.0153571 0.0159148 0.0152295 0.015777 0.0153571 0.0159148 0.0152295 0.015777 0
0.0163274 0.0168968 0.0161821 0.0167409 0.0163274 0.0168968 0.0161821 0.0167409 0
0.0173169 0.0178949 0.0171532 0.0177203 0.0173169 0.0178949 0.0171532 0.0177203 0
0.0183199 0.0189028 0.0181373 0.018709 0.0183199 0.0189028 0.0181373 0.018709 0
0.0193291 0.0199103 0.019127 0.019697 0.0193291 0.0199103 0.019127 0.019697 0
0.0203343 0.0209105 0.0201127 0.0206777 0.0203343 0.0209105 0.0201127 0.0206777 0
0.0127463 0.0132728 0.0126594 0.013177 0.0127463 0.0132728 0.0126594 0.013177 0
0.0136648 0.0142091 0.0135623 0.0140971 0.0136648 0.0142091 0.0135623 0.0140971 0
0.0146136 0.0151744 0.0144945 0.0150454 0.0146136 0.0151744 0.0144945 0.0150454 0
0.0155904 0.016166 0.0154539 0.0160191 0.0155904 0.016166 0.0154539 0.0160191 0
0.0165921 0.0171804 0.0164374 0.0170147 0.0165921 0.0171804 0.0164374 0.0170147 0
0.0176145 0.0182121 0.0174406 0.0180268 0.0176145 0.0182121 0.0174406 0.0180268 0
0.0186517 0.0192548 0.0184579 0.0190492 0.0186517 0.0192548 0.0184579 0.0190492 0
0.019696 0.0202978 0.0194817 0.0200715 0.019696 0.0202978 0.0194817 0.0200715 0
0.0207367 0.0213333 0.0205016 0.0210864 0.0207367 0.0213333 0.0205016 0.0210864 0
0.0129079 0.0134501 0.012813 0.0133461 0.0129079 0.0134501 0.012813 0.0133461 0
0.0138538 0.0144147 0.013743 0.0142943 0.0138538 0.0144147 0.013743 0.0142943 0
0.0148317 0.0154101 0.014704 0.0152722 0.0148317 0.0154101 0.014704 0.0152722 0
0.0158393 0.0164336 0.0156938 0.0162772 0.0158393 0.0164336 0.0156938 0.0162772 0
0.0168736 0.0174815 0.0167091 0.0173056 0.0168736 0.0174815 0.0167091 0.0173056 0
0.0179303 0.0185485 0.0177459 0.0183521 0.0179303 0.0185485 0.0177459 0.0183521 0
0.0190034 0.0196277 0.018798 0.0194099 0.0190034 0.0196277 0.018798 0.0194099 0
0.0200846 0.0207083 0.0198577 0.0204686 0.0200846 0.0207083 0.0198577 0.0204686 0
0.0211631 0.0217816 0.0209141 0.0215198 0.0211631 0.0217816 0.0209141 0.0215198 0
0.0222228 0.0228087 0.0219516 0.0225246 0.0222228 0.0228087 0.0219516 0.0225246 0
0.0121438 0.0126824 0.0120556 0.0125857 0.0121438 0.0126824 0.0120556 0.0125857 0
0.0130838 0.0136418 0.0129806 0.0135294 0.0130838 0.0136418 0.0129806 0.0135294 0
0.0140575 0.0146353 0.0139382 0.0145062 0.0140575 0.0146353 0.0139382 0.0145062 0
0.0150651 0.0156615 0.0149286 0.0155145 0.0150651 0.0156615 0.0149286 0.0155145 0
0.0161044 0.0167179 0.0159495 0.0165518 0.0161044 0.0167179 0.0159495 0.0165518 0
0.0171724 0.0178007 0.0169979 0.0176143 0.0171724 0.0178007 0.0169979 0.0176143 0
0.0182648 0.0189045 0.0180695 0.0186967 0.0182648 0.0189045 0.0180695 0.0186967 0
0.0193755 0.0200224 0.0191583 0.019792 0.0193755 0.0200224 0.0191583 0.019792 0
0.020496 0.0211428 0.0202558 0.0208891 0.020496 0.0211428 0.0202558 0.0208891 0
0.0216146 0.0222564 0.021351 0.0219791 0.0216146 0.0222564 0.021351 0.0219791 0
0.0227147 0.0233241 0.0224274 0.0230231 0.0227147 0.0233241 0.0224274 0.0230231 0
0.0237702 0.0243795 0.0234596 0.0240564 0.0237702 0.0243795 0.0234596 0.0240564 0
0.0132747 0.013849 0.0131627 0.0137275 0.0132747 0.013849 0.0131627 0.0137275 0
0.0142771 0.0148721 0.0141484 0.0147335 0.0142771 0.0148721 0.0141484 0.0147335 0
0.015315 0.01593 0.0151688 0.015773 0.015315 0.01593 0.0151688 0.015773 0
0.0163869 0.01702 0.0162217 0.0168435 0.0163869 0.01702 0.0162217 0.0168435 0
0.0174894 0.0181386 0.0173043 0.0179413 0.0174894 0.0181386 0.0173043 0.0179413 0
0.0186186 0.0192807 0.0184121 0.0190612 0.0186186 0.0192807 0.0184121 0.0190612 0
0.0197686 0.0204391 0.0195392 0.0201959 0.0197686 0.0204391 0.0195392 0.0201959 0
0.0209305 0.0216022 0.0206769 0.021334 0.0209305 0.0216022 0.0206769 0.021334 0
0.0220923 0.0227592 0.0218134 0.0224656 0.0220923 0.0227592 0.0218134 0.0224656 0
0.023236 0.0238709 0.0229316 0.0235514 0.023236 0.0238709 0.0229316 0.0235514 0
0.0243346 0.0249668 0.0240048 0.0246237 0.0243346 0.0249668 0.0240048 0.0246237 0
0 0 0 0 0 0 0 0 0
0 0 0 0 0 0 0 0 0
0 0 0 0 0 0 0 0 0
0 0 0 0 0 0 0 0 0
0 0 0 0 0 0 0 0 0
0 0 0 0 0 0 0 0 0
0 0 0 0 0 0 0 0 0
0 0 0 0 0 0 0 0 0
0 0 0 0 0 0 0 0 0
0 0 0 0 0 0 0 0 0
0 0 0 0 0 0 0 0 0
0 0 0 0 0 0 0 0 0
0 0 0 0 0 0 0 0 0
0 0 0 0 0 0 0 0 0
0 0 0 0 0 0 0 0 0
0 0 0 0 0 0 0 0 0
0 0 0 0 0 0 0 0 0
0 0 0 0 0 0 0 0 0
0 0 0 0 0 0 0 0 0
0 0 0 0 0 0 0 0 0
0 0 0 0 0 0 0 0 0
0 0 0 0 0 0 0 0 0
0 0 0 0 0 0 0 0 0
0 0 0 0 0 0 0 0 0
0 0 0 0 0 0 0 0 0
0 0 0 0 0 0 0 0 0
0 0 0 0 0 0 0 0 0
0 0 0 0 0 0 0 0 0
0 0 0 0 0 0 0 0 0
0 0 0 0 0 0 0 0 0
0 0 0 0 0 0 0 0 0
0 0 0 0 0 0 0 0 0
0 0 0 0 0 0 0 0 0
0 0 0 0 0 0 0 0 0
0 0 0 0 0 0 0 0 0
0 0 0 0 0 0 0 0 0
0 0 0 0 0 0 0 0 0
0 0 0 0 0 0 0 0 0
0 0 0 0 0 0 0 0 0
0 0 0 0 0 0 0 0 0
0 0 0 0 0 0 0 0 0
0 0 0 0 0 0 0 0 0
0 0 0 0 0 0 0 0 0
0 0 0 0 0 0 0 0 0
0 0 0 0 0 0 0 0 0
0 0 0 0 0 0 0 0 0
0 0 0 0 0 0 0 0 0
0 0 0 0 0 0 0 0 0
0 0 0 0 0 0 0 0 0
0 0 0 0 0 0 0 0 0
0 0 0 0 0 0 0 0 0
0 0 0 0 0 0 0 0 0
0 0 0 0 0 0 0 0 0
0 0 0 0 0 0 0 0 0
0 0 0 0 0 0 0 0 0
0 0 0 0 0 0 0 0 0
0 0 0 0 0 0 0 0 0
0 0 0 0 0 0 0 0 0
0 0 0 0 0 0 0 0 0
0 0 0 0 0 0 0 0 0
0 0 0 0 0 0 0 0 0
0 0 0 0 0 0 0 0 0
0 0 0 0 0 0 0 0 0
0 0 0 0 0 0 0 0 0
0 0 0 0 0 0 0 0 0
0 0 0 0 0 0 0 0 0
0 0 0 0 0 0 0 0 0
0 0 0 0 0 0 0 0 0
0 0 0 0 0 0 0 0 0
0 0 0 0 0 0 0 0 0
0 0 0 0 0 0 0 0 0
0 0 0 0 0 0 0 0 0
0 0 0 0 0 0 0 0 0
0 0 0 0 0 0 0 0 0
0 0 0 0 0 0 0 0 0
0 0 0 0 0 0 0 0 0
0 0 0 0 0 0 0 0 0
0 0 0 0 0 0 0 0 0
0 0 0 0 0 0 0 0 0
0 0 0 0 0 0 0 0 0
0 0 0 0 0 0 0 0 0
0 0 0 0 0 0 0 0 0
0 0 0 0 0 0 0 0 0
0 0 0 0 0 0 0 0 0
0 0 0 0 0 0 0 0 0
0 0 0 0 0 0 0 0 0
0 0 0 0 0 0 0 0 0
0 0 0 0 0 0 0 0 0
0 0 0 0 0 0 0 0 0
0 0 0 0 0 0 0 0 0
0 0 0 0 0 0 0 0 0
0 0 0 0 0 0 0 0 0
0 0 0 0 0 0 0 0 0
0 0 0 0 0 0 0 0 0
0 0 0 0 0 0 0 0 0
0 0 0 0 0 0 0 0 0
0 0 0 0 0 0 0 0 0
0 0 0 0 0 0 0 0 0
0 0 0 0 0 0 0 0 0
0 0 0 0 0 0 0 0 0
0 0 0 0 0 0 0 0 0
0 0 0 0 0 0 0 0 0
0 0 0 0 0 0 0 0 0
0 0 0 0 0 0 0 0 0
0 0 0 0 0 0 0 0 0
0 0 0 0 0 0 0 0 0
0 0 0 0 0 0 0 0 0
0 0 0 0 0 0 0 0 0
0 0 0 0 0 0 0 0 0
0 0 0 0 0 0 0 0 0
0 0 0 0 0 0 0 0 0
0 0 0 0 0 0 0 0 0
0 0 0 0 0 0 0 0 0
0 0 0 0 0 0 0 0 0
0 0 0 0 0 0 0 0 0
0 0 0 0 0 0 0 0 0
0 0 0 0 0 0 0 0 0
0 0 0 0 0 0 0 0 0
0 0 0 0 0 0 0 0 0
0 0 0 0 0 0 0 0 0
0 0 0 0 0 0 0 0 0
0 0 0 0 0 0 0 0 0
0 0 0 0 0 0 0 0 0
0 0 0 0 0 0 0 0 0
0 0 0 0 0 0 0 0 0
0 0 0 0 0 0 0 0 0
0 0 0 0 0 0 0 0 0
0 0 0 0 0 0 0 0 0
0 0 0 0 0 0 0 0 0
0 0 0 0 0 0 0 0 0
0 0 0 0 0 0 0 0 0
0 0 0 0 0 0 0 0 0
0 0 0 0 0 0 0 0 0
0 0 0 0 0 0 0 0 0
0 0 0 0 0 0 0 0 0
0 0 0 0 0 0 0 0 0
0 0 0 0 0 0 0 0 0
0 0 0 0 0 0 0 0 0
0 0 0 0 0 0 0 0 0
0 0 0 0 0 0 0 0 0
0 0 0 0 0 0 0 0 0
0 0 0 0 0 0 0 0 0
0 0 0 0 0 0 0 0 0
0 0 0 0 0 0 0 0 0
0 0 0 0 0 0 0 0 0
0 0 0 0 0 0 0 0 0
0 0 0 0 0 0 0 0 0
0 0 0 0 0 0 0 0 0
0 0 0 0 0 0 0 0 0
0 0 0 0 0 0 0 0 0
0 0 0 0 0 0 0 0 0
0 0 0 0 0 0 0 0 0
0 0 0 0 0 0 0 0 0
0 0 0 0 0 0 0 0 0
0 0 0 0 0 0 0 0 0
0 0 0 0 0 0 0 0 0
0 0 0 0 0 0 0 0 0
0 0 0 0 0 0 0 0 0
0 0 0 0 0 0 0 0 0
0 0 0 0 0 0 0 0 0
0 0 0 0 0 0 0 0 0
0 0 0 0 0 0 0 0 0
0 0 0 0 0 0 0 0 0
0 0 0 0 0 0 0 0 0
0 0 0 0 0 0 0 0 0
0 0 0 0 0 0 0 0 0
0 0 0 0 0 0 0 0 0
0 0 0 0 0 0 0 0 0
0 0 0 0 0 0 0 0 0
0 0 0 0 0 0 0 0 0
0 0 0 0 0 0 0 0 0
0 0 0 0 0 0 0 0 0
0 0 0 0 0 0 0 0 0
0 0 0 0 0 0 0 0 0
0 0 0 0 0 0 0 0 0
0 0 0 0 0 0 0 0 0
0 0 0 0 0 0 0 0 0
0 0 0 0 0 0 0 0 0
0 0 0 0 0 0 0 0 0
0 0 0 0 0 0 0 0 0
0 0 0 0 0 0 0 0 0
0 0 0 0 0 0 0 0 0
0 0 0 0 0 0 0 0 0
0 0 0 0 0 0 0 0 0
0 0 0 0 0 0 0 0 0
0 0 0 0 0 0 0 0 0
0 0 0 0 0 0 0 0 0
0 0 0 0 0 0 0 0 0
0 0 0 0 0 0 0 0 0
0 0 0 0 0 0 0 0 0
0 0 0 0 0 0 0 0 0
0 0 0 0 0 0 0 0 0
0 0 0 0 0 0 0 0 0
0 0 0 0 0 0 0 0 0
0 0 0 0 0 0 0 0 0
0 0 0 0 0 0 0 0 0
0 0 0 0 0 0 0 0 0
0 0 0 0 0 0 0 0 0
0 0 0 0 0 0 0 0 0
0 0 0 0 0 0 0 0 0
0 0 0 0 0 0 0 0 0
0 0 0 0 0 0 0 0 0
0 0 0 0 0 0 0 0 0
0 0 0 0 0 0 0 0 0
0 0 0 0 0 0 0 0 0
0 0 0 0 0 0 0 0 0
0 0 0 0 0 0 0 0 0
0 0 0 0 0 0 0 0 0
0 0 0 0 0 0 0 0 0
0 0 0 0 0 0 0 0 0
0 0 0 0 0 0 0 0 0
0 0 0 0 0 0 0 0 0
0 0 0 0 0 0 0 0 0
0 0 0 0 0 0 0 0 0
0 0 0 0 0 0 0 0 0
0 0 0 0 0 0 0 0 0
0 0 0 0 0 0 0 0 0
0 0 0 0 0 0 0 0 0
0 0 0 0 0 0 0 0 0
0 0 0 0 0 0 0 0 0
0 0 0 0 0 0 0 0 0
0 0 0 0 0 0 0 0 0
0 0 0 0 0 0 0 0 0
0 0 0 0 0 0 0 0 0
0 0 0 0 0 0 0 0 0
0 0 0 0 0 0 0 0 0
0 0 0 0 0 0 0 0 0
0 0 0 0 0 0 0 0 0
0 0 0 0 0 0 0 0 0
0 0 0 0 0 0 0 0 0
0 0 0 0 0 0 0 0 0
0 0 0 0 0 0 0 0 0
0 0 0 0 0 0 0 0 0
0 0 0 0 0 0 0 0 0
0 0 0 0 0 0 0 0 0
0 0 0 0 0 0 0 0 0
0 0 0 0 0 0 0 0 0
0 0 0 0 0 0 0 0 0
0 0 0 0 0 0 0 0 0
0 0 0 0 0 0 0 0 0
0 0 0 0 0 0 0 0 0
0 0 0 0 0 0 0 0 0
0 0 0 0 0 0 0 0 0
0 0 0 0 0 0 0 0 0
0 0 0 0 0 0 0 0 0
0 0 0 0 0 0 0 0 0
0 0 0 0 0 0 0 0 0
0 0 0 0 0 0 0 0 0
0 0 0 0 0 0 0 0 0
0 0 0 0 0 0 0 0 0
0 0 0 0 0 0 0 0 0
0 0 0 0 0 0 0 0 0
0 0 0 0 0 0 0 0 0
0 0 0 0 0 0 0 0 0
0 0 0 0 0 0 0 0 0
0 0 0 0 0 0 0 0 0
0 0 0 0 0 0 0 0 0
0 0 0 0 0 0 0 0 0
0 0 0 0 0 0 0 0 0
0 0 0 0 0 0 0 0 0
0 0 0 0 0 0 0 0 0
0 0 0 0 0 0 0 0 0
0 0 0 0 0 0 0 0 0
0 0 0 0 0 0 0 0 0
0 0 0 0 0 0 0 0 0
0 0 0 0 0 0 0 0 0
0 0 0 0 0 0 0 0 0
0 0 0 0 0 0 0 0 0
0 0 0 0 0 0 0 0 0
0 0 0 0 0 0 0 0 0
0 0 0 0 0 0 0 0 0
0 0 0 0 0 0 0 0 0
0 0 0 0 0 0 0 0 0
0 0 0 0 0 0 0 0 0
0 0 0 0 0 0 0 0 0
0 0 0 0 0 0 0 0 0
0 0 0 0 0 0 0 0 0
0 0 0 0 0 0 0 0 0
0 0 0 0 0 0 0 0 0
0 0 0 0 0 0 0 0 0
0 0 0 0 0 0 0 0 0
0 0 0 0 0 0 0 0 0
0 0 0 0 0 0 0 0 0
0 0 0 0 0 0 0 0 0
0 0 0 0 0 0 0 0 0
0 0 0 0 0 0 0 0 0
0 0 0 0 0 0 0 0 0
0 0 0 0 0 0 0 0 0
0 0 0 0 0 0 0 0 0
0 0 0 0 0 0 0 0 0
0 0 0 0 0 0 0 0 0
0 0 0 0 0 0 0 0 0
0 0 0 0 0 0 0 0 0
0 0 0 0 0 0 0 0 0
0 0 0 0 0 0 0 0 0
0 0 0 0 0 0 0 0 0
0 0 0 0 0 0 0 0 0
0 0 0 0 0 0 0 0 0
0 0 0 0 0 0 0 0 0
0 0 0 0 0 0 0 0 0
0 0 0 0 0 0 0 0 0
0 0 0 0 0 0 0 0 0
0 0 0 0 0 0 0 0 0
0 0 0 0 0 0 0 0 0
0 0 0 0 0 0 0 0 0
0 0 0 0 0 0 0 0 0
0 0 0 0 0 0 0 0 0
0 0 0 0 0 0 0 0 0
0 0 0 0 0 0 0 0 0
0 0 0 0 0 0 0 0 0
0 0 0 0 0 0 0 0 0
0 0 0 0 0 0 0 0 0
0 0 0 0 0 0 0 0 0
0 0 0 0 0 0 0 0 0
0 0 0 0 0 0 0 0 0
0 0 0 0 0 0 0 0 0
0 0 0 0 0 0 0 0 0
0 0 0 0 0 0 0 0 0
0 0 0 0 0 0 0 0 0
0 0 0 0 0 0 0 0 0
0 0 0 0 0 0 0 0 0
0 0 0 0 0 0 0 0 0
0 0 0 0 0 0 0 0 0
0 0 0 0 0 0 0 0 0
0 0 0 0 0 0 0 0 0
0 0 0 0 0 0 0 0 0
0 0 0 0 0 0 0 0 0
0 0 0 0 0 0 0 0 0
0 0 0 0 0 0 0 0 0
0 0 0 0 0 0 0 0 0
0 0 0 0 0 0 0 0 0
0 0 0 0 0 0 0 0 0
0 0 0 0 0 0 0 0 0
0 0 0 0 0 0 0 0 0
0 0 0 0 0 0 0 0 0
0 0 0 0 0 0 0 0 0
0 0 0 0 0 0 0 0 0
0 0 0 0 0 0 0 0 0
0 0 0 0 0 0 0 0 0
0 0 0 0 0 0 0 0 0
0 0 0 0 0 0 0 0 0
0 0 0 0 0 0 0 0 0
0 0 0 0 0 0 0 0 0
0 0 0 0 0 0 0 0 0
0 0 0 0 0 0 0 0 0
0 0 0 0 0 0 0 0 0
0 0 0 0 0 0 0 0 0
0 0 0 0 0 0 0 0 0
0 0 0 0 0 0 0 0 0
0 0 0 0 0 0 0 0 0
0 0 0 0 0 0 0 0 0
0 0 0 0 0 0 0 0 0
0 0 0 0 0 0 0 0 0
0 0 0 0 0 0 0 0 0
0 0 0 0 0 0 0 0 0
0 0 0 0 0 0 0 0 0
0 0 0 0 0 0 0 0 0
0 0 0 0 0 0 0 0 0
0 0 0 0 0 0 0 0 0
0 0 0 0 0 0 0 0 0
0 0 0 0 0 0 0 0 0
0 0 0 0 0 0 0 0 0
0 0 0 0 0 0 0 0 0
0 0 0 0 0 0 0 0 0
0 0 0 0 0 0 0 0 0
0 0 0 0 0 0 0 0 0
0 0 0 0 0 0 0 0 0
0 0 0 0 0 0 0 0 0
0 0 0 0 0 0 0 0 0
0 0 0 0 0 0 0 0 0
0 0 0 0 0 0 0 0 0
0 0 0 0 0 0 0 0 0
0 0 0 0 0 0 0 0 0
0 0 0 0 0 0 0 0 0
0 0 0 0 0 0 0 0 0
0 0 0 0 0 0 0 0 0
0 0 0 0 0 0 0 0 0
0 0 0 0 0 0 0 0 0
0 0 0 0 0 0 0 0 0
0 0 0 0 0 0 0 0 0
0 0 0 0 0 0 0 0 0
0 0 0 0 0 0 0 0 0
0 0 0 0 0 0 0 0 0
0 0 0 0 0 0 0 0 0
0 0 0 0 0 0 0 0 0
0 0 0 0 0 0 0 0 0
0 0 0 0 0 0 0 0 0
0 0 0 0 0 0 0 0 0
0 0 0 0 0 0 0 0 0
0 0 0 0 0 0 0 0 0
0 0 0 0 0 0 0 0 0
0 0 0 0 0 0 0 0 0
0 0 0 0 0 0 0 0 0
0 0 0 0 0 0 0 0 0
0 0 0 0 0 0 0 0 0
0 0 0 0 0 0 0 0 0
0 0 0 0 0 0 0 0 0
0 0 0 0 0 0 0 0 0
0 0 0 0 0 0 0 0 0
0 0 0 0 0 0 0 0 0
0 0 0 0 0 0 0 0 0
0 0 0 0 0 0 0 0 0
0 0 0 0 0 0 0 0 0
0 0 0 0 0 0 0 0 0
0 0 0 0 0 0 0 0 0
0 0 0 0 0 0 0 0 0
0 0 0 0 0 0 0 0 0
0 0 0 0 0 0 0 0 0
0 0 0 0 0 0 0 0 0
0 0 0 0 0 0 0 0 0
0 0 0 0 0 0 0 0 0
0 0 0 0 0 0 0 0 0
0 0 0 0 0 0 0 0 0
0 0 0 0 0 0 0 0 0
0 0 0 0 0 0 0 0 0
0 0 0 0 0 0 0 0 0
0 0 0 0 0 0 0 0 0
0 0 0 0 0 0 0 0 0
0 0 0 0 0 0 0 0 0
0 0 0 0 0 0 0 0 0
0 0 0 0 0 0 0 0 0
0 0 0 0 0 0 0 0 0
0 0 0 0 0 0 0 0 0
0 0 0 0 0 0 0 0 0
0 0 0 0 0 0 0 0 0
0 0 0 0 0 0 0 0 0
0 0 0 0 0 0 0 0 0
0 0 0 0 0 0 0 0 0
0 0 0 0 0 0 0 0 0
0 0 0 0 0 0 0 0 0
0 0 0 0 0 0 0 0 0
0 0 0 0 0 0 0 0 0
0 0 0 0 0 0 0 0 0
0 0 0 0 0 0 0 0 0
0 0 0 0 0 0 0 0 0
0 0 0 0 0 0 0 0 0
0 0 0 0 0 0 0 0 0
0 0 0 0 0 0 0 0 0
0 0 0 0 0 0 0 0 0
0 0 0 0 0 0 0 0 0
0 0 0 0 0 0 0 0 0
0 0 0 0 0 0 0 0 0
0 0 0 0 0 0 0 0 0
0 0 0 0 0 0 0 0 0
0 0 0 0 0 0 0 0 0
0 0 0 0 0 0 0 0 0
0 0 0 0 0 0 0 0 0
0 0 0 0 0 0 0 0 0
0 0 0 0 0 0 0 0 0
0 0 0 0 0 0 0 0 0
0 0 0 0 0 0 0 0 0
0 0 0 0 0 0 0 0 0
0 0 0 0 0 0 0 0 0
0 0 0 0 0 0 0 0 0
0 0 0 0 0 0 0 0 0
0 0 0 0 0 0 0 0 0
0 0 0 0 0 0 0 0 0
0 0 0 0 0 0 0 0 0
0 0 0 0 0 0 0 0 0
0 0 0 0 0 0 0 0 0
0 0 0 0 0 0 0 0 0
0 0 0 0 0 0 0 0 0
0 0 0 0 0 0 0 0 0
0 0 0 0 0 0 0 0 0
0 0 0 0 0 0 0 0 0
0 0 0 0 0 0 0 0 0
0 0 0 0 0 0 0 0 0
0 0 0 0 0 0 0 0 0
0 0 0 0 0 0 0 0 0
0 0 0 0 0 0 0 0 0
0 0 0 0 0 0 0 0 0
0 0 0 0 0 0 0 0 0
0 0 0 0 0 0 0 0 0
0 0 0 0 0 0 0 0 0
0 0 0 0 0 0 0 0 0
0 0 0 0 0 0 0 0 0
0 0 0 0 0 0 0 0 0
0 0 0 0 0 0 0 0 0
0 0 0 0 0 0 0 0 0
0 0 0 0 0 0 0 0 0
0 0 0 0 0 0 0 0 0
0 0 0 0 0 0 0 0 0
0 0 0 0 0 0 0 0 0
0 0 0 0 0 0 0 0 0
0 0 0 0 0 0 0 0 0
0 0 0 0 0 0 0 0 0
0 0 0 0 0 0 0 0 0
0 0 0 0 0 0 0 0 0
0 0 0 0 0 0 0 0 0
0 0 0 0 0 0 0 0 0
0 0 0 0 0 0 0 0 0
0 0 0 0 0 0 0 0 0
0 0 0 0 0 0 0 0 0
0 0 0 0 0 0 0 0 0
0 0 0 0 0 0 0 0 0
0 0 0 0 0 0 0 0 0
0 0 0 0 0 0 0 0 0
0 0 0 0 0 0 0 0 0
0 0 0 0 0 0 0 0 0
0 0 0 0 0 0 0 0 0
0 0 0 0 0 0 0 0 0
0 0 0 0 0 0 0 0 0
0 0 0 0 0 0 0 0 0
0 0 0 0 0 0 0 0 0
0 0 0 0 0 0 0 0 0
0 0 0 0 0 0 0 0 0
0 0 0 0 0 0 0 0 0
0 0 0 0 0 0 0 0 0
0 0 0 0 0 0 0 0 0
0 0 0 0 0 0 0 0 0
0 0 0 0 0 0 0 0 0
0 0 0 0 0 0 0 0 0
0 0 0 0 0 0 0 0 0
0 0 0 0 0 0 0 0 0
0 0 0 0 0 0 0 0 0
0 0 0 0 0 0 0 0 0
0 0 0 0 0 0 0 0 0
0 0 0 0 0 0 0 0 0
0 0 0 0 0 0 0 0 0
0 0 0 0 0 0 0 0 0
0 0 0 0 0 0 0 0 0
0 0 0 0 0 0 0 0 0
0 0 0 0 0 0 0 0 0
0 0 0 0 0 0 0 0 0
0 0 0 0 0 0 0 0 0
0 0 0 0 0 0 0 0 0
0 0 0 0 0 0 0 0 0
0 0 0 0 0 0 0 0 0
0 0 0 0 0 0 0 0 0
0 0 0 0 0 0 0 0 0
0 0 0 0 0 0 0 0 0
0 0 0 0 0 0 0 0 0
0 0 0 0 0 0 0 0 0
0 0 0 0 0 0 0 0 0
0 0 0 0 0 0 0 0 0
0 0 0 0 0 0 0 0 0
0 0 0 0 0 0 0 0 0
0 0 0 0 0 0 0 0 0
0 0 0 0 0 0 0 0 0
0 0 0 0 0 0 0 0 0
0 0 0 0 0 0 0 0 0
0 0 0 0 0 0 0 0 0
0 0 0 0 0 0 0 0 0
0 0 0 0 0 0 0 0 0
0 0 0 0 0 0 0 0 0
0 0 0 0 0 0 0 0 0
0 0 0 0 0 0 0 0 0
0 0 0 0 0 0 0 0 0
0 0 0 0 0 0 0 0 0
0 0 0 0 0 0 0 0 0
0 0 0 0 0 0 0 0 0
0 0 0 0 0 0 0 0 0
0 0 0 0 0 0 0 0 0
0 0 0 0 0 0 0 0 0
0 0 0 0 0 0 0 0 0
0 0 0 0 0 0 0 0 0
0 0 0 0 0 0 0 0 0
0 0 0 0 0 0 0 0 0
0 0 0 0 0 0 0 0 0
0 0 0 0 0 0 0 0 0
0 0 0 0 0 0 0 0 0
0 0 0 0 0 0 0 0 0
0 0 0 0 0 0 0 0 0
0 0 0 0 0 0 0 0 0
0 0 0 0 0 0 0 0 0
0 0 0 0 0 0 0 0 0
0 0 0 0 0 0 0 0 0
0.00662646 0.00687421 0.00659332 0.00683713 0.00662646 0.00687421 0.00659332 0.00683713 0
0.00705902 0.00731607 0.00701904 0.00727208 0.00705902 0.00731607 0.00701904 0.00727208 0
0.00750755 0.00777352 0.00746061 0.0077225 0.00750755 0.00777352 0.00746061 0.0077225 0
0.00797142 0.00824598 0.00791739 0.00818781 0.00797142 0.00824598 0.00791739 0.00818781 0
0.00844992 0.00873236 0.00838871 0.00866698 0.00844992 0.00873236 0.00838871 0.00866698 0
0.00894171 0.009231 0.00887323 0.00915824 0.00894171 0.009231 0.00887323 0.00915824 0
0.0066888 0.00694368 0.0066521 0.00690282 0.0066888 0.00694368 0.0066521 0.00690282 0
0.00713374 0.00739801 0.00708982 0.00734987 0.00713374 0.00739801 0.00708982 0.00734987 0
0.00759483 0.00786813 0.00754358 0.00781261 0.00759483 0.00786813 0.00754358 0.00781261 0
0.00807143 0.00835339 0.00801276 0.00829042 0.00807143 0.00835339 0.00801276 0.00829042 0
0.00856279 0.00885275 0.00849664 0.00878221 0.00856279 0.00885275 0.00849664 0.00878221 0
0.00906763 0.00936454 0.00899387 0.00928635 0.00906763 0.00936454 0.00899387 0.00928635 0
0.00675778 0.00702001 0.00671718 0.00697514 0.00675778 0.00702001 0.00671718 0.00697514 0
0.00721549 0.00748726 0.00716748 0.00743489 0.00721549 0.00748726 0.00716748 0.00743489 0
0.00768959 0.00797052 0.00763402 0.00791052 0.00768959 0.00797052 0.00763402 0.00791052 0
0.00817943 0.00846912 0.00811615 0.00840135 0.00817943 0.00846912 0.00811615 0.00840135 0
0.00868424 0.00898209 0.00861313 0.00890638 0.00868424 0.00898209 0.00861313 0.00890638 0
0.00920282 0.00950782 0.0091237 0.00942396 0.00920282 0.00950782 0.0091237 0.00942396 0
0.00973357 0.0100451 0.0096462 0.00995285 0.00973357 0.0100451 0.0096462 0.00995285 0
0.0102748 0.0105907 0.010179 0.0104899 0.0102748 0.0105907 0.010179 0.0104899 0
0.0108251 0.0111495 0.0107208 0.0110406 0.0108251 0.0111495 0.0107208 0.0110406 0
0.00683375 0.00710351 0.00678907 0.00705446 0.00683375 0.00710351 0.00678907 0.00705446 0
0.00730457 0.00758407 0.00725229 0.0075273 0.00730457 0.00758407 0.00725229 0.0075273 0
0.00779212 0.00808093 0.00773203 0.00801626 0.00779212 0.00808093 0.00773203 0.00801626 0
0.00829568 0.00859344 0.0082276 0.00852067 0.00829568 0.00859344 0.0082276 0.00852067 0
0.00881453 0.00912065 0.00873828 0.00903958 0.00881453 0.00912065 0.00873828 0.00903958 0
0.00934752 0.00966106 0.00926287 0.00957143 0.00934752 0.00966106 0.00926287 0.00957143 0
0.0098931 0.0102133 0.0097998 0.010115 0.0098931 0.0102133 0.0097998 0.010115 0
0.0104495 0.0107741 0.0103474 0.0106669 0.0104495 0.0107741 0.0103474 0.0106669 0
0.0110149 0.0113479 0.010904 0.011232 0.0110149 0.0113479 0.010904 0.011232 0
0.00691697 0.00719448 0.00686808 0.00714109 0.00691697 0.00719448 0.00686808 0.00714109 0
0.00740129 0.00768874 0.00734456 0.0076274 0.00740129 0.00768874 0.00734456 0.0076274 0
0.0079027 0.0081997 0.00783792 0.00813016 0.0079027 0.0081997 0.00783792 0.00813016 0
0.00842051 0.00872668 0.00834744 0.00864872 0.00842051 0.00872668 0.00834744 0.00864872 0
0.00895401 0.0092688 0.00887241 0.00918215 0.00895401 0.0092688 0.00887241 0.00918215 0
0.0095021 0.00982457 0.0094117 0.00972897 0.0095021 0.00982457 0.0094117 0.00972897 0
0.0100632 0.0103926 0.00996377 0.0102878 0.0100632 0.0103926 0.00996377 0.0102878 0
0.0106355 0.0109695 0.0105268 0.0108553 0.0106355 0.0109695 0.0105268 0.0108553 0
0.011217 0.0115591 0.0110989 0.0114356 0.011217 0.0115591 0.0110989 0.0114356 0
0.00700768 0.00729316 0.00695444 0.00723529 0.00700768 0.00729316 0.00695444 0.00723529 0
0.00750589 0.00780156 0.00744458 0.00773548 0.00750589 0.00780156 0.00744458 0.00773548 0
0.00802162 0.00832712 0.00795199 0.00825255 0.00802162 0.00832712 0.00795199 0.00825255 0
0.00855424 0.00886918 0.00847599 0.00878583 0.00855424 0.00886918 0.00847599 0.00878583 0
0.00910302 0.00942686 0.00901588 0.00933445 0.00910302 0.00942686 0.00901588 0.00933445 0
0.00966691 0.00999876 0.00957056 0.00989695 0.00966691 0.00999876 0.00957056 0.00989695 0
0.0102444 0.0105834 0.0101385 0.0104719 0.0102444 0.0105834 0.0101385 0.0104719 0
0.0108334 0.0111773 0.0107177 0.0110558 0.0108334 0.0111773 0.0107177 0.0110558 0
0.0114319 0.0117837 0.0113063 0.0116524 0.0114319 0.0117837 0.0113063 0.0116524 0
0.00710603 0.00739974 0.00704836 0.00733729 0.00710603 0.00739974 0.00704836 0.00733729 0
0.00761859 0.00792277 0.00755258 0.00785182 0.00761859 0.00792277 0.00755258 0.00785182 0
0.00814918 0.0084635 0.00807453 0.00838372 0.00814918 0.0084635 0.00807453 0.00838372 0
0.00869718 0.00902125 0.00861358 0.00893233 0.00869718 0.00902125 0.00861358 0.00893233 0
0.00926189 0.00959521 0.00916902 0.00949682 0.00926189 0.00959521 0.00916902 0.00949682 0
0.00984231 0.010184 0.00973981 0.0100758 0.00984231 0.010184 0.00973981 0.0100758 0
0.0104369 0.0107862 0.0103244 0.0106677 0.0104369 0.0107862 0.0103244 0.0106677 0
0.0110437 0.011398 0.0109208 0.011269 0.0110437 0.011398 0.0109208 0.011269 0
0.0116603 0.0120224 0.0115269 0.011883 0.0116603 0.0120224 0.0115269 0.011883 0
0.0122858 0.0126428 0.0121418 0.0124924 0.0122858 0.0126428 0.0121418 0.0124924 0
0.00670327 0.0069948 0.00664933 0.00693617 0.00670327 0.0069948 0.00664933 0.00693617 0
0.00721213 0.00751435 0.00714998 0.00744725 0.00721213 0.00751435 0.00714998 0.00744725 0
0.00773955 0.00805258 0.00766875 0.00797664 0.00773955 0.00805258 0.00766875 0.00797664 0
0.00828558 0.00860908 0.0082058 0.00852396 0.00828558 0.00860908 0.0082058 0.00852396 0
0.00884961 0.0091832 0.0087605 0.00908854 0.00884961 0.0091832 0.0087605 0.00908854 0
0.00943093 0.00977413 0.00933215 0.0096696 0.00943093 0.00977413 0.00933215 0.0096696 0
0.0100287 0.0103808 0.00991979 0.0102658 0.0100287 0.0103808 0.00991979 0.0102658 0
0.0106415 0.0110014 0.010522 0.0108757 0.0106415 0.0110014 0.010522 0.0108757 0
0.011267 0.0116325 0.0111366 0.0114955 0.011267 0.0116325 0.0111366 0.0114955 0
0.0119028 0.0122761 0.0117611 0.0121279 0.0119028 0.0122761 0.0117611 0.0121279 0
0.0125477 0.0129161 0.0123947 0.0127564 0.0125477 0.0129161 0.0123947 0.0127564 0
0.0132054 0.0136294 0.0130414 0.01346 0.0132054 0.0136294 0.0130414 0.01346 0
0.00732628 0.00763723 0.00725943 0.00756532 0.00732628 0.00763723 0.00725943 0.00756532 0
0.00786894 0.00819103 0.00779326 0.0081101 0.00786894 0.00819103 0.00779326 0.0081101 0
0.00843089 0.00876413 0.00834596 0.00867351 0.00843089 0.00876413 0.00834596 0.00867351 0
0.00901185 0.00935539 0.00891703 0.00925478 0.00901185 0.00935539 0.00891703 0.00925478 0
0.00961052 0.009964 0.0095056 0.0098531 0.00961052 0.009964 0.0095056 0.0098531 0
0.0102262 0.0105891 0.0101108 0.0104675 0.0102262 0.0105891 0.0101108 0.0104675 0
0.0108579 0.0112294 0.0107316 0.0110963 0.0108579 0.0112294 0.0107316 0.0110963 0
0.0115036 0.011881 0.0113654 0.0117358 0.0115036 0.011881 0.0113654 0.0117358 0
0.0121602 0.0125455 0.0120098 0.0123881 0.0121602 0.0125455 0.0120098 0.0123881 0
0.012826 0.0132066 0.0126633 0.0130368 0.012826 0.0132066 0.0126633 0.0130368 0
0.013504 0.0139378 0.0133294 0.0137575 0.013504 0.0139378 0.0133294 0.0137575 0
0 0 0 0 0 0 0 0 0
0 0 0 0 0 0 0 0 0
0 0 0 0 0 0 0 0 0
0 0 0 0 0 0 0 0 0
0 0 0 0 0 0 0 0 0
0 0 0 0 0 0 0 0 0
0 0 0 0 0 0 0 0 0
0 0 0 0 0 0 0 0 0
0 0 0 0 0 0 0 0 0
0 0 0 0 0 0 0 0 0
0 0 0 0 0 0 0 0 0
0 0 0 0 0 0 0 0 0
0 0 0 0 0 0 0 0 0
0 0 0 0 0 0 0 0 0
0 0 0 0 0 0 0 0 0
0 0 0 0 0 0 0 0 0
0 0 0 0 0 0 0 0 0
0 0 0 0 0 0 0 0 0
0 0 0 0 0 0 0 0 0
0 0 0 0 0 0 0 0 0
0 0 0 0 0 0 0 0 0
0 0 0 0 0 0 0 0 0
0 0 0 0 0 0 0 0 0
0 0 0 0 0 0 0 0 0
0 0 0 0 0 0 0 0 0
0 0 0 0 0 0 0 0 0
0 0 0 0 0 0 0 0 0
0 0 0 0 0 0 0 0 0
0 0 0 0 0 0 0 0 0
0 0 0 0 0 0 0 0 0
0 0 0 0 0 0 0 0 0
0 0 0 0 0 0 0 0 0
0 0 0 0 0 0 0 0 0
0 0 0 0 0 0 0 0 0
0 0 0 0 0 0 0 0 0
0 0 0 0 0 0 0 0 0
0 0 0 0 0 0 0 0 0
0 0 0 0 0 0 0 0 0
0 0 0 0 0 0 0 0 0
0 0 0 0 0 0 0 0 0
0 0 0 0 0 0 0 0 0
0 0 0 0 0 0 0 0 0
0 0 0 0 0 0 0 0 0
0 0 0 0 0 0 0 0 0
0 0 0 0 0 0 0 0 0
0 0 0 0 0 0 0 0 0
0 0 0 0 0 0 0 0 0
0 0 0 0 0 0 0 0 0
0 0 0 0 0 0 0 0 0
0 0 0 0 0 0 0 0 0
0 0 0 0 0 0 0 0 0
0 0 0 0 0 0 0 0 0
0 0 0 0 0 0 0 0 0
0 0 0 0 0 0 0 0 0
0 0 0 0 0 0 0 0 0
0 0 0 0 0 0 0 0 0
0 0 0 0 0 0 0 0 0
0 0 0 0 0 0 0 0 0
0 0 0 0 0 0 0 0 0
0 0 0 0 0 0 0 0 0
0 0 0 0 0 0 0 0 0
0 0 0 0 0 0 0 0 0
0 0 0 0 0 0 0 0 0
0 0 0 0 0 0 0 0 0
0 0 0 0 0 0 0 0 0
0 0 0 0 0 0 0 0 0
0 0 0 0 0 0 0 0 0
0 0 0 0 0 0 0 0 0
0 0 0 0 0 0 0 0 0
0 0 0 0 0 0 0 0 0
0 0 0 0 0 0 0 0 0
0 0 0 0 0 0 0 0 0
0 0 0 0 0 0 0 0 0
0 0 0 0 0 0 0 0 0
0 0 0 0 0 0 0 0 0
0 0 0 0 0 0 0 0 0
0 0 0 0 0 0 0 0 0
0 0 0 0 0 0 0 0 0
0 0 0 0 0 0 0 0 0
0 0 0 0 0 0 0 0 0
0 0 0 0 0 0 0 0 0
0.00570851 0.00590387 0.00565206 0.00584191 0.00570851 0.00590387 0.00565206 0.00584191 0
0.00604785 0.00624573 0.00598182 0.00617411 0.00604785 0.00624573 0.00598182 0.00617411 0
0.00639106 0.00659007 0.00631527 0.00650853 0.00639106 0.00659007 0.00631527 0.00650853 0
0.0067357 0.00693439 0.00664991 0.00684272 0.0067357 0.00693439 0.00664991 0.00684272 0
0.00707915 0.00727574 0.00698317 0.00717386 0.00707915 0.00727574 0.00698317 0.00717386 0
0.0074183 0.00761093 0.00731209 0.00749881 0.0074183 0.00761093 0.00731209 0.00749881 0
0.00581137 0.00601656 0.00575125 0.00595072 0.00581137 0.00601656 0.00575125 0.00595072 0
0.0061678 0.00637571 0.00609773 0.0062998 0.0061678 0.00637571 0.00609773 0.0062998 0
0.00652844 0.00673766 0.00644823 0.00665152 0.00652844 0.00673766 0.00644823 0.00665152 0
0.00689082 0.00709988 0.00680031 0.00700336 0.00689082 0.00709988 0.00680031 0.00700336 0
0.00725229 0.00745941 0.00715132 0.00735231 0.00725229 0.00745941 0.00715132 0.00735231 0
0.00760968 0.00781287 0.0074981 0.00769515 0.00760968 0.00781287 0.0074981 0.00769515 0
0.00592102 0.00613618 0.0058569 0.0060663 0.00592102 0.00613618 0.0058569 0.0060663 0
0.00629481 0.00651295 0.00622066 0.00643287 0.00629481 0.00651295 0.00622066 0.00643287 0
0.00667325 0.00689295 0.00658879 0.00680241 0.00667325 0.00689295 0.00658879 0.00680241 0
0.00705386 0.00727363 0.00695882 0.00717236 0.00705386 0.00727363 0.00695882 0.00717236 0
0.00743396 0.00765204 0.00732808 0.00753979 0.00743396 0.00765204 0.00732808 0.00753979 0
0.00781037 0.00802466 0.00769342 0.00790123 0.00781037 0.00802466 0.00769342 0.00790123 0
0.00817947 0.00838785 0.00805131 0.00825322 0.00817947 0.00838785 0.00805131 0.00825322 0
0.0085373 0.00873689 0.00839799 0.00859127 0.0085373 0.00873689 0.00839799 0.00859127 0
0.00887953 0.00906923 0.00872949 0.00891342 0.00887953 0.00906923 0.00872949 0.00891342 0
0.0060377 0.0062629 0.0059695 0.00618891 0.0060377 0.0062629 0.0059695 0.00618891 0
0.00642901 0.00665754 0.00635069 0.0065732 0.00642901 0.00665754 0.00635069 0.0065732 0
0.00682557 0.00705599 0.00673675 0.00696096 0.00682557 0.00705599 0.00673675 0.00696096 0
0.00722487 0.00745569 0.00712521 0.00734961 0.00722487 0.00745569 0.00712521 0.00734961 0
0.00762421 0.00785364 0.00751337 0.0077362 0.00762421 0.00785364 0.00751337 0.0077362 0
0.00802035 0.0082462 0.00789804 0.00811716 0.00802035 0.0082462 0.00789804 0.00811716 0
0.00840945 0.00862935 0.0082755 0.0084887 0.00840945 0.00862935 0.0082755 0.0084887 0
0.00878713 0.00899799 0.00864164 0.00884594 0.00878713 0.00899799 0.00864164 0.00884594 0
0.00914864 0.00934898 0.00899191 0.00918601 0.00914864 0.00934898 0.00899191 0.00918601 0
0.0061616 0.00639691 0.00608921 0.00631868 0.0061616 0.00639691 0.00608921 0.00631868 0
0.00657058 0.00680965 0.00648798 0.00672095 0.00657058 0.00680965 0.00648798 0.00672095 0
0.00698554 0.00722692 0.00689228 0.00712731 0.00698554 0.00722692 0.00689228 0.00712731 0
0.00740397 0.00764616 0.00729962 0.00753521 0.00740397 0.00764616 0.00729962 0.00753521 0
0.00782314 0.0080643 0.00770728 0.00794162 0.00782314 0.0080643 0.00770728 0.00794162 0
0.0082397 0.00847754 0.00811196 0.00834283 0.0082397 0.00847754 0.00811196 0.00834283 0
0.00864958 0.00888153 0.00850975 0.00873468 0.00864958 0.00888153 0.00850975 0.00873468 0
0.00904808 0.00927084 0.00889611 0.00911192 0.00904808 0.00927084 0.00889611 0.00911192 0
0.00943002 0.00964177 0.0092661 0.00947117 0.00943002 0.00964177 0.0092661 0.00947117 0
0.00629289 0.00653838 0.00621622 0.00645583 0.00629289 0.00653838 0.00621622 0.00645583 0
0.00671967 0.00696941 0.0066327 0.00687627 0.00671967 0.00696941 0.0066327 0.00687627 0
0.0071533 0.00740587 0.00705553 0.00730161 0.0071533 0.00740587 0.00705553 0.00730161 0
0.00759129 0.00784517 0.00748217 0.00772928 0.00759129 0.00784517 0.00748217 0.00772928 0
0.00803085 0.00828414 0.0079099 0.00815614 0.00803085 0.00828414 0.0079099 0.00815614 0
0.00846854 0.00871885 0.00833531 0.00857836 0.00846854 0.00871885 0.00833531 0.00857836 0
0.00890009 0.00914469 0.00875424 0.00899147 0.00890009 0.00914469 0.00875424 0.00899147 0
0.00932049 0.00955588 0.00916186 0.00938988 0.00932049 0.00955588 0.00916186 0.00938988 0
0.00972411 0.00994801 0.00955281 0.00976961 0.00972411 0.00994801 0.00955281 0.00976961 0
0.00643173 0.00668743 0.00635068 0.00660048 0.00643173 0.00668743 0.00635068 0.00660048 0
0.00687642 0.00713698 0.00678501 0.00703931 0.00687642 0.00713698 0.00678501 0.00703931 0
0.007329 0.00759299 0.00722662 0.007484 0.007329 0.00759299 0.00722662 0.007484 0
0.00778697 0.00805284 0.00767301 0.00793192 0.00778697 0.00805284 0.00767301 0.00793192 0
0.00824749 0.00851329 0.00812137 0.0083799 0.00824749 0.00851329 0.00812137 0.0083799 0
0.00870702 0.00897033 0.0085682 0.00882395 0.00870702 0.00897033 0.0085682 0.00882395 0
0.00916118 0.00941908 0.00900919 0.00925934 0.00916118 0.00941908 0.00900919 0.00925934 0
0.00960463 0.0098534 0.0094392 0.00968015 0.00960463 0.0098534 0.0094392 0.00968015 0
0.0100313 0.0102683 0.00985239 0.0100817 0.0100313 0.0102683 0.00985239 0.0100817 0
0.0104347 0.0106521 0.0102426 0.0104526 0.0104347 0.0106521 0.0102426 0.0104526 0
0.00612527 0.00638525 0.00604973 0.00630426 0.00612527 0.00638525 0.00604973 0.00630426 0
0.00657786 0.00684408 0.00649264 0.00675274 0.00657786 0.00684408 0.00649264 0.00675274 0
0.00704093 0.00731247 0.00694503 0.00721021 0.00704093 0.00731247 0.00694503 0.00721021 0
0.00751277 0.00778841 0.00740572 0.00767461 0.00751277 0.00778841 0.00740572 0.00767461 0
0.00799115 0.0082693 0.00787226 0.00814329 0.00799115 0.0082693 0.00787226 0.00814329 0
0.00847317 0.00875186 0.00834181 0.00861302 0.00847317 0.00875186 0.00834181 0.00861302 0
0.00895526 0.00923212 0.00881079 0.00907976 0.00895526 0.00923212 0.00881079 0.00907976 0
0.00943305 0.00970495 0.00927481 0.00953855 0.00943305 0.00970495 0.00927481 0.00953855 0
0.00990081 0.0101638 0.00972839 0.00998306 0.00990081 0.0101638 0.00972839 0.00998306 0
0.0103519 0.0106028 0.0101652 0.0104079 0.0103519 0.0106028 0.0101652 0.0104079 0
0.0107792 0.01101 0.0105785 0.0108015 0.0107792 0.01101 0.0105785 0.0108015 0
0.0111794 0.0114118 0.0109657 0.0111919 0.0111794 0.0114118 0.0109657 0.0111919 0
0.00673208 0.00700862 0.00664205 0.00691268 0.00673208 0.00700862 0.00664205 0.00691268 0
0.0072133 0.00749591 0.00711285 0.00738907 0.0072133 0.00749591 0.00711285 0.00738907 0
0.00770467 0.00799234 0.00759292 0.0078736 0.00770467 0.00799234 0.00759292 0.0078736 0
0.0082041 0.00849488 0.00808011 0.00836356 0.0082041 0.00849488 0.00808011 0.00836356 0
0.00870821 0.00900016 0.0085714 0.00885565 0.00870821 0.00900016 0.0085714 0.00885565 0
0.00921354 0.00950444 0.00906324 0.00934597 0.00921354 0.00950444 0.00906324 0.00934597 0
0.00971587 0.0100024 0.00955129 0.00982931 0.00971587 0.0100024 0.00955129 0.00982931 0
0.0102092 0.0104872 0.0100297 0.0102989 0.0102092 0.0104872 0.0100297 0.0102989 0
0.0106864 0.0109523 0.0104916 0.0107487 0.0106864 0.0109523 0.0104916 0.0107487 0
0.0111396 0.011385 0.0109296 0.0111664 0.0111396 0.011385 0.0109296 0.0111664 0
0.0115639 0.0118079 0.0113397 0.011577 0.0115639 0.0118079 0.0113397 0.011577 0
0 0 0 0 0 0 0 0 0
0 0 0 0 0 0 0 0 0
0 0 0 0 0 0 0 0 0
0 0 0 0 0 0 0 0 0
0 0 0 0 0 0 0 0 0
0 0 0 0 0 0 0 0 0
0 0 0 0 0 0 0 0 0
0 0 0 0 0 0 0 0 0
0 0 0 0 0 0 0 0 0
0 0 0 0 0 0 0 0 0
0 0 0 0 0 0 0 0 0
0 0 0 0 0 0 0 0 0
0 0 0 0 0 0 0 0 0
0 0 0 0 0 0 0 0 0
0 0 0 0 0 0 0 0 0
0 0 0 0 0 0 0 0 0
0 0 0 0 0 0 0 0 0
0 0 0 0 0 0 0 0 0
0 0 0 0 0 0 0 0 0
0 0 0 0 0 0 0 0 0
0 0 0 0 0 0 0 0 0
0 0 0 0 0 0 0 0 0
0 0 0 0 0 0 0 0 0
0 0 0 0 0 0 0 0 0
0 0 0 0 0 0 0 0 0
0 0 0 0 0 0 0 0 0
0 0 0 0 0 0 0 0 0
0 0 0 0 0 0 0 0 0
0 0 0 0 0 0 0 0 0
0 0 0 0 0 0 0 0 0
0 0 0 0 0 0 0 0 0
0 0 0 0 0 0 0 0 0
0 0 0 0 0 0 0 0 0
0 0 0 0 0 0 0 0 0
0 0 0 0 0 0 0 0 0
0 0 0 0 0 0 0 0 0
0 0 0 0 0 0 0 0 0
0 0 0 0 0 0 0 0 0
0 0 0 0 0 0 0 0 0
0 0 0 0 0 0 0 0 0
0 0 0 0 0 0 0 0 0
0 0 0 0 0 0 0 0 0
0 0 0 0 0 0 0 0 0
0 0 0 0 0 0 0 0 0
0 0 0 0 0 0 0 0 0
0 0 0 0 0 0 0 0 0
0 0 0 0 0 0 0 0 0
0 0 0 0 0 0 0 0 0
0 0 0 0 0 0 0 0 0
0 0 0 0 0 0 0 0 0
0 0 0 0 0 0 0 0 0
0 0 0 0 0 0 0 0 0
0 0 0 0 0 0 0 0 0
0 0 0 0 0 0 0 0 0
0 0 0 0 0 0 0 0 0
0 0 0 0 0 0 0 0 0
0 0 0 0 0 0 0 0 0
0 0 0 0 0 0 0 0 0
0 0 0 0 0 0 0 0 0
0 0 0 0 0 0 0 0 0
0 0 0 0 0 0 0 0 0
0 0 0 0 0 0 0 0 0
0 0 0 0 0 0 0 0 0
0 0 0 0 0 0 0 0 0
0 0 0 0 0 0 0 0 0
0 0 0 0 0 0 0 0 0
0 0 0 0 0 0 0 0 0
0 0 0 0 0 0 0 0 0
0 0 0 0 0 0 0 0 0
0 0 0 0 0 0 0 0 0
0 0 0 0 0 0 0 0 0
0 0 0 0 0 0 0 0 0
0 0 0 0 0 0 0 0 0
0 0 0 0 0 0 0 0 0
0 0 0 0 0 0 0 0 0
0 0 0 0 0 0 0 0 0
0 0 0 0 0 0 0 0 0
0 0 0 0 0 0 0 0 0
0 0 0 0 0 0 0 0 0
0 0 0 0 0 0 0 0 0
0 0 0 0 0 0 0 0 0
0 0 0 0 0 0 0 0 0
0 0 0 0 0 0 0 0 0
0 0 0 0 0 0 0 0 0
0 0 0 0 0 0 0 0 0
0 0 0 0 0 0 0 0 0
0 0 0 0 0 0 0 0 0
0 0 0 0 0 0 0 0 0
0 0 0 0 0 0 0 0 0
0 0 0 0 0 0 0 0 0
0 0 0 0 0 0 0 0 0
0 0 0 0 0 0 0 0 0
0 0 0 0 0 0 0 0 0
0 0 0 0 0 0 0 0 0
0 0 0 0 0 0 0 0 0
0 0 0 0 0 0 0 0 0
0 0 0 0 0 0 0 0 0
0 0 0 0 0 0 0 0 0
0 0 0 0 0 0 0 0 0
0 0 0 0 0 0 0 0 0
0 0 0 0 0 0 0 0 0
0 0 0 0 0 0 0 0 0
0 0 0 0 0 0 0 0 0
0 0 0 0 0 0 0 0 0
0 0 0 0 0 0 0 0 0
0 0 0 0 0 0 0 0 0
0 0 0 0 0 0 0 0 0
0 0 0 0 0 0 0 0 0
0 0 0 0 0 0 0 0 0
0 0 0 0 0 0 0 0 0
0 0 0 0 0 0 0 0 0
0 0 0 0 0 0 0 0 0
0 0 0 0 0 0 0 0 0
0 0 0 0 0 0 0 0 0
0 0 0 0 0 0 0 0 0
0 0 0 0 0 0 0 0 0
0 0 0 0 0 0 0 0 0
0 0 0 0 0 0 0 0 0
0 0 0 0 0 0 0 0 0
0 0 0 0 0 0 0 0 0
0 0 0 0 0 0 0 0 0
0 0 0 0 0 0 0 0 0
0 0 0 0 0 0 0 0 0
0 0 0 0 0 0 0 0 0
0 0 0 0 0 0 0 0 0
0 0 0 0 0 0 0 0 0
0 0 0 0 0 0 0 0 0
0 0 0 0 0 0 0 0 0
0 0 0 0 0 0 0 0 0
0 0 0 0 0 0 0 0 0
0 0 0 0 0 0 0 0 0
0 0 0 0 0 0 0 0 0
0 0 0 0 0 0 0 0 0
0 0 0 0 0 0 0 0 0
0 0 0 0 0 0 0 0 0
0 0 0 0 0 0 0 0 0
0 0 0 0 0 0 0 0 0
0 0 0 0 0 0 0 0 0
0 0 0 0 0 0 0 0 0
0 0 0 0 0 0 0 0 0
0 0 0 0 0 0 0 0 0
0 0 0 0 0 0 0 0 0
0 0 0 0 0 0 0 0 0
0 0 0 0 0 0 0 0 0
0 0 0 0 0 0 0 0 0
0 0 0 0 0 0 0 0 0
0 0 0 0 0 0 0 0 0
0 0 0 0 0 0 0 0 0
0 0 0 0 0 0 0 0 0
0 0 0 0 0 0 0 0 0
0 0 0 0 0 0 0 0 0
0 0 0 0 0 0 0 0 0
0 0 0 0 0 0 0 0 0
0 0 0 0 0 0 0 0 0
0 0 0 0 0 0 0 0 0
0 0 0 0 0 0 0 0 0
0 0 0 0 0 0 0 0 0
0 0 0 0 0 0 0 0 0
0 0 0 0 0 0 0 0 0
0 0 0 0 0 0 0 0 0
0 0 0 0 0 0 0 0 0
0 0 0 0 0 0 0 0 0
0 0 0 0 0 0 0 0 0
0 0 0 0 0 0 0 0 0
0 0 0 0 0 0 0 0 0
0 0 0 0 0 0 0 0 0
0 0 0 0 0 0 0 0 0
0 0 0 0 0 0 0 0 0
0 0 0 0 0 0 0 0 0
0 0 0 0 0 0 0 0 0
0 0 0 0 0 0 0 0 0
0 0 0 0 0 0 0 0 0
0 0 0 0 0 0 0 0 0
0 0 0 0 0 0 0 0 0
0 0 0 0 0 0 0 0 0
0 0 0 0 0 0 0 0 0
0 0 0 0 0 0 0 0 0
0 0 0 0 0 0 0 0 0
0 0 0 0 0 0 0 0 0
0 0 0 0 0 0 0 0 0
0 0 0 0 0 0 0 0 0
0 0 0 0 0 0 0 0 0
0 0 0 0 0 0 0 0 0
0 0 0 0 0 0 0 0 0
0 0 0 0 0 0 0 0 0
0 0 0 0 0 0 0 0 0
0 0 0 0 0 0 0 0 0
0 0 0 0 0 0 0 0 0
0 0 0 0 0 0 0 0 0
0 0 0 0 0 0 0 0 0
0 0 0 0 0 0 0 0 0
0 0 0 0 0 0 0 0 0
0 0 0 0 0 0 0 0 0
0 0 0 0 0 0 0 0 0
0 0 0 0 0 0 0 0 0
0 0 0 0 0 0 0 0 0
0 0 0 0 0 0 0 0 0
0 0 0 0 0 0 0 0 0
0 0 0 0 0 0 0 0 0
0 0 0 0 0 0 0 0 0
0 0 0 0 0 0 0 0 0
0 0 0 0 0 0 0 0 0
0 0 0 0 0 0 0 0 0
0 0 0 0 0 0 0 0 0
0 0 0 0 0 0 0 0 0
0 0 0 0 0 0 0 0 0
0 0 0 0 0 0 0 0 0
0 0 0 0 0 0 0 0 0
0 0 0 0 0 0 0 0 0
0 0 0 0 0 0 0 0 0
0 0 0 0 0 0 0 0 0
0 0 0 0 0 0 0 0 0
0 0 0 0 0 0 0 0 0
0 0 0 0 0 0 0 0 0
0 0 0 0 0 0 0 0 0
0 0 0 0 0 0 0 0 0
0 0 0 0 0 0 0 0 0
0 0 0 0 0 0 0 0 0
0 0 0 0 0 0 0 0 0
0 0 0 0 0 0 0 0 0
0 0 0 0 0 0 0 0 0
0 0 0 0 0 0 0 0 0
0 0 0 0 0 0 0 0 0
0 0 0 0 0 0 0 0 0
0 0 0 0 0 0 0 0 0
0 0 0 0 0 0 0 0 0
0 0 0 0 0 0 0 0 0
0 0 0 0 0 0 0 0 0
0 0 0 0 0 0 0 0 0
0 0 0 0 0 0 0 0 0
0 0 0 0 0 0 0 0 0
0 0 0 0 0 0 0 0 0
0 0 0 0 0 0 0 0 0
0 0 0 0 0 0 0 0 0
0 0 0 0 0 0 0 0 0
0 0 0 0 0 0 0 0 0
0 0 0 0 0 0 0 0 0
0 0 0 0 0 0 0 0 0
0 0 0 0 0 0 0 0 0
0 0 0 0 0 0 0 0 0
0 0 0 0 0 0 0 0 0
0 0 0 0 0 0 0 0 0
0 0 0 0 0 0 0 0 0
0 0 0 0 0 0 0 0 0
0 0 0 0 0 0 0 0 0
0 0 0 0 0 0 0 0 0
0 0 0 0 0 0 0 0 0
0 0 0 0 0 0 0 0 0
0 0 0 0 0 0 0 0 0
0 0 0 0 0 0 0 0 0
0 0 0 0 0 0 0 0 0
0 0 0 0 0 0 0 0 0
0 0 0 0 0 0 0 0 0
0 0 0 0 0 0 0 0 0
0 0 0 0 0 0 0 0 0
0 0 0 0 0 0 0 0 0
0 0 0 0 0 0 0 0 0
0 0 0 0 0 0 0 0 0
0 0 0 0 0 0 0 0 0
0 0 0 0 0 0 0 0 0
0 0 0 0 0 0 0 0 0
0 0 0 0 0 0 0 0 0
0 0 0 0 0 0 0 0 0
0 0 0 0 0 0 0 0 0
0 0 0 0 0 0 0 0 0
0 0 0 0 0 0 0 0 0
0 0 0 0 0 0 0 0 0
0 0 0 0 0 0 0 0 0
0 0 0 0 0 0 0 0 0
0 0 0 0 0 0 0 0 0
0 0 0 0 0 0 0 0 0
0 0 0 0 0 0 0 0 0
0 0 0 0 0 0 0 0 0
0 0 0 0 0 0 0 0 0
0 0 0 0 0 0 0 0 0
0 0 0 0 0 0 0 0 0
0 0 0 0 0 0 0 0 0
0 0 0 0 0 0 0 0 0
0 0 0 0 0 0 0 0 0
0 0 0 0 0 0 0 0 0
0 0 0 0 0 0 0 0 0
0 0 0 0 0 0 0 0 0
0 0 0 0 0 0 0 0 0
0 0 0 0 0 0 0 0 0
0 0 0 0 0 0 0 0 0
0 0 0 0 0 0 0 0 0
0 0 0 0 0 0 0 0 0
0 0 0 0 0 0 0 0 0
0 0 0 0 0 0 0 0 0
0 0 0 0 0 0 0 0 0
0 0 0 0 0 0 0 0 0
0 0 0 0 0 0 0 0 0
0 0 0 0 0 0 0 0 0
0 0 0 0 0 0 0 0 0
0 0 0 0 0 0 0 0 0
0 0 0 0 0 0 0 0 0
0 0 0 0 0 0 0 0 0
0 0 0 0 0 0 0 0 0
0 0 0 0 0 0 0 0 0
0 0 0 0 0 0 0 0 0
0 0 0 0 0 0 0 0 0
0 0 0 0 0 0 0 0 0
0 0 0 0 0 0 0 0 0
0 0 0 0 0 0 0 0 0
0 0 0 0 0 0 0 0 0
0 0 0 0 0 0 0 0 0
0 0 0 0 0 0 0 0 0
0 0 0 0 0 0 0 0 0
0 0 0 0 0 0 0 0 0
0 0 0 0 0 0 0 0 0
0 0 0 0 0 0 0 0 0
0 0 0 0 0 0 0 0 0
0 0 0 0 0 0 0 0 0
0 0 0 0 0 0 0 0 0
0 0 0 0 0 0 0 0 0
0 0 0 0 0 0 0 0 0
0 0 0 0 0 0 0 0 0
0 0 0 0 0 0 0 0 0
0 0 0 0 0 0 0 0 0
0 0 0 0 0 0 0 0 0
0 0 0 0 0 0 0 0 0
0 0 0 0 0 0 0 0 0
0 0 0 0 0 0 0 0 0
0 0 0 0 0 0 0 0 0
0 0 0 0 0 0 0 0 0
0 0 0 0 0 0 0 0 0
0 0 0 0 0 0 0 0 0
0 0 0 0 0 0 0 0 0
0 0 0 0 0 0 0 0 0
0 0 0 0 0 0 0 0 0
0 0 0 0 0 0 0 0 0
0 0 0 0 0 0 0 0 0
0 0 0 0 0 0 0 0 0
0 0 0 0 0 0 0 0 0
0 0 0 0 0 0 0 0 0
0 0 0 0 0 0 0 0 0
0 0 0 0 0 0 0 0 0
0 0 0 0 0 0 0 0 0
0 0 0 0 0 0 0 0 0
0 0 0 0 0 0 0 0 0
0 0 0 0 0 0 0 0 0
0 0 0 0 0 0 0 0 0
0 0 0 0 0 0 0 0 0
0 0 0 0 0 0 0 0 0
0 0 0 0 0 0 0 0 0
0 0 0 0 0 0 0 0 0
0 0 0 0 0 0 0 0 0
0 0 0 0 0 0 0 0 0
0 0 0 0 0 0 0 0 0
0 0 0 0 0 0 0 0 0
0 0 0 0 0 0 0 0 0
0 0 0 0 0 0 0 0 0
0 0 0 0 0 0 0 0 0
0 0 0 0 0 0 0 0 0
0 0 0 0 0 0 0 0 0
0 0 0 0 0 0 0 0 0
0 0 0 0 0 0 0 0 0
0 0 0 0 0 0 0 0 0
0 0 0 0 0 0 0 0 0
0 0 0 0 0 0 0 0 0
0 0 0 0 0 0 0 0 0
0 0 0 0 0 0 0 0 0
0 0 0 0 0 0 0 0 0
0 0 0 0 0 0 0 0 0
0 0 0 0 0 0 0 0 0
0 0 0 0 0 0 0 0 0
0 0 0 0 0 0 0 0 0
0 0 0 0 0 0 0 0 0
0 0 0 0 0 0 0 0 0
0 0 0 0 0 0 0 0 0
0 0 0 0 0 0 0 0 0
0 0 0 0 0 0 0 0 0
0 0 0 0 0 0 0 0 0
0 0 0 0 0 0 0 0 0
0 0 0 0 0 0 0 0 0
0 0 0 0 0 0 0 0 0
0 0 0 0 0 0 0 0 0
0 0 0 0 0 0 0 0 0
0 0 0 0 0 0 0 0 0
0 0 0 0 0 0 0 0 0
0 0 0 0 0 0 0 0 0
0 0 0 0 0 0 0 0 0
0 0 0 0 0 0 0 0 0
0 0 0 0 0 0 0 0 0
0 0 0 0 0 0 0 0 0
0 0 0 0 0 0 0 0 0
0 0 0 0 0 0 0 0 0
0 0 0 0 0 0 0 0 0
0 0 0 0 0 0 0 0 0
0 0 0 0 0 0 0 0 0
0 0 0 0 0 0 0 0 0
0 0 0 0 0 0 0 0 0
0 0 0 0 0 0 0 0 0
0 0 0 0 0 0 0 0 0
0 0 0 0 0 0 0 0 0
0 0 0 0 0 0 0 0 0
0 0 0 0 0 0 0 0 0
0 0 0 0 0 0 0 0 0
0 0 0 0 0 0 0 0 0
0 0 0 0 0 0 0 0 0
0 0 0 0 0 0 0 0 0
0 0 0 0 0 0 0 0 0
0 0 0 0 0 0 0 0 0
0 0 0 0 0 0 0 0 0
0 0 0 0 0 0 0 0 0
SCALARS F_MT double 1
LOOKUP_TABLE default
0
0
0
0
0
0
0
0
0
0
0
0
0
0
0
0
0
0
0
0
0
0
0
0
0
0
0
0
0
0
0
0
0
0
0
0
0
0
0
0
0
0
0
0
0
0
0
0
0
0
0
0
0
0
0
0
0
0
0
0
0
0
0
0
0
0
0
0
0
0
0
0
0
0
0
0
0
0
0
0
0
0
0
0
0
0
0
0
0
0
0
0
0
0
0
0
0
0
0
0
0
0
0
0
0
0
0
0
0
0
0
0
0
0
0
0
0
0
0
0
0
0
0
0
0
0
0
0
0
0
0
0
0
0
0
0
0
0
0
0
0
0
0
0
0
0
0
0
0
0
0
0
0
0
0
0
0
0
0
0
0
0
0
0
0
0
0
0
0
0
0
0
0
0
0
0
0
0
0
0
0
0
0
0
0
0
0
0
0
0
0
0
0
0
0
0
0
0
0
0
0
0
0
0
0
0
0
0
0
0
0
0
0
0
0
0
0
0
0
0
0
0
0
0
0
0
0
0
0
0
0
0
0
0
0
0
0
0
0
0
0
0
0
0
0
0
0
0
0
0
0
0
0
0
0
0
0
0
0
0
0
0
0
0
0
0
0
0
0
0
0
0
0
0
0
0
0
0
0
0
0
0
0
0
0
0
0
0
0
0
0
0
0
0
0
0
0
0
0
0
0
0
0
0
0
0
0
0
0
0
0
0
0
0
0
0
0
0
0
0
0
0
0
0
0
0
0
0
0
0
0
0
0
0
0
0
0
0
0
0
0
0
0
0
0
0
0
0
0
0
0
0
0
0
0
0
0
0
0
0
0
0
0
0
0
0
0
0
0
0
0
0
0
0
0
0
0
0
0
0
0
0
0
0
0
0
0
0
0
0
0
0
0
0
0
0
0
0
0
0
0
0
0
0
0
0
0
0
0
0
0
0
0
0
0
0
0
0
0
0
0
0
0
0
0
0
0
0
0
0
0
0
0
0
0
0
0
0
0
0
0
0
0
0
0
0
0
0
0
0
0
0
0
0
0
0
0
0
0
0
0
0
0
0
0
0
0
0
0
0
0
0
0
0
0
0
0
0
0
0
0
0
0
0
0
0
3.49827e-05
3.43025e-05
3.39887e-05
3.41398e-05
3.48659e-05
3.62967e-05
3.58096e-05
3.46737e-05
3.38554e-05
3.34455e-05
3.35542e-05
3.43031e-05
3.68836e-05
3.52975e-05
3.39875e-05
3.30362e-05
3.25459e-05
3.26425e-05
3.34663e-05
3.5166e-05
3.79679e-05
3.82331e-05
3.62114e-05
3.4425e-05
3.29489e-05
3.18785e-05
3.13258e-05
3.14229e-05
3.23264e-05
3.42289e-05
3.98887e-05
3.74494e-05
3.52054e-05
3.32256e-05
3.15982e-05
3.04273e-05
2.9835e-05
2.99662e-05
3.09996e-05
4.18823e-05
3.90467e-05
3.63681e-05
3.39094e-05
3.1753e-05
2.99952e-05
2.87484e-05
2.81454e-05
2.83495e-05
4.42472e-05
4.10402e-05
3.79537e-05
3.50457e-05
3.2393e-05
3.00848e-05
2.82243e-05
2.69325e-05
2.63554e-05
2.66744e-05
5.05879e-05
4.70162e-05
4.3468e-05
4.00047e-05
3.66815e-05
3.357e-05
3.07534e-05
2.83263e-05
2.63983e-05
2.50992e-05
2.45901e-05
2.50875e-05
5.02248e-05
4.63761e-05
4.25683e-05
3.88665e-05
3.53384e-05
3.20619e-05
2.91213e-05
2.66148e-05
2.46601e-05
2.33958e-05
2.30149e-05
0
0
0
0
0
0
0
0
0
0
0
0
0
0
0
0
0
0
0
0
0
0
0
0
0
0
0
0
0
0
0
0
0
0
0
0
0
0
0
0
0
0
0
0
0
0
0
0
0
0
0
0
0
0
0
0
0
0
0
0
0
0
0
0
0
0
0
0
0
0
0
0
0
0
0
0
0
0
0
0
0
0
0
0
0
0
0
0
0
0
0
0
0
0
0
0
0
0
0
0
0
0
0
0
0
0
0
0
0
0
0
0
0
0
0
0
0
0
0
0
0
0
0
0
0
0
0
0
0
0
0
0
0
0
0
0
0
0
0
0
0
0
0
0
0
0
0
0
0
0
0
0
0
0
0
0
0
0
0
0
0
0
0
0
0
0
0
0
0
0
0
0
0
0
0
0
0
0
0
0
0
0
0
0
0
0
0
0
0
0
0
0
0
0
0
0
0
0
0
0
0
0
0
0
0
0
0
0
0
0
0
0
0
0
0
0
0
0
0
0
0
0
0
0
0
0
0
0
0
0
0
0
0
0
0
0
0
0
0
0
0
0
0
0
0
0
0
0
0
0
0
0
0
0
0
0
0
0
0
0
0
0
0
0
0
0
0
0
0
0
0
0
0
0
0
0
0
0
0
0
0
0
0
0
0
0
0
0
0
0
0
0
0
0
0
0
0
0
0
0
0
0
0
0
0
0
0
0
0
0
0
0
0
0
0
0
0
0
0
0
0
0
0
0
0
0
0
0
0
0
0
0
0
0
0
0
0
0
0
0
0
0
0
0
0
0
0
0
0
0
0
0
0
0
0
0
0
0
0
0
0
0
0
0
0
0
0
0
0
0
0
0
0
0
0
0
0
0
0
0
0
0
0
0
0
0
0
0
0
0
0
0
0
0
0
0
0
0
0
0
0
0
0
0
0
0
0
0
0
0
0
0
0
0
0
0
0
0
0
0
0
0
0
0
0
0
0
0
0
0
0
0
0
0
0
0
0
0
0
0
0
0
0
0
0
0
0
0
0
0
0
0
0
0
0
0
0
0
0
0
0
0
0
0
0
0
0
0
0
0
0
0
0
0
0
0
0
0
0
0
0
0
0
0
0
0
0
0
0
0
0
0
0
0
0
0
0
0
0
0
0
0
0
0
0
0
0
0
0
0
0
0
0
0
0
0
0
0
0
0
0
0
0
0
0
0
0
0
0
0
0
0
0
0
0
0
0
0
0
0
0
0
0
0
0
0
0
0
0
0
0
0
0
0
0
0
0
0
0
0
0
0
0
0
0
0
0
0
0
0
0
0
0
0
0
0
0
0
0
0
0
0
0
0
0
0
0
0
0
0
0
0
0
0
0
0
0
0
0
0
0
0
0
0
0
0
0
0
0
0
0
0
0
0
0
0
0
0
0
0
0
0
0
0
0
0
0
0
0
0
0
0
0
0
0
0
0
0
0
0
0
0
0
0
0
0
0
0
0
0
0
0
0
0
0
0
0
0
0
0
0
0
0
0
0
0
0
0
0
0
0
0
0
0
0
0
0
0
0
0
0
0
0
0
0
0
0
0
0
0
0
0
0
0
0
0
0
0
0
0
0
0
0
0
0
0
0
0
0
0
0
0
0
0
0
0
0
0
0
0
0
0
0
0
0
0
0
0
0
0
0
0
0
0
0
0
0
0
0
0
0
0
0
0
0
0
0
0
0
0
0
0
0
0
0
0
0
0
0
0
0
0
0
0
0
0
0
0
0
0
0
0
0
0
0
0
0
0
0
0
0
0
0
0
0
0
0
0
0
0
0
0
0
0
0
0
0
0
0
0
0
0
0
0
0
0
0
0
0
0
0
0
0
0
0
0
0
0
0
0
0
0
0
0
0
0
0
0
0
0
0
0
0
0
0
0
0
0
0
0
0
0
0
0
0
0
0
0
0
0
0
0
0
0
0
0
0
0
0
0
0
0
0
0
0
0
0
0
0
0
0
0
0
0
0
0
0
0
0
0
0
0
0
0
0
0
0
0
0
0
0
0
0
0
0
0
0
0
0
0
0
0
0
0
0
0
0
0
0
0
0
0
0
0
0
0
0
0
0
0
0
0
0
0
0
0
0
0
0
0
0
0
0
0
0
0
0
0
0
0
0
0
0
0
0
0
0
0
0
0
0
0
0
0
0
0
0
0
0
0
0
0
0
0
0
0
0
0
0
0
0
0
0
0
0
0
0
0
0
0
0
0
0
0
0
0
0
0
0
0
0
0
0
0
0
0
0
0
0
0
0
0
0
0
0
0
0
0
0
0
0
0
0
0
0
0
0
0
0
0
0
0
0
0
0
0
0
0
0
0
0
0
0
0
0
0
0
0
0
0
0
0
0
0
0
0
0
0
0
0
0
0
0
0
0
0
0
0
0
0
0
0
0
0
0
0
0
0
0
0
0
0
0
0
0
0
0
0
0
0
0
0
0
0
0
0
0
0
0
0
0
0
0
0
0
0
0
0
0
0
0
0
0
0
0
0
0
0
0
0
0
0
0
0
0
0
0
0
0
0
0
0
0
0
0
0
0
0
0
0
0
0
0
0
0
0
0
0
0
0
0
0
0
0
0
0
0
0
0
0
0
0
0
0
0
0
0
0
0
0
0
0
0
0
0
0
0
0
0
0
0
0
0
0
0
0
0
0
0
0
0
0
0
0
0
0
0
0
0
0
0
0
0
0
0
0
0
0
0
0
0
0
0
0
0
0
0
0
0
0
0
0
0
0
0
0
0
0
0
0
0
0
0
0
0
0
0
0
0
0
0
0
0
0
0
0
0
0
0
0
0
0
0
0
0
0
0
0
0
0
0
0
0
0
0
0
0
0
0
0
0
0
0
0
0
0
0
0
0
0
0
0
0
0
0
0
0
0
0
0
0
0
0
0
0
0
0
0
0
0
0
0
0
0
0
0
0
0
0
0
0
0
0
0
0
0
0
0
0
0
0
0
0
0
0
0
0
0
0
0
0
0
0
0
0
0
0
0
0
0
0
0
0
0
0
0
0
0
0
0
0
0
0
0
0
0
0
0
0
0
0
0
0
0
0
0
0
0
0
0
0
0
0
0
0
0
0
0
0
0
0
0
0
0
0
0
0
0
0
0
0
0
0
0
0
0
0
0
0
0
0
0
0
0
0
0
0
0
0
0
0
0
0
0
0
0
0
0
0
0
0
0
0
0
0
0
0
0
0
0
0
0
0
0
0
0
0
0
0
0
0
0
0
0
0
0
0
0
0
0
0
0
0
0
0
0
0
0
0
0
0
0
0
0
0
0
0
0
0
0
0
0
0
0
0
0
0
0
0
0
0
0
0
0
0
0
0
0
0
0
0
0
0
0
0
0
0
0
0
0
0
0
0
0
0
0
0
0
0
0
0
0
0
0
0
0
0
0
0
0
0
0
0
0
0
0
0
0
0
0
0
0
0
0
0
0
0
0
0
0
0
0
0
0
0
0
0
0
0
0
0
0
0
0
0
0
0
0
0
0
0
0
0
0
0
0
0
0
0
0
0
0
0
0
0
0
0
0
0
0
0
0
0
0
0
0
0
0
0
0
0
0
0
0
0
0
0
0
0
0
0
0
0
0
0
0
0
0
0
0
0
0
0
0
0
0
0
0
0
0
0
0
0
0
0
0
0
0
0
0
0.000235128
0.000243053
0.000252533
0.000263904
0.000277534
0.000293849
0.000231161
0.000237172
0.000244553
0.000253621
0.000264756
0.000278356
0.000227523
0.000231623
0.000236922
0.000243716
0.000252368
0.000263324
0.000277059
0.000294052
0.000315037
0.000224279
0.000226506
0.000229753
0.000234301
0.000240495
0.000248746
0.000259526
0.000273383
0.000290959
0.00022151
0.000221913
0.000223155
0.000225499
0.000229276
0.000234882
0.000242778
0.000253496
0.000267673
0.000219299
0.000217942
0.000217241
0.00021744
0.000218858
0.000221874
0.000226934
0.00023456
0.000245373
0.000217732
0.000214695
0.000212128
0.000210261
0.000209395
0.000209893
0.000212189
0.000216788
0.00022429
0.000235401
0.000221616
0.000216906
0.000212278
0.000207942
0.000204105
0.00020105
0.000199125
0.000198746
0.000200407
0.000204684
0.000212271
0.000224097
0.000216898
0.000210818
0.000204816
0.000199119
0.000193997
0.00018978
0.000186852
0.000185677
0.000186825
0.000190974
0.000199032
SCALARS F_MC double 1
LOOKUP_TABLE default
0.000340774
0.000547148
0.000768496
0.00100703
0.00126512
0.00154544
0.000224321
0.000414815
0.00061976
0.000841283
0.00108197
0.00134432
9.70293e-05
0.00027095
0.000458924
0.000662992
0.000885743
0.00113046
0.00140059
0.00169909
0.00203143
-4.13952e-05
0.000115543
0.000286043
0.000472106
0.000676341
0.000901828
0.00115214
0.00143138
0.00174439
-0.000191059
-5.15332e-05
0.000100997
0.000268506
0.000453634
0.000659517
0.000889822
0.00114881
0.00144163
-0.000352084
-0.00023039
-9.6336e-05
5.20727e-05
0.000217494
0.000403122
0.000612728
0.000850734
0.00112252
-0.000524589
-0.000421148
-0.000306073
-0.000177315
-3.22086e-05
0.000132496
0.000320685
0.000536939
0.000786753
0.00107696
-0.000784098
-0.000708558
-0.00062393
-0.000528338
-0.000419777
-0.000295598
-0.000152505
1.35164e-05
0.000207222
0.00043423
0.00070188
0.00102027
-0.00090428
-0.000838787
-0.000763294
-0.000675518
-0.000572739
-0.000451669
-0.000308433
-0.000138233
6.49349e-05
0.000308898
0.000604201
-0.0154787
-0.0152437
-0.0149784
-0.01468
-0.0143456
-0.0139719
-0.0156258
-0.0154037
-0.0151516
-0.0148665
-0.0145454
-0.0141851
-0.0157779
-0.0155693
-0.0153308
-0.0150596
-0.0147524
-0.0144057
-0.0140156
-0.0135791
-0.0130919
-0.0159347
-0.0157401
-0.0155159
-0.0152592
-0.0149666
-0.0146344
-0.0142588
-0.013836
-0.0133617
-0.0160963
-0.0159161
-0.0157067
-0.0154651
-0.0151877
-0.0148707
-0.0145101
-0.0141017
-0.013641
-0.0162624
-0.0160971
-0.015903
-0.0156771
-0.0154155
-0.0151144
-0.0147694
-0.0143763
-0.0139299
-0.0164329
-0.0162828
-0.0161047
-0.0158951
-0.0156501
-0.0153655
-0.0150369
-0.0146597
-0.0142286
-0.0137383
-0.0167172
-0.0166074
-0.0164731
-0.0163115
-0.0161188
-0.015891
-0.0156238
-0.0153124
-0.0149519
-0.0145369
-0.0140612
-0.0135173
-0.0167856
-0.0166677
-0.0165232
-0.0163481
-0.0161383
-0.015889
-0.0155955
-0.0152525
-0.0148545
-0.0143947
-0.0138647
0
0
0
0
0
0
0
0
0
0
0
0
0
0
0
0
0
0
0
0
0
0
0
0
0
0
0
0
0
0
0
0
0
0
0
0
0
0
0
0
0
0
0
0
0
0
0
0
0
0
0
0
0
0
0
0
0
0
0
0
0
0
0
0
0
0
0
0
0
0
0
0
0
0
0
0
0
0
0
0
0
-0.00283116
-0.00272235
-0.00260131
-0.00246615
-0.00231496
-0.00214557
-0.00290819
-0.00281135
-0.00270275
-0.00258052
-0.0024425
-0.00228662
-0.00299139
-0.00290705
-0.00281125
-0.00270223
-0.0025778
-0.00243528
-0.00227192
-0.00208546
-0.00187184
-0.00308084
-0.0030093
-0.0029267
-0.00283132
-0.00272092
-0.00259296
-0.00244456
-0.00227254
-0.00207338
-0.00317656
-0.00311811
-0.00304908
-0.00296776
-0.00287188
-0.0027588
-0.00262557
-0.00246884
-0.00228483
-0.00327854
-0.00323347
-0.0031784
-0.00311156
-0.00303066
-0.002933
-0.0028155
-0.00267466
-0.00250647
-0.00338678
-0.00335539
-0.00331464
-0.00326271
-0.00319727
-0.00311556
-0.00301438
-0.00289006
-0.00273845
-0.00255477
-0.00351131
-0.0035011
-0.00348384
-0.00345778
-0.00342118
-0.00337169
-0.00330649
-0.00322224
-0.0031151
-0.00298077
-0.00281399
-0.00261007
-0.00362182
-0.00361872
-0.00360785
-0.00358707
-0.00355392
-0.00350555
-0.00343872
-0.00334957
-0.00323344
-0.00308453
-0.00289758
-0.00658682
-0.00641291
-0.00622378
-0.00601836
-0.0057958
-0.00555515
-0.00676453
-0.0065979
-0.00641622
-0.00621842
-0.00600346
-0.00577049
-0.00694714
-0.00678828
-0.00661441
-0.00642453
-0.00621761
-0.0059925
-0.00574822
-0.00548392
-0.00519831
-0.00713469
-0.00698394
-0.00681827
-0.0066367
-0.0064382
-0.00622168
-0.00598606
-0.00573019
-0.00545315
-0.00732714
-0.00718484
-0.00702776
-0.0068549
-0.00666521
-0.00645761
-0.00623097
-0.00598413
-0.005716
-0.00752444
-0.00739094
-0.00724285
-0.0070791
-0.00689863
-0.00670035
-0.00648312
-0.00624575
-0.005987
-0.00772651
-0.00760219
-0.00746349
-0.00730925
-0.00713842
-0.00694989
-0.00674251
-0.00651504
-0.00626609
-0.00599442
-0.00803413
-0.00793307
-0.00781852
-0.00768963
-0.00754533
-0.00738456
-0.00720621
-0.00700911
-0.00679201
-0.0065536
-0.00629206
-0.00600801
-0.00814442
-0.00803996
-0.00792134
-0.00778745
-0.0076371
-0.00746912
-0.00728254
-0.00707631
-0.0068491
-0.0065988
-0.00632525
-0.0166536
-0.0165231
-0.0163738
-0.0162038
-0.0160118
-0.0157961
-0.0167747
-0.0166534
-0.0165132
-0.0163526
-0.0161698
-0.0159633
-0.0168996
-0.0167879
-0.0166574
-0.0165065
-0.0163333
-0.0161361
-0.0159126
-0.0156619
-0.0153823
-0.0170283
-0.0169266
-0.0168061
-0.0166653
-0.0165022
-0.0163148
-0.0161013
-0.0158597
-0.0155888
-0.0171606
-0.0170692
-0.0169592
-0.016829
-0.0166764
-0.0164994
-0.0162959
-0.0160641
-0.0158022
-0.0172963
-0.0172156
-0.0171165
-0.0169972
-0.0168556
-0.0166895
-0.0164967
-0.016275
-0.0160226
-0.0174353
-0.0173656
-0.0172778
-0.01717
-0.0170399
-0.0168851
-0.0167034
-0.0164924
-0.0162501
-0.0159755
-0.0176196
-0.0175773
-0.017519
-0.017443
-0.0173471
-0.017229
-0.0170861
-0.0169159
-0.0167162
-0.0164846
-0.0162196
-0.0159226
-0.017722
-0.0176756
-0.0176118
-0.0175284
-0.0174227
-0.0172922
-0.0171342
-0.0169461
-0.0167257
-0.0164712
-0.0161832
0
0
0
0
0
0
0
0
0
0
0
0
0
0
0
0
0
0
0
0
0
0
0
0
0
0
0
0
0
0
0
0
0
0
0
0
0
0
0
0
0
0
0
0
0
0
0
0
0
0
0
0
0
0
0
0
0
0
0
0
0
0
0
0
0
0
0
0
0
0
0
0
0
0
0
0
0
0
0
0
0
-0.00587645
-0.00586084
-0.0058359
-0.00580008
-0.00575194
-0.00568989
-0.0059146
-0.00590709
-0.00589067
-0.00586381
-0.00582477
-0.00577192
-0.00595432
-0.0059553
-0.00594762
-0.0059298
-0.00590009
-0.00585644
-0.00579675
-0.0057194
-0.00562168
-0.00599555
-0.00600519
-0.00600649
-0.00599802
-0.00597796
-0.00594431
-0.00589489
-0.00582742
-0.00573957
-0.00603816
-0.00605662
-0.00606715
-0.0060683
-0.00605823
-0.00603485
-0.0059959
-0.00593894
-0.00586145
-0.00608201
-0.00610945
-0.00612944
-0.00614051
-0.00614075
-0.00612803
-0.00609995
-0.00605396
-0.00598735
-0.00612697
-0.00616353
-0.00619322
-0.00621447
-0.00622536
-0.00622368
-0.00620692
-0.00617237
-0.00611713
-0.00603826
-0.00612174
-0.00617269
-0.00621871
-0.0062583
-0.00629
-0.00631188
-0.00632163
-0.00631666
-0.00629405
-0.00625078
-0.0061835
-0.00609087
-0.00621943
-0.00627465
-0.00632446
-0.00636698
-0.00640014
-0.00642155
-0.00642871
-0.00641871
-0.00638815
-0.00633328
-0.00625219
-0.00755668
-0.00750078
-0.00743804
-0.0073679
-0.00729007
-0.00720418
-0.00764129
-0.00758919
-0.0075306
-0.00746497
-0.0073918
-0.00731075
-0.00772902
-0.00768097
-0.00762659
-0.00756545
-0.00749707
-0.00742098
-0.00733667
-0.00724366
-0.00714124
-0.00781993
-0.00777601
-0.00772599
-0.00766946
-0.00760601
-0.00753519
-0.00745648
-0.00736928
-0.00727315
-0.00791404
-0.00787434
-0.00782878
-0.00777699
-0.00771859
-0.00765316
-0.00758019
-0.00749909
-0.00740933
-0.00801136
-0.00797596
-0.00793497
-0.00788804
-0.0078348
-0.00777488
-0.0077078
-0.00763297
-0.00754982
-0.0081119
-0.00808087
-0.00804457
-0.00800258
-0.00795462
-0.00790034
-0.00783928
-0.0077709
-0.00769449
-0.00760928
-0.00823663
-0.00821536
-0.00818908
-0.00815756
-0.00812063
-0.00807804
-0.0080295
-0.0079746
-0.00791281
-0.00784354
-0.00776567
-0.00768079
-0.00832229
-0.00830053
-0.00827394
-0.00824222
-0.00820509
-0.00816223
-0.00811343
-0.00805843
-0.00799666
-0.00792678
-0.00784987
-0.0177817
-0.0177574
-0.0177256
-0.0176856
-0.0176373
-0.0175804
-0.0178739
-0.0178553
-0.0178291
-0.0177949
-0.0177521
-0.0177006
-0.0179688
-0.0179562
-0.017936
-0.0179076
-0.0178706
-0.0178245
-0.0177689
-0.0177038
-0.0176292
-0.0180665
-0.0180602
-0.0180461
-0.0180238
-0.0179928
-0.0179526
-0.0179027
-0.017843
-0.0177735
-0.0181668
-0.0181669
-0.0181593
-0.0181434
-0.0181187
-0.0180845
-0.0180406
-0.0179865
-0.0179223
-0.0182695
-0.0182763
-0.0182754
-0.0182662
-0.018248
-0.0182203
-0.0181825
-0.0181343
-0.0180757
-0.0183746
-0.0183883
-0.0183944
-0.0183921
-0.0183807
-0.0183597
-0.0183284
-0.0182863
-0.0182334
-0.0181699
-0.0184537
-0.0184817
-0.0185026
-0.018516
-0.018521
-0.0185168
-0.0185027
-0.0184781
-0.0184425
-0.0183956
-0.0183377
-0.0182704
-0.0185907
-0.0186191
-0.0186401
-0.0186527
-0.018656
-0.0186491
-0.0186315
-0.0186026
-0.0185621
-0.0185102
-0.0184481
-0.00152908
-0.00156719
-0.00160011
-0.0016268
-0.00164648
-0.00165817
-0.00153059
-0.00157199
-0.00160882
-0.00164005
-0.00166454
-0.00168119
-0.0015315
-0.00157644
-0.00161714
-0.00165268
-0.00168196
-0.0017037
-0.00171661
-0.00171934
-0.00170983
-0.00153181
-0.00158025
-0.00162486
-0.00166478
-0.00169894
-0.00172612
-0.00174492
-0.00175381
-0.001751
-0.00153144
-0.00158333
-0.00163186
-0.0016762
-0.00171532
-0.001748
-0.00177282
-0.00178818
-0.00179221
-0.0015303
-0.00158558
-0.00163802
-0.0016868
-0.00173094
-0.00176923
-0.00180022
-0.00182226
-0.00183337
-0.0015283
-0.0015869
-0.00164322
-0.00169646
-0.00174565
-0.00178962
-0.00182691
-0.00185583
-0.00187422
-0.00188042
-0.00146168
-0.00152505
-0.00158719
-0.00164734
-0.001705
-0.00175927
-0.001809
-0.00185272
-0.0018887
-0.00191477
-0.00192893
-0.00192774
-0.00152108
-0.00158613
-0.00165014
-0.0017123
-0.00177168
-0.00182703
-0.00187709
-0.00192045
-0.00195468
-0.00197741
-0.0019847
-0.00211341
-0.0021773
-0.0022369
-0.00229121
-0.0023395
-0.0023808
-0.00209512
-0.00216134
-0.00222392
-0.00228187
-0.0023341
-0.0023795
-0.00207527
-0.00214401
-0.00220948
-0.00227079
-0.00232688
-0.00237653
-0.00241848
-0.00245132
-0.00247324
-0.00205385
-0.00212502
-0.00219335
-0.00225803
-0.00231802
-0.00237216
-0.00241908
-0.00245725
-0.00248509
-0.00203077
-0.00210426
-0.00217541
-0.00224343
-0.00230735
-0.00236599
-0.00241798
-0.00246172
-0.00249553
-0.00200593
-0.00208162
-0.00215551
-0.00222684
-0.00229468
-0.00235787
-0.002415
-0.00246446
-0.00250446
-0.00197923
-0.00205697
-0.00213351
-0.00220809
-0.00227982
-0.00234757
-0.00240994
-0.00246525
-0.00251155
-0.00254664
-0.00187013
-0.00195027
-0.00203021
-0.00210927
-0.002187
-0.00226257
-0.00233488
-0.00240254
-0.00246383
-0.00251676
-0.00255886
-0.00258926
-0.00191955
-0.002001
-0.00208252
-0.00216339
-0.00224276
-0.00231945
-0.00239224
-0.00245975
-0.00251974
-0.00256935
-0.00260728
0
0
0
0
0
0
0
0
0
0
0
0
0
0
0
0
0
0
0
0
0
0
0
0
0
0
0
0
0
0
0
0
0
0
0
0
0
0
0
0
0
0
0
0
0
0
0
0
0
0
0
0
0
0
0
0
0
0
0
0
0
0
0
0
0
0
0
0
0
0
0
0
0
0
0
0
0
0
0
0
0
-0.0185897
-0.018645
-0.0187011
-0.0187581
-0.0188167
-0.0188775
-0.0186587
-0.0187172
-0.0187765
-0.0188367
-0.0188984
-0.018962
-0.0187298
-0.0187918
-0.0188543
-0.0189178
-0.0189825
-0.0190491
-0.019118
-0.01919
-0.0192658
-0.0188029
-0.0188684
-0.0189344
-0.0190012
-0.0190692
-0.0191388
-0.0192107
-0.0192856
-0.0193642
-0.0188778
-0.0189471
-0.0190167
-0.019087
-0.0191583
-0.0192311
-0.0193061
-0.0193839
-0.0194653
-0.0189547
-0.0190278
-0.0191011
-0.019175
-0.0192498
-0.0193259
-0.0194041
-0.0194849
-0.0195692
-0.0190331
-0.0191102
-0.0191875
-0.0192652
-0.0193436
-0.0194232
-0.0195046
-0.0195885
-0.0196756
-0.0197664
-0.0190315
-0.019113
-0.0191943
-0.0192757
-0.0193574
-0.0194396
-0.0195227
-0.0196075
-0.0196946
-0.0197847
-0.0198784
-0.0199766
-0.0191943
-0.0192799
-0.0193657
-0.0194515
-0.0195377
-0.0196245
-0.0197127
-0.0198031
-0.0198964
-0.019993
-0.020094
-0.00874882
-0.00883853
-0.00893155
-0.00902788
-0.00912779
-0.00923139
-0.00872113
-0.00881054
-0.0089038
-0.00900096
-0.00910206
-0.00920721
-0.00869423
-0.00878329
-0.00887655
-0.00897417
-0.00907628
-0.00918301
-0.00929422
-0.00940959
-0.00952858
-0.00866824
-0.00875675
-0.00884982
-0.00894771
-0.00905065
-0.00915878
-0.00927206
-0.00939025
-0.00951287
-0.00864324
-0.00873094
-0.0088236
-0.00892156
-0.00902512
-0.00913449
-0.0092497
-0.00937055
-0.00949657
-0.00861929
-0.00870593
-0.00879794
-0.00889571
-0.00899964
-0.00911003
-0.00922698
-0.00935035
-0.00947968
-0.00859648
-0.00868177
-0.00877286
-0.00887017
-0.0089742
-0.00908535
-0.00920381
-0.00932953
-0.009462
-0.00960046
-0.00849607
-0.00857463
-0.00865852
-0.00874839
-0.00884493
-0.00894876
-0.00906038
-0.0091801
-0.00930793
-0.0094435
-0.00958596
-0.00973416
-0.00855422
-0.0086361
-0.00872444
-0.00881992
-0.00892325
-0.00903497
-0.00915555
-0.00928535
-0.00942396
-0.00957045
-0.00972349
-0.0109981
-0.0111374
-0.0112724
-0.0114021
-0.0115257
-0.0116424
-0.0109727
-0.0111136
-0.0112507
-0.0113827
-0.0115086
-0.0116274
-0.0109411
-0.0110839
-0.0112229
-0.0113571
-0.0114853
-0.0116065
-0.0117196
-0.0118234
-0.0119169
-0.0109029
-0.0110476
-0.0111886
-0.011325
-0.0114556
-0.0115793
-0.0116948
-0.0118011
-0.011897
-0.0108579
-0.0110043
-0.0111474
-0.011286
-0.0114192
-0.0115455
-0.0116636
-0.0117725
-0.0118709
-0.0108056
-0.0109536
-0.0110987
-0.0112397
-0.0113754
-0.0115045
-0.0116255
-0.0117372
-0.0118382
-0.0107455
-0.0108952
-0.0110422
-0.0111856
-0.0113239
-0.0114558
-0.0115798
-0.0116945
-0.0117984
-0.0118903
-0.0105249
-0.0106773
-0.0108284
-0.0109774
-0.0111231
-0.0112641
-0.011399
-0.0115262
-0.0116441
-0.0117511
-0.0118459
-0.0119265
-0.0106005
-0.0107529
-0.0109037
-0.0110517
-0.0111954
-0.0113333
-0.0114637
-0.0115852
-0.0116957
-0.0117936
-0.0118768
-0.00440361
-0.00457032
-0.00473639
-0.00490095
-0.00506335
-0.00522264
-0.00430574
-0.00447117
-0.00463672
-0.00480152
-0.00496459
-0.00512487
-0.00420258
-0.00436666
-0.00453139
-0.00469598
-0.0048595
-0.00502098
-0.00517911
-0.00533238
-0.00547936
-0.00409403
-0.00425647
-0.00442012
-0.00458429
-0.00474809
-0.00491046
-0.00507018
-0.00522583
-0.00537588
-0.00397997
-0.00414042
-0.00430271
-0.0044662
-0.00463006
-0.00479325
-0.00495454
-0.00511244
-0.00526536
-0.00386026
-0.00401835
-0.00417894
-0.00434146
-0.00450513
-0.00466895
-0.00483165
-0.00499174
-0.00514753
-0.00373477
-0.00389007
-0.0040486
-0.00420981
-0.004373
-0.0045372
-0.00470115
-0.00486333
-0.00502189
-0.00517501
-0.00345504
-0.00360321
-0.00375542
-0.00391146
-0.00407098
-0.00423335
-0.00439765
-0.00456264
-0.00472678
-0.0048882
-0.00504484
-0.00519518
-0.00346566
-0.00361411
-0.00376721
-0.00392461
-0.00408579
-0.00424979
-0.00441549
-0.0045816
-0.00474591
-0.00490614
-0.00506051
-0.0195995
-0.0197597
-0.0199315
-0.0201162
-0.0203152
-0.0205303
-0.0196357
-0.019796
-0.0199678
-0.0201525
-0.0203514
-0.0205662
-0.019673
-0.0198335
-0.0200053
-0.0201898
-0.0203886
-0.0206032
-0.0208355
-0.0210871
-0.0213599
-0.0197114
-0.0198721
-0.0200439
-0.0202283
-0.0204268
-0.0206411
-0.020873
-0.0211244
-0.0213973
-0.0197509
-0.0199118
-0.0200836
-0.0202678
-0.020466
-0.0206798
-0.0209113
-0.0211623
-0.0214351
-0.0197915
-0.0199525
-0.0201244
-0.0203084
-0.0205062
-0.0207195
-0.0209504
-0.0212009
-0.0214733
-0.019833
-0.0199943
-0.0201662
-0.02035
-0.0205473
-0.0207601
-0.0209902
-0.0212401
-0.0215119
-0.0218074
-0.0197227
-0.0198754
-0.020037
-0.0202089
-0.0203925
-0.0205894
-0.0208015
-0.0210308
-0.0212798
-0.0215508
-0.0218459
-0.0221675
-0.0199186
-0.0200806
-0.0202526
-0.020436
-0.0206323
-0.0208436
-0.021072
-0.0213201
-0.0215902
-0.0218845
-0.0222057
-0.00967453
-0.00987991
-0.0100966
-0.010325
-0.0105659
-0.0108194
-0.00955923
-0.00976124
-0.00997526
-0.0102018
-0.0104412
-0.0106939
-0.00944282
-0.00964118
-0.00985205
-0.010076
-0.0103137
-0.0105656
-0.0108317
-0.0111118
-0.0114055
-0.00932541
-0.00951966
-0.00972693
-0.00994795
-0.0101834
-0.0104338
-0.0106994
-0.0109802
-0.0112757
-0.00920711
-0.00939676
-0.00959994
-0.00981751
-0.0100503
-0.0102989
-0.0105636
-0.0108446
-0.0111414
-0.00908801
-0.00927251
-0.00947107
-0.00968467
-0.00991422
-0.0101605
-0.0104239
-0.0107047
-0.0110024
-0.00896821
-0.00914699
-0.00934036
-0.0095494
-0.00977516
-0.0100186
-0.0102802
-0.0105603
-0.0108585
-0.0111743
-0.0086888
-0.0088478
-0.0090203
-0.00920786
-0.0094117
-0.00963304
-0.00987294
-0.0101322
-0.0104111
-0.0107095
-0.0110269
-0.0113621
-0.00872685
-0.00889248
-0.0090735
-0.00927141
-0.00948766
-0.0097234
-0.0099796
-0.0102569
-0.0105552
-0.0108737
-0.0112115
-0.0138539
-0.014078
-0.0143005
-0.0145206
-0.0147379
-0.0149517
-0.0137966
-0.014019
-0.0142401
-0.014459
-0.0146749
-0.0148871
-0.0137289
-0.0139497
-0.0141693
-0.0143867
-0.0146013
-0.0148122
-0.015019
-0.0152205
-0.0154168
-0.0136503
-0.0138694
-0.0140873
-0.0143033
-0.0145164
-0.0147258
-0.0149309
-0.0151309
-0.0153255
-0.0135603
-0.0137774
-0.0139937
-0.0142081
-0.0144198
-0.0146278
-0.0148314
-0.0150298
-0.0152226
-0.0134583
-0.0136733
-0.0138877
-0.0141005
-0.0143107
-0.0145173
-0.0147195
-0.0149164
-0.0151074
-0.0133437
-0.0135564
-0.0137687
-0.0139797
-0.0141884
-0.0143936
-0.0145944
-0.0147898
-0.0149791
-0.0151622
-0.0130067
-0.013216
-0.013426
-0.0136361
-0.0138452
-0.0140523
-0.0142561
-0.0144555
-0.0146494
-0.0148371
-0.0150184
-0.015193
-0.0130744
-0.0132816
-0.0134891
-0.0136961
-0.0139014
-0.0141036
-0.0143015
-0.0144943
-0.0146805
-0.0148598
-0.015032
0
0
0
0
0
0
0
0
0
0
0
0
0
0
0
0
0
0
0
0
0
0
0
0
0
0
0
0
0
0
0
0
0
0
0
0
0
0
0
0
0
0
0
0
0
0
0
0
0
0
0
0
0
0
0
0
0
0
0
0
0
0
0
0
0
0
0
0
0
0
0
0
0
0
0
0
0
0
0
0
0
-0.00662249
-0.00689209
-0.00716473
-0.00743969
-0.0077164
-0.00799383
-0.00644445
-0.00670947
-0.00697849
-0.00725072
-0.00752529
-0.0078011
-0.00625751
-0.00651767
-0.00678254
-0.00705142
-0.00732349
-0.00759795
-0.0078734
-0.00814813
-0.00842097
-0.00606151
-0.00631628
-0.00657651
-0.0068416
-0.00711078
-0.00738307
-0.00765726
-0.00793196
-0.00820564
-0.00585627
-0.00610507
-0.00636012
-0.00662093
-0.00688678
-0.00715673
-0.00742955
-0.00770381
-0.00797792
-0.00564162
-0.00588381
-0.0061331
-0.00638907
-0.0066511
-0.00691826
-0.00718935
-0.0074629
-0.00773724
-0.00541739
-0.00565228
-0.00589514
-0.00614567
-0.00640331
-0.0066672
-0.00693615
-0.00720867
-0.00748294
-0.00775704
-0.00496537
-0.00518349
-0.00541024
-0.00564595
-0.00589035
-0.00614297
-0.00640304
-0.00666938
-0.00694049
-0.00721456
-0.00748943
-0.00776472
-0.0049395
-0.00515759
-0.0053853
-0.00562271
-0.00586959
-0.00612514
-0.00638829
-0.00665779
-0.00693137
-0.00720674
-0.00748332
0
0
0
0
0
0
0
0
0
0
0
0
0
0
0
0
0
0
0
0
0
0
0
0
0
0
0
0
0
0
0
0
0
0
0
0
0
0
0
0
0
0
0
0
0
0
0
0
0
0
0
0
0
0
0
0
0
0
0
0
0
0
0
0
0
0
0
0
0
0
0
0
0
0
0
0
0
0
0
0
0
-0.0205123
-0.0207746
-0.021059
-0.0213678
-0.0217035
-0.0220687
-0.020513
-0.0207723
-0.0210538
-0.0213596
-0.0216923
-0.0220543
-0.020514
-0.0207704
-0.0210487
-0.0213512
-0.0216806
-0.0220395
-0.0224308
-0.0228574
-0.0233225
-0.0205154
-0.0207687
-0.0210437
-0.0213427
-0.0216685
-0.0220238
-0.0224116
-0.0228351
-0.0232979
-0.0205173
-0.0207673
-0.0210388
-0.0213342
-0.0216561
-0.0220075
-0.0223916
-0.0228117
-0.0232715
-0.0205196
-0.0207663
-0.0210341
-0.0213256
-0.0216434
-0.0219906
-0.0223706
-0.0227868
-0.0232433
-0.0205225
-0.0207657
-0.0210297
-0.021317
-0.0216304
-0.0219732
-0.0223486
-0.0227607
-0.0232133
-0.0237108
-0.0203042
-0.0205259
-0.0207655
-0.0210255
-0.0213085
-0.0216173
-0.0219552
-0.0223258
-0.0227332
-0.0231815
-0.0236755
-0.0242237
-0.0205298
-0.0207659
-0.0210218
-0.0213002
-0.021604
-0.0219367
-0.022302
-0.0227044
-0.0231479
-0.0236379
-0.024183
-0.0105622
-0.010883
-0.011223
-0.0115833
-0.0119649
-0.0123682
-0.0103605
-0.010675
-0.0110097
-0.0113656
-0.0117434
-0.0121438
-0.0101558
-0.0104635
-0.0107921
-0.0111426
-0.0115161
-0.0119134
-0.0123348
-0.0127799
-0.0132486
-0.00994814
-0.0102483
-0.0105701
-0.0109146
-0.011283
-0.0116763
-0.0120948
-0.0125387
-0.0130076
-0.00973755
-0.0100295
-0.0103436
-0.0106814
-0.0110441
-0.0114326
-0.0118478
-0.0122897
-0.0127581
-0.00952416
-0.00980702
-0.0101128
-0.0104429
-0.010799
-0.0111821
-0.0115932
-0.0120324
-0.0124998
-0.00930809
-0.00958102
-0.00987745
-0.0101991
-0.0105477
-0.0109246
-0.0113307
-0.0117666
-0.0122323
-0.0127264
-0.00884963
-0.00908973
-0.00935155
-0.00963772
-0.00994995
-0.0102901
-0.0106597
-0.01106
-0.0114918
-0.0119552
-0.0124488
-0.0129754
-0.0088686
-0.00911886
-0.00939361
-0.0096952
-0.0100258
-0.0103872
-0.0107808
-0.0112078
-0.0116681
-0.0121606
-0.0126879
-0.016686
-0.0169926
-0.0173
-0.0176077
-0.0179156
-0.0182231
-0.0166013
-0.0169033
-0.0172062
-0.0175094
-0.0178125
-0.0181148
-0.0165023
-0.0167995
-0.0170977
-0.0173962
-0.0176945
-0.0179922
-0.0182891
-0.0185841
-0.018878
-0.0163884
-0.0166806
-0.0169738
-0.0172674
-0.0175607
-0.0178532
-0.0181445
-0.0184342
-0.0187224
-0.0162586
-0.0165456
-0.0168337
-0.0171222
-0.0174105
-0.0176979
-0.0179839
-0.018268
-0.0185504
-0.0161125
-0.0163939
-0.0166766
-0.0169599
-0.017243
-0.0175252
-0.0178058
-0.0180843
-0.0183608
-0.015949
-0.0162245
-0.0165016
-0.0167795
-0.0170573
-0.0173341
-0.0176092
-0.0178821
-0.0181525
-0.0184212
-0.0155012
-0.0157677
-0.0160367
-0.0163078
-0.01658
-0.0168523
-0.0171237
-0.0173932
-0.0176604
-0.0179247
-0.0181869
-0.018447
-0.0155673
-0.0158298
-0.0160945
-0.0163606
-0.0166271
-0.0168928
-0.0171565
-0.017418
-0.0176763
-0.0179318
-0.0181845
-0.00560103
-0.00530704
-0.00498921
-0.00464591
-0.00427562
-0.00387668
-0.00587521
-0.00559212
-0.0052852
-0.00495278
-0.00459316
-0.00420487
-0.00615605
-0.0058846
-0.00558925
-0.00526835
-0.00492015
-0.00454275
-0.00413452
-0.00369399
-0.00321894
-0.00644356
-0.00618436
-0.00590122
-0.00559248
-0.00525635
-0.00489104
-0.00449468
-0.00406538
-0.00360131
-0.00673766
-0.0064913
-0.00622103
-0.00592512
-0.00560173
-0.005249
-0.00486501
-0.00444779
-0.00399526
-0.00703821
-0.00680533
-0.00654861
-0.00626621
-0.00595625
-0.0056168
-0.00524588
-0.00484142
-0.00440114
-0.00734507
-0.00712633
-0.00688386
-0.00661568
-0.00631987
-0.00599442
-0.00563729
-0.00524631
-0.00481897
-0.00435272
-0.00783961
-0.0076579
-0.00745414
-0.00722665
-0.00697345
-0.00669253
-0.00638184
-0.00603925
-0.0056625
-0.00524918
-0.00479594
-0.00429868
-0.00797678
-0.00778877
-0.00757707
-0.00733963
-0.00707426
-0.00677881
-0.00645127
-0.00608958
-0.0056912
-0.00525245
-0.00476836
0
0
0
0
0
0
0
0
0
0
0
0
0
0
0
0
0
0
0
0
0
0
0
0
0
0
0
0
0
0
0
0
0
0
0
0
0
0
0
0
0
0
0
0
0
0
0
0
0
0
0
0
0
0
0
0
0
0
0
0
0
0
0
0
0
0
0
0
0
0
0
0
0
0
0
0
0
0
0
0
0
SCALARS F_FT double 1
LOOKUP_TABLE default
0
0
0
0
0
0
0
0
0
0
0
0
0
0
0
0
0
0
0
0
0
0
0
0
0
0
0
0
0
0
0
0
0
0
0
0
0
0
0
0
0
0
0
0
0
0
0
0
0
0
0
0
0
0
0
0
0
0
0
0
0
0
0
0
0
0
0
0
0
0
0
0
0
0
0
0
0
0
0
0
0
0.00059786
0.000603879
0.000610068
0.000616546
0.000623441
0.000630898
0.000594808
0.000599416
0.000604113
0.000609018
0.000614281
0.000620044
0.000591512
0.000594665
0.000597842
0.000601159
0.000604762
0.000608851
0.000613593
0.000619157
0.000625873
0.000587958
0.000589641
0.000591279
0.000592981
0.000594894
0.000597192
0.000600079
0.000603785
0.000608579
0.000584148
0.000584349
0.000584431
0.000584498
0.000584696
0.000585203
0.000586229
0.000588015
0.000590836
0.000580081
0.000578794
0.00057731
0.000575727
0.00057419
0.000572881
0.000572018
0.000571851
0.000572663
0.000575756
0.000572982
0.000569929
0.000566687
0.000563402
0.000560259
0.000557482
0.000555333
0.000554103
0.000554127
0.000574965
0.000571183
0.000566919
0.000562299
0.000557399
0.00055236
0.000547369
0.000542659
0.000538505
0.000535215
0.000533124
0.000532685
0.000566331
0.000560628
0.00055444
0.00054788
0.000541096
0.000534273
0.000527631
0.00052144
0.000516046
0.000511816
0.00050921
0
0
0
0
0
0
0
0
0
0
0
0
0
0
0
0
0
0
0
0
0
0
0
0
0
0
0
0
0
0
0
0
0
0
0
0
0
0
0
0
0
0
0
0
0
0
0
0
0
0
0
0
0
0
0
0
0
0
0
0
0
0
0
0
0
0
0
0
0
0
0
0
0
0
0
0
0
0
0
0
0
0
0
0
0
0
0
0
0
0
0
0
0
0
0
0
0
0
0
0
0
0
0
0
0
0
0
0
0
0
0
0
0
0
0
0
0
0
0
0
0
0
0
0
0
0
0
0
0
0
0
0
0
0
0
0
0
0
0
0
0
0
0
0
0
0
0
0
0
0
0
0
0
0
0
0
0
0
0
0
0
0
0
0
0
0
0
0
0
0
0
0
0
0
0
0
0
0
0
0
0
0
0
0
0
0
0
0
0
0
0
0
0
0
0
0
0
0
0
0
0
0
0
0
0
0
0
0
0
0
0
0
0
0
0
0
0
0
0
0
0
0
0
0
0
0
0
0
0
0
0
0
0
0
0
0
0
0
0
0
0
0
0
0.000311957
0.000313342
0.000315025
0.000317089
0.000319617
0.000322705
0.000310752
0.000311497
0.000312499
0.000313843
0.00031563
0.000317956
0.000309514
0.000309588
0.000309894
0.000310511
0.000311539
0.000313102
0.000315302
0.000318253
0.000322151
0.000308247
0.000307636
0.000307227
0.000307097
0.000307344
0.000308079
0.000309426
0.000311523
0.000314531
0.000306958
0.000305648
0.000304508
0.000303612
0.000303058
0.000302957
0.000303436
0.000304639
0.000306726
0.000305658
0.000303635
0.000301749
0.000300069
0.000298694
0.000297735
0.000297324
0.000297606
0.000298746
0.000304353
0.000301608
0.000298961
0.000296482
0.000294267
0.00029243
0.000291105
0.000290443
0.000290614
0.000291807
0.000306525
0.000303064
0.000299576
0.000296158
0.000292866
0.000289795
0.000287059
0.000284797
0.000283166
0.000282342
0.000282521
0.000283943
0.000301768
0.000297565
0.000293357
0.000289232
0.000285291
0.000281653
0.000278443
0.000275809
0.000273949
0.00027308
0.000273461
0
0
0
0
0
0
0
0
0
0
0
0
0
0
0
0
0
0
0
0
0
0
0
0
0
0
0
0
0
0
0
0
0
0
0
0
0
0
0
0
0
0
0
0
0
0
0
0
0
0
0
0
0
0
0
0
0
0
0
0
0
0
0
0
0
0
0
0
0
0
0
0
0
0
0
0
0
0
0
0
0
0
0
0
0
0
0
0
0
0
0
0
0
0
0
0
0
0
0
0
0
0
0
0
0
0
0
0
0
0
0
0
0
0
0
0
0
0
0
0
0
0
0
0
0
0
0
0
0
0
0
0
0
0
0
0
0
0
0
0
0
0
0
0
0
0
0
0
0
0
0
0
0
0
0
0
0
0
0
0
0
0
0
0
0
0
0
0
0
0
0
0
0
0
0
0
0
0
0
0
0
0
0
0
0
0
0
0
0
0
0
0
0
0
0
0
0
0
0
0
0
0
0
0
0
0
0
0
0
0
0
0
0
0
0
0
0
0
0
0
0
0
0
0
0
0
0
0
0
0
0
0
0
0
0
0
0
0
0
0
0
0
0
0.000136412
0.000135157
0.000134144
0.000133412
0.000132994
0.000132937
0.000137275
0.000135856
0.000134657
0.000133717
0.000133082
0.000132803
0.000138218
0.00013662
0.00013523
0.000134085
0.000133229
0.000132717
0.000132599
0.000132941
0.000133844
0.000139249
0.000137466
0.000135877
0.000134517
0.000133429
0.000132662
0.000132274
0.000132336
0.000132931
0.000140379
0.000138402
0.000136606
0.000135023
0.000133693
0.000132664
0.000131995
0.000131756
0.000132033
0.00014162
0.000139442
0.000137429
0.000135613
0.00013403
0.000132728
0.000131766
0.000131213
0.000131156
0.000142983
0.000140596
0.000138359
0.000136299
0.000134453
0.000132867
0.000131597
0.000130715
0.000130313
0.000130496
0.000147206
0.000144493
0.00014188
0.000139409
0.000137097
0.000134976
0.000133092
0.000131501
0.000130275
0.000129506
0.000129308
0.000129817
0.000146139
0.000143318
0.0001406
0.000138018
0.000135611
0.000133423
0.000131505
0.000129913
0.000128748
0.00012814
0.000128241
0
0
0
0
0
0
0
0
0
0
0
0
0
0
0
0
0
0
0
0
0
0
0
0
0
0
0
0
0
0
0
0
0
0
0
0
0
0
0
0
0
0
0
0
0
0
0
0
0
0
0
0
0
0
0
0
0
0
0
0
0
0
0
0
0
0
0
0
0
0
0
0
0
0
0
0
0
0
0
0
0
0
0
0
0
0
0
0
0
0
0
0
0
0
0
0
0
0
0
0
0
0
0
0
0
0
0
0
0
0
0
0
0
0
0
0
0
0
0
0
0
0
0
0
0
0
0
0
0
0
0
0
0
0
0
0
0
0
0
0
0
0
0
0
0
0
0
0
0
0
0
0
0
0
0
0
0
0
0
0
0
0
0
0
0
0
0
0
0
0
0
0
0
0
0
0
0
0
0
0
0
0
0
0
0
0
0
0
0
0
0
0
0
0
0
0
0
0
0
0
0
0
0
0
0
0
0
0
0
0
0
0
0
0
0
0
0
0
0
0
0
0
0
0
0
0
0
0
0
0
0
0
0
0
0
0
0
0
0
0
0
0
0
7.25537e-05
7.04779e-05
6.84883e-05
6.6587e-05
6.47724e-05
6.30541e-05
7.4966e-05
7.28883e-05
7.08757e-05
6.893e-05
6.70578e-05
6.52695e-05
7.74728e-05
7.53916e-05
7.33609e-05
7.13799e-05
6.94522e-05
6.75875e-05
6.58028e-05
6.41378e-05
6.26489e-05
8.00794e-05
7.79975e-05
7.5951e-05
7.39364e-05
7.19543e-05
7.00122e-05
6.81292e-05
6.63409e-05
6.47026e-05
8.2794e-05
8.07146e-05
7.86548e-05
7.66088e-05
7.45738e-05
7.25552e-05
7.05708e-05
6.86565e-05
6.68688e-05
8.56269e-05
8.35531e-05
8.14833e-05
7.94085e-05
7.73226e-05
7.52282e-05
7.31416e-05
7.10982e-05
6.91561e-05
8.85909e-05
8.6526e-05
8.44495e-05
8.2349e-05
8.02147e-05
7.80457e-05
7.58563e-05
7.36808e-05
7.15811e-05
6.9646e-05
9.37601e-05
9.17103e-05
8.96487e-05
8.75691e-05
8.54465e-05
8.32667e-05
8.10246e-05
7.8732e-05
7.64217e-05
7.41553e-05
7.20298e-05
7.01689e-05
9.49831e-05
9.29469e-05
9.08664e-05
8.87223e-05
8.64977e-05
8.41874e-05
8.17971e-05
7.93473e-05
7.69007e-05
7.4569e-05
7.24904e-05
0
0
0
0
0
0
0
0
0
0
0
0
0
0
0
0
0
0
0
0
0
0
0
0
0
0
0
0
0
0
0
0
0
0
0
0
0
0
0
0
0
0
0
0
0
0
0
0
0
0
0
0
0
0
0
0
0
0
0
0
0
0
0
0
0
0
0
0
0
0
0
0
0
0
0
0
0
0
0
0
0
0
0
0
0
0
0
0
0
0
0
0
0
0
0
0
0
0
0
0
0
0
0
0
0
0
0
0
0
0
0
0
0
0
0
0
0
0
0
0
0
0
0
0
0
0
0
0
0
0
0
0
0
0
0
0
0
0
0
0
0
0
0
0
0
0
0
0
0
0
0
0
0
0
0
0
0
0
0
0
0
0
0
0
0
0
0
0
0
0
0
0
0
0
0
0
0
0
0
0
0
0
0
0
0
0
0
0
0
0
0
0
0
0
0
0
0
0
0
0
0
0
0
0
0
0
0
0
0
0
0
0
0
0
0
0
0
0
0
0
0
0
0
0
0
0
0
0
0
0
0
0
0
0
0
0
0
0
0
0
0
0
0
7.66201e-05
7.49793e-05
7.30646e-05
7.0821e-05
6.81973e-05
6.51532e-05
8.10596e-05
7.93735e-05
7.73767e-05
7.50119e-05
7.22282e-05
6.89802e-05
8.55104e-05
8.37984e-05
8.17391e-05
7.92714e-05
7.63405e-05
7.29023e-05
6.89413e-05
6.44635e-05
5.9509e-05
8.99679e-05
8.82512e-05
8.61502e-05
8.35996e-05
8.05401e-05
7.69269e-05
7.27387e-05
6.79872e-05
6.27219e-05
9.44325e-05
9.27347e-05
9.06157e-05
8.80056e-05
8.48398e-05
8.10701e-05
7.66744e-05
7.16655e-05
6.60976e-05
9.8908e-05
9.72553e-05
9.51453e-05
9.25025e-05
8.92563e-05
8.53536e-05
8.07698e-05
7.55182e-05
6.96574e-05
0.000103403
0.000101824
9.97529e-05
9.71081e-05
9.38112e-05
8.98028e-05
8.50544e-05
7.95783e-05
7.34376e-05
6.67524e-05
0.000108985
0.000107933
0.000106456
0.000104458
0.000101845
9.85315e-05
9.44488e-05
8.95636e-05
8.38857e-05
7.74808e-05
7.04794e-05
6.30813e-05
0.000112517
0.000111181
0.000109295
0.000106753
0.000103457
9.93319e-05
9.43383e-05
8.84848e-05
8.1832e-05
7.45242e-05
6.67809e-05
0
0
0
0
0
0
0
0
0
0
0
0
0
0
0
0
0
0
0
0
0
0
0
0
0
0
0
0
0
0
0
0
0
0
0
0
0
0
0
0
0
0
0
0
0
0
0
0
0
0
0
0
0
0
0
0
0
0
0
0
0
0
0
0
0
0
0
0
0
0
0
0
0
0
0
0
0
0
0
0
0
0
0
0
0
0
0
0
0
0
0
0
0
0
0
0
0
0
0
0
0
0
0
0
0
0
0
0
0
0
0
0
0
0
0
0
0
0
0
0
0
0
0
0
0
0
0
0
0
0
0
0
0
0
0
0
0
0
0
0
0
0
0
0
0
0
0
0
0
0
0
0
0
0
0
0
0
0
0
0
0
0
0
0
0
0
0
0
0
0
0
0
0
0
0
0
0
0
0
0
0
0
0
0
0
0
0
0
0
0
0
0
0
0
0
0
0
0
0
0
0
0
0
0
0
0
0
0
0
0
0
0
0
0
0
0
0
0
0
0
0
0
0
0
0
0
0
0
0
0
0
0
0
0
0
0
0
0
0
0
0
0
0
0
0
0
0
0
0
0
0
0
0
0
0
0
0
0
0
0
0
0
0
0
0
0
0
0
0
0
0
0
0
0
0
0
0
0
0
0
0
0
0
0
0
0
0
0
0
0
0
0
0
0
0
0
0
0
0
0
0
0
0
0
0
0
0
0
0
0
0
0
0
0
0
0
0
0
0
0
0
0
0
0
0
0
0
0
0
0
0
0
0
0
0
0
0
0
0
0
0
0
0
0
0
0
0
0
0
0
0
0
0
0
0
0
0
0
0
0
0
0
0
0
0
0
0
0
0
0
0
0
0
0
0
0
0
0
0
0
0
0
0
0
0
0
0
0
0
0
0
0
0
0
0
0
0
0
0
0
0
0
0
0
0
0
0
0
0
0
0
0
0
0
0
0
0
0
0
0
0
0
0
0
0
0
0
0
0
0
0
0
0
0
0
0.000212803
0
0
0
0
0
0
0
0
0.000218569
0.000217867
0.000215939
0
0
0
0
0
0
0.000224096
0.000223282
0.000221164
0.000217563
0
0
0
0
0
0
0.000229071
0.000229381
0.000228536
0.00022631
0.000222511
0.000216958
0.00020951
0
0
0
0
0
0.000234468
0.000233667
0.000231426
0.000227524
0.000221757
0.000213963
0.000204055
0.000192054
0
0
0
0
0
0
0
0
0
0
0
0
0
0
0
0
0
0
0
0
0
0
0
0
0
0
0
0
0
0
0
0
0
0
0
0
0
0
0
0
0
0
0
0
0
0
0
0
0
0
0
0
0
0
0
0
0
0
0
0
0
0
0
0
0
0
0
0
0
0
0
0
0
0
0
0
0
0
0
0
0
0
0
0
0
0
0
0
0
0
0
0
0
0
0
0
0
0
0
0
0
0
0
0
0
0
0
0
0
0
0
0
0
0
0
0
0
0
0
0
0
0
0
0
0
0
0
0
0
0
0
0
0
0
0
0
0
0
0
0
0
0
0
0
0
0
0
0
0
0
0
0
0
0
0
0
0
0
0
0
0
0
0
0
0
0
0
0
0
0.00257674
0.0025344
0
0
0
0
0
0.00253116
0
0
0
0
0
0.00252732
0.00247814
0.0024215
0.00235741
0
0
0
0
0
0
0.00247361
0.00241684
0.00235225
0
0
0
0
0
0
0
0.00241163
0.00234659
0
0
0
0
0
0
0
0
0.00234042
0
0
0
0
0
0
0
0
0
0.00225898
0
0
0
0
0
0
0
0
0
0
0
0.00216568
0
0
0
0
0
0
0
0
0
0
0
0
0
0
0
0
0
0
0
0
0
0
0
0
0
0
0
0
0
0
0
0
0
0
0
0
0
0
0
0
0
0
0
0
0
0
0
0
0
0
0
0
0
0
0
0
0
0
0
0
0
0
0
0
0
0
0
0
0
0
0
0
0
0
0
0
0
0
0
0
0
0
0
0
0
0
0
0
0
0
0
0
SCALARS F_FC double 1
LOOKUP_TABLE default
0.000718072
0.000662062
0.000603622
0.000543198
0.00048137
0.000418833
0.000771634
0.000714867
0.000655304
0.000593363
0.000529595
0.000464703
0.000827963
0.000770635
0.000710133
0.000646846
0.000581297
0.000514147
0.000446225
0.000378497
0.000312083
0.000887125
0.000829447
0.000768208
0.000703758
0.000636585
0.000567328
0.000496784
0.000425913
0.00035584
0.000949167
0.000891374
0.000829625
0.00076422
0.000695607
0.000624393
0.000551352
0.000477428
0.000403724
0.00101413
0.000956481
0.000894474
0.000828349
0.00075851
0.000685524
0.000610136
0.000533268
0.000456
0.00108204
0.00102482
0.000962839
0.000896261
0.000825439
0.000750897
0.00067334
0.000593666
0.000512914
0.000432335
0.00120406
0.00115289
0.00109644
0.00103479
0.000968063
0.000896539
0.000820687
0.000741173
0.000658861
0.000574801
0.000490127
0.000406056
0.0012267
0.0011714
0.00111044
0.0010439
0.000971966
0.00089506
0.000813805
0.000729054
0.000641844
0.000553272
0.000464425
0
0
0
0
0
0
0
0
0
0
0
0
0
0
0
0
0
0
0
0
0
0
0
0
0
0
0
0
0
0
0
0
0
0
0
0
0
0
0
0
0
0
0
0
0
0
0
0
0
0
0
0
0
0
0
0
0
0
0
0
0
0
0
0
0
0
0
0
0
0
0
0
0
0
0
0
0
0
0
0
0
0
0
0
0
0
0
0
0
0
0
0
0
0
0
0
0
0
0
0
0
0
0
0
0
0
0
0
0
0
0
0
0
0
0
0
0
0
0
0
0
0
0
0
0
0
0
0
0
0
0
0
0
0
0
0
0
0
0
0
0
0
0
0
0
0
0
0
0
0
0
0
0
0
0
0
0
0
0
0
0
0
0.000685707
0.000649097
0.000610493
0.000570051
0.000528005
0.000484631
0.000722246
0.000685519
0.000646636
0.000605744
0.000563054
0.000518855
0.000760504
0.000723766
0.000684701
0.000643446
0.000600204
0.000555242
0.000508888
0.000461528
0.00041364
0.000800537
0.000763896
0.000724754
0.000683235
0.000639525
0.000593879
0.000546617
0.000498123
0.000448887
0.000842389
0.000805967
0.000766866
0.000725189
0.000681109
0.000634868
0.000586776
0.000537215
0.000486654
0.000886106
0.000850033
0.000811104
0.000769391
0.000725052
0.000678313
0.000629476
0.000578917
0.000527088
0.000931724
0.000896147
0.000857535
0.000815922
0.000771447
0.000724323
0.000674838
0.000623362
0.000570321
0.00051634
0.00101085
0.000979256
0.000944358
0.000906223
0.000864863
0.000820393
0.000773008
0.000722987
0.000670689
0.00061656
0.000561145
0.000505325
0.00102876
0.000994749
0.000957264
0.000916322
0.000872
0.000824469
0.000774009
0.000720995
0.000665884
0.000609197
0.000551735
0.000129599
0.000125776
0.000121278
0.000116023
0.000109942
0.000102982
0.000130985
0.000127876
0.000124089
0.000119534
0.000114116
0.000107767
0.000132676
0.000130318
0.000127274
0.00012345
0.000118734
0.000113013
0.000106191
9.82563e-05
8.91665e-05
0.00013468
0.000133099
0.000130837
0.000127789
0.000123827
0.000118821
0.000112658
0.000105249
9.655e-05
0.000136999
0.000136227
0.000134788
0.000132566
0.000129415
0.000125185
0.000119729
0.000112929
0.0001047
0.000139638
0.000139709
0.000139139
0.000137798
0.000135523
0.00013214
0.000127472
0.000121363
0.000113688
0.000142604
0.000143555
0.000143903
0.000143503
0.000142175
0.00013972
0.000135929
0.000130605
0.000123588
0.00011479
0.000143616
0.000145896
0.000147773
0.000149092
0.000149698
0.000149396
0.00014796
0.000145147
0.000140715
0.000134456
0.00012623
0.000116034
0.000149534
0.00015236
0.000154715
0.000156404
0.000157212
0.000156886
0.000155161
0.000151749
0.000146379
0.000138846
0.000129084
0
0
0
0
0
0
0
0
0
0
0
0
0
0
0
0
0
0
0
0
0
0
0
0
0
0
0
0
0
0
0
0
0
0
0
0
0
0
0
0
0
0
0
0
0
0
0
0
0
0
0
0
0
0
0
0
0
0
0
0
0
0
0
0
0
0
0
0
0
0
0
0
0
0
0
0
0
0
0
0
0
0.0042275
0.00417963
0.00412512
0.00406361
0.00399484
0.00391863
0.00427686
0.00423173
0.00417982
0.00412075
0.00405422
0.00398005
0.00432808
0.00428589
0.00423676
0.00418032
0.0041162
0.00404414
0.0039638
0.00387534
0.00377904
0.00438115
0.00434207
0.00429592
0.0042423
0.00418078
0.00411102
0.00403276
0.00394594
0.00385086
0.00443604
0.00440026
0.00435729
0.0043067
0.00424799
0.00418076
0.0041047
0.00401969
0.00392594
0.00449272
0.00446041
0.00442086
0.00437352
0.00431785
0.00425336
0.0041797
0.00409668
0.00400441
0.00455113
0.0045225
0.00448659
0.00444275
0.00439035
0.00432885
0.0042578
0.00417695
0.00408638
0.00398696
0.00462915
0.00461121
0.00458647
0.00455446
0.00451437
0.00446551
0.00440725
0.00433905
0.0042606
0.00417192
0.00407375
0.00396857
0.00467281
0.00465229
0.00462442
0.00458837
0.00454334
0.00448859
0.00442353
0.00434768
0.00426106
0.00416438
0.00405999
0.000661035
0.00064309
0.00062407
0.000604003
0.00058297
0.000561052
0.000681937
0.000664123
0.000645204
0.000625215
0.00060422
0.000582313
0.00070388
0.000686237
0.000667451
0.000647563
0.000626642
0.000604778
0.000582064
0.000558609
0.000534577
0.000726915
0.000709479
0.000690861
0.000671108
0.000650289
0.000628491
0.000605817
0.000582382
0.000558369
0.000751089
0.000733897
0.000715488
0.000695904
0.000675217
0.000653519
0.000630918
0.000607536
0.000583548
0.000776448
0.000759543
0.000741385
0.000722007
0.000701486
0.000679919
0.000657419
0.000634118
0.000610184
0.000803038
0.000786469
0.000768608
0.000749478
0.000729159
0.000707755
0.000685387
0.000662196
0.000638341
0.000614131
0.000845583
0.000830871
0.000814727
0.000797216
0.000778381
0.000758304
0.000737097
0.000714893
0.000691842
0.000668131
0.000644029
0.000620121
0.000860052
0.000844385
0.000827279
0.000808791
0.000788997
0.00076801
0.000745981
0.000723098
0.00069958
0.000675689
0.000651962
0.000438458
0.000440633
0.00044169
0.000441437
0.00043969
0.000436264
0.000440629
0.000443759
0.000445804
0.000446565
0.000445822
0.00044337
0.000442797
0.000446935
0.000450008
0.000451814
0.000452116
0.000450659
0.00044719
0.000441548
0.000433502
0.00044494
0.000450119
0.000454263
0.000457165
0.000458573
0.00045822
0.000455835
0.000451169
0.00044401
0.000447032
0.000453283
0.000458542
0.000462595
0.000465172
0.000465983
0.000464733
0.000461139
0.000454953
0.000449045
0.000456398
0.000462817
0.000468076
0.000471887
0.000473938
0.000473903
0.000471466
0.000466341
0.000450951
0.000459434
0.000467058
0.000473578
0.000478691
0.00048206
0.000483328
0.000482139
0.000478171
0.000471197
0.000442522
0.00045271
0.000462359
0.00047123
0.000479067
0.000485553
0.000490323
0.000492987
0.000493146
0.000490437
0.000484577
0.000475478
0.000454308
0.000465118
0.00047529
0.00048451
0.00049244
0.000498684
0.000502839
0.000504473
0.000503144
0.000498512
0.000490432
0
0
0
0
0
0
0
0
0
0
0
0
0
0
0
0
0
0
0
0
0
0
0
0
0
0
0
0
0
0
0
0
0
0
0
0
0
0
0
0
0
0
0
0
0
0
0
0
0
0
0
0
0
0
0
0
0
0
0
0
0
0
0
0
0
0
0
0
0
0
0
0
0
0
0
0
0
0
0
0
0
0.00447108
0.00446506
0.00445738
0.00444806
0.00443722
0.00442508
0.00451659
0.0045125
0.00450664
0.00449901
0.00448973
0.00447903
0.00456386
0.00456188
0.00455795
0.00455214
0.00454454
0.00453532
0.0045246
0.0045128
0.00450032
0.00461293
0.00461316
0.00461132
0.00460746
0.00460166
0.00459404
0.00458481
0.00457428
0.00456289
0.00466377
0.00466635
0.00466675
0.00466499
0.00466111
0.00465524
0.00464758
0.00463841
0.00462816
0.00471636
0.00472144
0.00472424
0.00472474
0.00472294
0.00471895
0.00471295
0.00470524
0.00469622
0.00477068
0.00477841
0.00478379
0.00478672
0.00478716
0.0047852
0.004781
0.00477484
0.00476714
0.00475839
0.00481364
0.00482666
0.00483724
0.00484539
0.00485094
0.0048538
0.00485404
0.00485177
0.00484729
0.00484099
0.00483342
0.00482531
0.00488422
0.0048979
0.00490903
0.0049174
0.00492288
0.00492548
0.00492534
0.00492264
0.00491784
0.00491152
0.00490446
0.00453337
0.00453821
0.00454276
0.00454714
0.00455165
0.00455662
0.00457791
0.00458447
0.00459061
0.00459648
0.00460234
0.00460855
0.00462418
0.00463262
0.00464047
0.00464793
0.00465525
0.00466275
0.00467075
0.00467977
0.00469032
0.00467223
0.00468265
0.00469235
0.00470152
0.0047104
0.00471929
0.00472858
0.00473872
0.00475025
0.00472204
0.00473457
0.00474626
0.00475727
0.00476783
0.00477823
0.00478886
0.00480018
0.00481273
0.0047736
0.00478837
0.00480219
0.00481519
0.00482756
0.00483959
0.00485165
0.00486422
0.00487785
0.00482688
0.00484403
0.00486016
0.0048753
0.00488963
0.00490341
0.00491701
0.00493092
0.00494568
0.0049618
0.0048608
0.00488182
0.00490155
0.00492016
0.00493762
0.00495406
0.00496973
0.00498499
0.00500033
0.0050163
0.00503347
0.00505188
0.00493835
0.00496091
0.00498219
0.00500215
0.00502088
0.0050386
0.00505567
0.00507253
0.00508977
0.00510802
0.00512741
0
0
0
0
0
0
0
0
0
0
0
0
0
0
0
0
0
0
0
0
0
0
0
0
0
0
0
0
0
0
0
0
0
0
0
0
0
0
0
0
0
0
0
0
0
0
0
0
0
0
0
0
0
0
0
0
0
0
0
0
0
0
0
0
0
0
0
0
0
0
0
0
0
0
0
0
0
0
0
0
0
0
0
0
0
0
0
0
0
0
0
0
0
0
0
0
0
0
0
0
0
0
0
0
0
0
0
0
0
0
0
0
0
0
0
0
0
0
0
0
0
0
0
0
0
0
0
0
0
0
0
0
0
0
0
0
0
0
0
0
0
0
0
0
0
0
0
0
0
0
0
0
0
0
0
0
0
0
0
0
0
0
0.0010758
0.00109744
0.00111807
0.00113745
0.00115538
0.00117163
0.00107826
0.00110059
0.00112195
0.00114207
0.00116071
0.00117758
0.0010796
0.00110269
0.0011248
0.00114568
0.00116504
0.0011826
0.00119809
0.00121129
0.00122195
0.00107977
0.00110363
0.00112652
0.00114819
0.00116832
0.00118663
0.00120281
0.00121659
0.00122774
0.00107867
0.00110331
0.00112701
0.00114951
0.00117048
0.00118958
0.00120651
0.00122095
0.00123265
0.00107623
0.00110165
0.00112619
0.00114956
0.0011714
0.00119137
0.00120911
0.00122429
0.00123659
0.00107235
0.00109856
0.00112396
0.00114823
0.00117101
0.0011919
0.00121052
0.0012265
0.00123948
0.00124911
0.00103951
0.00106694
0.00109395
0.00112023
0.00114544
0.00116919
0.00119107
0.00121065
0.00122751
0.00124126
0.00125149
0.00125766
0.00105994
0.00108772
0.00111489
0.00114108
0.00116585
0.00118876
0.00120935
0.0012272
0.00124182
0.00125274
0.00125937
0.000624992
0.000638598
0.000653976
0.000671331
0.000690917
0.000712987
0.000620623
0.000633861
0.000648921
0.000666022
0.000685415
0.000707375
0.000616907
0.00062976
0.000644464
0.000661266
0.000680435
0.000702265
0.00072702
0.000754942
0.000786236
0.000613893
0.000626329
0.000640647
0.000657113
0.00067602
0.000697675
0.000722382
0.000750413
0.000781996
0.000611619
0.000623606
0.000637505
0.000653597
0.000672197
0.000693638
0.000718249
0.000746335
0.000778153
0.000610127
0.000621632
0.000635075
0.00065075
0.000668997
0.000690173
0.000714639
0.000742735
0.000774747
0.000609464
0.000620452
0.0006334
0.000648613
0.000666454
0.000687311
0.000711577
0.00073963
0.000771786
0.000808204
0.000600824
0.000609653
0.000620115
0.000632527
0.00064723
0.000664611
0.000685088
0.000709092
0.000737041
0.000769296
0.000806056
0.000847141
0.000610779
0.000620657
0.000632484
0.000646627
0.000663496
0.000683534
0.00070721
0.000734992
0.000767297
0.000804364
0.000846041
0.00478414
0.00483367
0.00488875
0.0049502
0.00501904
0.00509644
0.00482471
0.00487502
0.00493076
0.00499274
0.00506198
0.00513966
0.00486695
0.00491816
0.00497462
0.00503718
0.00510686
0.00518485
0.00527243
0.00537102
0.00548207
0.00491088
0.00496309
0.00502036
0.00508356
0.00515372
0.00523205
0.00531988
0.00541865
0.00552991
0.00495654
0.00500983
0.00506799
0.00513191
0.00520261
0.0052813
0.00536937
0.00546832
0.00557975
0.0050039
0.00505838
0.00511755
0.00518227
0.00525357
0.00533267
0.00542098
0.00552009
0.00563163
0.00505298
0.00510875
0.00516905
0.00523467
0.00530664
0.0053862
0.00547478
0.00557403
0.00568564
0.00581102
0.00505005
0.00510374
0.00516096
0.00522252
0.00528916
0.0053619
0.00544197
0.00553085
0.00563022
0.00574187
0.00586732
0.00600689
0.00515614
0.00521502
0.00527797
0.00534576
0.00541936
0.00550001
0.00558923
0.00568876
0.00580039
0.00592583
0.00606553
0
0
0
0
0
0
0
0
0
0
0
0
0
0
0
0
0
0
0
0
0
0
0
0
0
0
0
0
0
0
0
0
0
0
0
0
0
0
0
0
0
0
0
0
0
0
0
0
0
0
0
0
0
0
0
0
0
0
0
0
0
0
0
0
0
0
0
0
0
0
0
0
0
0
0
0
0
0
0
0
0
0.001792
0.00183877
0.00188508
0.00193073
0.00197556
0.00201944
0.0017945
0.00184134
0.00188771
0.00193336
0.00197809
0.00202167
0.00179446
0.0018414
0.00188782
0.00193346
0.00197809
0.0020215
0.00206358
0.0021042
0.00214345
0.00179172
0.00183876
0.00188523
0.00193089
0.00197544
0.00201865
0.00206035
0.00210046
0.00213904
0.00178615
0.00183327
0.00187981
0.00192549
0.00197
0.00201306
0.00205447
0.00209411
0.00213203
0.00177762
0.0018248
0.00187141
0.00191712
0.00196161
0.00200456
0.00204572
0.00208495
0.00212222
0.00176597
0.00181318
0.00185985
0.00190563
0.00195013
0.00199301
0.00203397
0.00207283
0.0021095
0.00214407
0.00170368
0.00175106
0.00179828
0.00184501
0.00189085
0.0019354
0.00197825
0.00201907
0.0020576
0.00209375
0.00212754
0.00215916
0.00173279
0.00177999
0.00182676
0.00187267
0.00191727
0.0019601
0.00200079
0.00203911
0.00207479
0.00210783
0.00213838
0.000601047
0.000631994
0.000667064
0.000706794
0.000751802
0.000802745
0.000583038
0.000612798
0.00064669
0.000685264
0.000729141
0.000779012
0.000565901
0.00059445
0.000627113
0.000664466
0.000707159
0.00075591
0.000811437
0.000874501
0.000945878
0.000549671
0.000576975
0.000608368
0.000644449
0.000685896
0.000733447
0.000787888
0.000850024
0.000920669
0.00053438
0.000560403
0.000590484
0.000625241
0.000665378
0.000711665
0.00076493
0.000826029
0.000895838
0.000520058
0.000544766
0.000573492
0.000606872
0.000645633
0.000690581
0.000742585
0.000802557
0.000871434
0.00050674
0.0005301
0.000557428
0.000589374
0.000626692
0.000670222
0.000720877
0.000779627
0.000847465
0.000925363
0.000475775
0.000494465
0.000516441
0.000542327
0.000572785
0.000608592
0.000650623
0.000699836
0.00075726
0.000823961
0.000900987
0.000989353
0.000483245
0.000503817
0.000528206
0.000557112
0.000591341
0.000631799
0.00067949
0.000735503
0.00080096
0.000877007
0.000964741
0
0
0
0
0
0
0
0
0
0
0
0
0
0
0
0
0
0
0
0
0
0
0
0
0
0
0
0
0
0
0
0
0
0
0
0
0
0
0
0
0
0
0
0
0
0
0
0
0
0
0
0
0
0
0
0
0
0
0
0
0
0
0
0
0
0
0
0
0
0
0
0
0
0
0
0
0
0
0
0
0
0.00502347
0.0051184
0.0052254
0.00534619
0.00548281
0.00563759
0.00505986
0.0051545
0.005261
0.0053811
0.00551686
0.00567058
0.00509787
0.00519228
0.00529831
0.00541771
0.00555256
0.00570523
0.00587847
0.0060753
0.00629926
0.00513753
0.00523177
0.00533736
0.00545607
0.00558999
0.00574155
0.0059135
0.00610903
0.0063318
0.00517888
0.00527302
0.00537822
0.00549625
0.00562921
0.00577958
0.00595018
0.00614429
0.00636572
0.00522196
0.00531606
0.00542092
0.00553829
0.0056703
0.00581942
0.00598858
0.00618114
0.00640105
0.00526677
0.00536092
0.00546551
0.00558227
0.00571332
0.00586117
0.00602879
0.00621968
0.00643788
0.00668812
0.00522756
0.00531333
0.00540763
0.00551205
0.00562826
0.00575837
0.00590491
0.00607093
0.00626
0.00647632
0.00672486
0.00701135
0.00536161
0.00545625
0.00556059
0.00567632
0.00580551
0.00595072
0.00611503
0.00630223
0.00651646
0.00676306
0.00704801
0
0
0
0
0
0
0
0
0
0
0
0
0
0
0
0
0
0
0
0
0
0
0
0
0
0
0
0
0
0
0
0
0
0
0
0
0
0
0
0
0
0
0
0
0
0
0
0
0
0
0
0
0
0
0
0
0
0
0
0
0
0
0
0
0
0
0
0
0
0
0
0
0
0
0
0
0
0
0
0
0
6.26865e-06
1.07273e-05
1.62663e-05
2.27731e-05
3.01023e-05
3.80571e-05
3.13715e-06
6.36917e-06
1.06668e-05
1.59405e-05
2.20603e-05
2.88502e-05
1.00198e-06
3.00408e-06
6.04228e-06
1.00502e-05
1.49238e-05
2.05233e-05
2.66533e-05
3.30669e-05
3.94952e-05
3.69227e-08
8.13931e-07
2.58527e-06
5.30854e-06
8.90643e-06
1.32608e-05
1.8209e-05
2.35421e-05
2.90065e-05
0
8.77567e-10
5.10095e-07
1.93969e-06
4.23969e-06
7.32158e-06
1.10525e-05
1.52522e-05
1.96936e-05
0
0
0
1.89166e-07
1.17856e-06
2.96074e-06
5.43539e-06
8.45451e-06
1.1822e-05
0
0
0
0
3.89573e-09
4.68162e-07
1.65324e-06
3.44736e-06
5.68879e-06
8.17003e-06
0
0
0
0
0
0
0
3.44471e-08
5.62881e-07
1.62889e-06
3.06195e-06
4.6553e-06
0
0
0
0
0
0
0
0
1.19352e-08
3.39548e-07
9.84513e-07
0.00270413
0.00278465
0.00286559
0.00294682
0.0030283
0.00311003
0.00270727
0.0027869
0.00286684
0.00294689
0.00302697
0.00310692
0.00270595
0.00278467
0.00286357
0.00294242
0.00302105
0.00309945
0.00317774
0.00325602
0.00333498
0.00269993
0.00277771
0.00285554
0.00293316
0.00301036
0.00308703
0.0031632
0.00323916
0.00331551
0.00268899
0.00276579
0.00284252
0.0029189
0.00299467
0.00306965
0.00314385
0.00321749
0.00329115
0.00267292
0.00274868
0.00282429
0.00289943
0.00297377
0.00304709
0.00311933
0.00319066
0.00326161
0.00265152
0.00272618
0.00280064
0.00287452
0.00294745
0.00301913
0.00308944
0.00315848
0.00322673
0.00329513
0.00255129
0.00262458
0.00269807
0.00277135
0.00284397
0.00291549
0.00298556
0.00305398
0.00312078
0.00318637
0.00325167
0.00331859
0.00259195
0.00266424
0.0027363
0.00280764
0.00287776
0.00294621
0.00301269
0.00307732
0.00314029
0.00320245
0.00326573
0.000569326
0.000616691
0.000671032
0.000733391
0.000804954
0.00088702
0.000538297
0.00058326
0.000635104
0.000694876
0.000763767
0.000843125
0.000508691
0.000551243
0.000600537
0.000657646
0.000723794
0.000800374
0.000888832
0.000990769
0.00110789
0.000480524
0.000520647
0.000567362
0.00062176
0.000685095
0.000758776
0.000844352
0.000943488
0.00105796
0.000453813
0.000491498
0.000535609
0.000587251
0.000647704
0.000718413
0.00080098
0.000897151
0.00100881
0.000428573
0.000463818
0.000505304
0.000554151
0.000611658
0.000679305
0.000758752
0.000851822
0.000960499
0.000404819
0.000437625
0.000476474
0.000522491
0.000576993
0.000641495
0.00071771
0.000807542
0.00091306
0.00103652
0.000357083
0.000382599
0.000412939
0.000449141
0.0004923
0.000543746
0.000605025
0.000677901
0.000764354
0.000866568
0.000986889
0.00112805
0.000361831
0.000389779
0.000423312
0.000463575
0.000511914
0.000569903
0.000639358
0.000722337
0.000821078
0.000938101
0.00107626
2.81055e-06
1.65698e-06
7.38201e-07
1.48683e-07
0
0
3.0227e-06
1.93639e-06
1.0147e-06
3.3574e-07
9.98799e-09
0
3.33594e-06
2.31972e-06
1.40164e-06
6.44234e-07
1.37772e-07
0
0
0
0
3.76639e-06
2.82853e-06
1.92892e-06
1.11412e-06
4.53656e-07
5.44149e-08
0
0
0
4.33352e-06
3.49012e-06
2.63253e-06
1.79132e-06
1.01487e-06
3.83863e-07
2.67e-08
0
0
5.0617e-06
4.33679e-06
3.55407e-06
2.72796e-06
1.88556e-06
1.08049e-06
4.07814e-07
2.45943e-08
0
5.98023e-06
5.4063e-06
4.74097e-06
3.98258e-06
3.1371e-06
2.23031e-06
1.32215e-06
5.27129e-07
4.21691e-08
0
7.41263e-06
7.12294e-06
6.74211e-06
6.24678e-06
5.62036e-06
4.84827e-06
3.92795e-06
2.88227e-06
1.77994e-06
7.63154e-07
8.67397e-08
0
8.53084e-06
8.39086e-06
8.13042e-06
7.71341e-06
7.10472e-06
6.27396e-06
5.20783e-06
3.92575e-06
2.50829e-06
1.13689e-06
1.58215e-07
0.00400253
0.00391621
0.00381911
0.00371069
0.00359054
0.00345841
0.00405556
0.00397272
0.00387889
0.00377352
0.00365612
0.0035264
0.00411052
0.00403139
0.0039411
0.00383903
0.00372461
0.00359743
0.00345701
0.00330347
0.00313698
0.0041674
0.0040922
0.00400568
0.00390718
0.00379601
0.00367161
0.00353358
0.00338174
0.00321619
0.00422614
0.0041551
0.00407263
0.00397796
0.00387033
0.00374904
0.00361359
0.00346368
0.00329926
0.00428667
0.00422004
0.0041419
0.00405137
0.00394756
0.00382968
0.0036971
0.00354939
0.00338633
0.00434894
0.00428696
0.00421344
0.00412736
0.00402771
0.00391358
0.00378418
0.00363895
0.00347757
0.00330017
0.00445932
0.00441285
0.00435578
0.0042872
0.0042059
0.00411077
0.00400073
0.00387486
0.00373245
0.00357304
0.00339649
0.00320357
0.00447823
0.00442643
0.00436311
0.00428696
0.00419672
0.00409117
0.00396922
0.00382993
0.00367276
0.00349743
0.00330441
SCALARS F_3 double 1
LOOKUP_TABLE default
0.00169742
0.00179529
0.00189562
0.00199841
0.00210311
0.002209
0.00169833
0.00179914
0.0019029
0.00200919
0.0021173
0.00222662
0.00169761
0.00180134
0.00190829
0.00201793
0.00212955
0.00224279
0.00235639
0.00246957
0.00258231
0.00169475
0.00180145
0.00191168
0.00202478
0.00214007
0.00225678
0.00237415
0.00249137
0.00260828
0.0016896
0.00179932
0.00191293
0.00202963
0.00214873
0.00226947
0.00239096
0.00251239
0.00263354
0.00168201
0.00179481
0.00191188
0.00203231
0.00215541
0.00228034
0.0024062
0.0025321
0.00265776
0.00167184
0.00178774
0.00190836
0.00203266
0.00215993
0.00228928
0.00241972
0.00255035
0.00268085
0.00281253
0.00154352
0.00165819
0.00177791
0.00190217
0.0020305
0.00216214
0.00229611
0.00243141
0.00256704
0.00270261
0.00283946
0.00298985
0.00164227
0.00176476
0.00189222
0.00202452
0.00216097
0.00230043
0.00244149
0.00258263
0.00272327
0.00286529
0.00302092
0.00422219
0.00445692
0.00469739
0.00494291
0.00519214
0.00544348
0.00425982
0.0045044
0.00475515
0.00501094
0.0052702
0.00553129
0.00429987
0.00455456
0.00481571
0.00508196
0.00535169
0.00562344
0.00589495
0.00616443
0.00643136
0.00434198
0.00460715
0.0048791
0.00515629
0.00543704
0.00571946
0.00600157
0.00628148
0.00655825
0.00438613
0.00466214
0.0049453
0.00523392
0.00552626
0.00582031
0.00611386
0.00640483
0.00669197
0.00443231
0.00471948
0.00501426
0.00531483
0.00561936
0.0059257
0.00623143
0.00653423
0.00683252
0.00448045
0.00477911
0.00508593
0.00539898
0.00571633
0.00603567
0.00635437
0.00666984
0.00698013
0.00728854
0.00422845
0.00452985
0.00484093
0.00516024
0.00548632
0.00581716
0.00615027
0.0064828
0.00681185
0.00713506
0.00745525
0.0077832
0.00458208
0.00490461
0.00523618
0.00557558
0.00592084
0.00626923
0.00661727
0.00696107
0.00729793
0.00763062
0.00796902
0
0
0
0
0
0
0
0
0
0
0
0
0
0
0
0
0
0
0
0
0
0
0
0
0
0
0
0
0
0
0
0
0
0
0
0
0
0
0
0
0
0
0
0
0
0
0
0
0
0
0
0
0
0
0
0
0
0
0
0
0
0
0
0
0
0
0
0
0
0
0
0
0
0
0
0
0
0
0
0
0
0.00694171
0.00738201
0.00783988
0.00831505
0.00880664
0.00931345
0.00696084
0.00741168
0.00788071
0.00836741
0.00887085
0.00938988
0.00698211
0.00744364
0.00792393
0.00842241
0.00893818
0.0094703
0.0100169
0.0105762
0.0111476
0.00700547
0.00747801
0.00796992
0.00848059
0.00900918
0.00955449
0.010115
0.0106889
0.0112755
0.00703117
0.007515
0.00801889
0.00854217
0.00908406
0.00964338
0.0102185
0.0108078
0.0114101
0.00705945
0.00755483
0.00807104
0.00860736
0.00916307
0.00973699
0.0103275
0.0109328
0.0115518
0.00709053
0.00759772
0.00812658
0.00867637
0.00924641
0.00983556
0.0104422
0.0110644
0.011701
0.0123542
0.00662611
0.00712401
0.00764386
0.00818574
0.00874944
0.00933434
0.00993935
0.0105629
0.011203
0.0118581
0.0125305
0.0132268
0.00716176
0.00769336
0.00824796
0.00882571
0.0094262
0.0100483
0.0106903
0.0113493
0.0120239
0.0127165
0.0134334
0.00818604
0.00868458
0.00920185
0.00973728
0.0102896
0.0108572
0.00821071
0.00872217
0.00925297
0.00980221
0.0103685
0.0109502
0.00823753
0.00876228
0.00930685
0.00987026
0.0104512
0.0110481
0.0116589
0.0122815
0.0129147
0.00826647
0.00880495
0.00936383
0.00994201
0.0105382
0.0111506
0.0117775
0.0124165
0.0130663
0.00829773
0.00885038
0.00942408
0.0100177
0.0106298
0.0112587
0.0119025
0.0125587
0.0132259
0.00833149
0.00889874
0.0094878
0.0100974
0.0107262
0.0113724
0.012034
0.0127084
0.0133941
0.00836792
0.00895019
0.00955514
0.0101814
0.0108276
0.011492
0.0121723
0.012866
0.0135712
0.014287
0.00783195
0.00840663
0.00900487
0.00962627
0.0102699
0.0109344
0.0116178
0.0123179
0.0130319
0.0137579
0.0144945
0.0152478
0.00844941
0.00906291
0.00970065
0.010362
0.0110457
0.0117498
0.0124715
0.0132074
0.0139551
0.0147136
0.0154889
0.00851087
0.00903259
0.00957382
0.0101341
0.0107121
0.0113062
0.00855345
0.00908986
0.00964623
0.0102217
0.010815
0.0114244
0.0086016
0.0091531
0.00972497
0.0103162
0.0109255
0.0115514
0.0121916
0.0128439
0.0135066
0.00865538
0.00922253
0.00981052
0.0104182
0.0110443
0.0116871
0.0123444
0.0130141
0.0136942
0.00871508
0.00929844
0.00990317
0.010528
0.0111717
0.0118324
0.012508
0.0131959
0.0138943
0.00878097
0.00938109
0.0100032
0.010646
0.0113081
0.0119877
0.0126825
0.0133898
0.0141075
0.00885332
0.00947072
0.0101109
0.0107724
0.0114539
0.0121533
0.0128684
0.0135963
0.0143346
0.015083
0.00831959
0.00893175
0.00956755
0.0102265
0.0109075
0.0116093
0.0123297
0.0130663
0.0138161
0.0145764
0.0153464
0.016125
0.00901814
0.00967173
0.0103494
0.0110506
0.0117738
0.012517
0.0132771
0.0140504
0.0148338
0.015627
0.0164283
0.0090042
0.00957812
0.010175
0.0107946
0.0114356
0.0120965
0.00904271
0.0096317
0.0102442
0.0108796
0.0115368
0.0122142
0.00908801
0.00969233
0.0103207
0.0109725
0.0116466
0.0123416
0.0130549
0.0137833
0.0145231
0.00914029
0.00976045
0.0104053
0.0110741
0.0117658
0.0124787
0.0132107
0.0139584
0.014718
0.00920004
0.0098365
0.0104983
0.0111847
0.0118947
0.0126267
0.0133783
0.0141462
0.0149265
0.00926773
0.00992092
0.0106003
0.0113049
0.012034
0.0127858
0.013558
0.0143473
0.0151494
0.00934377
0.0100141
0.0107116
0.0114351
0.012184
0.0129566
0.0137505
0.0145623
0.0153875
0.0162211
0.00876675
0.00942796
0.0101166
0.0108326
0.0115758
0.0123453
0.0131396
0.0139563
0.0147919
0.0156417
0.0165004
0.0173526
0.00952241
0.0102285
0.0109631
0.0117263
0.0125175
0.0133351
0.0141765
0.0150374
0.015913
0.0167985
0.0176782
0.00992736
0.0105586
0.0112155
0.0118978
0.0126041
0.0133327
0.00995632
0.0106027
0.0112755
0.0119741
0.0126971
0.0134428
0.00999093
0.0106529
0.0113418
0.0120571
0.0127974
0.0135614
0.0143461
0.0151475
0.0159588
0.0100315
0.0107094
0.011415
0.0121476
0.012906
0.0136886
0.0144928
0.0153146
0.016147
0.0100785
0.0107729
0.0114957
0.0122462
0.0130234
0.0138256
0.0146502
0.0154932
0.0163477
0.0101326
0.0108438
0.0115843
0.0123533
0.01315
0.0139726
0.0148186
0.0156839
0.0165616
0.0101942
0.0109226
0.0116813
0.0124695
0.0132864
0.0141303
0.0149987
0.0158875
0.0167897
0.0176926
0.00954705
0.0102632
0.0110099
0.0117873
0.0125954
0.0134332
0.0142993
0.0151912
0.0161047
0.0170328
0.0179627
0.0188658
0.0103418
0.011106
0.0119021
0.0127303
0.0135901
0.01448
0.0153972
0.0163369
0.017292
0.0182504
0.0191837
0.0105745
0.0112288
0.0119087
0.0126138
0.0133429
0.0140939
0.0106178
0.0112882
0.0119848
0.0127068
0.0134529
0.0142211
0.0106668
0.0113538
0.0120674
0.0128068
0.0135707
0.0143575
0.0151644
0.0159875
0.0168196
0.0107217
0.0114259
0.0121572
0.0129148
0.0136973
0.0145031
0.0153296
0.0161727
0.0170255
0.0107828
0.0115049
0.0122546
0.0130311
0.013833
0.0146589
0.015506
0.0163702
0.0172446
0.0108507
0.0115911
0.01236
0.0131561
0.0139785
0.0148253
0.0156941
0.0165806
0.0174778
0.0109256
0.011685
0.0124737
0.0132905
0.0141342
0.0150031
0.0158946
0.0168046
0.0177259
0.0186428
0.0102575
0.0110073
0.0117869
0.0125962
0.0134345
0.0143006
0.0151927
0.0161083
0.017043
0.01799
0.0189332
0.0198448
0.0110979
0.0118972
0.0127272
0.0135876
0.0144772
0.0153944
0.0163362
0.0172975
0.0182712
0.0192422
0.020183
0.0105486
0.0112098
0.0118978
0.0126124
0.0133525
0.0141162
0.0105916
0.0112694
0.0119745
0.0127065
0.013464
0.0142453
0.0106414
0.0113362
0.0120588
0.0128086
0.0135845
0.0143847
0.0152067
0.0160463
0.0168961
0.0106979
0.0114104
0.0121513
0.0129197
0.0137147
0.0145344
0.0153764
0.0162367
0.0171077
0.0107618
0.0114926
0.0122524
0.0130402
0.0138551
0.0146955
0.0155587
0.0164406
0.0173338
0.0108335
0.0115832
0.0123626
0.0131707
0.0140065
0.0148684
0.0157538
0.0166586
0.0175753
0.0109132
0.0116825
0.0124822
0.0133115
0.0141692
0.0150537
0.0159626
0.0168916
0.0178331
0.0187729
0.0102416
0.0110008
0.0117909
0.0126118
0.0134631
0.0143438
0.0152522
0.0161858
0.0171403
0.0181083
0.0190753
0.0200052
0.0110984
0.0119087
0.012751
0.013625
0.0145299
0.015464
0.0164245
0.0174064
0.018402
0.0193979
0.0203582
0.0105059
0.0111788
0.0118798
0.0126086
0.0133637
0.0141431
0.0105338
0.0112237
0.0119423
0.0126891
0.0134627
0.0142611
0.0105685
0.0112757
0.0120124
0.0127778
0.0135706
0.0143892
0.0152302
0.016089
0.0169573
0.0106104
0.0113355
0.0120907
0.0128753
0.0136882
0.0145275
0.0153901
0.0162713
0.0171629
0.0106601
0.0114035
0.0121779
0.0129824
0.0138161
0.0146771
0.0155623
0.016467
0.0173829
0.0107182
0.0114804
0.0122744
0.0130996
0.0139549
0.0148385
0.0157474
0.0166768
0.0176183
0.0107853
0.0115667
0.012381
0.0132275
0.0141052
0.0150124
0.0159461
0.0169015
0.01787
0.0188363
0.0100928
0.0108613
0.011663
0.0124983
0.0133667
0.0142676
0.0151994
0.0161591
0.0171419
0.0181391
0.0191351
0.0200909
0.0109486
0.0117699
0.0126259
0.0135168
0.0144421
0.0154001
0.0163877
0.0173994
0.0184265
0.0194543
0.0204435
0.010484
0.0111622
0.0118671
0.0125976
0.013352
0.0141275
0.0104964
0.0111922
0.0119155
0.0126651
0.0134391
0.0142348
0.0105161
0.0112298
0.0119718
0.0127408
0.0135352
0.0143524
0.0151887
0.0160387
0.016894
0.0105434
0.0112754
0.0120366
0.0128258
0.0136412
0.0144804
0.0153396
0.0162134
0.0170932
0.0105794
0.0113301
0.0121109
0.0129207
0.0137579
0.0146199
0.015503
0.0164017
0.0173071
0.0106249
0.0113944
0.0121953
0.0130263
0.0138859
0.0147716
0.0156796
0.0166044
0.0175367
0.0106808
0.0114694
0.0122906
0.0131433
0.014026
0.0149362
0.0158703
0.0168223
0.0177831
0.0187378
0.00997214
0.0107473
0.0115558
0.0123977
0.0132726
0.014179
0.0151146
0.0160757
0.0170564
0.0180473
0.019033
0.0199782
0.010827
0.0116544
0.0125167
0.0134139
0.0143448
0.0153074
0.0162973
0.0173082
0.0183303
0.019349
0.0203283
0
0
0
0
0
0
0
0
0
0
0
0
0
0
0
0
0
0
0
0
0
0
0
0
0
0
0
0
0
0
0
0
0
0
0
0
0
0
0
0
0
0
0
0
0
0
0
0
0
0
0
0
0
0
0
0
0
0
0
0
0
0
0
0
0
0
0
0
0
0
0
0
0
0
0
0
0
0
0
0
0
0.0101747
0.0108468
0.0115465
0.0122723
0.0130222
0.0137932
0.01016
0.01085
0.0115685
0.0123139
0.0130844
0.0138768
0.010152
0.01086
0.0115974
0.012363
0.0131546
0.0139697
0.0148039
0.0156514
0.0165038
0.0101512
0.0108775
0.0116343
0.0124204
0.0132339
0.014072
0.0149305
0.0158036
0.0166821
0.0101589
0.0109034
0.0116799
0.012487
0.0133229
0.0141849
0.0150687
0.0159682
0.0168743
0.0101761
0.010939
0.0117352
0.0125636
0.0134224
0.014309
0.015219
0.0161462
0.0170812
0.010204
0.0109852
0.0118012
0.0126511
0.0135333
0.0144451
0.0153823
0.0163384
0.0173039
0.0182636
0.00947896
0.0102432
0.0110432
0.0118791
0.0127506
0.0136564
0.0145941
0.0155594
0.0165457
0.0175432
0.0185362
0.0194951
0.0102967
0.0111142
0.0119692
0.0128621
0.0137921
0.0147567
0.0157515
0.0167694
0.0178001
0.0188285
0.0198237
0.00983849
0.0105033
0.0111971
0.0119189
0.0126667
0.0134377
0.00981007
0.010492
0.011204
0.0119449
0.0127129
0.0135052
0.00978641
0.0104855
0.0112159
0.0119765
0.0127654
0.0135801
0.0144164
0.0152682
0.0161275
0.00976815
0.0104847
0.0112338
0.0120143
0.0128248
0.0136623
0.0145229
0.0154005
0.0162865
0.00975625
0.0104903
0.0112583
0.0120593
0.0128917
0.013753
0.0146389
0.0155433
0.0164573
0.00975179
0.0105033
0.0112903
0.012112
0.0129669
0.0138525
0.0147647
0.0156971
0.0166406
0.0097559
0.0105248
0.0113308
0.0121733
0.0130511
0.0139618
0.0149011
0.0158628
0.0168373
0.0178086
0.00902007
0.00976904
0.0105558
0.0113808
0.0122442
0.0131451
0.0140813
0.0150488
0.016041
0.0170482
0.0180537
0.0190306
0.00979425
0.0105975
0.0114407
0.0123247
0.0132491
0.0142119
0.0152088
0.0162328
0.0172739
0.0183158
0.0193302
0.00951633
0.0101483
0.0108072
0.0114926
0.0122031
0.0129364
0.00951611
0.0101636
0.010839
0.0115414
0.0122696
0.0130213
0.00952123
0.0101845
0.0108765
0.0115964
0.012343
0.0131143
0.0139072
0.0147172
0.0155381
0.00953214
0.0102115
0.0109206
0.0116584
0.012424
0.0132153
0.0140293
0.0148616
0.0157055
0.00954955
0.0102453
0.0109717
0.011728
0.0125132
0.0133253
0.0141614
0.0150169
0.0158849
0.00957424
0.0102866
0.0110307
0.0118059
0.0126112
0.0134449
0.0143039
0.0151837
0.0160772
0.009607
0.010336
0.0110982
0.0118926
0.0127187
0.0135746
0.0144575
0.0153628
0.016283
0.0172076
0.00893465
0.00964793
0.0103945
0.0111749
0.011989
0.0128363
0.0137152
0.014623
0.0155549
0.0165035
0.0174574
0.0183958
0.00969954
0.0104627
0.0112609
0.0120947
0.012964
0.0138672
0.0148014
0.0157612
0.0167392
0.0177244
0.018695
0.00893326
0.00950521
0.0100985
0.0107123
0.0113452
0.0119949
0.00895773
0.00954524
0.0101548
0.0107852
0.0114351
0.0121022
0.00898953
0.00959297
0.010219
0.0108665
0.011534
0.0122195
0.0129204
0.0136332
0.0143541
0.00902911
0.0096488
0.0102917
0.0109568
0.0116426
0.012347
0.0130674
0.0138005
0.0145419
0.00907719
0.00971344
0.0103737
0.0110569
0.0117615
0.0124857
0.0132266
0.0139808
0.0147437
0.00913456
0.00978762
0.0104656
0.0111673
0.0118915
0.0126361
0.0133984
0.0141748
0.0149604
0.00920194
0.00987206
0.0105681
0.0112889
0.0120332
0.012799
0.0135836
0.0143832
0.0151928
0.0160084
0.00861801
0.00927939
0.00996748
0.010682
0.0114223
0.0121872
0.012975
0.0137829
0.0146069
0.0154419
0.0162832
0.0171258
0.00936927
0.0100743
0.010807
0.011567
0.0123535
0.0131647
0.0139976
0.0148472
0.0157086
0.0165772
0.0174472
0.00809033
0.00861591
0.00916147
0.0097256
0.0103063
0.0109009
0.00807618
0.00861765
0.00917999
0.00976159
0.0103604
0.0109738
0.00806771
0.00862526
0.00920453
0.00980395
0.0104215
0.0110548
0.0117002
0.012354
0.0130124
0.00806553
0.00863932
0.00923582
0.00985348
0.0104903
0.0111438
0.0118103
0.012486
0.0131667
0.00807062
0.00866071
0.00927463
0.00991086
0.0105675
0.0112419
0.0119304
0.0126289
0.0133328
0.00808403
0.00869037
0.00932181
0.00997685
0.0106537
0.0113496
0.0120609
0.0127833
0.0135117
0.00810688
0.00872931
0.00937826
0.0100522
0.0107495
0.0114675
0.0122025
0.0129498
0.0137041
0.0144624
0.00752821
0.00813957
0.00877861
0.00944494
0.0101379
0.0108559
0.0115965
0.0123558
0.0131291
0.0139107
0.0146966
0.0154917
0.00818504
0.00883917
0.0095221
0.0102337
0.0109728
0.011737
0.012522
0.0133224
0.0141322
0.0149475
0.0157714
0.00741337
0.00791605
0.00844066
0.00898598
0.00955016
0.0101308
0.00736796
0.00788456
0.00842418
0.00898545
0.00956656
0.0101651
0.00732362
0.00785418
0.00840889
0.00898645
0.00958511
0.0102027
0.0108355
0.0114797
0.0121316
0.00728065
0.00782527
0.00839529
0.00898949
0.0096062
0.010243
0.0108964
0.0115623
0.0122367
0.00723978
0.00779844
0.0083839
0.00899501
0.00963017
0.0102869
0.0109617
0.0116504
0.0123484
0.00720183
0.00777441
0.00837532
0.00900348
0.00965741
0.0103347
0.0110317
0.0117441
0.0124671
0.00716772
0.00775398
0.00837023
0.00901547
0.00968839
0.0103866
0.0111067
0.0118439
0.0125931
0.0133509
0.00656826
0.00713774
0.00773807
0.00836942
0.00903163
0.00972365
0.0104433
0.011187
0.0119501
0.0127271
0.0135134
0.014316
0.00711473
0.00772758
0.0083731
0.00905181
0.00976312
0.0105049
0.0112735
0.0120634
0.0128691
0.013686
0.0145191
0.00649966
0.00693579
0.0073905
0.00786342
0.00835358
0.00885946
0.00649082
0.00693783
0.00740423
0.0078894
0.00839236
0.00891169
0.0064838
0.0069418
0.00741994
0.0079176
0.00843384
0.00896746
0.00951616
0.0100777
0.0106503
0.00647863
0.00694778
0.00743792
0.00794841
0.00847838
0.00902643
0.00959061
0.0101686
0.0107583
0.00647575
0.00695618
0.00745853
0.00798215
0.00852625
0.00908947
0.00966985
0.010265
0.0108725
0.00647561
0.00696741
0.00748216
0.00801918
0.00857778
0.00915668
0.00975392
0.0103671
0.0109935
0.0064787
0.00698194
0.00750921
0.00805986
0.00863331
0.00922837
0.00984314
0.0104751
0.0111214
0.0117826
0.00599375
0.00648483
0.00700025
0.00754014
0.00810461
0.00869321
0.0093049
0.00993786
0.0105895
0.0112569
0.0119398
0.0126446
0.00649614
0.00702255
0.00757459
0.00815283
0.00875708
0.00938645
0.0100388
0.0107111
0.0114001
0.0121063
0.0128346
0
0
0
0
0
0
0
0
0
0
0
0
0
0
0
0
0
0
0
0
0
0
0
0
0
0
0
0
0
0
0
0
0
0
0
0
0
0
0
0
0
0
0
0
0
0
0
0
0
0
0
0
0
0
0
0
0
0
0
0
0
0
0
0
0
0
0
0
0
0
0
0
0
0
0
0
0
0
0
0
0
0.00516055
0.00547989
0.0058082
0.00614487
0.00648869
0.00683809
0.00519354
0.00552358
0.00586313
0.00621119
0.00656644
0.00692732
0.00523187
0.00557284
0.00592369
0.00628331
0.0066504
0.00702362
0.00740074
0.00778
0.00815944
0.00527555
0.00562766
0.0059901
0.00636166
0.00674106
0.00712669
0.0075166
0.00790894
0.00830124
0.00532501
0.00568844
0.00606274
0.00644661
0.00683876
0.00723757
0.00764098
0.00804694
0.00845276
0.00538067
0.0057556
0.006142
0.00653851
0.00694384
0.00735634
0.00777387
0.0081942
0.00861438
0.00544294
0.00582953
0.00622826
0.00663774
0.00705667
0.00748338
0.00791568
0.00835115
0.00878657
0.0092238
0.00512559
0.0055115
0.00591061
0.00632194
0.00674469
0.00717761
0.00761906
0.00806682
0.00851828
0.00897009
0.00942311
0.00987642
0.00558829
0.00599875
0.00642231
0.00685851
0.00730611
0.00776355
0.00822817
0.00869638
0.00916493
0.00963513
0.0101048
0
0
0
0
0
0
0
0
0
0
0
0
0
0
0
0
0
0
0
0
0
0
0
0
0
0
0
0
0
0
0
0
0
0
0
0
0
0
0
0
0
0
0
0
0
0
0
0
0
0
0
0
0
0
0
0
0
0
0
0
0
0
0
0
0
0
0
0
0
0
0
0
0
0
0
0
0
0
0
0
0
0.00378442
0.0040173
0.00425625
0.00449981
0.004746
0.00499264
0.0037668
0.004011
0.00426207
0.00451822
0.0047774
0.00503742
0.0037519
0.00400748
0.00427062
0.00453952
0.00481213
0.00508637
0.0053589
0.00562654
0.0058855
0.00373995
0.00400694
0.00428231
0.00456422
0.00485063
0.00513904
0.0054263
0.005709
0.00598286
0.00373165
0.00400998
0.00429761
0.00459268
0.00489316
0.00519639
0.00549901
0.0057974
0.00608696
0.00372783
0.00401727
0.00431705
0.00462531
0.00494
0.00525839
0.00557695
0.0058918
0.00619796
0.00372937
0.00402954
0.00434123
0.00466256
0.00499152
0.00532534
0.00566034
0.0059924
0.00631608
0.00662879
0.00343851
0.00373648
0.00404763
0.00437083
0.00470498
0.00504814
0.00539755
0.00574942
0.0060994
0.00644176
0.00677264
0.0070913
0.00375188
0.00407214
0.00440575
0.00475211
0.00510952
0.00547523
0.00584495
0.00621338
0.0065747
0.00692528
0.00726238
0.00277832
0.00297054
0.00317041
0.00337658
0.00358725
0.00380044
0.00271606
0.00291587
0.00312434
0.00333991
0.00356077
0.00378499
0.00264937
0.00285669
0.00307369
0.00329885
0.00353038
0.00376641
0.00400368
0.00423851
0.00446839
0.00257781
0.00279269
0.00301839
0.00325343
0.00349601
0.00374381
0.0039938
0.00424206
0.00448575
0.0025014
0.00272381
0.00295831
0.00320342
0.00345735
0.00371762
0.00398099
0.00424344
0.00450184
0.00242021
0.00265001
0.00289333
0.00314863
0.00341414
0.0036873
0.00396474
0.00424227
0.00451638
0.00233438
0.00257135
0.00282336
0.00308886
0.00336614
0.00365258
0.00394474
0.00423822
0.00452912
0.00481019
0.00201504
0.00224343
0.00248796
0.00274842
0.003024
0.00331312
0.00361318
0.00392062
0.0042309
0.00453985
0.0048391
0.00514192
0.0021493
0.00240006
0.00266813
0.00295332
0.00325438
0.00356872
0.0038924
0.00422026
0.00454774
0.00486695
0.00518923
0.00127017
0.00136306
0.00145923
0.00155826
0.00165934
0.00176152
0.00124501
0.00134143
0.00144181
0.0015454
0.00165134
0.00175876
0.00121753
0.00131735
0.0014217
0.00152981
0.00164081
0.00175399
0.00186745
0.00197927
0.00208853
0.00118715
0.00129037
0.00139877
0.00151153
0.00162778
0.00174638
0.00186586
0.0019842
0.00210023
0.00115373
0.00126035
0.00137284
0.00149035
0.001612
0.00173657
0.00186248
0.00198768
0.00211087
0.00111716
0.00122711
0.00134372
0.00146604
0.00159323
0.00172399
0.0018567
0.00198922
0.00212006
0.00107728
0.00119047
0.00131116
0.00143836
0.0015712
0.00170839
0.00184825
0.00198855
0.00212762
0.00226144
0.00092412
0.00103322
0.00115024
0.00127497
0.00140703
0.00154563
0.00168947
0.00183681
0.00198536
0.00213342
0.00227613
0.00241855
0.000986218
0.00110601
0.00123423
0.00137096
0.00151558
0.00166678
0.00182243
0.00197967
0.00213666
0.00228934
0.00244169
0.00353845
0.00373077
0.00392801
0.00412957
0.0043342
0.00454047
0.00354051
0.00373931
0.00394365
0.00415247
0.00436432
0.00457778
0.00354013
0.00374558
0.00395697
0.00417307
0.00439242
0.00461382
0.00483536
0.00505553
0.00527448
0.00353682
0.00374913
0.00396782
0.00419152
0.00441874
0.00464791
0.00487743
0.00510566
0.00533263
0.00353041
0.00374976
0.003976
0.00420762
0.00444312
0.00468081
0.00491891
0.00515569
0.00539101
0.00352068
0.00374725
0.00398129
0.00422118
0.00446536
0.00471201
0.00495922
0.00520511
0.00544937
0.0035074
0.00374134
0.00398344
0.00423196
0.00448526
0.00474137
0.00499822
0.00525381
0.00550759
0.00576182
0.00325703
0.00348971
0.00373176
0.00398217
0.0042397
0.00450259
0.00476869
0.00503577
0.00530166
0.0055656
0.00582962
0.00611628
0.00346882
0.00371804
0.00397643
0.00424302
0.00451615
0.00479347
0.00507217
0.0053493
0.00562379
0.00589796
0.00619407
0.00524884
0.00557385
0.00590966
0.00625603
0.00661211
0.00697682
0.00529422
0.00562943
0.00597581
0.00633281
0.00669953
0.00707488
0.00534427
0.0056898
0.00604688
0.00641479
0.0067926
0.00717939
0.00757323
0.0079727
0.00837789
0.00539878
0.005755
0.00612315
0.00650241
0.00689181
0.00729009
0.00769571
0.00810725
0.00852431
0.00545792
0.00582517
0.00620477
0.00659583
0.00699736
0.00740803
0.00782624
0.00825043
0.00867994
0.00552182
0.00590043
0.00629189
0.00669521
0.00710941
0.00753313
0.00796463
0.00840223
0.00884501
0.00559058
0.00598088
0.00638461
0.0068007
0.00722814
0.00766557
0.00811115
0.00856299
0.00901994
0.00948657
0.00527478
0.00566365
0.00606663
0.00648308
0.00691243
0.0073537
0.00780553
0.00826604
0.00873307
0.00920512
0.0096865
0.010186
0.00574275
0.00615745
0.00658642
0.00702935
0.00748536
0.00795295
0.00842988
0.00891324
0.00940125
0.00989826
0.0104124
SCALARS DeltaMax double 9
LOOKUP_TABLE default
0 0 0 0 0 0 0 0 0
0 0 0 0 0 0 0 0 0
0 0 0 0 0 0 0 0 0
0 0 0 0 0 0 0 0 0
0 0 0 0 0 0 0 0 0
0 0 0 0 0 0 0 0 0
0 0 0 0 0 0 0 0 0
0 0 0 0 0 0 0 0 0
0 0 0 0 0 0 0 0 0
0 0 0 0 0 0 0 0 0
0 0 0 0 0 0 0 0 0
0 0 0 0 0 0 0 0 0
0 0 0 0 0 0 0 0 0
0 0 0 0 0 0 0 0 0
0 0 0 0 0 0 0 0 0
0 0 0 0 0 0 0 0 0
0 0 0 0 0 0 0 0 0
0 0 0 0 0 0 0 0 0
0 0 0 0 0 0 0 0 0
0 0 0 0 0 0 0 0 0
0 0 0 0 0 0 0 0 0
0 0 0 0 0 0 0 0 0
0 0 0 0 0 0 0 0 0
0 0 0 0 0 0 0 0 0
0 0 0 0 0 0 0 0 0
0 0 0 0 0 0 0 0 0
0 0 0 0 0 0 0 0 0
0 0 0 0 0 0 0 0 0
0 0 0 0 0 0 0 0 0
0 0 0 0 0 0 0 0 0
0 0 0 0 0 0 0 0 0
0 0 0 0 0 0 0 0 0
0 0 0 0 0 0 0 0 0
0 0 0 0 0 0 0 0 0
0 0 0 0 0 0 0 0 0
0 0 0 0 0 0 0 0 0
0 0 0 0 0 0 0 0 0
0 0 0 0 0 0 0 0 0
0 0 0 0 0 0 0 0 0
0 0 0 0 0 0 0 0 0
0 0 0 0 0 0 0 0 0
0 0 0 0 0 0 0 0 0
0 0 0 0 0 0 0 0 0
0 0 0 0 0 0 0 0 0
0 0 0 0 0 0 0 0 0
0 0 0 0 0 0 0 0 0
0 0 0 0 0 0 0 0 0
0 0 0 0 0 0 0 0 0
0 0 0 0 0 0 0 0 0
0 0 0 0 0 0 0 0 0
0 0 0 0 0 0 0 0 0
0 0 0 0 0 0 0 0 0
0 0 0 0 0 0 0 0 0
0 0 0 0 0 0 0 0 0
0 0 0 0 0 0 0 0 0
0 0 0 0 0 0 0 0 0
0 0 0 0 0 0 0 0 0
0 0 0 0 0 0 0 0 0
0 0 0 0 0 0 0 0 0
0 0 0 0 0 0 0 0 0
0 0 0 0 0 0 0 0 0
0 0 0 0 0 0 0 0 0
0 0 0 0 0 0 0 0 0
0 0 0 0 0 0 0 0 0
0 0 0 0 0 0 0 0 0
0 0 0 0 0 0 0 0 0
0 0 0 0 0 0 0 0 0
0 0 0 0 0 0 0 0 0
0 0 0 0 0 0 0 0 0
0 0 0 0 0 0 0 0 0
0 0 0 0 0 0 0 0 0
0 0 0 0 0 0 0 0 0
0 0 0 0 0 0 0 0 0
0 0 0 0 0 0 0 0 0
0 0 0 0 0 0 0 0 0
0 0 0 0 0 0 0 0 0
0 0 0 0 0 0 0 0 0
0 0 0 0 0 0 0 0 0
0 0 0 0 0 0 0 0 0
0 0 0 0 0 0 0 0 0
0 0 0 0 0 0 0 0 0
0 0 0 0 0 0 0 0 0
0 0 0 0 0 0 0 0 0
0 0 0 0 0 0 0 0 0
0 0 0 0 0 0 0 0 0
0 0 0 0 0 0 0 0 0
0 0 0 0 0 0 0 0 0
0 0 0 0 0 0 0 0 0
0 0 0 0 0 0 0 0 0
0 0 0 0 0 0 0 0 0
0 0 0 0 0 0 0 0 0
0 0 0 0 0 0 0 0 0
0 0 0 0 0 0 0 0 0
0 0 0 0 0 0 0 0 0
0 0 0 0 0 0 0 0 0
0 0 0 0 0 0 0 0 0
0 0 0 0 0 0 0 0 0
0 0 0 0 0 0 0 0 0
0 0 0 0 0 0 0 0 0
0 0 0 0 0 0 0 0 0
0 0 0 0 0 0 0 0 0
0 0 0 0 0 0 0 0 0
0 0 0 0 0 0 0 0 0
0 0 0 0 0 0 0 0 0
0 0 0 0 0 0 0 0 0
0 0 0 0 0 0 0 0 0
0 0 0 0 0 0 0 0 0
0 0 0 0 0 0 0 0 0
0 0 0 0 0 0 0 0 0
0 0 0 0 0 0 0 0 0
0 0 0 0 0 0 0 0 0
0 0 0 0 0 0 0 0 0
0 0 0 0 0 0 0 0 0
0 0 0 0 0 0 0 0 0
0 0 0 0 0 0 0 0 0
0 0 0 0 0 0 0 0 0
0 0 0 0 0 0 0 0 0
0 0 0 0 0 0 0 0 0
0 0 0 0 0 0 0 0 0
0 0 0 0 0 0 0 0 0
0 0 0 0 0 0 0 0 0
0 0 0 0 0 0 0 0 0
0 0 0 0 0 0 0 0 0
0 0 0 0 0 0 0 0 0
0 0 0 0 0 0 0 0 0
0 0 0 0 0 0 0 0 0
0 0 0 0 0 0 0 0 0
0 0 0 0 0 0 0 0 0
0 0 0 0 0 0 0 0 0
0 0 0 0 0 0 0 0 0
0 0 0 0 0 0 0 0 0
0 0 0 0 0 0 0 0 0
0 0 0 0 0 0 0 0 0
0 0 0 0 0 0 0 0 0
0 0 0 0 0 0 0 0 0
0 0 0 0 0 0 0 0 0
0 0 0 0 0 0 0 0 0
0 0 0 0 0 0 0 0 0
0 0 0 0 0 0 0 0 0
0 0 0 0 0 0 0 0 0
0 0 0 0 0 0 0 0 0
0 0 0 0 0 0 0 0 0
0 0 0 0 0 0 0 0 0
0 0 0 0 0 0 0 0 0
0 0 0 0 0 0 0 0 0
0 0 0 0 0 0 0 0 0
0 0 0 0 0 0 0 0 0
0 0 0 0 0 0 0 0 0
0 0 0 0 0 0 0 0 0
0 0 0 0 0 0 0 0 0
0 0 0 0 0 0 0 0 0
0 0 0 0 0 0 0 0 0
0 0 0 0 0 0 0 0 0
0 0 0 0 0 0 0 0 0
0 0 0 0 0 0 0 0 0
0 0 0 0 0 0 0 0 0
0 0 0 0 0 0 0 0 0
0 0 0 0 0 0 0 0 0
0 0 0 0 0 0 0 0 0
0 0 0 0 0 0 0 0 0
0 0 0 0 0 0 0 0 0
0 0 0 0 0 0 0 0 0
6.441e-07 6.6818e-07 6.43831e-07 6.67611e-07 6.441e-07 6.6818e-07 6.43831e-07 6.67611e-07 0
6.86268e-07 7.11522e-07 6.85442e-07 7.10367e-07 6.86268e-07 7.11522e-07 6.85442e-07 7.10367e-07 0
7.30398e-07 7.56717e-07 7.29e-07 7.54983e-07 7.30398e-07 7.56717e-07 7.29e-07 7.54983e-07 0
7.76362e-07 8.03718e-07 7.74375e-07 8.01377e-07 7.76362e-07 8.03718e-07 7.74375e-07 8.01377e-07 0
8.24108e-07 8.52466e-07 8.21501e-07 8.49485e-07 8.24108e-07 8.52466e-07 8.21501e-07 8.49485e-07 0
8.73568e-07 9.02871e-07 8.70307e-07 8.99219e-07 8.73568e-07 9.02871e-07 8.70307e-07 8.99219e-07 0
6.44822e-07 6.69523e-07 6.44362e-07 6.68693e-07 6.44822e-07 6.69523e-07 6.44362e-07 6.68693e-07 0
6.88032e-07 7.13871e-07 6.86959e-07 7.12458e-07 6.88032e-07 7.13871e-07 6.86959e-07 7.12458e-07 0
7.33184e-07 7.60112e-07 7.31516e-07 7.58088e-07 7.33184e-07 7.60112e-07 7.31516e-07 7.58088e-07 0
7.80212e-07 8.08206e-07 7.77923e-07 8.05545e-07 7.80212e-07 8.08206e-07 7.77923e-07 8.05545e-07 0
8.29073e-07 8.58099e-07 8.26134e-07 8.54771e-07 8.29073e-07 8.58099e-07 8.26134e-07 8.54771e-07 0
8.79697e-07 9.09688e-07 8.76081e-07 9.05673e-07 8.79697e-07 9.09688e-07 8.76081e-07 9.05673e-07 0
6.46057e-07 6.71355e-07 6.45273e-07 6.70233e-07 6.46057e-07 6.71355e-07 6.45273e-07 6.70233e-07 0
6.90297e-07 7.16737e-07 6.88923e-07 7.15014e-07 6.90297e-07 7.16737e-07 6.88923e-07 7.15014e-07 0
7.365e-07 7.64058e-07 7.34516e-07 7.61708e-07 7.365e-07 7.64058e-07 7.34516e-07 7.61708e-07 0
7.84632e-07 8.13287e-07 7.82007e-07 8.10277e-07 7.84632e-07 8.13287e-07 7.82007e-07 8.10277e-07 0
8.3465e-07 8.64367e-07 8.31352e-07 8.60667e-07 8.3465e-07 8.64367e-07 8.31352e-07 8.60667e-07 0
8.86482e-07 9.17195e-07 8.82481e-07 9.12772e-07 8.86482e-07 9.17195e-07 8.82481e-07 9.12772e-07 0
9.40011e-07 9.7165e-07 9.35272e-07 9.66508e-07 9.40011e-07 9.7165e-07 9.35272e-07 9.66508e-07 0
9.95114e-07 1.02759e-06 9.89653e-07 1.02167e-06 9.95114e-07 1.02759e-06 9.89653e-07 1.02167e-06 0
1.05174e-06 1.0853e-06 1.04547e-06 1.07852e-06 1.05174e-06 1.0853e-06 1.04547e-06 1.07852e-06 0
6.47827e-07 6.73729e-07 6.46738e-07 6.72289e-07 6.47827e-07 6.73729e-07 6.46738e-07 6.72289e-07 0
6.93116e-07 7.20173e-07 6.91417e-07 7.18116e-07 6.93116e-07 7.20173e-07 6.91417e-07 7.18116e-07 0
7.404e-07 7.68607e-07 7.38073e-07 7.65904e-07 7.404e-07 7.68607e-07 7.38073e-07 7.65904e-07 0
7.89668e-07 8.19006e-07 7.86681e-07 8.15623e-07 7.89668e-07 8.19006e-07 7.86681e-07 8.15623e-07 0
8.40881e-07 8.71315e-07 8.372e-07 8.67217e-07 8.40881e-07 8.71315e-07 8.372e-07 8.67217e-07 0
8.93967e-07 9.25431e-07 8.89556e-07 9.20583e-07 8.93967e-07 9.25431e-07 8.89556e-07 9.20583e-07 0
9.48812e-07 9.8125e-07 9.43636e-07 9.75608e-07 9.48812e-07 9.8125e-07 9.43636e-07 9.75608e-07 0
1.00531e-06 1.03861e-06 9.99306e-07 1.03212e-06 1.00531e-06 1.03861e-06 9.99306e-07 1.03212e-06 0
1.06337e-06 1.09777e-06 1.05653e-06 1.09045e-06 1.06337e-06 1.09777e-06 1.05653e-06 1.09045e-06 0
6.50173e-07 6.76691e-07 6.48743e-07 6.74905e-07 6.50173e-07 6.76691e-07 6.48743e-07 6.74905e-07 0
6.96532e-07 7.24226e-07 6.94483e-07 7.21807e-07 6.96532e-07 7.24226e-07 6.94483e-07 7.21807e-07 0
7.44928e-07 7.73803e-07 7.42233e-07 7.7072e-07 7.44928e-07 7.73803e-07 7.42233e-07 7.7072e-07 0
7.95365e-07 8.25407e-07 7.91991e-07 8.21624e-07 7.95365e-07 8.25407e-07 7.91991e-07 8.21624e-07 0
8.47811e-07 8.7899e-07 8.43721e-07 8.74466e-07 8.47811e-07 8.7899e-07 8.43721e-07 8.74466e-07 0
9.022e-07 9.34449e-07 8.97351e-07 9.29143e-07 9.022e-07 9.34449e-07 8.97351e-07 9.29143e-07 0
9.58418e-07 9.91693e-07 9.52769e-07 9.85561e-07 9.58418e-07 9.91693e-07 9.52769e-07 9.85561e-07 0
1.01638e-06 1.05055e-06 1.00988e-06 1.04354e-06 1.01638e-06 1.05055e-06 1.00988e-06 1.04354e-06 0
1.07597e-06 1.11127e-06 1.06857e-06 1.10332e-06 1.07597e-06 1.11127e-06 1.06857e-06 1.10332e-06 0
6.53172e-07 6.80305e-07 6.51354e-07 6.78131e-07 6.53172e-07 6.80305e-07 6.51354e-07 6.78131e-07 0
7.00597e-07 7.2894e-07 6.98167e-07 7.26134e-07 7.00597e-07 7.2894e-07 6.98167e-07 7.26134e-07 0
7.50131e-07 7.7969e-07 7.47041e-07 7.76203e-07 7.50131e-07 7.7969e-07 7.47041e-07 7.76203e-07 0
8.01768e-07 8.32536e-07 7.97981e-07 8.28327e-07 8.01768e-07 8.32536e-07 7.97981e-07 8.28327e-07 0
8.55487e-07 8.87437e-07 8.50961e-07 8.82462e-07 8.55487e-07 8.87437e-07 8.50961e-07 8.82462e-07 0
9.11228e-07 9.44296e-07 9.05915e-07 9.38505e-07 9.11228e-07 9.44296e-07 9.05915e-07 9.38505e-07 0
9.6888e-07 1.00301e-06 9.62731e-07 9.96364e-07 9.6888e-07 1.00301e-06 9.62731e-07 9.96364e-07 0
1.02836e-06 1.06346e-06 1.02133e-06 1.05588e-06 1.02836e-06 1.06346e-06 1.02133e-06 1.05588e-06 0
1.08957e-06 1.12584e-06 1.08159e-06 1.1173e-06 1.08957e-06 1.12584e-06 1.08159e-06 1.1173e-06 0
6.56882e-07 6.84663e-07 6.54649e-07 6.82055e-07 6.56882e-07 6.84663e-07 6.54649e-07 6.82055e-07 0
7.05427e-07 7.3438e-07 7.02547e-07 7.31142e-07 7.05427e-07 7.3438e-07 7.02547e-07 7.31142e-07 0
7.56056e-07 7.86318e-07 7.52543e-07 7.82397e-07 7.56056e-07 7.86318e-07 7.52543e-07 7.82397e-07 0
8.08925e-07 8.4044e-07 8.04697e-07 8.35778e-07 8.08925e-07 8.4044e-07 8.04697e-07 8.35778e-07 0
8.63956e-07 8.96703e-07 8.58966e-07 8.91249e-07 8.63956e-07 8.96703e-07 8.58966e-07 8.91249e-07 0
9.21098e-07 9.55018e-07 9.15293e-07 9.48716e-07 9.21098e-07 9.55018e-07 9.15293e-07 9.48716e-07 0
9.80244e-07 1.01527e-06 9.73568e-07 1.00806e-06 9.80244e-07 1.01527e-06 9.73568e-07 1.00806e-06 0
1.0413e-06 1.0774e-06 1.0337e-06 1.06922e-06 1.0413e-06 1.0774e-06 1.0337e-06 1.06922e-06 0
1.10424e-06 1.14152e-06 1.09564e-06 1.13233e-06 1.10424e-06 1.14152e-06 1.09564e-06 1.13233e-06 0
1.16905e-06 1.20701e-06 1.15942e-06 1.1968e-06 1.16905e-06 1.20701e-06 1.15942e-06 1.1968e-06 0
6.13686e-07 6.40874e-07 6.11758e-07 6.38547e-07 6.13686e-07 6.40874e-07 6.11758e-07 6.38547e-07 0
6.61217e-07 6.89753e-07 6.58633e-07 6.86722e-07 6.61217e-07 6.89753e-07 6.58633e-07 6.86722e-07 0
7.1103e-07 7.40614e-07 7.07696e-07 7.36917e-07 7.1103e-07 7.40614e-07 7.07696e-07 7.36917e-07 0
7.62752e-07 7.93732e-07 7.58787e-07 7.89351e-07 7.62752e-07 7.93732e-07 7.58787e-07 7.89351e-07 0
8.16883e-07 8.49164e-07 8.12186e-07 8.44023e-07 8.16883e-07 8.49164e-07 8.12186e-07 8.44023e-07 0
8.73261e-07 9.06833e-07 8.67782e-07 9.00875e-07 8.73261e-07 9.06833e-07 8.67782e-07 9.00875e-07 0
9.31854e-07 9.66666e-07 9.25531e-07 9.59823e-07 9.31854e-07 9.66666e-07 9.25531e-07 9.59823e-07 0
9.92565e-07 1.02854e-06 9.8533e-07 1.02075e-06 9.92565e-07 1.02854e-06 9.8533e-07 1.02075e-06 0
1.05524e-06 1.09239e-06 1.04706e-06 1.0836e-06 1.05524e-06 1.09239e-06 1.04706e-06 1.0836e-06 0
1.12003e-06 1.15842e-06 1.11077e-06 1.14851e-06 1.12003e-06 1.15842e-06 1.11077e-06 1.14851e-06 0
1.18674e-06 1.22574e-06 1.17636e-06 1.21476e-06 1.18674e-06 1.22574e-06 1.17636e-06 1.21476e-06 0
1.25609e-06 1.30019e-06 1.24468e-06 1.28821e-06 1.25609e-06 1.30019e-06 1.24468e-06 1.28821e-06 0
6.664e-07 6.95445e-07 6.63304e-07 6.92086e-07 6.664e-07 6.95445e-07 6.63304e-07 6.92086e-07 0
7.172e-07 7.47584e-07 7.13556e-07 7.43415e-07 7.172e-07 7.47584e-07 7.13556e-07 7.43415e-07 0
7.70311e-07 8.02032e-07 7.65832e-07 7.97125e-07 7.70311e-07 8.02032e-07 7.65832e-07 7.97125e-07 0
8.25739e-07 8.58801e-07 8.2051e-07 8.5312e-07 8.25739e-07 8.58801e-07 8.2051e-07 8.5312e-07 0
8.83487e-07 9.17891e-07 8.77465e-07 9.11388e-07 8.83487e-07 9.17891e-07 8.77465e-07 9.11388e-07 0
9.43546e-07 9.79259e-07 9.36677e-07 9.71869e-07 9.43546e-07 9.79259e-07 9.36677e-07 9.71869e-07 0
1.00585e-06 1.04287e-06 9.98059e-07 1.03445e-06 1.00585e-06 1.04287e-06 9.98059e-07 1.03445e-06 0
1.07037e-06 1.10854e-06 1.06148e-06 1.09907e-06 1.07037e-06 1.10854e-06 1.06148e-06 1.09907e-06 0
1.13694e-06 1.1764e-06 1.12704e-06 1.1659e-06 1.13694e-06 1.1764e-06 1.12704e-06 1.1659e-06 0
1.20554e-06 1.24572e-06 1.19455e-06 1.23403e-06 1.20554e-06 1.24572e-06 1.19455e-06 1.23403e-06 0
1.27737e-06 1.32441e-06 1.26467e-06 1.3098e-06 1.27737e-06 1.32441e-06 1.26467e-06 1.3098e-06 0
0 0 0 0 0 0 0 0 0
0 0 0 0 0 0 0 0 0
0 0 0 0 0 0 0 0 0
0 0 0 0 0 0 0 0 0
0 0 0 0 0 0 0 0 0
0 0 0 0 0 0 0 0 0
0 0 0 0 0 0 0 0 0
0 0 0 0 0 0 0 0 0
0 0 0 0 0 0 0 0 0
0 0 0 0 0 0 0 0 0
0 0 0 0 0 0 0 0 0
0 0 0 0 0 0 0 0 0
0 0 0 0 0 0 0 0 0
0 0 0 0 0 0 0 0 0
0 0 0 0 0 0 0 0 0
0 0 0 0 0 0 0 0 0
0 0 0 0 0 0 0 0 0
0 0 0 0 0 0 0 0 0
0 0 0 0 0 0 0 0 0
0 0 0 0 0 0 0 0 0
0 0 0 0 0 0 0 0 0
0 0 0 0 0 0 0 0 0
0 0 0 0 0 0 0 0 0
0 0 0 0 0 0 0 0 0
0 0 0 0 0 0 0 0 0
0 0 0 0 0 0 0 0 0
0 0 0 0 0 0 0 0 0
0 0 0 0 0 0 0 0 0
0 0 0 0 0 0 0 0 0
0 0 0 0 0 0 0 0 0
0 0 0 0 0 0 0 0 0
0 0 0 0 0 0 0 0 0
0 0 0 0 0 0 0 0 0
0 0 0 0 0 0 0 0 0
0 0 0 0 0 0 0 0 0
0 0 0 0 0 0 0 0 0
0 0 0 0 0 0 0 0 0
0 0 0 0 0 0 0 0 0
0 0 0 0 0 0 0 0 0
0 0 0 0 0 0 0 0 0
0 0 0 0 0 0 0 0 0
0 0 0 0 0 0 0 0 0
0 0 0 0 0 0 0 0 0
0 0 0 0 0 0 0 0 0
0 0 0 0 0 0 0 0 0
0 0 0 0 0 0 0 0 0
0 0 0 0 0 0 0 0 0
0 0 0 0 0 0 0 0 0
0 0 0 0 0 0 0 0 0
0 0 0 0 0 0 0 0 0
0 0 0 0 0 0 0 0 0
0 0 0 0 0 0 0 0 0
0 0 0 0 0 0 0 0 0
0 0 0 0 0 0 0 0 0
0 0 0 0 0 0 0 0 0
0 0 0 0 0 0 0 0 0
0 0 0 0 0 0 0 0 0
0 0 0 0 0 0 0 0 0
0 0 0 0 0 0 0 0 0
0 0 0 0 0 0 0 0 0
0 0 0 0 0 0 0 0 0
0 0 0 0 0 0 0 0 0
0 0 0 0 0 0 0 0 0
0 0 0 0 0 0 0 0 0
0 0 0 0 0 0 0 0 0
0 0 0 0 0 0 0 0 0
0 0 0 0 0 0 0 0 0
0 0 0 0 0 0 0 0 0
0 0 0 0 0 0 0 0 0
0 0 0 0 0 0 0 0 0
0 0 0 0 0 0 0 0 0
0 0 0 0 0 0 0 0 0
0 0 0 0 0 0 0 0 0
0 0 0 0 0 0 0 0 0
0 0 0 0 0 0 0 0 0
0 0 0 0 0 0 0 0 0
0 0 0 0 0 0 0 0 0
0 0 0 0 0 0 0 0 0
0 0 0 0 0 0 0 0 0
0 0 0 0 0 0 0 0 0
0 0 0 0 0 0 0 0 0
0 0 0 0 0 0 0 0 0
0 0 0 0 0 0 0 0 0
0 0 0 0 0 0 0 0 0
0 0 0 0 0 0 0 0 0
0 0 0 0 0 0 0 0 0
0 0 0 0 0 0 0 0 0
0 0 0 0 0 0 0 0 0
0 0 0 0 0 0 0 0 0
0 0 0 0 0 0 0 0 0
0 0 0 0 0 0 0 0 0
0 0 0 0 0 0 0 0 0
0 0 0 0 0 0 0 0 0
0 0 0 0 0 0 0 0 0
0 0 0 0 0 0 0 0 0
0 0 0 0 0 0 0 0 0
0 0 0 0 0 0 0 0 0
0 0 0 0 0 0 0 0 0
0 0 0 0 0 0 0 0 0
0 0 0 0 0 0 0 0 0
0 0 0 0 0 0 0 0 0
0 0 0 0 0 0 0 0 0
0 0 0 0 0 0 0 0 0
0 0 0 0 0 0 0 0 0
0 0 0 0 0 0 0 0 0
0 0 0 0 0 0 0 0 0
0 0 0 0 0 0 0 0 0
0 0 0 0 0 0 0 0 0
0 0 0 0 0 0 0 0 0
0 0 0 0 0 0 0 0 0
0 0 0 0 0 0 0 0 0
0 0 0 0 0 0 0 0 0
0 0 0 0 0 0 0 0 0
0 0 0 0 0 0 0 0 0
0 0 0 0 0 0 0 0 0
0 0 0 0 0 0 0 0 0
0 0 0 0 0 0 0 0 0
0 0 0 0 0 0 0 0 0
0 0 0 0 0 0 0 0 0
0 0 0 0 0 0 0 0 0
0 0 0 0 0 0 0 0 0
0 0 0 0 0 0 0 0 0
0 0 0 0 0 0 0 0 0
0 0 0 0 0 0 0 0 0
0 0 0 0 0 0 0 0 0
0 0 0 0 0 0 0 0 0
0 0 0 0 0 0 0 0 0
0 0 0 0 0 0 0 0 0
0 0 0 0 0 0 0 0 0
0 0 0 0 0 0 0 0 0
0 0 0 0 0 0 0 0 0
0 0 0 0 0 0 0 0 0
0 0 0 0 0 0 0 0 0
0 0 0 0 0 0 0 0 0
0 0 0 0 0 0 0 0 0
0 0 0 0 0 0 0 0 0
0 0 0 0 0 0 0 0 0
0 0 0 0 0 0 0 0 0
0 0 0 0 0 0 0 0 0
0 0 0 0 0 0 0 0 0
0 0 0 0 0 0 0 0 0
0 0 0 0 0 0 0 0 0
0 0 0 0 0 0 0 0 0
0 0 0 0 0 0 0 0 0
0 0 0 0 0 0 0 0 0
0 0 0 0 0 0 0 0 0
0 0 0 0 0 0 0 0 0
0 0 0 0 0 0 0 0 0
0 0 0 0 0 0 0 0 0
0 0 0 0 0 0 0 0 0
0 0 0 0 0 0 0 0 0
0 0 0 0 0 0 0 0 0
0 0 0 0 0 0 0 0 0
0 0 0 0 0 0 0 0 0
0 0 0 0 0 0 0 0 0
0 0 0 0 0 0 0 0 0
0 0 0 0 0 0 0 0 0
0 0 0 0 0 0 0 0 0
0 0 0 0 0 0 0 0 0
0 0 0 0 0 0 0 0 0
0 0 0 0 0 0 0 0 0
0 0 0 0 0 0 0 0 0
0 0 0 0 0 0 0 0 0
0 0 0 0 0 0 0 0 0
0 0 0 0 0 0 0 0 0
0 0 0 0 0 0 0 0 0
0 0 0 0 0 0 0 0 0
0 0 0 0 0 0 0 0 0
0 0 0 0 0 0 0 0 0
0 0 0 0 0 0 0 0 0
0 0 0 0 0 0 0 0 0
0 0 0 0 0 0 0 0 0
0 0 0 0 0 0 0 0 0
0 0 0 0 0 0 0 0 0
0 0 0 0 0 0 0 0 0
0 0 0 0 0 0 0 0 0
0 0 0 0 0 0 0 0 0
0 0 0 0 0 0 0 0 0
0 0 0 0 0 0 0 0 0
0 0 0 0 0 0 0 0 0
0 0 0 0 0 0 0 0 0
0 0 0 0 0 0 0 0 0
0 0 0 0 0 0 0 0 0
0 0 0 0 0 0 0 0 0
0 0 0 0 0 0 0 0 0
0 0 0 0 0 0 0 0 0
0 0 0 0 0 0 0 0 0
0 0 0 0 0 0 0 0 0
0 0 0 0 0 0 0 0 0
0 0 0 0 0 0 0 0 0
0 0 0 0 0 0 0 0 0
0 0 0 0 0 0 0 0 0
0 0 0 0 0 0 0 0 0
0 0 0 0 0 0 0 0 0
0 0 0 0 0 0 0 0 0
0 0 0 0 0 0 0 0 0
0 0 0 0 0 0 0 0 0
0 0 0 0 0 0 0 0 0
0 0 0 0 0 0 0 0 0
0 0 0 0 0 0 0 0 0
0 0 0 0 0 0 0 0 0
0 0 0 0 0 0 0 0 0
0 0 0 0 0 0 0 0 0
0 0 0 0 0 0 0 0 0
0 0 0 0 0 0 0 0 0
0 0 0 0 0 0 0 0 0
0 0 0 0 0 0 0 0 0
0 0 0 0 0 0 0 0 0
0 0 0 0 0 0 0 0 0
0 0 0 0 0 0 0 0 0
0 0 0 0 0 0 0 0 0
0 0 0 0 0 0 0 0 0
0 0 0 0 0 0 0 0 0
0 0 0 0 0 0 0 0 0
0 0 0 0 0 0 0 0 0
0 0 0 0 0 0 0 0 0
0 0 0 0 0 0 0 0 0
0 0 0 0 0 0 0 0 0
0 0 0 0 0 0 0 0 0
0 0 0 0 0 0 0 0 0
0 0 0 0 0 0 0 0 0
0 0 0 0 0 0 0 0 0
0 0 0 0 0 0 0 0 0
0 0 0 0 0 0 0 0 0
0 0 0 0 0 0 0 0 0
0 0 0 0 0 0 0 0 0
0 0 0 0 0 0 0 0 0
0 0 0 0 0 0 0 0 0
0 0 0 0 0 0 0 0 0
0 0 0 0 0 0 0 0 0
0 0 0 0 0 0 0 0 0
0 0 0 0 0 0 0 0 0
0 0 0 0 0 0 0 0 0
0 0 0 0 0 0 0 0 0
0 0 0 0 0 0 0 0 0
0 0 0 0 0 0 0 0 0
0 0 0 0 0 0 0 0 0
0 0 0 0 0 0 0 0 0
0 0 0 0 0 0 0 0 0
0 0 0 0 0 0 0 0 0
0 0 0 0 0 0 0 0 0
0 0 0 0 0 0 0 0 0
0 0 0 0 0 0 0 0 0
0 0 0 0 0 0 0 0 0
0 0 0 0 0 0 0 0 0
0 0 0 0 0 0 0 0 0
0 0 0 0 0 0 0 0 0
0 0 0 0 0 0 0 0 0
0 0 0 0 0 0 0 0 0
0 0 0 0 0 0 0 0 0
0 0 0 0 0 0 0 0 0
0 0 0 0 0 0 0 0 0
0 0 0 0 0 0 0 0 0
0 0 0 0 0 0 0 0 0
0 0 0 0 0 0 0 0 0
0 0 0 0 0 0 0 0 0
0 0 0 0 0 0 0 0 0
0 0 0 0 0 0 0 0 0
0 0 0 0 0 0 0 0 0
0 0 0 0 0 0 0 0 0
0 0 0 0 0 0 0 0 0
0 0 0 0 0 0 0 0 0
0 0 0 0 0 0 0 0 0
0 0 0 0 0 0 0 0 0
0 0 0 0 0 0 0 0 0
0 0 0 0 0 0 0 0 0
0 0 0 0 0 0 0 0 0
0 0 0 0 0 0 0 0 0
0 0 0 0 0 0 0 0 0
0 0 0 0 0 0 0 0 0
0 0 0 0 0 0 0 0 0
0 0 0 0 0 0 0 0 0
0 0 0 0 0 0 0 0 0
0 0 0 0 0 0 0 0 0
0 0 0 0 0 0 0 0 0
0 0 0 0 0 0 0 0 0
0 0 0 0 0 0 0 0 0
0 0 0 0 0 0 0 0 0
0 0 0 0 0 0 0 0 0
0 0 0 0 0 0 0 0 0
0 0 0 0 0 0 0 0 0
0 0 0 0 0 0 0 0 0
0 0 0 0 0 0 0 0 0
0 0 0 0 0 0 0 0 0
0 0 0 0 0 0 0 0 0
0 0 0 0 0 0 0 0 0
0 0 0 0 0 0 0 0 0
0 0 0 0 0 0 0 0 0
0 0 0 0 0 0 0 0 0
0 0 0 0 0 0 0 0 0
0 0 0 0 0 0 0 0 0
0 0 0 0 0 0 0 0 0
0 0 0 0 0 0 0 0 0
0 0 0 0 0 0 0 0 0
0 0 0 0 0 0 0 0 0
0 0 0 0 0 0 0 0 0
0 0 0 0 0 0 0 0 0
0 0 0 0 0 0 0 0 0
0 0 0 0 0 0 0 0 0
0 0 0 0 0 0 0 0 0
0 0 0 0 0 0 0 0 0
0 0 0 0 0 0 0 0 0
0 0 0 0 0 0 0 0 0
0 0 0 0 0 0 0 0 0
0 0 0 0 0 0 0 0 0
0 0 0 0 0 0 0 0 0
0 0 0 0 0 0 0 0 0
0 0 0 0 0 0 0 0 0
0 0 0 0 0 0 0 0 0
0 0 0 0 0 0 0 0 0
0 0 0 0 0 0 0 0 0
0 0 0 0 0 0 0 0 0
0 0 0 0 0 0 0 0 0
0 0 0 0 0 0 0 0 0
0 0 0 0 0 0 0 0 0
0 0 0 0 0 0 0 0 0
0 0 0 0 0 0 0 0 0
0 0 0 0 0 0 0 0 0
0 0 0 0 0 0 0 0 0
0 0 0 0 0 0 0 0 0
0 0 0 0 0 0 0 0 0
0 0 0 0 0 0 0 0 0
0 0 0 0 0 0 0 0 0
0 0 0 0 0 0 0 0 0
0 0 0 0 0 0 0 0 0
0 0 0 0 0 0 0 0 0
0 0 0 0 0 0 0 0 0
0 0 0 0 0 0 0 0 0
0 0 0 0 0 0 0 0 0
0 0 0 0 0 0 0 0 0
0 0 0 0 0 0 0 0 0
0 0 0 0 0 0 0 0 0
0 0 0 0 0 0 0 0 0
0 0 0 0 0 0 0 0 0
0 0 0 0 0 0 0 0 0
0 0 0 0 0 0 0 0 0
0 0 0 0 0 0 0 0 0
0 0 0 0 0 0 0 0 0
0 0 0 0 0 0 0 0 0
0 0 0 0 0 0 0 0 0
0 0 0 0 0 0 0 0 0
0 0 0 0 0 0 0 0 0
0 0 0 0 0 0 0 0 0
0 0 0 0 0 0 0 0 0
0 0 0 0 0 0 0 0 0
0 0 0 0 0 0 0 0 0
0 0 0 0 0 0 0 0 0
0 0 0 0 0 0 0 0 0
0 0 0 0 0 0 0 0 0
0 0 0 0 0 0 0 0 0
0 0 0 0 0 0 0 0 0
0 0 0 0 0 0 0 0 0
0 0 0 0 0 0 0 0 0
0 0 0 0 0 0 0 0 0
0 0 0 0 0 0 0 0 0
0 0 0 0 0 0 0 0 0
0 0 0 0 0 0 0 0 0
0 0 0 0 0 0 0 0 0
0 0 0 0 0 0 0 0 0
0 0 0 0 0 0 0 0 0
0 0 0 0 0 0 0 0 0
0 0 0 0 0 0 0 0 0
0 0 0 0 0 0 0 0 0
0 0 0 0 0 0 0 0 0
0 0 0 0 0 0 0 0 0
0 0 0 0 0 0 0 0 0
0 0 0 0 0 0 0 0 0
0 0 0 0 0 0 0 0 0
0 0 0 0 0 0 0 0 0
0 0 0 0 0 0 0 0 0
0 0 0 0 0 0 0 0 0
0 0 0 0 0 0 0 0 0
0 0 0 0 0 0 0 0 0
0 0 0 0 0 0 0 0 0
0 0 0 0 0 0 0 0 0
0 0 0 0 0 0 0 0 0
0 0 0 0 0 0 0 0 0
0 0 0 0 0 0 0 0 0
0 0 0 0 0 0 0 0 0
0 0 0 0 0 0 0 0 0
0 0 0 0 0 0 0 0 0
0 0 0 0 0 0 0 0 0
0 0 0 0 0 0 0 0 0
0 0 0 0 0 0 0 0 0
0 0 0 0 0 0 0 0 0
0 0 0 0 0 0 0 0 0
0 0 0 0 0 0 0 0 0
0 0 0 0 0 0 0 0 0
0 0 0 0 0 0 0 0 0
0 0 0 0 0 0 0 0 0
0 0 0 0 0 0 0 0 0
0 0 0 0 0 0 0 0 0
0 0 0 0 0 0 0 0 0
0 0 0 0 0 0 0 0 0
0 0 0 0 0 0 0 0 0
0 0 0 0 0 0 0 0 0
0 0 0 0 0 0 0 0 0
0 0 0 0 0 0 0 0 0
0 0 0 0 0 0 0 0 0
0 0 0 0 0 0 0 0 0
0 0 0 0 0 0 0 0 0
0 0 0 0 0 0 0 0 0
0 0 0 0 0 0 0 0 0
0 0 0 0 0 0 0 0 0
0 0 0 0 0 0 0 0 0
0 0 0 0 0 0 0 0 0
0 0 0 0 0 0 0 0 0
0 0 0 0 0 0 0 0 0
0 0 0 0 0 0 0 0 0
0 0 0 0 0 0 0 0 0
0 0 0 0 0 0 0 0 0
0 0 0 0 0 0 0 0 0
0 0 0 0 0 0 0 0 0
0 0 0 0 0 0 0 0 0
0 0 0 0 0 0 0 0 0
0 0 0 0 0 0 0 0 0
0 0 0 0 0 0 0 0 0
0 0 0 0 0 0 0 0 0
0 0 0 0 0 0 0 0 0
0 0 0 0 0 0 0 0 0
0 0 0 0 0 0 0 0 0
0 0 0 0 0 0 0 0 0
0 0 0 0 0 0 0 0 0
0 0 0 0 0 0 0 0 0
0 0 0 0 0 0 0 0 0
0 0 0 0 0 0 0 0 0
0 0 0 0 0 0 0 0 0
0 0 0 0 0 0 0 0 0
0 0 0 0 0 0 0 0 0
0 0 0 0 0 0 0 0 0
0 0 0 0 0 0 0 0 0
0 0 0 0 0 0 0 0 0
0 0 0 0 0 0 0 0 0
0 0 0 0 0 0 0 0 0
0 0 0 0 0 0 0 0 0
0 0 0 0 0 0 0 0 0
0 0 0 0 0 0 0 0 0
0 0 0 0 0 0 0 0 0
0 0 0 0 0 0 0 0 0
0 0 0 0 0 0 0 0 0
0 0 0 0 0 0 0 0 0
0 0 0 0 0 0 0 0 0
0 0 0 0 0 0 0 0 0
0 0 0 0 0 0 0 0 0
0 0 0 0 0 0 0 0 0
0 0 0 0 0 0 0 0 0
0 0 0 0 0 0 0 0 0
0 0 0 0 0 0 0 0 0
0 0 0 0 0 0 0 0 0
0 0 0 0 0 0 0 0 0
0 0 0 0 0 0 0 0 0
0 0 0 0 0 0 0 0 0
0 0 0 0 0 0 0 0 0
0 0 0 0 0 0 0 0 0
0 0 0 0 0 0 0 0 0
0 0 0 0 0 0 0 0 0
0 0 0 0 0 0 0 0 0
0 0 0 0 0 0 0 0 0
0 0 0 0 0 0 0 0 0
0 0 0 0 0 0 0 0 0
0 0 0 0 0 0 0 0 0
0 0 0 0 0 0 0 0 0
0 0 0 0 0 0 0 0 0
0 0 0 0 0 0 0 0 0
0 0 0 0 0 0 0 0 0
0 0 0 0 0 0 0 0 0
0 0 0 0 0 0 0 0 0
0 0 0 0 0 0 0 0 0
0 0 0 0 0 0 0 0 0
0 0 0 0 0 0 0 0 0
0 0 0 0 0 0 0 0 0
0 0 0 0 0 0 0 0 0
0 0 0 0 0 0 0 0 0
0 0 0 0 0 0 0 0 0
0 0 0 0 0 0 0 0 0
0 0 0 0 0 0 0 0 0
0 0 0 0 0 0 0 0 0
0 0 0 0 0 0 0 0 0
0 0 0 0 0 0 0 0 0
0 0 0 0 0 0 0 0 0
0 0 0 0 0 0 0 0 0
0 0 0 0 0 0 0 0 0
0 0 0 0 0 0 0 0 0
0 0 0 0 0 0 0 0 0
0 0 0 0 0 0 0 0 0
0 0 0 0 0 0 0 0 0
0 0 0 0 0 0 0 0 0
0 0 0 0 0 0 0 0 0
0 0 0 0 0 0 0 0 0
0 0 0 0 0 0 0 0 0
0 0 0 0 0 0 0 0 0
0 0 0 0 0 0 0 0 0
0 0 0 0 0 0 0 0 0
0 0 0 0 0 0 0 0 0
0 0 0 0 0 0 0 0 0
0 0 0 0 0 0 0 0 0
0 0 0 0 0 0 0 0 0
0 0 0 0 0 0 0 0 0
0 0 0 0 0 0 0 0 0
0 0 0 0 0 0 0 0 0
0 0 0 0 0 0 0 0 0
0 0 0 0 0 0 0 0 0
0 0 0 0 0 0 0 0 0
0 0 0 0 0 0 0 0 0
0 0 0 0 0 0 0 0 0
0 0 0 0 0 0 0 0 0
0 0 0 0 0 0 0 0 0
0 0 0 0 0 0 0 0 0
0 0 0 0 0 0 0 0 0
0 0 0 0 0 0 0 0 0
0 0 0 0 0 0 0 0 0
0 0 0 0 0 0 0 0 0
0 0 0 0 0 0 0 0 0
0 0 0 0 0 0 0 0 0
0 0 0 0 0 0 0 0 0
0 0 0 0 0 0 0 0 0
0 0 0 0 0 0 0 0 0
0 0 0 0 0 0 0 0 0
0 0 0 0 0 0 0 0 0
0 0 0 0 0 0 0 0 0
0 0 0 0 0 0 0 0 0
0 0 0 0 0 0 0 0 0
0 0 0 0 0 0 0 0 0
0 0 0 0 0 0 0 0 0
0 0 0 0 0 0 0 0 0
0 0 0 0 0 0 0 0 0
0 0 0 0 0 0 0 0 0
0 0 0 0 0 0 0 0 0
0 0 0 0 0 0 0 0 0
0 0 0 0 0 0 0 0 0
0 0 0 0 0 0 0 0 0
0 0 0 0 0 0 0 0 0
0 0 0 0 0 0 0 0 0
0 0 0 0 0 0 0 0 0
0 0 0 0 0 0 0 0 0
0 0 0 0 0 0 0 0 0
0 0 0 0 0 0 0 0 0
0 0 0 0 0 0 0 0 0
0 0 0 0 0 0 0 0 0
0 0 0 0 0 0 0 0 0
0 0 0 0 0 0 0 0 0
0 0 0 0 0 0 0 0 0
0 0 0 0 0 0 0 0 0
0 0 0 0 0 0 0 0 0
0 0 0 0 0 0 0 0 0
0 0 0 0 0 0 0 0 0
0 0 0 0 0 0 0 0 0
0 0 0 0 0 0 0 0 0
0 0 0 0 0 0 0 0 0
0 0 0 0 0 0 0 0 0
0 0 0 0 0 0 0 0 0
0 0 0 0 0 0 0 0 0
0 0 0 0 0 0 0 0 0
0 0 0 0 0 0 0 0 0
0 0 0 0 0 0 0 0 0
0 0 0 0 0 0 0 0 0
0 0 0 0 0 0 0 0 0
0 0 0 0 0 0 0 0 0
0 0 0 0 0 0 0 0 0
0 0 0 0 0 0 0 0 0
0 0 0 0 0 0 0 0 0
0 0 0 0 0 0 0 0 0
0 0 0 0 0 0 0 0 0
0 0 0 0 0 0 0 0 0
0 0 0 0 0 0 0 0 0
0 0 0 0 0 0 0 0 0
0 0 0 0 0 0 0 0 0
0 0 0 0 0 0 0 0 0
0 0 0 0 0 0 0 0 0
0 0 0 0 0 0 0 0 0
0 0 0 0 0 0 0 0 0
0 0 0 0 0 0 0 0 0
0 0 0 0 0 0 0 0 0
0 0 0 0 0 0 0 0 0
0 0 0 0 0 0 0 0 0
0 0 0 0 0 0 0 0 0
0 0 0 0 0 0 0 0 0
0 0 0 0 0 0 0 0 0
0 0 0 0 0 0 0 0 0
0 0 0 0 0 0 0 0 0
0 0 0 0 0 0 0 0 0
0 0 0 0 0 0 0 0 0
0 0 0 0 0 0 0 0 0
0 0 0 0 0 0 0 0 0
0 0 0 0 0 0 0 0 0
0 0 0 0 0 0 0 0 0
0 0 0 0 0 0 0 0 0
0 0 0 0 0 0 0 0 0
0 0 0 0 0 0 0 0 0
0 0 0 0 0 0 0 0 0
0 0 0 0 0 0 0 0 0
0 0 0 0 0 0 0 0 0
0 0 0 0 0 0 0 0 0
0 0 0 0 0 0 0 0 0
0 0 0 0 0 0 0 0 0
0 0 0 0 0 0 0 0 0
0 0 0 0 0 0 0 0 0
0 0 0 0 0 0 0 0 0
0 0 0 0 0 0 0 0 0
0 0 0 0 0 0 0 0 0
0 0 0 0 0 0 0 0 0
0 0 0 0 0 0 0 0 0
0 0 0 0 0 0 0 0 0
0 0 0 0 0 0 0 0 0
0 0 0 0 0 0 0 0 0
0 0 0 0 0 0 0 0 0
0 0 0 0 0 0 0 0 0
0 0 0 0 0 0 0 0 0
0 0 0 0 0 0 0 0 0
0 0 0 0 0 0 0 0 0
0 0 0 0 0 0 0 0 0
0 0 0 0 0 0 0 0 0
0 0 0 0 0 0 0 0 0
0 0 0 0 0 0 0 0 0
0 0 0 0 0 0 0 0 0
0 0 0 0 0 0 0 0 0
0 0 0 0 0 0 0 0 0
0 0 0 0 0 0 0 0 0
0 0 0 0 0 0 0 0 0
0 0 0 0 0 0 0 0 0
0 0 0 0 0 0 0 0 0
0 0 0 0 0 0 0 0 0
0 0 0 0 0 0 0 0 0
0 0 0 0 0 0 0 0 0
0 0 0 0 0 0 0 0 0
0 0 0 0 0 0 0 0 0
0 0 0 0 0 0 0 0 0
0 0 0 0 0 0 0 0 0
0 0 0 0 0 0 0 0 0
0 0 0 0 0 0 0 0 0
0 0 0 0 0 0 0 0 0
0 0 0 0 0 0 0 0 0
0 0 0 0 0 0 0 0 0
0 0 0 0 0 0 0 0 0
0 0 0 0 0 0 0 0 0
0 0 0 0 0 0 0 0 0
0 0 0 0 0 0 0 0 0
0 0 0 0 0 0 0 0 0
0 0 0 0 0 0 0 0 0
0 0 0 0 0 0 0 0 0
0 0 0 0 0 0 0 0 0
0 0 0 0 0 0 0 0 0
0 0 0 0 0 0 0 0 0
0 0 0 0 0 0 0 0 0
0 0 0 0 0 0 0 0 0
0 0 0 0 0 0 0 0 0
0 0 0 0 0 0 0 0 0
0 0 0 0 0 0 0 0 0
0 0 0 0 0 0 0 0 0
0 0 0 0 0 0 0 0 0
0 0 0 0 0 0 0 0 0
0 0 0 0 0 0 0 0 0
0 0 0 0 0 0 0 0 0
0 0 0 0 0 0 0 0 0
0 0 0 0 0 0 0 0 0
0 0 0 0 0 0 0 0 0
0 0 0 0 0 0 0 0 0
0 0 0 0 0 0 0 0 0
0 0 0 0 0 0 0 0 0
0 0 0 0 0 0 0 0 0
0 0 0 0 0 0 0 0 0
0 0 0 0 0 0 0 0 0
0 0 0 0 0 0 0 0 0
0 0 0 0 0 0 0 0 0
0 0 0 0 0 0 0 0 0
0 0 0 0 0 0 0 0 0
0 0 0 0 0 0 0 0 0
0 0 0 0 0 0 0 0 0
0 0 0 0 0 0 0 0 0
0 0 0 0 0 0 0 0 0
0 0 0 0 0 0 0 0 0
0 0 0 0 0 0 0 0 0
0 0 0 0 0 0 0 0 0
0 0 0 0 0 0 0 0 0
0 0 0 0 0 0 0 0 0
0 0 0 0 0 0 0 0 0
0 0 0 0 0 0 0 0 0
0 0 0 0 0 0 0 0 0
0 0 0 0 0 0 0 0 0
0 0 0 0 0 0 0 0 0
0 0 0 0 0 0 0 0 0
0 0 0 0 0 0 0 0 0
0 0 0 0 0 0 0 0 0
0 0 0 0 0 0 0 0 0
0 0 0 0 0 0 0 0 0
0 0 0 0 0 0 0 0 0
0 0 0 0 0 0 0 0 0
0 0 0 0 0 0 0 0 0
0 0 0 0 0 0 0 0 0
0 0 0 0 0 0 0 0 0
0 0 0 0 0 0 0 0 0
0 0 0 0 0 0 0 0 0
0 0 0 0 0 0 0 0 0
0 0 0 0 0 0 0 0 0
0 0 0 0 0 0 0 0 0
0 0 0 0 0 0 0 0 0
0 0 0 0 0 0 0 0 0
0 0 0 0 0 0 0 0 0
0 0 0 0 0 0 0 0 0
0 0 0 0 0 0 0 0 0
0 0 0 0 0 0 0 0 0
0 0 0 0 0 0 0 0 0
0 0 0 0 0 0 0 0 0
0 0 0 0 0 0 0 0 0
0 0 0 0 0 0 0 0 0
0 0 0 0 0 0 0 0 0
0 0 0 0 0 0 0 0 0
0 0 0 0 0 0 0 0 0
0 0 0 0 0 0 0 0 0
0 0 0 0 0 0 0 0 0
0 0 0 0 0 0 0 0 0
0 0 0 0 0 0 0 0 0
0 0 0 0 0 0 0 0 0
0 0 0 0 0 0 0 0 0
0 0 0 0 0 0 0 0 0
0 0 0 0 0 0 0 0 0
0 0 0 0 0 0 0 0 0
0 0 0 0 0 0 0 0 0
0 0 0 0 0 0 0 0 0
0 0 0 0 0 0 0 0 0
0 0 0 0 0 0 0 0 0
0 0 0 0 0 0 0 0 0
0 0 0 0 0 0 0 0 0
0 0 0 0 0 0 0 0 0
0 0 0 0 0 0 0 0 0
0 0 0 0 0 0 0 0 0
0 0 0 0 0 0 0 0 0
0 0 0 0 0 0 0 0 0
0 0 0 0 0 0 0 0 0
1.16738e-06 1.21074e-06 1.16799e-06 1.21066e-06 1.16738e-06 1.21074e-06 1.16799e-06 1.21066e-06 0
1.24306e-06 1.28799e-06 1.24246e-06 1.28667e-06 1.24306e-06 1.28799e-06 1.24246e-06 1.28667e-06 0
1.32155e-06 1.36821e-06 1.31962e-06 1.36557e-06 1.32155e-06 1.36821e-06 1.31962e-06 1.36557e-06 0
1.40291e-06 1.45105e-06 1.39973e-06 1.44713e-06 1.40291e-06 1.45105e-06 1.39973e-06 1.44713e-06 0
1.48678e-06 1.53625e-06 1.4823e-06 1.53099e-06 1.48678e-06 1.53625e-06 1.4823e-06 1.53099e-06 0
1.57286e-06 1.62343e-06 1.56703e-06 1.61679e-06 1.57286e-06 1.62343e-06 1.56703e-06 1.61679e-06 0
1.16708e-06 1.21157e-06 1.16713e-06 1.21098e-06 1.16708e-06 1.21157e-06 1.16713e-06 1.21098e-06 0
1.24479e-06 1.29105e-06 1.24367e-06 1.28918e-06 1.24479e-06 1.29105e-06 1.24367e-06 1.28918e-06 0
1.32552e-06 1.37345e-06 1.32312e-06 1.37031e-06 1.32552e-06 1.37345e-06 1.32312e-06 1.37031e-06 0
1.4091e-06 1.45858e-06 1.40541e-06 1.45412e-06 1.4091e-06 1.45858e-06 1.40541e-06 1.45412e-06 0
1.4953e-06 1.54616e-06 1.49026e-06 1.54031e-06 1.4953e-06 1.54616e-06 1.49026e-06 1.54031e-06 0
1.58381e-06 1.63591e-06 1.57736e-06 1.62855e-06 1.58381e-06 1.63591e-06 1.57736e-06 1.62855e-06 0
1.16764e-06 1.21334e-06 1.16721e-06 1.21221e-06 1.16764e-06 1.21334e-06 1.16721e-06 1.21221e-06 0
1.24746e-06 1.29497e-06 1.24581e-06 1.29259e-06 1.24746e-06 1.29497e-06 1.24581e-06 1.29259e-06 0
1.33038e-06 1.37963e-06 1.32746e-06 1.37594e-06 1.33038e-06 1.37963e-06 1.32746e-06 1.37594e-06 0
1.41626e-06 1.46712e-06 1.412e-06 1.46206e-06 1.41626e-06 1.46712e-06 1.412e-06 1.46206e-06 0
1.50487e-06 1.55717e-06 1.49921e-06 1.55068e-06 1.50487e-06 1.55717e-06 1.49921e-06 1.55068e-06 0
1.5959e-06 1.64941e-06 1.58877e-06 1.64149e-06 1.5959e-06 1.64941e-06 1.58877e-06 1.64149e-06 0
1.68893e-06 1.74339e-06 1.68041e-06 1.73398e-06 1.68893e-06 1.74339e-06 1.68041e-06 1.73398e-06 0
1.78339e-06 1.83823e-06 1.77329e-06 1.82714e-06 1.78339e-06 1.83823e-06 1.77329e-06 1.82714e-06 0
1.87845e-06 1.93352e-06 1.86666e-06 1.92079e-06 1.87845e-06 1.93352e-06 1.86666e-06 1.92079e-06 0
1.16912e-06 1.21605e-06 1.16815e-06 1.21436e-06 1.16912e-06 1.21605e-06 1.16815e-06 1.21436e-06 0
1.25108e-06 1.29987e-06 1.24887e-06 1.29691e-06 1.25108e-06 1.29987e-06 1.24887e-06 1.29691e-06 0
1.33624e-06 1.38683e-06 1.33273e-06 1.38254e-06 1.33624e-06 1.38683e-06 1.33273e-06 1.38254e-06 0
1.42447e-06 1.47674e-06 1.4196e-06 1.47104e-06 1.42447e-06 1.47674e-06 1.4196e-06 1.47104e-06 0
1.51556e-06 1.56935e-06 1.50924e-06 1.56217e-06 1.51556e-06 1.56935e-06 1.50924e-06 1.56217e-06 0
1.6092e-06 1.66428e-06 1.60137e-06 1.65554e-06 1.6092e-06 1.66428e-06 1.60137e-06 1.65554e-06 0
1.70496e-06 1.76104e-06 1.69554e-06 1.75068e-06 1.70496e-06 1.76104e-06 1.69554e-06 1.75068e-06 0
1.80224e-06 1.85875e-06 1.79119e-06 1.84672e-06 1.80224e-06 1.85875e-06 1.79119e-06 1.84672e-06 0
1.90019e-06 1.95695e-06 1.88745e-06 1.94322e-06 1.90019e-06 1.95695e-06 1.88745e-06 1.94322e-06 0
1.17168e-06 1.21982e-06 1.17006e-06 1.21749e-06 1.17168e-06 1.21982e-06 1.17006e-06 1.21749e-06 0
1.25576e-06 1.30584e-06 1.25291e-06 1.30225e-06 1.25576e-06 1.30584e-06 1.25291e-06 1.30225e-06 0
1.34319e-06 1.39515e-06 1.33903e-06 1.3902e-06 1.34319e-06 1.39515e-06 1.33903e-06 1.3902e-06 0
1.43383e-06 1.48755e-06 1.42828e-06 1.48116e-06 1.43383e-06 1.48755e-06 1.42828e-06 1.48116e-06 0
1.52746e-06 1.58279e-06 1.52043e-06 1.57487e-06 1.52746e-06 1.58279e-06 1.52043e-06 1.57487e-06 0
1.62379e-06 1.68049e-06 1.6152e-06 1.67096e-06 1.62379e-06 1.68049e-06 1.6152e-06 1.67096e-06 0
1.72238e-06 1.78015e-06 1.71214e-06 1.76893e-06 1.72238e-06 1.78015e-06 1.71214e-06 1.76893e-06 0
1.82261e-06 1.88086e-06 1.81066e-06 1.86789e-06 1.82261e-06 1.88086e-06 1.81066e-06 1.86789e-06 0
1.9236e-06 1.98219e-06 1.90987e-06 1.96738e-06 1.9236e-06 1.98219e-06 1.90987e-06 1.96738e-06 0
1.17542e-06 1.22483e-06 1.17311e-06 1.22178e-06 1.17542e-06 1.22483e-06 1.17311e-06 1.22178e-06 0
1.2617e-06 1.31304e-06 1.25812e-06 1.30871e-06 1.2617e-06 1.31304e-06 1.25812e-06 1.30871e-06 0
1.35134e-06 1.40468e-06 1.34647e-06 1.39902e-06 1.35134e-06 1.40468e-06 1.34647e-06 1.39902e-06 0
1.44442e-06 1.49963e-06 1.43814e-06 1.49249e-06 1.44442e-06 1.49963e-06 1.43814e-06 1.49249e-06 0
1.54067e-06 1.59758e-06 1.53288e-06 1.58887e-06 1.54067e-06 1.59758e-06 1.53288e-06 1.58887e-06 0
1.63977e-06 1.69815e-06 1.63037e-06 1.68777e-06 1.63977e-06 1.69815e-06 1.63037e-06 1.68777e-06 0
1.7413e-06 1.80083e-06 1.73018e-06 1.78869e-06 1.7413e-06 1.80083e-06 1.73018e-06 1.78869e-06 0
1.84461e-06 1.90472e-06 1.8317e-06 1.89072e-06 1.84461e-06 1.90472e-06 1.8317e-06 1.89072e-06 0
1.94885e-06 2.00936e-06 1.93405e-06 1.99343e-06 1.94885e-06 2.00936e-06 1.93405e-06 1.99343e-06 0
1.18045e-06 1.23112e-06 1.17738e-06 1.22732e-06 1.18045e-06 1.23112e-06 1.17738e-06 1.22732e-06 0
1.26894e-06 1.32158e-06 1.26459e-06 1.31648e-06 1.26894e-06 1.32158e-06 1.26459e-06 1.31648e-06 0
1.36086e-06 1.41555e-06 1.3552e-06 1.4091e-06 1.36086e-06 1.41555e-06 1.3552e-06 1.4091e-06 0
1.45634e-06 1.51308e-06 1.44928e-06 1.50514e-06 1.45634e-06 1.51308e-06 1.44928e-06 1.50514e-06 0
1.55526e-06 1.61381e-06 1.54666e-06 1.60426e-06 1.55526e-06 1.61381e-06 1.54666e-06 1.60426e-06 0
1.65723e-06 1.71735e-06 1.64696e-06 1.70607e-06 1.65723e-06 1.71735e-06 1.64696e-06 1.70607e-06 0
1.7618e-06 1.82318e-06 1.74976e-06 1.81006e-06 1.7618e-06 1.82318e-06 1.74976e-06 1.81006e-06 0
1.86833e-06 1.93039e-06 1.85441e-06 1.91534e-06 1.86833e-06 1.93039e-06 1.85441e-06 1.91534e-06 0
1.97597e-06 2.03843e-06 1.96008e-06 2.02141e-06 1.97597e-06 2.03843e-06 1.96008e-06 2.02141e-06 0
2.08313e-06 2.14281e-06 2.06524e-06 2.12367e-06 2.08313e-06 2.14281e-06 2.06524e-06 2.12367e-06 0
1.09987e-06 1.14959e-06 1.09724e-06 1.14627e-06 1.09987e-06 1.14959e-06 1.09724e-06 1.14627e-06 0
1.18682e-06 1.23882e-06 1.18297e-06 1.2342e-06 1.18682e-06 1.23882e-06 1.18297e-06 1.2342e-06 0
1.27759e-06 1.33152e-06 1.27241e-06 1.3256e-06 1.27759e-06 1.33152e-06 1.27241e-06 1.3256e-06 0
1.37178e-06 1.42786e-06 1.36529e-06 1.42057e-06 1.37178e-06 1.42786e-06 1.36529e-06 1.42057e-06 0
1.46971e-06 1.52799e-06 1.46181e-06 1.51919e-06 1.46971e-06 1.52799e-06 1.46181e-06 1.51919e-06 0
1.57136e-06 1.63157e-06 1.56188e-06 1.62112e-06 1.57136e-06 1.63157e-06 1.56188e-06 1.62112e-06 0
1.67626e-06 1.73818e-06 1.66507e-06 1.72594e-06 1.67626e-06 1.73818e-06 1.66507e-06 1.72594e-06 0
1.78399e-06 1.84729e-06 1.77097e-06 1.83314e-06 1.78399e-06 1.84729e-06 1.77097e-06 1.83314e-06 0
1.89388e-06 1.95797e-06 1.8789e-06 1.94181e-06 1.89388e-06 1.95797e-06 1.8789e-06 1.94181e-06 0
2.00507e-06 2.06965e-06 1.98801e-06 2.05135e-06 2.00507e-06 2.06965e-06 1.98801e-06 2.05135e-06 0
2.11594e-06 2.17784e-06 2.09671e-06 2.15732e-06 2.11594e-06 2.17784e-06 2.09671e-06 2.15732e-06 0
2.22375e-06 2.28739e-06 2.20232e-06 2.26481e-06 2.22375e-06 2.28739e-06 2.20232e-06 2.26481e-06 0
1.19476e-06 1.24782e-06 1.18997e-06 1.24246e-06 1.19476e-06 1.24782e-06 1.18997e-06 1.24246e-06 0
1.28745e-06 1.34269e-06 1.28161e-06 1.33609e-06 1.28745e-06 1.34269e-06 1.28161e-06 1.33609e-06 0
1.38405e-06 1.4417e-06 1.37676e-06 1.43347e-06 1.38405e-06 1.4417e-06 1.37676e-06 1.43347e-06 0
1.4847e-06 1.54453e-06 1.47583e-06 1.53477e-06 1.4847e-06 1.54453e-06 1.47583e-06 1.53477e-06 0
1.58908e-06 1.65098e-06 1.57864e-06 1.63957e-06 1.58908e-06 1.65098e-06 1.57864e-06 1.63957e-06 0
1.69697e-06 1.76072e-06 1.6848e-06 1.74749e-06 1.69697e-06 1.76072e-06 1.6848e-06 1.74749e-06 0
1.80794e-06 1.87325e-06 1.79389e-06 1.85802e-06 1.80794e-06 1.87325e-06 1.79389e-06 1.85802e-06 0
1.9214e-06 1.9876e-06 1.90525e-06 1.97023e-06 1.9214e-06 1.9876e-06 1.90525e-06 1.97023e-06 0
2.03625e-06 2.103e-06 2.01798e-06 2.08348e-06 2.03625e-06 2.103e-06 2.01798e-06 2.08348e-06 0
2.15093e-06 2.21511e-06 2.13046e-06 2.19332e-06 2.15093e-06 2.21511e-06 2.13046e-06 2.19332e-06 0
2.26265e-06 2.32851e-06 2.23991e-06 2.30446e-06 2.26265e-06 2.32851e-06 2.23991e-06 2.30446e-06 0
0 0 0 0 0 0 0 0 0
0 0 0 0 0 0 0 0 0
0 0 0 0 0 0 0 0 0
0 0 0 0 0 0 0 0 0
0 0 0 0 0 0 0 0 0
0 0 0 0 0 0 0 0 0
0 0 0 0 0 0 0 0 0
0 0 0 0 0 0 0 0 0
0 0 0 0 0 0 0 0 0
0 0 0 0 0 0 0 0 0
0 0 0 0 0 0 0 0 0
0 0 0 0 0 0 0 0 0
0 0 0 0 0 0 0 0 0
0 0 0 0 0 0 0 0 0
0 0 0 0 0 0 0 0 0
0 0 0 0 0 0 0 0 0
0 0 0 0 0 0 0 0 0
0 0 0 0 0 0 0 0 0
0 0 0 0 0 0 0 0 0
0 0 0 0 0 0 0 0 0
0 0 0 0 0 0 0 0 0
0 0 0 0 0 0 0 0 0
0 0 0 0 0 0 0 0 0
0 0 0 0 0 0 0 0 0
0 0 0 0 0 0 0 0 0
0 0 0 0 0 0 0 0 0
0 0 0 0 0 0 0 0 0
0 0 0 0 0 0 0 0 0
0 0 0 0 0 0 0 0 0
0 0 0 0 0 0 0 0 0
0 0 0 0 0 0 0 0 0
0 0 0 0 0 0 0 0 0
0 0 0 0 0 0 0 0 0
0 0 0 0 0 0 0 0 0
0 0 0 0 0 0 0 0 0
0 0 0 0 0 0 0 0 0
0 0 0 0 0 0 0 0 0
0 0 0 0 0 0 0 0 0
0 0 0 0 0 0 0 0 0
0 0 0 0 0 0 0 0 0
0 0 0 0 0 0 0 0 0
0 0 0 0 0 0 0 0 0
0 0 0 0 0 0 0 0 0
0 0 0 0 0 0 0 0 0
0 0 0 0 0 0 0 0 0
0 0 0 0 0 0 0 0 0
0 0 0 0 0 0 0 0 0
0 0 0 0 0 0 0 0 0
0 0 0 0 0 0 0 0 0
0 0 0 0 0 0 0 0 0
0 0 0 0 0 0 0 0 0
0 0 0 0 0 0 0 0 0
0 0 0 0 0 0 0 0 0
0 0 0 0 0 0 0 0 0
0 0 0 0 0 0 0 0 0
0 0 0 0 0 0 0 0 0
0 0 0 0 0 0 0 0 0
0 0 0 0 0 0 0 0 0
0 0 0 0 0 0 0 0 0
0 0 0 0 0 0 0 0 0
0 0 0 0 0 0 0 0 0
0 0 0 0 0 0 0 0 0
0 0 0 0 0 0 0 0 0
0 0 0 0 0 0 0 0 0
0 0 0 0 0 0 0 0 0
0 0 0 0 0 0 0 0 0
0 0 0 0 0 0 0 0 0
0 0 0 0 0 0 0 0 0
0 0 0 0 0 0 0 0 0
0 0 0 0 0 0 0 0 0
0 0 0 0 0 0 0 0 0
0 0 0 0 0 0 0 0 0
0 0 0 0 0 0 0 0 0
0 0 0 0 0 0 0 0 0
0 0 0 0 0 0 0 0 0
0 0 0 0 0 0 0 0 0
0 0 0 0 0 0 0 0 0
0 0 0 0 0 0 0 0 0
0 0 0 0 0 0 0 0 0
0 0 0 0 0 0 0 0 0
0 0 0 0 0 0 0 0 0
0 0 0 0 0 0 0 0 0
0 0 0 0 0 0 0 0 0
0 0 0 0 0 0 0 0 0
0 0 0 0 0 0 0 0 0
0 0 0 0 0 0 0 0 0
0 0 0 0 0 0 0 0 0
0 0 0 0 0 0 0 0 0
0 0 0 0 0 0 0 0 0
0 0 0 0 0 0 0 0 0
0 0 0 0 0 0 0 0 0
0 0 0 0 0 0 0 0 0
0 0 0 0 0 0 0 0 0
0 0 0 0 0 0 0 0 0
0 0 0 0 0 0 0 0 0
0 0 0 0 0 0 0 0 0
0 0 0 0 0 0 0 0 0
0 0 0 0 0 0 0 0 0
0 0 0 0 0 0 0 0 0
0 0 0 0 0 0 0 0 0
0 0 0 0 0 0 0 0 0
0 0 0 0 0 0 0 0 0
0 0 0 0 0 0 0 0 0
0 0 0 0 0 0 0 0 0
0 0 0 0 0 0 0 0 0
0 0 0 0 0 0 0 0 0
0 0 0 0 0 0 0 0 0
0 0 0 0 0 0 0 0 0
0 0 0 0 0 0 0 0 0
0 0 0 0 0 0 0 0 0
0 0 0 0 0 0 0 0 0
0 0 0 0 0 0 0 0 0
0 0 0 0 0 0 0 0 0
0 0 0 0 0 0 0 0 0
0 0 0 0 0 0 0 0 0
0 0 0 0 0 0 0 0 0
0 0 0 0 0 0 0 0 0
0 0 0 0 0 0 0 0 0
0 0 0 0 0 0 0 0 0
0 0 0 0 0 0 0 0 0
0 0 0 0 0 0 0 0 0
0 0 0 0 0 0 0 0 0
0 0 0 0 0 0 0 0 0
0 0 0 0 0 0 0 0 0
0 0 0 0 0 0 0 0 0
0 0 0 0 0 0 0 0 0
0 0 0 0 0 0 0 0 0
0 0 0 0 0 0 0 0 0
0 0 0 0 0 0 0 0 0
0 0 0 0 0 0 0 0 0
0 0 0 0 0 0 0 0 0
0 0 0 0 0 0 0 0 0
0 0 0 0 0 0 0 0 0
0 0 0 0 0 0 0 0 0
0 0 0 0 0 0 0 0 0
0 0 0 0 0 0 0 0 0
0 0 0 0 0 0 0 0 0
0 0 0 0 0 0 0 0 0
0 0 0 0 0 0 0 0 0
0 0 0 0 0 0 0 0 0
0 0 0 0 0 0 0 0 0
0 0 0 0 0 0 0 0 0
0 0 0 0 0 0 0 0 0
0 0 0 0 0 0 0 0 0
0 0 0 0 0 0 0 0 0
0 0 0 0 0 0 0 0 0
0 0 0 0 0 0 0 0 0
0 0 0 0 0 0 0 0 0
0 0 0 0 0 0 0 0 0
0 0 0 0 0 0 0 0 0
0 0 0 0 0 0 0 0 0
0 0 0 0 0 0 0 0 0
0 0 0 0 0 0 0 0 0
0 0 0 0 0 0 0 0 0
0 0 0 0 0 0 0 0 0
0 0 0 0 0 0 0 0 0
0 0 0 0 0 0 0 0 0
0 0 0 0 0 0 0 0 0
0 0 0 0 0 0 0 0 0
0 0 0 0 0 0 0 0 0
0 0 0 0 0 0 0 0 0
0 0 0 0 0 0 0 0 0
0 0 0 0 0 0 0 0 0
0 0 0 0 0 0 0 0 0
0 0 0 0 0 0 0 0 0
0 0 0 0 0 0 0 0 0
0 0 0 0 0 0 0 0 0
0 0 0 0 0 0 0 0 0
0 0 0 0 0 0 0 0 0
0 0 0 0 0 0 0 0 0
0 0 0 0 0 0 0 0 0
0 0 0 0 0 0 0 0 0
0 0 0 0 0 0 0 0 0
0 0 0 0 0 0 0 0 0
0 0 0 0 0 0 0 0 0
0 0 0 0 0 0 0 0 0
0 0 0 0 0 0 0 0 0
0 0 0 0 0 0 0 0 0
0 0 0 0 0 0 0 0 0
0 0 0 0 0 0 0 0 0
0 0 0 0 0 0 0 0 0
0 0 0 0 0 0 0 0 0
0 0 0 0 0 0 0 0 0
0 0 0 0 0 0 0 0 0
0 0 0 0 0 0 0 0 0
0 0 0 0 0 0 0 0 0
0 0 0 0 0 0 0 0 0
0 0 0 0 0 0 0 0 0
0 0 0 0 0 0 0 0 0
0 0 0 0 0 0 0 0 0
0 0 0 0 0 0 0 0 0
0 0 0 0 0 0 0 0 0
0 0 0 0 0 0 0 0 0
0 0 0 0 0 0 0 0 0
0 0 0 0 0 0 0 0 0
0 0 0 0 0 0 0 0 0
0 0 0 0 0 0 0 0 0
0 0 0 0 0 0 0 0 0
0 0 0 0 0 0 0 0 0
0 0 0 0 0 0 0 0 0
0 0 0 0 0 0 0 0 0
0 0 0 0 0 0 0 0 0
0 0 0 0 0 0 0 0 0
0 0 0 0 0 0 0 0 0
0 0 0 0 0 0 0 0 0
0 0 0 0 0 0 0 0 0
0 0 0 0 0 0 0 0 0
0 0 0 0 0 0 0 0 0
0 0 0 0 0 0 0 0 0
0 0 0 0 0 0 0 0 0
0 0 0 0 0 0 0 0 0
0 0 0 0 0 0 0 0 0
0 0 0 0 0 0 0 0 0
0 0 0 0 0 0 0 0 0
0 0 0 0 0 0 0 0 0
0 0 0 0 0 0 0 0 0
0 0 0 0 0 0 0 0 0
0 0 0 0 0 0 0 0 0
0 0 0 0 0 0 0 0 0
0 0 0 0 0 0 0 0 0
0 0 0 0 0 0 0 0 0
0 0 0 0 0 0 0 0 0
0 0 0 0 0 0 0 0 0
0 0 0 0 0 0 0 0 0
0 0 0 0 0 0 0 0 0
0 0 0 0 0 0 0 0 0
0 0 0 0 0 0 0 0 0
0 0 0 0 0 0 0 0 0
0 0 0 0 0 0 0 0 0
0 0 0 0 0 0 0 0 0
0 0 0 0 0 0 0 0 0
0 0 0 0 0 0 0 0 0
0 0 0 0 0 0 0 0 0
0 0 0 0 0 0 0 0 0
0 0 0 0 0 0 0 0 0
0 0 0 0 0 0 0 0 0
0 0 0 0 0 0 0 0 0
0 0 0 0 0 0 0 0 0
0 0 0 0 0 0 0 0 0
0 0 0 0 0 0 0 0 0
0 0 0 0 0 0 0 0 0
0 0 0 0 0 0 0 0 0
0 0 0 0 0 0 0 0 0
0 0 0 0 0 0 0 0 0
0 0 0 0 0 0 0 0 0
0 0 0 0 0 0 0 0 0
0 0 0 0 0 0 0 0 0
0 0 0 0 0 0 0 0 0
0 0 0 0 0 0 0 0 0
0 0 0 0 0 0 0 0 0
0 0 0 0 0 0 0 0 0
0 0 0 0 0 0 0 0 0
0 0 0 0 0 0 0 0 0
0 0 0 0 0 0 0 0 0
0 0 0 0 0 0 0 0 0
0 0 0 0 0 0 0 0 0
0 0 0 0 0 0 0 0 0
0 0 0 0 0 0 0 0 0
0 0 0 0 0 0 0 0 0
0 0 0 0 0 0 0 0 0
0 0 0 0 0 0 0 0 0
0 0 0 0 0 0 0 0 0
0 0 0 0 0 0 0 0 0
0 0 0 0 0 0 0 0 0
0 0 0 0 0 0 0 0 0
0 0 0 0 0 0 0 0 0
0 0 0 0 0 0 0 0 0
0 0 0 0 0 0 0 0 0
0 0 0 0 0 0 0 0 0
0 0 0 0 0 0 0 0 0
0 0 0 0 0 0 0 0 0
0 0 0 0 0 0 0 0 0
0 0 0 0 0 0 0 0 0
0 0 0 0 0 0 0 0 0
0 0 0 0 0 0 0 0 0
0 0 0 0 0 0 0 0 0
0 0 0 0 0 0 0 0 0
0 0 0 0 0 0 0 0 0
0 0 0 0 0 0 0 0 0
0 0 0 0 0 0 0 0 0
0 0 0 0 0 0 0 0 0
0 0 0 0 0 0 0 0 0
0 0 0 0 0 0 0 0 0
0 0 0 0 0 0 0 0 0
0 0 0 0 0 0 0 0 0
0 0 0 0 0 0 0 0 0
0 0 0 0 0 0 0 0 0
0 0 0 0 0 0 0 0 0
0 0 0 0 0 0 0 0 0
0 0 0 0 0 0 0 0 0
0 0 0 0 0 0 0 0 0
0 0 0 0 0 0 0 0 0
0 0 0 0 0 0 0 0 0
0 0 0 0 0 0 0 0 0
0 0 0 0 0 0 0 0 0
0 0 0 0 0 0 0 0 0
0 0 0 0 0 0 0 0 0
0 0 0 0 0 0 0 0 0
0 0 0 0 0 0 0 0 0
0 0 0 0 0 0 0 0 0
0 0 0 0 0 0 0 0 0
0 0 0 0 0 0 0 0 0
0 0 0 0 0 0 0 0 0
0 0 0 0 0 0 0 0 0
0 0 0 0 0 0 0 0 0
0 0 0 0 0 0 0 0 0
0 0 0 0 0 0 0 0 0
0 0 0 0 0 0 0 0 0
0 0 0 0 0 0 0 0 0
0 0 0 0 0 0 0 0 0
0 0 0 0 0 0 0 0 0
0 0 0 0 0 0 0 0 0
0 0 0 0 0 0 0 0 0
0 0 0 0 0 0 0 0 0
0 0 0 0 0 0 0 0 0
0 0 0 0 0 0 0 0 0
0 0 0 0 0 0 0 0 0
0 0 0 0 0 0 0 0 0
0 0 0 0 0 0 0 0 0
0 0 0 0 0 0 0 0 0
0 0 0 0 0 0 0 0 0
0 0 0 0 0 0 0 0 0
0 0 0 0 0 0 0 0 0
0 0 0 0 0 0 0 0 0
0 0 0 0 0 0 0 0 0
0 0 0 0 0 0 0 0 0
0 0 0 0 0 0 0 0 0
0 0 0 0 0 0 0 0 0
0 0 0 0 0 0 0 0 0
0 0 0 0 0 0 0 0 0
0 0 0 0 0 0 0 0 0
0 0 0 0 0 0 0 0 0
0 0 0 0 0 0 0 0 0
0 0 0 0 0 0 0 0 0
0 0 0 0 0 0 0 0 0
0 0 0 0 0 0 0 0 0
0 0 0 0 0 0 0 0 0
0 0 0 0 0 0 0 0 0
0 0 0 0 0 0 0 0 0
0 0 0 0 0 0 0 0 0
0 0 0 0 0 0 0 0 0
0 0 0 0 0 0 0 0 0
0 0 0 0 0 0 0 0 0
0 0 0 0 0 0 0 0 0
0 0 0 0 0 0 0 0 0
0 0 0 0 0 0 0 0 0
0 0 0 0 0 0 0 0 0
0 0 0 0 0 0 0 0 0
0 0 0 0 0 0 0 0 0
0 0 0 0 0 0 0 0 0
0 0 0 0 0 0 0 0 0
0 0 0 0 0 0 0 0 0
0 0 0 0 0 0 0 0 0
0 0 0 0 0 0 0 0 0
0 0 0 0 0 0 0 0 0
0 0 0 0 0 0 0 0 0
0 0 0 0 0 0 0 0 0
0 0 0 0 0 0 0 0 0
0 0 0 0 0 0 0 0 0
0 0 0 0 0 0 0 0 0
0 0 0 0 0 0 0 0 0
0 0 0 0 0 0 0 0 0
0 0 0 0 0 0 0 0 0
0 0 0 0 0 0 0 0 0
0 0 0 0 0 0 0 0 0
0 0 0 0 0 0 0 0 0
0 0 0 0 0 0 0 0 0
0 0 0 0 0 0 0 0 0
0 0 0 0 0 0 0 0 0
0 0 0 0 0 0 0 0 0
0 0 0 0 0 0 0 0 0
0 0 0 0 0 0 0 0 0
0 0 0 0 0 0 0 0 0
0 0 0 0 0 0 0 0 0
0 0 0 0 0 0 0 0 0
0 0 0 0 0 0 0 0 0
0 0 0 0 0 0 0 0 0
0 0 0 0 0 0 0 0 0
0 0 0 0 0 0 0 0 0
0 0 0 0 0 0 0 0 0
0 0 0 0 0 0 0 0 0
0 0 0 0 0 0 0 0 0
0 0 0 0 0 0 0 0 0
0 0 0 0 0 0 0 0 0
0 0 0 0 0 0 0 0 0
0 0 0 0 0 0 0 0 0
0 0 0 0 0 0 0 0 0
0 0 0 0 0 0 0 0 0
0 0 0 0 0 0 0 0 0
0 0 0 0 0 0 0 0 0
0 0 0 0 0 0 0 0 0
0 0 0 0 0 0 0 0 0
0 0 0 0 0 0 0 0 0
0 0 0 0 0 0 0 0 0
0 0 0 0 0 0 0 0 0
0 0 0 0 0 0 0 0 0
0 0 0 0 0 0 0 0 0
0 0 0 0 0 0 0 0 0
0 0 0 0 0 0 0 0 0
0 0 0 0 0 0 0 0 0
0 0 0 0 0 0 0 0 0
0 0 0 0 0 0 0 0 0
0 0 0 0 0 0 0 0 0
0 0 0 0 0 0 0 0 0
0 0 0 0 0 0 0 0 0
0 0 0 0 0 0 0 0 0
0 0 0 0 0 0 0 0 0
0 0 0 0 0 0 0 0 0
0 0 0 0 0 0 0 0 0
0 0 0 0 0 0 0 0 0
0 0 0 0 0 0 0 0 0
0 0 0 0 0 0 0 0 0
0 0 0 0 0 0 0 0 0
0 0 0 0 0 0 0 0 0
0 0 0 0 0 0 0 0 0
0 0 0 0 0 0 0 0 0
0 0 0 0 0 0 0 0 0
0 0 0 0 0 0 0 0 0
0 0 0 0 0 0 0 0 0
0 0 0 0 0 0 0 0 0
0 0 0 0 0 0 0 0 0
0 0 0 0 0 0 0 0 0
0 0 0 0 0 0 0 0 0
0 0 0 0 0 0 0 0 0
0 0 0 0 0 0 0 0 0
0 0 0 0 0 0 0 0 0
0 0 0 0 0 0 0 0 0
0 0 0 0 0 0 0 0 0
0 0 0 0 0 0 0 0 0
0 0 0 0 0 0 0 0 0
0 0 0 0 0 0 0 0 0
0 0 0 0 0 0 0 0 0
0 0 0 0 0 0 0 0 0
0 0 0 0 0 0 0 0 0
0 0 0 0 0 0 0 0 0
0 0 0 0 0 0 0 0 0
0 0 0 0 0 0 0 0 0
0 0 0 0 0 0 0 0 0
0 0 0 0 0 0 0 0 0
0 0 0 0 0 0 0 0 0
0 0 0 0 0 0 0 0 0
0 0 0 0 0 0 0 0 0
0 0 0 0 0 0 0 0 0
0 0 0 0 0 0 0 0 0
0 0 0 0 0 0 0 0 0
0 0 0 0 0 0 0 0 0
0 0 0 0 0 0 0 0 0
0 0 0 0 0 0 0 0 0
0 0 0 0 0 0 0 0 0
0 0 0 0 0 0 0 0 0
0 0 0 0 0 0 0 0 0
0 0 0 0 0 0 0 0 0
0 0 0 0 0 0 0 0 0
0 0 0 0 0 0 0 0 0
0 0 0 0 0 0 0 0 0
0 0 0 0 0 0 0 0 0
0 0 0 0 0 0 0 0 0
0 0 0 0 0 0 0 0 0
0 0 0 0 0 0 0 0 0
0 0 0 0 0 0 0 0 0
0 0 0 0 0 0 0 0 0
0 0 0 0 0 0 0 0 0
0 0 0 0 0 0 0 0 0
0 0 0 0 0 0 0 0 0
0 0 0 0 0 0 0 0 0
0 0 0 0 0 0 0 0 0
0 0 0 0 0 0 0 0 0
0 0 0 0 0 0 0 0 0
0 0 0 0 0 0 0 0 0
0 0 0 0 0 0 0 0 0
0 0 0 0 0 0 0 0 0
0 0 0 0 0 0 0 0 0
0 0 0 0 0 0 0 0 0
0 0 0 0 0 0 0 0 0
0 0 0 0 0 0 0 0 0
0 0 0 0 0 0 0 0 0
0 0 0 0 0 0 0 0 0
0 0 0 0 0 0 0 0 0
0 0 0 0 0 0 0 0 0
0 0 0 0 0 0 0 0 0
0 0 0 0 0 0 0 0 0
0 0 0 0 0 0 0 0 0
0 0 0 0 0 0 0 0 0
0 0 0 0 0 0 0 0 0
0 0 0 0 0 0 0 0 0
0 0 0 0 0 0 0 0 0
0 0 0 0 0 0 0 0 0
0 0 0 0 0 0 0 0 0
0 0 0 0 0 0 0 0 0
0 0 0 0 0 0 0 0 0
0 0 0 0 0 0 0 0 0
0 0 0 0 0 0 0 0 0
0 0 0 0 0 0 0 0 0
0 0 0 0 0 0 0 0 0
0 0 0 0 0 0 0 0 0
0 0 0 0 0 0 0 0 0
0 0 0 0 0 0 0 0 0
0 0 0 0 0 0 0 0 0
0 0 0 0 0 0 0 0 0
0 0 0 0 0 0 0 0 0
0 0 0 0 0 0 0 0 0
0 0 0 0 0 0 0 0 0
0 0 0 0 0 0 0 0 0
0 0 0 0 0 0 0 0 0
0 0 0 0 0 0 0 0 0
0 0 0 0 0 0 0 0 0
0 0 0 0 0 0 0 0 0
0 0 0 0 0 0 0 0 0
0 0 0 0 0 0 0 0 0
0 0 0 0 0 0 0 0 0
0 0 0 0 0 0 0 0 0
0 0 0 0 0 0 0 0 0
0 0 0 0 0 0 0 0 0
0 0 0 0 0 0 0 0 0
0 0 0 0 0 0 0 0 0
0 0 0 0 0 0 0 0 0
0 0 0 0 0 0 0 0 0
0 0 0 0 0 0 0 0 0
0 0 0 0 0 0 0 0 0
0 0 0 0 0 0 0 0 0
0 0 0 0 0 0 0 0 0
0 0 0 0 0 0 0 0 0
0 0 0 0 0 0 0 0 0
0 0 0 0 0 0 0 0 0
0 0 0 0 0 0 0 0 0
0 0 0 0 0 0 0 0 0
0 0 0 0 0 0 0 0 0
0 0 0 0 0 0 0 0 0
0 0 0 0 0 0 0 0 0
0 0 0 0 0 0 0 0 0
0 0 0 0 0 0 0 0 0
0 0 0 0 0 0 0 0 0
0 0 0 0 0 0 0 0 0
0 0 0 0 0 0 0 0 0
0 0 0 0 0 0 0 0 0
0 0 0 0 0 0 0 0 0
0 0 0 0 0 0 0 0 0
0 0 0 0 0 0 0 0 0
0 0 0 0 0 0 0 0 0
0 0 0 0 0 0 0 0 0
0 0 0 0 0 0 0 0 0
0 0 0 0 0 0 0 0 0
0 0 0 0 0 0 0 0 0
0 0 0 0 0 0 0 0 0
0 0 0 0 0 0 0 0 0
0 0 0 0 0 0 0 0 0
0 0 0 0 0 0 0 0 0
0 0 0 0 0 0 0 0 0
0 0 0 0 0 0 0 0 0
0 0 0 0 0 0 0 0 0
0 0 0 0 0 0 0 0 0
0 0 0 0 0 0 0 0 0
0 0 0 0 0 0 0 0 0
0 0 0 0 0 0 0 0 0
0 0 0 0 0 0 0 0 0
0 0 0 0 0 0 0 0 0
0 0 0 0 0 0 0 0 0
0 0 0 0 0 0 0 0 0
0 0 0 0 0 0 0 0 0
0 0 0 0 0 0 0 0 0
0 0 0 0 0 0 0 0 0
0 0 0 0 0 0 0 0 0
0 0 0 0 0 0 0 0 0
0 0 0 0 0 0 0 0 0
0 0 0 0 0 0 0 0 0
0 0 0 0 0 0 0 0 0
0 0 0 0 0 0 0 0 0
6.39312e-07 6.6321e-07 6.39097e-07 6.62656e-07 6.39312e-07 6.6321e-07 6.39097e-07 6.62656e-07 0
6.81105e-07 7.061e-07 6.80305e-07 7.04962e-07 6.81105e-07 7.061e-07 6.80305e-07 7.04962e-07 0
7.24787e-07 7.50849e-07 7.23404e-07 7.49131e-07 7.24787e-07 7.50849e-07 7.23404e-07 7.49131e-07 0
7.70275e-07 7.9729e-07 7.68308e-07 7.94976e-07 7.70275e-07 7.9729e-07 7.68308e-07 7.94976e-07 0
8.1742e-07 8.45436e-07 8.14841e-07 8.42535e-07 8.1742e-07 8.45436e-07 8.14841e-07 8.42535e-07 0
8.66351e-07 8.954e-07 8.63186e-07 8.91863e-07 8.66351e-07 8.954e-07 8.63186e-07 8.91863e-07 0
6.40085e-07 6.64536e-07 6.39578e-07 6.63711e-07 6.40085e-07 6.64536e-07 6.39578e-07 6.63711e-07 0
6.8284e-07 7.08397e-07 6.81782e-07 7.07018e-07 6.8284e-07 7.08397e-07 6.81782e-07 7.07018e-07 0
7.27501e-07 7.54138e-07 7.25882e-07 7.52188e-07 7.27501e-07 7.54138e-07 7.25882e-07 7.52188e-07 0
7.74007e-07 8.01657e-07 7.718e-07 7.99078e-07 7.74007e-07 8.01657e-07 7.718e-07 7.99078e-07 0
8.22265e-07 8.5095e-07 8.19406e-07 8.47687e-07 8.22265e-07 8.5095e-07 8.19406e-07 8.47687e-07 0
8.72335e-07 9.02039e-07 8.68799e-07 8.98123e-07 8.72335e-07 9.02039e-07 8.68799e-07 8.98123e-07 0
6.41365e-07 6.66387e-07 6.4056e-07 6.6525e-07 6.41365e-07 6.66387e-07 6.4056e-07 6.6525e-07 0
6.85108e-07 7.11235e-07 6.83728e-07 7.09524e-07 6.85108e-07 7.11235e-07 6.83728e-07 7.09524e-07 0
7.30765e-07 7.58e-07 7.28806e-07 7.55692e-07 7.30765e-07 7.58e-07 7.28806e-07 7.55692e-07 0
7.78324e-07 8.06622e-07 7.75752e-07 8.03676e-07 7.78324e-07 8.06622e-07 7.75752e-07 8.03676e-07 0
8.2772e-07 8.57107e-07 8.24489e-07 8.53471e-07 8.2772e-07 8.57107e-07 8.24489e-07 8.53471e-07 0
8.78986e-07 9.09381e-07 8.75062e-07 9.05052e-07 8.78986e-07 9.09381e-07 8.75062e-07 9.05052e-07 0
9.3199e-07 9.63394e-07 9.2736e-07 9.58391e-07 9.3199e-07 9.63394e-07 9.2736e-07 9.58391e-07 0
9.86681e-07 1.01889e-06 9.81383e-07 1.01318e-06 9.86681e-07 1.01889e-06 9.81383e-07 1.01318e-06 0
1.04291e-06 1.07646e-06 1.03687e-06 1.06987e-06 1.04291e-06 1.07646e-06 1.03687e-06 1.06987e-06 0
6.43182e-07 6.68805e-07 6.42064e-07 6.67336e-07 6.43182e-07 6.68805e-07 6.42064e-07 6.67336e-07 0
6.87961e-07 7.1468e-07 6.86239e-07 7.12613e-07 6.87961e-07 7.1468e-07 6.86239e-07 7.12613e-07 0
7.34653e-07 7.62508e-07 7.32329e-07 7.59823e-07 7.34653e-07 7.62508e-07 7.32329e-07 7.59823e-07 0
7.83301e-07 8.1227e-07 7.80343e-07 8.0892e-07 7.83301e-07 8.1227e-07 7.80343e-07 8.0892e-07 0
8.33879e-07 8.6395e-07 8.30237e-07 8.59912e-07 8.33879e-07 8.6395e-07 8.30237e-07 8.59912e-07 0
8.86342e-07 9.17457e-07 8.82005e-07 9.12702e-07 8.86342e-07 9.17457e-07 8.82005e-07 9.12702e-07 0
9.40606e-07 9.72749e-07 9.35536e-07 9.6724e-07 9.40606e-07 9.72749e-07 9.35536e-07 9.6724e-07 0
9.96582e-07 1.02958e-06 9.9075e-07 1.02328e-06 9.96582e-07 1.02958e-06 9.9075e-07 1.02328e-06 0
1.0542e-06 1.08857e-06 1.04756e-06 1.08146e-06 1.0542e-06 1.08857e-06 1.04756e-06 1.08146e-06 0
6.45587e-07 6.71824e-07 6.44123e-07 6.70004e-07 6.45587e-07 6.71824e-07 6.44123e-07 6.70004e-07 0
6.91431e-07 7.18766e-07 6.89349e-07 7.16325e-07 6.91431e-07 7.18766e-07 6.89349e-07 7.16325e-07 0
7.39202e-07 7.67707e-07 7.36491e-07 7.64615e-07 7.39202e-07 7.67707e-07 7.36491e-07 7.64615e-07 0
7.8899e-07 8.18639e-07 7.85616e-07 8.14873e-07 7.8899e-07 8.18639e-07 7.85616e-07 8.14873e-07 0
8.40753e-07 8.71532e-07 8.36693e-07 8.6706e-07 8.40753e-07 8.71532e-07 8.36693e-07 8.6706e-07 0
8.94454e-07 9.26315e-07 8.89674e-07 9.21102e-07 8.94454e-07 9.26315e-07 8.89674e-07 9.21102e-07 0
9.50023e-07 9.82951e-07 9.44484e-07 9.76956e-07 9.50023e-07 9.82951e-07 9.44484e-07 9.76956e-07 0
1.00738e-06 1.04121e-06 1.00103e-06 1.03438e-06 1.00738e-06 1.04121e-06 1.00103e-06 1.03438e-06 0
1.06647e-06 1.10166e-06 1.05927e-06 1.09397e-06 1.06647e-06 1.10166e-06 1.05927e-06 1.09397e-06 0
6.48645e-07 6.75497e-07 6.46796e-07 6.73292e-07 6.48645e-07 6.75497e-07 6.46796e-07 6.73292e-07 0
6.95562e-07 7.23534e-07 6.93092e-07 7.20694e-07 6.95562e-07 7.23534e-07 6.93092e-07 7.20694e-07 0
7.44459e-07 7.73631e-07 7.41334e-07 7.7012e-07 7.44459e-07 7.73631e-07 7.41334e-07 7.7012e-07 0
7.95413e-07 8.25758e-07 7.91611e-07 8.21552e-07 7.95413e-07 8.25758e-07 7.91611e-07 8.21552e-07 0
8.48394e-07 8.79903e-07 8.43885e-07 8.74969e-07 8.48394e-07 8.79903e-07 8.43885e-07 8.74969e-07 0
9.03376e-07 9.3601e-07 8.98122e-07 9.30306e-07 9.03376e-07 9.3601e-07 8.98122e-07 9.30306e-07 0
9.60299e-07 9.94042e-07 9.54257e-07 9.87526e-07 9.60299e-07 9.94042e-07 9.54257e-07 9.87526e-07 0
1.01908e-06 1.05379e-06 1.01221e-06 1.04641e-06 1.01908e-06 1.05379e-06 1.01221e-06 1.04641e-06 0
1.07971e-06 1.11584e-06 1.07194e-06 1.10752e-06 1.07971e-06 1.11584e-06 1.07194e-06 1.10752e-06 0
6.52427e-07 6.79888e-07 6.50151e-07 6.77261e-07 6.52427e-07 6.79888e-07 6.50151e-07 6.77261e-07 0
7.00409e-07 7.29052e-07 6.97519e-07 7.25772e-07 7.00409e-07 7.29052e-07 6.97519e-07 7.25772e-07 0
7.50467e-07 7.80327e-07 7.46902e-07 7.76363e-07 7.50467e-07 7.80327e-07 7.46902e-07 7.76363e-07 0
8.02621e-07 8.33683e-07 7.98359e-07 8.29005e-07 8.02621e-07 8.33683e-07 7.98359e-07 8.29005e-07 0
8.56857e-07 8.89121e-07 8.51866e-07 8.83692e-07 8.56857e-07 8.89121e-07 8.51866e-07 8.83692e-07 0
9.13162e-07 9.46598e-07 9.07402e-07 9.40372e-07 9.13162e-07 9.46598e-07 9.07402e-07 9.40372e-07 0
9.7149e-07 1.00608e-06 9.64912e-07 9.99011e-07 9.7149e-07 1.00608e-06 9.64912e-07 9.99011e-07 0
1.03175e-06 1.06737e-06 1.02431e-06 1.05941e-06 1.03175e-06 1.06737e-06 1.02431e-06 1.05941e-06 0
1.09398e-06 1.13109e-06 1.08561e-06 1.12215e-06 1.09398e-06 1.13109e-06 1.08561e-06 1.12215e-06 0
1.15818e-06 1.19511e-06 1.14882e-06 1.18517e-06 1.15818e-06 1.19511e-06 1.14882e-06 1.18517e-06 0
6.09821e-07 6.36778e-07 6.07744e-07 6.34351e-07 6.09821e-07 6.36778e-07 6.07744e-07 6.34351e-07 0
6.56933e-07 6.85047e-07 6.54239e-07 6.8197e-07 6.56933e-07 6.85047e-07 6.54239e-07 6.8197e-07 0
7.06038e-07 7.35359e-07 7.02689e-07 7.31617e-07 7.06038e-07 7.35359e-07 7.02689e-07 7.31617e-07 0
7.57281e-07 7.87846e-07 7.53244e-07 7.834e-07 7.57281e-07 7.87846e-07 7.53244e-07 7.834e-07 0
8.10669e-07 8.4247e-07 8.05915e-07 8.37287e-07 8.10669e-07 8.4247e-07 8.05915e-07 8.37287e-07 0
8.66197e-07 8.99238e-07 8.60693e-07 8.93283e-07 8.66197e-07 8.99238e-07 8.60693e-07 8.93283e-07 0
9.23868e-07 9.58141e-07 9.1757e-07 9.51355e-07 9.23868e-07 9.58141e-07 9.1757e-07 9.51355e-07 0
9.83662e-07 1.01914e-06 9.7651e-07 1.01147e-06 9.83662e-07 1.01914e-06 9.7651e-07 1.01147e-06 0
1.04548e-06 1.082e-06 1.03742e-06 1.07342e-06 1.04548e-06 1.082e-06 1.03742e-06 1.07342e-06 0
1.10932e-06 1.14744e-06 1.10033e-06 1.13786e-06 1.10932e-06 1.14744e-06 1.10033e-06 1.13786e-06 0
1.17533e-06 1.21344e-06 1.16528e-06 1.20268e-06 1.17533e-06 1.21344e-06 1.16528e-06 1.20268e-06 0
1.24394e-06 1.28946e-06 1.23277e-06 1.27782e-06 1.24394e-06 1.28946e-06 1.23277e-06 1.27782e-06 0
6.6228e-07 6.9102e-07 6.59084e-07 6.87467e-07 6.6228e-07 6.9102e-07 6.59084e-07 6.87467e-07 0
7.1249e-07 7.42502e-07 7.08659e-07 7.38272e-07 7.1249e-07 7.42502e-07 7.08659e-07 7.38272e-07 0
7.64944e-07 7.96249e-07 7.60412e-07 7.91285e-07 7.64944e-07 7.96249e-07 7.60412e-07 7.91285e-07 0
8.1962e-07 8.5218e-07 8.14337e-07 8.46456e-07 8.1962e-07 8.5218e-07 8.14337e-07 8.46456e-07 0
8.76475e-07 9.10309e-07 8.70422e-07 9.03796e-07 8.76475e-07 9.10309e-07 8.70422e-07 9.03796e-07 0
9.3554e-07 9.70661e-07 9.28679e-07 9.6331e-07 9.3554e-07 9.70661e-07 9.28679e-07 9.6331e-07 0
9.96833e-07 1.03324e-06 9.89103e-07 1.02497e-06 9.96833e-07 1.03324e-06 9.89103e-07 1.02497e-06 0
1.06029e-06 1.0978e-06 1.0516e-06 1.08853e-06 1.06029e-06 1.0978e-06 1.0516e-06 1.08853e-06 0
1.12579e-06 1.16483e-06 1.11612e-06 1.15466e-06 1.12579e-06 1.16483e-06 1.11612e-06 1.15466e-06 0
1.19352e-06 1.23285e-06 1.18289e-06 1.22152e-06 1.19352e-06 1.23285e-06 1.18289e-06 1.22152e-06 0
1.26414e-06 1.31062e-06 1.25235e-06 1.29824e-06 1.26414e-06 1.31062e-06 1.25235e-06 1.29824e-06 0
0 0 0 0 0 0 0 0 0
0 0 0 0 0 0 0 0 0
0 0 0 0 0 0 0 0 0
0 0 0 0 0 0 0 0 0
0 0 0 0 0 0 0 0 0
0 0 0 0 0 0 0 0 0
0 0 0 0 0 0 0 0 0
0 0 0 0 0 0 0 0 0
0 0 0 0 0 0 0 0 0
0 0 0 0 0 0 0 0 0
0 0 0 0 0 0 0 0 0
0 0 0 0 0 0 0 0 0
0 0 0 0 0 0 0 0 0
0 0 0 0 0 0 0 0 0
0 0 0 0 0 0 0 0 0
0 0 0 0 0 0 0 0 0
0 0 0 0 0 0 0 0 0
0 0 0 0 0 0 0 0 0
0 0 0 0 0 0 0 0 0
0 0 0 0 0 0 0 0 0
0 0 0 0 0 0 0 0 0
0 0 0 0 0 0 0 0 0
0 0 0 0 0 0 0 0 0
0 0 0 0 0 0 0 0 0
0 0 0 0 0 0 0 0 0
0 0 0 0 0 0 0 0 0
0 0 0 0 0 0 0 0 0
0 0 0 0 0 0 0 0 0
0 0 0 0 0 0 0 0 0
0 0 0 0 0 0 0 0 0
0 0 0 0 0 0 0 0 0
0 0 0 0 0 0 0 0 0
0 0 0 0 0 0 0 0 0
0 0 0 0 0 0 0 0 0
0 0 0 0 0 0 0 0 0
0 0 0 0 0 0 0 0 0
0 0 0 0 0 0 0 0 0
0 0 0 0 0 0 0 0 0
0 0 0 0 0 0 0 0 0
0 0 0 0 0 0 0 0 0
0 0 0 0 0 0 0 0 0
0 0 0 0 0 0 0 0 0
0 0 0 0 0 0 0 0 0
0 0 0 0 0 0 0 0 0
0 0 0 0 0 0 0 0 0
0 0 0 0 0 0 0 0 0
0 0 0 0 0 0 0 0 0
0 0 0 0 0 0 0 0 0
0 0 0 0 0 0 0 0 0
0 0 0 0 0 0 0 0 0
0 0 0 0 0 0 0 0 0
0 0 0 0 0 0 0 0 0
0 0 0 0 0 0 0 0 0
0 0 0 0 0 0 0 0 0
0 0 0 0 0 0 0 0 0
0 0 0 0 0 0 0 0 0
0 0 0 0 0 0 0 0 0
0 0 0 0 0 0 0 0 0
0 0 0 0 0 0 0 0 0
0 0 0 0 0 0 0 0 0
0 0 0 0 0 0 0 0 0
0 0 0 0 0 0 0 0 0
0 0 0 0 0 0 0 0 0
0 0 0 0 0 0 0 0 0
0 0 0 0 0 0 0 0 0
0 0 0 0 0 0 0 0 0
0 0 0 0 0 0 0 0 0
0 0 0 0 0 0 0 0 0
0 0 0 0 0 0 0 0 0
0 0 0 0 0 0 0 0 0
0 0 0 0 0 0 0 0 0
0 0 0 0 0 0 0 0 0
0 0 0 0 0 0 0 0 0
0 0 0 0 0 0 0 0 0
0 0 0 0 0 0 0 0 0
0 0 0 0 0 0 0 0 0
0 0 0 0 0 0 0 0 0
0 0 0 0 0 0 0 0 0
0 0 0 0 0 0 0 0 0
0 0 0 0 0 0 0 0 0
0 0 0 0 0 0 0 0 0
5.33759e-07 5.5164e-07 5.31204e-07 5.48569e-07 5.33759e-07 5.5164e-07 5.31204e-07 5.48569e-07 0
5.64779e-07 5.82785e-07 5.61323e-07 5.78798e-07 5.64779e-07 5.82785e-07 5.61323e-07 5.78798e-07 0
5.96004e-07 6.1411e-07 5.9163e-07 6.09212e-07 5.96004e-07 6.1411e-07 5.9163e-07 6.09212e-07 0
6.27368e-07 6.45483e-07 6.22086e-07 6.39688e-07 6.27368e-07 6.45483e-07 6.22086e-07 6.39688e-07 0
6.58747e-07 6.76801e-07 6.52568e-07 6.70092e-07 6.58747e-07 6.76801e-07 6.52568e-07 6.70092e-07 0
6.89917e-07 7.07746e-07 6.8281e-07 7.00043e-07 6.89917e-07 7.07746e-07 6.8281e-07 7.00043e-07 0
5.38785e-07 5.57435e-07 5.35815e-07 5.54013e-07 5.38785e-07 5.57435e-07 5.35815e-07 5.54013e-07 0
5.71203e-07 5.90096e-07 5.67424e-07 5.8581e-07 5.71203e-07 5.90096e-07 5.67424e-07 5.8581e-07 0
6.03981e-07 6.23021e-07 5.99311e-07 6.17808e-07 6.03981e-07 6.23021e-07 5.99311e-07 6.17808e-07 0
6.36977e-07 6.56075e-07 6.31357e-07 6.49874e-07 6.36977e-07 6.56075e-07 6.31357e-07 6.49874e-07 0
6.70026e-07 6.89039e-07 6.63423e-07 6.81873e-07 6.70026e-07 6.89039e-07 6.63423e-07 6.81873e-07 0
7.02886e-07 7.21694e-07 6.95307e-07 7.13546e-07 7.02886e-07 7.21694e-07 6.95307e-07 7.13546e-07 0
5.44408e-07 5.63895e-07 5.41084e-07 5.6008e-07 5.44408e-07 5.63895e-07 5.41084e-07 5.6008e-07 0
5.78297e-07 5.98085e-07 5.74113e-07 5.93382e-07 5.78297e-07 5.98085e-07 5.74113e-07 5.93382e-07 0
6.12644e-07 6.32647e-07 6.07551e-07 6.26991e-07 6.12644e-07 6.32647e-07 6.07551e-07 6.26991e-07 0
6.47318e-07 6.67391e-07 6.4125e-07 6.60767e-07 6.47318e-07 6.67391e-07 6.4125e-07 6.60767e-07 0
6.82051e-07 7.02044e-07 6.75016e-07 6.94442e-07 6.82051e-07 7.02044e-07 6.75016e-07 6.94442e-07 0
7.16594e-07 7.36337e-07 7.08588e-07 7.27798e-07 7.16594e-07 7.36337e-07 7.08588e-07 7.27798e-07 0
7.50601e-07 7.69826e-07 7.4166e-07 7.60321e-07 7.50601e-07 7.69826e-07 7.4166e-07 7.60321e-07 0
7.83617e-07 8.02105e-07 7.73701e-07 7.91594e-07 7.83617e-07 8.02105e-07 7.73701e-07 7.91594e-07 0
8.15402e-07 8.33211e-07 8.04445e-07 8.2168e-07 8.15402e-07 8.33211e-07 8.04445e-07 8.2168e-07 0
5.50678e-07 5.71063e-07 5.46976e-07 5.66835e-07 5.50678e-07 5.71063e-07 5.46976e-07 5.66835e-07 0
5.8611e-07 6.06802e-07 5.81509e-07 6.01678e-07 5.8611e-07 6.06802e-07 5.81509e-07 6.01678e-07 0
6.22057e-07 6.43015e-07 6.16534e-07 6.36941e-07 6.22057e-07 6.43015e-07 6.16534e-07 6.36941e-07 0
6.58394e-07 6.7945e-07 6.51909e-07 6.72395e-07 6.58394e-07 6.7945e-07 6.51909e-07 6.72395e-07 0
6.94842e-07 7.15837e-07 6.87362e-07 7.07775e-07 6.94842e-07 7.15837e-07 6.87362e-07 7.07775e-07 0
7.31122e-07 7.51868e-07 7.2263e-07 7.42785e-07 7.31122e-07 7.51868e-07 7.2263e-07 7.42785e-07 0
7.6688e-07 7.87146e-07 7.57357e-07 7.77013e-07 7.6688e-07 7.87146e-07 7.57357e-07 7.77013e-07 0
8.01714e-07 8.21251e-07 7.9113e-07 8.10077e-07 8.01714e-07 8.21251e-07 7.9113e-07 8.10077e-07 0
8.3527e-07 8.54067e-07 8.23674e-07 8.4188e-07 8.3527e-07 8.54067e-07 8.23674e-07 8.4188e-07 0
5.57658e-07 5.78948e-07 5.53533e-07 5.74306e-07 5.57658e-07 5.78948e-07 5.53533e-07 5.74306e-07 0
5.94648e-07 6.16253e-07 5.89628e-07 6.10704e-07 5.94648e-07 6.16253e-07 5.89628e-07 6.10704e-07 0
6.3219e-07 6.54115e-07 6.26249e-07 6.47614e-07 6.3219e-07 6.54115e-07 6.26249e-07 6.47614e-07 0
6.70216e-07 6.92281e-07 6.63296e-07 6.84777e-07 6.70216e-07 6.92281e-07 6.63296e-07 6.84777e-07 0
7.08424e-07 7.30463e-07 7.00483e-07 7.21916e-07 7.08424e-07 7.30463e-07 7.00483e-07 7.21916e-07 0
7.46511e-07 7.68319e-07 7.37516e-07 7.58707e-07 7.46511e-07 7.68319e-07 7.37516e-07 7.58707e-07 0
7.84119e-07 8.0548e-07 7.74049e-07 7.94772e-07 7.84119e-07 8.0548e-07 7.74049e-07 7.94772e-07 0
8.20844e-07 8.4146e-07 8.09672e-07 8.29653e-07 8.20844e-07 8.4146e-07 8.09672e-07 8.29653e-07 0
8.56271e-07 8.76126e-07 8.44e-07 8.63254e-07 8.56271e-07 8.76126e-07 8.44e-07 8.63254e-07 0
5.65404e-07 5.87568e-07 5.60839e-07 5.82499e-07 5.65404e-07 5.87568e-07 5.60839e-07 5.82499e-07 0
6.03926e-07 6.26451e-07 5.98476e-07 6.20469e-07 6.03926e-07 6.26451e-07 5.98476e-07 6.20469e-07 0
6.43074e-07 6.6598e-07 6.36695e-07 6.59033e-07 6.43074e-07 6.6598e-07 6.36695e-07 6.59033e-07 0
6.82816e-07 7.05911e-07 6.75444e-07 6.97941e-07 6.82816e-07 7.05911e-07 6.75444e-07 6.97941e-07 0
7.22823e-07 7.45935e-07 7.14407e-07 7.36896e-07 7.22823e-07 7.45935e-07 7.14407e-07 7.36896e-07 0
7.62782e-07 7.85699e-07 7.5328e-07 7.75551e-07 7.62782e-07 7.85699e-07 7.5328e-07 7.75551e-07 0
8.02316e-07 8.24807e-07 7.91693e-07 8.13526e-07 8.02316e-07 8.24807e-07 7.91693e-07 8.13526e-07 0
8.41006e-07 8.62765e-07 8.29239e-07 8.50333e-07 8.41006e-07 8.62765e-07 8.29239e-07 8.50333e-07 0
8.78401e-07 8.99367e-07 8.65487e-07 8.85802e-07 8.78401e-07 8.99367e-07 8.65487e-07 8.85802e-07 0
5.73925e-07 5.9696e-07 5.68907e-07 5.9144e-07 5.73925e-07 5.9696e-07 5.68907e-07 5.9144e-07 0
6.1397e-07 6.37411e-07 6.08074e-07 6.30987e-07 6.1397e-07 6.37411e-07 6.08074e-07 6.30987e-07 0
6.54747e-07 6.78645e-07 6.47907e-07 6.71231e-07 6.54747e-07 6.78645e-07 6.47907e-07 6.71231e-07 0
6.96228e-07 7.2037e-07 6.88383e-07 7.11918e-07 6.96228e-07 7.2037e-07 6.88383e-07 7.11918e-07 0
7.38069e-07 7.62281e-07 7.2916e-07 7.52734e-07 7.38069e-07 7.62281e-07 7.2916e-07 7.52734e-07 0
7.79951e-07 8.04015e-07 7.69926e-07 7.93323e-07 7.79951e-07 8.04015e-07 7.69926e-07 7.93323e-07 0
8.21485e-07 8.4515e-07 8.10297e-07 8.33276e-07 8.21485e-07 8.4515e-07 8.10297e-07 8.33276e-07 0
8.6221e-07 8.85164e-07 8.49839e-07 8.72096e-07 8.6221e-07 8.85164e-07 8.49839e-07 8.72096e-07 0
9.01647e-07 9.23729e-07 8.88088e-07 9.09528e-07 9.01647e-07 9.23729e-07 8.88088e-07 9.09528e-07 0
9.39219e-07 9.59453e-07 9.24522e-07 9.44044e-07 9.39219e-07 9.59453e-07 9.24522e-07 9.44044e-07 0
5.4278e-07 5.66111e-07 5.38066e-07 5.60887e-07 5.4278e-07 5.66111e-07 5.38066e-07 5.60887e-07 0
5.83372e-07 6.07202e-07 5.77798e-07 6.0118e-07 5.83372e-07 6.07202e-07 5.77798e-07 6.0118e-07 0
6.24831e-07 6.49185e-07 6.18457e-07 6.42279e-07 6.24831e-07 6.49185e-07 6.18457e-07 6.42279e-07 0
6.67247e-07 6.92146e-07 6.59925e-07 6.84246e-07 6.67247e-07 6.92146e-07 6.59925e-07 6.84246e-07 0
7.10485e-07 7.35691e-07 7.02147e-07 7.26737e-07 7.10485e-07 7.35691e-07 7.02147e-07 7.26737e-07 0
7.5419e-07 7.79527e-07 7.44773e-07 7.69457e-07 7.5419e-07 7.79527e-07 7.44773e-07 7.69457e-07 0
7.98043e-07 8.23296e-07 7.87482e-07 8.12044e-07 7.98043e-07 8.23296e-07 7.87482e-07 8.12044e-07 0
8.41653e-07 8.66554e-07 8.29884e-07 8.54065e-07 8.41653e-07 8.66554e-07 8.29884e-07 8.54065e-07 0
8.84521e-07 9.08707e-07 8.71499e-07 8.9497e-07 8.84521e-07 9.08707e-07 8.71499e-07 8.9497e-07 0
9.26097e-07 9.49417e-07 9.1183e-07 9.34416e-07 9.26097e-07 9.49417e-07 9.1183e-07 9.34416e-07 0
9.65826e-07 9.87335e-07 9.50285e-07 9.71051e-07 9.65826e-07 9.87335e-07 9.50285e-07 9.71051e-07 0
1.00356e-06 1.02652e-06 9.86819e-07 1.00925e-06 1.00356e-06 1.02652e-06 9.86819e-07 1.00925e-06 0
5.93625e-07 6.18295e-07 5.87608e-07 6.11783e-07 5.93625e-07 6.18295e-07 5.87608e-07 6.11783e-07 0
6.3656e-07 6.61839e-07 6.29676e-07 6.54425e-07 6.3656e-07 6.61839e-07 6.29676e-07 6.54425e-07 0
6.80615e-07 7.06534e-07 6.72788e-07 6.98115e-07 6.80615e-07 7.06534e-07 6.72788e-07 6.98115e-07 0
7.25641e-07 7.51926e-07 7.16777e-07 7.42437e-07 7.25641e-07 7.51926e-07 7.16777e-07 7.42437e-07 0
7.71238e-07 7.97717e-07 7.61279e-07 7.87096e-07 7.71238e-07 7.97717e-07 7.61279e-07 7.87096e-07 0
8.17099e-07 8.43574e-07 8.05976e-07 8.31742e-07 8.17099e-07 8.43574e-07 8.05976e-07 8.31742e-07 0
8.62847e-07 8.89029e-07 8.50483e-07 8.7592e-07 8.62847e-07 8.89029e-07 8.50483e-07 8.7592e-07 0
9.07952e-07 9.33473e-07 8.94286e-07 9.19026e-07 9.07952e-07 9.33473e-07 8.94286e-07 9.19026e-07 0
9.51818e-07 9.76424e-07 9.36801e-07 9.60649e-07 9.51818e-07 9.76424e-07 9.36801e-07 9.60649e-07 0
9.93764e-07 1.01653e-06 9.77453e-07 9.99506e-07 9.93764e-07 1.01653e-06 9.77453e-07 9.99506e-07 0
1.03361e-06 1.05762e-06 1.01609e-06 1.03946e-06 1.03361e-06 1.05762e-06 1.01609e-06 1.03946e-06 0
0 0 0 0 0 0 0 0 0
0 0 0 0 0 0 0 0 0
0 0 0 0 0 0 0 0 0
0 0 0 0 0 0 0 0 0
0 0 0 0 0 0 0 0 0
0 0 0 0 0 0 0 0 0
0 0 0 0 0 0 0 0 0
0 0 0 0 0 0 0 0 0
0 0 0 0 0 0 0 0 0
0 0 0 0 0 0 0 0 0
0 0 0 0 0 0 0 0 0
0 0 0 0 0 0 0 0 0
0 0 0 0 0 0 0 0 0
0 0 0 0 0 0 0 0 0
0 0 0 0 0 0 0 0 0
0 0 0 0 0 0 0 0 0
0 0 0 0 0 0 0 0 0
0 0 0 0 0 0 0 0 0
0 0 0 0 0 0 0 0 0
0 0 0 0 0 0 0 0 0
0 0 0 0 0 0 0 0 0
0 0 0 0 0 0 0 0 0
0 0 0 0 0 0 0 0 0
0 0 0 0 0 0 0 0 0
0 0 0 0 0 0 0 0 0
0 0 0 0 0 0 0 0 0
0 0 0 0 0 0 0 0 0
0 0 0 0 0 0 0 0 0
0 0 0 0 0 0 0 0 0
0 0 0 0 0 0 0 0 0
0 0 0 0 0 0 0 0 0
0 0 0 0 0 0 0 0 0
0 0 0 0 0 0 0 0 0
0 0 0 0 0 0 0 0 0
0 0 0 0 0 0 0 0 0
0 0 0 0 0 0 0 0 0
0 0 0 0 0 0 0 0 0
0 0 0 0 0 0 0 0 0
0 0 0 0 0 0 0 0 0
0 0 0 0 0 0 0 0 0
0 0 0 0 0 0 0 0 0
0 0 0 0 0 0 0 0 0
0 0 0 0 0 0 0 0 0
0 0 0 0 0 0 0 0 0
0 0 0 0 0 0 0 0 0
0 0 0 0 0 0 0 0 0
0 0 0 0 0 0 0 0 0
0 0 0 0 0 0 0 0 0
0 0 0 0 0 0 0 0 0
0 0 0 0 0 0 0 0 0
0 0 0 0 0 0 0 0 0
0 0 0 0 0 0 0 0 0
0 0 0 0 0 0 0 0 0
0 0 0 0 0 0 0 0 0
0 0 0 0 0 0 0 0 0
0 0 0 0 0 0 0 0 0
0 0 0 0 0 0 0 0 0
0 0 0 0 0 0 0 0 0
0 0 0 0 0 0 0 0 0
0 0 0 0 0 0 0 0 0
0 0 0 0 0 0 0 0 0
0 0 0 0 0 0 0 0 0
0 0 0 0 0 0 0 0 0
0 0 0 0 0 0 0 0 0
0 0 0 0 0 0 0 0 0
0 0 0 0 0 0 0 0 0
0 0 0 0 0 0 0 0 0
0 0 0 0 0 0 0 0 0
0 0 0 0 0 0 0 0 0
0 0 0 0 0 0 0 0 0
0 0 0 0 0 0 0 0 0
0 0 0 0 0 0 0 0 0
0 0 0 0 0 0 0 0 0
0 0 0 0 0 0 0 0 0
0 0 0 0 0 0 0 0 0
0 0 0 0 0 0 0 0 0
0 0 0 0 0 0 0 0 0
0 0 0 0 0 0 0 0 0
0 0 0 0 0 0 0 0 0
0 0 0 0 0 0 0 0 0
0 0 0 0 0 0 0 0 0
0 0 0 0 0 0 0 0 0
0 0 0 0 0 0 0 0 0
0 0 0 0 0 0 0 0 0
0 0 0 0 0 0 0 0 0
0 0 0 0 0 0 0 0 0
0 0 0 0 0 0 0 0 0
0 0 0 0 0 0 0 0 0
0 0 0 0 0 0 0 0 0
0 0 0 0 0 0 0 0 0
0 0 0 0 0 0 0 0 0
0 0 0 0 0 0 0 0 0
0 0 0 0 0 0 0 0 0
0 0 0 0 0 0 0 0 0
0 0 0 0 0 0 0 0 0
0 0 0 0 0 0 0 0 0
0 0 0 0 0 0 0 0 0
0 0 0 0 0 0 0 0 0
0 0 0 0 0 0 0 0 0
0 0 0 0 0 0 0 0 0
0 0 0 0 0 0 0 0 0
0 0 0 0 0 0 0 0 0
0 0 0 0 0 0 0 0 0
0 0 0 0 0 0 0 0 0
0 0 0 0 0 0 0 0 0
0 0 0 0 0 0 0 0 0
0 0 0 0 0 0 0 0 0
0 0 0 0 0 0 0 0 0
0 0 0 0 0 0 0 0 0
0 0 0 0 0 0 0 0 0
0 0 0 0 0 0 0 0 0
0 0 0 0 0 0 0 0 0
0 0 0 0 0 0 0 0 0
0 0 0 0 0 0 0 0 0
0 0 0 0 0 0 0 0 0
0 0 0 0 0 0 0 0 0
0 0 0 0 0 0 0 0 0
0 0 0 0 0 0 0 0 0
0 0 0 0 0 0 0 0 0
0 0 0 0 0 0 0 0 0
0 0 0 0 0 0 0 0 0
0 0 0 0 0 0 0 0 0
0 0 0 0 0 0 0 0 0
0 0 0 0 0 0 0 0 0
0 0 0 0 0 0 0 0 0
0 0 0 0 0 0 0 0 0
0 0 0 0 0 0 0 0 0
0 0 0 0 0 0 0 0 0
0 0 0 0 0 0 0 0 0
0 0 0 0 0 0 0 0 0
0 0 0 0 0 0 0 0 0
0 0 0 0 0 0 0 0 0
0 0 0 0 0 0 0 0 0
0 0 0 0 0 0 0 0 0
0 0 0 0 0 0 0 0 0
0 0 0 0 0 0 0 0 0
0 0 0 0 0 0 0 0 0
0 0 0 0 0 0 0 0 0
0 0 0 0 0 0 0 0 0
0 0 0 0 0 0 0 0 0
0 0 0 0 0 0 0 0 0
0 0 0 0 0 0 0 0 0
0 0 0 0 0 0 0 0 0
0 0 0 0 0 0 0 0 0
0 0 0 0 0 0 0 0 0
0 0 0 0 0 0 0 0 0
0 0 0 0 0 0 0 0 0
0 0 0 0 0 0 0 0 0
0 0 0 0 0 0 0 0 0
0 0 0 0 0 0 0 0 0
0 0 0 0 0 0 0 0 0
0 0 0 0 0 0 0 0 0
0 0 0 0 0 0 0 0 0
0 0 0 0 0 0 0 0 0
0 0 0 0 0 0 0 0 0
0 0 0 0 0 0 0 0 0
0 0 0 0 0 0 0 0 0
0 0 0 0 0 0 0 0 0
0 0 0 0 0 0 0 0 0
0 0 0 0 0 0 0 0 0
0 0 0 0 0 0 0 0 0
0 0 0 0 0 0 0 0 0
0 0 0 0 0 0 0 0 0
0 0 0 0 0 0 0 0 0
0 0 0 0 0 0 0 0 0
0 0 0 0 0 0 0 0 0
0 0 0 0 0 0 0 0 0
0 0 0 0 0 0 0 0 0
0 0 0 0 0 0 0 0 0
0 0 0 0 0 0 0 0 0
0 0 0 0 0 0 0 0 0
0 0 0 0 0 0 0 0 0
0 0 0 0 0 0 0 0 0
0 0 0 0 0 0 0 0 0
0 0 0 0 0 0 0 0 0
0 0 0 0 0 0 0 0 0
0 0 0 0 0 0 0 0 0
0 0 0 0 0 0 0 0 0
0 0 0 0 0 0 0 0 0
0 0 0 0 0 0 0 0 0
0 0 0 0 0 0 0 0 0
0 0 0 0 0 0 0 0 0
0 0 0 0 0 0 0 0 0
0 0 0 0 0 0 0 0 0
0 0 0 0 0 0 0 0 0
0 0 0 0 0 0 0 0 0
0 0 0 0 0 0 0 0 0
0 0 0 0 0 0 0 0 0
0 0 0 0 0 0 0 0 0
0 0 0 0 0 0 0 0 0
0 0 0 0 0 0 0 0 0
0 0 0 0 0 0 0 0 0
0 0 0 0 0 0 0 0 0
0 0 0 0 0 0 0 0 0
0 0 0 0 0 0 0 0 0
0 0 0 0 0 0 0 0 0
0 0 0 0 0 0 0 0 0
0 0 0 0 0 0 0 0 0
0 0 0 0 0 0 0 0 0
0 0 0 0 0 0 0 0 0
0 0 0 0 0 0 0 0 0
0 0 0 0 0 0 0 0 0
0 0 0 0 0 0 0 0 0
0 0 0 0 0 0 0 0 0
0 0 0 0 0 0 0 0 0
0 0 0 0 0 0 0 0 0
0 0 0 0 0 0 0 0 0
0 0 0 0 0 0 0 0 0
0 0 0 0 0 0 0 0 0
0 0 0 0 0 0 0 0 0
0 0 0 0 0 0 0 0 0
0 0 0 0 0 0 0 0 0
0 0 0 0 0 0 0 0 0
0 0 0 0 0 0 0 0 0
0 0 0 0 0 0 0 0 0
0 0 0 0 0 0 0 0 0
0 0 0 0 0 0 0 0 0
0 0 0 0 0 0 0 0 0
0 0 0 0 0 0 0 0 0
0 0 0 0 0 0 0 0 0
0 0 0 0 0 0 0 0 0
0 0 0 0 0 0 0 0 0
0 0 0 0 0 0 0 0 0
0 0 0 0 0 0 0 0 0
0 0 0 0 0 0 0 0 0
0 0 0 0 0 0 0 0 0
0 0 0 0 0 0 0 0 0
0 0 0 0 0 0 0 0 0
0 0 0 0 0 0 0 0 0
0 0 0 0 0 0 0 0 0
0 0 0 0 0 0 0 0 0
0 0 0 0 0 0 0 0 0
0 0 0 0 0 0 0 0 0
0 0 0 0 0 0 0 0 0
0 0 0 0 0 0 0 0 0
0 0 0 0 0 0 0 0 0
0 0 0 0 0 0 0 0 0
0 0 0 0 0 0 0 0 0
0 0 0 0 0 0 0 0 0
0 0 0 0 0 0 0 0 0
0 0 0 0 0 0 0 0 0
0 0 0 0 0 0 0 0 0
0 0 0 0 0 0 0 0 0
0 0 0 0 0 0 0 0 0
0 0 0 0 0 0 0 0 0
0 0 0 0 0 0 0 0 0
0 0 0 0 0 0 0 0 0
0 0 0 0 0 0 0 0 0
0 0 0 0 0 0 0 0 0
0 0 0 0 0 0 0 0 0
0 0 0 0 0 0 0 0 0
0 0 0 0 0 0 0 0 0
0 0 0 0 0 0 0 0 0
0 0 0 0 0 0 0 0 0
0 0 0 0 0 0 0 0 0
0 0 0 0 0 0 0 0 0
0 0 0 0 0 0 0 0 0
0 0 0 0 0 0 0 0 0
0 0 0 0 0 0 0 0 0
0 0 0 0 0 0 0 0 0
0 0 0 0 0 0 0 0 0
0 0 0 0 0 0 0 0 0
0 0 0 0 0 0 0 0 0
0 0 0 0 0 0 0 0 0
0 0 0 0 0 0 0 0 0
0 0 0 0 0 0 0 0 0
0 0 0 0 0 0 0 0 0
0 0 0 0 0 0 0 0 0
0 0 0 0 0 0 0 0 0
0 0 0 0 0 0 0 0 0
0 0 0 0 0 0 0 0 0
0 0 0 0 0 0 0 0 0
0 0 0 0 0 0 0 0 0
0 0 0 0 0 0 0 0 0
0 0 0 0 0 0 0 0 0
0 0 0 0 0 0 0 0 0
0 0 0 0 0 0 0 0 0
0 0 0 0 0 0 0 0 0
0 0 0 0 0 0 0 0 0
0 0 0 0 0 0 0 0 0
0 0 0 0 0 0 0 0 0
0 0 0 0 0 0 0 0 0
0 0 0 0 0 0 0 0 0
0 0 0 0 0 0 0 0 0
0 0 0 0 0 0 0 0 0
0 0 0 0 0 0 0 0 0
0 0 0 0 0 0 0 0 0
0 0 0 0 0 0 0 0 0
0 0 0 0 0 0 0 0 0
0 0 0 0 0 0 0 0 0
0 0 0 0 0 0 0 0 0
0 0 0 0 0 0 0 0 0
0 0 0 0 0 0 0 0 0
0 0 0 0 0 0 0 0 0
0 0 0 0 0 0 0 0 0
0 0 0 0 0 0 0 0 0
0 0 0 0 0 0 0 0 0
0 0 0 0 0 0 0 0 0
0 0 0 0 0 0 0 0 0
0 0 0 0 0 0 0 0 0
0 0 0 0 0 0 0 0 0
0 0 0 0 0 0 0 0 0
0 0 0 0 0 0 0 0 0
0 0 0 0 0 0 0 0 0
0 0 0 0 0 0 0 0 0
0 0 0 0 0 0 0 0 0
0 0 0 0 0 0 0 0 0
0 0 0 0 0 0 0 0 0
0 0 0 0 0 0 0 0 0
0 0 0 0 0 0 0 0 0
0 0 0 0 0 0 0 0 0
0 0 0 0 0 0 0 0 0
0 0 0 0 0 0 0 0 0
0 0 0 0 0 0 0 0 0
0 0 0 0 0 0 0 0 0
0 0 0 0 0 0 0 0 0
0 0 0 0 0 0 0 0 0
0 0 0 0 0 0 0 0 0
0 0 0 0 0 0 0 0 0
0 0 0 0 0 0 0 0 0
0 0 0 0 0 0 0 0 0
0 0 0 0 0 0 0 0 0
0 0 0 0 0 0 0 0 0
0 0 0 0 0 0 0 0 0
0 0 0 0 0 0 0 0 0
0 0 0 0 0 0 0 0 0
0 0 0 0 0 0 0 0 0
0 0 0 0 0 0 0 0 0
0 0 0 0 0 0 0 0 0
0 0 0 0 0 0 0 0 0
0 0 0 0 0 0 0 0 0
0 0 0 0 0 0 0 0 0
0 0 0 0 0 0 0 0 0
0 0 0 0 0 0 0 0 0
0 0 0 0 0 0 0 0 0
0 0 0 0 0 0 0 0 0
0 0 0 0 0 0 0 0 0
0 0 0 0 0 0 0 0 0
0 0 0 0 0 0 0 0 0
0 0 0 0 0 0 0 0 0
0 0 0 0 0 0 0 0 0
0 0 0 0 0 0 0 0 0
0 0 0 0 0 0 0 0 0
0 0 0 0 0 0 0 0 0
0 0 0 0 0 0 0 0 0
0 0 0 0 0 0 0 0 0
0 0 0 0 0 0 0 0 0
0 0 0 0 0 0 0 0 0
0 0 0 0 0 0 0 0 0
0 0 0 0 0 0 0 0 0
0 0 0 0 0 0 0 0 0
0 0 0 0 0 0 0 0 0
0 0 0 0 0 0 0 0 0
0 0 0 0 0 0 0 0 0
0 0 0 0 0 0 0 0 0
0 0 0 0 0 0 0 0 0
0 0 0 0 0 0 0 0 0
0 0 0 0 0 0 0 0 0
0 0 0 0 0 0 0 0 0
0 0 0 0 0 0 0 0 0
0 0 0 0 0 0 0 0 0
0 0 0 0 0 0 0 0 0
0 0 0 0 0 0 0 0 0
0 0 0 0 0 0 0 0 0
0 0 0 0 0 0 0 0 0
0 0 0 0 0 0 0 0 0
0 0 0 0 0 0 0 0 0
0 0 0 0 0 0 0 0 0
0 0 0 0 0 0 0 0 0
0 0 0 0 0 0 0 0 0
0 0 0 0 0 0 0 0 0
0 0 0 0 0 0 0 0 0
0 0 0 0 0 0 0 0 0
0 0 0 0 0 0 0 0 0
0 0 0 0 0 0 0 0 0
0 0 0 0 0 0 0 0 0
0 0 0 0 0 0 0 0 0
0 0 0 0 0 0 0 0 0
0 0 0 0 0 0 0 0 0
0 0 0 0 0 0 0 0 0
0 0 0 0 0 0 0 0 0
0 0 0 0 0 0 0 0 0
0 0 0 0 0 0 0 0 0
0 0 0 0 0 0 0 0 0
0 0 0 0 0 0 0 0 0
0 0 0 0 0 0 0 0 0
0 0 0 0 0 0 0 0 0
0 0 0 0 0 0 0 0 0
0 0 0 0 0 0 0 0 0
0 0 0 0 0 0 0 0 0
0 0 0 0 0 0 0 0 0
0 0 0 0 0 0 0 0 0
0 0 0 0 0 0 0 0 0
0 0 0 0 0 0 0 0 0
0 0 0 0 0 0 0 0 0
0 0 0 0 0 0 0 0 0
0 0 0 0 0 0 0 0 0
0 0 0 0 0 0 0 0 0
0 0 0 0 0 0 0 0 0
0 0 0 0 0 0 0 0 0
0 0 0 0 0 0 0 0 0
0 0 0 0 0 0 0 0 0
0 0 0 0 0 0 0 0 0
0 0 0 0 0 0 0 0 0
0 0 0 0 0 0 0 0 0
SCALARS Dshear double 9
LOOKUP_TABLE default
0 0 0 0 0 0 0 0 0
0 0 0 0 0 0 0 0 0
0 0 0 0 0 0 0 0 0
0 0 0 0 0 0 0 0 0
0 0 0 0 0 0 0 0 0
0 0 0 0 0 0 0 0 0
0 0 0 0 0 0 0 0 0
0 0 0 0 0 0 0 0 0
0 0 0 0 0 0 0 0 0
0 0 0 0 0 0 0 0 0
0 0 0 0 0 0 0 0 0
0 0 0 0 0 0 0 0 0
0 0 0 0 0 0 0 0 0
0 0 0 0 0 0 0 0 0
0 0 0 0 0 0 0 0 0
0 0 0 0 0 0 0 0 0
0 0 0 0 0 0 0 0 0
0 0 0 0 0 0 0 0 0
0 0 0 0 0 0 0 0 0
0 0 0 0 0 0 0 0 0
0 0 0 0 0 0 0 0 0
0 0 0 0 0 0 0 0 0
0 0 0 0 0 0 0 0 0
0 0 0 0 0 0 0 0 0
0 0 0 0 0 0 0 0 0
0 0 0 0 0 0 0 0 0
0 0 0 0 0 0 0 0 0
0 0 0 0 0 0 0 0 0
0 0 0 0 0 0 0 0 0
0 0 0 0 0 0 0 0 0
0 0 0 0 0 0 0 0 0
0 0 0 0 0 0 0 0 0
0 0 0 0 0 0 0 0 0
0 0 0 0 0 0 0 0 0
0 0 0 0 0 0 0 0 0
0 0 0 0 0 0 0 0 0
0 0 0 0 0 0 0 0 0
0 0 0 0 0 0 0 0 0
0 0 0 0 0 0 0 0 0
0 0 0 0 0 0 0 0 0
0 0 0 0 0 0 0 0 0
0 0 0 0 0 0 0 0 0
0 0 0 0 0 0 0 0 0
0 0 0 0 0 0 0 0 0
0 0 0 0 0 0 0 0 0
0 0 0 0 0 0 0 0 0
0 0 0 0 0 0 0 0 0
0 0 0 0 0 0 0 0 0
0 0 0 0 0 0 0 0 0
0 0 0 0 0 0 0 0 0
0 0 0 0 0 0 0 0 0
0 0 0 0 0 0 0 0 0
0 0 0 0 0 0 0 0 0
0 0 0 0 0 0 0 0 0
0 0 0 0 0 0 0 0 0
0 0 0 0 0 0 0 0 0
0 0 0 0 0 0 0 0 0
0 0 0 0 0 0 0 0 0
0 0 0 0 0 0 0 0 0
0 0 0 0 0 0 0 0 0
0 0 0 0 0 0 0 0 0
0 0 0 0 0 0 0 0 0
0 0 0 0 0 0 0 0 0
0 0 0 0 0 0 0 0 0
0 0 0 0 0 0 0 0 0
0 0 0 0 0 0 0 0 0
0 0 0 0 0 0 0 0 0
0 0 0 0 0 0 0 0 0
0 0 0 0 0 0 0 0 0
0 0 0 0 0 0 0 0 0
0 0 0 0 0 0 0 0 0
0 0 0 0 0 0 0 0 0
0 0 0 0 0 0 0 0 0
0 0 0 0 0 0 0 0 0
0 0 0 0 0 0 0 0 0
0 0 0 0 0 0 0 0 0
0 0 0 0 0 0 0 0 0
0 0 0 0 0 0 0 0 0
0 0 0 0 0 0 0 0 0
0 0 0 0 0 0 0 0 0
0 0 0 0 0 0 0 0 0
0 0 0 0 0 0 0 0 0
0 0 0 0 0 0 0 0 0
0 0 0 0 0 0 0 0 0
0 0 0 0 0 0 0 0 0
0 0 0 0 0 0 0 0 0
0 0 0 0 0 0 0 0 0
0 0 0 0 0 0 0 0 0
0 0 0 0 0 0 0 0 0
0 0 0 0 0 0 0 0 0
0 0 0 0 0 0 0 0 0
0 0 0 0 0 0 0 0 0
0 0 0 0 0 0 0 0 0
0 0 0 0 0 0 0 0 0
0 0 0 0 0 0 0 0 0
0 0 0 0 0 0 0 0 0
0 0 0 0 0 0 0 0 0
0 0 0 0 0 0 0 0 0
0 0 0 0 0 0 0 0 0
0 0 0 0 0 0 0 0 0
0 0 0 0 0 0 0 0 0
0 0 0 0 0 0 0 0 0
0 0 0 0 0 0 0 0 0
0 0 0 0 0 0 0 0 0
0 0 0 0 0 0 0 0 0
0 0 0 0 0 0 0 0 0
0 0 0 0 0 0 0 0 0
0 0 0 0 0 0 0 0 0
0 0 0 0 0 0 0 0 0
0 0 0 0 0 0 0 0 0
0 0 0 0 0 0 0 0 0
0 0 0 0 0 0 0 0 0
0 0 0 0 0 0 0 0 0
0 0 0 0 0 0 0 0 0
0 0 0 0 0 0 0 0 0
0 0 0 0 0 0 0 0 0
0 0 0 0 0 0 0 0 0
0 0 0 0 0 0 0 0 0
0 0 0 0 0 0 0 0 0
0 0 0 0 0 0 0 0 0
0 0 0 0 0 0 0 0 0
0 0 0 0 0 0 0 0 0
0 0 0 0 0 0 0 0 0
0 0 0 0 0 0 0 0 0
0 0 0 0 0 0 0 0 0
0 0 0 0 0 0 0 0 0
0 0 0 0 0 0 0 0 0
0 0 0 0 0 0 0 0 0
0 0 0 0 0 0 0 0 0
0 0 0 0 0 0 0 0 0
0 0 0 0 0 0 0 0 0
0 0 0 0 0 0 0 0 0
0 0 0 0 0 0 0 0 0
0 0 0 0 0 0 0 0 0
0 0 0 0 0 0 0 0 0
0 0 0 0 0 0 0 0 0
0 0 0 0 0 0 0 0 0
0 0 0 0 0 0 0 0 0
0 0 0 0 0 0 0 0 0
0 0 0 0 0 0 0 0 0
0 0 0 0 0 0 0 0 0
0 0 0 0 0 0 0 0 0
0 0 0 0 0 0 0 0 0
0 0 0 0 0 0 0 0 0
0 0 0 0 0 0 0 0 0
0 0 0 0 0 0 0 0 0
0 0 0 0 0 0 0 0 0
0 0 0 0 0 0 0 0 0
0 0 0 0 0 0 0 0 0
0 0 0 0 0 0 0 0 0
0 0 0 0 0 0 0 0 0
0 0 0 0 0 0 0 0 0
0 0 0 0 0 0 0 0 0
0 0 0 0 0 0 0 0 0
0 0 0 0 0 0 0 0 0
0 0 0 0 0 0 0 0 0
0 0 0 0 0 0 0 0 0
0 0 0 0 0 0 0 0 0
0 0 0 0 0 0 0 0 0
0 0 0 0 0 0 0 0 0
0 0 0 0 0 0 0 0 0
0 0 0 0 0 0 0 0 0
6.4361e-07 6.67758e-07 6.43346e-07 6.6716e-07 6.4361e-07 6.67758e-07 6.43346e-07 6.6716e-07 0
6.85837e-07 7.11074e-07 6.84995e-07 7.09903e-07 6.85837e-07 7.11074e-07 6.84995e-07 7.09903e-07 0
7.29939e-07 7.5624e-07 7.28525e-07 7.54489e-07 7.29939e-07 7.5624e-07 7.28525e-07 7.54489e-07 0
7.75872e-07 8.03208e-07 7.7387e-07 8.00851e-07 7.75872e-07 8.03208e-07 7.7387e-07 8.00851e-07 0
8.23584e-07 8.51919e-07 8.20961e-07 8.48922e-07 8.23584e-07 8.51919e-07 8.20961e-07 8.48922e-07 0
8.73005e-07 9.02284e-07 8.69729e-07 8.98616e-07 8.73005e-07 9.02284e-07 8.69729e-07 8.98616e-07 0
6.44416e-07 6.69131e-07 6.43895e-07 6.68285e-07 6.44416e-07 6.69131e-07 6.43895e-07 6.68285e-07 0
6.8763e-07 7.13453e-07 6.86541e-07 7.12024e-07 6.8763e-07 7.13453e-07 6.86541e-07 7.12024e-07 0
7.32756e-07 7.59665e-07 7.31072e-07 7.57625e-07 7.32756e-07 7.59665e-07 7.31072e-07 7.57625e-07 0
7.79754e-07 8.07727e-07 7.77448e-07 8.05049e-07 7.79754e-07 8.07727e-07 7.77448e-07 8.05049e-07 0
8.28581e-07 8.57584e-07 8.25625e-07 8.54239e-07 8.28581e-07 8.57584e-07 8.25625e-07 8.54239e-07 0
8.79166e-07 9.09132e-07 8.75533e-07 9.051e-07 8.79166e-07 9.09132e-07 8.75533e-07 9.051e-07 0
6.45693e-07 6.70993e-07 6.44896e-07 6.69854e-07 6.45693e-07 6.70993e-07 6.44896e-07 6.69854e-07 0
6.89926e-07 7.16349e-07 6.88535e-07 7.14611e-07 6.89926e-07 7.16349e-07 6.88535e-07 7.14611e-07 0
7.36102e-07 7.63643e-07 7.34102e-07 7.61276e-07 7.36102e-07 7.63643e-07 7.34102e-07 7.61276e-07 0
7.84205e-07 8.1284e-07 7.81563e-07 8.09813e-07 7.84205e-07 8.1284e-07 7.81563e-07 8.09813e-07 0
8.34189e-07 8.63884e-07 8.30874e-07 8.60167e-07 8.34189e-07 8.63884e-07 8.30874e-07 8.60167e-07 0
8.85984e-07 9.16671e-07 8.81965e-07 9.12231e-07 8.85984e-07 9.16671e-07 8.81965e-07 9.12231e-07 0
9.39471e-07 9.71081e-07 9.34713e-07 9.65876e-07 9.39471e-07 9.71081e-07 9.34713e-07 9.65876e-07 0
9.94509e-07 1.02692e-06 9.88971e-07 1.02092e-06 9.94509e-07 1.02692e-06 9.88971e-07 1.02092e-06 0
1.05105e-06 1.08461e-06 1.04472e-06 1.07782e-06 1.05105e-06 1.08461e-06 1.04472e-06 1.07782e-06 0
6.47498e-07 6.73396e-07 6.46388e-07 6.7194e-07 6.47498e-07 6.73396e-07 6.46388e-07 6.7194e-07 0
6.92775e-07 7.19817e-07 6.9106e-07 7.17742e-07 6.92775e-07 7.19817e-07 6.9106e-07 7.17742e-07 0
7.40033e-07 7.68223e-07 7.3769e-07 7.65503e-07 7.40033e-07 7.68223e-07 7.3769e-07 7.65503e-07 0
7.89272e-07 8.18591e-07 7.86269e-07 8.1519e-07 7.89272e-07 8.18591e-07 7.86269e-07 8.1519e-07 0
8.40453e-07 8.70865e-07 8.36754e-07 8.66749e-07 8.40453e-07 8.70865e-07 8.36754e-07 8.66749e-07 0
8.93501e-07 9.24941e-07 8.89073e-07 9.20075e-07 8.93501e-07 9.24941e-07 8.89073e-07 9.20075e-07 0
9.48304e-07 9.80707e-07 9.43111e-07 9.75054e-07 9.48304e-07 9.80707e-07 9.43111e-07 9.75054e-07 0
1.00473e-06 1.03796e-06 9.98729e-07 1.03148e-06 1.00473e-06 1.03796e-06 9.98729e-07 1.03148e-06 0
1.06271e-06 1.09711e-06 1.05587e-06 1.08978e-06 1.06271e-06 1.09711e-06 1.05587e-06 1.08978e-06 0
6.49884e-07 6.76389e-07 6.48433e-07 6.74586e-07 6.49884e-07 6.76389e-07 6.48433e-07 6.74586e-07 0
6.96222e-07 7.239e-07 6.94155e-07 7.21464e-07 6.96222e-07 7.239e-07 6.94155e-07 7.21464e-07 0
7.44593e-07 7.73451e-07 7.41881e-07 7.70351e-07 7.44593e-07 7.73451e-07 7.41881e-07 7.70351e-07 0
7.95001e-07 8.25025e-07 7.9161e-07 8.21224e-07 7.95001e-07 8.25025e-07 7.9161e-07 8.21224e-07 0
8.47416e-07 8.78573e-07 8.43308e-07 8.74031e-07 8.47416e-07 8.78573e-07 8.43308e-07 8.74031e-07 0
9.01768e-07 9.33992e-07 8.96901e-07 9.28668e-07 9.01768e-07 9.33992e-07 8.96901e-07 9.28668e-07 0
9.57945e-07 9.91172e-07 9.52278e-07 9.85025e-07 9.57945e-07 9.91172e-07 9.52278e-07 9.85025e-07 0
1.01581e-06 1.04991e-06 1.0093e-06 1.04289e-06 1.01581e-06 1.04991e-06 1.0093e-06 1.04289e-06 0
1.07529e-06 1.11057e-06 1.06791e-06 1.10268e-06 1.07529e-06 1.11057e-06 1.06791e-06 1.10268e-06 0
6.52895e-07 6.80019e-07 6.51077e-07 6.77842e-07 6.52895e-07 6.80019e-07 6.51077e-07 6.77842e-07 0
7.00316e-07 7.28646e-07 6.9787e-07 7.25822e-07 7.00316e-07 7.28646e-07 6.9787e-07 7.25822e-07 0
7.49827e-07 7.7937e-07 7.4672e-07 7.75865e-07 7.49827e-07 7.7937e-07 7.4672e-07 7.75865e-07 0
8.01437e-07 8.32186e-07 7.97632e-07 8.2796e-07 8.01437e-07 8.32186e-07 7.97632e-07 8.2796e-07 0
8.55125e-07 8.87053e-07 8.5058e-07 8.8206e-07 8.55125e-07 8.87053e-07 8.5058e-07 8.8206e-07 0
9.10831e-07 9.43873e-07 9.05499e-07 9.38065e-07 9.10831e-07 9.43873e-07 9.05499e-07 9.38065e-07 0
9.6844e-07 1.00253e-06 9.62274e-07 9.95861e-07 9.6844e-07 1.00253e-06 9.62274e-07 9.95861e-07 0
1.02781e-06 1.06281e-06 1.02077e-06 1.05524e-06 1.02781e-06 1.06281e-06 1.02077e-06 1.05524e-06 0
1.08887e-06 1.12508e-06 1.08091e-06 1.11658e-06 1.08887e-06 1.12508e-06 1.08091e-06 1.11658e-06 0
6.56579e-07 6.84333e-07 6.54367e-07 6.81756e-07 6.56579e-07 6.84333e-07 6.54367e-07 6.81756e-07 0
7.05105e-07 7.341e-07 7.02252e-07 7.30861e-07 7.05105e-07 7.341e-07 7.02252e-07 7.30861e-07 0
7.55783e-07 7.86029e-07 7.52253e-07 7.82091e-07 7.55783e-07 7.86029e-07 7.52253e-07 7.82091e-07 0
8.08626e-07 8.40122e-07 8.0438e-07 8.35443e-07 8.08626e-07 8.40122e-07 8.0438e-07 8.35443e-07 0
8.63626e-07 8.96353e-07 8.58618e-07 8.90881e-07 8.63626e-07 8.96353e-07 8.58618e-07 8.90881e-07 0
9.20734e-07 9.5463e-07 9.14911e-07 9.4831e-07 9.20734e-07 9.5463e-07 9.14911e-07 9.4831e-07 0
9.7984e-07 1.01484e-06 9.73145e-07 1.00761e-06 9.7984e-07 1.01484e-06 9.73145e-07 1.00761e-06 0
1.0408e-06 1.07675e-06 1.03318e-06 1.06858e-06 1.0408e-06 1.07675e-06 1.03318e-06 1.06858e-06 0
1.10351e-06 1.1407e-06 1.09492e-06 1.13155e-06 1.10351e-06 1.1407e-06 1.09492e-06 1.13155e-06 0
1.1682e-06 1.20617e-06 1.15862e-06 1.196e-06 1.1682e-06 1.20617e-06 1.15862e-06 1.196e-06 0
6.13488e-07 6.40678e-07 6.11452e-07 6.38283e-07 6.13488e-07 6.40678e-07 6.11452e-07 6.38283e-07 0
6.61014e-07 6.89385e-07 6.58358e-07 6.86375e-07 6.61014e-07 6.89385e-07 6.58358e-07 6.86375e-07 0
7.10631e-07 7.40309e-07 7.07347e-07 7.36629e-07 7.10631e-07 7.40309e-07 7.07347e-07 7.36629e-07 0
7.62505e-07 7.93473e-07 7.58527e-07 7.89076e-07 7.62505e-07 7.93473e-07 7.58527e-07 7.89076e-07 0
8.16615e-07 8.48879e-07 8.11901e-07 8.4372e-07 8.16615e-07 8.48879e-07 8.11901e-07 8.4372e-07 0
8.72965e-07 9.06516e-07 8.67468e-07 9.0054e-07 8.72965e-07 9.06516e-07 8.67468e-07 9.0054e-07 0
9.31524e-07 9.66312e-07 9.25183e-07 9.59451e-07 9.31524e-07 9.66312e-07 9.25183e-07 9.59451e-07 0
9.92196e-07 1.02814e-06 9.84942e-07 1.02033e-06 9.92196e-07 1.02814e-06 9.84942e-07 1.02033e-06 0
1.05482e-06 1.09177e-06 1.04659e-06 1.08296e-06 1.05482e-06 1.09177e-06 1.04659e-06 1.08296e-06 0
1.11927e-06 1.1575e-06 1.11003e-06 1.14765e-06 1.11927e-06 1.1575e-06 1.11003e-06 1.14765e-06 0
1.18577e-06 1.22481e-06 1.17547e-06 1.21389e-06 1.18577e-06 1.22481e-06 1.17547e-06 1.21389e-06 0
1.25519e-06 1.29931e-06 1.24381e-06 1.28732e-06 1.25519e-06 1.29931e-06 1.24381e-06 1.28732e-06 0
6.66207e-07 6.95258e-07 6.63114e-07 6.91762e-07 6.66207e-07 6.95258e-07 6.63114e-07 6.91762e-07 0
7.17007e-07 7.47378e-07 7.13216e-07 7.43186e-07 7.17007e-07 7.47378e-07 7.13216e-07 7.43186e-07 0
7.70097e-07 8.01804e-07 7.65602e-07 7.96881e-07 7.70097e-07 8.01804e-07 7.65602e-07 7.96881e-07 0
8.25501e-07 8.58547e-07 8.20256e-07 8.52849e-07 8.25501e-07 8.58547e-07 8.20256e-07 8.52849e-07 0
8.83223e-07 9.17607e-07 8.77183e-07 9.11086e-07 8.83223e-07 9.17607e-07 8.77183e-07 9.11086e-07 0
9.43249e-07 9.7894e-07 9.36362e-07 9.71531e-07 9.43249e-07 9.7894e-07 9.36362e-07 9.71531e-07 0
1.00552e-06 1.04246e-06 9.97706e-07 1.03407e-06 1.00552e-06 1.04246e-06 9.97706e-07 1.03407e-06 0
1.06989e-06 1.10793e-06 1.06106e-06 1.09846e-06 1.06989e-06 1.10793e-06 1.06106e-06 1.09846e-06 0
1.13623e-06 1.17558e-06 1.12629e-06 1.16498e-06 1.13623e-06 1.17558e-06 1.12629e-06 1.16498e-06 0
1.20467e-06 1.24484e-06 1.19359e-06 1.2331e-06 1.20467e-06 1.24484e-06 1.19359e-06 1.2331e-06 0
1.27669e-06 1.3236e-06 1.26399e-06 1.30899e-06 1.27669e-06 1.3236e-06 1.26399e-06 1.30899e-06 0
0 0 0 0 0 0 0 0 0
0 0 0 0 0 0 0 0 0
0 0 0 0 0 0 0 0 0
0 0 0 0 0 0 0 0 0
0 0 0 0 0 0 0 0 0
0 0 0 0 0 0 0 0 0
0 0 0 0 0 0 0 0 0
0 0 0 0 0 0 0 0 0
0 0 0 0 0 0 0 0 0
0 0 0 0 0 0 0 0 0
0 0 0 0 0 0 0 0 0
0 0 0 0 0 0 0 0 0
0 0 0 0 0 0 0 0 0
0 0 0 0 0 0 0 0 0
0 0 0 0 0 0 0 0 0
0 0 0 0 0 0 0 0 0
0 0 0 0 0 0 0 0 0
0 0 0 0 0 0 0 0 0
0 0 0 0 0 0 0 0 0
0 0 0 0 0 0 0 0 0
0 0 0 0 0 0 0 0 0
0 0 0 0 0 0 0 0 0
0 0 0 0 0 0 0 0 0
0 0 0 0 0 0 0 0 0
0 0 0 0 0 0 0 0 0
0 0 0 0 0 0 0 0 0
0 0 0 0 0 0 0 0 0
0 0 0 0 0 0 0 0 0
0 0 0 0 0 0 0 0 0
0 0 0 0 0 0 0 0 0
0 0 0 0 0 0 0 0 0
0 0 0 0 0 0 0 0 0
0 0 0 0 0 0 0 0 0
0 0 0 0 0 0 0 0 0
0 0 0 0 0 0 0 0 0
0 0 0 0 0 0 0 0 0
0 0 0 0 0 0 0 0 0
0 0 0 0 0 0 0 0 0
0 0 0 0 0 0 0 0 0
0 0 0 0 0 0 0 0 0
0 0 0 0 0 0 0 0 0
0 0 0 0 0 0 0 0 0
0 0 0 0 0 0 0 0 0
0 0 0 0 0 0 0 0 0
0 0 0 0 0 0 0 0 0
0 0 0 0 0 0 0 0 0
0 0 0 0 0 0 0 0 0
0 0 0 0 0 0 0 0 0
0 0 0 0 0 0 0 0 0
0 0 0 0 0 0 0 0 0
0 0 0 0 0 0 0 0 0
0 0 0 0 0 0 0 0 0
0 0 0 0 0 0 0 0 0
0 0 0 0 0 0 0 0 0
0 0 0 0 0 0 0 0 0
0 0 0 0 0 0 0 0 0
0 0 0 0 0 0 0 0 0
0 0 0 0 0 0 0 0 0
0 0 0 0 0 0 0 0 0
0 0 0 0 0 0 0 0 0
0 0 0 0 0 0 0 0 0
0 0 0 0 0 0 0 0 0
0 0 0 0 0 0 0 0 0
0 0 0 0 0 0 0 0 0
0 0 0 0 0 0 0 0 0
0 0 0 0 0 0 0 0 0
0 0 0 0 0 0 0 0 0
0 0 0 0 0 0 0 0 0
0 0 0 0 0 0 0 0 0
0 0 0 0 0 0 0 0 0
0 0 0 0 0 0 0 0 0
0 0 0 0 0 0 0 0 0
0 0 0 0 0 0 0 0 0
0 0 0 0 0 0 0 0 0
0 0 0 0 0 0 0 0 0
0 0 0 0 0 0 0 0 0
0 0 0 0 0 0 0 0 0
0 0 0 0 0 0 0 0 0
0 0 0 0 0 0 0 0 0
0 0 0 0 0 0 0 0 0
0 0 0 0 0 0 0 0 0
0 0 0 0 0 0 0 0 0
0 0 0 0 0 0 0 0 0
0 0 0 0 0 0 0 0 0
0 0 0 0 0 0 0 0 0
0 0 0 0 0 0 0 0 0
0 0 0 0 0 0 0 0 0
0 0 0 0 0 0 0 0 0
0 0 0 0 0 0 0 0 0
0 0 0 0 0 0 0 0 0
0 0 0 0 0 0 0 0 0
0 0 0 0 0 0 0 0 0
0 0 0 0 0 0 0 0 0
0 0 0 0 0 0 0 0 0
0 0 0 0 0 0 0 0 0
0 0 0 0 0 0 0 0 0
0 0 0 0 0 0 0 0 0
0 0 0 0 0 0 0 0 0
0 0 0 0 0 0 0 0 0
0 0 0 0 0 0 0 0 0
0 0 0 0 0 0 0 0 0
0 0 0 0 0 0 0 0 0
0 0 0 0 0 0 0 0 0
0 0 0 0 0 0 0 0 0
0 0 0 0 0 0 0 0 0
0 0 0 0 0 0 0 0 0
0 0 0 0 0 0 0 0 0
0 0 0 0 0 0 0 0 0
0 0 0 0 0 0 0 0 0
0 0 0 0 0 0 0 0 0
0 0 0 0 0 0 0 0 0
0 0 0 0 0 0 0 0 0
0 0 0 0 0 0 0 0 0
0 0 0 0 0 0 0 0 0
0 0 0 0 0 0 0 0 0
0 0 0 0 0 0 0 0 0
0 0 0 0 0 0 0 0 0
0 0 0 0 0 0 0 0 0
0 0 0 0 0 0 0 0 0
0 0 0 0 0 0 0 0 0
0 0 0 0 0 0 0 0 0
0 0 0 0 0 0 0 0 0
0 0 0 0 0 0 0 0 0
0 0 0 0 0 0 0 0 0
0 0 0 0 0 0 0 0 0
0 0 0 0 0 0 0 0 0
0 0 0 0 0 0 0 0 0
0 0 0 0 0 0 0 0 0
0 0 0 0 0 0 0 0 0
0 0 0 0 0 0 0 0 0
0 0 0 0 0 0 0 0 0
0 0 0 0 0 0 0 0 0
0 0 0 0 0 0 0 0 0
0 0 0 0 0 0 0 0 0
0 0 0 0 0 0 0 0 0
0 0 0 0 0 0 0 0 0
0 0 0 0 0 0 0 0 0
0 0 0 0 0 0 0 0 0
0 0 0 0 0 0 0 0 0
0 0 0 0 0 0 0 0 0
0 0 0 0 0 0 0 0 0
0 0 0 0 0 0 0 0 0
0 0 0 0 0 0 0 0 0
0 0 0 0 0 0 0 0 0
0 0 0 0 0 0 0 0 0
0 0 0 0 0 0 0 0 0
0 0 0 0 0 0 0 0 0
0 0 0 0 0 0 0 0 0
0 0 0 0 0 0 0 0 0
0 0 0 0 0 0 0 0 0
0 0 0 0 0 0 0 0 0
0 0 0 0 0 0 0 0 0
0 0 0 0 0 0 0 0 0
0 0 0 0 0 0 0 0 0
0 0 0 0 0 0 0 0 0
0 0 0 0 0 0 0 0 0
0 0 0 0 0 0 0 0 0
0 0 0 0 0 0 0 0 0
0 0 0 0 0 0 0 0 0
0 0 0 0 0 0 0 0 0
0 0 0 0 0 0 0 0 0
0 0 0 0 0 0 0 0 0
0 0 0 0 0 0 0 0 0
0 0 0 0 0 0 0 0 0
0 0 0 0 0 0 0 0 0
0 0 0 0 0 0 0 0 0
0 0 0 0 0 0 0 0 0
0 0 0 0 0 0 0 0 0
0 0 0 0 0 0 0 0 0
0 0 0 0 0 0 0 0 0
0 0 0 0 0 0 0 0 0
0 0 0 0 0 0 0 0 0
0 0 0 0 0 0 0 0 0
0 0 0 0 0 0 0 0 0
0 0 0 0 0 0 0 0 0
0 0 0 0 0 0 0 0 0
0 0 0 0 0 0 0 0 0
0 0 0 0 0 0 0 0 0
0 0 0 0 0 0 0 0 0
0 0 0 0 0 0 0 0 0
0 0 0 0 0 0 0 0 0
0 0 0 0 0 0 0 0 0
0 0 0 0 0 0 0 0 0
0 0 0 0 0 0 0 0 0
0 0 0 0 0 0 0 0 0
0 0 0 0 0 0 0 0 0
0 0 0 0 0 0 0 0 0
0 0 0 0 0 0 0 0 0
0 0 0 0 0 0 0 0 0
0 0 0 0 0 0 0 0 0
0 0 0 0 0 0 0 0 0
0 0 0 0 0 0 0 0 0
0 0 0 0 0 0 0 0 0
0 0 0 0 0 0 0 0 0
0 0 0 0 0 0 0 0 0
0 0 0 0 0 0 0 0 0
0 0 0 0 0 0 0 0 0
0 0 0 0 0 0 0 0 0
0 0 0 0 0 0 0 0 0
0 0 0 0 0 0 0 0 0
0 0 0 0 0 0 0 0 0
0 0 0 0 0 0 0 0 0
0 0 0 0 0 0 0 0 0
0 0 0 0 0 0 0 0 0
0 0 0 0 0 0 0 0 0
0 0 0 0 0 0 0 0 0
0 0 0 0 0 0 0 0 0
0 0 0 0 0 0 0 0 0
0 0 0 0 0 0 0 0 0
0 0 0 0 0 0 0 0 0
0 0 0 0 0 0 0 0 0
0 0 0 0 0 0 0 0 0
0 0 0 0 0 0 0 0 0
0 0 0 0 0 0 0 0 0
0 0 0 0 0 0 0 0 0
0 0 0 0 0 0 0 0 0
0 0 0 0 0 0 0 0 0
0 0 0 0 0 0 0 0 0
0 0 0 0 0 0 0 0 0
0 0 0 0 0 0 0 0 0
0 0 0 0 0 0 0 0 0
0 0 0 0 0 0 0 0 0
0 0 0 0 0 0 0 0 0
0 0 0 0 0 0 0 0 0
0 0 0 0 0 0 0 0 0
0 0 0 0 0 0 0 0 0
0 0 0 0 0 0 0 0 0
0 0 0 0 0 0 0 0 0
0 0 0 0 0 0 0 0 0
0 0 0 0 0 0 0 0 0
0 0 0 0 0 0 0 0 0
0 0 0 0 0 0 0 0 0
0 0 0 0 0 0 0 0 0
0 0 0 0 0 0 0 0 0
0 0 0 0 0 0 0 0 0
0 0 0 0 0 0 0 0 0
0 0 0 0 0 0 0 0 0
0 0 0 0 0 0 0 0 0
0 0 0 0 0 0 0 0 0
0 0 0 0 0 0 0 0 0
0 0 0 0 0 0 0 0 0
0 0 0 0 0 0 0 0 0
0 0 0 0 0 0 0 0 0
0 0 0 0 0 0 0 0 0
0 0 0 0 0 0 0 0 0
0 0 0 0 0 0 0 0 0
0 0 0 0 0 0 0 0 0
0 0 0 0 0 0 0 0 0
0 0 0 0 0 0 0 0 0
0 0 0 0 0 0 0 0 0
0 0 0 0 0 0 0 0 0
0 0 0 0 0 0 0 0 0
0 0 0 0 0 0 0 0 0
0 0 0 0 0 0 0 0 0
0 0 0 0 0 0 0 0 0
0 0 0 0 0 0 0 0 0
0 0 0 0 0 0 0 0 0
0 0 0 0 0 0 0 0 0
0 0 0 0 0 0 0 0 0
0 0 0 0 0 0 0 0 0
0 0 0 0 0 0 0 0 0
0 0 0 0 0 0 0 0 0
0 0 0 0 0 0 0 0 0
0 0 0 0 0 0 0 0 0
0 0 0 0 0 0 0 0 0
0 0 0 0 0 0 0 0 0
0 0 0 0 0 0 0 0 0
0 0 0 0 0 0 0 0 0
0 0 0 0 0 0 0 0 0
0 0 0 0 0 0 0 0 0
0 0 0 0 0 0 0 0 0
0 0 0 0 0 0 0 0 0
0 0 0 0 0 0 0 0 0
0 0 0 0 0 0 0 0 0
0 0 0 0 0 0 0 0 0
0 0 0 0 0 0 0 0 0
0 0 0 0 0 0 0 0 0
0 0 0 0 0 0 0 0 0
0 0 0 0 0 0 0 0 0
0 0 0 0 0 0 0 0 0
0 0 0 0 0 0 0 0 0
0 0 0 0 0 0 0 0 0
0 0 0 0 0 0 0 0 0
0 0 0 0 0 0 0 0 0
0 0 0 0 0 0 0 0 0
0 0 0 0 0 0 0 0 0
0 0 0 0 0 0 0 0 0
0 0 0 0 0 0 0 0 0
0 0 0 0 0 0 0 0 0
0 0 0 0 0 0 0 0 0
0 0 0 0 0 0 0 0 0
0 0 0 0 0 0 0 0 0
0 0 0 0 0 0 0 0 0
0 0 0 0 0 0 0 0 0
0 0 0 0 0 0 0 0 0
0 0 0 0 0 0 0 0 0
0 0 0 0 0 0 0 0 0
0 0 0 0 0 0 0 0 0
0 0 0 0 0 0 0 0 0
0 0 0 0 0 0 0 0 0
0 0 0 0 0 0 0 0 0
0 0 0 0 0 0 0 0 0
0 0 0 0 0 0 0 0 0
0 0 0 0 0 0 0 0 0
0 0 0 0 0 0 0 0 0
0 0 0 0 0 0 0 0 0
0 0 0 0 0 0 0 0 0
0 0 0 0 0 0 0 0 0
0 0 0 0 0 0 0 0 0
0 0 0 0 0 0 0 0 0
0 0 0 0 0 0 0 0 0
0 0 0 0 0 0 0 0 0
0 0 0 0 0 0 0 0 0
0 0 0 0 0 0 0 0 0
0 0 0 0 0 0 0 0 0
0 0 0 0 0 0 0 0 0
0 0 0 0 0 0 0 0 0
0 0 0 0 0 0 0 0 0
0 0 0 0 0 0 0 0 0
0 0 0 0 0 0 0 0 0
0 0 0 0 0 0 0 0 0
0 0 0 0 0 0 0 0 0
0 0 0 0 0 0 0 0 0
0 0 0 0 0 0 0 0 0
0 0 0 0 0 0 0 0 0
0 0 0 0 0 0 0 0 0
0 0 0 0 0 0 0 0 0
0 0 0 0 0 0 0 0 0
0 0 0 0 0 0 0 0 0
0 0 0 0 0 0 0 0 0
0 0 0 0 0 0 0 0 0
0 0 0 0 0 0 0 0 0
0 0 0 0 0 0 0 0 0
0 0 0 0 0 0 0 0 0
0 0 0 0 0 0 0 0 0
0 0 0 0 0 0 0 0 0
0 0 0 0 0 0 0 0 0
0 0 0 0 0 0 0 0 0
0 0 0 0 0 0 0 0 0
0 0 0 0 0 0 0 0 0
0 0 0 0 0 0 0 0 0
0 0 0 0 0 0 0 0 0
0 0 0 0 0 0 0 0 0
0 0 0 0 0 0 0 0 0
0 0 0 0 0 0 0 0 0
0 0 0 0 0 0 0 0 0
0 0 0 0 0 0 0 0 0
0 0 0 0 0 0 0 0 0
0 0 0 0 0 0 0 0 0
0 0 0 0 0 0 0 0 0
0 0 0 0 0 0 0 0 0
0 0 0 0 0 0 0 0 0
0 0 0 0 0 0 0 0 0
0 0 0 0 0 0 0 0 0
0 0 0 0 0 0 0 0 0
0 0 0 0 0 0 0 0 0
0 0 0 0 0 0 0 0 0
0 0 0 0 0 0 0 0 0
0 0 0 0 0 0 0 0 0
0 0 0 0 0 0 0 0 0
0 0 0 0 0 0 0 0 0
0 0 0 0 0 0 0 0 0
0 0 0 0 0 0 0 0 0
0 0 0 0 0 0 0 0 0
0 0 0 0 0 0 0 0 0
0 0 0 0 0 0 0 0 0
0 0 0 0 0 0 0 0 0
0 0 0 0 0 0 0 0 0
0 0 0 0 0 0 0 0 0
0 0 0 0 0 0 0 0 0
0 0 0 0 0 0 0 0 0
0 0 0 0 0 0 0 0 0
0 0 0 0 0 0 0 0 0
0 0 0 0 0 0 0 0 0
0 0 0 0 0 0 0 0 0
0 0 0 0 0 0 0 0 0
0 0 0 0 0 0 0 0 0
0 0 0 0 0 0 0 0 0
0 0 0 0 0 0 0 0 0
0 0 0 0 0 0 0 0 0
0 0 0 0 0 0 0 0 0
0 0 0 0 0 0 0 0 0
0 0 0 0 0 0 0 0 0
0 0 0 0 0 0 0 0 0
0 0 0 0 0 0 0 0 0
0 0 0 0 0 0 0 0 0
0 0 0 0 0 0 0 0 0
0 0 0 0 0 0 0 0 0
0 0 0 0 0 0 0 0 0
0 0 0 0 0 0 0 0 0
0 0 0 0 0 0 0 0 0
0 0 0 0 0 0 0 0 0
0 0 0 0 0 0 0 0 0
0 0 0 0 0 0 0 0 0
0 0 0 0 0 0 0 0 0
0 0 0 0 0 0 0 0 0
0 0 0 0 0 0 0 0 0
0 0 0 0 0 0 0 0 0
0 0 0 0 0 0 0 0 0
0 0 0 0 0 0 0 0 0
0 0 0 0 0 0 0 0 0
0 0 0 0 0 0 0 0 0
0 0 0 0 0 0 0 0 0
0 0 0 0 0 0 0 0 0
0 0 0 0 0 0 0 0 0
0 0 0 0 0 0 0 0 0
0 0 0 0 0 0 0 0 0
0 0 0 0 0 0 0 0 0
0 0 0 0 0 0 0 0 0
0 0 0 0 0 0 0 0 0
0 0 0 0 0 0 0 0 0
0 0 0 0 0 0 0 0 0
0 0 0 0 0 0 0 0 0
0 0 0 0 0 0 0 0 0
0 0 0 0 0 0 0 0 0
0 0 0 0 0 0 0 0 0
0 0 0 0 0 0 0 0 0
0 0 0 0 0 0 0 0 0
0 0 0 0 0 0 0 0 0
0 0 0 0 0 0 0 0 0
0 0 0 0 0 0 0 0 0
0 0 0 0 0 0 0 0 0
0 0 0 0 0 0 0 0 0
0 0 0 0 0 0 0 0 0
0 0 0 0 0 0 0 0 0
0 0 0 0 0 0 0 0 0
0 0 0 0 0 0 0 0 0
0 0 0 0 0 0 0 0 0
0 0 0 0 0 0 0 0 0
0 0 0 0 0 0 0 0 0
0 0 0 0 0 0 0 0 0
0 0 0 0 0 0 0 0 0
0 0 0 0 0 0 0 0 0
0 0 0 0 0 0 0 0 0
0 0 0 0 0 0 0 0 0
0 0 0 0 0 0 0 0 0
0 0 0 0 0 0 0 0 0
0 0 0 0 0 0 0 0 0
0 0 0 0 0 0 0 0 0
0 0 0 0 0 0 0 0 0
0 0 0 0 0 0 0 0 0
0 0 0 0 0 0 0 0 0
0 0 0 0 0 0 0 0 0
0 0 0 0 0 0 0 0 0
0 0 0 0 0 0 0 0 0
0 0 0 0 0 0 0 0 0
0 0 0 0 0 0 0 0 0
0 0 0 0 0 0 0 0 0
0 0 0 0 0 0 0 0 0
0 0 0 0 0 0 0 0 0
0 0 0 0 0 0 0 0 0
0 0 0 0 0 0 0 0 0
0 0 0 0 0 0 0 0 0
0 0 0 0 0 0 0 0 0
0 0 0 0 0 0 0 0 0
0 0 0 0 0 0 0 0 0
0 0 0 0 0 0 0 0 0
0 0 0 0 0 0 0 0 0
0 0 0 0 0 0 0 0 0
0 0 0 0 0 0 0 0 0
0 0 0 0 0 0 0 0 0
0 0 0 0 0 0 0 0 0
0 0 0 0 0 0 0 0 0
0 0 0 0 0 0 0 0 0
0 0 0 0 0 0 0 0 0
0 0 0 0 0 0 0 0 0
0 0 0 0 0 0 0 0 0
0 0 0 0 0 0 0 0 0
0 0 0 0 0 0 0 0 0
0 0 0 0 0 0 0 0 0
0 0 0 0 0 0 0 0 0
0 0 0 0 0 0 0 0 0
0 0 0 0 0 0 0 0 0
0 0 0 0 0 0 0 0 0
0 0 0 0 0 0 0 0 0
0 0 0 0 0 0 0 0 0
0 0 0 0 0 0 0 0 0
0 0 0 0 0 0 0 0 0
0 0 0 0 0 0 0 0 0
0 0 0 0 0 0 0 0 0
0 0 0 0 0 0 0 0 0
0 0 0 0 0 0 0 0 0
0 0 0 0 0 0 0 0 0
0 0 0 0 0 0 0 0 0
0 0 0 0 0 0 0 0 0
0 0 0 0 0 0 0 0 0
0 0 0 0 0 0 0 0 0
0 0 0 0 0 0 0 0 0
0 0 0 0 0 0 0 0 0
0 0 0 0 0 0 0 0 0
0 0 0 0 0 0 0 0 0
0 0 0 0 0 0 0 0 0
0 0 0 0 0 0 0 0 0
0 0 0 0 0 0 0 0 0
0 0 0 0 0 0 0 0 0
0 0 0 0 0 0 0 0 0
0 0 0 0 0 0 0 0 0
0 0 0 0 0 0 0 0 0
0 0 0 0 0 0 0 0 0
0 0 0 0 0 0 0 0 0
0 0 0 0 0 0 0 0 0
0 0 0 0 0 0 0 0 0
0 0 0 0 0 0 0 0 0
0 0 0 0 0 0 0 0 0
0 0 0 0 0 0 0 0 0
0 0 0 0 0 0 0 0 0
0 0 0 0 0 0 0 0 0
0 0 0 0 0 0 0 0 0
0 0 0 0 0 0 0 0 0
0 0 0 0 0 0 0 0 0
0 0 0 0 0 0 0 0 0
0 0 0 0 0 0 0 0 0
0 0 0 0 0 0 0 0 0
0 0 0 0 0 0 0 0 0
0 0 0 0 0 0 0 0 0
0 0 0 0 0 0 0 0 0
0 0 0 0 0 0 0 0 0
0 0 0 0 0 0 0 0 0
0 0 0 0 0 0 0 0 0
0 0 0 0 0 0 0 0 0
0 0 0 0 0 0 0 0 0
0 0 0 0 0 0 0 0 0
0 0 0 0 0 0 0 0 0
0 0 0 0 0 0 0 0 0
0 0 0 0 0 0 0 0 0
0 0 0 0 0 0 0 0 0
0 0 0 0 0 0 0 0 0
0 0 0 0 0 0 0 0 0
0 0 0 0 0 0 0 0 0
0 0 0 0 0 0 0 0 0
0 0 0 0 0 0 0 0 0
0 0 0 0 0 0 0 0 0
0 0 0 0 0 0 0 0 0
0 0 0 0 0 0 0 0 0
0 0 0 0 0 0 0 0 0
0 0 0 0 0 0 0 0 0
0 0 0 0 0 0 0 0 0
0 0 0 0 0 0 0 0 0
0 0 0 0 0 0 0 0 0
0 0 0 0 0 0 0 0 0
0 0 0 0 0 0 0 0 0
0 0 0 0 0 0 0 0 0
0 0 0 0 0 0 0 0 0
0 0 0 0 0 0 0 0 0
0 0 0 0 0 0 0 0 0
0 0 0 0 0 0 0 0 0
0 0 0 0 0 0 0 0 0
0 0 0 0 0 0 0 0 0
0 0 0 0 0 0 0 0 0
0 0 0 0 0 0 0 0 0
0 0 0 0 0 0 0 0 0
0 0 0 0 0 0 0 0 0
0 0 0 0 0 0 0 0 0
0 0 0 0 0 0 0 0 0
0 0 0 0 0 0 0 0 0
0 0 0 0 0 0 0 0 0
0 0 0 0 0 0 0 0 0
0 0 0 0 0 0 0 0 0
0 0 0 0 0 0 0 0 0
0 0 0 0 0 0 0 0 0
0 0 0 0 0 0 0 0 0
0 0 0 0 0 0 0 0 0
0 0 0 0 0 0 0 0 0
0 0 0 0 0 0 0 0 0
0 0 0 0 0 0 0 0 0
0 0 0 0 0 0 0 0 0
0 0 0 0 0 0 0 0 0
0 0 0 0 0 0 0 0 0
0 0 0 0 0 0 0 0 0
0 0 0 0 0 0 0 0 0
0 0 0 0 0 0 0 0 0
0 0 0 0 0 0 0 0 0
0 0 0 0 0 0 0 0 0
0 0 0 0 0 0 0 0 0
0 0 0 0 0 0 0 0 0
0 0 0 0 0 0 0 0 0
0 0 0 0 0 0 0 0 0
0 0 0 0 0 0 0 0 0
0 0 0 0 0 0 0 0 0
0 0 0 0 0 0 0 0 0
0 0 0 0 0 0 0 0 0
0 0 0 0 0 0 0 0 0
0 0 0 0 0 0 0 0 0
0 0 0 0 0 0 0 0 0
0 0 0 0 0 0 0 0 0
0 0 0 0 0 0 0 0 0
0 0 0 0 0 0 0 0 0
0 0 0 0 0 0 0 0 0
0 0 0 0 0 0 0 0 0
0 0 0 0 0 0 0 0 0
0 0 0 0 0 0 0 0 0
0 0 0 0 0 0 0 0 0
0 0 0 0 0 0 0 0 0
0 0 0 0 0 0 0 0 0
0 0 0 0 0 0 0 0 0
0 0 0 0 0 0 0 0 0
0 0 0 0 0 0 0 0 0
0 0 0 0 0 0 0 0 0
0 0 0 0 0 0 0 0 0
0 0 0 0 0 0 0 0 0
0 0 0 0 0 0 0 0 0
0 0 0 0 0 0 0 0 0
0 0 0 0 0 0 0 0 0
0 0 0 0 0 0 0 0 0
0 0 0 0 0 0 0 0 0
0 0 0 0 0 0 0 0 0
0 0 0 0 0 0 0 0 0
0 0 0 0 0 0 0 0 0
0 0 0 0 0 0 0 0 0
0 0 0 0 0 0 0 0 0
0 0 0 0 0 0 0 0 0
0 0 0 0 0 0 0 0 0
0 0 0 0 0 0 0 0 0
0 0 0 0 0 0 0 0 0
0 0 0 0 0 0 0 0 0
0 0 0 0 0 0 0 0 0
0 0 0 0 0 0 0 0 0
0 0 0 0 0 0 0 0 0
0 0 0 0 0 0 0 0 0
0 0 0 0 0 0 0 0 0
0 0 0 0 0 0 0 0 0
0 0 0 0 0 0 0 0 0
0 0 0 0 0 0 0 0 0
0 0 0 0 0 0 0 0 0
0 0 0 0 0 0 0 0 0
0 0 0 0 0 0 0 0 0
0 0 0 0 0 0 0 0 0
0 0 0 0 0 0 0 0 0
0 0 0 0 0 0 0 0 0
0 0 0 0 0 0 0 0 0
0 0 0 0 0 0 0 0 0
0 0 0 0 0 0 0 0 0
0 0 0 0 0 0 0 0 0
0 0 0 0 0 0 0 0 0
0 0 0 0 0 0 0 0 0
0 0 0 0 0 0 0 0 0
0 0 0 0 0 0 0 0 0
0 0 0 0 0 0 0 0 0
0 0 0 0 0 0 0 0 0
0 0 0 0 0 0 0 0 0
0 0 0 0 0 0 0 0 0
0 0 0 0 0 0 0 0 0
0 0 0 0 0 0 0 0 0
0 0 0 0 0 0 0 0 0
0 0 0 0 0 0 0 0 0
0 0 0 0 0 0 0 0 0
0 0 0 0 0 0 0 0 0
0 0 0 0 0 0 0 0 0
0 0 0 0 0 0 0 0 0
0 0 0 0 0 0 0 0 0
0 0 0 0 0 0 0 0 0
0 0 0 0 0 0 0 0 0
0 0 0 0 0 0 0 0 0
0 0 0 0 0 0 0 0 0
0 0 0 0 0 0 0 0 0
0 0 0 0 0 0 0 0 0
0 0 0 0 0 0 0 0 0
0 0 0 0 0 0 0 0 0
0 0 0 0 0 0 0 0 0
0 0 0 0 0 0 0 0 0
0 0 0 0 0 0 0 0 0
0 0 0 0 0 0 0 0 0
0 0 0 0 0 0 0 0 0
0 0 0 0 0 0 0 0 0
0 0 0 0 0 0 0 0 0
0 0 0 0 0 0 0 0 0
0 0 0 0 0 0 0 0 0
0 0 0 0 0 0 0 0 0
0 0 0 0 0 0 0 0 0
0 0 0 0 0 0 0 0 0
0 0 0 0 0 0 0 0 0
0 0 0 0 0 0 0 0 0
0 0 0 0 0 0 0 0 0
0 0 0 0 0 0 0 0 0
0 0 0 0 0 0 0 0 0
0 0 0 0 0 0 0 0 0
0 0 0 0 0 0 0 0 0
0 0 0 0 0 0 0 0 0
0 0 0 0 0 0 0 0 0
0 0 0 0 0 0 0 0 0
0 0 0 0 0 0 0 0 0
0 0 0 0 0 0 0 0 0
0 0 0 0 0 0 0 0 0
0 0 0 0 0 0 0 0 0
0 0 0 0 0 0 0 0 0
0 0 0 0 0 0 0 0 0
0 0 0 0 0 0 0 0 0
0 0 0 0 0 0 0 0 0
0 0 0 0 0 0 0 0 0
0 0 0 0 0 0 0 0 0
0 0 0 0 0 0 0 0 0
0 0 0 0 0 0 0 0 0
0 0 0 0 0 0 0 0 0
0 0 0 0 0 0 0 0 0
0 0 0 0 0 0 0 0 0
0 0 0 0 0 0 0 0 0
0 0 0 0 0 0 0 0 0
0 0 0 0 0 0 0 0 0
0 0 0 0 0 0 0 0 0
0 0 0 0 0 0 0 0 0
0 0 0 0 0 0 0 0 0
0 0 0 0 0 0 0 0 0
0 0 0 0 0 0 0 0 0
0 0 0 0 0 0 0 0 0
0 0 0 0 0 0 0 0 0
0 0 0 0 0 0 0 0 0
0 0 0 0 0 0 0 0 0
0 0 0 0 0 0 0 0 0
0 0 0 0 0 0 0 0 0
0 0 0 0 0 0 0 0 0
0 0 0 0 0 0 0 0 0
0 0 0 0 0 0 0 0 0
0 0 0 0 0 0 0 0 0
0 0 0 0 0 0 0 0 0
0 0 0 0 0 0 0 0 0
0 0 0 0 0 0 0 0 0
0 0 0 0 0 0 0 0 0
0 0 0 0 0 0 0 0 0
0 0 0 0 0 0 0 0 0
0 0 0 0 0 0 0 0 0
0 0 0 0 0 0 0 0 0
0 0 0 0 0 0 0 0 0
0 0 0 0 0 0 0 0 0
0 0 0 0 0 0 0 0 0
0 0 0 0 0 0 0 0 0
0 0 0 0 0 0 0 0 0
0 0 0 0 0 0 0 0 0
0 0 0 0 0 0 0 0 0
0 0 0 0 0 0 0 0 0
1.1667e-06 1.20997e-06 1.16711e-06 1.20971e-06 1.1667e-06 1.20997e-06 1.16711e-06 1.20971e-06 0
1.24228e-06 1.28728e-06 1.24152e-06 1.28583e-06 1.24228e-06 1.28728e-06 1.24152e-06 1.28583e-06 0
1.32082e-06 1.36744e-06 1.31886e-06 1.36476e-06 1.32082e-06 1.36744e-06 1.31886e-06 1.36476e-06 0
1.40211e-06 1.45022e-06 1.3989e-06 1.44626e-06 1.40211e-06 1.45022e-06 1.3989e-06 1.44626e-06 0
1.48591e-06 1.53533e-06 1.4814e-06 1.53004e-06 1.48591e-06 1.53533e-06 1.4814e-06 1.53004e-06 0
1.57191e-06 1.62243e-06 1.56604e-06 1.61575e-06 1.57191e-06 1.62243e-06 1.56604e-06 1.61575e-06 0
1.16652e-06 1.21098e-06 1.16654e-06 1.21031e-06 1.16652e-06 1.21098e-06 1.16654e-06 1.21031e-06 0
1.24418e-06 1.29041e-06 1.24299e-06 1.28851e-06 1.24418e-06 1.29041e-06 1.24299e-06 1.28851e-06 0
1.32486e-06 1.37275e-06 1.32243e-06 1.36958e-06 1.32486e-06 1.37275e-06 1.32243e-06 1.36958e-06 0
1.40838e-06 1.45781e-06 1.40465e-06 1.45331e-06 1.40838e-06 1.45781e-06 1.40465e-06 1.45331e-06 0
1.4945e-06 1.54531e-06 1.48942e-06 1.53942e-06 1.4945e-06 1.54531e-06 1.48942e-06 1.53942e-06 0
1.58293e-06 1.63487e-06 1.57644e-06 1.62755e-06 1.58293e-06 1.63487e-06 1.57644e-06 1.62755e-06 0
1.16715e-06 1.21282e-06 1.16668e-06 1.21165e-06 1.16715e-06 1.21282e-06 1.16668e-06 1.21165e-06 0
1.24692e-06 1.2944e-06 1.24523e-06 1.29198e-06 1.24692e-06 1.2944e-06 1.24523e-06 1.29198e-06 0
1.32979e-06 1.37899e-06 1.32682e-06 1.37527e-06 1.32979e-06 1.37899e-06 1.32682e-06 1.37527e-06 0
1.4156e-06 1.46641e-06 1.41131e-06 1.46132e-06 1.4156e-06 1.46641e-06 1.41131e-06 1.46132e-06 0
1.50414e-06 1.55639e-06 1.49844e-06 1.54986e-06 1.50414e-06 1.55639e-06 1.49844e-06 1.54986e-06 0
1.59508e-06 1.64854e-06 1.58792e-06 1.64049e-06 1.59508e-06 1.64854e-06 1.58792e-06 1.64049e-06 0
1.68802e-06 1.74243e-06 1.67931e-06 1.73281e-06 1.68802e-06 1.74243e-06 1.67931e-06 1.73281e-06 0
1.78238e-06 1.83716e-06 1.77209e-06 1.82593e-06 1.78238e-06 1.83716e-06 1.77209e-06 1.82593e-06 0
1.87733e-06 1.93234e-06 1.86542e-06 1.91951e-06 1.87733e-06 1.93234e-06 1.86542e-06 1.91951e-06 0
1.16869e-06 1.21558e-06 1.16768e-06 1.21387e-06 1.16869e-06 1.21558e-06 1.16768e-06 1.21387e-06 0
1.2506e-06 1.29936e-06 1.24835e-06 1.29637e-06 1.2506e-06 1.29936e-06 1.24835e-06 1.29637e-06 0
1.33571e-06 1.38626e-06 1.33216e-06 1.38193e-06 1.33571e-06 1.38626e-06 1.33216e-06 1.38193e-06 0
1.42388e-06 1.47611e-06 1.41897e-06 1.47037e-06 1.42388e-06 1.47611e-06 1.41897e-06 1.47037e-06 0
1.5149e-06 1.56864e-06 1.50854e-06 1.56142e-06 1.5149e-06 1.56864e-06 1.50854e-06 1.56142e-06 0
1.60845e-06 1.66348e-06 1.60058e-06 1.6547e-06 1.60845e-06 1.66348e-06 1.60058e-06 1.6547e-06 0
1.70412e-06 1.76015e-06 1.69467e-06 1.74975e-06 1.70412e-06 1.76015e-06 1.69467e-06 1.74975e-06 0
1.80131e-06 1.85774e-06 1.79021e-06 1.84568e-06 1.80131e-06 1.85774e-06 1.79021e-06 1.84568e-06 0
1.89914e-06 1.95584e-06 1.88637e-06 1.94208e-06 1.89914e-06 1.95584e-06 1.88637e-06 1.94208e-06 0
1.17126e-06 1.21939e-06 1.16964e-06 1.21706e-06 1.17126e-06 1.21939e-06 1.16964e-06 1.21706e-06 0
1.25533e-06 1.30539e-06 1.25246e-06 1.30177e-06 1.25533e-06 1.30539e-06 1.25246e-06 1.30177e-06 0
1.34272e-06 1.39464e-06 1.33853e-06 1.38966e-06 1.34272e-06 1.39464e-06 1.33853e-06 1.38966e-06 0
1.4333e-06 1.48698e-06 1.42771e-06 1.48056e-06 1.4333e-06 1.48698e-06 1.42771e-06 1.48056e-06 0
1.52687e-06 1.58215e-06 1.5198e-06 1.57419e-06 1.52687e-06 1.58215e-06 1.5198e-06 1.57419e-06 0
1.62312e-06 1.67976e-06 1.61449e-06 1.67019e-06 1.62312e-06 1.67976e-06 1.61449e-06 1.67019e-06 0
1.72162e-06 1.77933e-06 1.71134e-06 1.76807e-06 1.72162e-06 1.77933e-06 1.71134e-06 1.76807e-06 0
1.82174e-06 1.87993e-06 1.80975e-06 1.86692e-06 1.82174e-06 1.87993e-06 1.80975e-06 1.86692e-06 0
1.92262e-06 1.9811e-06 1.90886e-06 1.9663e-06 1.92262e-06 1.9811e-06 1.90886e-06 1.9663e-06 0
1.17498e-06 1.22435e-06 1.17268e-06 1.22134e-06 1.17498e-06 1.22435e-06 1.17268e-06 1.22134e-06 0
1.26122e-06 1.3126e-06 1.25767e-06 1.30828e-06 1.26122e-06 1.3126e-06 1.25767e-06 1.30828e-06 0
1.35092e-06 1.40424e-06 1.34603e-06 1.39855e-06 1.35092e-06 1.40424e-06 1.34603e-06 1.39855e-06 0
1.44395e-06 1.49913e-06 1.43764e-06 1.49196e-06 1.44395e-06 1.49913e-06 1.43764e-06 1.49196e-06 0
1.54014e-06 1.59701e-06 1.53231e-06 1.58826e-06 1.54014e-06 1.59701e-06 1.53231e-06 1.58826e-06 0
1.63917e-06 1.69749e-06 1.62973e-06 1.68707e-06 1.63917e-06 1.69749e-06 1.62973e-06 1.68707e-06 0
1.74061e-06 1.80008e-06 1.72945e-06 1.7879e-06 1.74061e-06 1.80008e-06 1.72945e-06 1.7879e-06 0
1.84381e-06 1.90383e-06 1.83087e-06 1.88982e-06 1.84381e-06 1.90383e-06 1.83087e-06 1.88982e-06 0
1.94788e-06 2.00823e-06 1.93307e-06 1.99233e-06 1.94788e-06 2.00823e-06 1.93307e-06 1.99233e-06 0
1.17999e-06 1.23059e-06 1.17694e-06 1.22682e-06 1.17999e-06 1.23059e-06 1.17694e-06 1.22682e-06 0
1.26839e-06 1.32109e-06 1.26409e-06 1.31602e-06 1.26839e-06 1.32109e-06 1.26409e-06 1.31602e-06 0
1.36042e-06 1.41516e-06 1.35477e-06 1.40869e-06 1.36042e-06 1.41516e-06 1.35477e-06 1.40869e-06 0
1.45595e-06 1.51265e-06 1.44885e-06 1.50467e-06 1.45595e-06 1.51265e-06 1.44885e-06 1.50467e-06 0
1.55481e-06 1.61331e-06 1.54616e-06 1.60372e-06 1.55481e-06 1.61331e-06 1.54616e-06 1.60372e-06 0
1.6567e-06 1.71676e-06 1.64639e-06 1.70544e-06 1.6567e-06 1.71676e-06 1.64639e-06 1.70544e-06 0
1.76118e-06 1.8225e-06 1.7491e-06 1.80935e-06 1.76118e-06 1.8225e-06 1.7491e-06 1.80935e-06 0
1.86761e-06 1.92956e-06 1.85365e-06 1.91448e-06 1.86761e-06 1.92956e-06 1.85365e-06 1.91448e-06 0
1.97504e-06 2.03736e-06 1.95912e-06 2.0203e-06 1.97504e-06 2.03736e-06 1.95912e-06 2.0203e-06 0
2.08198e-06 2.14155e-06 2.06405e-06 2.12241e-06 2.08198e-06 2.14155e-06 2.06405e-06 2.12241e-06 0
1.09954e-06 1.14925e-06 1.09682e-06 1.14586e-06 1.09954e-06 1.14925e-06 1.09682e-06 1.14586e-06 0
1.18641e-06 1.23822e-06 1.18252e-06 1.23363e-06 1.18641e-06 1.23822e-06 1.18252e-06 1.23363e-06 0
1.27696e-06 1.33098e-06 1.27183e-06 1.32509e-06 1.27696e-06 1.33098e-06 1.27183e-06 1.32509e-06 0
1.37132e-06 1.4275e-06 1.36484e-06 1.42019e-06 1.37132e-06 1.4275e-06 1.36484e-06 1.42019e-06 0
1.46937e-06 1.52762e-06 1.46144e-06 1.51879e-06 1.46937e-06 1.52762e-06 1.46144e-06 1.51879e-06 0
1.57096e-06 1.63114e-06 1.56145e-06 1.62065e-06 1.57096e-06 1.63114e-06 1.56145e-06 1.62065e-06 0
1.6758e-06 1.73767e-06 1.66457e-06 1.72539e-06 1.6758e-06 1.73767e-06 1.66457e-06 1.72539e-06 0
1.78345e-06 1.84669e-06 1.77038e-06 1.8325e-06 1.78345e-06 1.84669e-06 1.77038e-06 1.8325e-06 0
1.89324e-06 1.95722e-06 1.87821e-06 1.94101e-06 1.89324e-06 1.95722e-06 1.87821e-06 1.94101e-06 0
2.0042e-06 2.06862e-06 1.98711e-06 2.05031e-06 2.0042e-06 2.06862e-06 1.98711e-06 2.05031e-06 0
2.1148e-06 2.17654e-06 2.09558e-06 2.15605e-06 2.1148e-06 2.17654e-06 2.09558e-06 2.15605e-06 0
2.22244e-06 2.28621e-06 2.20105e-06 2.26363e-06 2.22244e-06 2.28621e-06 2.20105e-06 2.26363e-06 0
1.19436e-06 1.24743e-06 1.18957e-06 1.24191e-06 1.19436e-06 1.24743e-06 1.18957e-06 1.24191e-06 0
1.28711e-06 1.34247e-06 1.28104e-06 1.33563e-06 1.28711e-06 1.34247e-06 1.28104e-06 1.33563e-06 0
1.38382e-06 1.44144e-06 1.37639e-06 1.43318e-06 1.38382e-06 1.44144e-06 1.37639e-06 1.43318e-06 0
1.48442e-06 1.54422e-06 1.47552e-06 1.53443e-06 1.48442e-06 1.54422e-06 1.47552e-06 1.53443e-06 0
1.58875e-06 1.65062e-06 1.57827e-06 1.63916e-06 1.58875e-06 1.65062e-06 1.57827e-06 1.63916e-06 0
1.69657e-06 1.76028e-06 1.68437e-06 1.74701e-06 1.69657e-06 1.76028e-06 1.68437e-06 1.74701e-06 0
1.80747e-06 1.8727e-06 1.79338e-06 1.85745e-06 1.80747e-06 1.8727e-06 1.79338e-06 1.85745e-06 0
1.92077e-06 1.98691e-06 1.90464e-06 1.96951e-06 1.92077e-06 1.98691e-06 1.90464e-06 1.96951e-06 0
2.03549e-06 2.10214e-06 2.01716e-06 2.0825e-06 2.03549e-06 2.10214e-06 2.01716e-06 2.0825e-06 0
2.14999e-06 2.21407e-06 2.12937e-06 2.19209e-06 2.14999e-06 2.21407e-06 2.12937e-06 2.19209e-06 0
2.2616e-06 2.32752e-06 2.23866e-06 2.30333e-06 2.2616e-06 2.32752e-06 2.23866e-06 2.30333e-06 0
0 0 0 0 0 0 0 0 0
0 0 0 0 0 0 0 0 0
0 0 0 0 0 0 0 0 0
0 0 0 0 0 0 0 0 0
0 0 0 0 0 0 0 0 0
0 0 0 0 0 0 0 0 0
0 0 0 0 0 0 0 0 0
0 0 0 0 0 0 0 0 0
0 0 0 0 0 0 0 0 0
0 0 0 0 0 0 0 0 0
0 0 0 0 0 0 0 0 0
0 0 0 0 0 0 0 0 0
0 0 0 0 0 0 0 0 0
0 0 0 0 0 0 0 0 0
0 0 0 0 0 0 0 0 0
0 0 0 0 0 0 0 0 0
0 0 0 0 0 0 0 0 0
0 0 0 0 0 0 0 0 0
0 0 0 0 0 0 0 0 0
0 0 0 0 0 0 0 0 0
0 0 0 0 0 0 0 0 0
0 0 0 0 0 0 0 0 0
0 0 0 0 0 0 0 0 0
0 0 0 0 0 0 0 0 0
0 0 0 0 0 0 0 0 0
0 0 0 0 0 0 0 0 0
0 0 0 0 0 0 0 0 0
0 0 0 0 0 0 0 0 0
0 0 0 0 0 0 0 0 0
0 0 0 0 0 0 0 0 0
0 0 0 0 0 0 0 0 0
0 0 0 0 0 0 0 0 0
0 0 0 0 0 0 0 0 0
0 0 0 0 0 0 0 0 0
0 0 0 0 0 0 0 0 0
0 0 0 0 0 0 0 0 0
0 0 0 0 0 0 0 0 0
0 0 0 0 0 0 0 0 0
0 0 0 0 0 0 0 0 0
0 0 0 0 0 0 0 0 0
0 0 0 0 0 0 0 0 0
0 0 0 0 0 0 0 0 0
0 0 0 0 0 0 0 0 0
0 0 0 0 0 0 0 0 0
0 0 0 0 0 0 0 0 0
0 0 0 0 0 0 0 0 0
0 0 0 0 0 0 0 0 0
0 0 0 0 0 0 0 0 0
0 0 0 0 0 0 0 0 0
0 0 0 0 0 0 0 0 0
0 0 0 0 0 0 0 0 0
0 0 0 0 0 0 0 0 0
0 0 0 0 0 0 0 0 0
0 0 0 0 0 0 0 0 0
0 0 0 0 0 0 0 0 0
0 0 0 0 0 0 0 0 0
0 0 0 0 0 0 0 0 0
0 0 0 0 0 0 0 0 0
0 0 0 0 0 0 0 0 0
0 0 0 0 0 0 0 0 0
0 0 0 0 0 0 0 0 0
0 0 0 0 0 0 0 0 0
0 0 0 0 0 0 0 0 0
0 0 0 0 0 0 0 0 0
0 0 0 0 0 0 0 0 0
0 0 0 0 0 0 0 0 0
0 0 0 0 0 0 0 0 0
0 0 0 0 0 0 0 0 0
0 0 0 0 0 0 0 0 0
0 0 0 0 0 0 0 0 0
0 0 0 0 0 0 0 0 0
0 0 0 0 0 0 0 0 0
0 0 0 0 0 0 0 0 0
0 0 0 0 0 0 0 0 0
0 0 0 0 0 0 0 0 0
0 0 0 0 0 0 0 0 0
0 0 0 0 0 0 0 0 0
0 0 0 0 0 0 0 0 0
0 0 0 0 0 0 0 0 0
0 0 0 0 0 0 0 0 0
0 0 0 0 0 0 0 0 0
0 0 0 0 0 0 0 0 0
0 0 0 0 0 0 0 0 0
0 0 0 0 0 0 0 0 0
0 0 0 0 0 0 0 0 0
0 0 0 0 0 0 0 0 0
0 0 0 0 0 0 0 0 0
0 0 0 0 0 0 0 0 0
0 0 0 0 0 0 0 0 0
0 0 0 0 0 0 0 0 0
0 0 0 0 0 0 0 0 0
0 0 0 0 0 0 0 0 0
0 0 0 0 0 0 0 0 0
0 0 0 0 0 0 0 0 0
0 0 0 0 0 0 0 0 0
0 0 0 0 0 0 0 0 0
0 0 0 0 0 0 0 0 0
0 0 0 0 0 0 0 0 0
0 0 0 0 0 0 0 0 0
0 0 0 0 0 0 0 0 0
0 0 0 0 0 0 0 0 0
0 0 0 0 0 0 0 0 0
0 0 0 0 0 0 0 0 0
0 0 0 0 0 0 0 0 0
0 0 0 0 0 0 0 0 0
0 0 0 0 0 0 0 0 0
0 0 0 0 0 0 0 0 0
0 0 0 0 0 0 0 0 0
0 0 0 0 0 0 0 0 0
0 0 0 0 0 0 0 0 0
0 0 0 0 0 0 0 0 0
0 0 0 0 0 0 0 0 0
0 0 0 0 0 0 0 0 0
0 0 0 0 0 0 0 0 0
0 0 0 0 0 0 0 0 0
0 0 0 0 0 0 0 0 0
0 0 0 0 0 0 0 0 0
0 0 0 0 0 0 0 0 0
0 0 0 0 0 0 0 0 0
0 0 0 0 0 0 0 0 0
0 0 0 0 0 0 0 0 0
0 0 0 0 0 0 0 0 0
0 0 0 0 0 0 0 0 0
0 0 0 0 0 0 0 0 0
0 0 0 0 0 0 0 0 0
0 0 0 0 0 0 0 0 0
0 0 0 0 0 0 0 0 0
0 0 0 0 0 0 0 0 0
0 0 0 0 0 0 0 0 0
0 0 0 0 0 0 0 0 0
0 0 0 0 0 0 0 0 0
0 0 0 0 0 0 0 0 0
0 0 0 0 0 0 0 0 0
0 0 0 0 0 0 0 0 0
0 0 0 0 0 0 0 0 0
0 0 0 0 0 0 0 0 0
0 0 0 0 0 0 0 0 0
0 0 0 0 0 0 0 0 0
0 0 0 0 0 0 0 0 0
0 0 0 0 0 0 0 0 0
0 0 0 0 0 0 0 0 0
0 0 0 0 0 0 0 0 0
0 0 0 0 0 0 0 0 0
0 0 0 0 0 0 0 0 0
0 0 0 0 0 0 0 0 0
0 0 0 0 0 0 0 0 0
0 0 0 0 0 0 0 0 0
0 0 0 0 0 0 0 0 0
0 0 0 0 0 0 0 0 0
0 0 0 0 0 0 0 0 0
0 0 0 0 0 0 0 0 0
0 0 0 0 0 0 0 0 0
0 0 0 0 0 0 0 0 0
0 0 0 0 0 0 0 0 0
0 0 0 0 0 0 0 0 0
0 0 0 0 0 0 0 0 0
0 0 0 0 0 0 0 0 0
0 0 0 0 0 0 0 0 0
0 0 0 0 0 0 0 0 0
0 0 0 0 0 0 0 0 0
0 0 0 0 0 0 0 0 0
0 0 0 0 0 0 0 0 0
0 0 0 0 0 0 0 0 0
0 0 0 0 0 0 0 0 0
0 0 0 0 0 0 0 0 0
0 0 0 0 0 0 0 0 0
0 0 0 0 0 0 0 0 0
0 0 0 0 0 0 0 0 0
0 0 0 0 0 0 0 0 0
0 0 0 0 0 0 0 0 0
0 0 0 0 0 0 0 0 0
0 0 0 0 0 0 0 0 0
0 0 0 0 0 0 0 0 0
0 0 0 0 0 0 0 0 0
0 0 0 0 0 0 0 0 0
0 0 0 0 0 0 0 0 0
0 0 0 0 0 0 0 0 0
0 0 0 0 0 0 0 0 0
0 0 0 0 0 0 0 0 0
0 0 0 0 0 0 0 0 0
0 0 0 0 0 0 0 0 0
0 0 0 0 0 0 0 0 0
0 0 0 0 0 0 0 0 0
0 0 0 0 0 0 0 0 0
0 0 0 0 0 0 0 0 0
0 0 0 0 0 0 0 0 0
0 0 0 0 0 0 0 0 0
0 0 0 0 0 0 0 0 0
0 0 0 0 0 0 0 0 0
0 0 0 0 0 0 0 0 0
0 0 0 0 0 0 0 0 0
0 0 0 0 0 0 0 0 0
0 0 0 0 0 0 0 0 0
0 0 0 0 0 0 0 0 0
0 0 0 0 0 0 0 0 0
0 0 0 0 0 0 0 0 0
0 0 0 0 0 0 0 0 0
0 0 0 0 0 0 0 0 0
0 0 0 0 0 0 0 0 0
0 0 0 0 0 0 0 0 0
0 0 0 0 0 0 0 0 0
0 0 0 0 0 0 0 0 0
0 0 0 0 0 0 0 0 0
0 0 0 0 0 0 0 0 0
0 0 0 0 0 0 0 0 0
0 0 0 0 0 0 0 0 0
0 0 0 0 0 0 0 0 0
0 0 0 0 0 0 0 0 0
0 0 0 0 0 0 0 0 0
0 0 0 0 0 0 0 0 0
0 0 0 0 0 0 0 0 0
0 0 0 0 0 0 0 0 0
0 0 0 0 0 0 0 0 0
0 0 0 0 0 0 0 0 0
0 0 0 0 0 0 0 0 0
0 0 0 0 0 0 0 0 0
0 0 0 0 0 0 0 0 0
0 0 0 0 0 0 0 0 0
0 0 0 0 0 0 0 0 0
0 0 0 0 0 0 0 0 0
0 0 0 0 0 0 0 0 0
0 0 0 0 0 0 0 0 0
0 0 0 0 0 0 0 0 0
0 0 0 0 0 0 0 0 0
0 0 0 0 0 0 0 0 0
0 0 0 0 0 0 0 0 0
0 0 0 0 0 0 0 0 0
0 0 0 0 0 0 0 0 0
0 0 0 0 0 0 0 0 0
0 0 0 0 0 0 0 0 0
0 0 0 0 0 0 0 0 0
0 0 0 0 0 0 0 0 0
0 0 0 0 0 0 0 0 0
0 0 0 0 0 0 0 0 0
0 0 0 0 0 0 0 0 0
0 0 0 0 0 0 0 0 0
0 0 0 0 0 0 0 0 0
0 0 0 0 0 0 0 0 0
0 0 0 0 0 0 0 0 0
0 0 0 0 0 0 0 0 0
0 0 0 0 0 0 0 0 0
0 0 0 0 0 0 0 0 0
0 0 0 0 0 0 0 0 0
0 0 0 0 0 0 0 0 0
0 0 0 0 0 0 0 0 0
0 0 0 0 0 0 0 0 0
0 0 0 0 0 0 0 0 0
0 0 0 0 0 0 0 0 0
0 0 0 0 0 0 0 0 0
0 0 0 0 0 0 0 0 0
0 0 0 0 0 0 0 0 0
0 0 0 0 0 0 0 0 0
0 0 0 0 0 0 0 0 0
0 0 0 0 0 0 0 0 0
0 0 0 0 0 0 0 0 0
0 0 0 0 0 0 0 0 0
0 0 0 0 0 0 0 0 0
0 0 0 0 0 0 0 0 0
0 0 0 0 0 0 0 0 0
0 0 0 0 0 0 0 0 0
0 0 0 0 0 0 0 0 0
0 0 0 0 0 0 0 0 0
0 0 0 0 0 0 0 0 0
0 0 0 0 0 0 0 0 0
0 0 0 0 0 0 0 0 0
0 0 0 0 0 0 0 0 0
0 0 0 0 0 0 0 0 0
0 0 0 0 0 0 0 0 0
0 0 0 0 0 0 0 0 0
0 0 0 0 0 0 0 0 0
0 0 0 0 0 0 0 0 0
0 0 0 0 0 0 0 0 0
0 0 0 0 0 0 0 0 0
0 0 0 0 0 0 0 0 0
0 0 0 0 0 0 0 0 0
0 0 0 0 0 0 0 0 0
0 0 0 0 0 0 0 0 0
0 0 0 0 0 0 0 0 0
0 0 0 0 0 0 0 0 0
0 0 0 0 0 0 0 0 0
0 0 0 0 0 0 0 0 0
0 0 0 0 0 0 0 0 0
0 0 0 0 0 0 0 0 0
0 0 0 0 0 0 0 0 0
0 0 0 0 0 0 0 0 0
0 0 0 0 0 0 0 0 0
0 0 0 0 0 0 0 0 0
0 0 0 0 0 0 0 0 0
0 0 0 0 0 0 0 0 0
0 0 0 0 0 0 0 0 0
0 0 0 0 0 0 0 0 0
0 0 0 0 0 0 0 0 0
0 0 0 0 0 0 0 0 0
0 0 0 0 0 0 0 0 0
0 0 0 0 0 0 0 0 0
0 0 0 0 0 0 0 0 0
0 0 0 0 0 0 0 0 0
0 0 0 0 0 0 0 0 0
0 0 0 0 0 0 0 0 0
0 0 0 0 0 0 0 0 0
0 0 0 0 0 0 0 0 0
0 0 0 0 0 0 0 0 0
0 0 0 0 0 0 0 0 0
0 0 0 0 0 0 0 0 0
0 0 0 0 0 0 0 0 0
0 0 0 0 0 0 0 0 0
0 0 0 0 0 0 0 0 0
0 0 0 0 0 0 0 0 0
0 0 0 0 0 0 0 0 0
0 0 0 0 0 0 0 0 0
0 0 0 0 0 0 0 0 0
0 0 0 0 0 0 0 0 0
0 0 0 0 0 0 0 0 0
0 0 0 0 0 0 0 0 0
0 0 0 0 0 0 0 0 0
0 0 0 0 0 0 0 0 0
0 0 0 0 0 0 0 0 0
0 0 0 0 0 0 0 0 0
0 0 0 0 0 0 0 0 0
0 0 0 0 0 0 0 0 0
0 0 0 0 0 0 0 0 0
0 0 0 0 0 0 0 0 0
0 0 0 0 0 0 0 0 0
0 0 0 0 0 0 0 0 0
0 0 0 0 0 0 0 0 0
0 0 0 0 0 0 0 0 0
0 0 0 0 0 0 0 0 0
0 0 0 0 0 0 0 0 0
0 0 0 0 0 0 0 0 0
0 0 0 0 0 0 0 0 0
0 0 0 0 0 0 0 0 0
0 0 0 0 0 0 0 0 0
0 0 0 0 0 0 0 0 0
0 0 0 0 0 0 0 0 0
0 0 0 0 0 0 0 0 0
0 0 0 0 0 0 0 0 0
0 0 0 0 0 0 0 0 0
0 0 0 0 0 0 0 0 0
0 0 0 0 0 0 0 0 0
0 0 0 0 0 0 0 0 0
0 0 0 0 0 0 0 0 0
0 0 0 0 0 0 0 0 0
0 0 0 0 0 0 0 0 0
0 0 0 0 0 0 0 0 0
0 0 0 0 0 0 0 0 0
0 0 0 0 0 0 0 0 0
0 0 0 0 0 0 0 0 0
0 0 0 0 0 0 0 0 0
0 0 0 0 0 0 0 0 0
0 0 0 0 0 0 0 0 0
0 0 0 0 0 0 0 0 0
0 0 0 0 0 0 0 0 0
0 0 0 0 0 0 0 0 0
0 0 0 0 0 0 0 0 0
0 0 0 0 0 0 0 0 0
0 0 0 0 0 0 0 0 0
0 0 0 0 0 0 0 0 0
0 0 0 0 0 0 0 0 0
0 0 0 0 0 0 0 0 0
0 0 0 0 0 0 0 0 0
0 0 0 0 0 0 0 0 0
0 0 0 0 0 0 0 0 0
0 0 0 0 0 0 0 0 0
0 0 0 0 0 0 0 0 0
0 0 0 0 0 0 0 0 0
0 0 0 0 0 0 0 0 0
0 0 0 0 0 0 0 0 0
0 0 0 0 0 0 0 0 0
0 0 0 0 0 0 0 0 0
0 0 0 0 0 0 0 0 0
0 0 0 0 0 0 0 0 0
0 0 0 0 0 0 0 0 0
0 0 0 0 0 0 0 0 0
0 0 0 0 0 0 0 0 0
0 0 0 0 0 0 0 0 0
0 0 0 0 0 0 0 0 0
0 0 0 0 0 0 0 0 0
0 0 0 0 0 0 0 0 0
0 0 0 0 0 0 0 0 0
0 0 0 0 0 0 0 0 0
0 0 0 0 0 0 0 0 0
0 0 0 0 0 0 0 0 0
0 0 0 0 0 0 0 0 0
0 0 0 0 0 0 0 0 0
0 0 0 0 0 0 0 0 0
0 0 0 0 0 0 0 0 0
0 0 0 0 0 0 0 0 0
0 0 0 0 0 0 0 0 0
0 0 0 0 0 0 0 0 0
0 0 0 0 0 0 0 0 0
0 0 0 0 0 0 0 0 0
0 0 0 0 0 0 0 0 0
0 0 0 0 0 0 0 0 0
0 0 0 0 0 0 0 0 0
0 0 0 0 0 0 0 0 0
0 0 0 0 0 0 0 0 0
0 0 0 0 0 0 0 0 0
0 0 0 0 0 0 0 0 0
0 0 0 0 0 0 0 0 0
0 0 0 0 0 0 0 0 0
0 0 0 0 0 0 0 0 0
0 0 0 0 0 0 0 0 0
0 0 0 0 0 0 0 0 0
0 0 0 0 0 0 0 0 0
0 0 0 0 0 0 0 0 0
0 0 0 0 0 0 0 0 0
0 0 0 0 0 0 0 0 0
0 0 0 0 0 0 0 0 0
0 0 0 0 0 0 0 0 0
0 0 0 0 0 0 0 0 0
0 0 0 0 0 0 0 0 0
0 0 0 0 0 0 0 0 0
0 0 0 0 0 0 0 0 0
0 0 0 0 0 0 0 0 0
0 0 0 0 0 0 0 0 0
0 0 0 0 0 0 0 0 0
0 0 0 0 0 0 0 0 0
0 0 0 0 0 0 0 0 0
0 0 0 0 0 0 0 0 0
0 0 0 0 0 0 0 0 0
0 0 0 0 0 0 0 0 0
0 0 0 0 0 0 0 0 0
0 0 0 0 0 0 0 0 0
0 0 0 0 0 0 0 0 0
0 0 0 0 0 0 0 0 0
0 0 0 0 0 0 0 0 0
0 0 0 0 0 0 0 0 0
0 0 0 0 0 0 0 0 0
0 0 0 0 0 0 0 0 0
0 0 0 0 0 0 0 0 0
0 0 0 0 0 0 0 0 0
0 0 0 0 0 0 0 0 0
0 0 0 0 0 0 0 0 0
0 0 0 0 0 0 0 0 0
0 0 0 0 0 0 0 0 0
0 0 0 0 0 0 0 0 0
0 0 0 0 0 0 0 0 0
0 0 0 0 0 0 0 0 0
0 0 0 0 0 0 0 0 0
0 0 0 0 0 0 0 0 0
0 0 0 0 0 0 0 0 0
0 0 0 0 0 0 0 0 0
0 0 0 0 0 0 0 0 0
0 0 0 0 0 0 0 0 0
0 0 0 0 0 0 0 0 0
0 0 0 0 0 0 0 0 0
0 0 0 0 0 0 0 0 0
0 0 0 0 0 0 0 0 0
0 0 0 0 0 0 0 0 0
0 0 0 0 0 0 0 0 0
0 0 0 0 0 0 0 0 0
0 0 0 0 0 0 0 0 0
0 0 0 0 0 0 0 0 0
0 0 0 0 0 0 0 0 0
0 0 0 0 0 0 0 0 0
0 0 0 0 0 0 0 0 0
0 0 0 0 0 0 0 0 0
0 0 0 0 0 0 0 0 0
0 0 0 0 0 0 0 0 0
0 0 0 0 0 0 0 0 0
0 0 0 0 0 0 0 0 0
0 0 0 0 0 0 0 0 0
0 0 0 0 0 0 0 0 0
0 0 0 0 0 0 0 0 0
0 0 0 0 0 0 0 0 0
0 0 0 0 0 0 0 0 0
0 0 0 0 0 0 0 0 0
0 0 0 0 0 0 0 0 0
0 0 0 0 0 0 0 0 0
0 0 0 0 0 0 0 0 0
0 0 0 0 0 0 0 0 0
0 0 0 0 0 0 0 0 0
0 0 0 0 0 0 0 0 0
0 0 0 0 0 0 0 0 0
0 0 0 0 0 0 0 0 0
0 0 0 0 0 0 0 0 0
0 0 0 0 0 0 0 0 0
0 0 0 0 0 0 0 0 0
0 0 0 0 0 0 0 0 0
0 0 0 0 0 0 0 0 0
0 0 0 0 0 0 0 0 0
0 0 0 0 0 0 0 0 0
0 0 0 0 0 0 0 0 0
0 0 0 0 0 0 0 0 0
0 0 0 0 0 0 0 0 0
0 0 0 0 0 0 0 0 0
0 0 0 0 0 0 0 0 0
0 0 0 0 0 0 0 0 0
0 0 0 0 0 0 0 0 0
0 0 0 0 0 0 0 0 0
0 0 0 0 0 0 0 0 0
0 0 0 0 0 0 0 0 0
0 0 0 0 0 0 0 0 0
0 0 0 0 0 0 0 0 0
0 0 0 0 0 0 0 0 0
0 0 0 0 0 0 0 0 0
0 0 0 0 0 0 0 0 0
0 0 0 0 0 0 0 0 0
0 0 0 0 0 0 0 0 0
0 0 0 0 0 0 0 0 0
0 0 0 0 0 0 0 0 0
0 0 0 0 0 0 0 0 0
0 0 0 0 0 0 0 0 0
0 0 0 0 0 0 0 0 0
0 0 0 0 0 0 0 0 0
0 0 0 0 0 0 0 0 0
0 0 0 0 0 0 0 0 0
0 0 0 0 0 0 0 0 0
0 0 0 0 0 0 0 0 0
0 0 0 0 0 0 0 0 0
0 0 0 0 0 0 0 0 0
0 0 0 0 0 0 0 0 0
0 0 0 0 0 0 0 0 0
0 0 0 0 0 0 0 0 0
0 0 0 0 0 0 0 0 0
0 0 0 0 0 0 0 0 0
0 0 0 0 0 0 0 0 0
0 0 0 0 0 0 0 0 0
0 0 0 0 0 0 0 0 0
0 0 0 0 0 0 0 0 0
0 0 0 0 0 0 0 0 0
0 0 0 0 0 0 0 0 0
0 0 0 0 0 0 0 0 0
0 0 0 0 0 0 0 0 0
0 0 0 0 0 0 0 0 0
0 0 0 0 0 0 0 0 0
0 0 0 0 0 0 0 0 0
0 0 0 0 0 0 0 0 0
0 0 0 0 0 0 0 0 0
0 0 0 0 0 0 0 0 0
0 0 0 0 0 0 0 0 0
0 0 0 0 0 0 0 0 0
0 0 0 0 0 0 0 0 0
0 0 0 0 0 0 0 0 0
0 0 0 0 0 0 0 0 0
0 0 0 0 0 0 0 0 0
0 0 0 0 0 0 0 0 0
0 0 0 0 0 0 0 0 0
0 0 0 0 0 0 0 0 0
0 0 0 0 0 0 0 0 0
0 0 0 0 0 0 0 0 0
0 0 0 0 0 0 0 0 0
0 0 0 0 0 0 0 0 0
0 0 0 0 0 0 0 0 0
0 0 0 0 0 0 0 0 0
0 0 0 0 0 0 0 0 0
0 0 0 0 0 0 0 0 0
0 0 0 0 0 0 0 0 0
0 0 0 0 0 0 0 0 0
0 0 0 0 0 0 0 0 0
0 0 0 0 0 0 0 0 0
0 0 0 0 0 0 0 0 0
0 0 0 0 0 0 0 0 0
0 0 0 0 0 0 0 0 0
0 0 0 0 0 0 0 0 0
0 0 0 0 0 0 0 0 0
0 0 0 0 0 0 0 0 0
0 0 0 0 0 0 0 0 0
0 0 0 0 0 0 0 0 0
0 0 0 0 0 0 0 0 0
0 0 0 0 0 0 0 0 0
0 0 0 0 0 0 0 0 0
0 0 0 0 0 0 0 0 0
0 0 0 0 0 0 0 0 0
0 0 0 0 0 0 0 0 0
0 0 0 0 0 0 0 0 0
0 0 0 0 0 0 0 0 0
6.3895e-07 6.62795e-07 6.38673e-07 6.62202e-07 6.3895e-07 6.62795e-07 6.38673e-07 6.62202e-07 0
6.80645e-07 7.05566e-07 6.79819e-07 7.04417e-07 6.80645e-07 7.05566e-07 6.79819e-07 7.04417e-07 0
7.24201e-07 7.50189e-07 7.22812e-07 7.48466e-07 7.24201e-07 7.50189e-07 7.22812e-07 7.48466e-07 0
7.69602e-07 7.96651e-07 7.67631e-07 7.94336e-07 7.69602e-07 7.96651e-07 7.67631e-07 7.94336e-07 0
8.16825e-07 8.44893e-07 8.14256e-07 8.41973e-07 8.16825e-07 8.44893e-07 8.14256e-07 8.41973e-07 0
8.65787e-07 8.94802e-07 8.62601e-07 8.91245e-07 8.65787e-07 8.94802e-07 8.62601e-07 8.91245e-07 0
6.39768e-07 6.6418e-07 6.39242e-07 6.63323e-07 6.39768e-07 6.6418e-07 6.39242e-07 6.63323e-07 0
6.82451e-07 7.07952e-07 6.81349e-07 7.06512e-07 6.82451e-07 7.07952e-07 6.81349e-07 7.06512e-07 0
7.27018e-07 7.53603e-07 7.25326e-07 7.51564e-07 7.27018e-07 7.53603e-07 7.25326e-07 7.51564e-07 0
7.73458e-07 8.01117e-07 7.71162e-07 7.98466e-07 7.73458e-07 8.01117e-07 7.71162e-07 7.98466e-07 0
8.21746e-07 8.50447e-07 8.1883e-07 8.47163e-07 8.21746e-07 8.50447e-07 8.1883e-07 8.47163e-07 0
8.71811e-07 9.0148e-07 8.68253e-07 8.97543e-07 8.71811e-07 9.0148e-07 8.68253e-07 8.97543e-07 0
6.41072e-07 6.66067e-07 6.40256e-07 6.64914e-07 6.41072e-07 6.66067e-07 6.40256e-07 6.64914e-07 0
6.8477e-07 7.1087e-07 6.83366e-07 7.09118e-07 6.8477e-07 7.1087e-07 6.83366e-07 7.09118e-07 0
7.3038e-07 7.5758e-07 7.2837e-07 7.55213e-07 7.3038e-07 7.5758e-07 7.2837e-07 7.55213e-07 0
7.77892e-07 8.06185e-07 7.75259e-07 8.03183e-07 7.77892e-07 8.06185e-07 7.75259e-07 8.03183e-07 0
8.27285e-07 8.56644e-07 8.2401e-07 8.52986e-07 8.27285e-07 8.56644e-07 8.2401e-07 8.52986e-07 0
8.78501e-07 9.08862e-07 8.74555e-07 9.04512e-07 8.78501e-07 9.08862e-07 8.74555e-07 9.04512e-07 0
9.31446e-07 9.62795e-07 9.26793e-07 9.57717e-07 9.31446e-07 9.62795e-07 9.26793e-07 9.57717e-07 0
9.86033e-07 1.01818e-06 9.80636e-07 1.01234e-06 9.86033e-07 1.01818e-06 9.80636e-07 1.01234e-06 0
1.04221e-06 1.07574e-06 1.03604e-06 1.06913e-06 1.04221e-06 1.07574e-06 1.03604e-06 1.06913e-06 0
6.42919e-07 6.68509e-07 6.41783e-07 6.67028e-07 6.42919e-07 6.68509e-07 6.41783e-07 6.67028e-07 0
6.87654e-07 7.14368e-07 6.85917e-07 7.12275e-07 6.87654e-07 7.14368e-07 6.85917e-07 7.12275e-07 0
7.34333e-07 7.62167e-07 7.31976e-07 7.59442e-07 7.34333e-07 7.62167e-07 7.31976e-07 7.59442e-07 0
7.82949e-07 8.11897e-07 7.79951e-07 8.08517e-07 7.82949e-07 8.11897e-07 7.79951e-07 8.08517e-07 0
8.33487e-07 8.63528e-07 8.29823e-07 8.59467e-07 8.33487e-07 8.63528e-07 8.29823e-07 8.59467e-07 0
8.85898e-07 9.16979e-07 8.81539e-07 9.12201e-07 8.85898e-07 9.16979e-07 8.81539e-07 9.12201e-07 0
9.40103e-07 9.72208e-07 9.35012e-07 9.66677e-07 9.40103e-07 9.72208e-07 9.35012e-07 9.66677e-07 0
9.96011e-07 1.02895e-06 9.90151e-07 1.02263e-06 9.96011e-07 1.02895e-06 9.90151e-07 1.02263e-06 0
1.05356e-06 1.08788e-06 1.0469e-06 1.08076e-06 1.05356e-06 1.08788e-06 1.0469e-06 1.08076e-06 0
6.45362e-07 6.71558e-07 6.43876e-07 6.6972e-07 6.45362e-07 6.71558e-07 6.43876e-07 6.6972e-07 0
6.91155e-07 7.18497e-07 6.89055e-07 7.16033e-07 6.91155e-07 7.18497e-07 6.89055e-07 7.16033e-07 0
7.3893e-07 7.67414e-07 7.36195e-07 7.64301e-07 7.3893e-07 7.67414e-07 7.36195e-07 7.64301e-07 0
7.88682e-07 8.18305e-07 7.85287e-07 8.14517e-07 7.88682e-07 8.18305e-07 7.85287e-07 8.14517e-07 0
8.40401e-07 8.7115e-07 8.36319e-07 8.66656e-07 8.40401e-07 8.7115e-07 8.36319e-07 8.66656e-07 0
8.94052e-07 9.25878e-07 8.89249e-07 9.20642e-07 8.94052e-07 9.25878e-07 8.89249e-07 9.20642e-07 0
9.49562e-07 9.82451e-07 9.44e-07 9.76433e-07 9.49562e-07 9.82451e-07 9.44e-07 9.76433e-07 0
1.00684e-06 1.0406e-06 1.00048e-06 1.03376e-06 1.00684e-06 1.0406e-06 1.00048e-06 1.03376e-06 0
1.06582e-06 1.10098e-06 1.05862e-06 1.0933e-06 1.06582e-06 1.10098e-06 1.05862e-06 1.0933e-06 0
6.48451e-07 6.75268e-07 6.46585e-07 6.73042e-07 6.48451e-07 6.75268e-07 6.46585e-07 6.73042e-07 0
6.95327e-07 7.23311e-07 6.92833e-07 7.20445e-07 6.95327e-07 7.23311e-07 6.92833e-07 7.20445e-07 0
7.44223e-07 7.73376e-07 7.41079e-07 7.69843e-07 7.44223e-07 7.73376e-07 7.41079e-07 7.69843e-07 0
7.95143e-07 8.25463e-07 7.9132e-07 8.21236e-07 7.95143e-07 8.25463e-07 7.9132e-07 8.21236e-07 0
8.48082e-07 8.79562e-07 8.43551e-07 8.74606e-07 8.48082e-07 8.79562e-07 8.43551e-07 8.74606e-07 0
9.03014e-07 9.35615e-07 8.97738e-07 9.29888e-07 9.03014e-07 9.35615e-07 8.97738e-07 9.29888e-07 0
9.5988e-07 9.93584e-07 9.53815e-07 9.87045e-07 9.5988e-07 9.93584e-07 9.53815e-07 9.87045e-07 0
1.01859e-06 1.05321e-06 1.01169e-06 1.04581e-06 1.01859e-06 1.05321e-06 1.01169e-06 1.04581e-06 0
1.07906e-06 1.1151e-06 1.07129e-06 1.10682e-06 1.07906e-06 1.1151e-06 1.07129e-06 1.10682e-06 0
6.52234e-07 6.79687e-07 6.49961e-07 6.77046e-07 6.52234e-07 6.79687e-07 6.49961e-07 6.77046e-07 0
7.00219e-07 7.28862e-07 6.97303e-07 7.25564e-07 7.00219e-07 7.28862e-07 6.97303e-07 7.25564e-07 0
7.50267e-07 7.80107e-07 7.46683e-07 7.76123e-07 7.50267e-07 7.80107e-07 7.46683e-07 7.76123e-07 0
8.02388e-07 8.33426e-07 7.98106e-07 8.28727e-07 8.02388e-07 8.33426e-07 7.98106e-07 8.28727e-07 0
8.56584e-07 8.88821e-07 8.51571e-07 8.83369e-07 8.56584e-07 8.88821e-07 8.51571e-07 8.83369e-07 0
9.12842e-07 9.46245e-07 9.07059e-07 9.39996e-07 9.12842e-07 9.46245e-07 9.07059e-07 9.39996e-07 0
9.71113e-07 1.00567e-06 9.64513e-07 9.98573e-07 9.71113e-07 1.00567e-06 9.64513e-07 9.98573e-07 0
1.03131e-06 1.06683e-06 1.02384e-06 1.05884e-06 1.03131e-06 1.06683e-06 1.02384e-06 1.05884e-06 0
1.09335e-06 1.1303e-06 1.08497e-06 1.12139e-06 1.09335e-06 1.1303e-06 1.08497e-06 1.12139e-06 0
1.15733e-06 1.19425e-06 1.14801e-06 1.18433e-06 1.15733e-06 1.19425e-06 1.14801e-06 1.18433e-06 0
6.09707e-07 6.3663e-07 6.07624e-07 6.34186e-07 6.09707e-07 6.3663e-07 6.07624e-07 6.34186e-07 0
6.56769e-07 6.84866e-07 6.54056e-07 6.8178e-07 6.56769e-07 6.84866e-07 6.54056e-07 6.8178e-07 0
7.05881e-07 7.35202e-07 7.02515e-07 7.31442e-07 7.05881e-07 7.35202e-07 7.02515e-07 7.31442e-07 0
7.57114e-07 7.87661e-07 7.53059e-07 7.83196e-07 7.57114e-07 7.87661e-07 7.53059e-07 7.83196e-07 0
8.10472e-07 8.42251e-07 8.05698e-07 8.37047e-07 8.10472e-07 8.42251e-07 8.05698e-07 8.37047e-07 0
8.65962e-07 8.98976e-07 8.60437e-07 8.93e-07 8.65962e-07 8.98976e-07 8.60437e-07 8.93e-07 0
9.23588e-07 9.57829e-07 9.17268e-07 9.51021e-07 9.23588e-07 9.57829e-07 9.17268e-07 9.51021e-07 0
9.83327e-07 1.01877e-06 9.76152e-07 1.01108e-06 9.83327e-07 1.01877e-06 9.76152e-07 1.01108e-06 0
1.04508e-06 1.08154e-06 1.037e-06 1.07292e-06 1.04508e-06 1.08154e-06 1.037e-06 1.07292e-06 0
1.10876e-06 1.14668e-06 1.09972e-06 1.13708e-06 1.10876e-06 1.14668e-06 1.09972e-06 1.13708e-06 0
1.17445e-06 1.21241e-06 1.16442e-06 1.20178e-06 1.17445e-06 1.21241e-06 1.16442e-06 1.20178e-06 0
1.2429e-06 1.28848e-06 1.23185e-06 1.27692e-06 1.2429e-06 1.28848e-06 1.23185e-06 1.27692e-06 0
6.62104e-07 6.90863e-07 6.58922e-07 6.87297e-07 6.62104e-07 6.90863e-07 6.58922e-07 6.87297e-07 0
7.1237e-07 7.42375e-07 7.08519e-07 7.38129e-07 7.1237e-07 7.42375e-07 7.08519e-07 7.38129e-07 0
7.64808e-07 7.96097e-07 7.60259e-07 7.91115e-07 7.64808e-07 7.96097e-07 7.60259e-07 7.91115e-07 0
8.19457e-07 8.51996e-07 8.14155e-07 8.46253e-07 8.19457e-07 8.51996e-07 8.14155e-07 8.46253e-07 0
8.76277e-07 9.10087e-07 8.70204e-07 9.03552e-07 8.76277e-07 9.10087e-07 8.70204e-07 9.03552e-07 0
9.353e-07 9.7039e-07 9.28417e-07 9.63016e-07 9.353e-07 9.7039e-07 9.28417e-07 9.63016e-07 0
9.9654e-07 1.03292e-06 9.88787e-07 1.02462e-06 9.9654e-07 1.03292e-06 9.88787e-07 1.02462e-06 0
1.05993e-06 1.0974e-06 1.05122e-06 1.0881e-06 1.05993e-06 1.0974e-06 1.05122e-06 1.0881e-06 0
1.12536e-06 1.16432e-06 1.11563e-06 1.15398e-06 1.12536e-06 1.16432e-06 1.11563e-06 1.15398e-06 0
1.19288e-06 1.23195e-06 1.18207e-06 1.2205e-06 1.19288e-06 1.23195e-06 1.18207e-06 1.2205e-06 0
1.26317e-06 1.30968e-06 1.25129e-06 1.29726e-06 1.26317e-06 1.30968e-06 1.25129e-06 1.29726e-06 0
0 0 0 0 0 0 0 0 0
0 0 0 0 0 0 0 0 0
0 0 0 0 0 0 0 0 0
0 0 0 0 0 0 0 0 0
0 0 0 0 0 0 0 0 0
0 0 0 0 0 0 0 0 0
0 0 0 0 0 0 0 0 0
0 0 0 0 0 0 0 0 0
0 0 0 0 0 0 0 0 0
0 0 0 0 0 0 0 0 0
0 0 0 0 0 0 0 0 0
0 0 0 0 0 0 0 0 0
0 0 0 0 0 0 0 0 0
0 0 0 0 0 0 0 0 0
0 0 0 0 0 0 0 0 0
0 0 0 0 0 0 0 0 0
0 0 0 0 0 0 0 0 0
0 0 0 0 0 0 0 0 0
0 0 0 0 0 0 0 0 0
0 0 0 0 0 0 0 0 0
0 0 0 0 0 0 0 0 0
0 0 0 0 0 0 0 0 0
0 0 0 0 0 0 0 0 0
0 0 0 0 0 0 0 0 0
0 0 0 0 0 0 0 0 0
0 0 0 0 0 0 0 0 0
0 0 0 0 0 0 0 0 0
0 0 0 0 0 0 0 0 0
0 0 0 0 0 0 0 0 0
0 0 0 0 0 0 0 0 0
0 0 0 0 0 0 0 0 0
0 0 0 0 0 0 0 0 0
0 0 0 0 0 0 0 0 0
0 0 0 0 0 0 0 0 0
0 0 0 0 0 0 0 0 0
0 0 0 0 0 0 0 0 0
0 0 0 0 0 0 0 0 0
0 0 0 0 0 0 0 0 0
0 0 0 0 0 0 0 0 0
0 0 0 0 0 0 0 0 0
0 0 0 0 0 0 0 0 0
0 0 0 0 0 0 0 0 0
0 0 0 0 0 0 0 0 0
0 0 0 0 0 0 0 0 0
0 0 0 0 0 0 0 0 0
0 0 0 0 0 0 0 0 0
0 0 0 0 0 0 0 0 0
0 0 0 0 0 0 0 0 0
0 0 0 0 0 0 0 0 0
0 0 0 0 0 0 0 0 0
0 0 0 0 0 0 0 0 0
0 0 0 0 0 0 0 0 0
0 0 0 0 0 0 0 0 0
0 0 0 0 0 0 0 0 0
0 0 0 0 0 0 0 0 0
0 0 0 0 0 0 0 0 0
0 0 0 0 0 0 0 0 0
0 0 0 0 0 0 0 0 0
0 0 0 0 0 0 0 0 0
0 0 0 0 0 0 0 0 0
0 0 0 0 0 0 0 0 0
0 0 0 0 0 0 0 0 0
0 0 0 0 0 0 0 0 0
0 0 0 0 0 0 0 0 0
0 0 0 0 0 0 0 0 0
0 0 0 0 0 0 0 0 0
0 0 0 0 0 0 0 0 0
0 0 0 0 0 0 0 0 0
0 0 0 0 0 0 0 0 0
0 0 0 0 0 0 0 0 0
0 0 0 0 0 0 0 0 0
0 0 0 0 0 0 0 0 0
0 0 0 0 0 0 0 0 0
0 0 0 0 0 0 0 0 0
0 0 0 0 0 0 0 0 0
0 0 0 0 0 0 0 0 0
0 0 0 0 0 0 0 0 0
0 0 0 0 0 0 0 0 0
0 0 0 0 0 0 0 0 0
0 0 0 0 0 0 0 0 0
0 0 0 0 0 0 0 0 0
5.33596e-07 5.51311e-07 5.30923e-07 5.4815e-07 5.33596e-07 5.51311e-07 5.30923e-07 5.4815e-07 0
5.64386e-07 5.82388e-07 5.60865e-07 5.78369e-07 5.64386e-07 5.82388e-07 5.60865e-07 5.78369e-07 0
5.95625e-07 6.13784e-07 5.91237e-07 6.08882e-07 5.95625e-07 6.13784e-07 5.91237e-07 6.08882e-07 0
6.27087e-07 6.45267e-07 6.21805e-07 6.3946e-07 6.27087e-07 6.45267e-07 6.21805e-07 6.3946e-07 0
6.58527e-07 6.76568e-07 6.52334e-07 6.69846e-07 6.58527e-07 6.76568e-07 6.52334e-07 6.69846e-07 0
6.89667e-07 7.07407e-07 6.82556e-07 6.99763e-07 6.89667e-07 7.07407e-07 6.82556e-07 6.99763e-07 0
5.38648e-07 5.57235e-07 5.35664e-07 5.53744e-07 5.38648e-07 5.57235e-07 5.35664e-07 5.53744e-07 0
5.70955e-07 5.89845e-07 5.67088e-07 5.85461e-07 5.70955e-07 5.89845e-07 5.67088e-07 5.85461e-07 0
6.0374e-07 6.22807e-07 5.98974e-07 6.17514e-07 6.0374e-07 6.22807e-07 5.98974e-07 6.17514e-07 0
6.36781e-07 6.55888e-07 6.31098e-07 6.49668e-07 6.36781e-07 6.55888e-07 6.31098e-07 6.49668e-07 0
6.69833e-07 6.8882e-07 6.63215e-07 6.81652e-07 6.69833e-07 6.8882e-07 6.63215e-07 6.81652e-07 0
7.02612e-07 7.213e-07 6.95041e-07 7.13177e-07 7.02612e-07 7.213e-07 6.95041e-07 7.13177e-07 0
5.44296e-07 5.63766e-07 5.40959e-07 5.59918e-07 5.44296e-07 5.63766e-07 5.40959e-07 5.59918e-07 0
5.7814e-07 5.97937e-07 5.73914e-07 5.93186e-07 5.7814e-07 5.97937e-07 5.73914e-07 5.93186e-07 0
6.12504e-07 6.32502e-07 6.07364e-07 6.26822e-07 6.12504e-07 6.32502e-07 6.07364e-07 6.26822e-07 0
6.47167e-07 6.6723e-07 6.41086e-07 6.60592e-07 6.47167e-07 6.6723e-07 6.41086e-07 6.60592e-07 0
6.81884e-07 7.01852e-07 6.74834e-07 6.94232e-07 6.81884e-07 7.01852e-07 6.74834e-07 6.94232e-07 0
7.16369e-07 7.36057e-07 7.08326e-07 7.27431e-07 7.16369e-07 7.36057e-07 7.08326e-07 7.27431e-07 0
7.50305e-07 7.69536e-07 7.41252e-07 7.59902e-07 7.50305e-07 7.69536e-07 7.41252e-07 7.59902e-07 0
7.83351e-07 8.01857e-07 7.73296e-07 7.91234e-07 7.83351e-07 8.01857e-07 7.73296e-07 7.91234e-07 0
8.15147e-07 8.32946e-07 8.04125e-07 8.21403e-07 8.15147e-07 8.32946e-07 8.04125e-07 8.21403e-07 0
5.50588e-07 5.70944e-07 5.46874e-07 5.66717e-07 5.50588e-07 5.70944e-07 5.46874e-07 5.66717e-07 0
5.85978e-07 6.06694e-07 5.8137e-07 6.01554e-07 5.85978e-07 6.06694e-07 5.8137e-07 6.01554e-07 0
6.21946e-07 6.42895e-07 6.1641e-07 6.36808e-07 6.21946e-07 6.42895e-07 6.1641e-07 6.36808e-07 0
6.58268e-07 6.79314e-07 6.5177e-07 6.72245e-07 6.58268e-07 6.79314e-07 6.5177e-07 6.72245e-07 0
6.947e-07 7.15682e-07 6.87205e-07 7.07599e-07 6.947e-07 7.15682e-07 6.87205e-07 7.07599e-07 0
7.3095e-07 7.51674e-07 7.2243e-07 7.42553e-07 7.3095e-07 7.51674e-07 7.2243e-07 7.42553e-07 0
7.66679e-07 7.86944e-07 7.57117e-07 7.76782e-07 7.66679e-07 7.86944e-07 7.57117e-07 7.76782e-07 0
8.01508e-07 8.21027e-07 7.9091e-07 8.0984e-07 8.01508e-07 8.21027e-07 7.9091e-07 8.0984e-07 0
8.35039e-07 8.53798e-07 8.2343e-07 8.41627e-07 8.35039e-07 8.53798e-07 8.2343e-07 8.41627e-07 0
5.57574e-07 5.78815e-07 5.53453e-07 5.74183e-07 5.57574e-07 5.78815e-07 5.53453e-07 5.74183e-07 0
5.94513e-07 6.16156e-07 5.89497e-07 6.10604e-07 5.94513e-07 6.16156e-07 5.89497e-07 6.10604e-07 0
6.32101e-07 6.54017e-07 6.26148e-07 6.47504e-07 6.32101e-07 6.54017e-07 6.26148e-07 6.47504e-07 0
6.70113e-07 6.92169e-07 6.63181e-07 6.84651e-07 6.70113e-07 6.92169e-07 6.63181e-07 6.84651e-07 0
7.08305e-07 7.30333e-07 7.00352e-07 7.21773e-07 7.08305e-07 7.30333e-07 7.00352e-07 7.21773e-07 0
7.46374e-07 7.68169e-07 7.37365e-07 7.58537e-07 7.46374e-07 7.68169e-07 7.37365e-07 7.58537e-07 0
7.8396e-07 8.05304e-07 7.73871e-07 7.94586e-07 7.8396e-07 8.05304e-07 7.73871e-07 7.94586e-07 0
8.20653e-07 8.41242e-07 8.09477e-07 8.29441e-07 8.20653e-07 8.41242e-07 8.09477e-07 8.29441e-07 0
8.5602e-07 8.75804e-07 8.43771e-07 8.62956e-07 8.5602e-07 8.75804e-07 8.43771e-07 8.62956e-07 0
5.65298e-07 5.87423e-07 5.60745e-07 5.8236e-07 5.65298e-07 5.87423e-07 5.60745e-07 5.8236e-07 0
6.03785e-07 6.2636e-07 5.98338e-07 6.20375e-07 6.03785e-07 6.2636e-07 5.98338e-07 6.20375e-07 0
6.43005e-07 6.65903e-07 6.36615e-07 6.58945e-07 6.43005e-07 6.65903e-07 6.36615e-07 6.58945e-07 0
6.82735e-07 7.05821e-07 6.75351e-07 6.97839e-07 6.82735e-07 7.05821e-07 6.75351e-07 6.97839e-07 0
7.22727e-07 7.45828e-07 7.14299e-07 7.36777e-07 7.22727e-07 7.45828e-07 7.14299e-07 7.36777e-07 0
7.62669e-07 7.85573e-07 7.53153e-07 7.75413e-07 7.62669e-07 7.85573e-07 7.53153e-07 7.75413e-07 0
8.02182e-07 8.24653e-07 7.91546e-07 8.1336e-07 8.02182e-07 8.24653e-07 7.91546e-07 8.1336e-07 0
8.40829e-07 8.62548e-07 8.29054e-07 8.50113e-07 8.40829e-07 8.62548e-07 8.29054e-07 8.50113e-07 0
8.78137e-07 8.99007e-07 8.65228e-07 8.85464e-07 8.78137e-07 8.99007e-07 8.65228e-07 8.85464e-07 0
5.7381e-07 5.96812e-07 5.68796e-07 5.91293e-07 5.7381e-07 5.96812e-07 5.68796e-07 5.91293e-07 0
6.13837e-07 6.37346e-07 6.07935e-07 6.30904e-07 6.13837e-07 6.37346e-07 6.07935e-07 6.30904e-07 0
6.54696e-07 6.78588e-07 6.47847e-07 6.71164e-07 6.54696e-07 6.78588e-07 6.47847e-07 6.71164e-07 0
6.96167e-07 7.20301e-07 6.88311e-07 7.11837e-07 6.96167e-07 7.20301e-07 6.88311e-07 7.11837e-07 0
7.37994e-07 7.62196e-07 7.29074e-07 7.52638e-07 7.37994e-07 7.62196e-07 7.29074e-07 7.52638e-07 0
7.79859e-07 8.03912e-07 7.69823e-07 7.93208e-07 7.79859e-07 8.03912e-07 7.69823e-07 7.93208e-07 0
8.21373e-07 8.45025e-07 8.10173e-07 8.33137e-07 8.21373e-07 8.45025e-07 8.10173e-07 8.33137e-07 0
8.62069e-07 8.84981e-07 8.49675e-07 8.71891e-07 8.62069e-07 8.84981e-07 8.49675e-07 8.71891e-07 0
9.01432e-07 9.23467e-07 8.87838e-07 9.0919e-07 9.01432e-07 9.23467e-07 8.87838e-07 9.0919e-07 0
9.38933e-07 9.59145e-07 9.24165e-07 9.43715e-07 9.38933e-07 9.59145e-07 9.24165e-07 9.43715e-07 0
5.42601e-07 5.65862e-07 5.37938e-07 5.60742e-07 5.42601e-07 5.65862e-07 5.37938e-07 5.60742e-07 0
5.83122e-07 6.07015e-07 5.77645e-07 6.01022e-07 5.83122e-07 6.07015e-07 5.77645e-07 6.01022e-07 0
6.24708e-07 6.49154e-07 6.18328e-07 6.42233e-07 6.24708e-07 6.49154e-07 6.18328e-07 6.42233e-07 0
6.67213e-07 6.92106e-07 6.59883e-07 6.84196e-07 6.67213e-07 6.92106e-07 6.59883e-07 6.84196e-07 0
7.10441e-07 7.3564e-07 7.02094e-07 7.26676e-07 7.10441e-07 7.3564e-07 7.02094e-07 7.26676e-07 0
7.54134e-07 7.79462e-07 7.44706e-07 7.69381e-07 7.54134e-07 7.79462e-07 7.44706e-07 7.69381e-07 0
7.97972e-07 8.23214e-07 7.874e-07 8.1195e-07 7.97972e-07 8.23214e-07 7.874e-07 8.1195e-07 0
8.41563e-07 8.66452e-07 8.29783e-07 8.5395e-07 8.41563e-07 8.66452e-07 8.29783e-07 8.5395e-07 0
8.84409e-07 9.08578e-07 8.71375e-07 8.94811e-07 8.84409e-07 9.08578e-07 8.71375e-07 8.94811e-07 0
9.25941e-07 9.49208e-07 9.11642e-07 9.34189e-07 9.25941e-07 9.49208e-07 9.11642e-07 9.34189e-07 0
9.65569e-07 9.8699e-07 9.50027e-07 9.7074e-07 9.65569e-07 9.8699e-07 9.50027e-07 9.7074e-07 0
1.00325e-06 1.02635e-06 9.86546e-07 1.00912e-06 1.00325e-06 1.02635e-06 9.86546e-07 1.00912e-06 0
5.9334e-07 6.18094e-07 5.87324e-07 6.11586e-07 5.9334e-07 6.18094e-07 5.87324e-07 6.11586e-07 0
6.36443e-07 6.61821e-07 6.29558e-07 6.54399e-07 6.36443e-07 6.61821e-07 6.29558e-07 6.54399e-07 0
6.80594e-07 7.06508e-07 6.7276e-07 6.98082e-07 6.80594e-07 7.06508e-07 6.7276e-07 6.98082e-07 0
7.25612e-07 7.51891e-07 7.1674e-07 7.42394e-07 7.25612e-07 7.51891e-07 7.1674e-07 7.42394e-07 0
7.71199e-07 7.9767e-07 7.6123e-07 7.87039e-07 7.71199e-07 7.9767e-07 7.6123e-07 7.87039e-07 0
8.17046e-07 8.43511e-07 8.05914e-07 8.31668e-07 8.17046e-07 8.43511e-07 8.05914e-07 8.31668e-07 0
8.62777e-07 8.88947e-07 8.50402e-07 8.75827e-07 8.62777e-07 8.88947e-07 8.50402e-07 8.75827e-07 0
9.07862e-07 9.33366e-07 8.94184e-07 9.18908e-07 9.07862e-07 9.33366e-07 8.94184e-07 9.18908e-07 0
9.51702e-07 9.76295e-07 9.36674e-07 9.6049e-07 9.51702e-07 9.76295e-07 9.36674e-07 9.6049e-07 0
9.9362e-07 1.01635e-06 9.77249e-07 9.9921e-07 9.9362e-07 1.01635e-06 9.77249e-07 9.9921e-07 0
1.03344e-06 1.05752e-06 1.01581e-06 1.03932e-06 1.03344e-06 1.05752e-06 1.01581e-06 1.03932e-06 0
0 0 0 0 0 0 0 0 0
0 0 0 0 0 0 0 0 0
0 0 0 0 0 0 0 0 0
0 0 0 0 0 0 0 0 0
0 0 0 0 0 0 0 0 0
0 0 0 0 0 0 0 0 0
0 0 0 0 0 0 0 0 0
0 0 0 0 0 0 0 0 0
0 0 0 0 0 0 0 0 0
0 0 0 0 0 0 0 0 0
0 0 0 0 0 0 0 0 0
0 0 0 0 0 0 0 0 0
0 0 0 0 0 0 0 0 0
0 0 0 0 0 0 0 0 0
0 0 0 0 0 0 0 0 0
0 0 0 0 0 0 0 0 0
0 0 0 0 0 0 0 0 0
0 0 0 0 0 0 0 0 0
0 0 0 0 0 0 0 0 0
0 0 0 0 0 0 0 0 0
0 0 0 0 0 0 0 0 0
0 0 0 0 0 0 0 0 0
0 0 0 0 0 0 0 0 0
0 0 0 0 0 0 0 0 0
0 0 0 0 0 0 0 0 0
0 0 0 0 0 0 0 0 0
0 0 0 0 0 0 0 0 0
0 0 0 0 0 0 0 0 0
0 0 0 0 0 0 0 0 0
0 0 0 0 0 0 0 0 0
0 0 0 0 0 0 0 0 0
0 0 0 0 0 0 0 0 0
0 0 0 0 0 0 0 0 0
0 0 0 0 0 0 0 0 0
0 0 0 0 0 0 0 0 0
0 0 0 0 0 0 0 0 0
0 0 0 0 0 0 0 0 0
0 0 0 0 0 0 0 0 0
0 0 0 0 0 0 0 0 0
0 0 0 0 0 0 0 0 0
0 0 0 0 0 0 0 0 0
0 0 0 0 0 0 0 0 0
0 0 0 0 0 0 0 0 0
0 0 0 0 0 0 0 0 0
0 0 0 0 0 0 0 0 0
0 0 0 0 0 0 0 0 0
0 0 0 0 0 0 0 0 0
0 0 0 0 0 0 0 0 0
0 0 0 0 0 0 0 0 0
0 0 0 0 0 0 0 0 0
0 0 0 0 0 0 0 0 0
0 0 0 0 0 0 0 0 0
0 0 0 0 0 0 0 0 0
0 0 0 0 0 0 0 0 0
0 0 0 0 0 0 0 0 0
0 0 0 0 0 0 0 0 0
0 0 0 0 0 0 0 0 0
0 0 0 0 0 0 0 0 0
0 0 0 0 0 0 0 0 0
0 0 0 0 0 0 0 0 0
0 0 0 0 0 0 0 0 0
0 0 0 0 0 0 0 0 0
0 0 0 0 0 0 0 0 0
0 0 0 0 0 0 0 0 0
0 0 0 0 0 0 0 0 0
0 0 0 0 0 0 0 0 0
0 0 0 0 0 0 0 0 0
0 0 0 0 0 0 0 0 0
0 0 0 0 0 0 0 0 0
0 0 0 0 0 0 0 0 0
0 0 0 0 0 0 0 0 0
0 0 0 0 0 0 0 0 0
0 0 0 0 0 0 0 0 0
0 0 0 0 0 0 0 0 0
0 0 0 0 0 0 0 0 0
0 0 0 0 0 0 0 0 0
0 0 0 0 0 0 0 0 0
0 0 0 0 0 0 0 0 0
0 0 0 0 0 0 0 0 0
0 0 0 0 0 0 0 0 0
0 0 0 0 0 0 0 0 0
0 0 0 0 0 0 0 0 0
0 0 0 0 0 0 0 0 0
0 0 0 0 0 0 0 0 0
0 0 0 0 0 0 0 0 0
0 0 0 0 0 0 0 0 0
0 0 0 0 0 0 0 0 0
0 0 0 0 0 0 0 0 0
0 0 0 0 0 0 0 0 0
0 0 0 0 0 0 0 0 0
0 0 0 0 0 0 0 0 0
0 0 0 0 0 0 0 0 0
0 0 0 0 0 0 0 0 0
0 0 0 0 0 0 0 0 0
0 0 0 0 0 0 0 0 0
0 0 0 0 0 0 0 0 0
0 0 0 0 0 0 0 0 0
0 0 0 0 0 0 0 0 0
0 0 0 0 0 0 0 0 0
0 0 0 0 0 0 0 0 0
0 0 0 0 0 0 0 0 0
0 0 0 0 0 0 0 0 0
0 0 0 0 0 0 0 0 0
0 0 0 0 0 0 0 0 0
0 0 0 0 0 0 0 0 0
0 0 0 0 0 0 0 0 0
0 0 0 0 0 0 0 0 0
0 0 0 0 0 0 0 0 0
0 0 0 0 0 0 0 0 0
0 0 0 0 0 0 0 0 0
0 0 0 0 0 0 0 0 0
0 0 0 0 0 0 0 0 0
0 0 0 0 0 0 0 0 0
0 0 0 0 0 0 0 0 0
0 0 0 0 0 0 0 0 0
0 0 0 0 0 0 0 0 0
0 0 0 0 0 0 0 0 0
0 0 0 0 0 0 0 0 0
0 0 0 0 0 0 0 0 0
0 0 0 0 0 0 0 0 0
0 0 0 0 0 0 0 0 0
0 0 0 0 0 0 0 0 0
0 0 0 0 0 0 0 0 0
0 0 0 0 0 0 0 0 0
0 0 0 0 0 0 0 0 0
0 0 0 0 0 0 0 0 0
0 0 0 0 0 0 0 0 0
0 0 0 0 0 0 0 0 0
0 0 0 0 0 0 0 0 0
0 0 0 0 0 0 0 0 0
0 0 0 0 0 0 0 0 0
0 0 0 0 0 0 0 0 0
0 0 0 0 0 0 0 0 0
0 0 0 0 0 0 0 0 0
0 0 0 0 0 0 0 0 0
0 0 0 0 0 0 0 0 0
0 0 0 0 0 0 0 0 0
0 0 0 0 0 0 0 0 0
0 0 0 0 0 0 0 0 0
0 0 0 0 0 0 0 0 0
0 0 0 0 0 0 0 0 0
0 0 0 0 0 0 0 0 0
0 0 0 0 0 0 0 0 0
0 0 0 0 0 0 0 0 0
0 0 0 0 0 0 0 0 0
0 0 0 0 0 0 0 0 0
0 0 0 0 0 0 0 0 0
0 0 0 0 0 0 0 0 0
0 0 0 0 0 0 0 0 0
0 0 0 0 0 0 0 0 0
0 0 0 0 0 0 0 0 0
0 0 0 0 0 0 0 0 0
0 0 0 0 0 0 0 0 0
0 0 0 0 0 0 0 0 0
0 0 0 0 0 0 0 0 0
0 0 0 0 0 0 0 0 0
0 0 0 0 0 0 0 0 0
0 0 0 0 0 0 0 0 0
0 0 0 0 0 0 0 0 0
0 0 0 0 0 0 0 0 0
0 0 0 0 0 0 0 0 0
0 0 0 0 0 0 0 0 0
0 0 0 0 0 0 0 0 0
0 0 0 0 0 0 0 0 0
0 0 0 0 0 0 0 0 0
0 0 0 0 0 0 0 0 0
0 0 0 0 0 0 0 0 0
0 0 0 0 0 0 0 0 0
0 0 0 0 0 0 0 0 0
0 0 0 0 0 0 0 0 0
0 0 0 0 0 0 0 0 0
0 0 0 0 0 0 0 0 0
0 0 0 0 0 0 0 0 0
0 0 0 0 0 0 0 0 0
0 0 0 0 0 0 0 0 0
0 0 0 0 0 0 0 0 0
0 0 0 0 0 0 0 0 0
0 0 0 0 0 0 0 0 0
0 0 0 0 0 0 0 0 0
0 0 0 0 0 0 0 0 0
0 0 0 0 0 0 0 0 0
0 0 0 0 0 0 0 0 0
0 0 0 0 0 0 0 0 0
0 0 0 0 0 0 0 0 0
0 0 0 0 0 0 0 0 0
0 0 0 0 0 0 0 0 0
0 0 0 0 0 0 0 0 0
0 0 0 0 0 0 0 0 0
0 0 0 0 0 0 0 0 0
0 0 0 0 0 0 0 0 0
0 0 0 0 0 0 0 0 0
0 0 0 0 0 0 0 0 0
0 0 0 0 0 0 0 0 0
0 0 0 0 0 0 0 0 0
0 0 0 0 0 0 0 0 0
0 0 0 0 0 0 0 0 0
0 0 0 0 0 0 0 0 0
0 0 0 0 0 0 0 0 0
0 0 0 0 0 0 0 0 0
0 0 0 0 0 0 0 0 0
0 0 0 0 0 0 0 0 0
0 0 0 0 0 0 0 0 0
0 0 0 0 0 0 0 0 0
0 0 0 0 0 0 0 0 0
0 0 0 0 0 0 0 0 0
0 0 0 0 0 0 0 0 0
0 0 0 0 0 0 0 0 0
0 0 0 0 0 0 0 0 0
0 0 0 0 0 0 0 0 0
0 0 0 0 0 0 0 0 0
0 0 0 0 0 0 0 0 0
0 0 0 0 0 0 0 0 0
0 0 0 0 0 0 0 0 0
0 0 0 0 0 0 0 0 0
0 0 0 0 0 0 0 0 0
0 0 0 0 0 0 0 0 0
0 0 0 0 0 0 0 0 0
0 0 0 0 0 0 0 0 0
0 0 0 0 0 0 0 0 0
0 0 0 0 0 0 0 0 0
0 0 0 0 0 0 0 0 0
0 0 0 0 0 0 0 0 0
0 0 0 0 0 0 0 0 0
0 0 0 0 0 0 0 0 0
0 0 0 0 0 0 0 0 0
0 0 0 0 0 0 0 0 0
0 0 0 0 0 0 0 0 0
0 0 0 0 0 0 0 0 0
0 0 0 0 0 0 0 0 0
0 0 0 0 0 0 0 0 0
0 0 0 0 0 0 0 0 0
0 0 0 0 0 0 0 0 0
0 0 0 0 0 0 0 0 0
0 0 0 0 0 0 0 0 0
0 0 0 0 0 0 0 0 0
0 0 0 0 0 0 0 0 0
0 0 0 0 0 0 0 0 0
0 0 0 0 0 0 0 0 0
0 0 0 0 0 0 0 0 0
0 0 0 0 0 0 0 0 0
0 0 0 0 0 0 0 0 0
0 0 0 0 0 0 0 0 0
0 0 0 0 0 0 0 0 0
0 0 0 0 0 0 0 0 0
0 0 0 0 0 0 0 0 0
0 0 0 0 0 0 0 0 0
0 0 0 0 0 0 0 0 0
0 0 0 0 0 0 0 0 0
0 0 0 0 0 0 0 0 0
0 0 0 0 0 0 0 0 0
0 0 0 0 0 0 0 0 0
0 0 0 0 0 0 0 0 0
0 0 0 0 0 0 0 0 0
0 0 0 0 0 0 0 0 0
0 0 0 0 0 0 0 0 0
0 0 0 0 0 0 0 0 0
0 0 0 0 0 0 0 0 0
0 0 0 0 0 0 0 0 0
0 0 0 0 0 0 0 0 0
0 0 0 0 0 0 0 0 0
0 0 0 0 0 0 0 0 0
0 0 0 0 0 0 0 0 0
0 0 0 0 0 0 0 0 0
0 0 0 0 0 0 0 0 0
0 0 0 0 0 0 0 0 0
0 0 0 0 0 0 0 0 0
0 0 0 0 0 0 0 0 0
0 0 0 0 0 0 0 0 0
0 0 0 0 0 0 0 0 0
0 0 0 0 0 0 0 0 0
0 0 0 0 0 0 0 0 0
0 0 0 0 0 0 0 0 0
0 0 0 0 0 0 0 0 0
0 0 0 0 0 0 0 0 0
0 0 0 0 0 0 0 0 0
0 0 0 0 0 0 0 0 0
0 0 0 0 0 0 0 0 0
0 0 0 0 0 0 0 0 0
0 0 0 0 0 0 0 0 0
0 0 0 0 0 0 0 0 0
0 0 0 0 0 0 0 0 0
0 0 0 0 0 0 0 0 0
0 0 0 0 0 0 0 0 0
0 0 0 0 0 0 0 0 0
0 0 0 0 0 0 0 0 0
0 0 0 0 0 0 0 0 0
0 0 0 0 0 0 0 0 0
0 0 0 0 0 0 0 0 0
0 0 0 0 0 0 0 0 0
0 0 0 0 0 0 0 0 0
0 0 0 0 0 0 0 0 0
0 0 0 0 0 0 0 0 0
0 0 0 0 0 0 0 0 0
0 0 0 0 0 0 0 0 0
0 0 0 0 0 0 0 0 0
0 0 0 0 0 0 0 0 0
0 0 0 0 0 0 0 0 0
0 0 0 0 0 0 0 0 0
0 0 0 0 0 0 0 0 0
0 0 0 0 0 0 0 0 0
0 0 0 0 0 0 0 0 0
0 0 0 0 0 0 0 0 0
0 0 0 0 0 0 0 0 0
0 0 0 0 0 0 0 0 0
0 0 0 0 0 0 0 0 0
0 0 0 0 0 0 0 0 0
0 0 0 0 0 0 0 0 0
0 0 0 0 0 0 0 0 0
0 0 0 0 0 0 0 0 0
0 0 0 0 0 0 0 0 0
0 0 0 0 0 0 0 0 0
0 0 0 0 0 0 0 0 0
0 0 0 0 0 0 0 0 0
0 0 0 0 0 0 0 0 0
0 0 0 0 0 0 0 0 0
0 0 0 0 0 0 0 0 0
0 0 0 0 0 0 0 0 0
0 0 0 0 0 0 0 0 0
0 0 0 0 0 0 0 0 0
0 0 0 0 0 0 0 0 0
0 0 0 0 0 0 0 0 0
0 0 0 0 0 0 0 0 0
0 0 0 0 0 0 0 0 0
0 0 0 0 0 0 0 0 0
0 0 0 0 0 0 0 0 0
0 0 0 0 0 0 0 0 0
0 0 0 0 0 0 0 0 0
0 0 0 0 0 0 0 0 0
0 0 0 0 0 0 0 0 0
0 0 0 0 0 0 0 0 0
0 0 0 0 0 0 0 0 0
0 0 0 0 0 0 0 0 0
0 0 0 0 0 0 0 0 0
0 0 0 0 0 0 0 0 0
0 0 0 0 0 0 0 0 0
0 0 0 0 0 0 0 0 0
0 0 0 0 0 0 0 0 0
0 0 0 0 0 0 0 0 0
0 0 0 0 0 0 0 0 0
0 0 0 0 0 0 0 0 0
0 0 0 0 0 0 0 0 0
0 0 0 0 0 0 0 0 0
0 0 0 0 0 0 0 0 0
0 0 0 0 0 0 0 0 0
0 0 0 0 0 0 0 0 0
0 0 0 0 0 0 0 0 0
0 0 0 0 0 0 0 0 0
0 0 0 0 0 0 0 0 0
0 0 0 0 0 0 0 0 0
0 0 0 0 0 0 0 0 0
0 0 0 0 0 0 0 0 0
0 0 0 0 0 0 0 0 0
0 0 0 0 0 0 0 0 0
0 0 0 0 0 0 0 0 0
0 0 0 0 0 0 0 0 0
0 0 0 0 0 0 0 0 0
0 0 0 0 0 0 0 0 0
0 0 0 0 0 0 0 0 0
0 0 0 0 0 0 0 0 0
0 0 0 0 0 0 0 0 0
0 0 0 0 0 0 0 0 0
0 0 0 0 0 0 0 0 0
0 0 0 0 0 0 0 0 0
0 0 0 0 0 0 0 0 0
0 0 0 0 0 0 0 0 0
0 0 0 0 0 0 0 0 0
0 0 0 0 0 0 0 0 0
0 0 0 0 0 0 0 0 0
0 0 0 0 0 0 0 0 0
0 0 0 0 0 0 0 0 0
0 0 0 0 0 0 0 0 0
0 0 0 0 0 0 0 0 0
0 0 0 0 0 0 0 0 0
0 0 0 0 0 0 0 0 0
0 0 0 0 0 0 0 0 0
0 0 0 0 0 0 0 0 0
0 0 0 0 0 0 0 0 0
0 0 0 0 0 0 0 0 0
0 0 0 0 0 0 0 0 0
0 0 0 0 0 0 0 0 0
0 0 0 0 0 0 0 0 0
0 0 0 0 0 0 0 0 0
0 0 0 0 0 0 0 0 0
0 0 0 0 0 0 0 0 0
0 0 0 0 0 0 0 0 0
0 0 0 0 0 0 0 0 0
0 0 0 0 0 0 0 0 0
0 0 0 0 0 0 0 0 0
0 0 0 0 0 0 0 0 0
0 0 0 0 0 0 0 0 0
0 0 0 0 0 0 0 0 0
0 0 0 0 0 0 0 0 0
0 0 0 0 0 0 0 0 0
0 0 0 0 0 0 0 0 0
0 0 0 0 0 0 0 0 0
0 0 0 0 0 0 0 0 0
0 0 0 0 0 0 0 0 0
0 0 0 0 0 0 0 0 0
0 0 0 0 0 0 0 0 0
0 0 0 0 0 0 0 0 0
0 0 0 0 0 0 0 0 0
0 0 0 0 0 0 0 0 0
0 0 0 0 0 0 0 0 0
0 0 0 0 0 0 0 0 0
0 0 0 0 0 0 0 0 0
SCALARS DNormal double 9
LOOKUP_TABLE default
0 0 0 0 0 0 0 0 0
0 0 0 0 0 0 0 0 0
0 0 0 0 0 0 0 0 0
0 0 0 0 0 0 0 0 0
0 0 0 0 0 0 0 0 0
0 0 0 0 0 0 0 0 0
0 0 0 0 0 0 0 0 0
0 0 0 0 0 0 0 0 0
0 0 0 0 0 0 0 0 0
0 0 0 0 0 0 0 0 0
0 0 0 0 0 0 0 0 0
0 0 0 0 0 0 0 0 0
0 0 0 0 0 0 0 0 0
0 0 0 0 0 0 0 0 0
0 0 0 0 0 0 0 0 0
0 0 0 0 0 0 0 0 0
0 0 0 0 0 0 0 0 0
0 0 0 0 0 0 0 0 0
0 0 0 0 0 0 0 0 0
0 0 0 0 0 0 0 0 0
0 0 0 0 0 0 0 0 0
0 0 0 0 0 0 0 0 0
0 0 0 0 0 0 0 0 0
0 0 0 0 0 0 0 0 0
0 0 0 0 0 0 0 0 0
0 0 0 0 0 0 0 0 0
0 0 0 0 0 0 0 0 0
0 0 0 0 0 0 0 0 0
0 0 0 0 0 0 0 0 0
0 0 0 0 0 0 0 0 0
0 0 0 0 0 0 0 0 0
0 0 0 0 0 0 0 0 0
0 0 0 0 0 0 0 0 0
0 0 0 0 0 0 0 0 0
0 0 0 0 0 0 0 0 0
0 0 0 0 0 0 0 0 0
0 0 0 0 0 0 0 0 0
0 0 0 0 0 0 0 0 0
0 0 0 0 0 0 0 0 0
0 0 0 0 0 0 0 0 0
0 0 0 0 0 0 0 0 0
0 0 0 0 0 0 0 0 0
0 0 0 0 0 0 0 0 0
0 0 0 0 0 0 0 0 0
0 0 0 0 0 0 0 0 0
0 0 0 0 0 0 0 0 0
0 0 0 0 0 0 0 0 0
0 0 0 0 0 0 0 0 0
0 0 0 0 0 0 0 0 0
0 0 0 0 0 0 0 0 0
0 0 0 0 0 0 0 0 0
0 0 0 0 0 0 0 0 0
0 0 0 0 0 0 0 0 0
0 0 0 0 0 0 0 0 0
0 0 0 0 0 0 0 0 0
0 0 0 0 0 0 0 0 0
0 0 0 0 0 0 0 0 0
0 0 0 0 0 0 0 0 0
0 0 0 0 0 0 0 0 0
0 0 0 0 0 0 0 0 0
0 0 0 0 0 0 0 0 0
0 0 0 0 0 0 0 0 0
0 0 0 0 0 0 0 0 0
0 0 0 0 0 0 0 0 0
0 0 0 0 0 0 0 0 0
0 0 0 0 0 0 0 0 0
0 0 0 0 0 0 0 0 0
0 0 0 0 0 0 0 0 0
0 0 0 0 0 0 0 0 0
0 0 0 0 0 0 0 0 0
0 0 0 0 0 0 0 0 0
0 0 0 0 0 0 0 0 0
0 0 0 0 0 0 0 0 0
0 0 0 0 0 0 0 0 0
0 0 0 0 0 0 0 0 0
0 0 0 0 0 0 0 0 0
0 0 0 0 0 0 0 0 0
0 0 0 0 0 0 0 0 0
0 0 0 0 0 0 0 0 0
0 0 0 0 0 0 0 0 0
0 0 0 0 0 0 0 0 0
0 0 0 0 0 0 0 0 0
0 0 0 0 0 0 0 0 0
0 0 0 0 0 0 0 0 0
0 0 0 0 0 0 0 0 0
0 0 0 0 0 0 0 0 0
0 0 0 0 0 0 0 0 0
0 0 0 0 0 0 0 0 0
0 0 0 0 0 0 0 0 0
0 0 0 0 0 0 0 0 0
0 0 0 0 0 0 0 0 0
0 0 0 0 0 0 0 0 0
0 0 0 0 0 0 0 0 0
0 0 0 0 0 0 0 0 0
0 0 0 0 0 0 0 0 0
0 0 0 0 0 0 0 0 0
0 0 0 0 0 0 0 0 0
0 0 0 0 0 0 0 0 0
0 0 0 0 0 0 0 0 0
0 0 0 0 0 0 0 0 0
0 0 0 0 0 0 0 0 0
0 0 0 0 0 0 0 0 0
0 0 0 0 0 0 0 0 0
0 0 0 0 0 0 0 0 0
0 0 0 0 0 0 0 0 0
0 0 0 0 0 0 0 0 0
0 0 0 0 0 0 0 0 0
0 0 0 0 0 0 0 0 0
0 0 0 0 0 0 0 0 0
0 0 0 0 0 0 0 0 0
0 0 0 0 0 0 0 0 0
0 0 0 0 0 0 0 0 0
0 0 0 0 0 0 0 0 0
0 0 0 0 0 0 0 0 0
0 0 0 0 0 0 0 0 0
0 0 0 0 0 0 0 0 0
0 0 0 0 0 0 0 0 0
0 0 0 0 0 0 0 0 0
0 0 0 0 0 0 0 0 0
0 0 0 0 0 0 0 0 0
0 0 0 0 0 0 0 0 0
0 0 0 0 0 0 0 0 0
0 0 0 0 0 0 0 0 0
0 0 0 0 0 0 0 0 0
0 0 0 0 0 0 0 0 0
0 0 0 0 0 0 0 0 0
0 0 0 0 0 0 0 0 0
0 0 0 0 0 0 0 0 0
0 0 0 0 0 0 0 0 0
0 0 0 0 0 0 0 0 0
0 0 0 0 0 0 0 0 0
0 0 0 0 0 0 0 0 0
0 0 0 0 0 0 0 0 0
0 0 0 0 0 0 0 0 0
0 0 0 0 0 0 0 0 0
0 0 0 0 0 0 0 0 0
0 0 0 0 0 0 0 0 0
0 0 0 0 0 0 0 0 0
0 0 0 0 0 0 0 0 0
0 0 0 0 0 0 0 0 0
0 0 0 0 0 0 0 0 0
0 0 0 0 0 0 0 0 0
0 0 0 0 0 0 0 0 0
0 0 0 0 0 0 0 0 0
0 0 0 0 0 0 0 0 0
0 0 0 0 0 0 0 0 0
0 0 0 0 0 0 0 0 0
0 0 0 0 0 0 0 0 0
0 0 0 0 0 0 0 0 0
0 0 0 0 0 0 0 0 0
0 0 0 0 0 0 0 0 0
0 0 0 0 0 0 0 0 0
0 0 0 0 0 0 0 0 0
0 0 0 0 0 0 0 0 0
0 0 0 0 0 0 0 0 0
0 0 0 0 0 0 0 0 0
0 0 0 0 0 0 0 0 0
0 0 0 0 0 0 0 0 0
0 0 0 0 0 0 0 0 0
0 0 0 0 0 0 0 0 0
0 0 0 0 0 0 0 0 0
0 0 0 0 0 0 0 0 0
2.28933e-08 2.37352e-08 2.33235e-08 2.41651e-08 2.28933e-08 2.37352e-08 2.33235e-08 2.41651e-08 0
2.43262e-08 2.52411e-08 2.47559e-08 2.56665e-08 2.43262e-08 2.52411e-08 2.47559e-08 2.56665e-08 0
2.58837e-08 2.68717e-08 2.63065e-08 2.72874e-08 2.58837e-08 2.68717e-08 2.63065e-08 2.72874e-08 0
2.75669e-08 2.86298e-08 2.79789e-08 2.90344e-08 2.75669e-08 2.86298e-08 2.79789e-08 2.90344e-08 0
2.93806e-08 3.05235e-08 2.97813e-08 3.09164e-08 2.93806e-08 3.05235e-08 2.97813e-08 3.09164e-08 0
3.13354e-08 3.25668e-08 3.17234e-08 3.29444e-08 3.13354e-08 3.25668e-08 3.17234e-08 3.29444e-08 0
2.20688e-08 2.29146e-08 2.25212e-08 2.33628e-08 2.20688e-08 2.29146e-08 2.25212e-08 2.33628e-08 0
2.35031e-08 2.44189e-08 2.39511e-08 2.48659e-08 2.35031e-08 2.44189e-08 2.39511e-08 2.48659e-08 0
2.50595e-08 2.60535e-08 2.55064e-08 2.64965e-08 2.50595e-08 2.60535e-08 2.55064e-08 2.64965e-08 0
2.67496e-08 2.78218e-08 2.71906e-08 2.82566e-08 2.67496e-08 2.78218e-08 2.71906e-08 2.82566e-08 0
2.85758e-08 2.97317e-08 2.90069e-08 3.01539e-08 2.85758e-08 2.97317e-08 2.90069e-08 3.01539e-08 0
3.05499e-08 3.17994e-08 3.09663e-08 3.22039e-08 3.05499e-08 3.17994e-08 3.09663e-08 3.22039e-08 0
2.12093e-08 2.20556e-08 2.16811e-08 2.25268e-08 2.12093e-08 2.20556e-08 2.16811e-08 2.25268e-08 0
2.26405e-08 2.35578e-08 2.31122e-08 2.40272e-08 2.26405e-08 2.35578e-08 2.31122e-08 2.40272e-08 0
2.41956e-08 2.5193e-08 2.46647e-08 2.56593e-08 2.41956e-08 2.5193e-08 2.46647e-08 2.56593e-08 0
2.58883e-08 2.69683e-08 2.63533e-08 2.74278e-08 2.58883e-08 2.69683e-08 2.63533e-08 2.74278e-08 0
2.77246e-08 2.88927e-08 2.8181e-08 2.9341e-08 2.77246e-08 2.88927e-08 2.8181e-08 2.9341e-08 0
2.97165e-08 3.09834e-08 3.01598e-08 3.14156e-08 2.97165e-08 3.09834e-08 3.01598e-08 3.14156e-08 0
3.18835e-08 3.32606e-08 3.23081e-08 3.36702e-08 3.18835e-08 3.32606e-08 3.23081e-08 3.36702e-08 0
3.42649e-08 3.58151e-08 3.46632e-08 3.61919e-08 3.42649e-08 3.58151e-08 3.46632e-08 3.61919e-08 0
3.69696e-08 3.87535e-08 3.73303e-08 3.90859e-08 3.69696e-08 3.87535e-08 3.73303e-08 3.90859e-08 0
2.03132e-08 2.11594e-08 2.08065e-08 2.16516e-08 2.03132e-08 2.11594e-08 2.08065e-08 2.16516e-08 0
2.17397e-08 2.26572e-08 2.22328e-08 2.31494e-08 2.17397e-08 2.26572e-08 2.22328e-08 2.31494e-08 0
2.32911e-08 2.42909e-08 2.37838e-08 2.47812e-08 2.32911e-08 2.42909e-08 2.37838e-08 2.47812e-08 0
2.49844e-08 2.60706e-08 2.54739e-08 2.65555e-08 2.49844e-08 2.60706e-08 2.54739e-08 2.65555e-08 0
2.68281e-08 2.80077e-08 2.73105e-08 2.84823e-08 2.68281e-08 2.80077e-08 2.73105e-08 2.84823e-08 0
2.88367e-08 3.01213e-08 2.93063e-08 3.05793e-08 2.88367e-08 3.01213e-08 2.93063e-08 3.05793e-08 0
3.10311e-08 3.24326e-08 3.14815e-08 3.28677e-08 3.10311e-08 3.24326e-08 3.14815e-08 3.28677e-08 0
3.34527e-08 3.50372e-08 3.38768e-08 3.54405e-08 3.34527e-08 3.50372e-08 3.38768e-08 3.54405e-08 0
3.62151e-08 3.80438e-08 3.66032e-08 3.84053e-08 3.62151e-08 3.80438e-08 3.66032e-08 3.84053e-08 0
1.93818e-08 2.02244e-08 1.98952e-08 2.07394e-08 1.93818e-08 2.02244e-08 1.98952e-08 2.07394e-08 0
2.07988e-08 2.17163e-08 2.13156e-08 2.22319e-08 2.07988e-08 2.17163e-08 2.13156e-08 2.22319e-08 0
2.23457e-08 2.33466e-08 2.28621e-08 2.38614e-08 2.23457e-08 2.33466e-08 2.28621e-08 2.38614e-08 0
2.40369e-08 2.51279e-08 2.45517e-08 2.56389e-08 2.40369e-08 2.51279e-08 2.45517e-08 2.56389e-08 0
2.58853e-08 2.70747e-08 2.63945e-08 2.75772e-08 2.58853e-08 2.70747e-08 2.63945e-08 2.75772e-08 0
2.79076e-08 2.92084e-08 2.84061e-08 2.96964e-08 2.79076e-08 2.92084e-08 2.84061e-08 2.96964e-08 0
3.01271e-08 3.15521e-08 3.06082e-08 3.20184e-08 3.01271e-08 3.15521e-08 3.06082e-08 3.20184e-08 0
3.25878e-08 3.42072e-08 3.30432e-08 3.46411e-08 3.25878e-08 3.42072e-08 3.30432e-08 3.46411e-08 0
3.54077e-08 3.72791e-08 3.58267e-08 3.76724e-08 3.54077e-08 3.72791e-08 3.58267e-08 3.76724e-08 0
1.84112e-08 1.9251e-08 1.89483e-08 1.97883e-08 1.84112e-08 1.9251e-08 1.89483e-08 1.97883e-08 0
1.9819e-08 2.07348e-08 2.03582e-08 2.12742e-08 1.9819e-08 2.07348e-08 2.03582e-08 2.12742e-08 0
2.13584e-08 2.23593e-08 2.18994e-08 2.28992e-08 2.13584e-08 2.23593e-08 2.18994e-08 2.28992e-08 0
2.30452e-08 2.41389e-08 2.35858e-08 2.4677e-08 2.30452e-08 2.41389e-08 2.35858e-08 2.4677e-08 0
2.48944e-08 2.60913e-08 2.54317e-08 2.66233e-08 2.48944e-08 2.60913e-08 2.54317e-08 2.66233e-08 0
2.69264e-08 2.82416e-08 2.74553e-08 2.87612e-08 2.69264e-08 2.82416e-08 2.74553e-08 2.87612e-08 0
2.9168e-08 3.06159e-08 2.96811e-08 3.11146e-08 2.9168e-08 3.06159e-08 2.96811e-08 3.11146e-08 0
3.16661e-08 3.33187e-08 3.21546e-08 3.37871e-08 3.16661e-08 3.33187e-08 3.21546e-08 3.37871e-08 0
3.45411e-08 3.64557e-08 3.4995e-08 3.68833e-08 3.45411e-08 3.64557e-08 3.4995e-08 3.68833e-08 0
1.74027e-08 1.82383e-08 1.79617e-08 1.87989e-08 1.74027e-08 1.82383e-08 1.79617e-08 1.87989e-08 0
1.87989e-08 1.97123e-08 1.93621e-08 2.02758e-08 1.87989e-08 1.97123e-08 1.93621e-08 2.02758e-08 0
2.03292e-08 2.13285e-08 2.08948e-08 2.1894e-08 2.03292e-08 2.13285e-08 2.08948e-08 2.1894e-08 0
2.20085e-08 2.31029e-08 2.25756e-08 2.36686e-08 2.20085e-08 2.31029e-08 2.25756e-08 2.36686e-08 0
2.38544e-08 2.50558e-08 2.44207e-08 2.56186e-08 2.38544e-08 2.50558e-08 2.44207e-08 2.56186e-08 0
2.58909e-08 2.72181e-08 2.64518e-08 2.77711e-08 2.58909e-08 2.72181e-08 2.64518e-08 2.77711e-08 0
2.81505e-08 2.962e-08 2.86981e-08 3.01541e-08 2.81505e-08 2.962e-08 2.86981e-08 3.01541e-08 0
3.06837e-08 3.23689e-08 3.1208e-08 3.28731e-08 3.06837e-08 3.23689e-08 3.1208e-08 3.28731e-08 0
3.36123e-08 3.55691e-08 3.41025e-08 3.60339e-08 3.36123e-08 3.55691e-08 3.41025e-08 3.60339e-08 0
3.7335e-08 4.04407e-08 3.77791e-08 4.08467e-08 3.7335e-08 4.04407e-08 3.77791e-08 4.08467e-08 0
1.50979e-08 1.58565e-08 1.56725e-08 1.64334e-08 1.50979e-08 1.58565e-08 1.56725e-08 1.64334e-08 0
1.63576e-08 1.71864e-08 1.69382e-08 1.77701e-08 1.63576e-08 1.71864e-08 1.69382e-08 1.77701e-08 0
1.77382e-08 1.86476e-08 1.83255e-08 1.92362e-08 1.77382e-08 1.86476e-08 1.83255e-08 1.92362e-08 0
1.92566e-08 2.02526e-08 1.98481e-08 2.0845e-08 1.92566e-08 2.02526e-08 1.98481e-08 2.0845e-08 0
2.09253e-08 2.20182e-08 2.15202e-08 2.26129e-08 2.09253e-08 2.20182e-08 2.15202e-08 2.26129e-08 0
2.27638e-08 2.39667e-08 2.33601e-08 2.45612e-08 2.27638e-08 2.39667e-08 2.33601e-08 2.45612e-08 0
2.47994e-08 2.61356e-08 2.53935e-08 2.67235e-08 2.47994e-08 2.61356e-08 2.53935e-08 2.67235e-08 0
2.70719e-08 2.85606e-08 2.76557e-08 2.91324e-08 2.70719e-08 2.85606e-08 2.76557e-08 2.91324e-08 0
2.96366e-08 3.13543e-08 3.01993e-08 3.1897e-08 2.96366e-08 3.13543e-08 3.01993e-08 3.1897e-08 0
3.26189e-08 3.46191e-08 3.31472e-08 3.51208e-08 3.26189e-08 3.46191e-08 3.31472e-08 3.51208e-08 0
3.64166e-08 3.95829e-08 3.68982e-08 4.00289e-08 3.64166e-08 3.95829e-08 3.68982e-08 4.00289e-08 0
4.20598e-08 4.5905e-08 4.24766e-08 4.62708e-08 4.20598e-08 4.5905e-08 4.24766e-08 4.62708e-08 0
1.52754e-08 1.61009e-08 1.58783e-08 1.6704e-08 1.52754e-08 1.61009e-08 1.58783e-08 1.6704e-08 0
1.66443e-08 1.75476e-08 1.72504e-08 1.81564e-08 1.66443e-08 1.75476e-08 1.72504e-08 1.81564e-08 0
1.81468e-08 1.91363e-08 1.87596e-08 1.97522e-08 1.81468e-08 1.91363e-08 1.87596e-08 1.97522e-08 0
1.97995e-08 2.08884e-08 2.04192e-08 2.15094e-08 1.97995e-08 2.08884e-08 2.04192e-08 2.15094e-08 0
2.16256e-08 2.28261e-08 2.22498e-08 2.34509e-08 2.16256e-08 2.28261e-08 2.22498e-08 2.34509e-08 0
2.36528e-08 2.49925e-08 2.42794e-08 2.56165e-08 2.36528e-08 2.49925e-08 2.42794e-08 2.56165e-08 0
2.59279e-08 2.7429e-08 2.65509e-08 2.80445e-08 2.59279e-08 2.7429e-08 2.65509e-08 2.80445e-08 0
2.8515e-08 3.02664e-08 2.91229e-08 3.08533e-08 2.8515e-08 3.02664e-08 2.91229e-08 3.08533e-08 0
3.15537e-08 3.36013e-08 3.21252e-08 3.41436e-08 3.15537e-08 3.36013e-08 3.21252e-08 3.41436e-08 0
3.54315e-08 3.86585e-08 3.59527e-08 3.91434e-08 3.54315e-08 3.86585e-08 3.59527e-08 3.91434e-08 0
4.14687e-08 4.61825e-08 4.17151e-08 4.58054e-08 4.14687e-08 4.61825e-08 4.17151e-08 4.58054e-08 0
0 0 0 0 0 0 0 0 0
0 0 0 0 0 0 0 0 0
0 0 0 0 0 0 0 0 0
0 0 0 0 0 0 0 0 0
0 0 0 0 0 0 0 0 0
0 0 0 0 0 0 0 0 0
0 0 0 0 0 0 0 0 0
0 0 0 0 0 0 0 0 0
0 0 0 0 0 0 0 0 0
0 0 0 0 0 0 0 0 0
0 0 0 0 0 0 0 0 0
0 0 0 0 0 0 0 0 0
0 0 0 0 0 0 0 0 0
0 0 0 0 0 0 0 0 0
0 0 0 0 0 0 0 0 0
0 0 0 0 0 0 0 0 0
0 0 0 0 0 0 0 0 0
0 0 0 0 0 0 0 0 0
0 0 0 0 0 0 0 0 0
0 0 0 0 0 0 0 0 0
0 0 0 0 0 0 0 0 0
0 0 0 0 0 0 0 0 0
0 0 0 0 0 0 0 0 0
0 0 0 0 0 0 0 0 0
0 0 0 0 0 0 0 0 0
0 0 0 0 0 0 0 0 0
0 0 0 0 0 0 0 0 0
0 0 0 0 0 0 0 0 0
0 0 0 0 0 0 0 0 0
0 0 0 0 0 0 0 0 0
0 0 0 0 0 0 0 0 0
0 0 0 0 0 0 0 0 0
0 0 0 0 0 0 0 0 0
0 0 0 0 0 0 0 0 0
0 0 0 0 0 0 0 0 0
0 0 0 0 0 0 0 0 0
0 0 0 0 0 0 0 0 0
0 0 0 0 0 0 0 0 0
0 0 0 0 0 0 0 0 0
0 0 0 0 0 0 0 0 0
0 0 0 0 0 0 0 0 0
0 0 0 0 0 0 0 0 0
0 0 0 0 0 0 0 0 0
0 0 0 0 0 0 0 0 0
0 0 0 0 0 0 0 0 0
0 0 0 0 0 0 0 0 0
0 0 0 0 0 0 0 0 0
0 0 0 0 0 0 0 0 0
0 0 0 0 0 0 0 0 0
0 0 0 0 0 0 0 0 0
0 0 0 0 0 0 0 0 0
0 0 0 0 0 0 0 0 0
0 0 0 0 0 0 0 0 0
0 0 0 0 0 0 0 0 0
0 0 0 0 0 0 0 0 0
0 0 0 0 0 0 0 0 0
0 0 0 0 0 0 0 0 0
0 0 0 0 0 0 0 0 0
0 0 0 0 0 0 0 0 0
0 0 0 0 0 0 0 0 0
0 0 0 0 0 0 0 0 0
0 0 0 0 0 0 0 0 0
0 0 0 0 0 0 0 0 0
0 0 0 0 0 0 0 0 0
0 0 0 0 0 0 0 0 0
0 0 0 0 0 0 0 0 0
0 0 0 0 0 0 0 0 0
0 0 0 0 0 0 0 0 0
0 0 0 0 0 0 0 0 0
0 0 0 0 0 0 0 0 0
0 0 0 0 0 0 0 0 0
0 0 0 0 0 0 0 0 0
0 0 0 0 0 0 0 0 0
0 0 0 0 0 0 0 0 0
0 0 0 0 0 0 0 0 0
0 0 0 0 0 0 0 0 0
0 0 0 0 0 0 0 0 0
0 0 0 0 0 0 0 0 0
0 0 0 0 0 0 0 0 0
0 0 0 0 0 0 0 0 0
0 0 0 0 0 0 0 0 0
0 0 0 0 0 0 0 0 0
0 0 0 0 0 0 0 0 0
0 0 0 0 0 0 0 0 0
0 0 0 0 0 0 0 0 0
0 0 0 0 0 0 0 0 0
0 0 0 0 0 0 0 0 0
0 0 0 0 0 0 0 0 0
0 0 0 0 0 0 0 0 0
0 0 0 0 0 0 0 0 0
0 0 0 0 0 0 0 0 0
0 0 0 0 0 0 0 0 0
0 0 0 0 0 0 0 0 0
0 0 0 0 0 0 0 0 0
0 0 0 0 0 0 0 0 0
0 0 0 0 0 0 0 0 0
0 0 0 0 0 0 0 0 0
0 0 0 0 0 0 0 0 0
0 0 0 0 0 0 0 0 0
0 0 0 0 0 0 0 0 0
0 0 0 0 0 0 0 0 0
0 0 0 0 0 0 0 0 0
0 0 0 0 0 0 0 0 0
0 0 0 0 0 0 0 0 0
0 0 0 0 0 0 0 0 0
0 0 0 0 0 0 0 0 0
0 0 0 0 0 0 0 0 0
0 0 0 0 0 0 0 0 0
0 0 0 0 0 0 0 0 0
0 0 0 0 0 0 0 0 0
0 0 0 0 0 0 0 0 0
0 0 0 0 0 0 0 0 0
0 0 0 0 0 0 0 0 0
0 0 0 0 0 0 0 0 0
0 0 0 0 0 0 0 0 0
0 0 0 0 0 0 0 0 0
0 0 0 0 0 0 0 0 0
0 0 0 0 0 0 0 0 0
0 0 0 0 0 0 0 0 0
0 0 0 0 0 0 0 0 0
0 0 0 0 0 0 0 0 0
0 0 0 0 0 0 0 0 0
0 0 0 0 0 0 0 0 0
0 0 0 0 0 0 0 0 0
0 0 0 0 0 0 0 0 0
0 0 0 0 0 0 0 0 0
0 0 0 0 0 0 0 0 0
0 0 0 0 0 0 0 0 0
0 0 0 0 0 0 0 0 0
0 0 0 0 0 0 0 0 0
0 0 0 0 0 0 0 0 0
0 0 0 0 0 0 0 0 0
0 0 0 0 0 0 0 0 0
0 0 0 0 0 0 0 0 0
0 0 0 0 0 0 0 0 0
0 0 0 0 0 0 0 0 0
0 0 0 0 0 0 0 0 0
0 0 0 0 0 0 0 0 0
0 0 0 0 0 0 0 0 0
0 0 0 0 0 0 0 0 0
0 0 0 0 0 0 0 0 0
0 0 0 0 0 0 0 0 0
0 0 0 0 0 0 0 0 0
0 0 0 0 0 0 0 0 0
0 0 0 0 0 0 0 0 0
0 0 0 0 0 0 0 0 0
0 0 0 0 0 0 0 0 0
0 0 0 0 0 0 0 0 0
0 0 0 0 0 0 0 0 0
0 0 0 0 0 0 0 0 0
0 0 0 0 0 0 0 0 0
0 0 0 0 0 0 0 0 0
0 0 0 0 0 0 0 0 0
0 0 0 0 0 0 0 0 0
0 0 0 0 0 0 0 0 0
0 0 0 0 0 0 0 0 0
0 0 0 0 0 0 0 0 0
0 0 0 0 0 0 0 0 0
0 0 0 0 0 0 0 0 0
0 0 0 0 0 0 0 0 0
0 0 0 0 0 0 0 0 0
0 0 0 0 0 0 0 0 0
0 0 0 0 0 0 0 0 0
0 0 0 0 0 0 0 0 0
0 0 0 0 0 0 0 0 0
0 0 0 0 0 0 0 0 0
0 0 0 0 0 0 0 0 0
0 0 0 0 0 0 0 0 0
0 0 0 0 0 0 0 0 0
0 0 0 0 0 0 0 0 0
0 0 0 0 0 0 0 0 0
0 0 0 0 0 0 0 0 0
0 0 0 0 0 0 0 0 0
0 0 0 0 0 0 0 0 0
0 0 0 0 0 0 0 0 0
0 0 0 0 0 0 0 0 0
0 0 0 0 0 0 0 0 0
0 0 0 0 0 0 0 0 0
0 0 0 0 0 0 0 0 0
0 0 0 0 0 0 0 0 0
0 0 0 0 0 0 0 0 0
0 0 0 0 0 0 0 0 0
0 0 0 0 0 0 0 0 0
0 0 0 0 0 0 0 0 0
0 0 0 0 0 0 0 0 0
0 0 0 0 0 0 0 0 0
0 0 0 0 0 0 0 0 0
0 0 0 0 0 0 0 0 0
0 0 0 0 0 0 0 0 0
0 0 0 0 0 0 0 0 0
0 0 0 0 0 0 0 0 0
0 0 0 0 0 0 0 0 0
0 0 0 0 0 0 0 0 0
0 0 0 0 0 0 0 0 0
0 0 0 0 0 0 0 0 0
0 0 0 0 0 0 0 0 0
0 0 0 0 0 0 0 0 0
0 0 0 0 0 0 0 0 0
0 0 0 0 0 0 0 0 0
0 0 0 0 0 0 0 0 0
0 0 0 0 0 0 0 0 0
0 0 0 0 0 0 0 0 0
0 0 0 0 0 0 0 0 0
0 0 0 0 0 0 0 0 0
0 0 0 0 0 0 0 0 0
0 0 0 0 0 0 0 0 0
0 0 0 0 0 0 0 0 0
0 0 0 0 0 0 0 0 0
0 0 0 0 0 0 0 0 0
0 0 0 0 0 0 0 0 0
0 0 0 0 0 0 0 0 0
0 0 0 0 0 0 0 0 0
0 0 0 0 0 0 0 0 0
0 0 0 0 0 0 0 0 0
0 0 0 0 0 0 0 0 0
0 0 0 0 0 0 0 0 0
0 0 0 0 0 0 0 0 0
0 0 0 0 0 0 0 0 0
0 0 0 0 0 0 0 0 0
0 0 0 0 0 0 0 0 0
0 0 0 0 0 0 0 0 0
0 0 0 0 0 0 0 0 0
0 0 0 0 0 0 0 0 0
0 0 0 0 0 0 0 0 0
0 0 0 0 0 0 0 0 0
0 0 0 0 0 0 0 0 0
0 0 0 0 0 0 0 0 0
0 0 0 0 0 0 0 0 0
0 0 0 0 0 0 0 0 0
0 0 0 0 0 0 0 0 0
0 0 0 0 0 0 0 0 0
0 0 0 0 0 0 0 0 0
0 0 0 0 0 0 0 0 0
0 0 0 0 0 0 0 0 0
0 0 0 0 0 0 0 0 0
0 0 0 0 0 0 0 0 0
0 0 0 0 0 0 0 0 0
0 0 0 0 0 0 0 0 0
0 0 0 0 0 0 0 0 0
0 0 0 0 0 0 0 0 0
0 0 0 0 0 0 0 0 0
0 0 0 0 0 0 0 0 0
0 0 0 0 0 0 0 0 0
0 0 0 0 0 0 0 0 0
0 0 0 0 0 0 0 0 0
0 0 0 0 0 0 0 0 0
0 0 0 0 0 0 0 0 0
0 0 0 0 0 0 0 0 0
0 0 0 0 0 0 0 0 0
0 0 0 0 0 0 0 0 0
0 0 0 0 0 0 0 0 0
0 0 0 0 0 0 0 0 0
0 0 0 0 0 0 0 0 0
0 0 0 0 0 0 0 0 0
0 0 0 0 0 0 0 0 0
0 0 0 0 0 0 0 0 0
0 0 0 0 0 0 0 0 0
0 0 0 0 0 0 0 0 0
0 0 0 0 0 0 0 0 0
0 0 0 0 0 0 0 0 0
0 0 0 0 0 0 0 0 0
0 0 0 0 0 0 0 0 0
0 0 0 0 0 0 0 0 0
0 0 0 0 0 0 0 0 0
0 0 0 0 0 0 0 0 0
0 0 0 0 0 0 0 0 0
0 0 0 0 0 0 0 0 0
0 0 0 0 0 0 0 0 0
0 0 0 0 0 0 0 0 0
0 0 0 0 0 0 0 0 0
0 0 0 0 0 0 0 0 0
0 0 0 0 0 0 0 0 0
0 0 0 0 0 0 0 0 0
0 0 0 0 0 0 0 0 0
0 0 0 0 0 0 0 0 0
0 0 0 0 0 0 0 0 0
0 0 0 0 0 0 0 0 0
0 0 0 0 0 0 0 0 0
0 0 0 0 0 0 0 0 0
0 0 0 0 0 0 0 0 0
0 0 0 0 0 0 0 0 0
0 0 0 0 0 0 0 0 0
0 0 0 0 0 0 0 0 0
0 0 0 0 0 0 0 0 0
0 0 0 0 0 0 0 0 0
0 0 0 0 0 0 0 0 0
0 0 0 0 0 0 0 0 0
0 0 0 0 0 0 0 0 0
0 0 0 0 0 0 0 0 0
0 0 0 0 0 0 0 0 0
0 0 0 0 0 0 0 0 0
0 0 0 0 0 0 0 0 0
0 0 0 0 0 0 0 0 0
0 0 0 0 0 0 0 0 0
0 0 0 0 0 0 0 0 0
0 0 0 0 0 0 0 0 0
0 0 0 0 0 0 0 0 0
0 0 0 0 0 0 0 0 0
0 0 0 0 0 0 0 0 0
0 0 0 0 0 0 0 0 0
0 0 0 0 0 0 0 0 0
0 0 0 0 0 0 0 0 0
0 0 0 0 0 0 0 0 0
0 0 0 0 0 0 0 0 0
0 0 0 0 0 0 0 0 0
0 0 0 0 0 0 0 0 0
0 0 0 0 0 0 0 0 0
0 0 0 0 0 0 0 0 0
0 0 0 0 0 0 0 0 0
0 0 0 0 0 0 0 0 0
0 0 0 0 0 0 0 0 0
0 0 0 0 0 0 0 0 0
0 0 0 0 0 0 0 0 0
0 0 0 0 0 0 0 0 0
0 0 0 0 0 0 0 0 0
0 0 0 0 0 0 0 0 0
0 0 0 0 0 0 0 0 0
0 0 0 0 0 0 0 0 0
0 0 0 0 0 0 0 0 0
0 0 0 0 0 0 0 0 0
0 0 0 0 0 0 0 0 0
0 0 0 0 0 0 0 0 0
0 0 0 0 0 0 0 0 0
0 0 0 0 0 0 0 0 0
0 0 0 0 0 0 0 0 0
0 0 0 0 0 0 0 0 0
0 0 0 0 0 0 0 0 0
0 0 0 0 0 0 0 0 0
0 0 0 0 0 0 0 0 0
0 0 0 0 0 0 0 0 0
0 0 0 0 0 0 0 0 0
0 0 0 0 0 0 0 0 0
0 0 0 0 0 0 0 0 0
0 0 0 0 0 0 0 0 0
0 0 0 0 0 0 0 0 0
0 0 0 0 0 0 0 0 0
0 0 0 0 0 0 0 0 0
0 0 0 0 0 0 0 0 0
0 0 0 0 0 0 0 0 0
0 0 0 0 0 0 0 0 0
0 0 0 0 0 0 0 0 0
0 0 0 0 0 0 0 0 0
0 0 0 0 0 0 0 0 0
0 0 0 0 0 0 0 0 0
0 0 0 0 0 0 0 0 0
0 0 0 0 0 0 0 0 0
0 0 0 0 0 0 0 0 0
0 0 0 0 0 0 0 0 0
0 0 0 0 0 0 0 0 0
0 0 0 0 0 0 0 0 0
0 0 0 0 0 0 0 0 0
0 0 0 0 0 0 0 0 0
0 0 0 0 0 0 0 0 0
0 0 0 0 0 0 0 0 0
0 0 0 0 0 0 0 0 0
0 0 0 0 0 0 0 0 0
0 0 0 0 0 0 0 0 0
0 0 0 0 0 0 0 0 0
0 0 0 0 0 0 0 0 0
0 0 0 0 0 0 0 0 0
0 0 0 0 0 0 0 0 0
0 0 0 0 0 0 0 0 0
0 0 0 0 0 0 0 0 0
0 0 0 0 0 0 0 0 0
0 0 0 0 0 0 0 0 0
0 0 0 0 0 0 0 0 0
0 0 0 0 0 0 0 0 0
0 0 0 0 0 0 0 0 0
0 0 0 0 0 0 0 0 0
0 0 0 0 0 0 0 0 0
0 0 0 0 0 0 0 0 0
0 0 0 0 0 0 0 0 0
0 0 0 0 0 0 0 0 0
0 0 0 0 0 0 0 0 0
0 0 0 0 0 0 0 0 0
0 0 0 0 0 0 0 0 0
0 0 0 0 0 0 0 0 0
0 0 0 0 0 0 0 0 0
0 0 0 0 0 0 0 0 0
0 0 0 0 0 0 0 0 0
0 0 0 0 0 0 0 0 0
0 0 0 0 0 0 0 0 0
0 0 0 0 0 0 0 0 0
0 0 0 0 0 0 0 0 0
0 0 0 0 0 0 0 0 0
0 0 0 0 0 0 0 0 0
0 0 0 0 0 0 0 0 0
0 0 0 0 0 0 0 0 0
0 0 0 0 0 0 0 0 0
0 0 0 0 0 0 0 0 0
0 0 0 0 0 0 0 0 0
0 0 0 0 0 0 0 0 0
0 0 0 0 0 0 0 0 0
0 0 0 0 0 0 0 0 0
0 0 0 0 0 0 0 0 0
0 0 0 0 0 0 0 0 0
0 0 0 0 0 0 0 0 0
0 0 0 0 0 0 0 0 0
0 0 0 0 0 0 0 0 0
0 0 0 0 0 0 0 0 0
0 0 0 0 0 0 0 0 0
0 0 0 0 0 0 0 0 0
0 0 0 0 0 0 0 0 0
0 0 0 0 0 0 0 0 0
0 0 0 0 0 0 0 0 0
0 0 0 0 0 0 0 0 0
0 0 0 0 0 0 0 0 0
0 0 0 0 0 0 0 0 0
0 0 0 0 0 0 0 0 0
0 0 0 0 0 0 0 0 0
0 0 0 0 0 0 0 0 0
0 0 0 0 0 0 0 0 0
0 0 0 0 0 0 0 0 0
0 0 0 0 0 0 0 0 0
0 0 0 0 0 0 0 0 0
0 0 0 0 0 0 0 0 0
0 0 0 0 0 0 0 0 0
0 0 0 0 0 0 0 0 0
0 0 0 0 0 0 0 0 0
0 0 0 0 0 0 0 0 0
0 0 0 0 0 0 0 0 0
0 0 0 0 0 0 0 0 0
0 0 0 0 0 0 0 0 0
0 0 0 0 0 0 0 0 0
0 0 0 0 0 0 0 0 0
0 0 0 0 0 0 0 0 0
0 0 0 0 0 0 0 0 0
0 0 0 0 0 0 0 0 0
0 0 0 0 0 0 0 0 0
0 0 0 0 0 0 0 0 0
0 0 0 0 0 0 0 0 0
0 0 0 0 0 0 0 0 0
0 0 0 0 0 0 0 0 0
0 0 0 0 0 0 0 0 0
0 0 0 0 0 0 0 0 0
0 0 0 0 0 0 0 0 0
0 0 0 0 0 0 0 0 0
0 0 0 0 0 0 0 0 0
0 0 0 0 0 0 0 0 0
0 0 0 0 0 0 0 0 0
0 0 0 0 0 0 0 0 0
0 0 0 0 0 0 0 0 0
0 0 0 0 0 0 0 0 0
0 0 0 0 0 0 0 0 0
0 0 0 0 0 0 0 0 0
0 0 0 0 0 0 0 0 0
0 0 0 0 0 0 0 0 0
0 0 0 0 0 0 0 0 0
0 0 0 0 0 0 0 0 0
0 0 0 0 0 0 0 0 0
0 0 0 0 0 0 0 0 0
0 0 0 0 0 0 0 0 0
0 0 0 0 0 0 0 0 0
0 0 0 0 0 0 0 0 0
0 0 0 0 0 0 0 0 0
0 0 0 0 0 0 0 0 0
0 0 0 0 0 0 0 0 0
0 0 0 0 0 0 0 0 0
0 0 0 0 0 0 0 0 0
0 0 0 0 0 0 0 0 0
0 0 0 0 0 0 0 0 0
0 0 0 0 0 0 0 0 0
0 0 0 0 0 0 0 0 0
0 0 0 0 0 0 0 0 0
0 0 0 0 0 0 0 0 0
0 0 0 0 0 0 0 0 0
0 0 0 0 0 0 0 0 0
0 0 0 0 0 0 0 0 0
0 0 0 0 0 0 0 0 0
0 0 0 0 0 0 0 0 0
0 0 0 0 0 0 0 0 0
0 0 0 0 0 0 0 0 0
0 0 0 0 0 0 0 0 0
0 0 0 0 0 0 0 0 0
0 0 0 0 0 0 0 0 0
0 0 0 0 0 0 0 0 0
0 0 0 0 0 0 0 0 0
0 0 0 0 0 0 0 0 0
0 0 0 0 0 0 0 0 0
0 0 0 0 0 0 0 0 0
0 0 0 0 0 0 0 0 0
0 0 0 0 0 0 0 0 0
0 0 0 0 0 0 0 0 0
0 0 0 0 0 0 0 0 0
0 0 0 0 0 0 0 0 0
0 0 0 0 0 0 0 0 0
0 0 0 0 0 0 0 0 0
0 0 0 0 0 0 0 0 0
0 0 0 0 0 0 0 0 0
0 0 0 0 0 0 0 0 0
0 0 0 0 0 0 0 0 0
0 0 0 0 0 0 0 0 0
0 0 0 0 0 0 0 0 0
0 0 0 0 0 0 0 0 0
0 0 0 0 0 0 0 0 0
0 0 0 0 0 0 0 0 0
0 0 0 0 0 0 0 0 0
0 0 0 0 0 0 0 0 0
0 0 0 0 0 0 0 0 0
0 0 0 0 0 0 0 0 0
0 0 0 0 0 0 0 0 0
0 0 0 0 0 0 0 0 0
0 0 0 0 0 0 0 0 0
0 0 0 0 0 0 0 0 0
0 0 0 0 0 0 0 0 0
0 0 0 0 0 0 0 0 0
0 0 0 0 0 0 0 0 0
0 0 0 0 0 0 0 0 0
0 0 0 0 0 0 0 0 0
0 0 0 0 0 0 0 0 0
0 0 0 0 0 0 0 0 0
0 0 0 0 0 0 0 0 0
0 0 0 0 0 0 0 0 0
0 0 0 0 0 0 0 0 0
0 0 0 0 0 0 0 0 0
0 0 0 0 0 0 0 0 0
0 0 0 0 0 0 0 0 0
0 0 0 0 0 0 0 0 0
0 0 0 0 0 0 0 0 0
0 0 0 0 0 0 0 0 0
0 0 0 0 0 0 0 0 0
0 0 0 0 0 0 0 0 0
0 0 0 0 0 0 0 0 0
0 0 0 0 0 0 0 0 0
0 0 0 0 0 0 0 0 0
0 0 0 0 0 0 0 0 0
0 0 0 0 0 0 0 0 0
0 0 0 0 0 0 0 0 0
0 0 0 0 0 0 0 0 0
0 0 0 0 0 0 0 0 0
0 0 0 0 0 0 0 0 0
0 0 0 0 0 0 0 0 0
0 0 0 0 0 0 0 0 0
0 0 0 0 0 0 0 0 0
0 0 0 0 0 0 0 0 0
0 0 0 0 0 0 0 0 0
0 0 0 0 0 0 0 0 0
0 0 0 0 0 0 0 0 0
0 0 0 0 0 0 0 0 0
0 0 0 0 0 0 0 0 0
0 0 0 0 0 0 0 0 0
0 0 0 0 0 0 0 0 0
0 0 0 0 0 0 0 0 0
0 0 0 0 0 0 0 0 0
0 0 0 0 0 0 0 0 0
0 0 0 0 0 0 0 0 0
0 0 0 0 0 0 0 0 0
0 0 0 0 0 0 0 0 0
0 0 0 0 0 0 0 0 0
0 0 0 0 0 0 0 0 0
0 0 0 0 0 0 0 0 0
0 0 0 0 0 0 0 0 0
0 0 0 0 0 0 0 0 0
0 0 0 0 0 0 0 0 0
0 0 0 0 0 0 0 0 0
0 0 0 0 0 0 0 0 0
0 0 0 0 0 0 0 0 0
0 0 0 0 0 0 0 0 0
0 0 0 0 0 0 0 0 0
0 0 0 0 0 0 0 0 0
0 0 0 0 0 0 0 0 0
0 0 0 0 0 0 0 0 0
0 0 0 0 0 0 0 0 0
0 0 0 0 0 0 0 0 0
0 0 0 0 0 0 0 0 0
0 0 0 0 0 0 0 0 0
0 0 0 0 0 0 0 0 0
0 0 0 0 0 0 0 0 0
0 0 0 0 0 0 0 0 0
0 0 0 0 0 0 0 0 0
0 0 0 0 0 0 0 0 0
0 0 0 0 0 0 0 0 0
0 0 0 0 0 0 0 0 0
0 0 0 0 0 0 0 0 0
0 0 0 0 0 0 0 0 0
0 0 0 0 0 0 0 0 0
0 0 0 0 0 0 0 0 0
0 0 0 0 0 0 0 0 0
0 0 0 0 0 0 0 0 0
0 0 0 0 0 0 0 0 0
0 0 0 0 0 0 0 0 0
0 0 0 0 0 0 0 0 0
0 0 0 0 0 0 0 0 0
0 0 0 0 0 0 0 0 0
0 0 0 0 0 0 0 0 0
0 0 0 0 0 0 0 0 0
0 0 0 0 0 0 0 0 0
0 0 0 0 0 0 0 0 0
0 0 0 0 0 0 0 0 0
0 0 0 0 0 0 0 0 0
0 0 0 0 0 0 0 0 0
0 0 0 0 0 0 0 0 0
0 0 0 0 0 0 0 0 0
0 0 0 0 0 0 0 0 0
0 0 0 0 0 0 0 0 0
0 0 0 0 0 0 0 0 0
0 0 0 0 0 0 0 0 0
0 0 0 0 0 0 0 0 0
0 0 0 0 0 0 0 0 0
0 0 0 0 0 0 0 0 0
0 0 0 0 0 0 0 0 0
0 0 0 0 0 0 0 0 0
0 0 0 0 0 0 0 0 0
0 0 0 0 0 0 0 0 0
0 0 0 0 0 0 0 0 0
0 0 0 0 0 0 0 0 0
0 0 0 0 0 0 0 0 0
0 0 0 0 0 0 0 0 0
0 0 0 0 0 0 0 0 0
0 0 0 0 0 0 0 0 0
0 0 0 0 0 0 0 0 0
0 0 0 0 0 0 0 0 0
0 0 0 0 0 0 0 0 0
0 0 0 0 0 0 0 0 0
0 0 0 0 0 0 0 0 0
0 0 0 0 0 0 0 0 0
0 0 0 0 0 0 0 0 0
0 0 0 0 0 0 0 0 0
0 0 0 0 0 0 0 0 0
0 0 0 0 0 0 0 0 0
0 0 0 0 0 0 0 0 0
0 0 0 0 0 0 0 0 0
0 0 0 0 0 0 0 0 0
0 0 0 0 0 0 0 0 0
0 0 0 0 0 0 0 0 0
0 0 0 0 0 0 0 0 0
0 0 0 0 0 0 0 0 0
0 0 0 0 0 0 0 0 0
0 0 0 0 0 0 0 0 0
0 0 0 0 0 0 0 0 0
0 0 0 0 0 0 0 0 0
0 0 0 0 0 0 0 0 0
0 0 0 0 0 0 0 0 0
0 0 0 0 0 0 0 0 0
0 0 0 0 0 0 0 0 0
0 0 0 0 0 0 0 0 0
0 0 0 0 0 0 0 0 0
0 0 0 0 0 0 0 0 0
0 0 0 0 0 0 0 0 0
0 0 0 0 0 0 0 0 0
0 0 0 0 0 0 0 0 0
0 0 0 0 0 0 0 0 0
0 0 0 0 0 0 0 0 0
0 0 0 0 0 0 0 0 0
0 0 0 0 0 0 0 0 0
0 0 0 0 0 0 0 0 0
0 0 0 0 0 0 0 0 0
0 0 0 0 0 0 0 0 0
0 0 0 0 0 0 0 0 0
0 0 0 0 0 0 0 0 0
0 0 0 0 0 0 0 0 0
0 0 0 0 0 0 0 0 0
0 0 0 0 0 0 0 0 0
0 0 0 0 0 0 0 0 0
0 0 0 0 0 0 0 0 0
0 0 0 0 0 0 0 0 0
0 0 0 0 0 0 0 0 0
0 0 0 0 0 0 0 0 0
0 0 0 0 0 0 0 0 0
0 0 0 0 0 0 0 0 0
0 0 0 0 0 0 0 0 0
0 0 0 0 0 0 0 0 0
0 0 0 0 0 0 0 0 0
0 0 0 0 0 0 0 0 0
0 0 0 0 0 0 0 0 0
0 0 0 0 0 0 0 0 0
0 0 0 0 0 0 0 0 0
0 0 0 0 0 0 0 0 0
0 0 0 0 0 0 0 0 0
0 0 0 0 0 0 0 0 0
0 0 0 0 0 0 0 0 0
0 0 0 0 0 0 0 0 0
0 0 0 0 0 0 0 0 0
0 0 0 0 0 0 0 0 0
0 0 0 0 0 0 0 0 0
0 0 0 0 0 0 0 0 0
0 0 0 0 0 0 0 0 0
0 0 0 0 0 0 0 0 0
0 0 0 0 0 0 0 0 0
0 0 0 0 0 0 0 0 0
0 0 0 0 0 0 0 0 0
0 0 0 0 0 0 0 0 0
0 0 0 0 0 0 0 0 0
0 0 0 0 0 0 0 0 0
0 0 0 0 0 0 0 0 0
0 0 0 0 0 0 0 0 0
0 0 0 0 0 0 0 0 0
0 0 0 0 0 0 0 0 0
0 0 0 0 0 0 0 0 0
0 0 0 0 0 0 0 0 0
0 0 0 0 0 0 0 0 0
0 0 0 0 0 0 0 0 0
0 0 0 0 0 0 0 0 0
0 0 0 0 0 0 0 0 0
0 0 0 0 0 0 0 0 0
0 0 0 0 0 0 0 0 0
0 0 0 0 0 0 0 0 0
0 0 0 0 0 0 0 0 0
0 0 0 0 0 0 0 0 0
0 0 0 0 0 0 0 0 0
0 0 0 0 0 0 0 0 0
0 0 0 0 0 0 0 0 0
0 0 0 0 0 0 0 0 0
0 0 0 0 0 0 0 0 0
0 0 0 0 0 0 0 0 0
0 0 0 0 0 0 0 0 0
0 0 0 0 0 0 0 0 0
0 0 0 0 0 0 0 0 0
0 0 0 0 0 0 0 0 0
0 0 0 0 0 0 0 0 0
0 0 0 0 0 0 0 0 0
0 0 0 0 0 0 0 0 0
0 0 0 0 0 0 0 0 0
0 0 0 0 0 0 0 0 0
0 0 0 0 0 0 0 0 0
0 0 0 0 0 0 0 0 0
0 0 0 0 0 0 0 0 0
0 0 0 0 0 0 0 0 0
0 0 0 0 0 0 0 0 0
0 0 0 0 0 0 0 0 0
0 0 0 0 0 0 0 0 0
0 0 0 0 0 0 0 0 0
0 0 0 0 0 0 0 0 0
0 0 0 0 0 0 0 0 0
0 0 0 0 0 0 0 0 0
0 0 0 0 0 0 0 0 0
0 0 0 0 0 0 0 0 0
0 0 0 0 0 0 0 0 0
0 0 0 0 0 0 0 0 0
3.80259e-08 3.96585e-08 3.90561e-08 4.06839e-08 3.80259e-08 3.96585e-08 3.90561e-08 4.06839e-08 0
4.08122e-08 4.25987e-08 4.18364e-08 4.3617e-08 4.08122e-08 4.25987e-08 4.18364e-08 4.3617e-08 0
4.38653e-08 4.58179e-08 4.48796e-08 4.68193e-08 4.38653e-08 4.58179e-08 4.48796e-08 4.68193e-08 0
4.72033e-08 4.93241e-08 4.81962e-08 5.02985e-08 4.72033e-08 4.93241e-08 4.81962e-08 5.02985e-08 0
5.08277e-08 5.31109e-08 5.17895e-08 5.40481e-08 5.08277e-08 5.31109e-08 5.17895e-08 5.40481e-08 0
5.47284e-08 5.71656e-08 5.5648e-08 5.8053e-08 5.47284e-08 5.71656e-08 5.5648e-08 5.8053e-08 0
3.60844e-08 3.77162e-08 3.7166e-08 3.87973e-08 3.60844e-08 3.77162e-08 3.7166e-08 3.87973e-08 0
3.88634e-08 4.06538e-08 3.99456e-08 4.17322e-08 3.88634e-08 4.06538e-08 3.99456e-08 4.17322e-08 0
4.1919e-08 4.38859e-08 4.29954e-08 4.49527e-08 4.1919e-08 4.38859e-08 4.29954e-08 4.49527e-08 0
4.52776e-08 4.74244e-08 4.63378e-08 4.84679e-08 4.52776e-08 4.74244e-08 4.63378e-08 4.84679e-08 0
4.89434e-08 5.12669e-08 4.99747e-08 5.22726e-08 4.89434e-08 5.12669e-08 4.99747e-08 5.22726e-08 0
5.29108e-08 5.54047e-08 5.38974e-08 5.63558e-08 5.29108e-08 5.54047e-08 5.38974e-08 5.63558e-08 0
3.40567e-08 3.56825e-08 3.51871e-08 3.6815e-08 3.40567e-08 3.56825e-08 3.51871e-08 3.6815e-08 0
3.68198e-08 3.86111e-08 3.79551e-08 3.97443e-08 3.68198e-08 3.86111e-08 3.79551e-08 3.97443e-08 0
3.98719e-08 4.1849e-08 4.10046e-08 4.29743e-08 3.98719e-08 4.1849e-08 4.10046e-08 4.29743e-08 0
4.32438e-08 4.54132e-08 4.43642e-08 4.65188e-08 4.32438e-08 4.54132e-08 4.43642e-08 4.65188e-08 0
4.69453e-08 4.9307e-08 4.80402e-08 5.0378e-08 4.69453e-08 4.9307e-08 4.80402e-08 5.0378e-08 0
5.09769e-08 5.35299e-08 5.20294e-08 5.4546e-08 5.09769e-08 5.35299e-08 5.20294e-08 5.4546e-08 0
5.53248e-08 5.80316e-08 5.6314e-08 5.8974e-08 5.53248e-08 5.80316e-08 5.6314e-08 5.8974e-08 0
5.99529e-08 6.28514e-08 6.08586e-08 6.36936e-08 5.99529e-08 6.28514e-08 6.08586e-08 6.36936e-08 0
6.47683e-08 6.74595e-08 6.5564e-08 6.81818e-08 6.47683e-08 6.74595e-08 6.5564e-08 6.81818e-08 0
3.19418e-08 3.35586e-08 3.31227e-08 3.4743e-08 3.19418e-08 3.35586e-08 3.31227e-08 3.4743e-08 0
3.46833e-08 3.64715e-08 3.58721e-08 3.76605e-08 3.46833e-08 3.64715e-08 3.58721e-08 3.76605e-08 0
3.77247e-08 3.97077e-08 3.89152e-08 4.08932e-08 3.77247e-08 3.97077e-08 3.89152e-08 4.08932e-08 0
4.11023e-08 4.32901e-08 4.22849e-08 4.44604e-08 4.11023e-08 4.32901e-08 4.22849e-08 4.44604e-08 0
4.48323e-08 4.72292e-08 4.59935e-08 4.83683e-08 4.48323e-08 4.72292e-08 4.59935e-08 4.83683e-08 0
4.89231e-08 5.1533e-08 5.00449e-08 5.26202e-08 4.89231e-08 5.1533e-08 5.00449e-08 5.26202e-08 0
5.33677e-08 5.61541e-08 5.44283e-08 5.71662e-08 5.33677e-08 5.61541e-08 5.44283e-08 5.71662e-08 0
5.81321e-08 6.1134e-08 5.91079e-08 6.20486e-08 5.81321e-08 6.1134e-08 5.91079e-08 6.20486e-08 0
6.31256e-08 6.59455e-08 6.39934e-08 6.67363e-08 6.31256e-08 6.59455e-08 6.39934e-08 6.67363e-08 0
2.9743e-08 3.13433e-08 3.09719e-08 3.25807e-08 2.9743e-08 3.13433e-08 3.09719e-08 3.25807e-08 0
3.24514e-08 3.42335e-08 3.36957e-08 3.54796e-08 3.24514e-08 3.42335e-08 3.36957e-08 3.54796e-08 0
3.54759e-08 3.74596e-08 3.67252e-08 3.87071e-08 3.54759e-08 3.74596e-08 3.67252e-08 3.87071e-08 0
3.885e-08 4.10512e-08 4.00969e-08 4.22887e-08 3.885e-08 4.10512e-08 4.00969e-08 4.22887e-08 0
4.26e-08 4.50281e-08 4.38305e-08 4.62389e-08 4.26e-08 4.50281e-08 4.38305e-08 4.62389e-08 0
4.67428e-08 4.94064e-08 4.79382e-08 5.0569e-08 4.67428e-08 4.94064e-08 4.79382e-08 5.0569e-08 0
5.1279e-08 5.41437e-08 5.24162e-08 5.52338e-08 5.1279e-08 5.41437e-08 5.24162e-08 5.52338e-08 0
5.61785e-08 5.92864e-08 5.7232e-08 6.0276e-08 5.61785e-08 5.92864e-08 5.7232e-08 6.0276e-08 0
6.13537e-08 6.43037e-08 6.22958e-08 6.51686e-08 6.13537e-08 6.43037e-08 6.22958e-08 6.51686e-08 0
2.74587e-08 2.90393e-08 2.87377e-08 3.03279e-08 2.74587e-08 2.90393e-08 2.87377e-08 3.03279e-08 0
3.01273e-08 3.18972e-08 3.14247e-08 3.32004e-08 3.01273e-08 3.18972e-08 3.14247e-08 3.32004e-08 0
3.31243e-08 3.5103e-08 3.44335e-08 3.64136e-08 3.31243e-08 3.5103e-08 3.44335e-08 3.64136e-08 0
3.64847e-08 3.86934e-08 3.77974e-08 4.00003e-08 3.64847e-08 3.86934e-08 3.77974e-08 4.00003e-08 0
4.02441e-08 4.26978e-08 4.15467e-08 4.39841e-08 4.02441e-08 4.26978e-08 4.15467e-08 4.39841e-08 0
4.44293e-08 4.71418e-08 4.57026e-08 4.83853e-08 4.44293e-08 4.71418e-08 4.57026e-08 4.83853e-08 0
4.90494e-08 5.19903e-08 5.02692e-08 5.3164e-08 4.90494e-08 5.19903e-08 5.02692e-08 5.3164e-08 0
5.4081e-08 5.72956e-08 5.52188e-08 5.83696e-08 5.4081e-08 5.72956e-08 5.52188e-08 5.83696e-08 0
5.94403e-08 6.25254e-08 6.04656e-08 6.34699e-08 5.94403e-08 6.25254e-08 6.04656e-08 6.34699e-08 0
2.50916e-08 2.66477e-08 2.64185e-08 2.79876e-08 2.50916e-08 2.66477e-08 2.64185e-08 2.79876e-08 0
2.77115e-08 2.94634e-08 2.90626e-08 3.08235e-08 2.77115e-08 2.94634e-08 2.90626e-08 3.08235e-08 0
3.06703e-08 3.26372e-08 3.20392e-08 3.40117e-08 3.06703e-08 3.26372e-08 3.20392e-08 3.40117e-08 0
3.4005e-08 3.62139e-08 3.53846e-08 3.7592e-08 3.4005e-08 3.62139e-08 3.53846e-08 3.7592e-08 0
3.7761e-08 4.02329e-08 3.91382e-08 4.15982e-08 3.7761e-08 4.02329e-08 3.91382e-08 4.15982e-08 0
4.19759e-08 4.47314e-08 4.33314e-08 4.60606e-08 4.19759e-08 4.47314e-08 4.33314e-08 4.60606e-08 0
4.667e-08 4.96836e-08 4.79778e-08 5.09476e-08 4.667e-08 4.96836e-08 4.79778e-08 5.09476e-08 0
5.18287e-08 5.51508e-08 5.30576e-08 5.63153e-08 5.18287e-08 5.51508e-08 5.30576e-08 5.63153e-08 0
5.73742e-08 6.05988e-08 5.84893e-08 6.16307e-08 5.73742e-08 6.05988e-08 5.84893e-08 6.16307e-08 0
6.30876e-08 6.71258e-08 6.40523e-08 6.79775e-08 6.30876e-08 6.71258e-08 6.40523e-08 6.79775e-08 0
2.03839e-08 2.17403e-08 2.17228e-08 2.30963e-08 2.03839e-08 2.17403e-08 2.17228e-08 2.30963e-08 0
2.26476e-08 2.4172e-08 2.40193e-08 2.55609e-08 2.26476e-08 2.4172e-08 2.40193e-08 2.55609e-08 0
2.52064e-08 2.69334e-08 2.66097e-08 2.83499e-08 2.52064e-08 2.69334e-08 2.66097e-08 2.83499e-08 0
2.81148e-08 3.00626e-08 2.95433e-08 3.15009e-08 2.81148e-08 3.00626e-08 2.95433e-08 3.15009e-08 0
3.14102e-08 3.3611e-08 3.28574e-08 3.50617e-08 3.14102e-08 3.3611e-08 3.28574e-08 3.50617e-08 0
3.51479e-08 3.76293e-08 3.66016e-08 3.90762e-08 3.51479e-08 3.76293e-08 3.66016e-08 3.90762e-08 0
3.93771e-08 4.21668e-08 4.08182e-08 4.3587e-08 3.93771e-08 4.21668e-08 4.08182e-08 4.3587e-08 0
4.41309e-08 4.72117e-08 4.55332e-08 4.85735e-08 4.41309e-08 4.72117e-08 4.55332e-08 4.85735e-08 0
4.94089e-08 5.28387e-08 5.0737e-08 5.41023e-08 4.94089e-08 5.28387e-08 5.0737e-08 5.41023e-08 0
5.5143e-08 5.85138e-08 5.63558e-08 5.9639e-08 5.5143e-08 5.85138e-08 5.63558e-08 5.9639e-08 0
6.11147e-08 6.53454e-08 6.21712e-08 6.62887e-08 6.11147e-08 6.53454e-08 6.21712e-08 6.62887e-08 0
6.62946e-08 6.51373e-08 6.71535e-08 6.58659e-08 6.62946e-08 6.51373e-08 6.71535e-08 6.58659e-08 0
2.01195e-08 2.16138e-08 2.15423e-08 2.30516e-08 2.01195e-08 2.16138e-08 2.15423e-08 2.30516e-08 0
2.26167e-08 2.43118e-08 2.40697e-08 2.5782e-08 2.26167e-08 2.43118e-08 2.40697e-08 2.5782e-08 0
2.54621e-08 2.73826e-08 2.69476e-08 2.88828e-08 2.54621e-08 2.73826e-08 2.69476e-08 2.88828e-08 0
2.87038e-08 3.08873e-08 3.02165e-08 3.24088e-08 2.87038e-08 3.08873e-08 3.02165e-08 3.24088e-08 0
3.2406e-08 3.48846e-08 3.39354e-08 3.64149e-08 3.2406e-08 3.48846e-08 3.39354e-08 3.64149e-08 0
3.66297e-08 3.94462e-08 3.81586e-08 4.0958e-08 3.66297e-08 3.94462e-08 3.81586e-08 4.0958e-08 0
4.14292e-08 4.45673e-08 4.2927e-08 4.6031e-08 4.14292e-08 4.45673e-08 4.2927e-08 4.6031e-08 0
4.68095e-08 5.03382e-08 4.82442e-08 5.17149e-08 4.68095e-08 5.03382e-08 4.82442e-08 5.17149e-08 0
5.27214e-08 5.62428e-08 5.4049e-08 5.74808e-08 5.27214e-08 5.62428e-08 5.4049e-08 5.74808e-08 0
5.89634e-08 6.34049e-08 6.01273e-08 6.44423e-08 5.89634e-08 6.34049e-08 6.01273e-08 6.44423e-08 0
6.45035e-08 6.35768e-08 6.54497e-08 6.43869e-08 6.45035e-08 6.35768e-08 6.54497e-08 6.43869e-08 0
0 0 0 0 0 0 0 0 0
0 0 0 0 0 0 0 0 0
0 0 0 0 0 0 0 0 0
0 0 0 0 0 0 0 0 0
0 0 0 0 0 0 0 0 0
0 0 0 0 0 0 0 0 0
0 0 0 0 0 0 0 0 0
0 0 0 0 0 0 0 0 0
0 0 0 0 0 0 0 0 0
0 0 0 0 0 0 0 0 0
0 0 0 0 0 0 0 0 0
0 0 0 0 0 0 0 0 0
0 0 0 0 0 0 0 0 0
0 0 0 0 0 0 0 0 0
0 0 0 0 0 0 0 0 0
0 0 0 0 0 0 0 0 0
0 0 0 0 0 0 0 0 0
0 0 0 0 0 0 0 0 0
0 0 0 0 0 0 0 0 0
0 0 0 0 0 0 0 0 0
0 0 0 0 0 0 0 0 0
0 0 0 0 0 0 0 0 0
0 0 0 0 0 0 0 0 0
0 0 0 0 0 0 0 0 0
0 0 0 0 0 0 0 0 0
0 0 0 0 0 0 0 0 0
0 0 0 0 0 0 0 0 0
0 0 0 0 0 0 0 0 0
0 0 0 0 0 0 0 0 0
0 0 0 0 0 0 0 0 0
0 0 0 0 0 0 0 0 0
0 0 0 0 0 0 0 0 0
0 0 0 0 0 0 0 0 0
0 0 0 0 0 0 0 0 0
0 0 0 0 0 0 0 0 0
0 0 0 0 0 0 0 0 0
0 0 0 0 0 0 0 0 0
0 0 0 0 0 0 0 0 0
0 0 0 0 0 0 0 0 0
0 0 0 0 0 0 0 0 0
0 0 0 0 0 0 0 0 0
0 0 0 0 0 0 0 0 0
0 0 0 0 0 0 0 0 0
0 0 0 0 0 0 0 0 0
0 0 0 0 0 0 0 0 0
0 0 0 0 0 0 0 0 0
0 0 0 0 0 0 0 0 0
0 0 0 0 0 0 0 0 0
0 0 0 0 0 0 0 0 0
0 0 0 0 0 0 0 0 0
0 0 0 0 0 0 0 0 0
0 0 0 0 0 0 0 0 0
0 0 0 0 0 0 0 0 0
0 0 0 0 0 0 0 0 0
0 0 0 0 0 0 0 0 0
0 0 0 0 0 0 0 0 0
0 0 0 0 0 0 0 0 0
0 0 0 0 0 0 0 0 0
0 0 0 0 0 0 0 0 0
0 0 0 0 0 0 0 0 0
0 0 0 0 0 0 0 0 0
0 0 0 0 0 0 0 0 0
0 0 0 0 0 0 0 0 0
0 0 0 0 0 0 0 0 0
0 0 0 0 0 0 0 0 0
0 0 0 0 0 0 0 0 0
0 0 0 0 0 0 0 0 0
0 0 0 0 0 0 0 0 0
0 0 0 0 0 0 0 0 0
0 0 0 0 0 0 0 0 0
0 0 0 0 0 0 0 0 0
0 0 0 0 0 0 0 0 0
0 0 0 0 0 0 0 0 0
0 0 0 0 0 0 0 0 0
0 0 0 0 0 0 0 0 0
0 0 0 0 0 0 0 0 0
0 0 0 0 0 0 0 0 0
0 0 0 0 0 0 0 0 0
0 0 0 0 0 0 0 0 0
0 0 0 0 0 0 0 0 0
0 0 0 0 0 0 0 0 0
0 0 0 0 0 0 0 0 0
0 0 0 0 0 0 0 0 0
0 0 0 0 0 0 0 0 0
0 0 0 0 0 0 0 0 0
0 0 0 0 0 0 0 0 0
0 0 0 0 0 0 0 0 0
0 0 0 0 0 0 0 0 0
0 0 0 0 0 0 0 0 0
0 0 0 0 0 0 0 0 0
0 0 0 0 0 0 0 0 0
0 0 0 0 0 0 0 0 0
0 0 0 0 0 0 0 0 0
0 0 0 0 0 0 0 0 0
0 0 0 0 0 0 0 0 0
0 0 0 0 0 0 0 0 0
0 0 0 0 0 0 0 0 0
0 0 0 0 0 0 0 0 0
0 0 0 0 0 0 0 0 0
0 0 0 0 0 0 0 0 0
0 0 0 0 0 0 0 0 0
0 0 0 0 0 0 0 0 0
0 0 0 0 0 0 0 0 0
0 0 0 0 0 0 0 0 0
0 0 0 0 0 0 0 0 0
0 0 0 0 0 0 0 0 0
0 0 0 0 0 0 0 0 0
0 0 0 0 0 0 0 0 0
0 0 0 0 0 0 0 0 0
0 0 0 0 0 0 0 0 0
0 0 0 0 0 0 0 0 0
0 0 0 0 0 0 0 0 0
0 0 0 0 0 0 0 0 0
0 0 0 0 0 0 0 0 0
0 0 0 0 0 0 0 0 0
0 0 0 0 0 0 0 0 0
0 0 0 0 0 0 0 0 0
0 0 0 0 0 0 0 0 0
0 0 0 0 0 0 0 0 0
0 0 0 0 0 0 0 0 0
0 0 0 0 0 0 0 0 0
0 0 0 0 0 0 0 0 0
0 0 0 0 0 0 0 0 0
0 0 0 0 0 0 0 0 0
0 0 0 0 0 0 0 0 0
0 0 0 0 0 0 0 0 0
0 0 0 0 0 0 0 0 0
0 0 0 0 0 0 0 0 0
0 0 0 0 0 0 0 0 0
0 0 0 0 0 0 0 0 0
0 0 0 0 0 0 0 0 0
0 0 0 0 0 0 0 0 0
0 0 0 0 0 0 0 0 0
0 0 0 0 0 0 0 0 0
0 0 0 0 0 0 0 0 0
0 0 0 0 0 0 0 0 0
0 0 0 0 0 0 0 0 0
0 0 0 0 0 0 0 0 0
0 0 0 0 0 0 0 0 0
0 0 0 0 0 0 0 0 0
0 0 0 0 0 0 0 0 0
0 0 0 0 0 0 0 0 0
0 0 0 0 0 0 0 0 0
0 0 0 0 0 0 0 0 0
0 0 0 0 0 0 0 0 0
0 0 0 0 0 0 0 0 0
0 0 0 0 0 0 0 0 0
0 0 0 0 0 0 0 0 0
0 0 0 0 0 0 0 0 0
0 0 0 0 0 0 0 0 0
0 0 0 0 0 0 0 0 0
0 0 0 0 0 0 0 0 0
0 0 0 0 0 0 0 0 0
0 0 0 0 0 0 0 0 0
0 0 0 0 0 0 0 0 0
0 0 0 0 0 0 0 0 0
0 0 0 0 0 0 0 0 0
0 0 0 0 0 0 0 0 0
0 0 0 0 0 0 0 0 0
0 0 0 0 0 0 0 0 0
0 0 0 0 0 0 0 0 0
0 0 0 0 0 0 0 0 0
0 0 0 0 0 0 0 0 0
0 0 0 0 0 0 0 0 0
0 0 0 0 0 0 0 0 0
0 0 0 0 0 0 0 0 0
0 0 0 0 0 0 0 0 0
0 0 0 0 0 0 0 0 0
0 0 0 0 0 0 0 0 0
0 0 0 0 0 0 0 0 0
0 0 0 0 0 0 0 0 0
0 0 0 0 0 0 0 0 0
0 0 0 0 0 0 0 0 0
0 0 0 0 0 0 0 0 0
0 0 0 0 0 0 0 0 0
0 0 0 0 0 0 0 0 0
0 0 0 0 0 0 0 0 0
0 0 0 0 0 0 0 0 0
0 0 0 0 0 0 0 0 0
0 0 0 0 0 0 0 0 0
0 0 0 0 0 0 0 0 0
0 0 0 0 0 0 0 0 0
0 0 0 0 0 0 0 0 0
0 0 0 0 0 0 0 0 0
0 0 0 0 0 0 0 0 0
0 0 0 0 0 0 0 0 0
0 0 0 0 0 0 0 0 0
0 0 0 0 0 0 0 0 0
0 0 0 0 0 0 0 0 0
0 0 0 0 0 0 0 0 0
0 0 0 0 0 0 0 0 0
0 0 0 0 0 0 0 0 0
0 0 0 0 0 0 0 0 0
0 0 0 0 0 0 0 0 0
0 0 0 0 0 0 0 0 0
0 0 0 0 0 0 0 0 0
0 0 0 0 0 0 0 0 0
0 0 0 0 0 0 0 0 0
0 0 0 0 0 0 0 0 0
0 0 0 0 0 0 0 0 0
0 0 0 0 0 0 0 0 0
0 0 0 0 0 0 0 0 0
0 0 0 0 0 0 0 0 0
0 0 0 0 0 0 0 0 0
0 0 0 0 0 0 0 0 0
0 0 0 0 0 0 0 0 0
0 0 0 0 0 0 0 0 0
0 0 0 0 0 0 0 0 0
0 0 0 0 0 0 0 0 0
0 0 0 0 0 0 0 0 0
0 0 0 0 0 0 0 0 0
0 0 0 0 0 0 0 0 0
0 0 0 0 0 0 0 0 0
0 0 0 0 0 0 0 0 0
0 0 0 0 0 0 0 0 0
0 0 0 0 0 0 0 0 0
0 0 0 0 0 0 0 0 0
0 0 0 0 0 0 0 0 0
0 0 0 0 0 0 0 0 0
0 0 0 0 0 0 0 0 0
0 0 0 0 0 0 0 0 0
0 0 0 0 0 0 0 0 0
0 0 0 0 0 0 0 0 0
0 0 0 0 0 0 0 0 0
0 0 0 0 0 0 0 0 0
0 0 0 0 0 0 0 0 0
0 0 0 0 0 0 0 0 0
0 0 0 0 0 0 0 0 0
0 0 0 0 0 0 0 0 0
0 0 0 0 0 0 0 0 0
0 0 0 0 0 0 0 0 0
0 0 0 0 0 0 0 0 0
0 0 0 0 0 0 0 0 0
0 0 0 0 0 0 0 0 0
0 0 0 0 0 0 0 0 0
0 0 0 0 0 0 0 0 0
0 0 0 0 0 0 0 0 0
0 0 0 0 0 0 0 0 0
0 0 0 0 0 0 0 0 0
0 0 0 0 0 0 0 0 0
0 0 0 0 0 0 0 0 0
0 0 0 0 0 0 0 0 0
0 0 0 0 0 0 0 0 0
0 0 0 0 0 0 0 0 0
0 0 0 0 0 0 0 0 0
0 0 0 0 0 0 0 0 0
0 0 0 0 0 0 0 0 0
0 0 0 0 0 0 0 0 0
0 0 0 0 0 0 0 0 0
0 0 0 0 0 0 0 0 0
0 0 0 0 0 0 0 0 0
0 0 0 0 0 0 0 0 0
0 0 0 0 0 0 0 0 0
0 0 0 0 0 0 0 0 0
0 0 0 0 0 0 0 0 0
0 0 0 0 0 0 0 0 0
0 0 0 0 0 0 0 0 0
0 0 0 0 0 0 0 0 0
0 0 0 0 0 0 0 0 0
0 0 0 0 0 0 0 0 0
0 0 0 0 0 0 0 0 0
0 0 0 0 0 0 0 0 0
0 0 0 0 0 0 0 0 0
0 0 0 0 0 0 0 0 0
0 0 0 0 0 0 0 0 0
0 0 0 0 0 0 0 0 0
0 0 0 0 0 0 0 0 0
0 0 0 0 0 0 0 0 0
0 0 0 0 0 0 0 0 0
0 0 0 0 0 0 0 0 0
0 0 0 0 0 0 0 0 0
0 0 0 0 0 0 0 0 0
0 0 0 0 0 0 0 0 0
0 0 0 0 0 0 0 0 0
0 0 0 0 0 0 0 0 0
0 0 0 0 0 0 0 0 0
0 0 0 0 0 0 0 0 0
0 0 0 0 0 0 0 0 0
0 0 0 0 0 0 0 0 0
0 0 0 0 0 0 0 0 0
0 0 0 0 0 0 0 0 0
0 0 0 0 0 0 0 0 0
0 0 0 0 0 0 0 0 0
0 0 0 0 0 0 0 0 0
0 0 0 0 0 0 0 0 0
0 0 0 0 0 0 0 0 0
0 0 0 0 0 0 0 0 0
0 0 0 0 0 0 0 0 0
0 0 0 0 0 0 0 0 0
0 0 0 0 0 0 0 0 0
0 0 0 0 0 0 0 0 0
0 0 0 0 0 0 0 0 0
0 0 0 0 0 0 0 0 0
0 0 0 0 0 0 0 0 0
0 0 0 0 0 0 0 0 0
0 0 0 0 0 0 0 0 0
0 0 0 0 0 0 0 0 0
0 0 0 0 0 0 0 0 0
0 0 0 0 0 0 0 0 0
0 0 0 0 0 0 0 0 0
0 0 0 0 0 0 0 0 0
0 0 0 0 0 0 0 0 0
0 0 0 0 0 0 0 0 0
0 0 0 0 0 0 0 0 0
0 0 0 0 0 0 0 0 0
0 0 0 0 0 0 0 0 0
0 0 0 0 0 0 0 0 0
0 0 0 0 0 0 0 0 0
0 0 0 0 0 0 0 0 0
0 0 0 0 0 0 0 0 0
0 0 0 0 0 0 0 0 0
0 0 0 0 0 0 0 0 0
0 0 0 0 0 0 0 0 0
0 0 0 0 0 0 0 0 0
0 0 0 0 0 0 0 0 0
0 0 0 0 0 0 0 0 0
0 0 0 0 0 0 0 0 0
0 0 0 0 0 0 0 0 0
0 0 0 0 0 0 0 0 0
0 0 0 0 0 0 0 0 0
0 0 0 0 0 0 0 0 0
0 0 0 0 0 0 0 0 0
0 0 0 0 0 0 0 0 0
0 0 0 0 0 0 0 0 0
0 0 0 0 0 0 0 0 0
0 0 0 0 0 0 0 0 0
0 0 0 0 0 0 0 0 0
0 0 0 0 0 0 0 0 0
0 0 0 0 0 0 0 0 0
0 0 0 0 0 0 0 0 0
0 0 0 0 0 0 0 0 0
0 0 0 0 0 0 0 0 0
0 0 0 0 0 0 0 0 0
0 0 0 0 0 0 0 0 0
0 0 0 0 0 0 0 0 0
0 0 0 0 0 0 0 0 0
0 0 0 0 0 0 0 0 0
0 0 0 0 0 0 0 0 0
0 0 0 0 0 0 0 0 0
0 0 0 0 0 0 0 0 0
0 0 0 0 0 0 0 0 0
0 0 0 0 0 0 0 0 0
0 0 0 0 0 0 0 0 0
0 0 0 0 0 0 0 0 0
0 0 0 0 0 0 0 0 0
0 0 0 0 0 0 0 0 0
0 0 0 0 0 0 0 0 0
0 0 0 0 0 0 0 0 0
0 0 0 0 0 0 0 0 0
0 0 0 0 0 0 0 0 0
0 0 0 0 0 0 0 0 0
0 0 0 0 0 0 0 0 0
0 0 0 0 0 0 0 0 0
0 0 0 0 0 0 0 0 0
0 0 0 0 0 0 0 0 0
0 0 0 0 0 0 0 0 0
0 0 0 0 0 0 0 0 0
0 0 0 0 0 0 0 0 0
0 0 0 0 0 0 0 0 0
0 0 0 0 0 0 0 0 0
0 0 0 0 0 0 0 0 0
0 0 0 0 0 0 0 0 0
0 0 0 0 0 0 0 0 0
0 0 0 0 0 0 0 0 0
0 0 0 0 0 0 0 0 0
0 0 0 0 0 0 0 0 0
0 0 0 0 0 0 0 0 0
0 0 0 0 0 0 0 0 0
0 0 0 0 0 0 0 0 0
0 0 0 0 0 0 0 0 0
0 0 0 0 0 0 0 0 0
0 0 0 0 0 0 0 0 0
0 0 0 0 0 0 0 0 0
0 0 0 0 0 0 0 0 0
0 0 0 0 0 0 0 0 0
0 0 0 0 0 0 0 0 0
0 0 0 0 0 0 0 0 0
0 0 0 0 0 0 0 0 0
0 0 0 0 0 0 0 0 0
0 0 0 0 0 0 0 0 0
0 0 0 0 0 0 0 0 0
0 0 0 0 0 0 0 0 0
0 0 0 0 0 0 0 0 0
0 0 0 0 0 0 0 0 0
0 0 0 0 0 0 0 0 0
0 0 0 0 0 0 0 0 0
0 0 0 0 0 0 0 0 0
0 0 0 0 0 0 0 0 0
0 0 0 0 0 0 0 0 0
0 0 0 0 0 0 0 0 0
0 0 0 0 0 0 0 0 0
0 0 0 0 0 0 0 0 0
0 0 0 0 0 0 0 0 0
0 0 0 0 0 0 0 0 0
0 0 0 0 0 0 0 0 0
0 0 0 0 0 0 0 0 0
0 0 0 0 0 0 0 0 0
0 0 0 0 0 0 0 0 0
0 0 0 0 0 0 0 0 0
0 0 0 0 0 0 0 0 0
0 0 0 0 0 0 0 0 0
0 0 0 0 0 0 0 0 0
0 0 0 0 0 0 0 0 0
0 0 0 0 0 0 0 0 0
0 0 0 0 0 0 0 0 0
0 0 0 0 0 0 0 0 0
0 0 0 0 0 0 0 0 0
0 0 0 0 0 0 0 0 0
0 0 0 0 0 0 0 0 0
0 0 0 0 0 0 0 0 0
0 0 0 0 0 0 0 0 0
0 0 0 0 0 0 0 0 0
0 0 0 0 0 0 0 0 0
0 0 0 0 0 0 0 0 0
0 0 0 0 0 0 0 0 0
0 0 0 0 0 0 0 0 0
0 0 0 0 0 0 0 0 0
0 0 0 0 0 0 0 0 0
0 0 0 0 0 0 0 0 0
0 0 0 0 0 0 0 0 0
0 0 0 0 0 0 0 0 0
0 0 0 0 0 0 0 0 0
0 0 0 0 0 0 0 0 0
0 0 0 0 0 0 0 0 0
0 0 0 0 0 0 0 0 0
0 0 0 0 0 0 0 0 0
0 0 0 0 0 0 0 0 0
0 0 0 0 0 0 0 0 0
0 0 0 0 0 0 0 0 0
0 0 0 0 0 0 0 0 0
0 0 0 0 0 0 0 0 0
0 0 0 0 0 0 0 0 0
0 0 0 0 0 0 0 0 0
0 0 0 0 0 0 0 0 0
0 0 0 0 0 0 0 0 0
0 0 0 0 0 0 0 0 0
0 0 0 0 0 0 0 0 0
0 0 0 0 0 0 0 0 0
0 0 0 0 0 0 0 0 0
0 0 0 0 0 0 0 0 0
0 0 0 0 0 0 0 0 0
0 0 0 0 0 0 0 0 0
0 0 0 0 0 0 0 0 0
0 0 0 0 0 0 0 0 0
0 0 0 0 0 0 0 0 0
0 0 0 0 0 0 0 0 0
0 0 0 0 0 0 0 0 0
0 0 0 0 0 0 0 0 0
0 0 0 0 0 0 0 0 0
0 0 0 0 0 0 0 0 0
0 0 0 0 0 0 0 0 0
0 0 0 0 0 0 0 0 0
0 0 0 0 0 0 0 0 0
0 0 0 0 0 0 0 0 0
0 0 0 0 0 0 0 0 0
0 0 0 0 0 0 0 0 0
0 0 0 0 0 0 0 0 0
0 0 0 0 0 0 0 0 0
0 0 0 0 0 0 0 0 0
0 0 0 0 0 0 0 0 0
0 0 0 0 0 0 0 0 0
0 0 0 0 0 0 0 0 0
0 0 0 0 0 0 0 0 0
0 0 0 0 0 0 0 0 0
0 0 0 0 0 0 0 0 0
0 0 0 0 0 0 0 0 0
0 0 0 0 0 0 0 0 0
0 0 0 0 0 0 0 0 0
0 0 0 0 0 0 0 0 0
0 0 0 0 0 0 0 0 0
0 0 0 0 0 0 0 0 0
0 0 0 0 0 0 0 0 0
0 0 0 0 0 0 0 0 0
0 0 0 0 0 0 0 0 0
0 0 0 0 0 0 0 0 0
0 0 0 0 0 0 0 0 0
0 0 0 0 0 0 0 0 0
0 0 0 0 0 0 0 0 0
0 0 0 0 0 0 0 0 0
0 0 0 0 0 0 0 0 0
0 0 0 0 0 0 0 0 0
0 0 0 0 0 0 0 0 0
0 0 0 0 0 0 0 0 0
0 0 0 0 0 0 0 0 0
0 0 0 0 0 0 0 0 0
0 0 0 0 0 0 0 0 0
0 0 0 0 0 0 0 0 0
0 0 0 0 0 0 0 0 0
0 0 0 0 0 0 0 0 0
0 0 0 0 0 0 0 0 0
0 0 0 0 0 0 0 0 0
0 0 0 0 0 0 0 0 0
0 0 0 0 0 0 0 0 0
0 0 0 0 0 0 0 0 0
0 0 0 0 0 0 0 0 0
0 0 0 0 0 0 0 0 0
0 0 0 0 0 0 0 0 0
0 0 0 0 0 0 0 0 0
0 0 0 0 0 0 0 0 0
0 0 0 0 0 0 0 0 0
0 0 0 0 0 0 0 0 0
0 0 0 0 0 0 0 0 0
0 0 0 0 0 0 0 0 0
0 0 0 0 0 0 0 0 0
0 0 0 0 0 0 0 0 0
0 0 0 0 0 0 0 0 0
0 0 0 0 0 0 0 0 0
0 0 0 0 0 0 0 0 0
0 0 0 0 0 0 0 0 0
0 0 0 0 0 0 0 0 0
0 0 0 0 0 0 0 0 0
0 0 0 0 0 0 0 0 0
0 0 0 0 0 0 0 0 0
0 0 0 0 0 0 0 0 0
0 0 0 0 0 0 0 0 0
0 0 0 0 0 0 0 0 0
0 0 0 0 0 0 0 0 0
0 0 0 0 0 0 0 0 0
0 0 0 0 0 0 0 0 0
0 0 0 0 0 0 0 0 0
0 0 0 0 0 0 0 0 0
0 0 0 0 0 0 0 0 0
0 0 0 0 0 0 0 0 0
0 0 0 0 0 0 0 0 0
0 0 0 0 0 0 0 0 0
0 0 0 0 0 0 0 0 0
0 0 0 0 0 0 0 0 0
0 0 0 0 0 0 0 0 0
0 0 0 0 0 0 0 0 0
0 0 0 0 0 0 0 0 0
0 0 0 0 0 0 0 0 0
0 0 0 0 0 0 0 0 0
0 0 0 0 0 0 0 0 0
0 0 0 0 0 0 0 0 0
0 0 0 0 0 0 0 0 0
0 0 0 0 0 0 0 0 0
0 0 0 0 0 0 0 0 0
0 0 0 0 0 0 0 0 0
0 0 0 0 0 0 0 0 0
0 0 0 0 0 0 0 0 0
0 0 0 0 0 0 0 0 0
0 0 0 0 0 0 0 0 0
0 0 0 0 0 0 0 0 0
0 0 0 0 0 0 0 0 0
0 0 0 0 0 0 0 0 0
0 0 0 0 0 0 0 0 0
0 0 0 0 0 0 0 0 0
0 0 0 0 0 0 0 0 0
0 0 0 0 0 0 0 0 0
0 0 0 0 0 0 0 0 0
0 0 0 0 0 0 0 0 0
0 0 0 0 0 0 0 0 0
0 0 0 0 0 0 0 0 0
0 0 0 0 0 0 0 0 0
0 0 0 0 0 0 0 0 0
0 0 0 0 0 0 0 0 0
0 0 0 0 0 0 0 0 0
0 0 0 0 0 0 0 0 0
0 0 0 0 0 0 0 0 0
0 0 0 0 0 0 0 0 0
0 0 0 0 0 0 0 0 0
0 0 0 0 0 0 0 0 0
0 0 0 0 0 0 0 0 0
0 0 0 0 0 0 0 0 0
0 0 0 0 0 0 0 0 0
0 0 0 0 0 0 0 0 0
0 0 0 0 0 0 0 0 0
2.12247e-08 2.21978e-08 2.18005e-08 2.2771e-08 2.12247e-08 2.21978e-08 2.18005e-08 2.2771e-08 0
2.28889e-08 2.39494e-08 2.34618e-08 2.45204e-08 2.28889e-08 2.39494e-08 2.34618e-08 2.45204e-08 0
2.47085e-08 2.58741e-08 2.52776e-08 2.64357e-08 2.47085e-08 2.58741e-08 2.52776e-08 2.64357e-08 0
2.6709e-08 2.79825e-08 2.72649e-08 2.85259e-08 2.6709e-08 2.79825e-08 2.72649e-08 2.85259e-08 0
2.88935e-08 3.0272e-08 2.9428e-08 3.079e-08 2.88935e-08 3.0272e-08 2.9428e-08 3.079e-08 0
3.12523e-08 3.27189e-08 3.17593e-08 3.32075e-08 3.12523e-08 3.27189e-08 3.17593e-08 3.32075e-08 0
2.01391e-08 2.11097e-08 2.07462e-08 2.17181e-08 2.01391e-08 2.11097e-08 2.07462e-08 2.17181e-08 0
2.17969e-08 2.2861e-08 2.24061e-08 2.34668e-08 2.17969e-08 2.2861e-08 2.24061e-08 2.34668e-08 0
2.36205e-08 2.47961e-08 2.42243e-08 2.53933e-08 2.36205e-08 2.47961e-08 2.42243e-08 2.53933e-08 0
2.56362e-08 2.69266e-08 2.62288e-08 2.75088e-08 2.56362e-08 2.69266e-08 2.62288e-08 2.75088e-08 0
2.78481e-08 2.92515e-08 2.84227e-08 2.98109e-08 2.78481e-08 2.92515e-08 2.84227e-08 2.98109e-08 0
3.02489e-08 3.17507e-08 3.07964e-08 3.2276e-08 3.02489e-08 3.17507e-08 3.07964e-08 3.2276e-08 0
1.90056e-08 1.99717e-08 1.96389e-08 2.06067e-08 1.90056e-08 1.99717e-08 1.96389e-08 2.06067e-08 0
2.06536e-08 2.17196e-08 2.12901e-08 2.23543e-08 2.06536e-08 2.17196e-08 2.12901e-08 2.23543e-08 0
2.24781e-08 2.36614e-08 2.31119e-08 2.429e-08 2.24781e-08 2.36614e-08 2.31119e-08 2.429e-08 0
2.45047e-08 2.58095e-08 2.51298e-08 2.64255e-08 2.45047e-08 2.58095e-08 2.51298e-08 2.64255e-08 0
2.67396e-08 2.8166e-08 2.73489e-08 2.87612e-08 2.67396e-08 2.8166e-08 2.73489e-08 2.87612e-08 0
2.918e-08 3.07183e-08 2.97637e-08 3.12798e-08 2.918e-08 3.07183e-08 2.97637e-08 3.12798e-08 0
3.18132e-08 3.34636e-08 3.23577e-08 3.39785e-08 3.18132e-08 3.34636e-08 3.23577e-08 3.39785e-08 0
3.4615e-08 3.63088e-08 3.51059e-08 3.67586e-08 3.4615e-08 3.63088e-08 3.51059e-08 3.67586e-08 0
3.75328e-08 3.93811e-08 3.79532e-08 3.97571e-08 3.75328e-08 3.93811e-08 3.79532e-08 3.97571e-08 0
1.78242e-08 1.87848e-08 1.84853e-08 1.94482e-08 1.78242e-08 1.87848e-08 1.84853e-08 1.94482e-08 0
1.94598e-08 2.05246e-08 2.01256e-08 2.11905e-08 1.94598e-08 2.05246e-08 2.01256e-08 2.11905e-08 0
2.12797e-08 2.24676e-08 2.19461e-08 2.31306e-08 2.12797e-08 2.24676e-08 2.19461e-08 2.31306e-08 0
2.33119e-08 2.46283e-08 2.39727e-08 2.52816e-08 2.33119e-08 2.46283e-08 2.39727e-08 2.52816e-08 0
2.55655e-08 2.70138e-08 2.6213e-08 2.76477e-08 2.55655e-08 2.70138e-08 2.6213e-08 2.76477e-08 0
2.80438e-08 2.96187e-08 2.86665e-08 3.02191e-08 2.80438e-08 2.96187e-08 2.86665e-08 3.02191e-08 0
3.07407e-08 3.24437e-08 3.13232e-08 3.29943e-08 3.07407e-08 3.24437e-08 3.13232e-08 3.29943e-08 0
3.36321e-08 3.53897e-08 3.41595e-08 3.58801e-08 3.36321e-08 3.53897e-08 3.41595e-08 3.58801e-08 0
3.66617e-08 3.85924e-08 3.71224e-08 3.90034e-08 3.66617e-08 3.85924e-08 3.71224e-08 3.90034e-08 0
1.65988e-08 1.75475e-08 1.72845e-08 1.824e-08 1.65988e-08 1.75475e-08 1.72845e-08 1.824e-08 0
1.82124e-08 1.92743e-08 1.89095e-08 1.99722e-08 1.82124e-08 1.92743e-08 1.89095e-08 1.99722e-08 0
2.00237e-08 2.12126e-08 2.07233e-08 2.1911e-08 2.00237e-08 2.12126e-08 2.07233e-08 2.1911e-08 0
2.20553e-08 2.33807e-08 2.27531e-08 2.40724e-08 2.20553e-08 2.33807e-08 2.27531e-08 2.40724e-08 0
2.43233e-08 2.5792e-08 2.50101e-08 2.64661e-08 2.43233e-08 2.5792e-08 2.50101e-08 2.64661e-08 0
2.68367e-08 2.8447e-08 2.75005e-08 2.90893e-08 2.68367e-08 2.8447e-08 2.75005e-08 2.90893e-08 0
2.95949e-08 3.1349e-08 3.02205e-08 3.19443e-08 2.95949e-08 3.1349e-08 3.02205e-08 3.19443e-08 0
3.25743e-08 3.43975e-08 3.31462e-08 3.49299e-08 3.25743e-08 3.43975e-08 3.31462e-08 3.49299e-08 0
3.57166e-08 3.77266e-08 3.62199e-08 3.81839e-08 3.57166e-08 3.77266e-08 3.62199e-08 3.81839e-08 0
1.53254e-08 1.62611e-08 1.60398e-08 1.69818e-08 1.53254e-08 1.62611e-08 1.60398e-08 1.69818e-08 0
1.69137e-08 1.79679e-08 1.76401e-08 1.86983e-08 1.69137e-08 1.79679e-08 1.76401e-08 1.86983e-08 0
1.87086e-08 1.98949e-08 1.94426e-08 2.06297e-08 1.87086e-08 1.98949e-08 1.94426e-08 2.06297e-08 0
2.07336e-08 2.20649e-08 2.14692e-08 2.27963e-08 2.07336e-08 2.20649e-08 2.14692e-08 2.27963e-08 0
2.30105e-08 2.44969e-08 2.37385e-08 2.52138e-08 2.30105e-08 2.44969e-08 2.37385e-08 2.52138e-08 0
2.55544e-08 2.71972e-08 2.62621e-08 2.78853e-08 2.55544e-08 2.71972e-08 2.62621e-08 2.78853e-08 0
2.83691e-08 3.01725e-08 2.90415e-08 3.08155e-08 2.83691e-08 3.01725e-08 2.90415e-08 3.08155e-08 0
3.14338e-08 3.3323e-08 3.2054e-08 3.39041e-08 3.14338e-08 3.3323e-08 3.2054e-08 3.39041e-08 0
3.46909e-08 3.67851e-08 3.52415e-08 3.7285e-08 3.46909e-08 3.67851e-08 3.52415e-08 3.7285e-08 0
1.40059e-08 1.49248e-08 1.47467e-08 1.56748e-08 1.40059e-08 1.49248e-08 1.47467e-08 1.56748e-08 0
1.55623e-08 1.66046e-08 1.63197e-08 1.73683e-08 1.55623e-08 1.66046e-08 1.63197e-08 1.73683e-08 0
1.73335e-08 1.85132e-08 1.81025e-08 1.92854e-08 1.73335e-08 1.85132e-08 1.81025e-08 1.92854e-08 0
1.93448e-08 2.0678e-08 2.01196e-08 2.1451e-08 1.93448e-08 2.0678e-08 2.01196e-08 2.1451e-08 0
2.16238e-08 2.3124e-08 2.23951e-08 2.38866e-08 2.16238e-08 2.3124e-08 2.23951e-08 2.38866e-08 0
2.41913e-08 2.58636e-08 2.49465e-08 2.6601e-08 2.41913e-08 2.58636e-08 2.49465e-08 2.6601e-08 0
2.70572e-08 2.89072e-08 2.77803e-08 2.96025e-08 2.70572e-08 2.89072e-08 2.77803e-08 2.96025e-08 0
3.02039e-08 3.21601e-08 3.08767e-08 3.27929e-08 3.02039e-08 3.21601e-08 3.08767e-08 3.27929e-08 0
3.35793e-08 3.57635e-08 3.41801e-08 3.63106e-08 3.35793e-08 3.57635e-08 3.41801e-08 3.63106e-08 0
3.70672e-08 3.87049e-08 3.75741e-08 3.91491e-08 3.70672e-08 3.87049e-08 3.75741e-08 3.91491e-08 0
1.13162e-08 1.21038e-08 1.20607e-08 1.28611e-08 1.13162e-08 1.21038e-08 1.20607e-08 1.28611e-08 0
1.2641e-08 1.35408e-08 1.34084e-08 1.43184e-08 1.2641e-08 1.35408e-08 1.34084e-08 1.43184e-08 0
1.41608e-08 1.51879e-08 1.49471e-08 1.59823e-08 1.41608e-08 1.51879e-08 1.49471e-08 1.59823e-08 0
1.5902e-08 1.70708e-08 1.67035e-08 1.78779e-08 1.5902e-08 1.70708e-08 1.67035e-08 1.78779e-08 0
1.78918e-08 1.92216e-08 1.87036e-08 2.00349e-08 1.78918e-08 1.92216e-08 1.87036e-08 2.00349e-08 0
2.01638e-08 2.16734e-08 2.09777e-08 2.24812e-08 2.01638e-08 2.16734e-08 2.09777e-08 2.24812e-08 0
2.27467e-08 2.44426e-08 2.35495e-08 2.52313e-08 2.27467e-08 2.44426e-08 2.35495e-08 2.52313e-08 0
2.56546e-08 2.75486e-08 2.64309e-08 2.82986e-08 2.56546e-08 2.75486e-08 2.64309e-08 2.82986e-08 0
2.88797e-08 3.09039e-08 2.96078e-08 3.15916e-08 2.88797e-08 3.09039e-08 2.96078e-08 3.15916e-08 0
3.23759e-08 3.46547e-08 3.30307e-08 3.52532e-08 3.23759e-08 3.46547e-08 3.30307e-08 3.52532e-08 0
3.60258e-08 3.77709e-08 3.65832e-08 3.82651e-08 3.60258e-08 3.77709e-08 3.65832e-08 3.82651e-08 0
3.92446e-08 4.1797e-08 3.96883e-08 4.21585e-08 3.92446e-08 4.1797e-08 3.96883e-08 4.21585e-08 0
1.1228e-08 1.21027e-08 1.20242e-08 1.29132e-08 1.1228e-08 1.21027e-08 1.20242e-08 1.29132e-08 0
1.27017e-08 1.37094e-08 1.35232e-08 1.45415e-08 1.27017e-08 1.37094e-08 1.35232e-08 1.45415e-08 0
1.44052e-08 1.55576e-08 1.52466e-08 1.64081e-08 1.44052e-08 1.55576e-08 1.52466e-08 1.64081e-08 0
1.6364e-08 1.76859e-08 1.72215e-08 1.85474e-08 1.6364e-08 1.76859e-08 1.72215e-08 1.85474e-08 0
1.86194e-08 2.01296e-08 1.94845e-08 2.09943e-08 1.86194e-08 2.01296e-08 1.94845e-08 2.09943e-08 0
2.12049e-08 2.29228e-08 2.20669e-08 2.3771e-08 2.12049e-08 2.29228e-08 2.20669e-08 2.3771e-08 0
2.4151e-08 2.60849e-08 2.49879e-08 2.6898e-08 2.4151e-08 2.60849e-08 2.49879e-08 2.6898e-08 0
2.74472e-08 2.95348e-08 2.82406e-08 3.02911e-08 2.74472e-08 2.95348e-08 2.82406e-08 3.02911e-08 0
3.10583e-08 3.34333e-08 3.1783e-08 3.41012e-08 3.10583e-08 3.34333e-08 3.1783e-08 3.41012e-08 0
3.48757e-08 3.67383e-08 3.54997e-08 3.72919e-08 3.48757e-08 3.67383e-08 3.54997e-08 3.72919e-08 0
3.8302e-08 4.10014e-08 3.88008e-08 4.14134e-08 3.8302e-08 4.10014e-08 3.88008e-08 4.14134e-08 0
0 0 0 0 0 0 0 0 0
0 0 0 0 0 0 0 0 0
0 0 0 0 0 0 0 0 0
0 0 0 0 0 0 0 0 0
0 0 0 0 0 0 0 0 0
0 0 0 0 0 0 0 0 0
0 0 0 0 0 0 0 0 0
0 0 0 0 0 0 0 0 0
0 0 0 0 0 0 0 0 0
0 0 0 0 0 0 0 0 0
0 0 0 0 0 0 0 0 0
0 0 0 0 0 0 0 0 0
0 0 0 0 0 0 0 0 0
0 0 0 0 0 0 0 0 0
0 0 0 0 0 0 0 0 0
0 0 0 0 0 0 0 0 0
0 0 0 0 0 0 0 0 0
0 0 0 0 0 0 0 0 0
0 0 0 0 0 0 0 0 0
0 0 0 0 0 0 0 0 0
0 0 0 0 0 0 0 0 0
0 0 0 0 0 0 0 0 0
0 0 0 0 0 0 0 0 0
0 0 0 0 0 0 0 0 0
0 0 0 0 0 0 0 0 0
0 0 0 0 0 0 0 0 0
0 0 0 0 0 0 0 0 0
0 0 0 0 0 0 0 0 0
0 0 0 0 0 0 0 0 0
0 0 0 0 0 0 0 0 0
0 0 0 0 0 0 0 0 0
0 0 0 0 0 0 0 0 0
0 0 0 0 0 0 0 0 0
0 0 0 0 0 0 0 0 0
0 0 0 0 0 0 0 0 0
0 0 0 0 0 0 0 0 0
0 0 0 0 0 0 0 0 0
0 0 0 0 0 0 0 0 0
0 0 0 0 0 0 0 0 0
0 0 0 0 0 0 0 0 0
0 0 0 0 0 0 0 0 0
0 0 0 0 0 0 0 0 0
0 0 0 0 0 0 0 0 0
0 0 0 0 0 0 0 0 0
0 0 0 0 0 0 0 0 0
0 0 0 0 0 0 0 0 0
0 0 0 0 0 0 0 0 0
0 0 0 0 0 0 0 0 0
0 0 0 0 0 0 0 0 0
0 0 0 0 0 0 0 0 0
0 0 0 0 0 0 0 0 0
0 0 0 0 0 0 0 0 0
0 0 0 0 0 0 0 0 0
0 0 0 0 0 0 0 0 0
0 0 0 0 0 0 0 0 0
0 0 0 0 0 0 0 0 0
0 0 0 0 0 0 0 0 0
0 0 0 0 0 0 0 0 0
0 0 0 0 0 0 0 0 0
0 0 0 0 0 0 0 0 0
0 0 0 0 0 0 0 0 0
0 0 0 0 0 0 0 0 0
0 0 0 0 0 0 0 0 0
0 0 0 0 0 0 0 0 0
0 0 0 0 0 0 0 0 0
0 0 0 0 0 0 0 0 0
0 0 0 0 0 0 0 0 0
0 0 0 0 0 0 0 0 0
0 0 0 0 0 0 0 0 0
0 0 0 0 0 0 0 0 0
0 0 0 0 0 0 0 0 0
0 0 0 0 0 0 0 0 0
0 0 0 0 0 0 0 0 0
0 0 0 0 0 0 0 0 0
0 0 0 0 0 0 0 0 0
0 0 0 0 0 0 0 0 0
0 0 0 0 0 0 0 0 0
0 0 0 0 0 0 0 0 0
0 0 0 0 0 0 0 0 0
0 0 0 0 0 0 0 0 0
0 0 0 0 0 0 0 0 0
1.31629e-08 1.36784e-08 1.3706e-08 1.42153e-08 1.31629e-08 1.36784e-08 1.3706e-08 1.42153e-08 0
1.40173e-08 1.45708e-08 1.45508e-08 1.50972e-08 1.40173e-08 1.45708e-08 1.45508e-08 1.50972e-08 0
1.49397e-08 1.55437e-08 1.54608e-08 1.60534e-08 1.49397e-08 1.55437e-08 1.54608e-08 1.60534e-08 0
1.59467e-08 1.65991e-08 1.6448e-08 1.70848e-08 1.59467e-08 1.65991e-08 1.6448e-08 1.70848e-08 0
1.70319e-08 1.77223e-08 1.75068e-08 1.81787e-08 1.70319e-08 1.77223e-08 1.75068e-08 1.81787e-08 0
1.81786e-08 1.8899e-08 1.86226e-08 1.93232e-08 1.81786e-08 1.8899e-08 1.86226e-08 1.93232e-08 0
1.21364e-08 1.26601e-08 1.27101e-08 1.32282e-08 1.21364e-08 1.26601e-08 1.27101e-08 1.32282e-08 0
1.30028e-08 1.35696e-08 1.3567e-08 1.41247e-08 1.30028e-08 1.35696e-08 1.3567e-08 1.41247e-08 0
1.39456e-08 1.45677e-08 1.44948e-08 1.51055e-08 1.39456e-08 1.45677e-08 1.44948e-08 1.51055e-08 0
1.49812e-08 1.56568e-08 1.55113e-08 1.61728e-08 1.49812e-08 1.56568e-08 1.55113e-08 1.61728e-08 0
1.61041e-08 1.68238e-08 1.661e-08 1.73119e-08 1.61041e-08 1.68238e-08 1.661e-08 1.73119e-08 0
1.72998e-08 1.80577e-08 1.77745e-08 1.8509e-08 1.72998e-08 1.80577e-08 1.77745e-08 1.8509e-08 0
1.10602e-08 1.15902e-08 1.16617e-08 1.21874e-08 1.10602e-08 1.15902e-08 1.16617e-08 1.21874e-08 0
1.19356e-08 1.25153e-08 1.25298e-08 1.31011e-08 1.19356e-08 1.25153e-08 1.25298e-08 1.31011e-08 0
1.28978e-08 1.35369e-08 1.34783e-08 1.41067e-08 1.28978e-08 1.35369e-08 1.34783e-08 1.41067e-08 0
1.39599e-08 1.46572e-08 1.45226e-08 1.52065e-08 1.39599e-08 1.46572e-08 1.45226e-08 1.52065e-08 0
1.51181e-08 1.58665e-08 1.56577e-08 1.63885e-08 1.51181e-08 1.58665e-08 1.56577e-08 1.63885e-08 0
1.63613e-08 1.7156e-08 1.68707e-08 1.76434e-08 1.63613e-08 1.7156e-08 1.68707e-08 1.76434e-08 0
1.76729e-08 1.84848e-08 1.81436e-08 1.89267e-08 1.76729e-08 1.84848e-08 1.81436e-08 1.89267e-08 0
1.90398e-08 1.99401e-08 1.94598e-08 2.03237e-08 1.90398e-08 1.99401e-08 1.94598e-08 2.03237e-08 0
2.04104e-08 2.09904e-08 2.07701e-08 2.13156e-08 2.04104e-08 2.09904e-08 2.07701e-08 2.13156e-08 0
0 1.04683e-08 1.05637e-08 1.10955e-08 0 1.04683e-08 1.05637e-08 1.10955e-08 0
1.08158e-08 1.14057e-08 1.14402e-08 1.20235e-08 1.08158e-08 1.14057e-08 1.14402e-08 1.20235e-08 0
1.1793e-08 1.24472e-08 1.24065e-08 1.30512e-08 1.1793e-08 1.24472e-08 1.24065e-08 1.30512e-08 0
1.28785e-08 1.35965e-08 1.3476e-08 1.41812e-08 1.28785e-08 1.35965e-08 1.3476e-08 1.41812e-08 0
1.40703e-08 1.48473e-08 1.46457e-08 1.54051e-08 1.40703e-08 1.48473e-08 1.46457e-08 1.54051e-08 0
1.53619e-08 1.61964e-08 1.59061e-08 1.6716e-08 1.53619e-08 1.61964e-08 1.59061e-08 1.6716e-08 0
1.67411e-08 1.76037e-08 1.72423e-08 1.80741e-08 1.67411e-08 1.76037e-08 1.72423e-08 1.80741e-08 0
1.8192e-08 1.91474e-08 1.86415e-08 1.95649e-08 1.8192e-08 1.91474e-08 1.86415e-08 1.95649e-08 0
1.96562e-08 2.03008e-08 2.00496e-08 2.06549e-08 1.96562e-08 2.03008e-08 2.00496e-08 2.06549e-08 0
0 0 0 0 0 0 0 0 0
0 1.02386e-08 1.02969e-08 1.08899e-08 0 1.02386e-08 1.02969e-08 1.08899e-08 0
1.06292e-08 1.1296e-08 1.12769e-08 1.19358e-08 1.06292e-08 1.1296e-08 1.12769e-08 1.19358e-08 0
1.17341e-08 1.24715e-08 1.23683e-08 1.30935e-08 1.17341e-08 1.24715e-08 1.23683e-08 1.30935e-08 0
1.29576e-08 1.37631e-08 1.35707e-08 1.43586e-08 1.29576e-08 1.37631e-08 1.35707e-08 1.43586e-08 0
1.42972e-08 1.51715e-08 1.48796e-08 1.573e-08 1.42972e-08 1.51715e-08 1.48796e-08 1.573e-08 0
1.57435e-08 1.66563e-08 1.62844e-08 1.71672e-08 1.57435e-08 1.66563e-08 1.62844e-08 1.71672e-08 0
1.72785e-08 1.82917e-08 1.77677e-08 1.87458e-08 1.72785e-08 1.82917e-08 1.77677e-08 1.87458e-08 0
1.8839e-08 1.95469e-08 1.92689e-08 1.99397e-08 1.8839e-08 1.95469e-08 1.92689e-08 1.99397e-08 0
0 0 0 0 0 0 0 0 0
0 0 0 0 0 0 0 0 0
0 1.00811e-08 1.00876e-08 1.0758e-08 0 1.00811e-08 1.00876e-08 1.0758e-08 0
1.05242e-08 1.12794e-08 1.11965e-08 1.19406e-08 1.05242e-08 1.12794e-08 1.11965e-08 1.19406e-08 0
1.17768e-08 1.26097e-08 1.24297e-08 1.32458e-08 1.17768e-08 1.26097e-08 1.24297e-08 1.32458e-08 0
1.31625e-08 1.40753e-08 1.37859e-08 1.46755e-08 1.31625e-08 1.40753e-08 1.37859e-08 1.46755e-08 0
1.46737e-08 1.56359e-08 1.52567e-08 1.61893e-08 1.46737e-08 1.56359e-08 1.52567e-08 1.61893e-08 0
1.6292e-08 1.73644e-08 1.68238e-08 1.78609e-08 1.6292e-08 1.73644e-08 1.68238e-08 1.78609e-08 0
1.79522e-08 1.87276e-08 1.84231e-08 1.91576e-08 1.79522e-08 1.87276e-08 1.84231e-08 1.91576e-08 0
0 0 0 0 0 0 0 0 0
0 0 0 0 0 0 0 0 0
0 0 0 0 0 0 0 0 0
0 1.00169e-08 0 1.07195e-08 0 1.00169e-08 0 1.07195e-08 0
1.05238e-08 1.13823e-08 1.12191e-08 1.2062e-08 1.05238e-08 1.13823e-08 1.12191e-08 1.2062e-08 0
1.19522e-08 1.29017e-08 1.26202e-08 1.35476e-08 1.19522e-08 1.29017e-08 1.26202e-08 1.35476e-08 0
1.35254e-08 1.45361e-08 1.41548e-08 1.51365e-08 1.35254e-08 1.45361e-08 1.41548e-08 1.51365e-08 0
1.52264e-08 1.63606e-08 1.58049e-08 1.69019e-08 1.52264e-08 1.63606e-08 1.58049e-08 1.69019e-08 0
1.69932e-08 1.7846e-08 1.7506e-08 1.83117e-08 1.69932e-08 1.7846e-08 1.7506e-08 1.83117e-08 0
1.88313e-08 2.09261e-08 1.92639e-08 2.13093e-08 1.88313e-08 2.09261e-08 1.92639e-08 2.13093e-08 0
0 0 0 0 0 0 0 0 0
0 0 0 0 0 0 0 0 0
0 0 0 0 0 0 0 0 0
0 0 0 0 0 0 0 0 0
0 0 0 0 0 0 0 0 0
0 1.00773e-08 0 1.08027e-08 0 1.00773e-08 0 1.08027e-08 0
1.06619e-08 1.1645e-08 1.13771e-08 1.23401e-08 1.06619e-08 1.1645e-08 1.13771e-08 1.23401e-08 0
1.22919e-08 1.33493e-08 1.29718e-08 1.40013e-08 1.22919e-08 1.33493e-08 1.29718e-08 1.40013e-08 0
1.40741e-08 1.5273e-08 1.47041e-08 1.58641e-08 1.40741e-08 1.5273e-08 1.47041e-08 1.58641e-08 0
1.59526e-08 1.68868e-08 1.65143e-08 1.74001e-08 1.59526e-08 1.68868e-08 1.65143e-08 1.74001e-08 0
1.79295e-08 2.01174e-08 1.84071e-08 2.05388e-08 1.79295e-08 2.01174e-08 1.84071e-08 2.05388e-08 0
1.93729e-08 1.54179e-08 1.97575e-08 1.57514e-08 1.93729e-08 1.54179e-08 1.97575e-08 1.57514e-08 0
0 0 0 0 0 0 0 0 0
0 0 0 0 0 0 0 0 0
0 0 0 0 0 0 0 0 0
0 0 0 0 0 0 0 0 0
0 0 0 0 0 0 0 0 0
0 1.03021e-08 1.00518e-08 1.10479e-08 0 1.03021e-08 1.00518e-08 1.10479e-08 0
1.09722e-08 1.20766e-08 1.17025e-08 1.27785e-08 1.09722e-08 1.20766e-08 1.17025e-08 1.27785e-08 0
1.28337e-08 1.40919e-08 1.35152e-08 1.4739e-08 1.28337e-08 1.40919e-08 1.35152e-08 1.4739e-08 0
1.48172e-08 1.58347e-08 1.5436e-08 1.64041e-08 1.48172e-08 1.58347e-08 1.5436e-08 1.64041e-08 0
1.69381e-08 1.92263e-08 1.747e-08 1.96985e-08 1.69381e-08 1.92263e-08 1.747e-08 1.96985e-08 0
1.85471e-08 1.46881e-08 1.89789e-08 1.50622e-08 1.85471e-08 1.46881e-08 1.89789e-08 1.50622e-08 0
0 0 0 0 0 0 0 0 0
0 0 0 0 0 0 0 0 0
0 0 0 0 0 0 0 0 0
0 0 0 0 0 0 0 0 0
0 0 0 0 0 0 0 0 0
0 0 0 0 0 0 0 0 0
0 0 0 0 0 0 0 0 0
0 0 0 0 0 0 0 0 0
0 0 0 0 0 0 0 0 0
0 0 0 0 0 0 0 0 0
0 0 0 0 0 0 0 0 0
0 0 0 0 0 0 0 0 0
0 0 0 0 0 0 0 0 0
0 0 0 0 0 0 0 0 0
0 0 0 0 0 0 0 0 0
0 0 0 0 0 0 0 0 0
0 0 0 0 0 0 0 0 0
0 0 0 0 0 0 0 0 0
0 0 0 0 0 0 0 0 0
0 0 0 0 0 0 0 0 0
0 0 0 0 0 0 0 0 0
0 0 0 0 0 0 0 0 0
0 0 0 0 0 0 0 0 0
0 0 0 0 0 0 0 0 0
0 0 0 0 0 0 0 0 0
0 0 0 0 0 0 0 0 0
0 0 0 0 0 0 0 0 0
0 0 0 0 0 0 0 0 0
0 0 0 0 0 0 0 0 0
0 0 0 0 0 0 0 0 0
0 0 0 0 0 0 0 0 0
0 0 0 0 0 0 0 0 0
0 0 0 0 0 0 0 0 0
0 0 0 0 0 0 0 0 0
0 0 0 0 0 0 0 0 0
0 0 0 0 0 0 0 0 0
0 0 0 0 0 0 0 0 0
0 0 0 0 0 0 0 0 0
0 0 0 0 0 0 0 0 0
0 0 0 0 0 0 0 0 0
0 0 0 0 0 0 0 0 0
0 0 0 0 0 0 0 0 0
0 0 0 0 0 0 0 0 0
0 0 0 0 0 0 0 0 0
0 0 0 0 0 0 0 0 0
0 0 0 0 0 0 0 0 0
0 0 0 0 0 0 0 0 0
0 0 0 0 0 0 0 0 0
0 0 0 0 0 0 0 0 0
0 0 0 0 0 0 0 0 0
0 0 0 0 0 0 0 0 0
0 0 0 0 0 0 0 0 0
0 0 0 0 0 0 0 0 0
0 0 0 0 0 0 0 0 0
0 0 0 0 0 0 0 0 0
0 0 0 0 0 0 0 0 0
0 0 0 0 0 0 0 0 0
0 0 0 0 0 0 0 0 0
0 0 0 0 0 0 0 0 0
0 0 0 0 0 0 0 0 0
0 0 0 0 0 0 0 0 0
0 0 0 0 0 0 0 0 0
0 0 0 0 0 0 0 0 0
0 0 0 0 0 0 0 0 0
0 0 0 0 0 0 0 0 0
0 0 0 0 0 0 0 0 0
0 0 0 0 0 0 0 0 0
0 0 0 0 0 0 0 0 0
0 0 0 0 0 0 0 0 0
0 0 0 0 0 0 0 0 0
0 0 0 0 0 0 0 0 0
0 0 0 0 0 0 0 0 0
0 0 0 0 0 0 0 0 0
0 0 0 0 0 0 0 0 0
0 0 0 0 0 0 0 0 0
0 0 0 0 0 0 0 0 0
0 0 0 0 0 0 0 0 0
0 0 0 0 0 0 0 0 0
0 0 0 0 0 0 0 0 0
0 0 0 0 0 0 0 0 0
0 0 0 0 0 0 0 0 0
0 0 0 0 0 0 0 0 0
0 0 0 0 0 0 0 0 0
0 0 0 0 0 0 0 0 0
0 0 0 0 0 0 0 0 0
0 0 0 0 0 0 0 0 0
0 0 0 0 0 0 0 0 0
0 0 0 0 0 0 0 0 0
0 0 0 0 0 0 0 0 0
0 0 0 0 0 0 0 0 0
0 0 0 0 0 0 0 0 0
0 0 0 0 0 0 0 0 0
0 0 0 0 0 0 0 0 0
0 0 0 0 0 0 0 0 0
0 0 0 0 0 0 0 0 0
0 0 0 0 0 0 0 0 0
0 0 0 0 0 0 0 0 0
0 0 0 0 0 0 0 0 0
0 0 0 0 0 0 0 0 0
0 0 0 0 0 0 0 0 0
0 0 0 0 0 0 0 0 0
0 0 0 0 0 0 0 0 0
0 0 0 0 0 0 0 0 0
0 0 0 0 0 0 0 0 0
0 0 0 0 0 0 0 0 0
0 0 0 0 0 0 0 0 0
0 0 0 0 0 0 0 0 0
0 0 0 0 0 0 0 0 0
0 0 0 0 0 0 0 0 0
0 0 0 0 0 0 0 0 0
0 0 0 0 0 0 0 0 0
0 0 0 0 0 0 0 0 0
0 0 0 0 0 0 0 0 0
0 0 0 0 0 0 0 0 0
0 0 0 0 0 0 0 0 0
0 0 0 0 0 0 0 0 0
0 0 0 0 0 0 0 0 0
0 0 0 0 0 0 0 0 0
0 0 0 0 0 0 0 0 0
0 0 0 0 0 0 0 0 0
0 0 0 0 0 0 0 0 0
0 0 0 0 0 0 0 0 0
0 0 0 0 0 0 0 0 0
0 0 0 0 0 0 0 0 0
0 0 0 0 0 0 0 0 0
0 0 0 0 0 0 0 0 0
0 0 0 0 0 0 0 0 0
0 0 0 0 0 0 0 0 0
0 0 0 0 0 0 0 0 0
0 0 0 0 0 0 0 0 0
0 0 0 0 0 0 0 0 0
0 0 0 0 0 0 0 0 0
0 0 0 0 0 0 0 0 0
0 0 0 0 0 0 0 0 0
0 0 0 0 0 0 0 0 0
0 0 0 0 0 0 0 0 0
0 0 0 0 0 0 0 0 0
0 0 0 0 0 0 0 0 0
0 0 0 0 0 0 0 0 0
0 0 0 0 0 0 0 0 0
0 0 0 0 0 0 0 0 0
0 0 0 0 0 0 0 0 0
0 0 0 0 0 0 0 0 0
0 0 0 0 0 0 0 0 0
0 0 0 0 0 0 0 0 0
0 0 0 0 0 0 0 0 0
0 0 0 0 0 0 0 0 0
0 0 0 0 0 0 0 0 0
0 0 0 0 0 0 0 0 0
0 0 0 0 0 0 0 0 0
0 0 0 0 0 0 0 0 0
0 0 0 0 0 0 0 0 0
0 0 0 0 0 0 0 0 0
0 0 0 0 0 0 0 0 0
0 0 0 0 0 0 0 0 0
0 0 0 0 0 0 0 0 0
0 0 0 0 0 0 0 0 0
0 0 0 0 0 0 0 0 0
0 0 0 0 0 0 0 0 0
0 0 0 0 0 0 0 0 0
0 0 0 0 0 0 0 0 0
0 0 0 0 0 0 0 0 0
0 0 0 0 0 0 0 0 0
0 0 0 0 0 0 0 0 0
0 0 0 0 0 0 0 0 0
0 0 0 0 0 0 0 0 0
0 0 0 0 0 0 0 0 0
0 0 0 0 0 0 0 0 0
0 0 0 0 0 0 0 0 0
0 0 0 0 0 0 0 0 0
0 0 0 0 0 0 0 0 0
0 0 0 0 0 0 0 0 0
0 0 0 0 0 0 0 0 0
0 0 0 0 0 0 0 0 0
0 0 0 0 0 0 0 0 0
0 0 0 0 0 0 0 0 0
0 0 0 0 0 0 0 0 0
0 0 0 0 0 0 0 0 0
0 0 0 0 0 0 0 0 0
0 0 0 0 0 0 0 0 0
0 0 0 0 0 0 0 0 0
0 0 0 0 0 0 0 0 0
0 0 0 0 0 0 0 0 0
0 0 0 0 0 0 0 0 0
0 0 0 0 0 0 0 0 0
0 0 0 0 0 0 0 0 0
0 0 0 0 0 0 0 0 0
0 0 0 0 0 0 0 0 0
0 0 0 0 0 0 0 0 0
0 0 0 0 0 0 0 0 0
0 0 0 0 0 0 0 0 0
0 0 0 0 0 0 0 0 0
0 0 0 0 0 0 0 0 0
0 0 0 0 0 0 0 0 0
0 0 0 0 0 0 0 0 0
0 0 0 0 0 0 0 0 0
0 0 0 0 0 0 0 0 0
0 0 0 0 0 0 0 0 0
0 0 0 0 0 0 0 0 0
0 0 0 0 0 0 0 0 0
0 0 0 0 0 0 0 0 0
0 0 0 0 0 0 0 0 0
0 0 0 0 0 0 0 0 0
0 0 0 0 0 0 0 0 0
0 0 0 0 0 0 0 0 0
0 0 0 0 0 0 0 0 0
0 0 0 0 0 0 0 0 0
0 0 0 0 0 0 0 0 0
0 0 0 0 0 0 0 0 0
0 0 0 0 0 0 0 0 0
0 0 0 0 0 0 0 0 0
0 0 0 0 0 0 0 0 0
0 0 0 0 0 0 0 0 0
0 0 0 0 0 0 0 0 0
0 0 0 0 0 0 0 0 0
0 0 0 0 0 0 0 0 0
0 0 0 0 0 0 0 0 0
0 0 0 0 0 0 0 0 0
0 0 0 0 0 0 0 0 0
0 0 0 0 0 0 0 0 0
0 0 0 0 0 0 0 0 0
0 0 0 0 0 0 0 0 0
0 0 0 0 0 0 0 0 0
0 0 0 0 0 0 0 0 0
0 0 0 0 0 0 0 0 0
0 0 0 0 0 0 0 0 0
0 0 0 0 0 0 0 0 0
0 0 0 0 0 0 0 0 0
0 0 0 0 0 0 0 0 0
0 0 0 0 0 0 0 0 0
0 0 0 0 0 0 0 0 0
0 0 0 0 0 0 0 0 0
0 0 0 0 0 0 0 0 0
0 0 0 0 0 0 0 0 0
0 0 0 0 0 0 0 0 0
0 0 0 0 0 0 0 0 0
0 0 0 0 0 0 0 0 0
0 0 0 0 0 0 0 0 0
0 0 0 0 0 0 0 0 0
0 0 0 0 0 0 0 0 0
0 0 0 0 0 0 0 0 0
0 0 0 0 0 0 0 0 0
0 0 0 0 0 0 0 0 0
0 0 0 0 0 0 0 0 0
0 0 0 0 0 0 0 0 0
0 0 0 0 0 0 0 0 0
0 0 0 0 0 0 0 0 0
0 0 0 0 0 0 0 0 0
0 0 0 0 0 0 0 0 0
0 0 0 0 0 0 0 0 0
0 0 0 0 0 0 0 0 0
0 0 0 0 0 0 0 0 0
0 0 0 0 0 0 0 0 0
0 0 0 0 0 0 0 0 0
0 0 0 0 0 0 0 0 0
0 0 0 0 0 0 0 0 0
0 0 0 0 0 0 0 0 0
0 0 0 0 0 0 0 0 0
0 0 0 0 0 0 0 0 0
0 0 0 0 0 0 0 0 0
0 0 0 0 0 0 0 0 0
0 0 0 0 0 0 0 0 0
0 0 0 0 0 0 0 0 0
0 0 0 0 0 0 0 0 0
0 0 0 0 0 0 0 0 0
0 0 0 0 0 0 0 0 0
0 0 0 0 0 0 0 0 0
0 0 0 0 0 0 0 0 0
0 0 0 0 0 0 0 0 0
0 0 0 0 0 0 0 0 0
0 0 0 0 0 0 0 0 0
0 0 0 0 0 0 0 0 0
0 0 0 0 0 0 0 0 0
0 0 0 0 0 0 0 0 0
0 0 0 0 0 0 0 0 0
0 0 0 0 0 0 0 0 0
0 0 0 0 0 0 0 0 0
0 0 0 0 0 0 0 0 0
0 0 0 0 0 0 0 0 0
0 0 0 0 0 0 0 0 0
0 0 0 0 0 0 0 0 0
0 0 0 0 0 0 0 0 0
0 0 0 0 0 0 0 0 0
0 0 0 0 0 0 0 0 0
0 0 0 0 0 0 0 0 0
0 0 0 0 0 0 0 0 0
0 0 0 0 0 0 0 0 0
0 0 0 0 0 0 0 0 0
0 0 0 0 0 0 0 0 0
0 0 0 0 0 0 0 0 0
0 0 0 0 0 0 0 0 0
0 0 0 0 0 0 0 0 0
0 0 0 0 0 0 0 0 0
0 0 0 0 0 0 0 0 0
0 0 0 0 0 0 0 0 0
0 0 0 0 0 0 0 0 0
0 0 0 0 0 0 0 0 0
0 0 0 0 0 0 0 0 0
0 0 0 0 0 0 0 0 0
0 0 0 0 0 0 0 0 0
0 0 0 0 0 0 0 0 0
0 0 0 0 0 0 0 0 0
0 0 0 0 0 0 0 0 0
0 0 0 0 0 0 0 0 0
0 0 0 0 0 0 0 0 0
0 0 0 0 0 0 0 0 0
0 0 0 0 0 0 0 0 0
0 0 0 0 0 0 0 0 0
0 0 0 0 0 0 0 0 0
0 0 0 0 0 0 0 0 0
0 0 0 0 0 0 0 0 0
0 0 0 0 0 0 0 0 0
0 0 0 0 0 0 0 0 0
0 0 0 0 0 0 0 0 0
0 0 0 0 0 0 0 0 0
0 0 0 0 0 0 0 0 0
0 0 0 0 0 0 0 0 0
0 0 0 0 0 0 0 0 0
0 0 0 0 0 0 0 0 0
0 0 0 0 0 0 0 0 0
0 0 0 0 0 0 0 0 0
0 0 0 0 0 0 0 0 0
0 0 0 0 0 0 0 0 0
0 0 0 0 0 0 0 0 0
0 0 0 0 0 0 0 0 0
0 0 0 0 0 0 0 0 0
0 0 0 0 0 0 0 0 0
0 0 0 0 0 0 0 0 0
0 0 0 0 0 0 0 0 0
0 0 0 0 0 0 0 0 0
0 0 0 0 0 0 0 0 0
0 0 0 0 0 0 0 0 0
0 0 0 0 0 0 0 0 0
0 0 0 0 0 0 0 0 0
0 0 0 0 0 0 0 0 0
0 0 0 0 0 0 0 0 0
0 0 0 0 0 0 0 0 0
0 0 0 0 0 0 0 0 0
0 0 0 0 0 0 0 0 0
0 0 0 0 0 0 0 0 0
0 0 0 0 0 0 0 0 0
0 0 0 0 0 0 0 0 0
0 0 0 0 0 0 0 0 0
0 0 0 0 0 0 0 0 0
0 0 0 0 0 0 0 0 0
0 0 0 0 0 0 0 0 0
0 0 0 0 0 0 0 0 0
0 0 0 0 0 0 0 0 0
0 0 0 0 0 0 0 0 0
0 0 0 0 0 0 0 0 0
0 0 0 0 0 0 0 0 0
0 0 0 0 0 0 0 0 0
0 0 0 0 0 0 0 0 0
0 0 0 0 0 0 0 0 0
0 0 0 0 0 0 0 0 0
0 0 0 0 0 0 0 0 0
0 0 0 0 0 0 0 0 0
0 0 0 0 0 0 0 0 0
0 0 0 0 0 0 0 0 0
0 0 0 0 0 0 0 0 0
0 0 0 0 0 0 0 0 0
0 0 0 0 0 0 0 0 0
0 0 0 0 0 0 0 0 0
0 0 0 0 0 0 0 0 0
0 0 0 0 0 0 0 0 0
0 0 0 0 0 0 0 0 0
0 0 0 0 0 0 0 0 0
0 0 0 0 0 0 0 0 0
0 0 0 0 0 0 0 0 0
0 0 0 0 0 0 0 0 0
0 0 0 0 0 0 0 0 0
0 0 0 0 0 0 0 0 0
0 0 0 0 0 0 0 0 0
0 0 0 0 0 0 0 0 0
0 0 0 0 0 0 0 0 0
0 0 0 0 0 0 0 0 0
0 0 0 0 0 0 0 0 0
0 0 0 0 0 0 0 0 0
0 0 0 0 0 0 0 0 0
0 0 0 0 0 0 0 0 0
0 0 0 0 0 0 0 0 0
0 0 0 0 0 0 0 0 0
0 0 0 0 0 0 0 0 0
0 0 0 0 0 0 0 0 0
0 0 0 0 0 0 0 0 0
0 0 0 0 0 0 0 0 0
0 0 0 0 0 0 0 0 0
0 0 0 0 0 0 0 0 0
0 0 0 0 0 0 0 0 0
0 0 0 0 0 0 0 0 0
0 0 0 0 0 0 0 0 0
0 0 0 0 0 0 0 0 0
0 0 0 0 0 0 0 0 0
0 0 0 0 0 0 0 0 0
0 0 0 0 0 0 0 0 0
0 0 0 0 0 0 0 0 0
0 0 0 0 0 0 0 0 0
0 0 0 0 0 0 0 0 0
0 0 0 0 0 0 0 0 0
0 0 0 0 0 0 0 0 0
0 0 0 0 0 0 0 0 0
0 0 0 0 0 0 0 0 0
0 0 0 0 0 0 0 0 0
0 0 0 0 0 0 0 0 0
0 0 0 0 0 0 0 0 0
