# vtk DataFile Version 3.0
Generated by Jean Bénézech
ASCII
DATASET UNSTRUCTURED_GRID
POINTS 3999 double
54.89 130.867 338
54.99 130.954 336
55.09 131.041 334
55.19 131.128 332
55.29 131.216 330
55.39 131.303 328
55.49 131.39 326
55.59 131.477 324
55.69 131.564 322
54.79 129.606 340
55.79 130.459 320
54.79 128.431 340
55.79 129.266 320
54.79 127.257 340
55.79 128.073 320
54.79 126.083 340
55.79 126.881 320
54.79 124.908 340
55.69 125.61 322
54.79 123.734 340
55.69 124.419 322
54.79 122.56 340
55.69 123.228 322
54.79 121.385 340
55.59 121.965 324
54.79 120.211 340
55.59 120.776 324
54.79 119.037 340
55.59 119.587 324
54.79 117.862 340
55.49 118.331 326
54.79 116.688 340
55.49 117.144 326
54.79 115.514 340
55.39 115.894 328
54.89 114.401 338
54.99 114.462 336
55.09 114.524 334
55.19 114.585 332
55.29 114.647 330
54.64 130.867 338
54.74 130.954 336
54.84 131.041 334
54.94 131.128 332
55.04 131.216 330
55.14 131.303 328
55.24 131.39 326
55.34 131.477 324
55.44 131.564 322
54.54 129.606 340
55.54 130.459 320
54.54 128.431 340
55.54 129.266 320
54.54 127.257 340
55.54 128.073 320
54.54 126.083 340
55.54 126.881 320
54.54 124.908 340
55.44 125.61 322
54.54 123.734 340
55.44 124.419 322
54.54 122.56 340
55.44 123.228 322
54.54 121.385 340
55.34 121.965 324
54.54 120.211 340
55.34 120.776 324
54.54 119.037 340
55.34 119.587 324
54.54 117.862 340
55.24 118.331 326
54.54 116.688 340
55.24 117.144 326
54.54 115.514 340
55.14 115.894 328
54.64 114.401 338
54.74 114.462 336
54.84 114.524 334
54.94 114.585 332
55.04 114.647 330
54.39 130.867 338
54.49 130.954 336
54.59 131.041 334
54.69 131.128 332
54.79 131.216 330
54.89 131.303 328
54.99 131.39 326
55.09 131.477 324
55.19 131.564 322
54.29 129.606 340
55.29 130.459 320
54.29 128.431 340
55.29 129.266 320
54.29 127.257 340
55.29 128.073 320
54.29 126.083 340
55.29 126.881 320
54.29 124.908 340
55.19 125.61 322
54.29 123.734 340
55.19 124.419 322
54.29 122.56 340
55.19 123.228 322
54.29 121.385 340
55.09 121.965 324
54.29 120.211 340
55.09 120.776 324
54.29 119.037 340
55.09 119.587 324
54.29 117.862 340
54.99 118.331 326
54.29 116.688 340
54.99 117.144 326
54.29 115.514 340
54.89 115.894 328
54.39 114.401 338
54.49 114.462 336
54.59 114.524 334
54.69 114.585 332
54.79 114.647 330
54.38 130.867 338
54.48 130.954 336
54.58 131.041 334
54.68 131.128 332
54.78 131.216 330
54.88 131.303 328
54.98 131.39 326
55.08 131.477 324
55.18 131.564 322
54.28 129.606 340
55.28 130.459 320
54.28 128.431 340
55.28 129.266 320
54.28 127.257 340
55.28 128.073 320
54.28 126.083 340
55.28 126.881 320
54.28 124.908 340
55.18 125.61 322
54.28 123.734 340
55.18 124.419 322
54.28 122.56 340
55.18 123.228 322
54.28 121.385 340
55.08 121.965 324
54.28 120.211 340
55.08 120.776 324
54.28 119.037 340
55.08 119.587 324
54.28 117.862 340
54.98 118.331 326
54.28 116.688 340
54.98 117.144 326
54.28 115.514 340
54.88 115.894 328
54.38 114.401 338
54.48 114.462 336
54.58 114.524 334
54.68 114.585 332
54.78 114.647 330
54.13 130.867 338
54.23 130.954 336
54.33 131.041 334
54.43 131.128 332
54.53 131.216 330
54.63 131.303 328
54.73 131.39 326
54.83 131.477 324
54.93 131.564 322
54.03 129.606 340
55.03 130.459 320
54.03 128.431 340
55.03 129.266 320
54.03 127.257 340
55.03 128.073 320
54.03 126.083 340
55.03 126.881 320
54.03 124.908 340
54.93 125.61 322
54.03 123.734 340
54.93 124.419 322
54.03 122.56 340
54.93 123.228 322
54.03 121.385 340
54.83 121.965 324
54.03 120.211 340
54.83 120.776 324
54.03 119.037 340
54.83 119.587 324
54.03 117.862 340
54.73 118.331 326
54.03 116.688 340
54.73 117.144 326
54.03 115.514 340
54.63 115.894 328
54.13 114.401 338
54.23 114.462 336
54.33 114.524 334
54.43 114.585 332
54.53 114.647 330
54.12 130.867 338
54.22 130.954 336
54.32 131.041 334
54.42 131.128 332
54.52 131.216 330
54.62 131.303 328
54.72 131.39 326
54.82 131.477 324
54.92 131.564 322
54.02 129.606 340
55.02 130.459 320
54.02 128.431 340
55.02 129.266 320
54.02 127.257 340
55.02 128.073 320
54.02 126.083 340
55.02 126.881 320
54.02 124.908 340
54.92 125.61 322
54.02 123.734 340
54.92 124.419 322
54.02 122.56 340
54.92 123.228 322
54.02 121.385 340
54.82 121.965 324
54.02 120.211 340
54.82 120.776 324
54.02 119.037 340
54.82 119.587 324
54.02 117.862 340
54.72 118.331 326
54.02 116.688 340
54.72 117.144 326
54.02 115.514 340
54.62 115.894 328
54.12 114.401 338
54.22 114.462 336
54.32 114.524 334
54.42 114.585 332
54.52 114.647 330
53.87 130.867 338
53.97 130.954 336
54.07 131.041 334
54.17 131.128 332
54.27 131.216 330
54.37 131.303 328
54.47 131.39 326
54.57 131.477 324
54.67 131.564 322
53.77 129.606 340
54.77 130.459 320
53.77 128.431 340
54.77 129.266 320
53.77 127.257 340
54.77 128.073 320
53.77 126.083 340
54.77 126.881 320
53.77 124.908 340
54.67 125.61 322
53.77 123.734 340
54.67 124.419 322
53.77 122.56 340
54.67 123.228 322
53.77 121.385 340
54.57 121.965 324
53.77 120.211 340
54.57 120.776 324
53.77 119.037 340
54.57 119.587 324
53.77 117.862 340
54.47 118.331 326
53.77 116.688 340
54.47 117.144 326
53.77 115.514 340
54.37 115.894 328
53.87 114.401 338
53.97 114.462 336
54.07 114.524 334
54.17 114.585 332
54.27 114.647 330
53.62 130.867 338
53.72 130.954 336
53.82 131.041 334
53.92 131.128 332
54.02 131.216 330
54.12 131.303 328
54.22 131.39 326
54.32 131.477 324
54.42 131.564 322
53.52 129.606 340
54.52 130.459 320
53.52 128.431 340
54.52 129.266 320
53.52 127.257 340
54.52 128.073 320
53.52 126.083 340
54.52 126.881 320
53.52 124.908 340
54.42 125.61 322
53.52 123.734 340
54.42 124.419 322
53.52 122.56 340
54.42 123.228 322
53.52 121.385 340
54.32 121.965 324
53.52 120.211 340
54.32 120.776 324
53.52 119.037 340
54.32 119.587 324
53.52 117.862 340
54.22 118.331 326
53.52 116.688 340
54.22 117.144 326
53.52 115.514 340
54.12 115.894 328
53.62 114.401 338
53.72 114.462 336
53.82 114.524 334
53.92 114.585 332
54.02 114.647 330
53.37 130.867 338
53.47 130.954 336
53.57 131.041 334
53.67 131.128 332
53.77 131.216 330
53.87 131.303 328
53.97 131.39 326
54.07 131.477 324
54.17 131.564 322
53.27 129.606 340
54.27 130.459 320
53.27 128.431 340
54.27 129.266 320
53.27 127.257 340
54.27 128.073 320
53.27 126.083 340
54.27 126.881 320
53.27 124.908 340
54.17 125.61 322
53.27 123.734 340
54.17 124.419 322
53.27 122.56 340
54.17 123.228 322
53.27 121.385 340
54.07 121.965 324
53.27 120.211 340
54.07 120.776 324
53.27 119.037 340
54.07 119.587 324
53.27 117.862 340
53.97 118.331 326
53.27 116.688 340
53.97 117.144 326
53.27 115.514 340
53.87 115.894 328
53.37 114.401 338
53.47 114.462 336
53.57 114.524 334
53.67 114.585 332
53.77 114.647 330
53.12 130.867 338
53.22 130.954 336
53.32 131.041 334
53.42 131.128 332
53.52 131.216 330
53.62 131.303 328
53.72 131.39 326
53.82 131.477 324
53.92 131.564 322
53.02 129.606 340
54.02 130.459 320
53.02 128.431 340
54.02 129.266 320
53.02 127.257 340
54.02 128.073 320
53.02 126.083 340
54.02 126.881 320
53.02 124.908 340
53.92 125.61 322
53.02 123.734 340
53.92 124.419 322
53.02 122.56 340
53.92 123.228 322
53.02 121.385 340
53.82 121.965 324
53.02 120.211 340
53.82 120.776 324
53.02 119.037 340
53.82 119.587 324
53.02 117.862 340
53.72 118.331 326
53.02 116.688 340
53.72 117.144 326
53.02 115.514 340
53.62 115.894 328
53.12 114.401 338
53.22 114.462 336
53.32 114.524 334
53.42 114.585 332
53.52 114.647 330
52.87 130.867 338
52.97 130.954 336
53.07 131.041 334
53.17 131.128 332
53.27 131.216 330
53.37 131.303 328
53.47 131.39 326
53.57 131.477 324
53.67 131.564 322
52.77 129.606 340
53.77 130.459 320
52.77 128.431 340
53.77 129.266 320
52.77 127.257 340
53.77 128.073 320
52.77 126.083 340
53.77 126.881 320
52.77 124.908 340
53.67 125.61 322
52.77 123.734 340
53.67 124.419 322
52.77 122.56 340
53.67 123.228 322
52.77 121.385 340
53.57 121.965 324
52.77 120.211 340
53.57 120.776 324
52.77 119.037 340
53.57 119.587 324
52.77 117.862 340
53.47 118.331 326
52.77 116.688 340
53.47 117.144 326
52.77 115.514 340
53.37 115.894 328
52.87 114.401 338
52.97 114.462 336
53.07 114.524 334
53.17 114.585 332
53.27 114.647 330
52.62 130.867 338
52.72 130.954 336
52.82 131.041 334
52.92 131.128 332
53.02 131.216 330
53.12 131.303 328
53.22 131.39 326
53.32 131.477 324
53.42 131.564 322
52.52 129.606 340
53.52 130.459 320
52.52 128.431 340
53.52 129.266 320
52.52 127.257 340
53.52 128.073 320
52.52 126.083 340
53.52 126.881 320
52.52 124.908 340
53.42 125.61 322
52.52 123.734 340
53.42 124.419 322
52.52 122.56 340
53.42 123.228 322
52.52 121.385 340
53.32 121.965 324
52.52 120.211 340
53.32 120.776 324
52.52 119.037 340
53.32 119.587 324
52.52 117.862 340
53.22 118.331 326
52.52 116.688 340
53.22 117.144 326
52.52 115.514 340
53.12 115.894 328
52.62 114.401 338
52.72 114.462 336
52.82 114.524 334
52.92 114.585 332
53.02 114.647 330
52.37 130.867 338
52.47 130.954 336
52.57 131.041 334
52.67 131.128 332
52.77 131.216 330
52.87 131.303 328
52.97 131.39 326
53.07 131.477 324
53.17 131.564 322
52.27 129.606 340
53.27 130.459 320
52.27 128.431 340
53.27 129.266 320
52.27 127.257 340
53.27 128.073 320
52.27 126.083 340
53.27 126.881 320
52.27 124.908 340
53.17 125.61 322
52.27 123.734 340
53.17 124.419 322
52.27 122.56 340
53.17 123.228 322
52.27 121.385 340
53.07 121.965 324
52.27 120.211 340
53.07 120.776 324
52.27 119.037 340
53.07 119.587 324
52.27 117.862 340
52.97 118.331 326
52.27 116.688 340
52.97 117.144 326
52.27 115.514 340
52.87 115.894 328
52.37 114.401 338
52.47 114.462 336
52.57 114.524 334
52.67 114.585 332
52.77 114.647 330
52.36 130.867 338
52.46 130.954 336
52.56 131.041 334
52.66 131.128 332
52.76 131.216 330
52.86 131.303 328
52.96 131.39 326
53.06 131.477 324
53.16 131.564 322
52.26 129.606 340
53.26 130.459 320
52.26 128.431 340
53.26 129.266 320
52.26 127.257 340
53.26 128.073 320
52.26 126.083 340
53.26 126.881 320
52.26 124.908 340
53.16 125.61 322
52.26 123.734 340
53.16 124.419 322
52.26 122.56 340
53.16 123.228 322
52.26 121.385 340
53.06 121.965 324
52.26 120.211 340
53.06 120.776 324
52.26 119.037 340
53.06 119.587 324
52.26 117.862 340
52.96 118.331 326
52.26 116.688 340
52.96 117.144 326
52.26 115.514 340
52.86 115.894 328
52.36 114.401 338
52.46 114.462 336
52.56 114.524 334
52.66 114.585 332
52.76 114.647 330
52.11 130.867 338
52.21 130.954 336
52.31 131.041 334
52.41 131.128 332
52.51 131.216 330
52.61 131.303 328
52.71 131.39 326
52.81 131.477 324
52.91 131.564 322
52.01 129.606 340
53.01 130.459 320
52.01 128.431 340
53.01 129.266 320
52.01 127.257 340
53.01 128.073 320
52.01 126.083 340
53.01 126.881 320
52.01 124.908 340
52.91 125.61 322
52.01 123.734 340
52.91 124.419 322
52.01 122.56 340
52.91 123.228 322
52.01 121.385 340
52.81 121.965 324
52.01 120.211 340
52.81 120.776 324
52.01 119.037 340
52.81 119.587 324
52.01 117.862 340
52.71 118.331 326
52.01 116.688 340
52.71 117.144 326
52.01 115.514 340
52.61 115.894 328
52.11 114.401 338
52.21 114.462 336
52.31 114.524 334
52.41 114.585 332
52.51 114.647 330
51.86 130.867 338
51.96 130.954 336
52.06 131.041 334
52.16 131.128 332
52.26 131.216 330
52.36 131.303 328
52.46 131.39 326
52.56 131.477 324
52.66 131.564 322
51.76 129.606 340
52.76 130.459 320
51.76 128.431 340
52.76 129.266 320
51.76 127.257 340
52.76 128.073 320
51.76 126.083 340
52.76 126.881 320
51.76 124.908 340
52.66 125.61 322
51.76 123.734 340
52.66 124.419 322
51.76 122.56 340
52.66 123.228 322
51.76 121.385 340
52.56 121.965 324
51.76 120.211 340
52.56 120.776 324
51.76 119.037 340
52.56 119.587 324
51.76 117.862 340
52.46 118.331 326
51.76 116.688 340
52.46 117.144 326
51.76 115.514 340
52.36 115.894 328
51.86 114.401 338
51.96 114.462 336
52.06 114.524 334
52.16 114.585 332
52.26 114.647 330
51.61 130.867 338
51.71 130.954 336
51.81 131.041 334
51.91 131.128 332
52.01 131.216 330
52.11 131.303 328
52.21 131.39 326
52.31 131.477 324
52.41 131.564 322
51.51 129.606 340
52.51 130.459 320
51.51 128.431 340
52.51 129.266 320
51.51 127.257 340
52.51 128.073 320
51.51 126.083 340
52.51 126.881 320
51.51 124.908 340
52.41 125.61 322
51.51 123.734 340
52.41 124.419 322
51.51 122.56 340
52.41 123.228 322
51.51 121.385 340
52.31 121.965 324
51.51 120.211 340
52.31 120.776 324
51.51 119.037 340
52.31 119.587 324
51.51 117.862 340
52.21 118.331 326
51.51 116.688 340
52.21 117.144 326
51.51 115.514 340
52.11 115.894 328
51.61 114.401 338
51.71 114.462 336
51.81 114.524 334
51.91 114.585 332
52.01 114.647 330
51.36 130.867 338
51.46 130.954 336
51.56 131.041 334
51.66 131.128 332
51.76 131.216 330
51.86 131.303 328
51.96 131.39 326
52.06 131.477 324
52.16 131.564 322
51.26 129.606 340
52.26 130.459 320
51.26 128.431 340
52.26 129.266 320
51.26 127.257 340
52.26 128.073 320
51.26 126.083 340
52.26 126.881 320
51.26 124.908 340
52.16 125.61 322
51.26 123.734 340
52.16 124.419 322
51.26 122.56 340
52.16 123.228 322
51.26 121.385 340
52.06 121.965 324
51.26 120.211 340
52.06 120.776 324
51.26 119.037 340
52.06 119.587 324
51.26 117.862 340
51.96 118.331 326
51.26 116.688 340
51.96 117.144 326
51.26 115.514 340
51.86 115.894 328
51.36 114.401 338
51.46 114.462 336
51.56 114.524 334
51.66 114.585 332
51.76 114.647 330
51.11 130.867 338
51.21 130.954 336
51.31 131.041 334
51.41 131.128 332
51.51 131.216 330
51.61 131.303 328
51.71 131.39 326
51.81 131.477 324
51.91 131.564 322
51.01 129.606 340
52.01 130.459 320
51.01 128.431 340
52.01 129.266 320
51.01 127.257 340
52.01 128.073 320
51.01 126.083 340
52.01 126.881 320
51.01 124.908 340
51.91 125.61 322
51.01 123.734 340
51.91 124.419 322
51.01 122.56 340
51.91 123.228 322
51.01 121.385 340
51.81 121.965 324
51.01 120.211 340
51.81 120.776 324
51.01 119.037 340
51.81 119.587 324
51.01 117.862 340
51.71 118.331 326
51.01 116.688 340
51.71 117.144 326
51.01 115.514 340
51.61 115.894 328
51.11 114.401 338
51.21 114.462 336
51.31 114.524 334
51.41 114.585 332
51.51 114.647 330
50.86 130.867 338
50.96 130.954 336
51.06 131.041 334
51.16 131.128 332
51.26 131.216 330
51.36 131.303 328
51.46 131.39 326
51.56 131.477 324
51.66 131.564 322
50.76 129.606 340
51.76 130.459 320
50.76 128.431 340
51.76 129.266 320
50.76 127.257 340
51.76 128.073 320
50.76 126.083 340
51.76 126.881 320
50.76 124.908 340
51.66 125.61 322
50.76 123.734 340
51.66 124.419 322
50.76 122.56 340
51.66 123.228 322
50.76 121.385 340
51.56 121.965 324
50.76 120.211 340
51.56 120.776 324
50.76 119.037 340
51.56 119.587 324
50.76 117.862 340
51.46 118.331 326
50.76 116.688 340
51.46 117.144 326
50.76 115.514 340
51.36 115.894 328
50.86 114.401 338
50.96 114.462 336
51.06 114.524 334
51.16 114.585 332
51.26 114.647 330
50.61 130.867 338
50.71 130.954 336
50.81 131.041 334
50.91 131.128 332
51.01 131.216 330
51.11 131.303 328
51.21 131.39 326
51.31 131.477 324
51.41 131.564 322
50.51 129.606 340
51.51 130.459 320
50.51 128.431 340
51.51 129.266 320
50.51 127.257 340
51.51 128.073 320
50.51 126.083 340
51.51 126.881 320
50.51 124.908 340
51.41 125.61 322
50.51 123.734 340
51.41 124.419 322
50.51 122.56 340
51.41 123.228 322
50.51 121.385 340
51.31 121.965 324
50.51 120.211 340
51.31 120.776 324
50.51 119.037 340
51.31 119.587 324
50.51 117.862 340
51.21 118.331 326
50.51 116.688 340
51.21 117.144 326
50.51 115.514 340
51.11 115.894 328
50.61 114.401 338
50.71 114.462 336
50.81 114.524 334
50.91 114.585 332
51.01 114.647 330
50.36 130.867 338
50.46 130.954 336
50.56 131.041 334
50.66 131.128 332
50.76 131.216 330
50.86 131.303 328
50.96 131.39 326
51.06 131.477 324
51.16 131.564 322
50.26 129.606 340
51.26 130.459 320
50.26 128.431 340
51.26 129.266 320
50.26 127.257 340
51.26 128.073 320
50.26 126.083 340
51.26 126.881 320
50.26 124.908 340
51.16 125.61 322
50.26 123.734 340
51.16 124.419 322
50.26 122.56 340
51.16 123.228 322
50.26 121.385 340
51.06 121.965 324
50.26 120.211 340
51.06 120.776 324
50.26 119.037 340
51.06 119.587 324
50.26 117.862 340
50.96 118.331 326
50.26 116.688 340
50.96 117.144 326
50.26 115.514 340
50.86 115.894 328
50.36 114.401 338
50.46 114.462 336
50.56 114.524 334
50.66 114.585 332
50.76 114.647 330
50.1 130.867 338
50.11 130.867 338
50.2 130.954 336
50.21 130.954 336
50.3 131.041 334
50.31 131.041 334
50.4 131.128 332
50.41 131.128 332
50.5 131.216 330
50.51 131.216 330
50.6 131.303 328
50.61 131.303 328
50.7 131.39 326
50.71 131.39 326
50.8 131.477 324
50.81 131.477 324
50.9 131.564 322
50.91 131.564 322
50 129.606 340
50.01 129.606 340
51 130.459 320
51.01 130.459 320
50 128.431 340
50.01 128.431 340
51 129.266 320
51.01 129.266 320
50 127.257 340
50.01 127.257 340
51 128.073 320
51.01 128.073 320
50 126.083 340
50.01 126.083 340
51 126.881 320
51.01 126.881 320
50 124.908 340
50.01 124.908 340
50.9 125.61 322
50.91 125.61 322
50 123.734 340
50.01 123.734 340
50.9 124.419 322
50.91 124.419 322
50 122.56 340
50.01 122.56 340
50.9 123.228 322
50.91 123.228 322
50 121.385 340
50.01 121.385 340
50.8 121.965 324
50.81 121.965 324
50 120.211 340
50.01 120.211 340
50.8 120.776 324
50.81 120.776 324
50 119.037 340
50.01 119.037 340
50.8 119.587 324
50.81 119.587 324
50.01 117.862 340
50.1 117.929 338
50.7 118.331 326
50.71 118.331 326
50.01 116.688 340
50.1 116.753 338
50.7 117.144 326
50.71 117.144 326
50.01 115.514 340
50.1 115.577 338
50.6 115.894 328
50.61 115.894 328
50.11 114.401 338
50.2 114.462 336
50.21 114.462 336
50.3 114.524 334
50.31 114.524 334
50.4 114.585 332
50.41 114.585 332
50.5 114.647 330
50.51 114.647 330
49.6 130.867 338
49.85 130.867 338
49.7 130.954 336
49.95 130.954 336
49.8 131.041 334
50.05 131.041 334
49.9 131.128 332
50.15 131.128 332
50 131.216 330
50.25 131.216 330
50.1 131.303 328
50.35 131.303 328
50.2 131.39 326
50.45 131.39 326
50.3 131.477 324
50.55 131.477 324
50.4 131.564 322
50.65 131.564 322
50.5 131.651 320
49.5 129.606 340
49.75 129.606 340
50.75 130.459 320
50.6 130.544 318
49.5 128.431 340
49.75 128.431 340
50.75 129.266 320
50.6 129.35 318
49.5 127.257 340
49.75 127.257 340
50.5 128.073 320
50.75 128.073 320
49.5 126.083 340
49.75 126.083 340
50.5 126.881 320
50.75 126.881 320
49.5 124.908 340
49.75 124.908 340
50.4 125.61 322
50.65 125.61 322
49.5 123.734 340
49.75 123.734 340
50.4 124.419 322
50.65 124.419 322
49.5 122.56 340
49.75 122.56 340
50.4 123.228 322
50.65 123.228 322
49.5 121.385 340
49.75 121.385 340
50.3 121.965 324
50.55 121.965 324
49.5 120.211 340
49.75 120.211 340
50.3 120.776 324
50.55 120.776 324
49.5 119.037 340
49.75 119.037 340
50.3 119.587 324
50.55 119.587 324
49.6 117.929 338
49.85 117.929 338
50.2 118.331 326
50.45 118.331 326
49.6 116.753 338
49.85 116.753 338
50.2 117.144 326
50.45 117.144 326
49.6 115.577 338
49.85 115.577 338
50.1 115.894 328
50.35 115.894 328
49.7 114.462 336
49.95 114.462 336
49.8 114.524 334
50.05 114.524 334
49.9 114.585 332
50.15 114.585 332
50 114.647 330
50.25 114.647 330
49.35 130.867 338
49.45 130.954 336
49.55 131.041 334
49.65 131.128 332
49.75 131.216 330
49.85 131.303 328
49.95 131.39 326
50.05 131.477 324
50.15 131.564 322
50.25 131.651 320
50.35 131.739 318
49.25 129.606 340
50.45 130.629 316
49.25 128.431 340
50.45 129.433 316
49.25 127.257 340
50.25 128.073 320
50.35 128.155 318
49.25 126.083 340
50.25 126.881 320
49.25 124.908 340
50.15 125.61 322
49.25 123.734 340
50.15 124.419 322
49.25 122.56 340
50.15 123.228 322
49.25 121.385 340
50.05 121.965 324
49.25 120.211 340
50.05 120.776 324
49.25 119.037 340
50.05 119.587 324
49.35 117.929 338
49.95 118.331 326
49.35 116.753 338
49.95 117.144 326
49.35 115.577 338
49.85 115.894 328
49.45 114.462 336
49.55 114.524 334
49.65 114.585 332
49.75 114.647 330
55.14 130.867 338
55.24 130.954 336
55.34 131.041 334
55.44 131.128 332
55.54 131.216 330
55.64 131.303 328
55.74 131.39 326
55.84 131.477 324
55.94 131.564 322
55.04 129.606 340
56.04 130.459 320
55.04 128.431 340
56.04 129.266 320
55.04 127.257 340
56.04 128.073 320
55.04 126.083 340
56.04 126.881 320
55.04 124.908 340
55.94 125.61 322
55.04 123.734 340
55.94 124.419 322
55.04 122.56 340
55.94 123.228 322
55.04 121.385 340
55.84 121.965 324
55.04 120.211 340
55.84 120.776 324
55.04 119.037 340
55.84 119.587 324
55.04 117.862 340
55.74 118.331 326
55.04 116.688 340
55.74 117.144 326
55.04 115.514 340
55.64 115.894 328
55.14 114.401 338
55.24 114.462 336
55.34 114.524 334
55.44 114.585 332
55.54 114.647 330
49.1 130.867 338
49.2 130.954 336
49.3 131.041 334
49.4 131.128 332
49.5 131.216 330
49.6 131.303 328
49.7 131.39 326
49.8 131.477 324
49.9 131.564 322
50 131.651 320
50.1 131.739 318
49 129.606 340
50.2 130.629 316
49 128.431 340
50.2 129.433 316
49 127.257 340
50 128.073 320
50.1 128.155 318
49 126.083 340
50 126.881 320
49 124.908 340
49.9 125.61 322
49 123.734 340
49.9 124.419 322
49 122.56 340
49.9 123.228 322
49 121.385 340
49.8 121.965 324
49 120.211 340
49.8 120.776 324
49 119.037 340
49.8 119.587 324
49.1 117.929 338
49.7 118.331 326
49.1 116.753 338
49.7 117.144 326
49.1 115.577 338
49.6 115.894 328
49.2 114.462 336
49.3 114.524 334
49.4 114.585 332
49.5 114.647 330
49.6 117.079 328
49.5 117.014 330
49.4 116.949 332
49.3 116.883 334
49.2 116.818 336
49.6 118.264 328
49.5 118.197 330
49.4 118.13 332
49.3 118.063 334
49.2 117.996 336
49.7 119.518 326
49.6 119.45 328
49.5 119.381 330
49.4 119.312 332
49.3 119.243 334
49.2 119.174 336
49.1 119.106 338
49.7 120.706 326
49.6 120.635 328
49.5 120.564 330
49.4 120.494 332
49.3 120.423 334
49.2 120.352 336
49.1 120.282 338
49.7 121.893 326
49.6 121.82 328
49.5 121.748 330
49.4 121.675 332
49.3 121.603 334
49.2 121.53 336
49.1 121.458 338
49.8 123.154 324
49.7 123.08 326
49.6 123.006 328
49.5 122.931 330
49.4 122.857 332
49.3 122.783 334
49.2 122.708 336
49.1 122.634 338
49.8 124.343 324
49.7 124.267 326
49.6 124.191 328
49.5 124.115 330
49.4 124.039 332
49.3 123.962 334
49.2 123.886 336
49.1 123.81 338
49.8 125.532 324
49.7 125.454 326
49.6 125.376 328
49.5 125.298 330
49.4 125.22 332
49.3 125.142 334
49.2 125.064 336
49.1 124.986 338
49.9 126.801 322
49.8 126.721 324
49.7 126.641 326
49.6 126.561 328
49.5 126.482 330
49.4 126.402 332
49.3 126.322 334
49.2 126.242 336
49.1 126.162 338
49.9 127.992 322
49.8 127.91 324
49.7 127.828 326
49.6 127.747 328
49.5 127.665 330
49.4 127.583 332
49.3 127.502 334
49.2 127.42 336
49.1 127.339 338
50.1 129.35 318
50 129.266 320
49.9 129.183 322
49.8 129.099 324
49.7 129.016 326
49.6 128.932 328
49.5 128.849 330
49.4 128.765 332
49.3 128.682 334
49.2 128.598 336
49.1 128.515 338
50.1 130.544 318
50 130.459 320
49.9 130.373 322
49.8 130.288 324
49.7 130.203 326
49.6 130.117 328
49.5 130.032 330
49.4 129.947 332
49.3 129.861 334
49.2 129.776 336
49.1 129.691 338
55.64 117.079 328
55.54 117.014 330
55.44 116.949 332
55.34 116.883 334
55.24 116.818 336
55.14 116.753 338
55.64 118.264 328
55.54 118.197 330
55.44 118.13 332
55.34 118.063 334
55.24 117.996 336
55.14 117.929 338
55.74 119.518 326
55.64 119.45 328
55.54 119.381 330
55.44 119.312 332
55.34 119.243 334
55.24 119.174 336
55.14 119.106 338
55.74 120.706 326
55.64 120.635 328
55.54 120.564 330
55.44 120.494 332
55.34 120.423 334
55.24 120.352 336
55.14 120.282 338
55.74 121.893 326
55.64 121.82 328
55.54 121.748 330
55.44 121.675 332
55.34 121.603 334
55.24 121.53 336
55.14 121.458 338
55.84 123.154 324
55.74 123.08 326
55.64 123.006 328
55.54 122.931 330
55.44 122.857 332
55.34 122.783 334
55.24 122.708 336
55.14 122.634 338
55.84 124.343 324
55.74 124.267 326
55.64 124.191 328
55.54 124.115 330
55.44 124.039 332
55.34 123.962 334
55.24 123.886 336
55.14 123.81 338
55.84 125.532 324
55.74 125.454 326
55.64 125.376 328
55.54 125.298 330
55.44 125.22 332
55.34 125.142 334
55.24 125.064 336
55.14 124.986 338
55.94 126.801 322
55.84 126.721 324
55.74 126.641 326
55.64 126.561 328
55.54 126.482 330
55.44 126.402 332
55.34 126.322 334
55.24 126.242 336
55.14 126.162 338
55.94 127.992 322
55.84 127.91 324
55.74 127.828 326
55.64 127.747 328
55.54 127.665 330
55.44 127.583 332
55.34 127.502 334
55.24 127.42 336
55.14 127.339 338
55.94 129.183 322
55.84 129.099 324
55.74 129.016 326
55.64 128.932 328
55.54 128.849 330
55.44 128.765 332
55.34 128.682 334
55.24 128.598 336
55.14 128.515 338
55.94 130.373 322
55.84 130.288 324
55.74 130.203 326
55.64 130.117 328
55.54 130.032 330
55.44 129.947 332
55.34 129.861 334
55.24 129.776 336
55.14 129.691 338
49.85 117.079 328
49.75 117.014 330
49.65 116.949 332
49.55 116.883 334
49.45 116.818 336
49.85 118.264 328
49.75 118.197 330
49.65 118.13 332
49.55 118.063 334
49.45 117.996 336
49.95 119.518 326
49.85 119.45 328
49.75 119.381 330
49.65 119.312 332
49.55 119.243 334
49.45 119.174 336
49.35 119.106 338
49.95 120.706 326
49.85 120.635 328
49.75 120.564 330
49.65 120.494 332
49.55 120.423 334
49.45 120.352 336
49.35 120.282 338
49.95 121.893 326
49.85 121.82 328
49.75 121.748 330
49.65 121.675 332
49.55 121.603 334
49.45 121.53 336
49.35 121.458 338
50.05 123.154 324
49.95 123.08 326
49.85 123.006 328
49.75 122.931 330
49.65 122.857 332
49.55 122.783 334
49.45 122.708 336
49.35 122.634 338
50.05 124.343 324
49.95 124.267 326
49.85 124.191 328
49.75 124.115 330
49.65 124.039 332
49.55 123.962 334
49.45 123.886 336
49.35 123.81 338
50.05 125.532 324
49.95 125.454 326
49.85 125.376 328
49.75 125.298 330
49.65 125.22 332
49.55 125.142 334
49.45 125.064 336
49.35 124.986 338
50.15 126.801 322
50.05 126.721 324
49.95 126.641 326
49.85 126.561 328
49.75 126.482 330
49.65 126.402 332
49.55 126.322 334
49.45 126.242 336
49.35 126.162 338
50.15 127.992 322
50.05 127.91 324
49.95 127.828 326
49.85 127.747 328
49.75 127.665 330
49.65 127.583 332
49.55 127.502 334
49.45 127.42 336
49.35 127.339 338
50.35 129.35 318
50.25 129.266 320
50.15 129.183 322
50.05 129.099 324
49.95 129.016 326
49.85 128.932 328
49.75 128.849 330
49.65 128.765 332
49.55 128.682 334
49.45 128.598 336
49.35 128.515 338
50.35 130.544 318
50.25 130.459 320
50.15 130.373 322
50.05 130.288 324
49.95 130.203 326
49.85 130.117 328
49.75 130.032 330
49.65 129.947 332
49.55 129.861 334
49.45 129.776 336
49.35 129.691 338
50.35 117.079 328
50.1 117.079 328
50.25 117.014 330
50 117.014 330
50.15 116.949 332
49.9 116.949 332
50.05 116.883 334
49.8 116.883 334
49.95 116.818 336
49.7 116.818 336
50.35 118.264 328
50.1 118.264 328
50.25 118.197 330
50 118.197 330
50.15 118.13 332
49.9 118.13 332
50.05 118.063 334
49.8 118.063 334
49.95 117.996 336
49.7 117.996 336
50.45 119.518 326
50.2 119.518 326
50.35 119.45 328
50.1 119.45 328
50.25 119.381 330
50 119.381 330
50.15 119.312 332
49.9 119.312 332
50.05 119.243 334
49.8 119.243 334
49.95 119.174 336
49.7 119.174 336
49.85 119.106 338
49.6 119.106 338
50.45 120.706 326
50.2 120.706 326
50.35 120.635 328
50.1 120.635 328
50.25 120.564 330
50 120.564 330
50.15 120.494 332
49.9 120.494 332
50.05 120.423 334
49.8 120.423 334
49.95 120.352 336
49.7 120.352 336
49.85 120.282 338
49.6 120.282 338
50.45 121.893 326
50.2 121.893 326
50.35 121.82 328
50.1 121.82 328
50.25 121.748 330
50 121.748 330
50.15 121.675 332
49.9 121.675 332
50.05 121.603 334
49.8 121.603 334
49.95 121.53 336
49.7 121.53 336
49.85 121.458 338
49.6 121.458 338
50.55 123.154 324
50.3 123.154 324
50.45 123.08 326
50.2 123.08 326
50.35 123.006 328
50.1 123.006 328
50.25 122.931 330
50 122.931 330
50.15 122.857 332
49.9 122.857 332
50.05 122.783 334
49.8 122.783 334
49.95 122.708 336
49.7 122.708 336
49.85 122.634 338
49.6 122.634 338
50.55 124.343 324
50.3 124.343 324
50.45 124.267 326
50.2 124.267 326
50.35 124.191 328
50.1 124.191 328
50.25 124.115 330
50 124.115 330
50.15 124.039 332
49.9 124.039 332
50.05 123.962 334
49.8 123.962 334
49.95 123.886 336
49.7 123.886 336
49.85 123.81 338
49.6 123.81 338
50.55 125.532 324
50.3 125.532 324
50.45 125.454 326
50.2 125.454 326
50.35 125.376 328
50.1 125.376 328
50.25 125.298 330
50 125.298 330
50.15 125.22 332
49.9 125.22 332
50.05 125.142 334
49.8 125.142 334
49.95 125.064 336
49.7 125.064 336
49.85 124.986 338
49.6 124.986 338
50.65 126.801 322
50.4 126.801 322
50.55 126.721 324
50.3 126.721 324
50.45 126.641 326
50.2 126.641 326
50.35 126.561 328
50.1 126.561 328
50.25 126.482 330
50 126.482 330
50.15 126.402 332
49.9 126.402 332
50.05 126.322 334
49.8 126.322 334
49.95 126.242 336
49.7 126.242 336
49.85 126.162 338
49.6 126.162 338
50.65 127.992 322
50.4 127.992 322
50.55 127.91 324
50.3 127.91 324
50.45 127.828 326
50.2 127.828 326
50.35 127.747 328
50.1 127.747 328
50.25 127.665 330
50 127.665 330
50.15 127.583 332
49.9 127.583 332
50.05 127.502 334
49.8 127.502 334
49.95 127.42 336
49.7 127.42 336
49.85 127.339 338
49.6 127.339 338
50.5 129.266 320
50.65 129.183 322
50.4 129.183 322
50.55 129.099 324
50.3 129.099 324
50.45 129.016 326
50.2 129.016 326
50.35 128.932 328
50.1 128.932 328
50.25 128.849 330
50 128.849 330
50.15 128.765 332
49.9 128.765 332
50.05 128.682 334
49.8 128.682 334
49.95 128.598 336
49.7 128.598 336
49.85 128.515 338
49.6 128.515 338
50.5 130.459 320
50.65 130.373 322
50.4 130.373 322
50.55 130.288 324
50.3 130.288 324
50.45 130.203 326
50.2 130.203 326
50.35 130.117 328
50.1 130.117 328
50.25 130.032 330
50 130.032 330
50.15 129.947 332
49.9 129.947 332
50.05 129.861 334
49.8 129.861 334
49.95 129.776 336
49.7 129.776 336
49.85 129.691 338
49.6 129.691 338
50.61 117.079 328
50.6 117.079 328
50.51 117.014 330
50.5 117.014 330
50.41 116.949 332
50.4 116.949 332
50.31 116.883 334
50.3 116.883 334
50.21 116.818 336
50.2 116.818 336
50.11 116.753 338
50.61 118.264 328
50.6 118.264 328
50.51 118.197 330
50.5 118.197 330
50.41 118.13 332
50.4 118.13 332
50.31 118.063 334
50.3 118.063 334
50.21 117.996 336
50.2 117.996 336
50.11 117.929 338
50.71 119.518 326
50.7 119.518 326
50.61 119.45 328
50.6 119.45 328
50.51 119.381 330
50.5 119.381 330
50.41 119.312 332
50.4 119.312 332
50.31 119.243 334
50.3 119.243 334
50.21 119.174 336
50.2 119.174 336
50.11 119.106 338
50.1 119.106 338
50.71 120.706 326
50.7 120.706 326
50.61 120.635 328
50.6 120.635 328
50.51 120.564 330
50.5 120.564 330
50.41 120.494 332
50.4 120.494 332
50.31 120.423 334
50.3 120.423 334
50.21 120.352 336
50.2 120.352 336
50.11 120.282 338
50.1 120.282 338
50.71 121.893 326
50.7 121.893 326
50.61 121.82 328
50.6 121.82 328
50.51 121.748 330
50.5 121.748 330
50.41 121.675 332
50.4 121.675 332
50.31 121.603 334
50.3 121.603 334
50.21 121.53 336
50.2 121.53 336
50.11 121.458 338
50.1 121.458 338
50.81 123.154 324
50.8 123.154 324
50.71 123.08 326
50.7 123.08 326
50.61 123.006 328
50.6 123.006 328
50.51 122.931 330
50.5 122.931 330
50.41 122.857 332
50.4 122.857 332
50.31 122.783 334
50.3 122.783 334
50.21 122.708 336
50.2 122.708 336
50.11 122.634 338
50.1 122.634 338
50.81 124.343 324
50.8 124.343 324
50.71 124.267 326
50.7 124.267 326
50.61 124.191 328
50.6 124.191 328
50.51 124.115 330
50.5 124.115 330
50.41 124.039 332
50.4 124.039 332
50.31 123.962 334
50.3 123.962 334
50.21 123.886 336
50.2 123.886 336
50.11 123.81 338
50.1 123.81 338
50.81 125.532 324
50.8 125.532 324
50.71 125.454 326
50.7 125.454 326
50.61 125.376 328
50.6 125.376 328
50.51 125.298 330
50.5 125.298 330
50.41 125.22 332
50.4 125.22 332
50.31 125.142 334
50.3 125.142 334
50.21 125.064 336
50.2 125.064 336
50.11 124.986 338
50.1 124.986 338
50.91 126.801 322
50.9 126.801 322
50.81 126.721 324
50.8 126.721 324
50.71 126.641 326
50.7 126.641 326
50.61 126.561 328
50.6 126.561 328
50.51 126.482 330
50.5 126.482 330
50.41 126.402 332
50.4 126.402 332
50.31 126.322 334
50.3 126.322 334
50.21 126.242 336
50.2 126.242 336
50.11 126.162 338
50.1 126.162 338
50.91 127.992 322
50.9 127.992 322
50.81 127.91 324
50.8 127.91 324
50.71 127.828 326
50.7 127.828 326
50.61 127.747 328
50.6 127.747 328
50.51 127.665 330
50.5 127.665 330
50.41 127.583 332
50.4 127.583 332
50.31 127.502 334
50.3 127.502 334
50.21 127.42 336
50.2 127.42 336
50.11 127.339 338
50.1 127.339 338
50.91 129.183 322
50.9 129.183 322
50.81 129.099 324
50.8 129.099 324
50.71 129.016 326
50.7 129.016 326
50.61 128.932 328
50.6 128.932 328
50.51 128.849 330
50.5 128.849 330
50.41 128.765 332
50.4 128.765 332
50.31 128.682 334
50.3 128.682 334
50.21 128.598 336
50.2 128.598 336
50.11 128.515 338
50.1 128.515 338
50.91 130.373 322
50.9 130.373 322
50.81 130.288 324
50.8 130.288 324
50.71 130.203 326
50.7 130.203 326
50.61 130.117 328
50.6 130.117 328
50.51 130.032 330
50.5 130.032 330
50.41 129.947 332
50.4 129.947 332
50.31 129.861 334
50.3 129.861 334
50.21 129.776 336
50.2 129.776 336
50.11 129.691 338
50.1 129.691 338
50.86 117.079 328
50.76 117.014 330
50.66 116.949 332
50.56 116.883 334
50.46 116.818 336
50.36 116.753 338
50.86 118.264 328
50.76 118.197 330
50.66 118.13 332
50.56 118.063 334
50.46 117.996 336
50.36 117.929 338
50.96 119.518 326
50.86 119.45 328
50.76 119.381 330
50.66 119.312 332
50.56 119.243 334
50.46 119.174 336
50.36 119.106 338
50.96 120.706 326
50.86 120.635 328
50.76 120.564 330
50.66 120.494 332
50.56 120.423 334
50.46 120.352 336
50.36 120.282 338
50.96 121.893 326
50.86 121.82 328
50.76 121.748 330
50.66 121.675 332
50.56 121.603 334
50.46 121.53 336
50.36 121.458 338
51.06 123.154 324
50.96 123.08 326
50.86 123.006 328
50.76 122.931 330
50.66 122.857 332
50.56 122.783 334
50.46 122.708 336
50.36 122.634 338
51.06 124.343 324
50.96 124.267 326
50.86 124.191 328
50.76 124.115 330
50.66 124.039 332
50.56 123.962 334
50.46 123.886 336
50.36 123.81 338
51.06 125.532 324
50.96 125.454 326
50.86 125.376 328
50.76 125.298 330
50.66 125.22 332
50.56 125.142 334
50.46 125.064 336
50.36 124.986 338
51.16 126.801 322
51.06 126.721 324
50.96 126.641 326
50.86 126.561 328
50.76 126.482 330
50.66 126.402 332
50.56 126.322 334
50.46 126.242 336
50.36 126.162 338
51.16 127.992 322
51.06 127.91 324
50.96 127.828 326
50.86 127.747 328
50.76 127.665 330
50.66 127.583 332
50.56 127.502 334
50.46 127.42 336
50.36 127.339 338
51.16 129.183 322
51.06 129.099 324
50.96 129.016 326
50.86 128.932 328
50.76 128.849 330
50.66 128.765 332
50.56 128.682 334
50.46 128.598 336
50.36 128.515 338
51.16 130.373 322
51.06 130.288 324
50.96 130.203 326
50.86 130.117 328
50.76 130.032 330
50.66 129.947 332
50.56 129.861 334
50.46 129.776 336
50.36 129.691 338
51.11 117.079 328
51.01 117.014 330
50.91 116.949 332
50.81 116.883 334
50.71 116.818 336
50.61 116.753 338
51.11 118.264 328
51.01 118.197 330
50.91 118.13 332
50.81 118.063 334
50.71 117.996 336
50.61 117.929 338
51.21 119.518 326
51.11 119.45 328
51.01 119.381 330
50.91 119.312 332
50.81 119.243 334
50.71 119.174 336
50.61 119.106 338
51.21 120.706 326
51.11 120.635 328
51.01 120.564 330
50.91 120.494 332
50.81 120.423 334
50.71 120.352 336
50.61 120.282 338
51.21 121.893 326
51.11 121.82 328
51.01 121.748 330
50.91 121.675 332
50.81 121.603 334
50.71 121.53 336
50.61 121.458 338
51.31 123.154 324
51.21 123.08 326
51.11 123.006 328
51.01 122.931 330
50.91 122.857 332
50.81 122.783 334
50.71 122.708 336
50.61 122.634 338
51.31 124.343 324
51.21 124.267 326
51.11 124.191 328
51.01 124.115 330
50.91 124.039 332
50.81 123.962 334
50.71 123.886 336
50.61 123.81 338
51.31 125.532 324
51.21 125.454 326
51.11 125.376 328
51.01 125.298 330
50.91 125.22 332
50.81 125.142 334
50.71 125.064 336
50.61 124.986 338
51.41 126.801 322
51.31 126.721 324
51.21 126.641 326
51.11 126.561 328
51.01 126.482 330
50.91 126.402 332
50.81 126.322 334
50.71 126.242 336
50.61 126.162 338
51.41 127.992 322
51.31 127.91 324
51.21 127.828 326
51.11 127.747 328
51.01 127.665 330
50.91 127.583 332
50.81 127.502 334
50.71 127.42 336
50.61 127.339 338
51.41 129.183 322
51.31 129.099 324
51.21 129.016 326
51.11 128.932 328
51.01 128.849 330
50.91 128.765 332
50.81 128.682 334
50.71 128.598 336
50.61 128.515 338
51.41 130.373 322
51.31 130.288 324
51.21 130.203 326
51.11 130.117 328
51.01 130.032 330
50.91 129.947 332
50.81 129.861 334
50.71 129.776 336
50.61 129.691 338
51.36 117.079 328
51.26 117.014 330
51.16 116.949 332
51.06 116.883 334
50.96 116.818 336
50.86 116.753 338
51.36 118.264 328
51.26 118.197 330
51.16 118.13 332
51.06 118.063 334
50.96 117.996 336
50.86 117.929 338
51.46 119.518 326
51.36 119.45 328
51.26 119.381 330
51.16 119.312 332
51.06 119.243 334
50.96 119.174 336
50.86 119.106 338
51.46 120.706 326
51.36 120.635 328
51.26 120.564 330
51.16 120.494 332
51.06 120.423 334
50.96 120.352 336
50.86 120.282 338
51.46 121.893 326
51.36 121.82 328
51.26 121.748 330
51.16 121.675 332
51.06 121.603 334
50.96 121.53 336
50.86 121.458 338
51.56 123.154 324
51.46 123.08 326
51.36 123.006 328
51.26 122.931 330
51.16 122.857 332
51.06 122.783 334
50.96 122.708 336
50.86 122.634 338
51.56 124.343 324
51.46 124.267 326
51.36 124.191 328
51.26 124.115 330
51.16 124.039 332
51.06 123.962 334
50.96 123.886 336
50.86 123.81 338
51.56 125.532 324
51.46 125.454 326
51.36 125.376 328
51.26 125.298 330
51.16 125.22 332
51.06 125.142 334
50.96 125.064 336
50.86 124.986 338
51.66 126.801 322
51.56 126.721 324
51.46 126.641 326
51.36 126.561 328
51.26 126.482 330
51.16 126.402 332
51.06 126.322 334
50.96 126.242 336
50.86 126.162 338
51.66 127.992 322
51.56 127.91 324
51.46 127.828 326
51.36 127.747 328
51.26 127.665 330
51.16 127.583 332
51.06 127.502 334
50.96 127.42 336
50.86 127.339 338
51.66 129.183 322
51.56 129.099 324
51.46 129.016 326
51.36 128.932 328
51.26 128.849 330
51.16 128.765 332
51.06 128.682 334
50.96 128.598 336
50.86 128.515 338
51.66 130.373 322
51.56 130.288 324
51.46 130.203 326
51.36 130.117 328
51.26 130.032 330
51.16 129.947 332
51.06 129.861 334
50.96 129.776 336
50.86 129.691 338
51.61 117.079 328
51.51 117.014 330
51.41 116.949 332
51.31 116.883 334
51.21 116.818 336
51.11 116.753 338
51.61 118.264 328
51.51 118.197 330
51.41 118.13 332
51.31 118.063 334
51.21 117.996 336
51.11 117.929 338
51.71 119.518 326
51.61 119.45 328
51.51 119.381 330
51.41 119.312 332
51.31 119.243 334
51.21 119.174 336
51.11 119.106 338
51.71 120.706 326
51.61 120.635 328
51.51 120.564 330
51.41 120.494 332
51.31 120.423 334
51.21 120.352 336
51.11 120.282 338
51.71 121.893 326
51.61 121.82 328
51.51 121.748 330
51.41 121.675 332
51.31 121.603 334
51.21 121.53 336
51.11 121.458 338
51.81 123.154 324
51.71 123.08 326
51.61 123.006 328
51.51 122.931 330
51.41 122.857 332
51.31 122.783 334
51.21 122.708 336
51.11 122.634 338
51.81 124.343 324
51.71 124.267 326
51.61 124.191 328
51.51 124.115 330
51.41 124.039 332
51.31 123.962 334
51.21 123.886 336
51.11 123.81 338
51.81 125.532 324
51.71 125.454 326
51.61 125.376 328
51.51 125.298 330
51.41 125.22 332
51.31 125.142 334
51.21 125.064 336
51.11 124.986 338
51.91 126.801 322
51.81 126.721 324
51.71 126.641 326
51.61 126.561 328
51.51 126.482 330
51.41 126.402 332
51.31 126.322 334
51.21 126.242 336
51.11 126.162 338
51.91 127.992 322
51.81 127.91 324
51.71 127.828 326
51.61 127.747 328
51.51 127.665 330
51.41 127.583 332
51.31 127.502 334
51.21 127.42 336
51.11 127.339 338
51.91 129.183 322
51.81 129.099 324
51.71 129.016 326
51.61 128.932 328
51.51 128.849 330
51.41 128.765 332
51.31 128.682 334
51.21 128.598 336
51.11 128.515 338
51.91 130.373 322
51.81 130.288 324
51.71 130.203 326
51.61 130.117 328
51.51 130.032 330
51.41 129.947 332
51.31 129.861 334
51.21 129.776 336
51.11 129.691 338
51.86 117.079 328
51.76 117.014 330
51.66 116.949 332
51.56 116.883 334
51.46 116.818 336
51.36 116.753 338
51.86 118.264 328
51.76 118.197 330
51.66 118.13 332
51.56 118.063 334
51.46 117.996 336
51.36 117.929 338
51.96 119.518 326
51.86 119.45 328
51.76 119.381 330
51.66 119.312 332
51.56 119.243 334
51.46 119.174 336
51.36 119.106 338
51.96 120.706 326
51.86 120.635 328
51.76 120.564 330
51.66 120.494 332
51.56 120.423 334
51.46 120.352 336
51.36 120.282 338
51.96 121.893 326
51.86 121.82 328
51.76 121.748 330
51.66 121.675 332
51.56 121.603 334
51.46 121.53 336
51.36 121.458 338
52.06 123.154 324
51.96 123.08 326
51.86 123.006 328
51.76 122.931 330
51.66 122.857 332
51.56 122.783 334
51.46 122.708 336
51.36 122.634 338
52.06 124.343 324
51.96 124.267 326
51.86 124.191 328
51.76 124.115 330
51.66 124.039 332
51.56 123.962 334
51.46 123.886 336
51.36 123.81 338
52.06 125.532 324
51.96 125.454 326
51.86 125.376 328
51.76 125.298 330
51.66 125.22 332
51.56 125.142 334
51.46 125.064 336
51.36 124.986 338
52.16 126.801 322
52.06 126.721 324
51.96 126.641 326
51.86 126.561 328
51.76 126.482 330
51.66 126.402 332
51.56 126.322 334
51.46 126.242 336
51.36 126.162 338
52.16 127.992 322
52.06 127.91 324
51.96 127.828 326
51.86 127.747 328
51.76 127.665 330
51.66 127.583 332
51.56 127.502 334
51.46 127.42 336
51.36 127.339 338
52.16 129.183 322
52.06 129.099 324
51.96 129.016 326
51.86 128.932 328
51.76 128.849 330
51.66 128.765 332
51.56 128.682 334
51.46 128.598 336
51.36 128.515 338
52.16 130.373 322
52.06 130.288 324
51.96 130.203 326
51.86 130.117 328
51.76 130.032 330
51.66 129.947 332
51.56 129.861 334
51.46 129.776 336
51.36 129.691 338
52.11 117.079 328
52.01 117.014 330
51.91 116.949 332
51.81 116.883 334
51.71 116.818 336
51.61 116.753 338
52.11 118.264 328
52.01 118.197 330
51.91 118.13 332
51.81 118.063 334
51.71 117.996 336
51.61 117.929 338
52.21 119.518 326
52.11 119.45 328
52.01 119.381 330
51.91 119.312 332
51.81 119.243 334
51.71 119.174 336
51.61 119.106 338
52.21 120.706 326
52.11 120.635 328
52.01 120.564 330
51.91 120.494 332
51.81 120.423 334
51.71 120.352 336
51.61 120.282 338
52.21 121.893 326
52.11 121.82 328
52.01 121.748 330
51.91 121.675 332
51.81 121.603 334
51.71 121.53 336
51.61 121.458 338
52.31 123.154 324
52.21 123.08 326
52.11 123.006 328
52.01 122.931 330
51.91 122.857 332
51.81 122.783 334
51.71 122.708 336
51.61 122.634 338
52.31 124.343 324
52.21 124.267 326
52.11 124.191 328
52.01 124.115 330
51.91 124.039 332
51.81 123.962 334
51.71 123.886 336
51.61 123.81 338
52.31 125.532 324
52.21 125.454 326
52.11 125.376 328
52.01 125.298 330
51.91 125.22 332
51.81 125.142 334
51.71 125.064 336
51.61 124.986 338
52.41 126.801 322
52.31 126.721 324
52.21 126.641 326
52.11 126.561 328
52.01 126.482 330
51.91 126.402 332
51.81 126.322 334
51.71 126.242 336
51.61 126.162 338
52.41 127.992 322
52.31 127.91 324
52.21 127.828 326
52.11 127.747 328
52.01 127.665 330
51.91 127.583 332
51.81 127.502 334
51.71 127.42 336
51.61 127.339 338
52.41 129.183 322
52.31 129.099 324
52.21 129.016 326
52.11 128.932 328
52.01 128.849 330
51.91 128.765 332
51.81 128.682 334
51.71 128.598 336
51.61 128.515 338
52.41 130.373 322
52.31 130.288 324
52.21 130.203 326
52.11 130.117 328
52.01 130.032 330
51.91 129.947 332
51.81 129.861 334
51.71 129.776 336
51.61 129.691 338
52.36 117.079 328
52.26 117.014 330
52.16 116.949 332
52.06 116.883 334
51.96 116.818 336
51.86 116.753 338
52.36 118.264 328
52.26 118.197 330
52.16 118.13 332
52.06 118.063 334
51.96 117.996 336
51.86 117.929 338
52.46 119.518 326
52.36 119.45 328
52.26 119.381 330
52.16 119.312 332
52.06 119.243 334
51.96 119.174 336
51.86 119.106 338
52.46 120.706 326
52.36 120.635 328
52.26 120.564 330
52.16 120.494 332
52.06 120.423 334
51.96 120.352 336
51.86 120.282 338
52.46 121.893 326
52.36 121.82 328
52.26 121.748 330
52.16 121.675 332
52.06 121.603 334
51.96 121.53 336
51.86 121.458 338
52.56 123.154 324
52.46 123.08 326
52.36 123.006 328
52.26 122.931 330
52.16 122.857 332
52.06 122.783 334
51.96 122.708 336
51.86 122.634 338
52.56 124.343 324
52.46 124.267 326
52.36 124.191 328
52.26 124.115 330
52.16 124.039 332
52.06 123.962 334
51.96 123.886 336
51.86 123.81 338
52.56 125.532 324
52.46 125.454 326
52.36 125.376 328
52.26 125.298 330
52.16 125.22 332
52.06 125.142 334
51.96 125.064 336
51.86 124.986 338
52.66 126.801 322
52.56 126.721 324
52.46 126.641 326
52.36 126.561 328
52.26 126.482 330
52.16 126.402 332
52.06 126.322 334
51.96 126.242 336
51.86 126.162 338
52.66 127.992 322
52.56 127.91 324
52.46 127.828 326
52.36 127.747 328
52.26 127.665 330
52.16 127.583 332
52.06 127.502 334
51.96 127.42 336
51.86 127.339 338
52.66 129.183 322
52.56 129.099 324
52.46 129.016 326
52.36 128.932 328
52.26 128.849 330
52.16 128.765 332
52.06 128.682 334
51.96 128.598 336
51.86 128.515 338
52.66 130.373 322
52.56 130.288 324
52.46 130.203 326
52.36 130.117 328
52.26 130.032 330
52.16 129.947 332
52.06 129.861 334
51.96 129.776 336
51.86 129.691 338
52.61 117.079 328
52.51 117.014 330
52.41 116.949 332
52.31 116.883 334
52.21 116.818 336
52.11 116.753 338
52.61 118.264 328
52.51 118.197 330
52.41 118.13 332
52.31 118.063 334
52.21 117.996 336
52.11 117.929 338
52.71 119.518 326
52.61 119.45 328
52.51 119.381 330
52.41 119.312 332
52.31 119.243 334
52.21 119.174 336
52.11 119.106 338
52.71 120.706 326
52.61 120.635 328
52.51 120.564 330
52.41 120.494 332
52.31 120.423 334
52.21 120.352 336
52.11 120.282 338
52.71 121.893 326
52.61 121.82 328
52.51 121.748 330
52.41 121.675 332
52.31 121.603 334
52.21 121.53 336
52.11 121.458 338
52.81 123.154 324
52.71 123.08 326
52.61 123.006 328
52.51 122.931 330
52.41 122.857 332
52.31 122.783 334
52.21 122.708 336
52.11 122.634 338
52.81 124.343 324
52.71 124.267 326
52.61 124.191 328
52.51 124.115 330
52.41 124.039 332
52.31 123.962 334
52.21 123.886 336
52.11 123.81 338
52.81 125.532 324
52.71 125.454 326
52.61 125.376 328
52.51 125.298 330
52.41 125.22 332
52.31 125.142 334
52.21 125.064 336
52.11 124.986 338
52.91 126.801 322
52.81 126.721 324
52.71 126.641 326
52.61 126.561 328
52.51 126.482 330
52.41 126.402 332
52.31 126.322 334
52.21 126.242 336
52.11 126.162 338
52.91 127.992 322
52.81 127.91 324
52.71 127.828 326
52.61 127.747 328
52.51 127.665 330
52.41 127.583 332
52.31 127.502 334
52.21 127.42 336
52.11 127.339 338
52.91 129.183 322
52.81 129.099 324
52.71 129.016 326
52.61 128.932 328
52.51 128.849 330
52.41 128.765 332
52.31 128.682 334
52.21 128.598 336
52.11 128.515 338
52.91 130.373 322
52.81 130.288 324
52.71 130.203 326
52.61 130.117 328
52.51 130.032 330
52.41 129.947 332
52.31 129.861 334
52.21 129.776 336
52.11 129.691 338
52.86 117.079 328
52.76 117.014 330
52.66 116.949 332
52.56 116.883 334
52.46 116.818 336
52.36 116.753 338
52.86 118.264 328
52.76 118.197 330
52.66 118.13 332
52.56 118.063 334
52.46 117.996 336
52.36 117.929 338
52.96 119.518 326
52.86 119.45 328
52.76 119.381 330
52.66 119.312 332
52.56 119.243 334
52.46 119.174 336
52.36 119.106 338
52.96 120.706 326
52.86 120.635 328
52.76 120.564 330
52.66 120.494 332
52.56 120.423 334
52.46 120.352 336
52.36 120.282 338
52.96 121.893 326
52.86 121.82 328
52.76 121.748 330
52.66 121.675 332
52.56 121.603 334
52.46 121.53 336
52.36 121.458 338
53.06 123.154 324
52.96 123.08 326
52.86 123.006 328
52.76 122.931 330
52.66 122.857 332
52.56 122.783 334
52.46 122.708 336
52.36 122.634 338
53.06 124.343 324
52.96 124.267 326
52.86 124.191 328
52.76 124.115 330
52.66 124.039 332
52.56 123.962 334
52.46 123.886 336
52.36 123.81 338
53.06 125.532 324
52.96 125.454 326
52.86 125.376 328
52.76 125.298 330
52.66 125.22 332
52.56 125.142 334
52.46 125.064 336
52.36 124.986 338
53.16 126.801 322
53.06 126.721 324
52.96 126.641 326
52.86 126.561 328
52.76 126.482 330
52.66 126.402 332
52.56 126.322 334
52.46 126.242 336
52.36 126.162 338
53.16 127.992 322
53.06 127.91 324
52.96 127.828 326
52.86 127.747 328
52.76 127.665 330
52.66 127.583 332
52.56 127.502 334
52.46 127.42 336
52.36 127.339 338
53.16 129.183 322
53.06 129.099 324
52.96 129.016 326
52.86 128.932 328
52.76 128.849 330
52.66 128.765 332
52.56 128.682 334
52.46 128.598 336
52.36 128.515 338
53.16 130.373 322
53.06 130.288 324
52.96 130.203 326
52.86 130.117 328
52.76 130.032 330
52.66 129.947 332
52.56 129.861 334
52.46 129.776 336
52.36 129.691 338
52.87 117.079 328
52.77 117.014 330
52.67 116.949 332
52.57 116.883 334
52.47 116.818 336
52.37 116.753 338
52.87 118.264 328
52.77 118.197 330
52.67 118.13 332
52.57 118.063 334
52.47 117.996 336
52.37 117.929 338
52.97 119.518 326
52.87 119.45 328
52.77 119.381 330
52.67 119.312 332
52.57 119.243 334
52.47 119.174 336
52.37 119.106 338
52.97 120.706 326
52.87 120.635 328
52.77 120.564 330
52.67 120.494 332
52.57 120.423 334
52.47 120.352 336
52.37 120.282 338
52.97 121.893 326
52.87 121.82 328
52.77 121.748 330
52.67 121.675 332
52.57 121.603 334
52.47 121.53 336
52.37 121.458 338
53.07 123.154 324
52.97 123.08 326
52.87 123.006 328
52.77 122.931 330
52.67 122.857 332
52.57 122.783 334
52.47 122.708 336
52.37 122.634 338
53.07 124.343 324
52.97 124.267 326
52.87 124.191 328
52.77 124.115 330
52.67 124.039 332
52.57 123.962 334
52.47 123.886 336
52.37 123.81 338
53.07 125.532 324
52.97 125.454 326
52.87 125.376 328
52.77 125.298 330
52.67 125.22 332
52.57 125.142 334
52.47 125.064 336
52.37 124.986 338
53.17 126.801 322
53.07 126.721 324
52.97 126.641 326
52.87 126.561 328
52.77 126.482 330
52.67 126.402 332
52.57 126.322 334
52.47 126.242 336
52.37 126.162 338
53.17 127.992 322
53.07 127.91 324
52.97 127.828 326
52.87 127.747 328
52.77 127.665 330
52.67 127.583 332
52.57 127.502 334
52.47 127.42 336
52.37 127.339 338
53.17 129.183 322
53.07 129.099 324
52.97 129.016 326
52.87 128.932 328
52.77 128.849 330
52.67 128.765 332
52.57 128.682 334
52.47 128.598 336
52.37 128.515 338
53.17 130.373 322
53.07 130.288 324
52.97 130.203 326
52.87 130.117 328
52.77 130.032 330
52.67 129.947 332
52.57 129.861 334
52.47 129.776 336
52.37 129.691 338
53.12 117.079 328
53.02 117.014 330
52.92 116.949 332
52.82 116.883 334
52.72 116.818 336
52.62 116.753 338
53.12 118.264 328
53.02 118.197 330
52.92 118.13 332
52.82 118.063 334
52.72 117.996 336
52.62 117.929 338
53.22 119.518 326
53.12 119.45 328
53.02 119.381 330
52.92 119.312 332
52.82 119.243 334
52.72 119.174 336
52.62 119.106 338
53.22 120.706 326
53.12 120.635 328
53.02 120.564 330
52.92 120.494 332
52.82 120.423 334
52.72 120.352 336
52.62 120.282 338
53.22 121.893 326
53.12 121.82 328
53.02 121.748 330
52.92 121.675 332
52.82 121.603 334
52.72 121.53 336
52.62 121.458 338
53.32 123.154 324
53.22 123.08 326
53.12 123.006 328
53.02 122.931 330
52.92 122.857 332
52.82 122.783 334
52.72 122.708 336
52.62 122.634 338
53.32 124.343 324
53.22 124.267 326
53.12 124.191 328
53.02 124.115 330
52.92 124.039 332
52.82 123.962 334
52.72 123.886 336
52.62 123.81 338
53.32 125.532 324
53.22 125.454 326
53.12 125.376 328
53.02 125.298 330
52.92 125.22 332
52.82 125.142 334
52.72 125.064 336
52.62 124.986 338
53.42 126.801 322
53.32 126.721 324
53.22 126.641 326
53.12 126.561 328
53.02 126.482 330
52.92 126.402 332
52.82 126.322 334
52.72 126.242 336
52.62 126.162 338
53.42 127.992 322
53.32 127.91 324
53.22 127.828 326
53.12 127.747 328
53.02 127.665 330
52.92 127.583 332
52.82 127.502 334
52.72 127.42 336
52.62 127.339 338
53.42 129.183 322
53.32 129.099 324
53.22 129.016 326
53.12 128.932 328
53.02 128.849 330
52.92 128.765 332
52.82 128.682 334
52.72 128.598 336
52.62 128.515 338
53.42 130.373 322
53.32 130.288 324
53.22 130.203 326
53.12 130.117 328
53.02 130.032 330
52.92 129.947 332
52.82 129.861 334
52.72 129.776 336
52.62 129.691 338
53.37 117.079 328
53.27 117.014 330
53.17 116.949 332
53.07 116.883 334
52.97 116.818 336
52.87 116.753 338
53.37 118.264 328
53.27 118.197 330
53.17 118.13 332
53.07 118.063 334
52.97 117.996 336
52.87 117.929 338
53.47 119.518 326
53.37 119.45 328
53.27 119.381 330
53.17 119.312 332
53.07 119.243 334
52.97 119.174 336
52.87 119.106 338
53.47 120.706 326
53.37 120.635 328
53.27 120.564 330
53.17 120.494 332
53.07 120.423 334
52.97 120.352 336
52.87 120.282 338
53.47 121.893 326
53.37 121.82 328
53.27 121.748 330
53.17 121.675 332
53.07 121.603 334
52.97 121.53 336
52.87 121.458 338
53.57 123.154 324
53.47 123.08 326
53.37 123.006 328
53.27 122.931 330
53.17 122.857 332
53.07 122.783 334
52.97 122.708 336
52.87 122.634 338
53.57 124.343 324
53.47 124.267 326
53.37 124.191 328
53.27 124.115 330
53.17 124.039 332
53.07 123.962 334
52.97 123.886 336
52.87 123.81 338
53.57 125.532 324
53.47 125.454 326
53.37 125.376 328
53.27 125.298 330
53.17 125.22 332
53.07 125.142 334
52.97 125.064 336
52.87 124.986 338
53.67 126.801 322
53.57 126.721 324
53.47 126.641 326
53.37 126.561 328
53.27 126.482 330
53.17 126.402 332
53.07 126.322 334
52.97 126.242 336
52.87 126.162 338
53.67 127.992 322
53.57 127.91 324
53.47 127.828 326
53.37 127.747 328
53.27 127.665 330
53.17 127.583 332
53.07 127.502 334
52.97 127.42 336
52.87 127.339 338
53.67 129.183 322
53.57 129.099 324
53.47 129.016 326
53.37 128.932 328
53.27 128.849 330
53.17 128.765 332
53.07 128.682 334
52.97 128.598 336
52.87 128.515 338
53.67 130.373 322
53.57 130.288 324
53.47 130.203 326
53.37 130.117 328
53.27 130.032 330
53.17 129.947 332
53.07 129.861 334
52.97 129.776 336
52.87 129.691 338
53.62 117.079 328
53.52 117.014 330
53.42 116.949 332
53.32 116.883 334
53.22 116.818 336
53.12 116.753 338
53.62 118.264 328
53.52 118.197 330
53.42 118.13 332
53.32 118.063 334
53.22 117.996 336
53.12 117.929 338
53.72 119.518 326
53.62 119.45 328
53.52 119.381 330
53.42 119.312 332
53.32 119.243 334
53.22 119.174 336
53.12 119.106 338
53.72 120.706 326
53.62 120.635 328
53.52 120.564 330
53.42 120.494 332
53.32 120.423 334
53.22 120.352 336
53.12 120.282 338
53.72 121.893 326
53.62 121.82 328
53.52 121.748 330
53.42 121.675 332
53.32 121.603 334
53.22 121.53 336
53.12 121.458 338
53.82 123.154 324
53.72 123.08 326
53.62 123.006 328
53.52 122.931 330
53.42 122.857 332
53.32 122.783 334
53.22 122.708 336
53.12 122.634 338
53.82 124.343 324
53.72 124.267 326
53.62 124.191 328
53.52 124.115 330
53.42 124.039 332
53.32 123.962 334
53.22 123.886 336
53.12 123.81 338
53.82 125.532 324
53.72 125.454 326
53.62 125.376 328
53.52 125.298 330
53.42 125.22 332
53.32 125.142 334
53.22 125.064 336
53.12 124.986 338
53.92 126.801 322
53.82 126.721 324
53.72 126.641 326
53.62 126.561 328
53.52 126.482 330
53.42 126.402 332
53.32 126.322 334
53.22 126.242 336
53.12 126.162 338
53.92 127.992 322
53.82 127.91 324
53.72 127.828 326
53.62 127.747 328
53.52 127.665 330
53.42 127.583 332
53.32 127.502 334
53.22 127.42 336
53.12 127.339 338
53.92 129.183 322
53.82 129.099 324
53.72 129.016 326
53.62 128.932 328
53.52 128.849 330
53.42 128.765 332
53.32 128.682 334
53.22 128.598 336
53.12 128.515 338
53.92 130.373 322
53.82 130.288 324
53.72 130.203 326
53.62 130.117 328
53.52 130.032 330
53.42 129.947 332
53.32 129.861 334
53.22 129.776 336
53.12 129.691 338
53.87 117.079 328
53.77 117.014 330
53.67 116.949 332
53.57 116.883 334
53.47 116.818 336
53.37 116.753 338
53.87 118.264 328
53.77 118.197 330
53.67 118.13 332
53.57 118.063 334
53.47 117.996 336
53.37 117.929 338
53.97 119.518 326
53.87 119.45 328
53.77 119.381 330
53.67 119.312 332
53.57 119.243 334
53.47 119.174 336
53.37 119.106 338
53.97 120.706 326
53.87 120.635 328
53.77 120.564 330
53.67 120.494 332
53.57 120.423 334
53.47 120.352 336
53.37 120.282 338
53.97 121.893 326
53.87 121.82 328
53.77 121.748 330
53.67 121.675 332
53.57 121.603 334
53.47 121.53 336
53.37 121.458 338
54.07 123.154 324
53.97 123.08 326
53.87 123.006 328
53.77 122.931 330
53.67 122.857 332
53.57 122.783 334
53.47 122.708 336
53.37 122.634 338
54.07 124.343 324
53.97 124.267 326
53.87 124.191 328
53.77 124.115 330
53.67 124.039 332
53.57 123.962 334
53.47 123.886 336
53.37 123.81 338
54.07 125.532 324
53.97 125.454 326
53.87 125.376 328
53.77 125.298 330
53.67 125.22 332
53.57 125.142 334
53.47 125.064 336
53.37 124.986 338
54.17 126.801 322
54.07 126.721 324
53.97 126.641 326
53.87 126.561 328
53.77 126.482 330
53.67 126.402 332
53.57 126.322 334
53.47 126.242 336
53.37 126.162 338
54.17 127.992 322
54.07 127.91 324
53.97 127.828 326
53.87 127.747 328
53.77 127.665 330
53.67 127.583 332
53.57 127.502 334
53.47 127.42 336
53.37 127.339 338
54.17 129.183 322
54.07 129.099 324
53.97 129.016 326
53.87 128.932 328
53.77 128.849 330
53.67 128.765 332
53.57 128.682 334
53.47 128.598 336
53.37 128.515 338
54.17 130.373 322
54.07 130.288 324
53.97 130.203 326
53.87 130.117 328
53.77 130.032 330
53.67 129.947 332
53.57 129.861 334
53.47 129.776 336
53.37 129.691 338
54.12 117.079 328
54.02 117.014 330
53.92 116.949 332
53.82 116.883 334
53.72 116.818 336
53.62 116.753 338
54.12 118.264 328
54.02 118.197 330
53.92 118.13 332
53.82 118.063 334
53.72 117.996 336
53.62 117.929 338
54.22 119.518 326
54.12 119.45 328
54.02 119.381 330
53.92 119.312 332
53.82 119.243 334
53.72 119.174 336
53.62 119.106 338
54.22 120.706 326
54.12 120.635 328
54.02 120.564 330
53.92 120.494 332
53.82 120.423 334
53.72 120.352 336
53.62 120.282 338
54.22 121.893 326
54.12 121.82 328
54.02 121.748 330
53.92 121.675 332
53.82 121.603 334
53.72 121.53 336
53.62 121.458 338
54.32 123.154 324
54.22 123.08 326
54.12 123.006 328
54.02 122.931 330
53.92 122.857 332
53.82 122.783 334
53.72 122.708 336
53.62 122.634 338
54.32 124.343 324
54.22 124.267 326
54.12 124.191 328
54.02 124.115 330
53.92 124.039 332
53.82 123.962 334
53.72 123.886 336
53.62 123.81 338
54.32 125.532 324
54.22 125.454 326
54.12 125.376 328
54.02 125.298 330
53.92 125.22 332
53.82 125.142 334
53.72 125.064 336
53.62 124.986 338
54.42 126.801 322
54.32 126.721 324
54.22 126.641 326
54.12 126.561 328
54.02 126.482 330
53.92 126.402 332
53.82 126.322 334
53.72 126.242 336
53.62 126.162 338
54.42 127.992 322
54.32 127.91 324
54.22 127.828 326
54.12 127.747 328
54.02 127.665 330
53.92 127.583 332
53.82 127.502 334
53.72 127.42 336
53.62 127.339 338
54.42 129.183 322
54.32 129.099 324
54.22 129.016 326
54.12 128.932 328
54.02 128.849 330
53.92 128.765 332
53.82 128.682 334
53.72 128.598 336
53.62 128.515 338
54.42 130.373 322
54.32 130.288 324
54.22 130.203 326
54.12 130.117 328
54.02 130.032 330
53.92 129.947 332
53.82 129.861 334
53.72 129.776 336
53.62 129.691 338
54.37 117.079 328
54.27 117.014 330
54.17 116.949 332
54.07 116.883 334
53.97 116.818 336
53.87 116.753 338
54.37 118.264 328
54.27 118.197 330
54.17 118.13 332
54.07 118.063 334
53.97 117.996 336
53.87 117.929 338
54.47 119.518 326
54.37 119.45 328
54.27 119.381 330
54.17 119.312 332
54.07 119.243 334
53.97 119.174 336
53.87 119.106 338
54.47 120.706 326
54.37 120.635 328
54.27 120.564 330
54.17 120.494 332
54.07 120.423 334
53.97 120.352 336
53.87 120.282 338
54.47 121.893 326
54.37 121.82 328
54.27 121.748 330
54.17 121.675 332
54.07 121.603 334
53.97 121.53 336
53.87 121.458 338
54.57 123.154 324
54.47 123.08 326
54.37 123.006 328
54.27 122.931 330
54.17 122.857 332
54.07 122.783 334
53.97 122.708 336
53.87 122.634 338
54.57 124.343 324
54.47 124.267 326
54.37 124.191 328
54.27 124.115 330
54.17 124.039 332
54.07 123.962 334
53.97 123.886 336
53.87 123.81 338
54.57 125.532 324
54.47 125.454 326
54.37 125.376 328
54.27 125.298 330
54.17 125.22 332
54.07 125.142 334
53.97 125.064 336
53.87 124.986 338
54.67 126.801 322
54.57 126.721 324
54.47 126.641 326
54.37 126.561 328
54.27 126.482 330
54.17 126.402 332
54.07 126.322 334
53.97 126.242 336
53.87 126.162 338
54.67 127.992 322
54.57 127.91 324
54.47 127.828 326
54.37 127.747 328
54.27 127.665 330
54.17 127.583 332
54.07 127.502 334
53.97 127.42 336
53.87 127.339 338
54.67 129.183 322
54.57 129.099 324
54.47 129.016 326
54.37 128.932 328
54.27 128.849 330
54.17 128.765 332
54.07 128.682 334
53.97 128.598 336
53.87 128.515 338
54.67 130.373 322
54.57 130.288 324
54.47 130.203 326
54.37 130.117 328
54.27 130.032 330
54.17 129.947 332
54.07 129.861 334
53.97 129.776 336
53.87 129.691 338
54.62 117.079 328
54.52 117.014 330
54.42 116.949 332
54.32 116.883 334
54.22 116.818 336
54.12 116.753 338
54.62 118.264 328
54.52 118.197 330
54.42 118.13 332
54.32 118.063 334
54.22 117.996 336
54.12 117.929 338
54.72 119.518 326
54.62 119.45 328
54.52 119.381 330
54.42 119.312 332
54.32 119.243 334
54.22 119.174 336
54.12 119.106 338
54.72 120.706 326
54.62 120.635 328
54.52 120.564 330
54.42 120.494 332
54.32 120.423 334
54.22 120.352 336
54.12 120.282 338
54.72 121.893 326
54.62 121.82 328
54.52 121.748 330
54.42 121.675 332
54.32 121.603 334
54.22 121.53 336
54.12 121.458 338
54.82 123.154 324
54.72 123.08 326
54.62 123.006 328
54.52 122.931 330
54.42 122.857 332
54.32 122.783 334
54.22 122.708 336
54.12 122.634 338
54.82 124.343 324
54.72 124.267 326
54.62 124.191 328
54.52 124.115 330
54.42 124.039 332
54.32 123.962 334
54.22 123.886 336
54.12 123.81 338
54.82 125.532 324
54.72 125.454 326
54.62 125.376 328
54.52 125.298 330
54.42 125.22 332
54.32 125.142 334
54.22 125.064 336
54.12 124.986 338
54.92 126.801 322
54.82 126.721 324
54.72 126.641 326
54.62 126.561 328
54.52 126.482 330
54.42 126.402 332
54.32 126.322 334
54.22 126.242 336
54.12 126.162 338
54.92 127.992 322
54.82 127.91 324
54.72 127.828 326
54.62 127.747 328
54.52 127.665 330
54.42 127.583 332
54.32 127.502 334
54.22 127.42 336
54.12 127.339 338
54.92 129.183 322
54.82 129.099 324
54.72 129.016 326
54.62 128.932 328
54.52 128.849 330
54.42 128.765 332
54.32 128.682 334
54.22 128.598 336
54.12 128.515 338
54.92 130.373 322
54.82 130.288 324
54.72 130.203 326
54.62 130.117 328
54.52 130.032 330
54.42 129.947 332
54.32 129.861 334
54.22 129.776 336
54.12 129.691 338
54.63 117.079 328
54.53 117.014 330
54.43 116.949 332
54.33 116.883 334
54.23 116.818 336
54.13 116.753 338
54.63 118.264 328
54.53 118.197 330
54.43 118.13 332
54.33 118.063 334
54.23 117.996 336
54.13 117.929 338
54.73 119.518 326
54.63 119.45 328
54.53 119.381 330
54.43 119.312 332
54.33 119.243 334
54.23 119.174 336
54.13 119.106 338
54.73 120.706 326
54.63 120.635 328
54.53 120.564 330
54.43 120.494 332
54.33 120.423 334
54.23 120.352 336
54.13 120.282 338
54.73 121.893 326
54.63 121.82 328
54.53 121.748 330
54.43 121.675 332
54.33 121.603 334
54.23 121.53 336
54.13 121.458 338
54.83 123.154 324
54.73 123.08 326
54.63 123.006 328
54.53 122.931 330
54.43 122.857 332
54.33 122.783 334
54.23 122.708 336
54.13 122.634 338
54.83 124.343 324
54.73 124.267 326
54.63 124.191 328
54.53 124.115 330
54.43 124.039 332
54.33 123.962 334
54.23 123.886 336
54.13 123.81 338
54.83 125.532 324
54.73 125.454 326
54.63 125.376 328
54.53 125.298 330
54.43 125.22 332
54.33 125.142 334
54.23 125.064 336
54.13 124.986 338
54.93 126.801 322
54.83 126.721 324
54.73 126.641 326
54.63 126.561 328
54.53 126.482 330
54.43 126.402 332
54.33 126.322 334
54.23 126.242 336
54.13 126.162 338
54.93 127.992 322
54.83 127.91 324
54.73 127.828 326
54.63 127.747 328
54.53 127.665 330
54.43 127.583 332
54.33 127.502 334
54.23 127.42 336
54.13 127.339 338
54.93 129.183 322
54.83 129.099 324
54.73 129.016 326
54.63 128.932 328
54.53 128.849 330
54.43 128.765 332
54.33 128.682 334
54.23 128.598 336
54.13 128.515 338
54.93 130.373 322
54.83 130.288 324
54.73 130.203 326
54.63 130.117 328
54.53 130.032 330
54.43 129.947 332
54.33 129.861 334
54.23 129.776 336
54.13 129.691 338
54.88 117.079 328
54.78 117.014 330
54.68 116.949 332
54.58 116.883 334
54.48 116.818 336
54.38 116.753 338
54.88 118.264 328
54.78 118.197 330
54.68 118.13 332
54.58 118.063 334
54.48 117.996 336
54.38 117.929 338
54.98 119.518 326
54.88 119.45 328
54.78 119.381 330
54.68 119.312 332
54.58 119.243 334
54.48 119.174 336
54.38 119.106 338
54.98 120.706 326
54.88 120.635 328
54.78 120.564 330
54.68 120.494 332
54.58 120.423 334
54.48 120.352 336
54.38 120.282 338
54.98 121.893 326
54.88 121.82 328
54.78 121.748 330
54.68 121.675 332
54.58 121.603 334
54.48 121.53 336
54.38 121.458 338
55.08 123.154 324
54.98 123.08 326
54.88 123.006 328
54.78 122.931 330
54.68 122.857 332
54.58 122.783 334
54.48 122.708 336
54.38 122.634 338
55.08 124.343 324
54.98 124.267 326
54.88 124.191 328
54.78 124.115 330
54.68 124.039 332
54.58 123.962 334
54.48 123.886 336
54.38 123.81 338
55.08 125.532 324
54.98 125.454 326
54.88 125.376 328
54.78 125.298 330
54.68 125.22 332
54.58 125.142 334
54.48 125.064 336
54.38 124.986 338
55.18 126.801 322
55.08 126.721 324
54.98 126.641 326
54.88 126.561 328
54.78 126.482 330
54.68 126.402 332
54.58 126.322 334
54.48 126.242 336
54.38 126.162 338
55.18 127.992 322
55.08 127.91 324
54.98 127.828 326
54.88 127.747 328
54.78 127.665 330
54.68 127.583 332
54.58 127.502 334
54.48 127.42 336
54.38 127.339 338
55.18 129.183 322
55.08 129.099 324
54.98 129.016 326
54.88 128.932 328
54.78 128.849 330
54.68 128.765 332
54.58 128.682 334
54.48 128.598 336
54.38 128.515 338
55.18 130.373 322
55.08 130.288 324
54.98 130.203 326
54.88 130.117 328
54.78 130.032 330
54.68 129.947 332
54.58 129.861 334
54.48 129.776 336
54.38 129.691 338
54.89 117.079 328
54.79 117.014 330
54.69 116.949 332
54.59 116.883 334
54.49 116.818 336
54.39 116.753 338
54.89 118.264 328
54.79 118.197 330
54.69 118.13 332
54.59 118.063 334
54.49 117.996 336
54.39 117.929 338
54.99 119.518 326
54.89 119.45 328
54.79 119.381 330
54.69 119.312 332
54.59 119.243 334
54.49 119.174 336
54.39 119.106 338
54.99 120.706 326
54.89 120.635 328
54.79 120.564 330
54.69 120.494 332
54.59 120.423 334
54.49 120.352 336
54.39 120.282 338
54.99 121.893 326
54.89 121.82 328
54.79 121.748 330
54.69 121.675 332
54.59 121.603 334
54.49 121.53 336
54.39 121.458 338
55.09 123.154 324
54.99 123.08 326
54.89 123.006 328
54.79 122.931 330
54.69 122.857 332
54.59 122.783 334
54.49 122.708 336
54.39 122.634 338
55.09 124.343 324
54.99 124.267 326
54.89 124.191 328
54.79 124.115 330
54.69 124.039 332
54.59 123.962 334
54.49 123.886 336
54.39 123.81 338
55.09 125.532 324
54.99 125.454 326
54.89 125.376 328
54.79 125.298 330
54.69 125.22 332
54.59 125.142 334
54.49 125.064 336
54.39 124.986 338
55.19 126.801 322
55.09 126.721 324
54.99 126.641 326
54.89 126.561 328
54.79 126.482 330
54.69 126.402 332
54.59 126.322 334
54.49 126.242 336
54.39 126.162 338
55.19 127.992 322
55.09 127.91 324
54.99 127.828 326
54.89 127.747 328
54.79 127.665 330
54.69 127.583 332
54.59 127.502 334
54.49 127.42 336
54.39 127.339 338
55.19 129.183 322
55.09 129.099 324
54.99 129.016 326
54.89 128.932 328
54.79 128.849 330
54.69 128.765 332
54.59 128.682 334
54.49 128.598 336
54.39 128.515 338
55.19 130.373 322
55.09 130.288 324
54.99 130.203 326
54.89 130.117 328
54.79 130.032 330
54.69 129.947 332
54.59 129.861 334
54.49 129.776 336
54.39 129.691 338
55.14 117.079 328
55.04 117.014 330
54.94 116.949 332
54.84 116.883 334
54.74 116.818 336
54.64 116.753 338
55.14 118.264 328
55.04 118.197 330
54.94 118.13 332
54.84 118.063 334
54.74 117.996 336
54.64 117.929 338
55.24 119.518 326
55.14 119.45 328
55.04 119.381 330
54.94 119.312 332
54.84 119.243 334
54.74 119.174 336
54.64 119.106 338
55.24 120.706 326
55.14 120.635 328
55.04 120.564 330
54.94 120.494 332
54.84 120.423 334
54.74 120.352 336
54.64 120.282 338
55.24 121.893 326
55.14 121.82 328
55.04 121.748 330
54.94 121.675 332
54.84 121.603 334
54.74 121.53 336
54.64 121.458 338
55.34 123.154 324
55.24 123.08 326
55.14 123.006 328
55.04 122.931 330
54.94 122.857 332
54.84 122.783 334
54.74 122.708 336
54.64 122.634 338
55.34 124.343 324
55.24 124.267 326
55.14 124.191 328
55.04 124.115 330
54.94 124.039 332
54.84 123.962 334
54.74 123.886 336
54.64 123.81 338
55.34 125.532 324
55.24 125.454 326
55.14 125.376 328
55.04 125.298 330
54.94 125.22 332
54.84 125.142 334
54.74 125.064 336
54.64 124.986 338
55.44 126.801 322
55.34 126.721 324
55.24 126.641 326
55.14 126.561 328
55.04 126.482 330
54.94 126.402 332
54.84 126.322 334
54.74 126.242 336
54.64 126.162 338
55.44 127.992 322
55.34 127.91 324
55.24 127.828 326
55.14 127.747 328
55.04 127.665 330
54.94 127.583 332
54.84 127.502 334
54.74 127.42 336
54.64 127.339 338
55.44 129.183 322
55.34 129.099 324
55.24 129.016 326
55.14 128.932 328
55.04 128.849 330
54.94 128.765 332
54.84 128.682 334
54.74 128.598 336
54.64 128.515 338
55.44 130.373 322
55.34 130.288 324
55.24 130.203 326
55.14 130.117 328
55.04 130.032 330
54.94 129.947 332
54.84 129.861 334
54.74 129.776 336
54.64 129.691 338
55.39 117.079 328
55.29 117.014 330
55.19 116.949 332
55.09 116.883 334
54.99 116.818 336
54.89 116.753 338
55.39 118.264 328
55.29 118.197 330
55.19 118.13 332
55.09 118.063 334
54.99 117.996 336
54.89 117.929 338
55.49 119.518 326
55.39 119.45 328
55.29 119.381 330
55.19 119.312 332
55.09 119.243 334
54.99 119.174 336
54.89 119.106 338
55.49 120.706 326
55.39 120.635 328
55.29 120.564 330
55.19 120.494 332
55.09 120.423 334
54.99 120.352 336
54.89 120.282 338
55.49 121.893 326
55.39 121.82 328
55.29 121.748 330
55.19 121.675 332
55.09 121.603 334
54.99 121.53 336
54.89 121.458 338
55.59 123.154 324
55.49 123.08 326
55.39 123.006 328
55.29 122.931 330
55.19 122.857 332
55.09 122.783 334
54.99 122.708 336
54.89 122.634 338
55.59 124.343 324
55.49 124.267 326
55.39 124.191 328
55.29 124.115 330
55.19 124.039 332
55.09 123.962 334
54.99 123.886 336
54.89 123.81 338
55.59 125.532 324
55.49 125.454 326
55.39 125.376 328
55.29 125.298 330
55.19 125.22 332
55.09 125.142 334
54.99 125.064 336
54.89 124.986 338
55.69 126.801 322
55.59 126.721 324
55.49 126.641 326
55.39 126.561 328
55.29 126.482 330
55.19 126.402 332
55.09 126.322 334
54.99 126.242 336
54.89 126.162 338
55.69 127.992 322
55.59 127.91 324
55.49 127.828 326
55.39 127.747 328
55.29 127.665 330
55.19 127.583 332
55.09 127.502 334
54.99 127.42 336
54.89 127.339 338
55.69 129.183 322
55.59 129.099 324
55.49 129.016 326
55.39 128.932 328
55.29 128.849 330
55.19 128.765 332
55.09 128.682 334
54.99 128.598 336
54.89 128.515 338
55.69 130.373 322
55.59 130.288 324
55.49 130.203 326
55.39 130.117 328
55.29 130.032 330
55.19 129.947 332
55.09 129.861 334
54.99 129.776 336
54.89 129.691 338
49.5 115.83 330
49.4 115.767 332
49.3 115.704 334
49.2 115.64 336
55.54 115.83 330
55.44 115.767 332
55.34 115.704 334
55.24 115.64 336
55.14 115.577 338
49.75 115.83 330
49.65 115.767 332
49.55 115.704 334
49.45 115.64 336
50.25 115.83 330
50 115.83 330
50.15 115.767 332
49.9 115.767 332
50.05 115.704 334
49.8 115.704 334
49.95 115.64 336
49.7 115.64 336
50.51 115.83 330
50.5 115.83 330
50.41 115.767 332
50.4 115.767 332
50.31 115.704 334
50.3 115.704 334
50.21 115.64 336
50.2 115.64 336
50.11 115.577 338
50.76 115.83 330
50.66 115.767 332
50.56 115.704 334
50.46 115.64 336
50.36 115.577 338
51.01 115.83 330
50.91 115.767 332
50.81 115.704 334
50.71 115.64 336
50.61 115.577 338
51.26 115.83 330
51.16 115.767 332
51.06 115.704 334
50.96 115.64 336
50.86 115.577 338
51.51 115.83 330
51.41 115.767 332
51.31 115.704 334
51.21 115.64 336
51.11 115.577 338
51.76 115.83 330
51.66 115.767 332
51.56 115.704 334
51.46 115.64 336
51.36 115.577 338
52.01 115.83 330
51.91 115.767 332
51.81 115.704 334
51.71 115.64 336
51.61 115.577 338
52.26 115.83 330
52.16 115.767 332
52.06 115.704 334
51.96 115.64 336
51.86 115.577 338
52.51 115.83 330
52.41 115.767 332
52.31 115.704 334
52.21 115.64 336
52.11 115.577 338
52.76 115.83 330
52.66 115.767 332
52.56 115.704 334
52.46 115.64 336
52.36 115.577 338
52.77 115.83 330
52.67 115.767 332
52.57 115.704 334
52.47 115.64 336
52.37 115.577 338
53.02 115.83 330
52.92 115.767 332
52.82 115.704 334
52.72 115.64 336
52.62 115.577 338
53.27 115.83 330
53.17 115.767 332
53.07 115.704 334
52.97 115.64 336
52.87 115.577 338
53.52 115.83 330
53.42 115.767 332
53.32 115.704 334
53.22 115.64 336
53.12 115.577 338
53.77 115.83 330
53.67 115.767 332
53.57 115.704 334
53.47 115.64 336
53.37 115.577 338
54.02 115.83 330
53.92 115.767 332
53.82 115.704 334
53.72 115.64 336
53.62 115.577 338
54.27 115.83 330
54.17 115.767 332
54.07 115.704 334
53.97 115.64 336
53.87 115.577 338
54.52 115.83 330
54.42 115.767 332
54.32 115.704 334
54.22 115.64 336
54.12 115.577 338
54.53 115.83 330
54.43 115.767 332
54.33 115.704 334
54.23 115.64 336
54.13 115.577 338
54.78 115.83 330
54.68 115.767 332
54.58 115.704 334
54.48 115.64 336
54.38 115.577 338
54.79 115.83 330
54.69 115.767 332
54.59 115.704 334
54.49 115.64 336
54.39 115.577 338
55.04 115.83 330
54.94 115.767 332
54.84 115.704 334
54.74 115.64 336
54.64 115.577 338
55.29 115.83 330
55.19 115.767 332
55.09 115.704 334
54.99 115.64 336
54.89 115.577 338
CELLS 2144 19296
8 1351 1163 3859 3868 1352 1164 3860 3869
8 1352 1164 3860 3869 1353 1165 3861 3870
8 1353 1165 3861 3870 1354 1166 3862 3871
8 1355 1167 1162 1350 1356 1168 1163 1351
8 1356 1168 1163 1351 1357 1169 1164 1352
8 1357 1169 1164 1352 1358 1170 1165 1353
8 1358 1170 1165 1353 1359 1171 1166 1354
8 1361 1173 1167 1355 1362 1174 1168 1356
8 1362 1174 1168 1356 1363 1175 1169 1357
8 1363 1175 1169 1357 1364 1176 1170 1358
8 1364 1176 1170 1358 1365 1177 1171 1359
8 1367 1179 1172 1360 1368 1180 1173 1361
8 1368 1180 1173 1361 1369 1181 1174 1362
8 1369 1181 1174 1362 1370 1182 1175 1363
8 1370 1182 1175 1363 1371 1183 1176 1364
8 1371 1183 1176 1364 1372 1184 1177 1365
8 1372 1184 1177 1365 1373 1185 1178 1366
8 1374 1186 1179 1367 1375 1187 1180 1368
8 1375 1187 1180 1368 1376 1188 1181 1369
8 1376 1188 1181 1369 1377 1189 1182 1370
8 1377 1189 1182 1370 1378 1190 1183 1371
8 1378 1190 1183 1371 1379 1191 1184 1372
8 1379 1191 1184 1372 1380 1192 1185 1373
8 1382 1194 1186 1374 1383 1195 1187 1375
8 1383 1195 1187 1375 1384 1196 1188 1376
8 1384 1196 1188 1376 1385 1197 1189 1377
8 1385 1197 1189 1377 1386 1198 1190 1378
8 1386 1198 1190 1378 1387 1199 1191 1379
8 1387 1199 1191 1379 1388 1200 1192 1380
8 1389 1201 1193 1381 1390 1202 1194 1382
8 1390 1202 1194 1382 1391 1203 1195 1383
8 1391 1203 1195 1383 1392 1204 1196 1384
8 1392 1204 1196 1384 1393 1205 1197 1385
8 1393 1205 1197 1385 1394 1206 1198 1386
8 1394 1206 1198 1386 1395 1207 1199 1387
8 1395 1207 1199 1387 1396 1208 1200 1388
8 1397 1209 1201 1389 1398 1210 1202 1390
8 1398 1210 1202 1390 1399 1211 1203 1391
8 1399 1211 1203 1391 1400 1212 1204 1392
8 1400 1212 1204 1392 1401 1213 1205 1393
8 1401 1213 1205 1393 1402 1214 1206 1394
8 1402 1214 1206 1394 1403 1215 1207 1395
8 1403 1215 1207 1395 1404 1216 1208 1396
8 1406 1218 1209 1397 1407 1219 1210 1398
8 1407 1219 1210 1398 1408 1220 1211 1399
8 1408 1220 1211 1399 1409 1221 1212 1400
8 1409 1221 1212 1400 1410 1222 1213 1401
8 1410 1222 1213 1401 1411 1223 1214 1402
8 1411 1223 1214 1402 1412 1224 1215 1403
8 1412 1224 1215 1403 1413 1225 1216 1404
8 1414 1226 1217 1405 1415 1227 1218 1406
8 1415 1227 1218 1406 1416 1228 1219 1407
8 1416 1228 1219 1407 1417 1229 1220 1408
8 1417 1229 1220 1408 1418 1230 1221 1409
8 1418 1230 1221 1409 1419 1231 1222 1410
8 1419 1231 1222 1410 1420 1232 1223 1411
8 1420 1232 1223 1411 1421 1233 1224 1412
8 1421 1233 1224 1412 1422 1234 1225 1413
8 1425 1237 1226 1414 1426 1238 1227 1415
8 1426 1238 1227 1415 1427 1239 1228 1416
8 1427 1239 1228 1416 1428 1240 1229 1417
8 1428 1240 1229 1417 1429 1241 1230 1418
8 1429 1241 1230 1418 1430 1242 1231 1419
8 1430 1242 1231 1419 1431 1243 1232 1420
8 1431 1243 1232 1420 1432 1244 1233 1421
8 1432 1244 1233 1421 1433 1245 1234 1422
8 1434 1246 1235 1423 1435 1247 1236 1424
8 1435 1247 1236 1424 1436 1248 1237 1425
8 1436 1248 1237 1425 1437 1249 1238 1426
8 1437 1249 1238 1426 1438 1250 1239 1427
8 1438 1250 1239 1427 1439 1251 1240 1428
8 1439 1251 1240 1428 1440 1252 1241 1429
8 1440 1252 1241 1429 1441 1253 1242 1430
8 1441 1253 1242 1430 1442 1254 1243 1431
8 1442 1254 1243 1431 1443 1255 1244 1432
8 1443 1255 1244 1432 1444 1256 1245 1433
8 1447 1448 3873 3872 1449 1450 3875 3874
8 1449 1450 3875 3874 1451 1452 3877 3876
8 1451 1452 3877 3876 1453 1454 3879 3878
8 1455 1456 1446 1445 1457 1458 1448 1447
8 1457 1458 1448 1447 1459 1460 1450 1449
8 1459 1460 1450 1449 1461 1462 1452 1451
8 1461 1462 1452 1451 1463 1464 1454 1453
8 1467 1468 1456 1455 1469 1470 1458 1457
8 1469 1470 1458 1457 1471 1472 1460 1459
8 1471 1472 1460 1459 1473 1474 1462 1461
8 1473 1474 1462 1461 1475 1476 1464 1463
8 1479 1480 1466 1465 1481 1482 1468 1467
8 1481 1482 1468 1467 1483 1484 1470 1469
8 1483 1484 1470 1469 1485 1486 1472 1471
8 1485 1486 1472 1471 1487 1488 1474 1473
8 1487 1488 1474 1473 1489 1490 1476 1475
8 1489 1490 1476 1475 1491 1492 1478 1477
8 1493 1494 1480 1479 1495 1496 1482 1481
8 1495 1496 1482 1481 1497 1498 1484 1483
8 1497 1498 1484 1483 1499 1500 1486 1485
8 1499 1500 1486 1485 1501 1502 1488 1487
8 1501 1502 1488 1487 1503 1504 1490 1489
8 1503 1504 1490 1489 1505 1506 1492 1491
8 1509 1510 1494 1493 1511 1512 1496 1495
8 1511 1512 1496 1495 1513 1514 1498 1497
8 1513 1514 1498 1497 1515 1516 1500 1499
8 1515 1516 1500 1499 1517 1518 1502 1501
8 1517 1518 1502 1501 1519 1520 1504 1503
8 1519 1520 1504 1503 1521 1522 1506 1505
8 1523 1524 1508 1507 1525 1526 1510 1509
8 1525 1526 1510 1509 1527 1528 1512 1511
8 1527 1528 1512 1511 1529 1530 1514 1513
8 1529 1530 1514 1513 1531 1532 1516 1515
8 1531 1532 1516 1515 1533 1534 1518 1517
8 1533 1534 1518 1517 1535 1536 1520 1519
8 1535 1536 1520 1519 1537 1538 1522 1521
8 1539 1540 1524 1523 1541 1542 1526 1525
8 1541 1542 1526 1525 1543 1544 1528 1527
8 1543 1544 1528 1527 1545 1546 1530 1529
8 1545 1546 1530 1529 1547 1548 1532 1531
8 1547 1548 1532 1531 1549 1550 1534 1533
8 1549 1550 1534 1533 1551 1552 1536 1535
8 1551 1552 1536 1535 1553 1554 1538 1537
8 1557 1558 1540 1539 1559 1560 1542 1541
8 1559 1560 1542 1541 1561 1562 1544 1543
8 1561 1562 1544 1543 1563 1564 1546 1545
8 1563 1564 1546 1545 1565 1566 1548 1547
8 1565 1566 1548 1547 1567 1568 1550 1549
8 1567 1568 1550 1549 1569 1570 1552 1551
8 1569 1570 1552 1551 1571 1572 1554 1553
8 1573 1574 1556 1555 1575 1576 1558 1557
8 1575 1576 1558 1557 1577 1578 1560 1559
8 1577 1578 1560 1559 1579 1580 1562 1561
8 1579 1580 1562 1561 1581 1582 1564 1563
8 1581 1582 1564 1563 1583 1584 1566 1565
8 1583 1584 1566 1565 1585 1586 1568 1567
8 1585 1586 1568 1567 1587 1588 1570 1569
8 1587 1588 1570 1569 1589 1590 1572 1571
8 1592 1593 1574 1573 1594 1595 1576 1575
8 1594 1595 1576 1575 1596 1597 1578 1577
8 1596 1597 1578 1577 1598 1599 1580 1579
8 1598 1599 1580 1579 1600 1601 1582 1581
8 1600 1601 1582 1581 1602 1603 1584 1583
8 1602 1603 1584 1583 1604 1605 1586 1585
8 1604 1605 1586 1585 1606 1607 1588 1587
8 1606 1607 1588 1587 1608 1609 1590 1589
8 1611 1612 1593 1592 1613 1614 1595 1594
8 1613 1614 1595 1594 1615 1616 1597 1596
8 1615 1616 1597 1596 1617 1618 1599 1598
8 1617 1618 1599 1598 1619 1620 1601 1600
8 1619 1620 1601 1600 1621 1622 1603 1602
8 1621 1622 1603 1602 1623 1624 1605 1604
8 1623 1624 1605 1604 1625 1626 1607 1606
8 1625 1626 1607 1606 1627 1628 1609 1608
8 1631 1632 3881 3880 1633 1634 3883 3882
8 1633 1634 3883 3882 1635 1636 3885 3884
8 1635 1636 3885 3884 1637 1638 3887 3886
8 1640 1641 1630 1629 1642 1643 1632 1631
8 1642 1643 1632 1631 1644 1645 1634 1633
8 1644 1645 1634 1633 1646 1647 1636 1635
8 1646 1647 1636 1635 1648 1649 1638 1637
8 1653 1654 1641 1640 1655 1656 1643 1642
8 1655 1656 1643 1642 1657 1658 1645 1644
8 1657 1658 1645 1644 1659 1660 1647 1646
8 1659 1660 1647 1646 1661 1662 1649 1648
8 1665 1666 1652 1651 1667 1668 1654 1653
8 1667 1668 1654 1653 1669 1670 1656 1655
8 1669 1670 1656 1655 1671 1672 1658 1657
8 1671 1672 1658 1657 1673 1674 1660 1659
8 1673 1674 1660 1659 1675 1676 1662 1661
8 1675 1676 1662 1661 1677 1678 1664 1663
8 1679 1680 1666 1665 1681 1682 1668 1667
8 1681 1682 1668 1667 1683 1684 1670 1669
8 1683 1684 1670 1669 1685 1686 1672 1671
8 1685 1686 1672 1671 1687 1688 1674 1673
8 1687 1688 1674 1673 1689 1690 1676 1675
8 1689 1690 1676 1675 1691 1692 1678 1677
8 1695 1696 1680 1679 1697 1698 1682 1681
8 1697 1698 1682 1681 1699 1700 1684 1683
8 1699 1700 1684 1683 1701 1702 1686 1685
8 1701 1702 1686 1685 1703 1704 1688 1687
8 1703 1704 1688 1687 1705 1706 1690 1689
8 1705 1706 1690 1689 1707 1708 1692 1691
8 1709 1710 1694 1693 1711 1712 1696 1695
8 1711 1712 1696 1695 1713 1714 1698 1697
8 1713 1714 1698 1697 1715 1716 1700 1699
8 1715 1716 1700 1699 1717 1718 1702 1701
8 1717 1718 1702 1701 1719 1720 1704 1703
8 1719 1720 1704 1703 1721 1722 1706 1705
8 1721 1722 1706 1705 1723 1724 1708 1707
8 1725 1726 1710 1709 1727 1728 1712 1711
8 1727 1728 1712 1711 1729 1730 1714 1713
8 1729 1730 1714 1713 1731 1732 1716 1715
8 1731 1732 1716 1715 1733 1734 1718 1717
8 1733 1734 1718 1717 1735 1736 1720 1719
8 1735 1736 1720 1719 1737 1738 1722 1721
8 1737 1738 1722 1721 1739 1740 1724 1723
8 1743 1744 1726 1725 1745 1746 1728 1727
8 1745 1746 1728 1727 1747 1748 1730 1729
8 1747 1748 1730 1729 1749 1750 1732 1731
8 1749 1750 1732 1731 1751 1752 1734 1733
8 1751 1752 1734 1733 1753 1754 1736 1735
8 1753 1754 1736 1735 1755 1756 1738 1737
8 1755 1756 1738 1737 1757 1758 1740 1739
8 1759 1760 1742 1741 1761 1762 1744 1743
8 1761 1762 1744 1743 1763 1764 1746 1745
8 1763 1764 1746 1745 1765 1766 1748 1747
8 1765 1766 1748 1747 1767 1768 1750 1749
8 1767 1768 1750 1749 1769 1770 1752 1751
8 1769 1770 1752 1751 1771 1772 1754 1753
8 1771 1772 1754 1753 1773 1774 1756 1755
8 1773 1774 1756 1755 1775 1776 1758 1757
8 1777 1778 1760 1759 1779 1780 1762 1761
8 1779 1780 1762 1761 1781 1782 1764 1763
8 1781 1782 1764 1763 1783 1784 1766 1765
8 1783 1784 1766 1765 1785 1786 1768 1767
8 1785 1786 1768 1767 1787 1788 1770 1769
8 1787 1788 1770 1769 1789 1790 1772 1771
8 1789 1790 1772 1771 1791 1792 1774 1773
8 1791 1792 1774 1773 1793 1794 1776 1775
8 1795 1796 1778 1777 1797 1798 1780 1779
8 1797 1798 1780 1779 1799 1800 1782 1781
8 1799 1800 1782 1781 1801 1802 1784 1783
8 1801 1802 1784 1783 1803 1804 1786 1785
8 1803 1804 1786 1785 1805 1806 1788 1787
8 1805 1806 1788 1787 1807 1808 1790 1789
8 1807 1808 1790 1789 1809 1810 1792 1791
8 1809 1810 1792 1791 1811 1812 1794 1793
8 1814 1631 3880 3889 1815 1633 3882 3890
8 1815 1633 3882 3890 1816 1635 3884 3891
8 1816 1635 3884 3891 1817 1637 3886 3892
8 1817 1637 3886 3892 1818 1639 3888 3893
8 1819 1640 1629 1813 1820 1642 1631 1814
8 1820 1642 1631 1814 1821 1644 1633 1815
8 1821 1644 1633 1815 1822 1646 1635 1816
8 1822 1646 1635 1816 1823 1648 1637 1817
8 1823 1648 1637 1817 1824 1650 1639 1818
8 1826 1653 1640 1819 1827 1655 1642 1820
8 1827 1655 1642 1820 1828 1657 1644 1821
8 1828 1657 1644 1821 1829 1659 1646 1822
8 1829 1659 1646 1822 1830 1661 1648 1823
8 1830 1661 1648 1823 1831 1663 1650 1824
8 1832 1665 1651 1825 1833 1667 1653 1826
8 1833 1667 1653 1826 1834 1669 1655 1827
8 1834 1669 1655 1827 1835 1671 1657 1828
8 1835 1671 1657 1828 1836 1673 1659 1829
8 1836 1673 1659 1829 1837 1675 1661 1830
8 1837 1675 1661 1830 1838 1677 1663 1831
8 1839 1679 1665 1832 1840 1681 1667 1833
8 1840 1681 1667 1833 1841 1683 1669 1834
8 1841 1683 1669 1834 1842 1685 1671 1835
8 1842 1685 1671 1835 1843 1687 1673 1836
8 1843 1687 1673 1836 1844 1689 1675 1837
8 1844 1689 1675 1837 1845 1691 1677 1838
8 1847 1695 1679 1839 1848 1697 1681 1840
8 1848 1697 1681 1840 1849 1699 1683 1841
8 1849 1699 1683 1841 1850 1701 1685 1842
8 1850 1701 1685 1842 1851 1703 1687 1843
8 1851 1703 1687 1843 1852 1705 1689 1844
8 1852 1705 1689 1844 1853 1707 1691 1845
8 1854 1709 1693 1846 1855 1711 1695 1847
8 1855 1711 1695 1847 1856 1713 1697 1848
8 1856 1713 1697 1848 1857 1715 1699 1849
8 1857 1715 1699 1849 1858 1717 1701 1850
8 1858 1717 1701 1850 1859 1719 1703 1851
8 1859 1719 1703 1851 1860 1721 1705 1852
8 1860 1721 1705 1852 1861 1723 1707 1853
8 1862 1725 1709 1854 1863 1727 1711 1855
8 1863 1727 1711 1855 1864 1729 1713 1856
8 1864 1729 1713 1856 1865 1731 1715 1857
8 1865 1731 1715 1857 1866 1733 1717 1858
8 1866 1733 1717 1858 1867 1735 1719 1859
8 1867 1735 1719 1859 1868 1737 1721 1860
8 1868 1737 1721 1860 1869 1739 1723 1861
8 1871 1743 1725 1862 1872 1745 1727 1863
8 1872 1745 1727 1863 1873 1747 1729 1864
8 1873 1747 1729 1864 1874 1749 1731 1865
8 1874 1749 1731 1865 1875 1751 1733 1866
8 1875 1751 1733 1866 1876 1753 1735 1867
8 1876 1753 1735 1867 1877 1755 1737 1868
8 1877 1755 1737 1868 1878 1757 1739 1869
8 1879 1759 1741 1870 1880 1761 1743 1871
8 1880 1761 1743 1871 1881 1763 1745 1872
8 1881 1763 1745 1872 1882 1765 1747 1873
8 1882 1765 1747 1873 1883 1767 1749 1874
8 1883 1767 1749 1874 1884 1769 1751 1875
8 1884 1769 1751 1875 1885 1771 1753 1876
8 1885 1771 1753 1876 1886 1773 1755 1877
8 1886 1773 1755 1877 1887 1775 1757 1878
8 1888 1777 1759 1879 1889 1779 1761 1880
8 1889 1779 1761 1880 1890 1781 1763 1881
8 1890 1781 1763 1881 1891 1783 1765 1882
8 1891 1783 1765 1882 1892 1785 1767 1883
8 1892 1785 1767 1883 1893 1787 1769 1884
8 1893 1787 1769 1884 1894 1789 1771 1885
8 1894 1789 1771 1885 1895 1791 1773 1886
8 1895 1791 1773 1886 1896 1793 1775 1887
8 1897 1795 1777 1888 1898 1797 1779 1889
8 1898 1797 1779 1889 1899 1799 1781 1890
8 1899 1799 1781 1890 1900 1801 1783 1891
8 1900 1801 1783 1891 1901 1803 1785 1892
8 1901 1803 1785 1892 1902 1805 1787 1893
8 1902 1805 1787 1893 1903 1807 1789 1894
8 1903 1807 1789 1894 1904 1809 1791 1895
8 1904 1809 1791 1895 1905 1811 1793 1896
8 1907 1814 3889 3894 1908 1815 3890 3895
8 1908 1815 3890 3895 1909 1816 3891 3896
8 1909 1816 3891 3896 1910 1817 3892 3897
8 1910 1817 3892 3897 1911 1818 3893 3898
8 1912 1819 1813 1906 1913 1820 1814 1907
8 1913 1820 1814 1907 1914 1821 1815 1908
8 1914 1821 1815 1908 1915 1822 1816 1909
8 1915 1822 1816 1909 1916 1823 1817 1910
8 1916 1823 1817 1910 1917 1824 1818 1911
8 1919 1826 1819 1912 1920 1827 1820 1913
8 1920 1827 1820 1913 1921 1828 1821 1914
8 1921 1828 1821 1914 1922 1829 1822 1915
8 1922 1829 1822 1915 1923 1830 1823 1916
8 1923 1830 1823 1916 1924 1831 1824 1917
8 1925 1832 1825 1918 1926 1833 1826 1919
8 1926 1833 1826 1919 1927 1834 1827 1920
8 1927 1834 1827 1920 1928 1835 1828 1921
8 1928 1835 1828 1921 1929 1836 1829 1922
8 1929 1836 1829 1922 1930 1837 1830 1923
8 1930 1837 1830 1923 1931 1838 1831 1924
8 1932 1839 1832 1925 1933 1840 1833 1926
8 1933 1840 1833 1926 1934 1841 1834 1927
8 1934 1841 1834 1927 1935 1842 1835 1928
8 1935 1842 1835 1928 1936 1843 1836 1929
8 1936 1843 1836 1929 1937 1844 1837 1930
8 1937 1844 1837 1930 1938 1845 1838 1931
8 1940 1847 1839 1932 1941 1848 1840 1933
8 1941 1848 1840 1933 1942 1849 1841 1934
8 1942 1849 1841 1934 1943 1850 1842 1935
8 1943 1850 1842 1935 1944 1851 1843 1936
8 1944 1851 1843 1936 1945 1852 1844 1937
8 1945 1852 1844 1937 1946 1853 1845 1938
8 1947 1854 1846 1939 1948 1855 1847 1940
8 1948 1855 1847 1940 1949 1856 1848 1941
8 1949 1856 1848 1941 1950 1857 1849 1942
8 1950 1857 1849 1942 1951 1858 1850 1943
8 1951 1858 1850 1943 1952 1859 1851 1944
8 1952 1859 1851 1944 1953 1860 1852 1945
8 1953 1860 1852 1945 1954 1861 1853 1946
8 1955 1862 1854 1947 1956 1863 1855 1948
8 1956 1863 1855 1948 1957 1864 1856 1949
8 1957 1864 1856 1949 1958 1865 1857 1950
8 1958 1865 1857 1950 1959 1866 1858 1951
8 1959 1866 1858 1951 1960 1867 1859 1952
8 1960 1867 1859 1952 1961 1868 1860 1953
8 1961 1868 1860 1953 1962 1869 1861 1954
8 1964 1871 1862 1955 1965 1872 1863 1956
8 1965 1872 1863 1956 1966 1873 1864 1957
8 1966 1873 1864 1957 1967 1874 1865 1958
8 1967 1874 1865 1958 1968 1875 1866 1959
8 1968 1875 1866 1959 1969 1876 1867 1960
8 1969 1876 1867 1960 1970 1877 1868 1961
8 1970 1877 1868 1961 1971 1878 1869 1962
8 1972 1879 1870 1963 1973 1880 1871 1964
8 1973 1880 1871 1964 1974 1881 1872 1965
8 1974 1881 1872 1965 1975 1882 1873 1966
8 1975 1882 1873 1966 1976 1883 1874 1967
8 1976 1883 1874 1967 1977 1884 1875 1968
8 1977 1884 1875 1968 1978 1885 1876 1969
8 1978 1885 1876 1969 1979 1886 1877 1970
8 1979 1886 1877 1970 1980 1887 1878 1971
8 1981 1888 1879 1972 1982 1889 1880 1973
8 1982 1889 1880 1973 1983 1890 1881 1974
8 1983 1890 1881 1974 1984 1891 1882 1975
8 1984 1891 1882 1975 1985 1892 1883 1976
8 1985 1892 1883 1976 1986 1893 1884 1977
8 1986 1893 1884 1977 1987 1894 1885 1978
8 1987 1894 1885 1978 1988 1895 1886 1979
8 1988 1895 1886 1979 1989 1896 1887 1980
8 1990 1897 1888 1981 1991 1898 1889 1982
8 1991 1898 1889 1982 1992 1899 1890 1983
8 1992 1899 1890 1983 1993 1900 1891 1984
8 1993 1900 1891 1984 1994 1901 1892 1985
8 1994 1901 1892 1985 1995 1902 1893 1986
8 1995 1902 1893 1986 1996 1903 1894 1987
8 1996 1903 1894 1987 1997 1904 1895 1988
8 1997 1904 1895 1988 1998 1905 1896 1989
8 2000 1907 3894 3899 2001 1908 3895 3900
8 2001 1908 3895 3900 2002 1909 3896 3901
8 2002 1909 3896 3901 2003 1910 3897 3902
8 2003 1910 3897 3902 2004 1911 3898 3903
8 2005 1912 1906 1999 2006 1913 1907 2000
8 2006 1913 1907 2000 2007 1914 1908 2001
8 2007 1914 1908 2001 2008 1915 1909 2002
8 2008 1915 1909 2002 2009 1916 1910 2003
8 2009 1916 1910 2003 2010 1917 1911 2004
8 2012 1919 1912 2005 2013 1920 1913 2006
8 2013 1920 1913 2006 2014 1921 1914 2007
8 2014 1921 1914 2007 2015 1922 1915 2008
8 2015 1922 1915 2008 2016 1923 1916 2009
8 2016 1923 1916 2009 2017 1924 1917 2010
8 2018 1925 1918 2011 2019 1926 1919 2012
8 2019 1926 1919 2012 2020 1927 1920 2013
8 2020 1927 1920 2013 2021 1928 1921 2014
8 2021 1928 1921 2014 2022 1929 1922 2015
8 2022 1929 1922 2015 2023 1930 1923 2016
8 2023 1930 1923 2016 2024 1931 1924 2017
8 2025 1932 1925 2018 2026 1933 1926 2019
8 2026 1933 1926 2019 2027 1934 1927 2020
8 2027 1934 1927 2020 2028 1935 1928 2021
8 2028 1935 1928 2021 2029 1936 1929 2022
8 2029 1936 1929 2022 2030 1937 1930 2023
8 2030 1937 1930 2023 2031 1938 1931 2024
8 2033 1940 1932 2025 2034 1941 1933 2026
8 2034 1941 1933 2026 2035 1942 1934 2027
8 2035 1942 1934 2027 2036 1943 1935 2028
8 2036 1943 1935 2028 2037 1944 1936 2029
8 2037 1944 1936 2029 2038 1945 1937 2030
8 2038 1945 1937 2030 2039 1946 1938 2031
8 2040 1947 1939 2032 2041 1948 1940 2033
8 2041 1948 1940 2033 2042 1949 1941 2034
8 2042 1949 1941 2034 2043 1950 1942 2035
8 2043 1950 1942 2035 2044 1951 1943 2036
8 2044 1951 1943 2036 2045 1952 1944 2037
8 2045 1952 1944 2037 2046 1953 1945 2038
8 2046 1953 1945 2038 2047 1954 1946 2039
8 2048 1955 1947 2040 2049 1956 1948 2041
8 2049 1956 1948 2041 2050 1957 1949 2042
8 2050 1957 1949 2042 2051 1958 1950 2043
8 2051 1958 1950 2043 2052 1959 1951 2044
8 2052 1959 1951 2044 2053 1960 1952 2045
8 2053 1960 1952 2045 2054 1961 1953 2046
8 2054 1961 1953 2046 2055 1962 1954 2047
8 2057 1964 1955 2048 2058 1965 1956 2049
8 2058 1965 1956 2049 2059 1966 1957 2050
8 2059 1966 1957 2050 2060 1967 1958 2051
8 2060 1967 1958 2051 2061 1968 1959 2052
8 2061 1968 1959 2052 2062 1969 1960 2053
8 2062 1969 1960 2053 2063 1970 1961 2054
8 2063 1970 1961 2054 2064 1971 1962 2055
8 2065 1972 1963 2056 2066 1973 1964 2057
8 2066 1973 1964 2057 2067 1974 1965 2058
8 2067 1974 1965 2058 2068 1975 1966 2059
8 2068 1975 1966 2059 2069 1976 1967 2060
8 2069 1976 1967 2060 2070 1977 1968 2061
8 2070 1977 1968 2061 2071 1978 1969 2062
8 2071 1978 1969 2062 2072 1979 1970 2063
8 2072 1979 1970 2063 2073 1980 1971 2064
8 2074 1981 1972 2065 2075 1982 1973 2066
8 2075 1982 1973 2066 2076 1983 1974 2067
8 2076 1983 1974 2067 2077 1984 1975 2068
8 2077 1984 1975 2068 2078 1985 1976 2069
8 2078 1985 1976 2069 2079 1986 1977 2070
8 2079 1986 1977 2070 2080 1987 1978 2071
8 2080 1987 1978 2071 2081 1988 1979 2072
8 2081 1988 1979 2072 2082 1989 1980 2073
8 2083 1990 1981 2074 2084 1991 1982 2075
8 2084 1991 1982 2075 2085 1992 1983 2076
8 2085 1992 1983 2076 2086 1993 1984 2077
8 2086 1993 1984 2077 2087 1994 1985 2078
8 2087 1994 1985 2078 2088 1995 1986 2079
8 2088 1995 1986 2079 2089 1996 1987 2080
8 2089 1996 1987 2080 2090 1997 1988 2081
8 2090 1997 1988 2081 2091 1998 1989 2082
8 2093 2000 3899 3904 2094 2001 3900 3905
8 2094 2001 3900 3905 2095 2002 3901 3906
8 2095 2002 3901 3906 2096 2003 3902 3907
8 2096 2003 3902 3907 2097 2004 3903 3908
8 2098 2005 1999 2092 2099 2006 2000 2093
8 2099 2006 2000 2093 2100 2007 2001 2094
8 2100 2007 2001 2094 2101 2008 2002 2095
8 2101 2008 2002 2095 2102 2009 2003 2096
8 2102 2009 2003 2096 2103 2010 2004 2097
8 2105 2012 2005 2098 2106 2013 2006 2099
8 2106 2013 2006 2099 2107 2014 2007 2100
8 2107 2014 2007 2100 2108 2015 2008 2101
8 2108 2015 2008 2101 2109 2016 2009 2102
8 2109 2016 2009 2102 2110 2017 2010 2103
8 2111 2018 2011 2104 2112 2019 2012 2105
8 2112 2019 2012 2105 2113 2020 2013 2106
8 2113 2020 2013 2106 2114 2021 2014 2107
8 2114 2021 2014 2107 2115 2022 2015 2108
8 2115 2022 2015 2108 2116 2023 2016 2109
8 2116 2023 2016 2109 2117 2024 2017 2110
8 2118 2025 2018 2111 2119 2026 2019 2112
8 2119 2026 2019 2112 2120 2027 2020 2113
8 2120 2027 2020 2113 2121 2028 2021 2114
8 2121 2028 2021 2114 2122 2029 2022 2115
8 2122 2029 2022 2115 2123 2030 2023 2116
8 2123 2030 2023 2116 2124 2031 2024 2117
8 2126 2033 2025 2118 2127 2034 2026 2119
8 2127 2034 2026 2119 2128 2035 2027 2120
8 2128 2035 2027 2120 2129 2036 2028 2121
8 2129 2036 2028 2121 2130 2037 2029 2122
8 2130 2037 2029 2122 2131 2038 2030 2123
8 2131 2038 2030 2123 2132 2039 2031 2124
8 2133 2040 2032 2125 2134 2041 2033 2126
8 2134 2041 2033 2126 2135 2042 2034 2127
8 2135 2042 2034 2127 2136 2043 2035 2128
8 2136 2043 2035 2128 2137 2044 2036 2129
8 2137 2044 2036 2129 2138 2045 2037 2130
8 2138 2045 2037 2130 2139 2046 2038 2131
8 2139 2046 2038 2131 2140 2047 2039 2132
8 2141 2048 2040 2133 2142 2049 2041 2134
8 2142 2049 2041 2134 2143 2050 2042 2135
8 2143 2050 2042 2135 2144 2051 2043 2136
8 2144 2051 2043 2136 2145 2052 2044 2137
8 2145 2052 2044 2137 2146 2053 2045 2138
8 2146 2053 2045 2138 2147 2054 2046 2139
8 2147 2054 2046 2139 2148 2055 2047 2140
8 2150 2057 2048 2141 2151 2058 2049 2142
8 2151 2058 2049 2142 2152 2059 2050 2143
8 2152 2059 2050 2143 2153 2060 2051 2144
8 2153 2060 2051 2144 2154 2061 2052 2145
8 2154 2061 2052 2145 2155 2062 2053 2146
8 2155 2062 2053 2146 2156 2063 2054 2147
8 2156 2063 2054 2147 2157 2064 2055 2148
8 2158 2065 2056 2149 2159 2066 2057 2150
8 2159 2066 2057 2150 2160 2067 2058 2151
8 2160 2067 2058 2151 2161 2068 2059 2152
8 2161 2068 2059 2152 2162 2069 2060 2153
8 2162 2069 2060 2153 2163 2070 2061 2154
8 2163 2070 2061 2154 2164 2071 2062 2155
8 2164 2071 2062 2155 2165 2072 2063 2156
8 2165 2072 2063 2156 2166 2073 2064 2157
8 2167 2074 2065 2158 2168 2075 2066 2159
8 2168 2075 2066 2159 2169 2076 2067 2160
8 2169 2076 2067 2160 2170 2077 2068 2161
8 2170 2077 2068 2161 2171 2078 2069 2162
8 2171 2078 2069 2162 2172 2079 2070 2163
8 2172 2079 2070 2163 2173 2080 2071 2164
8 2173 2080 2071 2164 2174 2081 2072 2165
8 2174 2081 2072 2165 2175 2082 2073 2166
8 2176 2083 2074 2167 2177 2084 2075 2168
8 2177 2084 2075 2168 2178 2085 2076 2169
8 2178 2085 2076 2169 2179 2086 2077 2170
8 2179 2086 2077 2170 2180 2087 2078 2171
8 2180 2087 2078 2171 2181 2088 2079 2172
8 2181 2088 2079 2172 2182 2089 2080 2173
8 2182 2089 2080 2173 2183 2090 2081 2174
8 2183 2090 2081 2174 2184 2091 2082 2175
8 2186 2093 3904 3909 2187 2094 3905 3910
8 2187 2094 3905 3910 2188 2095 3906 3911
8 2188 2095 3906 3911 2189 2096 3907 3912
8 2189 2096 3907 3912 2190 2097 3908 3913
8 2191 2098 2092 2185 2192 2099 2093 2186
8 2192 2099 2093 2186 2193 2100 2094 2187
8 2193 2100 2094 2187 2194 2101 2095 2188
8 2194 2101 2095 2188 2195 2102 2096 2189
8 2195 2102 2096 2189 2196 2103 2097 2190
8 2198 2105 2098 2191 2199 2106 2099 2192
8 2199 2106 2099 2192 2200 2107 2100 2193
8 2200 2107 2100 2193 2201 2108 2101 2194
8 2201 2108 2101 2194 2202 2109 2102 2195
8 2202 2109 2102 2195 2203 2110 2103 2196
8 2204 2111 2104 2197 2205 2112 2105 2198
8 2205 2112 2105 2198 2206 2113 2106 2199
8 2206 2113 2106 2199 2207 2114 2107 2200
8 2207 2114 2107 2200 2208 2115 2108 2201
8 2208 2115 2108 2201 2209 2116 2109 2202
8 2209 2116 2109 2202 2210 2117 2110 2203
8 2211 2118 2111 2204 2212 2119 2112 2205
8 2212 2119 2112 2205 2213 2120 2113 2206
8 2213 2120 2113 2206 2214 2121 2114 2207
8 2214 2121 2114 2207 2215 2122 2115 2208
8 2215 2122 2115 2208 2216 2123 2116 2209
8 2216 2123 2116 2209 2217 2124 2117 2210
8 2219 2126 2118 2211 2220 2127 2119 2212
8 2220 2127 2119 2212 2221 2128 2120 2213
8 2221 2128 2120 2213 2222 2129 2121 2214
8 2222 2129 2121 2214 2223 2130 2122 2215
8 2223 2130 2122 2215 2224 2131 2123 2216
8 2224 2131 2123 2216 2225 2132 2124 2217
8 2226 2133 2125 2218 2227 2134 2126 2219
8 2227 2134 2126 2219 2228 2135 2127 2220
8 2228 2135 2127 2220 2229 2136 2128 2221
8 2229 2136 2128 2221 2230 2137 2129 2222
8 2230 2137 2129 2222 2231 2138 2130 2223
8 2231 2138 2130 2223 2232 2139 2131 2224
8 2232 2139 2131 2224 2233 2140 2132 2225
8 2234 2141 2133 2226 2235 2142 2134 2227
8 2235 2142 2134 2227 2236 2143 2135 2228
8 2236 2143 2135 2228 2237 2144 2136 2229
8 2237 2144 2136 2229 2238 2145 2137 2230
8 2238 2145 2137 2230 2239 2146 2138 2231
8 2239 2146 2138 2231 2240 2147 2139 2232
8 2240 2147 2139 2232 2241 2148 2140 2233
8 2243 2150 2141 2234 2244 2151 2142 2235
8 2244 2151 2142 2235 2245 2152 2143 2236
8 2245 2152 2143 2236 2246 2153 2144 2237
8 2246 2153 2144 2237 2247 2154 2145 2238
8 2247 2154 2145 2238 2248 2155 2146 2239
8 2248 2155 2146 2239 2249 2156 2147 2240
8 2249 2156 2147 2240 2250 2157 2148 2241
8 2251 2158 2149 2242 2252 2159 2150 2243
8 2252 2159 2150 2243 2253 2160 2151 2244
8 2253 2160 2151 2244 2254 2161 2152 2245
8 2254 2161 2152 2245 2255 2162 2153 2246
8 2255 2162 2153 2246 2256 2163 2154 2247
8 2256 2163 2154 2247 2257 2164 2155 2248
8 2257 2164 2155 2248 2258 2165 2156 2249
8 2258 2165 2156 2249 2259 2166 2157 2250
8 2260 2167 2158 2251 2261 2168 2159 2252
8 2261 2168 2159 2252 2262 2169 2160 2253
8 2262 2169 2160 2253 2263 2170 2161 2254
8 2263 2170 2161 2254 2264 2171 2162 2255
8 2264 2171 2162 2255 2265 2172 2163 2256
8 2265 2172 2163 2256 2266 2173 2164 2257
8 2266 2173 2164 2257 2267 2174 2165 2258
8 2267 2174 2165 2258 2268 2175 2166 2259
8 2269 2176 2167 2260 2270 2177 2168 2261
8 2270 2177 2168 2261 2271 2178 2169 2262
8 2271 2178 2169 2262 2272 2179 2170 2263
8 2272 2179 2170 2263 2273 2180 2171 2264
8 2273 2180 2171 2264 2274 2181 2172 2265
8 2274 2181 2172 2265 2275 2182 2173 2266
8 2275 2182 2173 2266 2276 2183 2174 2267
8 2276 2183 2174 2267 2277 2184 2175 2268
8 2279 2186 3909 3914 2280 2187 3910 3915
8 2280 2187 3910 3915 2281 2188 3911 3916
8 2281 2188 3911 3916 2282 2189 3912 3917
8 2282 2189 3912 3917 2283 2190 3913 3918
8 2284 2191 2185 2278 2285 2192 2186 2279
8 2285 2192 2186 2279 2286 2193 2187 2280
8 2286 2193 2187 2280 2287 2194 2188 2281
8 2287 2194 2188 2281 2288 2195 2189 2282
8 2288 2195 2189 2282 2289 2196 2190 2283
8 2291 2198 2191 2284 2292 2199 2192 2285
8 2292 2199 2192 2285 2293 2200 2193 2286
8 2293 2200 2193 2286 2294 2201 2194 2287
8 2294 2201 2194 2287 2295 2202 2195 2288
8 2295 2202 2195 2288 2296 2203 2196 2289
8 2297 2204 2197 2290 2298 2205 2198 2291
8 2298 2205 2198 2291 2299 2206 2199 2292
8 2299 2206 2199 2292 2300 2207 2200 2293
8 2300 2207 2200 2293 2301 2208 2201 2294
8 2301 2208 2201 2294 2302 2209 2202 2295
8 2302 2209 2202 2295 2303 2210 2203 2296
8 2304 2211 2204 2297 2305 2212 2205 2298
8 2305 2212 2205 2298 2306 2213 2206 2299
8 2306 2213 2206 2299 2307 2214 2207 2300
8 2307 2214 2207 2300 2308 2215 2208 2301
8 2308 2215 2208 2301 2309 2216 2209 2302
8 2309 2216 2209 2302 2310 2217 2210 2303
8 2312 2219 2211 2304 2313 2220 2212 2305
8 2313 2220 2212 2305 2314 2221 2213 2306
8 2314 2221 2213 2306 2315 2222 2214 2307
8 2315 2222 2214 2307 2316 2223 2215 2308
8 2316 2223 2215 2308 2317 2224 2216 2309
8 2317 2224 2216 2309 2318 2225 2217 2310
8 2319 2226 2218 2311 2320 2227 2219 2312
8 2320 2227 2219 2312 2321 2228 2220 2313
8 2321 2228 2220 2313 2322 2229 2221 2314
8 2322 2229 2221 2314 2323 2230 2222 2315
8 2323 2230 2222 2315 2324 2231 2223 2316
8 2324 2231 2223 2316 2325 2232 2224 2317
8 2325 2232 2224 2317 2326 2233 2225 2318
8 2327 2234 2226 2319 2328 2235 2227 2320
8 2328 2235 2227 2320 2329 2236 2228 2321
8 2329 2236 2228 2321 2330 2237 2229 2322
8 2330 2237 2229 2322 2331 2238 2230 2323
8 2331 2238 2230 2323 2332 2239 2231 2324
8 2332 2239 2231 2324 2333 2240 2232 2325
8 2333 2240 2232 2325 2334 2241 2233 2326
8 2336 2243 2234 2327 2337 2244 2235 2328
8 2337 2244 2235 2328 2338 2245 2236 2329
8 2338 2245 2236 2329 2339 2246 2237 2330
8 2339 2246 2237 2330 2340 2247 2238 2331
8 2340 2247 2238 2331 2341 2248 2239 2332
8 2341 2248 2239 2332 2342 2249 2240 2333
8 2342 2249 2240 2333 2343 2250 2241 2334
8 2344 2251 2242 2335 2345 2252 2243 2336
8 2345 2252 2243 2336 2346 2253 2244 2337
8 2346 2253 2244 2337 2347 2254 2245 2338
8 2347 2254 2245 2338 2348 2255 2246 2339
8 2348 2255 2246 2339 2349 2256 2247 2340
8 2349 2256 2247 2340 2350 2257 2248 2341
8 2350 2257 2248 2341 2351 2258 2249 2342
8 2351 2258 2249 2342 2352 2259 2250 2343
8 2353 2260 2251 2344 2354 2261 2252 2345
8 2354 2261 2252 2345 2355 2262 2253 2346
8 2355 2262 2253 2346 2356 2263 2254 2347
8 2356 2263 2254 2347 2357 2264 2255 2348
8 2357 2264 2255 2348 2358 2265 2256 2349
8 2358 2265 2256 2349 2359 2266 2257 2350
8 2359 2266 2257 2350 2360 2267 2258 2351
8 2360 2267 2258 2351 2361 2268 2259 2352
8 2362 2269 2260 2353 2363 2270 2261 2354
8 2363 2270 2261 2354 2364 2271 2262 2355
8 2364 2271 2262 2355 2365 2272 2263 2356
8 2365 2272 2263 2356 2366 2273 2264 2357
8 2366 2273 2264 2357 2367 2274 2265 2358
8 2367 2274 2265 2358 2368 2275 2266 2359
8 2368 2275 2266 2359 2369 2276 2267 2360
8 2369 2276 2267 2360 2370 2277 2268 2361
8 2372 2279 3914 3919 2373 2280 3915 3920
8 2373 2280 3915 3920 2374 2281 3916 3921
8 2374 2281 3916 3921 2375 2282 3917 3922
8 2375 2282 3917 3922 2376 2283 3918 3923
8 2377 2284 2278 2371 2378 2285 2279 2372
8 2378 2285 2279 2372 2379 2286 2280 2373
8 2379 2286 2280 2373 2380 2287 2281 2374
8 2380 2287 2281 2374 2381 2288 2282 2375
8 2381 2288 2282 2375 2382 2289 2283 2376
8 2384 2291 2284 2377 2385 2292 2285 2378
8 2385 2292 2285 2378 2386 2293 2286 2379
8 2386 2293 2286 2379 2387 2294 2287 2380
8 2387 2294 2287 2380 2388 2295 2288 2381
8 2388 2295 2288 2381 2389 2296 2289 2382
8 2390 2297 2290 2383 2391 2298 2291 2384
8 2391 2298 2291 2384 2392 2299 2292 2385
8 2392 2299 2292 2385 2393 2300 2293 2386
8 2393 2300 2293 2386 2394 2301 2294 2387
8 2394 2301 2294 2387 2395 2302 2295 2388
8 2395 2302 2295 2388 2396 2303 2296 2389
8 2397 2304 2297 2390 2398 2305 2298 2391
8 2398 2305 2298 2391 2399 2306 2299 2392
8 2399 2306 2299 2392 2400 2307 2300 2393
8 2400 2307 2300 2393 2401 2308 2301 2394
8 2401 2308 2301 2394 2402 2309 2302 2395
8 2402 2309 2302 2395 2403 2310 2303 2396
8 2405 2312 2304 2397 2406 2313 2305 2398
8 2406 2313 2305 2398 2407 2314 2306 2399
8 2407 2314 2306 2399 2408 2315 2307 2400
8 2408 2315 2307 2400 2409 2316 2308 2401
8 2409 2316 2308 2401 2410 2317 2309 2402
8 2410 2317 2309 2402 2411 2318 2310 2403
8 2412 2319 2311 2404 2413 2320 2312 2405
8 2413 2320 2312 2405 2414 2321 2313 2406
8 2414 2321 2313 2406 2415 2322 2314 2407
8 2415 2322 2314 2407 2416 2323 2315 2408
8 2416 2323 2315 2408 2417 2324 2316 2409
8 2417 2324 2316 2409 2418 2325 2317 2410
8 2418 2325 2317 2410 2419 2326 2318 2411
8 2420 2327 2319 2412 2421 2328 2320 2413
8 2421 2328 2320 2413 2422 2329 2321 2414
8 2422 2329 2321 2414 2423 2330 2322 2415
8 2423 2330 2322 2415 2424 2331 2323 2416
8 2424 2331 2323 2416 2425 2332 2324 2417
8 2425 2332 2324 2417 2426 2333 2325 2418
8 2426 2333 2325 2418 2427 2334 2326 2419
8 2429 2336 2327 2420 2430 2337 2328 2421
8 2430 2337 2328 2421 2431 2338 2329 2422
8 2431 2338 2329 2422 2432 2339 2330 2423
8 2432 2339 2330 2423 2433 2340 2331 2424
8 2433 2340 2331 2424 2434 2341 2332 2425
8 2434 2341 2332 2425 2435 2342 2333 2426
8 2435 2342 2333 2426 2436 2343 2334 2427
8 2437 2344 2335 2428 2438 2345 2336 2429
8 2438 2345 2336 2429 2439 2346 2337 2430
8 2439 2346 2337 2430 2440 2347 2338 2431
8 2440 2347 2338 2431 2441 2348 2339 2432
8 2441 2348 2339 2432 2442 2349 2340 2433
8 2442 2349 2340 2433 2443 2350 2341 2434
8 2443 2350 2341 2434 2444 2351 2342 2435
8 2444 2351 2342 2435 2445 2352 2343 2436
8 2446 2353 2344 2437 2447 2354 2345 2438
8 2447 2354 2345 2438 2448 2355 2346 2439
8 2448 2355 2346 2439 2449 2356 2347 2440
8 2449 2356 2347 2440 2450 2357 2348 2441
8 2450 2357 2348 2441 2451 2358 2349 2442
8 2451 2358 2349 2442 2452 2359 2350 2443
8 2452 2359 2350 2443 2453 2360 2351 2444
8 2453 2360 2351 2444 2454 2361 2352 2445
8 2455 2362 2353 2446 2456 2363 2354 2447
8 2456 2363 2354 2447 2457 2364 2355 2448
8 2457 2364 2355 2448 2458 2365 2356 2449
8 2458 2365 2356 2449 2459 2366 2357 2450
8 2459 2366 2357 2450 2460 2367 2358 2451
8 2460 2367 2358 2451 2461 2368 2359 2452
8 2461 2368 2359 2452 2462 2369 2360 2453
8 2462 2369 2360 2453 2463 2370 2361 2454
8 2465 2372 3919 3924 2466 2373 3920 3925
8 2466 2373 3920 3925 2467 2374 3921 3926
8 2467 2374 3921 3926 2468 2375 3922 3927
8 2468 2375 3922 3927 2469 2376 3923 3928
8 2470 2377 2371 2464 2471 2378 2372 2465
8 2471 2378 2372 2465 2472 2379 2373 2466
8 2472 2379 2373 2466 2473 2380 2374 2467
8 2473 2380 2374 2467 2474 2381 2375 2468
8 2474 2381 2375 2468 2475 2382 2376 2469
8 2477 2384 2377 2470 2478 2385 2378 2471
8 2478 2385 2378 2471 2479 2386 2379 2472
8 2479 2386 2379 2472 2480 2387 2380 2473
8 2480 2387 2380 2473 2481 2388 2381 2474
8 2481 2388 2381 2474 2482 2389 2382 2475
8 2483 2390 2383 2476 2484 2391 2384 2477
8 2484 2391 2384 2477 2485 2392 2385 2478
8 2485 2392 2385 2478 2486 2393 2386 2479
8 2486 2393 2386 2479 2487 2394 2387 2480
8 2487 2394 2387 2480 2488 2395 2388 2481
8 2488 2395 2388 2481 2489 2396 2389 2482
8 2490 2397 2390 2483 2491 2398 2391 2484
8 2491 2398 2391 2484 2492 2399 2392 2485
8 2492 2399 2392 2485 2493 2400 2393 2486
8 2493 2400 2393 2486 2494 2401 2394 2487
8 2494 2401 2394 2487 2495 2402 2395 2488
8 2495 2402 2395 2488 2496 2403 2396 2489
8 2498 2405 2397 2490 2499 2406 2398 2491
8 2499 2406 2398 2491 2500 2407 2399 2492
8 2500 2407 2399 2492 2501 2408 2400 2493
8 2501 2408 2400 2493 2502 2409 2401 2494
8 2502 2409 2401 2494 2503 2410 2402 2495
8 2503 2410 2402 2495 2504 2411 2403 2496
8 2505 2412 2404 2497 2506 2413 2405 2498
8 2506 2413 2405 2498 2507 2414 2406 2499
8 2507 2414 2406 2499 2508 2415 2407 2500
8 2508 2415 2407 2500 2509 2416 2408 2501
8 2509 2416 2408 2501 2510 2417 2409 2502
8 2510 2417 2409 2502 2511 2418 2410 2503
8 2511 2418 2410 2503 2512 2419 2411 2504
8 2513 2420 2412 2505 2514 2421 2413 2506
8 2514 2421 2413 2506 2515 2422 2414 2507
8 2515 2422 2414 2507 2516 2423 2415 2508
8 2516 2423 2415 2508 2517 2424 2416 2509
8 2517 2424 2416 2509 2518 2425 2417 2510
8 2518 2425 2417 2510 2519 2426 2418 2511
8 2519 2426 2418 2511 2520 2427 2419 2512
8 2522 2429 2420 2513 2523 2430 2421 2514
8 2523 2430 2421 2514 2524 2431 2422 2515
8 2524 2431 2422 2515 2525 2432 2423 2516
8 2525 2432 2423 2516 2526 2433 2424 2517
8 2526 2433 2424 2517 2527 2434 2425 2518
8 2527 2434 2425 2518 2528 2435 2426 2519
8 2528 2435 2426 2519 2529 2436 2427 2520
8 2530 2437 2428 2521 2531 2438 2429 2522
8 2531 2438 2429 2522 2532 2439 2430 2523
8 2532 2439 2430 2523 2533 2440 2431 2524
8 2533 2440 2431 2524 2534 2441 2432 2525
8 2534 2441 2432 2525 2535 2442 2433 2526
8 2535 2442 2433 2526 2536 2443 2434 2527
8 2536 2443 2434 2527 2537 2444 2435 2528
8 2537 2444 2435 2528 2538 2445 2436 2529
8 2539 2446 2437 2530 2540 2447 2438 2531
8 2540 2447 2438 2531 2541 2448 2439 2532
8 2541 2448 2439 2532 2542 2449 2440 2533
8 2542 2449 2440 2533 2543 2450 2441 2534
8 2543 2450 2441 2534 2544 2451 2442 2535
8 2544 2451 2442 2535 2545 2452 2443 2536
8 2545 2452 2443 2536 2546 2453 2444 2537
8 2546 2453 2444 2537 2547 2454 2445 2538
8 2548 2455 2446 2539 2549 2456 2447 2540
8 2549 2456 2447 2540 2550 2457 2448 2541
8 2550 2457 2448 2541 2551 2458 2449 2542
8 2551 2458 2449 2542 2552 2459 2450 2543
8 2552 2459 2450 2543 2553 2460 2451 2544
8 2553 2460 2451 2544 2554 2461 2452 2545
8 2554 2461 2452 2545 2555 2462 2453 2546
8 2555 2462 2453 2546 2556 2463 2454 2547
8 2558 2465 3924 3929 2559 2466 3925 3930
8 2559 2466 3925 3930 2560 2467 3926 3931
8 2560 2467 3926 3931 2561 2468 3927 3932
8 2561 2468 3927 3932 2562 2469 3928 3933
8 2563 2470 2464 2557 2564 2471 2465 2558
8 2564 2471 2465 2558 2565 2472 2466 2559
8 2565 2472 2466 2559 2566 2473 2467 2560
8 2566 2473 2467 2560 2567 2474 2468 2561
8 2567 2474 2468 2561 2568 2475 2469 2562
8 2570 2477 2470 2563 2571 2478 2471 2564
8 2571 2478 2471 2564 2572 2479 2472 2565
8 2572 2479 2472 2565 2573 2480 2473 2566
8 2573 2480 2473 2566 2574 2481 2474 2567
8 2574 2481 2474 2567 2575 2482 2475 2568
8 2576 2483 2476 2569 2577 2484 2477 2570
8 2577 2484 2477 2570 2578 2485 2478 2571
8 2578 2485 2478 2571 2579 2486 2479 2572
8 2579 2486 2479 2572 2580 2487 2480 2573
8 2580 2487 2480 2573 2581 2488 2481 2574
8 2581 2488 2481 2574 2582 2489 2482 2575
8 2583 2490 2483 2576 2584 2491 2484 2577
8 2584 2491 2484 2577 2585 2492 2485 2578
8 2585 2492 2485 2578 2586 2493 2486 2579
8 2586 2493 2486 2579 2587 2494 2487 2580
8 2587 2494 2487 2580 2588 2495 2488 2581
8 2588 2495 2488 2581 2589 2496 2489 2582
8 2591 2498 2490 2583 2592 2499 2491 2584
8 2592 2499 2491 2584 2593 2500 2492 2585
8 2593 2500 2492 2585 2594 2501 2493 2586
8 2594 2501 2493 2586 2595 2502 2494 2587
8 2595 2502 2494 2587 2596 2503 2495 2588
8 2596 2503 2495 2588 2597 2504 2496 2589
8 2598 2505 2497 2590 2599 2506 2498 2591
8 2599 2506 2498 2591 2600 2507 2499 2592
8 2600 2507 2499 2592 2601 2508 2500 2593
8 2601 2508 2500 2593 2602 2509 2501 2594
8 2602 2509 2501 2594 2603 2510 2502 2595
8 2603 2510 2502 2595 2604 2511 2503 2596
8 2604 2511 2503 2596 2605 2512 2504 2597
8 2606 2513 2505 2598 2607 2514 2506 2599
8 2607 2514 2506 2599 2608 2515 2507 2600
8 2608 2515 2507 2600 2609 2516 2508 2601
8 2609 2516 2508 2601 2610 2517 2509 2602
8 2610 2517 2509 2602 2611 2518 2510 2603
8 2611 2518 2510 2603 2612 2519 2511 2604
8 2612 2519 2511 2604 2613 2520 2512 2605
8 2615 2522 2513 2606 2616 2523 2514 2607
8 2616 2523 2514 2607 2617 2524 2515 2608
8 2617 2524 2515 2608 2618 2525 2516 2609
8 2618 2525 2516 2609 2619 2526 2517 2610
8 2619 2526 2517 2610 2620 2527 2518 2611
8 2620 2527 2518 2611 2621 2528 2519 2612
8 2621 2528 2519 2612 2622 2529 2520 2613
8 2623 2530 2521 2614 2624 2531 2522 2615
8 2624 2531 2522 2615 2625 2532 2523 2616
8 2625 2532 2523 2616 2626 2533 2524 2617
8 2626 2533 2524 2617 2627 2534 2525 2618
8 2627 2534 2525 2618 2628 2535 2526 2619
8 2628 2535 2526 2619 2629 2536 2527 2620
8 2629 2536 2527 2620 2630 2537 2528 2621
8 2630 2537 2528 2621 2631 2538 2529 2622
8 2632 2539 2530 2623 2633 2540 2531 2624
8 2633 2540 2531 2624 2634 2541 2532 2625
8 2634 2541 2532 2625 2635 2542 2533 2626
8 2635 2542 2533 2626 2636 2543 2534 2627
8 2636 2543 2534 2627 2637 2544 2535 2628
8 2637 2544 2535 2628 2638 2545 2536 2629
8 2638 2545 2536 2629 2639 2546 2537 2630
8 2639 2546 2537 2630 2640 2547 2538 2631
8 2641 2548 2539 2632 2642 2549 2540 2633
8 2642 2549 2540 2633 2643 2550 2541 2634
8 2643 2550 2541 2634 2644 2551 2542 2635
8 2644 2551 2542 2635 2645 2552 2543 2636
8 2645 2552 2543 2636 2646 2553 2544 2637
8 2646 2553 2544 2637 2647 2554 2545 2638
8 2647 2554 2545 2638 2648 2555 2546 2639
8 2648 2555 2546 2639 2649 2556 2547 2640
8 2651 2558 3929 3934 2652 2559 3930 3935
8 2652 2559 3930 3935 2653 2560 3931 3936
8 2653 2560 3931 3936 2654 2561 3932 3937
8 2654 2561 3932 3937 2655 2562 3933 3938
8 2656 2563 2557 2650 2657 2564 2558 2651
8 2657 2564 2558 2651 2658 2565 2559 2652
8 2658 2565 2559 2652 2659 2566 2560 2653
8 2659 2566 2560 2653 2660 2567 2561 2654
8 2660 2567 2561 2654 2661 2568 2562 2655
8 2663 2570 2563 2656 2664 2571 2564 2657
8 2664 2571 2564 2657 2665 2572 2565 2658
8 2665 2572 2565 2658 2666 2573 2566 2659
8 2666 2573 2566 2659 2667 2574 2567 2660
8 2667 2574 2567 2660 2668 2575 2568 2661
8 2669 2576 2569 2662 2670 2577 2570 2663
8 2670 2577 2570 2663 2671 2578 2571 2664
8 2671 2578 2571 2664 2672 2579 2572 2665
8 2672 2579 2572 2665 2673 2580 2573 2666
8 2673 2580 2573 2666 2674 2581 2574 2667
8 2674 2581 2574 2667 2675 2582 2575 2668
8 2676 2583 2576 2669 2677 2584 2577 2670
8 2677 2584 2577 2670 2678 2585 2578 2671
8 2678 2585 2578 2671 2679 2586 2579 2672
8 2679 2586 2579 2672 2680 2587 2580 2673
8 2680 2587 2580 2673 2681 2588 2581 2674
8 2681 2588 2581 2674 2682 2589 2582 2675
8 2684 2591 2583 2676 2685 2592 2584 2677
8 2685 2592 2584 2677 2686 2593 2585 2678
8 2686 2593 2585 2678 2687 2594 2586 2679
8 2687 2594 2586 2679 2688 2595 2587 2680
8 2688 2595 2587 2680 2689 2596 2588 2681
8 2689 2596 2588 2681 2690 2597 2589 2682
8 2691 2598 2590 2683 2692 2599 2591 2684
8 2692 2599 2591 2684 2693 2600 2592 2685
8 2693 2600 2592 2685 2694 2601 2593 2686
8 2694 2601 2593 2686 2695 2602 2594 2687
8 2695 2602 2594 2687 2696 2603 2595 2688
8 2696 2603 2595 2688 2697 2604 2596 2689
8 2697 2604 2596 2689 2698 2605 2597 2690
8 2699 2606 2598 2691 2700 2607 2599 2692
8 2700 2607 2599 2692 2701 2608 2600 2693
8 2701 2608 2600 2693 2702 2609 2601 2694
8 2702 2609 2601 2694 2703 2610 2602 2695
8 2703 2610 2602 2695 2704 2611 2603 2696
8 2704 2611 2603 2696 2705 2612 2604 2697
8 2705 2612 2604 2697 2706 2613 2605 2698
8 2708 2615 2606 2699 2709 2616 2607 2700
8 2709 2616 2607 2700 2710 2617 2608 2701
8 2710 2617 2608 2701 2711 2618 2609 2702
8 2711 2618 2609 2702 2712 2619 2610 2703
8 2712 2619 2610 2703 2713 2620 2611 2704
8 2713 2620 2611 2704 2714 2621 2612 2705
8 2714 2621 2612 2705 2715 2622 2613 2706
8 2716 2623 2614 2707 2717 2624 2615 2708
8 2717 2624 2615 2708 2718 2625 2616 2709
8 2718 2625 2616 2709 2719 2626 2617 2710
8 2719 2626 2617 2710 2720 2627 2618 2711
8 2720 2627 2618 2711 2721 2628 2619 2712
8 2721 2628 2619 2712 2722 2629 2620 2713
8 2722 2629 2620 2713 2723 2630 2621 2714
8 2723 2630 2621 2714 2724 2631 2622 2715
8 2725 2632 2623 2716 2726 2633 2624 2717
8 2726 2633 2624 2717 2727 2634 2625 2718
8 2727 2634 2625 2718 2728 2635 2626 2719
8 2728 2635 2626 2719 2729 2636 2627 2720
8 2729 2636 2627 2720 2730 2637 2628 2721
8 2730 2637 2628 2721 2731 2638 2629 2722
8 2731 2638 2629 2722 2732 2639 2630 2723
8 2732 2639 2630 2723 2733 2640 2631 2724
8 2734 2641 2632 2725 2735 2642 2633 2726
8 2735 2642 2633 2726 2736 2643 2634 2727
8 2736 2643 2634 2727 2737 2644 2635 2728
8 2737 2644 2635 2728 2738 2645 2636 2729
8 2738 2645 2636 2729 2739 2646 2637 2730
8 2739 2646 2637 2730 2740 2647 2638 2731
8 2740 2647 2638 2731 2741 2648 2639 2732
8 2741 2648 2639 2732 2742 2649 2640 2733
8 2744 2651 3934 3939 2745 2652 3935 3940
8 2745 2652 3935 3940 2746 2653 3936 3941
8 2746 2653 3936 3941 2747 2654 3937 3942
8 2747 2654 3937 3942 2748 2655 3938 3943
8 2749 2656 2650 2743 2750 2657 2651 2744
8 2750 2657 2651 2744 2751 2658 2652 2745
8 2751 2658 2652 2745 2752 2659 2653 2746
8 2752 2659 2653 2746 2753 2660 2654 2747
8 2753 2660 2654 2747 2754 2661 2655 2748
8 2756 2663 2656 2749 2757 2664 2657 2750
8 2757 2664 2657 2750 2758 2665 2658 2751
8 2758 2665 2658 2751 2759 2666 2659 2752
8 2759 2666 2659 2752 2760 2667 2660 2753
8 2760 2667 2660 2753 2761 2668 2661 2754
8 2762 2669 2662 2755 2763 2670 2663 2756
8 2763 2670 2663 2756 2764 2671 2664 2757
8 2764 2671 2664 2757 2765 2672 2665 2758
8 2765 2672 2665 2758 2766 2673 2666 2759
8 2766 2673 2666 2759 2767 2674 2667 2760
8 2767 2674 2667 2760 2768 2675 2668 2761
8 2769 2676 2669 2762 2770 2677 2670 2763
8 2770 2677 2670 2763 2771 2678 2671 2764
8 2771 2678 2671 2764 2772 2679 2672 2765
8 2772 2679 2672 2765 2773 2680 2673 2766
8 2773 2680 2673 2766 2774 2681 2674 2767
8 2774 2681 2674 2767 2775 2682 2675 2768
8 2777 2684 2676 2769 2778 2685 2677 2770
8 2778 2685 2677 2770 2779 2686 2678 2771
8 2779 2686 2678 2771 2780 2687 2679 2772
8 2780 2687 2679 2772 2781 2688 2680 2773
8 2781 2688 2680 2773 2782 2689 2681 2774
8 2782 2689 2681 2774 2783 2690 2682 2775
8 2784 2691 2683 2776 2785 2692 2684 2777
8 2785 2692 2684 2777 2786 2693 2685 2778
8 2786 2693 2685 2778 2787 2694 2686 2779
8 2787 2694 2686 2779 2788 2695 2687 2780
8 2788 2695 2687 2780 2789 2696 2688 2781
8 2789 2696 2688 2781 2790 2697 2689 2782
8 2790 2697 2689 2782 2791 2698 2690 2783
8 2792 2699 2691 2784 2793 2700 2692 2785
8 2793 2700 2692 2785 2794 2701 2693 2786
8 2794 2701 2693 2786 2795 2702 2694 2787
8 2795 2702 2694 2787 2796 2703 2695 2788
8 2796 2703 2695 2788 2797 2704 2696 2789
8 2797 2704 2696 2789 2798 2705 2697 2790
8 2798 2705 2697 2790 2799 2706 2698 2791
8 2801 2708 2699 2792 2802 2709 2700 2793
8 2802 2709 2700 2793 2803 2710 2701 2794
8 2803 2710 2701 2794 2804 2711 2702 2795
8 2804 2711 2702 2795 2805 2712 2703 2796
8 2805 2712 2703 2796 2806 2713 2704 2797
8 2806 2713 2704 2797 2807 2714 2705 2798
8 2807 2714 2705 2798 2808 2715 2706 2799
8 2809 2716 2707 2800 2810 2717 2708 2801
8 2810 2717 2708 2801 2811 2718 2709 2802
8 2811 2718 2709 2802 2812 2719 2710 2803
8 2812 2719 2710 2803 2813 2720 2711 2804
8 2813 2720 2711 2804 2814 2721 2712 2805
8 2814 2721 2712 2805 2815 2722 2713 2806
8 2815 2722 2713 2806 2816 2723 2714 2807
8 2816 2723 2714 2807 2817 2724 2715 2808
8 2818 2725 2716 2809 2819 2726 2717 2810
8 2819 2726 2717 2810 2820 2727 2718 2811
8 2820 2727 2718 2811 2821 2728 2719 2812
8 2821 2728 2719 2812 2822 2729 2720 2813
8 2822 2729 2720 2813 2823 2730 2721 2814
8 2823 2730 2721 2814 2824 2731 2722 2815
8 2824 2731 2722 2815 2825 2732 2723 2816
8 2825 2732 2723 2816 2826 2733 2724 2817
8 2827 2734 2725 2818 2828 2735 2726 2819
8 2828 2735 2726 2819 2829 2736 2727 2820
8 2829 2736 2727 2820 2830 2737 2728 2821
8 2830 2737 2728 2821 2831 2738 2729 2822
8 2831 2738 2729 2822 2832 2739 2730 2823
8 2832 2739 2730 2823 2833 2740 2731 2824
8 2833 2740 2731 2824 2834 2741 2732 2825
8 2834 2741 2732 2825 2835 2742 2733 2826
8 2837 2744 3939 3944 2838 2745 3940 3945
8 2838 2745 3940 3945 2839 2746 3941 3946
8 2839 2746 3941 3946 2840 2747 3942 3947
8 2840 2747 3942 3947 2841 2748 3943 3948
8 2842 2749 2743 2836 2843 2750 2744 2837
8 2843 2750 2744 2837 2844 2751 2745 2838
8 2844 2751 2745 2838 2845 2752 2746 2839
8 2845 2752 2746 2839 2846 2753 2747 2840
8 2846 2753 2747 2840 2847 2754 2748 2841
8 2849 2756 2749 2842 2850 2757 2750 2843
8 2850 2757 2750 2843 2851 2758 2751 2844
8 2851 2758 2751 2844 2852 2759 2752 2845
8 2852 2759 2752 2845 2853 2760 2753 2846
8 2853 2760 2753 2846 2854 2761 2754 2847
8 2855 2762 2755 2848 2856 2763 2756 2849
8 2856 2763 2756 2849 2857 2764 2757 2850
8 2857 2764 2757 2850 2858 2765 2758 2851
8 2858 2765 2758 2851 2859 2766 2759 2852
8 2859 2766 2759 2852 2860 2767 2760 2853
8 2860 2767 2760 2853 2861 2768 2761 2854
8 2862 2769 2762 2855 2863 2770 2763 2856
8 2863 2770 2763 2856 2864 2771 2764 2857
8 2864 2771 2764 2857 2865 2772 2765 2858
8 2865 2772 2765 2858 2866 2773 2766 2859
8 2866 2773 2766 2859 2867 2774 2767 2860
8 2867 2774 2767 2860 2868 2775 2768 2861
8 2870 2777 2769 2862 2871 2778 2770 2863
8 2871 2778 2770 2863 2872 2779 2771 2864
8 2872 2779 2771 2864 2873 2780 2772 2865
8 2873 2780 2772 2865 2874 2781 2773 2866
8 2874 2781 2773 2866 2875 2782 2774 2867
8 2875 2782 2774 2867 2876 2783 2775 2868
8 2877 2784 2776 2869 2878 2785 2777 2870
8 2878 2785 2777 2870 2879 2786 2778 2871
8 2879 2786 2778 2871 2880 2787 2779 2872
8 2880 2787 2779 2872 2881 2788 2780 2873
8 2881 2788 2780 2873 2882 2789 2781 2874
8 2882 2789 2781 2874 2883 2790 2782 2875
8 2883 2790 2782 2875 2884 2791 2783 2876
8 2885 2792 2784 2877 2886 2793 2785 2878
8 2886 2793 2785 2878 2887 2794 2786 2879
8 2887 2794 2786 2879 2888 2795 2787 2880
8 2888 2795 2787 2880 2889 2796 2788 2881
8 2889 2796 2788 2881 2890 2797 2789 2882
8 2890 2797 2789 2882 2891 2798 2790 2883
8 2891 2798 2790 2883 2892 2799 2791 2884
8 2894 2801 2792 2885 2895 2802 2793 2886
8 2895 2802 2793 2886 2896 2803 2794 2887
8 2896 2803 2794 2887 2897 2804 2795 2888
8 2897 2804 2795 2888 2898 2805 2796 2889
8 2898 2805 2796 2889 2899 2806 2797 2890
8 2899 2806 2797 2890 2900 2807 2798 2891
8 2900 2807 2798 2891 2901 2808 2799 2892
8 2902 2809 2800 2893 2903 2810 2801 2894
8 2903 2810 2801 2894 2904 2811 2802 2895
8 2904 2811 2802 2895 2905 2812 2803 2896
8 2905 2812 2803 2896 2906 2813 2804 2897
8 2906 2813 2804 2897 2907 2814 2805 2898
8 2907 2814 2805 2898 2908 2815 2806 2899
8 2908 2815 2806 2899 2909 2816 2807 2900
8 2909 2816 2807 2900 2910 2817 2808 2901
8 2911 2818 2809 2902 2912 2819 2810 2903
8 2912 2819 2810 2903 2913 2820 2811 2904
8 2913 2820 2811 2904 2914 2821 2812 2905
8 2914 2821 2812 2905 2915 2822 2813 2906
8 2915 2822 2813 2906 2916 2823 2814 2907
8 2916 2823 2814 2907 2917 2824 2815 2908
8 2917 2824 2815 2908 2918 2825 2816 2909
8 2918 2825 2816 2909 2919 2826 2817 2910
8 2920 2827 2818 2911 2921 2828 2819 2912
8 2921 2828 2819 2912 2922 2829 2820 2913
8 2922 2829 2820 2913 2923 2830 2821 2914
8 2923 2830 2821 2914 2924 2831 2822 2915
8 2924 2831 2822 2915 2925 2832 2823 2916
8 2925 2832 2823 2916 2926 2833 2824 2917
8 2926 2833 2824 2917 2927 2834 2825 2918
8 2927 2834 2825 2918 2928 2835 2826 2919
8 2930 2837 3944 3949 2931 2838 3945 3950
8 2931 2838 3945 3950 2932 2839 3946 3951
8 2932 2839 3946 3951 2933 2840 3947 3952
8 2933 2840 3947 3952 2934 2841 3948 3953
8 2935 2842 2836 2929 2936 2843 2837 2930
8 2936 2843 2837 2930 2937 2844 2838 2931
8 2937 2844 2838 2931 2938 2845 2839 2932
8 2938 2845 2839 2932 2939 2846 2840 2933
8 2939 2846 2840 2933 2940 2847 2841 2934
8 2942 2849 2842 2935 2943 2850 2843 2936
8 2943 2850 2843 2936 2944 2851 2844 2937
8 2944 2851 2844 2937 2945 2852 2845 2938
8 2945 2852 2845 2938 2946 2853 2846 2939
8 2946 2853 2846 2939 2947 2854 2847 2940
8 2948 2855 2848 2941 2949 2856 2849 2942
8 2949 2856 2849 2942 2950 2857 2850 2943
8 2950 2857 2850 2943 2951 2858 2851 2944
8 2951 2858 2851 2944 2952 2859 2852 2945
8 2952 2859 2852 2945 2953 2860 2853 2946
8 2953 2860 2853 2946 2954 2861 2854 2947
8 2955 2862 2855 2948 2956 2863 2856 2949
8 2956 2863 2856 2949 2957 2864 2857 2950
8 2957 2864 2857 2950 2958 2865 2858 2951
8 2958 2865 2858 2951 2959 2866 2859 2952
8 2959 2866 2859 2952 2960 2867 2860 2953
8 2960 2867 2860 2953 2961 2868 2861 2954
8 2963 2870 2862 2955 2964 2871 2863 2956
8 2964 2871 2863 2956 2965 2872 2864 2957
8 2965 2872 2864 2957 2966 2873 2865 2958
8 2966 2873 2865 2958 2967 2874 2866 2959
8 2967 2874 2866 2959 2968 2875 2867 2960
8 2968 2875 2867 2960 2969 2876 2868 2961
8 2970 2877 2869 2962 2971 2878 2870 2963
8 2971 2878 2870 2963 2972 2879 2871 2964
8 2972 2879 2871 2964 2973 2880 2872 2965
8 2973 2880 2872 2965 2974 2881 2873 2966
8 2974 2881 2873 2966 2975 2882 2874 2967
8 2975 2882 2874 2967 2976 2883 2875 2968
8 2976 2883 2875 2968 2977 2884 2876 2969
8 2978 2885 2877 2970 2979 2886 2878 2971
8 2979 2886 2878 2971 2980 2887 2879 2972
8 2980 2887 2879 2972 2981 2888 2880 2973
8 2981 2888 2880 2973 2982 2889 2881 2974
8 2982 2889 2881 2974 2983 2890 2882 2975
8 2983 2890 2882 2975 2984 2891 2883 2976
8 2984 2891 2883 2976 2985 2892 2884 2977
8 2987 2894 2885 2978 2988 2895 2886 2979
8 2988 2895 2886 2979 2989 2896 2887 2980
8 2989 2896 2887 2980 2990 2897 2888 2981
8 2990 2897 2888 2981 2991 2898 2889 2982
8 2991 2898 2889 2982 2992 2899 2890 2983
8 2992 2899 2890 2983 2993 2900 2891 2984
8 2993 2900 2891 2984 2994 2901 2892 2985
8 2995 2902 2893 2986 2996 2903 2894 2987
8 2996 2903 2894 2987 2997 2904 2895 2988
8 2997 2904 2895 2988 2998 2905 2896 2989
8 2998 2905 2896 2989 2999 2906 2897 2990
8 2999 2906 2897 2990 3000 2907 2898 2991
8 3000 2907 2898 2991 3001 2908 2899 2992
8 3001 2908 2899 2992 3002 2909 2900 2993
8 3002 2909 2900 2993 3003 2910 2901 2994
8 3004 2911 2902 2995 3005 2912 2903 2996
8 3005 2912 2903 2996 3006 2913 2904 2997
8 3006 2913 2904 2997 3007 2914 2905 2998
8 3007 2914 2905 2998 3008 2915 2906 2999
8 3008 2915 2906 2999 3009 2916 2907 3000
8 3009 2916 2907 3000 3010 2917 2908 3001
8 3010 2917 2908 3001 3011 2918 2909 3002
8 3011 2918 2909 3002 3012 2919 2910 3003
8 3013 2920 2911 3004 3014 2921 2912 3005
8 3014 2921 2912 3005 3015 2922 2913 3006
8 3015 2922 2913 3006 3016 2923 2914 3007
8 3016 2923 2914 3007 3017 2924 2915 3008
8 3017 2924 2915 3008 3018 2925 2916 3009
8 3018 2925 2916 3009 3019 2926 2917 3010
8 3019 2926 2917 3010 3020 2927 2918 3011
8 3020 2927 2918 3011 3021 2928 2919 3012
8 3023 2930 3949 3954 3024 2931 3950 3955
8 3024 2931 3950 3955 3025 2932 3951 3956
8 3025 2932 3951 3956 3026 2933 3952 3957
8 3026 2933 3952 3957 3027 2934 3953 3958
8 3028 2935 2929 3022 3029 2936 2930 3023
8 3029 2936 2930 3023 3030 2937 2931 3024
8 3030 2937 2931 3024 3031 2938 2932 3025
8 3031 2938 2932 3025 3032 2939 2933 3026
8 3032 2939 2933 3026 3033 2940 2934 3027
8 3035 2942 2935 3028 3036 2943 2936 3029
8 3036 2943 2936 3029 3037 2944 2937 3030
8 3037 2944 2937 3030 3038 2945 2938 3031
8 3038 2945 2938 3031 3039 2946 2939 3032
8 3039 2946 2939 3032 3040 2947 2940 3033
8 3041 2948 2941 3034 3042 2949 2942 3035
8 3042 2949 2942 3035 3043 2950 2943 3036
8 3043 2950 2943 3036 3044 2951 2944 3037
8 3044 2951 2944 3037 3045 2952 2945 3038
8 3045 2952 2945 3038 3046 2953 2946 3039
8 3046 2953 2946 3039 3047 2954 2947 3040
8 3048 2955 2948 3041 3049 2956 2949 3042
8 3049 2956 2949 3042 3050 2957 2950 3043
8 3050 2957 2950 3043 3051 2958 2951 3044
8 3051 2958 2951 3044 3052 2959 2952 3045
8 3052 2959 2952 3045 3053 2960 2953 3046
8 3053 2960 2953 3046 3054 2961 2954 3047
8 3056 2963 2955 3048 3057 2964 2956 3049
8 3057 2964 2956 3049 3058 2965 2957 3050
8 3058 2965 2957 3050 3059 2966 2958 3051
8 3059 2966 2958 3051 3060 2967 2959 3052
8 3060 2967 2959 3052 3061 2968 2960 3053
8 3061 2968 2960 3053 3062 2969 2961 3054
8 3063 2970 2962 3055 3064 2971 2963 3056
8 3064 2971 2963 3056 3065 2972 2964 3057
8 3065 2972 2964 3057 3066 2973 2965 3058
8 3066 2973 2965 3058 3067 2974 2966 3059
8 3067 2974 2966 3059 3068 2975 2967 3060
8 3068 2975 2967 3060 3069 2976 2968 3061
8 3069 2976 2968 3061 3070 2977 2969 3062
8 3071 2978 2970 3063 3072 2979 2971 3064
8 3072 2979 2971 3064 3073 2980 2972 3065
8 3073 2980 2972 3065 3074 2981 2973 3066
8 3074 2981 2973 3066 3075 2982 2974 3067
8 3075 2982 2974 3067 3076 2983 2975 3068
8 3076 2983 2975 3068 3077 2984 2976 3069
8 3077 2984 2976 3069 3078 2985 2977 3070
8 3080 2987 2978 3071 3081 2988 2979 3072
8 3081 2988 2979 3072 3082 2989 2980 3073
8 3082 2989 2980 3073 3083 2990 2981 3074
8 3083 2990 2981 3074 3084 2991 2982 3075
8 3084 2991 2982 3075 3085 2992 2983 3076
8 3085 2992 2983 3076 3086 2993 2984 3077
8 3086 2993 2984 3077 3087 2994 2985 3078
8 3088 2995 2986 3079 3089 2996 2987 3080
8 3089 2996 2987 3080 3090 2997 2988 3081
8 3090 2997 2988 3081 3091 2998 2989 3082
8 3091 2998 2989 3082 3092 2999 2990 3083
8 3092 2999 2990 3083 3093 3000 2991 3084
8 3093 3000 2991 3084 3094 3001 2992 3085
8 3094 3001 2992 3085 3095 3002 2993 3086
8 3095 3002 2993 3086 3096 3003 2994 3087
8 3097 3004 2995 3088 3098 3005 2996 3089
8 3098 3005 2996 3089 3099 3006 2997 3090
8 3099 3006 2997 3090 3100 3007 2998 3091
8 3100 3007 2998 3091 3101 3008 2999 3092
8 3101 3008 2999 3092 3102 3009 3000 3093
8 3102 3009 3000 3093 3103 3010 3001 3094
8 3103 3010 3001 3094 3104 3011 3002 3095
8 3104 3011 3002 3095 3105 3012 3003 3096
8 3106 3013 3004 3097 3107 3014 3005 3098
8 3107 3014 3005 3098 3108 3015 3006 3099
8 3108 3015 3006 3099 3109 3016 3007 3100
8 3109 3016 3007 3100 3110 3017 3008 3101
8 3110 3017 3008 3101 3111 3018 3009 3102
8 3111 3018 3009 3102 3112 3019 3010 3103
8 3112 3019 3010 3103 3113 3020 3011 3104
8 3113 3020 3011 3104 3114 3021 3012 3105
8 3116 3023 3954 3959 3117 3024 3955 3960
8 3117 3024 3955 3960 3118 3025 3956 3961
8 3118 3025 3956 3961 3119 3026 3957 3962
8 3119 3026 3957 3962 3120 3027 3958 3963
8 3121 3028 3022 3115 3122 3029 3023 3116
8 3122 3029 3023 3116 3123 3030 3024 3117
8 3123 3030 3024 3117 3124 3031 3025 3118
8 3124 3031 3025 3118 3125 3032 3026 3119
8 3125 3032 3026 3119 3126 3033 3027 3120
8 3128 3035 3028 3121 3129 3036 3029 3122
8 3129 3036 3029 3122 3130 3037 3030 3123
8 3130 3037 3030 3123 3131 3038 3031 3124
8 3131 3038 3031 3124 3132 3039 3032 3125
8 3132 3039 3032 3125 3133 3040 3033 3126
8 3134 3041 3034 3127 3135 3042 3035 3128
8 3135 3042 3035 3128 3136 3043 3036 3129
8 3136 3043 3036 3129 3137 3044 3037 3130
8 3137 3044 3037 3130 3138 3045 3038 3131
8 3138 3045 3038 3131 3139 3046 3039 3132
8 3139 3046 3039 3132 3140 3047 3040 3133
8 3141 3048 3041 3134 3142 3049 3042 3135
8 3142 3049 3042 3135 3143 3050 3043 3136
8 3143 3050 3043 3136 3144 3051 3044 3137
8 3144 3051 3044 3137 3145 3052 3045 3138
8 3145 3052 3045 3138 3146 3053 3046 3139
8 3146 3053 3046 3139 3147 3054 3047 3140
8 3149 3056 3048 3141 3150 3057 3049 3142
8 3150 3057 3049 3142 3151 3058 3050 3143
8 3151 3058 3050 3143 3152 3059 3051 3144
8 3152 3059 3051 3144 3153 3060 3052 3145
8 3153 3060 3052 3145 3154 3061 3053 3146
8 3154 3061 3053 3146 3155 3062 3054 3147
8 3156 3063 3055 3148 3157 3064 3056 3149
8 3157 3064 3056 3149 3158 3065 3057 3150
8 3158 3065 3057 3150 3159 3066 3058 3151
8 3159 3066 3058 3151 3160 3067 3059 3152
8 3160 3067 3059 3152 3161 3068 3060 3153
8 3161 3068 3060 3153 3162 3069 3061 3154
8 3162 3069 3061 3154 3163 3070 3062 3155
8 3164 3071 3063 3156 3165 3072 3064 3157
8 3165 3072 3064 3157 3166 3073 3065 3158
8 3166 3073 3065 3158 3167 3074 3066 3159
8 3167 3074 3066 3159 3168 3075 3067 3160
8 3168 3075 3067 3160 3169 3076 3068 3161
8 3169 3076 3068 3161 3170 3077 3069 3162
8 3170 3077 3069 3162 3171 3078 3070 3163
8 3173 3080 3071 3164 3174 3081 3072 3165
8 3174 3081 3072 3165 3175 3082 3073 3166
8 3175 3082 3073 3166 3176 3083 3074 3167
8 3176 3083 3074 3167 3177 3084 3075 3168
8 3177 3084 3075 3168 3178 3085 3076 3169
8 3178 3085 3076 3169 3179 3086 3077 3170
8 3179 3086 3077 3170 3180 3087 3078 3171
8 3181 3088 3079 3172 3182 3089 3080 3173
8 3182 3089 3080 3173 3183 3090 3081 3174
8 3183 3090 3081 3174 3184 3091 3082 3175
8 3184 3091 3082 3175 3185 3092 3083 3176
8 3185 3092 3083 3176 3186 3093 3084 3177
8 3186 3093 3084 3177 3187 3094 3085 3178
8 3187 3094 3085 3178 3188 3095 3086 3179
8 3188 3095 3086 3179 3189 3096 3087 3180
8 3190 3097 3088 3181 3191 3098 3089 3182
8 3191 3098 3089 3182 3192 3099 3090 3183
8 3192 3099 3090 3183 3193 3100 3091 3184
8 3193 3100 3091 3184 3194 3101 3092 3185
8 3194 3101 3092 3185 3195 3102 3093 3186
8 3195 3102 3093 3186 3196 3103 3094 3187
8 3196 3103 3094 3187 3197 3104 3095 3188
8 3197 3104 3095 3188 3198 3105 3096 3189
8 3199 3106 3097 3190 3200 3107 3098 3191
8 3200 3107 3098 3191 3201 3108 3099 3192
8 3201 3108 3099 3192 3202 3109 3100 3193
8 3202 3109 3100 3193 3203 3110 3101 3194
8 3203 3110 3101 3194 3204 3111 3102 3195
8 3204 3111 3102 3195 3205 3112 3103 3196
8 3205 3112 3103 3196 3206 3113 3104 3197
8 3206 3113 3104 3197 3207 3114 3105 3198
8 3209 3116 3959 3964 3210 3117 3960 3965
8 3210 3117 3960 3965 3211 3118 3961 3966
8 3211 3118 3961 3966 3212 3119 3962 3967
8 3212 3119 3962 3967 3213 3120 3963 3968
8 3214 3121 3115 3208 3215 3122 3116 3209
8 3215 3122 3116 3209 3216 3123 3117 3210
8 3216 3123 3117 3210 3217 3124 3118 3211
8 3217 3124 3118 3211 3218 3125 3119 3212
8 3218 3125 3119 3212 3219 3126 3120 3213
8 3221 3128 3121 3214 3222 3129 3122 3215
8 3222 3129 3122 3215 3223 3130 3123 3216
8 3223 3130 3123 3216 3224 3131 3124 3217
8 3224 3131 3124 3217 3225 3132 3125 3218
8 3225 3132 3125 3218 3226 3133 3126 3219
8 3227 3134 3127 3220 3228 3135 3128 3221
8 3228 3135 3128 3221 3229 3136 3129 3222
8 3229 3136 3129 3222 3230 3137 3130 3223
8 3230 3137 3130 3223 3231 3138 3131 3224
8 3231 3138 3131 3224 3232 3139 3132 3225
8 3232 3139 3132 3225 3233 3140 3133 3226
8 3234 3141 3134 3227 3235 3142 3135 3228
8 3235 3142 3135 3228 3236 3143 3136 3229
8 3236 3143 3136 3229 3237 3144 3137 3230
8 3237 3144 3137 3230 3238 3145 3138 3231
8 3238 3145 3138 3231 3239 3146 3139 3232
8 3239 3146 3139 3232 3240 3147 3140 3233
8 3242 3149 3141 3234 3243 3150 3142 3235
8 3243 3150 3142 3235 3244 3151 3143 3236
8 3244 3151 3143 3236 3245 3152 3144 3237
8 3245 3152 3144 3237 3246 3153 3145 3238
8 3246 3153 3145 3238 3247 3154 3146 3239
8 3247 3154 3146 3239 3248 3155 3147 3240
8 3249 3156 3148 3241 3250 3157 3149 3242
8 3250 3157 3149 3242 3251 3158 3150 3243
8 3251 3158 3150 3243 3252 3159 3151 3244
8 3252 3159 3151 3244 3253 3160 3152 3245
8 3253 3160 3152 3245 3254 3161 3153 3246
8 3254 3161 3153 3246 3255 3162 3154 3247
8 3255 3162 3154 3247 3256 3163 3155 3248
8 3257 3164 3156 3249 3258 3165 3157 3250
8 3258 3165 3157 3250 3259 3166 3158 3251
8 3259 3166 3158 3251 3260 3167 3159 3252
8 3260 3167 3159 3252 3261 3168 3160 3253
8 3261 3168 3160 3253 3262 3169 3161 3254
8 3262 3169 3161 3254 3263 3170 3162 3255
8 3263 3170 3162 3255 3264 3171 3163 3256
8 3266 3173 3164 3257 3267 3174 3165 3258
8 3267 3174 3165 3258 3268 3175 3166 3259
8 3268 3175 3166 3259 3269 3176 3167 3260
8 3269 3176 3167 3260 3270 3177 3168 3261
8 3270 3177 3168 3261 3271 3178 3169 3262
8 3271 3178 3169 3262 3272 3179 3170 3263
8 3272 3179 3170 3263 3273 3180 3171 3264
8 3274 3181 3172 3265 3275 3182 3173 3266
8 3275 3182 3173 3266 3276 3183 3174 3267
8 3276 3183 3174 3267 3277 3184 3175 3268
8 3277 3184 3175 3268 3278 3185 3176 3269
8 3278 3185 3176 3269 3279 3186 3177 3270
8 3279 3186 3177 3270 3280 3187 3178 3271
8 3280 3187 3178 3271 3281 3188 3179 3272
8 3281 3188 3179 3272 3282 3189 3180 3273
8 3283 3190 3181 3274 3284 3191 3182 3275
8 3284 3191 3182 3275 3285 3192 3183 3276
8 3285 3192 3183 3276 3286 3193 3184 3277
8 3286 3193 3184 3277 3287 3194 3185 3278
8 3287 3194 3185 3278 3288 3195 3186 3279
8 3288 3195 3186 3279 3289 3196 3187 3280
8 3289 3196 3187 3280 3290 3197 3188 3281
8 3290 3197 3188 3281 3291 3198 3189 3282
8 3292 3199 3190 3283 3293 3200 3191 3284
8 3293 3200 3191 3284 3294 3201 3192 3285
8 3294 3201 3192 3285 3295 3202 3193 3286
8 3295 3202 3193 3286 3296 3203 3194 3287
8 3296 3203 3194 3287 3297 3204 3195 3288
8 3297 3204 3195 3288 3298 3205 3196 3289
8 3298 3205 3196 3289 3299 3206 3197 3290
8 3299 3206 3197 3290 3300 3207 3198 3291
8 3302 3209 3964 3969 3303 3210 3965 3970
8 3303 3210 3965 3970 3304 3211 3966 3971
8 3304 3211 3966 3971 3305 3212 3967 3972
8 3305 3212 3967 3972 3306 3213 3968 3973
8 3307 3214 3208 3301 3308 3215 3209 3302
8 3308 3215 3209 3302 3309 3216 3210 3303
8 3309 3216 3210 3303 3310 3217 3211 3304
8 3310 3217 3211 3304 3311 3218 3212 3305
8 3311 3218 3212 3305 3312 3219 3213 3306
8 3314 3221 3214 3307 3315 3222 3215 3308
8 3315 3222 3215 3308 3316 3223 3216 3309
8 3316 3223 3216 3309 3317 3224 3217 3310
8 3317 3224 3217 3310 3318 3225 3218 3311
8 3318 3225 3218 3311 3319 3226 3219 3312
8 3320 3227 3220 3313 3321 3228 3221 3314
8 3321 3228 3221 3314 3322 3229 3222 3315
8 3322 3229 3222 3315 3323 3230 3223 3316
8 3323 3230 3223 3316 3324 3231 3224 3317
8 3324 3231 3224 3317 3325 3232 3225 3318
8 3325 3232 3225 3318 3326 3233 3226 3319
8 3327 3234 3227 3320 3328 3235 3228 3321
8 3328 3235 3228 3321 3329 3236 3229 3322
8 3329 3236 3229 3322 3330 3237 3230 3323
8 3330 3237 3230 3323 3331 3238 3231 3324
8 3331 3238 3231 3324 3332 3239 3232 3325
8 3332 3239 3232 3325 3333 3240 3233 3326
8 3335 3242 3234 3327 3336 3243 3235 3328
8 3336 3243 3235 3328 3337 3244 3236 3329
8 3337 3244 3236 3329 3338 3245 3237 3330
8 3338 3245 3237 3330 3339 3246 3238 3331
8 3339 3246 3238 3331 3340 3247 3239 3332
8 3340 3247 3239 3332 3341 3248 3240 3333
8 3342 3249 3241 3334 3343 3250 3242 3335
8 3343 3250 3242 3335 3344 3251 3243 3336
8 3344 3251 3243 3336 3345 3252 3244 3337
8 3345 3252 3244 3337 3346 3253 3245 3338
8 3346 3253 3245 3338 3347 3254 3246 3339
8 3347 3254 3246 3339 3348 3255 3247 3340
8 3348 3255 3247 3340 3349 3256 3248 3341
8 3350 3257 3249 3342 3351 3258 3250 3343
8 3351 3258 3250 3343 3352 3259 3251 3344
8 3352 3259 3251 3344 3353 3260 3252 3345
8 3353 3260 3252 3345 3354 3261 3253 3346
8 3354 3261 3253 3346 3355 3262 3254 3347
8 3355 3262 3254 3347 3356 3263 3255 3348
8 3356 3263 3255 3348 3357 3264 3256 3349
8 3359 3266 3257 3350 3360 3267 3258 3351
8 3360 3267 3258 3351 3361 3268 3259 3352
8 3361 3268 3259 3352 3362 3269 3260 3353
8 3362 3269 3260 3353 3363 3270 3261 3354
8 3363 3270 3261 3354 3364 3271 3262 3355
8 3364 3271 3262 3355 3365 3272 3263 3356
8 3365 3272 3263 3356 3366 3273 3264 3357
8 3367 3274 3265 3358 3368 3275 3266 3359
8 3368 3275 3266 3359 3369 3276 3267 3360
8 3369 3276 3267 3360 3370 3277 3268 3361
8 3370 3277 3268 3361 3371 3278 3269 3362
8 3371 3278 3269 3362 3372 3279 3270 3363
8 3372 3279 3270 3363 3373 3280 3271 3364
8 3373 3280 3271 3364 3374 3281 3272 3365
8 3374 3281 3272 3365 3375 3282 3273 3366
8 3376 3283 3274 3367 3377 3284 3275 3368
8 3377 3284 3275 3368 3378 3285 3276 3369
8 3378 3285 3276 3369 3379 3286 3277 3370
8 3379 3286 3277 3370 3380 3287 3278 3371
8 3380 3287 3278 3371 3381 3288 3279 3372
8 3381 3288 3279 3372 3382 3289 3280 3373
8 3382 3289 3280 3373 3383 3290 3281 3374
8 3383 3290 3281 3374 3384 3291 3282 3375
8 3385 3292 3283 3376 3386 3293 3284 3377
8 3386 3293 3284 3377 3387 3294 3285 3378
8 3387 3294 3285 3378 3388 3295 3286 3379
8 3388 3295 3286 3379 3389 3296 3287 3380
8 3389 3296 3287 3380 3390 3297 3288 3381
8 3390 3297 3288 3381 3391 3298 3289 3382
8 3391 3298 3289 3382 3392 3299 3290 3383
8 3392 3299 3290 3383 3393 3300 3291 3384
8 3395 3302 3969 3974 3396 3303 3970 3975
8 3396 3303 3970 3975 3397 3304 3971 3976
8 3397 3304 3971 3976 3398 3305 3972 3977
8 3398 3305 3972 3977 3399 3306 3973 3978
8 3400 3307 3301 3394 3401 3308 3302 3395
8 3401 3308 3302 3395 3402 3309 3303 3396
8 3402 3309 3303 3396 3403 3310 3304 3397
8 3403 3310 3304 3397 3404 3311 3305 3398
8 3404 3311 3305 3398 3405 3312 3306 3399
8 3407 3314 3307 3400 3408 3315 3308 3401
8 3408 3315 3308 3401 3409 3316 3309 3402
8 3409 3316 3309 3402 3410 3317 3310 3403
8 3410 3317 3310 3403 3411 3318 3311 3404
8 3411 3318 3311 3404 3412 3319 3312 3405
8 3413 3320 3313 3406 3414 3321 3314 3407
8 3414 3321 3314 3407 3415 3322 3315 3408
8 3415 3322 3315 3408 3416 3323 3316 3409
8 3416 3323 3316 3409 3417 3324 3317 3410
8 3417 3324 3317 3410 3418 3325 3318 3411
8 3418 3325 3318 3411 3419 3326 3319 3412
8 3420 3327 3320 3413 3421 3328 3321 3414
8 3421 3328 3321 3414 3422 3329 3322 3415
8 3422 3329 3322 3415 3423 3330 3323 3416
8 3423 3330 3323 3416 3424 3331 3324 3417
8 3424 3331 3324 3417 3425 3332 3325 3418
8 3425 3332 3325 3418 3426 3333 3326 3419
8 3428 3335 3327 3420 3429 3336 3328 3421
8 3429 3336 3328 3421 3430 3337 3329 3422
8 3430 3337 3329 3422 3431 3338 3330 3423
8 3431 3338 3330 3423 3432 3339 3331 3424
8 3432 3339 3331 3424 3433 3340 3332 3425
8 3433 3340 3332 3425 3434 3341 3333 3426
8 3435 3342 3334 3427 3436 3343 3335 3428
8 3436 3343 3335 3428 3437 3344 3336 3429
8 3437 3344 3336 3429 3438 3345 3337 3430
8 3438 3345 3337 3430 3439 3346 3338 3431
8 3439 3346 3338 3431 3440 3347 3339 3432
8 3440 3347 3339 3432 3441 3348 3340 3433
8 3441 3348 3340 3433 3442 3349 3341 3434
8 3443 3350 3342 3435 3444 3351 3343 3436
8 3444 3351 3343 3436 3445 3352 3344 3437
8 3445 3352 3344 3437 3446 3353 3345 3438
8 3446 3353 3345 3438 3447 3354 3346 3439
8 3447 3354 3346 3439 3448 3355 3347 3440
8 3448 3355 3347 3440 3449 3356 3348 3441
8 3449 3356 3348 3441 3450 3357 3349 3442
8 3452 3359 3350 3443 3453 3360 3351 3444
8 3453 3360 3351 3444 3454 3361 3352 3445
8 3454 3361 3352 3445 3455 3362 3353 3446
8 3455 3362 3353 3446 3456 3363 3354 3447
8 3456 3363 3354 3447 3457 3364 3355 3448
8 3457 3364 3355 3448 3458 3365 3356 3449
8 3458 3365 3356 3449 3459 3366 3357 3450
8 3460 3367 3358 3451 3461 3368 3359 3452
8 3461 3368 3359 3452 3462 3369 3360 3453
8 3462 3369 3360 3453 3463 3370 3361 3454
8 3463 3370 3361 3454 3464 3371 3362 3455
8 3464 3371 3362 3455 3465 3372 3363 3456
8 3465 3372 3363 3456 3466 3373 3364 3457
8 3466 3373 3364 3457 3467 3374 3365 3458
8 3467 3374 3365 3458 3468 3375 3366 3459
8 3469 3376 3367 3460 3470 3377 3368 3461
8 3470 3377 3368 3461 3471 3378 3369 3462
8 3471 3378 3369 3462 3472 3379 3370 3463
8 3472 3379 3370 3463 3473 3380 3371 3464
8 3473 3380 3371 3464 3474 3381 3372 3465
8 3474 3381 3372 3465 3475 3382 3373 3466
8 3475 3382 3373 3466 3476 3383 3374 3467
8 3476 3383 3374 3467 3477 3384 3375 3468
8 3478 3385 3376 3469 3479 3386 3377 3470
8 3479 3386 3377 3470 3480 3387 3378 3471
8 3480 3387 3378 3471 3481 3388 3379 3472
8 3481 3388 3379 3472 3482 3389 3380 3473
8 3482 3389 3380 3473 3483 3390 3381 3474
8 3483 3390 3381 3474 3484 3391 3382 3475
8 3484 3391 3382 3475 3485 3392 3383 3476
8 3485 3392 3383 3476 3486 3393 3384 3477
8 3488 3395 3974 3979 3489 3396 3975 3980
8 3489 3396 3975 3980 3490 3397 3976 3981
8 3490 3397 3976 3981 3491 3398 3977 3982
8 3491 3398 3977 3982 3492 3399 3978 3983
8 3493 3400 3394 3487 3494 3401 3395 3488
8 3494 3401 3395 3488 3495 3402 3396 3489
8 3495 3402 3396 3489 3496 3403 3397 3490
8 3496 3403 3397 3490 3497 3404 3398 3491
8 3497 3404 3398 3491 3498 3405 3399 3492
8 3500 3407 3400 3493 3501 3408 3401 3494
8 3501 3408 3401 3494 3502 3409 3402 3495
8 3502 3409 3402 3495 3503 3410 3403 3496
8 3503 3410 3403 3496 3504 3411 3404 3497
8 3504 3411 3404 3497 3505 3412 3405 3498
8 3506 3413 3406 3499 3507 3414 3407 3500
8 3507 3414 3407 3500 3508 3415 3408 3501
8 3508 3415 3408 3501 3509 3416 3409 3502
8 3509 3416 3409 3502 3510 3417 3410 3503
8 3510 3417 3410 3503 3511 3418 3411 3504
8 3511 3418 3411 3504 3512 3419 3412 3505
8 3513 3420 3413 3506 3514 3421 3414 3507
8 3514 3421 3414 3507 3515 3422 3415 3508
8 3515 3422 3415 3508 3516 3423 3416 3509
8 3516 3423 3416 3509 3517 3424 3417 3510
8 3517 3424 3417 3510 3518 3425 3418 3511
8 3518 3425 3418 3511 3519 3426 3419 3512
8 3521 3428 3420 3513 3522 3429 3421 3514
8 3522 3429 3421 3514 3523 3430 3422 3515
8 3523 3430 3422 3515 3524 3431 3423 3516
8 3524 3431 3423 3516 3525 3432 3424 3517
8 3525 3432 3424 3517 3526 3433 3425 3518
8 3526 3433 3425 3518 3527 3434 3426 3519
8 3528 3435 3427 3520 3529 3436 3428 3521
8 3529 3436 3428 3521 3530 3437 3429 3522
8 3530 3437 3429 3522 3531 3438 3430 3523
8 3531 3438 3430 3523 3532 3439 3431 3524
8 3532 3439 3431 3524 3533 3440 3432 3525
8 3533 3440 3432 3525 3534 3441 3433 3526
8 3534 3441 3433 3526 3535 3442 3434 3527
8 3536 3443 3435 3528 3537 3444 3436 3529
8 3537 3444 3436 3529 3538 3445 3437 3530
8 3538 3445 3437 3530 3539 3446 3438 3531
8 3539 3446 3438 3531 3540 3447 3439 3532
8 3540 3447 3439 3532 3541 3448 3440 3533
8 3541 3448 3440 3533 3542 3449 3441 3534
8 3542 3449 3441 3534 3543 3450 3442 3535
8 3545 3452 3443 3536 3546 3453 3444 3537
8 3546 3453 3444 3537 3547 3454 3445 3538
8 3547 3454 3445 3538 3548 3455 3446 3539
8 3548 3455 3446 3539 3549 3456 3447 3540
8 3549 3456 3447 3540 3550 3457 3448 3541
8 3550 3457 3448 3541 3551 3458 3449 3542
8 3551 3458 3449 3542 3552 3459 3450 3543
8 3553 3460 3451 3544 3554 3461 3452 3545
8 3554 3461 3452 3545 3555 3462 3453 3546
8 3555 3462 3453 3546 3556 3463 3454 3547
8 3556 3463 3454 3547 3557 3464 3455 3548
8 3557 3464 3455 3548 3558 3465 3456 3549
8 3558 3465 3456 3549 3559 3466 3457 3550
8 3559 3466 3457 3550 3560 3467 3458 3551
8 3560 3467 3458 3551 3561 3468 3459 3552
8 3562 3469 3460 3553 3563 3470 3461 3554
8 3563 3470 3461 3554 3564 3471 3462 3555
8 3564 3471 3462 3555 3565 3472 3463 3556
8 3565 3472 3463 3556 3566 3473 3464 3557
8 3566 3473 3464 3557 3567 3474 3465 3558
8 3567 3474 3465 3558 3568 3475 3466 3559
8 3568 3475 3466 3559 3569 3476 3467 3560
8 3569 3476 3467 3560 3570 3477 3468 3561
8 3571 3478 3469 3562 3572 3479 3470 3563
8 3572 3479 3470 3563 3573 3480 3471 3564
8 3573 3480 3471 3564 3574 3481 3472 3565
8 3574 3481 3472 3565 3575 3482 3473 3566
8 3575 3482 3473 3566 3576 3483 3474 3567
8 3576 3483 3474 3567 3577 3484 3475 3568
8 3577 3484 3475 3568 3578 3485 3476 3569
8 3578 3485 3476 3569 3579 3486 3477 3570
8 3581 3488 3979 3984 3582 3489 3980 3985
8 3582 3489 3980 3985 3583 3490 3981 3986
8 3583 3490 3981 3986 3584 3491 3982 3987
8 3584 3491 3982 3987 3585 3492 3983 3988
8 3586 3493 3487 3580 3587 3494 3488 3581
8 3587 3494 3488 3581 3588 3495 3489 3582
8 3588 3495 3489 3582 3589 3496 3490 3583
8 3589 3496 3490 3583 3590 3497 3491 3584
8 3590 3497 3491 3584 3591 3498 3492 3585
8 3593 3500 3493 3586 3594 3501 3494 3587
8 3594 3501 3494 3587 3595 3502 3495 3588
8 3595 3502 3495 3588 3596 3503 3496 3589
8 3596 3503 3496 3589 3597 3504 3497 3590
8 3597 3504 3497 3590 3598 3505 3498 3591
8 3599 3506 3499 3592 3600 3507 3500 3593
8 3600 3507 3500 3593 3601 3508 3501 3594
8 3601 3508 3501 3594 3602 3509 3502 3595
8 3602 3509 3502 3595 3603 3510 3503 3596
8 3603 3510 3503 3596 3604 3511 3504 3597
8 3604 3511 3504 3597 3605 3512 3505 3598
8 3606 3513 3506 3599 3607 3514 3507 3600
8 3607 3514 3507 3600 3608 3515 3508 3601
8 3608 3515 3508 3601 3609 3516 3509 3602
8 3609 3516 3509 3602 3610 3517 3510 3603
8 3610 3517 3510 3603 3611 3518 3511 3604
8 3611 3518 3511 3604 3612 3519 3512 3605
8 3614 3521 3513 3606 3615 3522 3514 3607
8 3615 3522 3514 3607 3616 3523 3515 3608
8 3616 3523 3515 3608 3617 3524 3516 3609
8 3617 3524 3516 3609 3618 3525 3517 3610
8 3618 3525 3517 3610 3619 3526 3518 3611
8 3619 3526 3518 3611 3620 3527 3519 3612
8 3621 3528 3520 3613 3622 3529 3521 3614
8 3622 3529 3521 3614 3623 3530 3522 3615
8 3623 3530 3522 3615 3624 3531 3523 3616
8 3624 3531 3523 3616 3625 3532 3524 3617
8 3625 3532 3524 3617 3626 3533 3525 3618
8 3626 3533 3525 3618 3627 3534 3526 3619
8 3627 3534 3526 3619 3628 3535 3527 3620
8 3629 3536 3528 3621 3630 3537 3529 3622
8 3630 3537 3529 3622 3631 3538 3530 3623
8 3631 3538 3530 3623 3632 3539 3531 3624
8 3632 3539 3531 3624 3633 3540 3532 3625
8 3633 3540 3532 3625 3634 3541 3533 3626
8 3634 3541 3533 3626 3635 3542 3534 3627
8 3635 3542 3534 3627 3636 3543 3535 3628
8 3638 3545 3536 3629 3639 3546 3537 3630
8 3639 3546 3537 3630 3640 3547 3538 3631
8 3640 3547 3538 3631 3641 3548 3539 3632
8 3641 3548 3539 3632 3642 3549 3540 3633
8 3642 3549 3540 3633 3643 3550 3541 3634
8 3643 3550 3541 3634 3644 3551 3542 3635
8 3644 3551 3542 3635 3645 3552 3543 3636
8 3646 3553 3544 3637 3647 3554 3545 3638
8 3647 3554 3545 3638 3648 3555 3546 3639
8 3648 3555 3546 3639 3649 3556 3547 3640
8 3649 3556 3547 3640 3650 3557 3548 3641
8 3650 3557 3548 3641 3651 3558 3549 3642
8 3651 3558 3549 3642 3652 3559 3550 3643
8 3652 3559 3550 3643 3653 3560 3551 3644
8 3653 3560 3551 3644 3654 3561 3552 3645
8 3655 3562 3553 3646 3656 3563 3554 3647
8 3656 3563 3554 3647 3657 3564 3555 3648
8 3657 3564 3555 3648 3658 3565 3556 3649
8 3658 3565 3556 3649 3659 3566 3557 3650
8 3659 3566 3557 3650 3660 3567 3558 3651
8 3660 3567 3558 3651 3661 3568 3559 3652
8 3661 3568 3559 3652 3662 3569 3560 3653
8 3662 3569 3560 3653 3663 3570 3561 3654
8 3664 3571 3562 3655 3665 3572 3563 3656
8 3665 3572 3563 3656 3666 3573 3564 3657
8 3666 3573 3564 3657 3667 3574 3565 3658
8 3667 3574 3565 3658 3668 3575 3566 3659
8 3668 3575 3566 3659 3669 3576 3567 3660
8 3669 3576 3567 3660 3670 3577 3568 3661
8 3670 3577 3568 3661 3671 3578 3569 3662
8 3671 3578 3569 3662 3672 3579 3570 3663
8 3674 3581 3984 3989 3675 3582 3985 3990
8 3675 3582 3985 3990 3676 3583 3986 3991
8 3676 3583 3986 3991 3677 3584 3987 3992
8 3677 3584 3987 3992 3678 3585 3988 3993
8 3679 3586 3580 3673 3680 3587 3581 3674
8 3680 3587 3581 3674 3681 3588 3582 3675
8 3681 3588 3582 3675 3682 3589 3583 3676
8 3682 3589 3583 3676 3683 3590 3584 3677
8 3683 3590 3584 3677 3684 3591 3585 3678
8 3686 3593 3586 3679 3687 3594 3587 3680
8 3687 3594 3587 3680 3688 3595 3588 3681
8 3688 3595 3588 3681 3689 3596 3589 3682
8 3689 3596 3589 3682 3690 3597 3590 3683
8 3690 3597 3590 3683 3691 3598 3591 3684
8 3692 3599 3592 3685 3693 3600 3593 3686
8 3693 3600 3593 3686 3694 3601 3594 3687
8 3694 3601 3594 3687 3695 3602 3595 3688
8 3695 3602 3595 3688 3696 3603 3596 3689
8 3696 3603 3596 3689 3697 3604 3597 3690
8 3697 3604 3597 3690 3698 3605 3598 3691
8 3699 3606 3599 3692 3700 3607 3600 3693
8 3700 3607 3600 3693 3701 3608 3601 3694
8 3701 3608 3601 3694 3702 3609 3602 3695
8 3702 3609 3602 3695 3703 3610 3603 3696
8 3703 3610 3603 3696 3704 3611 3604 3697
8 3704 3611 3604 3697 3705 3612 3605 3698
8 3707 3614 3606 3699 3708 3615 3607 3700
8 3708 3615 3607 3700 3709 3616 3608 3701
8 3709 3616 3608 3701 3710 3617 3609 3702
8 3710 3617 3609 3702 3711 3618 3610 3703
8 3711 3618 3610 3703 3712 3619 3611 3704
8 3712 3619 3611 3704 3713 3620 3612 3705
8 3714 3621 3613 3706 3715 3622 3614 3707
8 3715 3622 3614 3707 3716 3623 3615 3708
8 3716 3623 3615 3708 3717 3624 3616 3709
8 3717 3624 3616 3709 3718 3625 3617 3710
8 3718 3625 3617 3710 3719 3626 3618 3711
8 3719 3626 3618 3711 3720 3627 3619 3712
8 3720 3627 3619 3712 3721 3628 3620 3713
8 3722 3629 3621 3714 3723 3630 3622 3715
8 3723 3630 3622 3715 3724 3631 3623 3716
8 3724 3631 3623 3716 3725 3632 3624 3717
8 3725 3632 3624 3717 3726 3633 3625 3718
8 3726 3633 3625 3718 3727 3634 3626 3719
8 3727 3634 3626 3719 3728 3635 3627 3720
8 3728 3635 3627 3720 3729 3636 3628 3721
8 3731 3638 3629 3722 3732 3639 3630 3723
8 3732 3639 3630 3723 3733 3640 3631 3724
8 3733 3640 3631 3724 3734 3641 3632 3725
8 3734 3641 3632 3725 3735 3642 3633 3726
8 3735 3642 3633 3726 3736 3643 3634 3727
8 3736 3643 3634 3727 3737 3644 3635 3728
8 3737 3644 3635 3728 3738 3645 3636 3729
8 3739 3646 3637 3730 3740 3647 3638 3731
8 3740 3647 3638 3731 3741 3648 3639 3732
8 3741 3648 3639 3732 3742 3649 3640 3733
8 3742 3649 3640 3733 3743 3650 3641 3734
8 3743 3650 3641 3734 3744 3651 3642 3735
8 3744 3651 3642 3735 3745 3652 3643 3736
8 3745 3652 3643 3736 3746 3653 3644 3737
8 3746 3653 3644 3737 3747 3654 3645 3738
8 3748 3655 3646 3739 3749 3656 3647 3740
8 3749 3656 3647 3740 3750 3657 3648 3741
8 3750 3657 3648 3741 3751 3658 3649 3742
8 3751 3658 3649 3742 3752 3659 3650 3743
8 3752 3659 3650 3743 3753 3660 3651 3744
8 3753 3660 3651 3744 3754 3661 3652 3745
8 3754 3661 3652 3745 3755 3662 3653 3746
8 3755 3662 3653 3746 3756 3663 3654 3747
8 3757 3664 3655 3748 3758 3665 3656 3749
8 3758 3665 3656 3749 3759 3666 3657 3750
8 3759 3666 3657 3750 3760 3667 3658 3751
8 3760 3667 3658 3751 3761 3668 3659 3752
8 3761 3668 3659 3752 3762 3669 3660 3753
8 3762 3669 3660 3753 3763 3670 3661 3754
8 3763 3670 3661 3754 3764 3671 3662 3755
8 3764 3671 3662 3755 3765 3672 3663 3756
8 3767 3674 3989 3994 3768 3675 3990 3995
8 3768 3675 3990 3995 3769 3676 3991 3996
8 3769 3676 3991 3996 3770 3677 3992 3997
8 3770 3677 3992 3997 3771 3678 3993 3998
8 3772 3679 3673 3766 3773 3680 3674 3767
8 3773 3680 3674 3767 3774 3681 3675 3768
8 3774 3681 3675 3768 3775 3682 3676 3769
8 3775 3682 3676 3769 3776 3683 3677 3770
8 3776 3683 3677 3770 3777 3684 3678 3771
8 3779 3686 3679 3772 3780 3687 3680 3773
8 3780 3687 3680 3773 3781 3688 3681 3774
8 3781 3688 3681 3774 3782 3689 3682 3775
8 3782 3689 3682 3775 3783 3690 3683 3776
8 3783 3690 3683 3776 3784 3691 3684 3777
8 3785 3692 3685 3778 3786 3693 3686 3779
8 3786 3693 3686 3779 3787 3694 3687 3780
8 3787 3694 3687 3780 3788 3695 3688 3781
8 3788 3695 3688 3781 3789 3696 3689 3782
8 3789 3696 3689 3782 3790 3697 3690 3783
8 3790 3697 3690 3783 3791 3698 3691 3784
8 3792 3699 3692 3785 3793 3700 3693 3786
8 3793 3700 3693 3786 3794 3701 3694 3787
8 3794 3701 3694 3787 3795 3702 3695 3788
8 3795 3702 3695 3788 3796 3703 3696 3789
8 3796 3703 3696 3789 3797 3704 3697 3790
8 3797 3704 3697 3790 3798 3705 3698 3791
8 3800 3707 3699 3792 3801 3708 3700 3793
8 3801 3708 3700 3793 3802 3709 3701 3794
8 3802 3709 3701 3794 3803 3710 3702 3795
8 3803 3710 3702 3795 3804 3711 3703 3796
8 3804 3711 3703 3796 3805 3712 3704 3797
8 3805 3712 3704 3797 3806 3713 3705 3798
8 3807 3714 3706 3799 3808 3715 3707 3800
8 3808 3715 3707 3800 3809 3716 3708 3801
8 3809 3716 3708 3801 3810 3717 3709 3802
8 3810 3717 3709 3802 3811 3718 3710 3803
8 3811 3718 3710 3803 3812 3719 3711 3804
8 3812 3719 3711 3804 3813 3720 3712 3805
8 3813 3720 3712 3805 3814 3721 3713 3806
8 3815 3722 3714 3807 3816 3723 3715 3808
8 3816 3723 3715 3808 3817 3724 3716 3809
8 3817 3724 3716 3809 3818 3725 3717 3810
8 3818 3725 3717 3810 3819 3726 3718 3811
8 3819 3726 3718 3811 3820 3727 3719 3812
8 3820 3727 3719 3812 3821 3728 3720 3813
8 3821 3728 3720 3813 3822 3729 3721 3814
8 3824 3731 3722 3815 3825 3732 3723 3816
8 3825 3732 3723 3816 3826 3733 3724 3817
8 3826 3733 3724 3817 3827 3734 3725 3818
8 3827 3734 3725 3818 3828 3735 3726 3819
8 3828 3735 3726 3819 3829 3736 3727 3820
8 3829 3736 3727 3820 3830 3737 3728 3821
8 3830 3737 3728 3821 3831 3738 3729 3822
8 3832 3739 3730 3823 3833 3740 3731 3824
8 3833 3740 3731 3824 3834 3741 3732 3825
8 3834 3741 3732 3825 3835 3742 3733 3826
8 3835 3742 3733 3826 3836 3743 3734 3827
8 3836 3743 3734 3827 3837 3744 3735 3828
8 3837 3744 3735 3828 3838 3745 3736 3829
8 3838 3745 3736 3829 3839 3746 3737 3830
8 3839 3746 3737 3830 3840 3747 3738 3831
8 3841 3748 3739 3832 3842 3749 3740 3833
8 3842 3749 3740 3833 3843 3750 3741 3834
8 3843 3750 3741 3834 3844 3751 3742 3835
8 3844 3751 3742 3835 3845 3752 3743 3836
8 3845 3752 3743 3836 3846 3753 3744 3837
8 3846 3753 3744 3837 3847 3754 3745 3838
8 3847 3754 3745 3838 3848 3755 3746 3839
8 3848 3755 3746 3839 3849 3756 3747 3840
8 3850 3757 3748 3841 3851 3758 3749 3842
8 3851 3758 3749 3842 3852 3759 3750 3843
8 3852 3759 3750 3843 3853 3760 3751 3844
8 3853 3760 3751 3844 3854 3761 3752 3845
8 3854 3761 3752 3845 3855 3762 3753 3846
8 3855 3762 3753 3846 3856 3763 3754 3847
8 3856 3763 3754 3847 3857 3764 3755 3848
8 3857 3764 3755 3848 3858 3765 3756 3849
8 1258 3767 3994 3863 1259 3768 3995 3864
8 1259 3768 3995 3864 1260 3769 3996 3865
8 1260 3769 3996 3865 1261 3770 3997 3866
8 1261 3770 3997 3866 1262 3771 3998 3867
8 1263 3772 3766 1257 1264 3773 3767 1258
8 1264 3773 3767 1258 1265 3774 3768 1259
8 1265 3774 3768 1259 1266 3775 3769 1260
8 1266 3775 3769 1260 1267 3776 3770 1261
8 1267 3776 3770 1261 1268 3777 3771 1262
8 1270 3779 3772 1263 1271 3780 3773 1264
8 1271 3780 3773 1264 1272 3781 3774 1265
8 1272 3781 3774 1265 1273 3782 3775 1266
8 1273 3782 3775 1266 1274 3783 3776 1267
8 1274 3783 3776 1267 1275 3784 3777 1268
8 1276 3785 3778 1269 1277 3786 3779 1270
8 1277 3786 3779 1270 1278 3787 3780 1271
8 1278 3787 3780 1271 1279 3788 3781 1272
8 1279 3788 3781 1272 1280 3789 3782 1273
8 1280 3789 3782 1273 1281 3790 3783 1274
8 1281 3790 3783 1274 1282 3791 3784 1275
8 1283 3792 3785 1276 1284 3793 3786 1277
8 1284 3793 3786 1277 1285 3794 3787 1278
8 1285 3794 3787 1278 1286 3795 3788 1279
8 1286 3795 3788 1279 1287 3796 3789 1280
8 1287 3796 3789 1280 1288 3797 3790 1281
8 1288 3797 3790 1281 1289 3798 3791 1282
8 1291 3800 3792 1283 1292 3801 3793 1284
8 1292 3801 3793 1284 1293 3802 3794 1285
8 1293 3802 3794 1285 1294 3803 3795 1286
8 1294 3803 3795 1286 1295 3804 3796 1287
8 1295 3804 3796 1287 1296 3805 3797 1288
8 1296 3805 3797 1288 1297 3806 3798 1289
8 1298 3807 3799 1290 1299 3808 3800 1291
8 1299 3808 3800 1291 1300 3809 3801 1292
8 1300 3809 3801 1292 1301 3810 3802 1293
8 1301 3810 3802 1293 1302 3811 3803 1294
8 1302 3811 3803 1294 1303 3812 3804 1295
8 1303 3812 3804 1295 1304 3813 3805 1296
8 1304 3813 3805 1296 1305 3814 3806 1297
8 1306 3815 3807 1298 1307 3816 3808 1299
8 1307 3816 3808 1299 1308 3817 3809 1300
8 1308 3817 3809 1300 1309 3818 3810 1301
8 1309 3818 3810 1301 1310 3819 3811 1302
8 1310 3819 3811 1302 1311 3820 3812 1303
8 1311 3820 3812 1303 1312 3821 3813 1304
8 1312 3821 3813 1304 1313 3822 3814 1305
8 1315 3824 3815 1306 1316 3825 3816 1307
8 1316 3825 3816 1307 1317 3826 3817 1308
8 1317 3826 3817 1308 1318 3827 3818 1309
8 1318 3827 3818 1309 1319 3828 3819 1310
8 1319 3828 3819 1310 1320 3829 3820 1311
8 1320 3829 3820 1311 1321 3830 3821 1312
8 1321 3830 3821 1312 1322 3831 3822 1313
8 1323 3832 3823 1314 1324 3833 3824 1315
8 1324 3833 3824 1315 1325 3834 3825 1316
8 1325 3834 3825 1316 1326 3835 3826 1317
8 1326 3835 3826 1317 1327 3836 3827 1318
8 1327 3836 3827 1318 1328 3837 3828 1319
8 1328 3837 3828 1319 1329 3838 3829 1320
8 1329 3838 3829 1320 1330 3839 3830 1321
8 1330 3839 3830 1321 1331 3840 3831 1322
8 1332 3841 3832 1323 1333 3842 3833 1324
8 1333 3842 3833 1324 1334 3843 3834 1325
8 1334 3843 3834 1325 1335 3844 3835 1326
8 1335 3844 3835 1326 1336 3845 3836 1327
8 1336 3845 3836 1327 1337 3846 3837 1328
8 1337 3846 3837 1328 1338 3847 3838 1329
8 1338 3847 3838 1329 1339 3848 3839 1330
8 1339 3848 3839 1330 1340 3849 3840 1331
8 1341 3850 3841 1332 1342 3851 3842 1333
8 1342 3851 3842 1333 1343 3852 3843 1334
8 1343 3852 3843 1334 1344 3853 3844 1335
8 1344 3853 3844 1335 1345 3854 3845 1336
8 1345 3854 3845 1336 1346 3855 3846 1337
8 1346 3855 3846 1337 1347 3856 3847 1338
8 1347 3856 3847 1338 1348 3857 3848 1339
8 1348 3857 3848 1339 1349 3858 3849 1340
8 1448 1351 3868 3873 1450 1352 3869 3875
8 1450 1352 3869 3875 1452 1353 3870 3877
8 1452 1353 3870 3877 1454 1354 3871 3879
8 1456 1355 1350 1446 1458 1356 1351 1448
8 1458 1356 1351 1448 1460 1357 1352 1450
8 1460 1357 1352 1450 1462 1358 1353 1452
8 1462 1358 1353 1452 1464 1359 1354 1454
8 1468 1361 1355 1456 1470 1362 1356 1458
8 1470 1362 1356 1458 1472 1363 1357 1460
8 1472 1363 1357 1460 1474 1364 1358 1462
8 1474 1364 1358 1462 1476 1365 1359 1464
8 1480 1367 1360 1466 1482 1368 1361 1468
8 1482 1368 1361 1468 1484 1369 1362 1470
8 1484 1369 1362 1470 1486 1370 1363 1472
8 1486 1370 1363 1472 1488 1371 1364 1474
8 1488 1371 1364 1474 1490 1372 1365 1476
8 1490 1372 1365 1476 1492 1373 1366 1478
8 1494 1374 1367 1480 1496 1375 1368 1482
8 1496 1375 1368 1482 1498 1376 1369 1484
8 1498 1376 1369 1484 1500 1377 1370 1486
8 1500 1377 1370 1486 1502 1378 1371 1488
8 1502 1378 1371 1488 1504 1379 1372 1490
8 1504 1379 1372 1490 1506 1380 1373 1492
8 1510 1382 1374 1494 1512 1383 1375 1496
8 1512 1383 1375 1496 1514 1384 1376 1498
8 1514 1384 1376 1498 1516 1385 1377 1500
8 1516 1385 1377 1500 1518 1386 1378 1502
8 1518 1386 1378 1502 1520 1387 1379 1504
8 1520 1387 1379 1504 1522 1388 1380 1506
8 1524 1389 1381 1508 1526 1390 1382 1510
8 1526 1390 1382 1510 1528 1391 1383 1512
8 1528 1391 1383 1512 1530 1392 1384 1514
8 1530 1392 1384 1514 1532 1393 1385 1516
8 1532 1393 1385 1516 1534 1394 1386 1518
8 1534 1394 1386 1518 1536 1395 1387 1520
8 1536 1395 1387 1520 1538 1396 1388 1522
8 1540 1397 1389 1524 1542 1398 1390 1526
8 1542 1398 1390 1526 1544 1399 1391 1528
8 1544 1399 1391 1528 1546 1400 1392 1530
8 1546 1400 1392 1530 1548 1401 1393 1532
8 1548 1401 1393 1532 1550 1402 1394 1534
8 1550 1402 1394 1534 1552 1403 1395 1536
8 1552 1403 1395 1536 1554 1404 1396 1538
8 1558 1406 1397 1540 1560 1407 1398 1542
8 1560 1407 1398 1542 1562 1408 1399 1544
8 1562 1408 1399 1544 1564 1409 1400 1546
8 1564 1409 1400 1546 1566 1410 1401 1548
8 1566 1410 1401 1548 1568 1411 1402 1550
8 1568 1411 1402 1550 1570 1412 1403 1552
8 1570 1412 1403 1552 1572 1413 1404 1554
8 1574 1414 1405 1556 1576 1415 1406 1558
8 1576 1415 1406 1558 1578 1416 1407 1560
8 1578 1416 1407 1560 1580 1417 1408 1562
8 1580 1417 1408 1562 1582 1418 1409 1564
8 1582 1418 1409 1564 1584 1419 1410 1566
8 1584 1419 1410 1566 1586 1420 1411 1568
8 1586 1420 1411 1568 1588 1421 1412 1570
8 1588 1421 1412 1570 1590 1422 1413 1572
8 1593 1425 1414 1574 1595 1426 1415 1576
8 1595 1426 1415 1576 1597 1427 1416 1578
8 1597 1427 1416 1578 1599 1428 1417 1580
8 1599 1428 1417 1580 1601 1429 1418 1582
8 1601 1429 1418 1582 1603 1430 1419 1584
8 1603 1430 1419 1584 1605 1431 1420 1586
8 1605 1431 1420 1586 1607 1432 1421 1588
8 1607 1432 1421 1588 1609 1433 1422 1590
8 1610 1435 1424 1591 1612 1436 1425 1593
8 1612 1436 1425 1593 1614 1437 1426 1595
8 1614 1437 1426 1595 1616 1438 1427 1597
8 1616 1438 1427 1597 1618 1439 1428 1599
8 1618 1439 1428 1599 1620 1440 1429 1601
8 1620 1440 1429 1601 1622 1441 1430 1603
8 1622 1441 1430 1603 1624 1442 1431 1605
8 1624 1442 1431 1605 1626 1443 1432 1607
8 1626 1443 1432 1607 1628 1444 1433 1609
8 1632 1447 3872 3881 1634 1449 3874 3883
8 1634 1449 3874 3883 1636 1451 3876 3885
8 1636 1451 3876 3885 1638 1453 3878 3887
8 1641 1455 1445 1630 1643 1457 1447 1632
8 1643 1457 1447 1632 1645 1459 1449 1634
8 1645 1459 1449 1634 1647 1461 1451 1636
8 1647 1461 1451 1636 1649 1463 1453 1638
8 1654 1467 1455 1641 1656 1469 1457 1643
8 1656 1469 1457 1643 1658 1471 1459 1645
8 1658 1471 1459 1645 1660 1473 1461 1647
8 1660 1473 1461 1647 1662 1475 1463 1649
8 1666 1479 1465 1652 1668 1481 1467 1654
8 1668 1481 1467 1654 1670 1483 1469 1656
8 1670 1483 1469 1656 1672 1485 1471 1658
8 1672 1485 1471 1658 1674 1487 1473 1660
8 1674 1487 1473 1660 1676 1489 1475 1662
8 1676 1489 1475 1662 1678 1491 1477 1664
8 1680 1493 1479 1666 1682 1495 1481 1668
8 1682 1495 1481 1668 1684 1497 1483 1670
8 1684 1497 1483 1670 1686 1499 1485 1672
8 1686 1499 1485 1672 1688 1501 1487 1674
8 1688 1501 1487 1674 1690 1503 1489 1676
8 1690 1503 1489 1676 1692 1505 1491 1678
8 1696 1509 1493 1680 1698 1511 1495 1682
8 1698 1511 1495 1682 1700 1513 1497 1684
8 1700 1513 1497 1684 1702 1515 1499 1686
8 1702 1515 1499 1686 1704 1517 1501 1688
8 1704 1517 1501 1688 1706 1519 1503 1690
8 1706 1519 1503 1690 1708 1521 1505 1692
8 1710 1523 1507 1694 1712 1525 1509 1696
8 1712 1525 1509 1696 1714 1527 1511 1698
8 1714 1527 1511 1698 1716 1529 1513 1700
8 1716 1529 1513 1700 1718 1531 1515 1702
8 1718 1531 1515 1702 1720 1533 1517 1704
8 1720 1533 1517 1704 1722 1535 1519 1706
8 1722 1535 1519 1706 1724 1537 1521 1708
8 1726 1539 1523 1710 1728 1541 1525 1712
8 1728 1541 1525 1712 1730 1543 1527 1714
8 1730 1543 1527 1714 1732 1545 1529 1716
8 1732 1545 1529 1716 1734 1547 1531 1718
8 1734 1547 1531 1718 1736 1549 1533 1720
8 1736 1549 1533 1720 1738 1551 1535 1722
8 1738 1551 1535 1722 1740 1553 1537 1724
8 1744 1557 1539 1726 1746 1559 1541 1728
8 1746 1559 1541 1728 1748 1561 1543 1730
8 1748 1561 1543 1730 1750 1563 1545 1732
8 1750 1563 1545 1732 1752 1565 1547 1734
8 1752 1565 1547 1734 1754 1567 1549 1736
8 1754 1567 1549 1736 1756 1569 1551 1738
8 1756 1569 1551 1738 1758 1571 1553 1740
8 1760 1573 1555 1742 1762 1575 1557 1744
8 1762 1575 1557 1744 1764 1577 1559 1746
8 1764 1577 1559 1746 1766 1579 1561 1748
8 1766 1579 1561 1748 1768 1581 1563 1750
8 1768 1581 1563 1750 1770 1583 1565 1752
8 1770 1583 1565 1752 1772 1585 1567 1754
8 1772 1585 1567 1754 1774 1587 1569 1756
8 1774 1587 1569 1756 1776 1589 1571 1758
8 1778 1592 1573 1760 1780 1594 1575 1762
8 1780 1594 1575 1762 1782 1596 1577 1764
8 1782 1596 1577 1764 1784 1598 1579 1766
8 1784 1598 1579 1766 1786 1600 1581 1768
8 1786 1600 1581 1768 1788 1602 1583 1770
8 1788 1602 1583 1770 1790 1604 1585 1772
8 1790 1604 1585 1772 1792 1606 1587 1774
8 1792 1606 1587 1774 1794 1608 1589 1776
8 1796 1611 1592 1778 1798 1613 1594 1780
8 1798 1613 1594 1780 1800 1615 1596 1782
8 1800 1615 1596 1782 1802 1617 1598 1784
8 1802 1617 1598 1784 1804 1619 1600 1786
8 1804 1619 1600 1786 1806 1621 1602 1788
8 1806 1621 1602 1788 1808 1623 1604 1790
8 1808 1623 1604 1790 1810 1625 1606 1792
8 1810 1625 1606 1792 1812 1627 1608 1794
CELL_TYPES 2144
12
12
12
12
12
12
12
12
12
12
12
12
12
12
12
12
12
12
12
12
12
12
12
12
12
12
12
12
12
12
12
12
12
12
12
12
12
12
12
12
12
12
12
12
12
12
12
12
12
12
12
12
12
12
12
12
12
12
12
12
12
12
12
12
12
12
12
12
12
12
12
12
12
12
12
12
12
12
12
12
12
12
12
12
12
12
12
12
12
12
12
12
12
12
12
12
12
12
12
12
12
12
12
12
12
12
12
12
12
12
12
12
12
12
12
12
12
12
12
12
12
12
12
12
12
12
12
12
12
12
12
12
12
12
12
12
12
12
12
12
12
12
12
12
12
12
12
12
12
12
12
12
12
12
12
12
12
12
12
12
12
12
12
12
12
12
12
12
12
12
12
12
12
12
12
12
12
12
12
12
12
12
12
12
12
12
12
12
12
12
12
12
12
12
12
12
12
12
12
12
12
12
12
12
12
12
12
12
12
12
12
12
12
12
12
12
12
12
12
12
12
12
12
12
12
12
12
12
12
12
12
12
12
12
12
12
12
12
12
12
12
12
12
12
12
12
12
12
12
12
12
12
12
12
12
12
12
12
12
12
12
12
12
12
12
12
12
12
12
12
12
12
12
12
12
12
12
12
12
12
12
12
12
12
12
12
12
12
12
12
12
12
12
12
12
12
12
12
12
12
12
12
12
12
12
12
12
12
12
12
12
12
12
12
12
12
12
12
12
12
12
12
12
12
12
12
12
12
12
12
12
12
12
12
12
12
12
12
12
12
12
12
12
12
12
12
12
12
12
12
12
12
12
12
12
12
12
12
12
12
12
12
12
12
12
12
12
12
12
12
12
12
12
12
12
12
12
12
12
12
12
12
12
12
12
12
12
12
12
12
12
12
12
12
12
12
12
12
12
12
12
12
12
12
12
12
12
12
12
12
12
12
12
12
12
12
12
12
12
12
12
12
12
12
12
12
12
12
12
12
12
12
12
12
12
12
12
12
12
12
12
12
12
12
12
12
12
12
12
12
12
12
12
12
12
12
12
12
12
12
12
12
12
12
12
12
12
12
12
12
12
12
12
12
12
12
12
12
12
12
12
12
12
12
12
12
12
12
12
12
12
12
12
12
12
12
12
12
12
12
12
12
12
12
12
12
12
12
12
12
12
12
12
12
12
12
12
12
12
12
12
12
12
12
12
12
12
12
12
12
12
12
12
12
12
12
12
12
12
12
12
12
12
12
12
12
12
12
12
12
12
12
12
12
12
12
12
12
12
12
12
12
12
12
12
12
12
12
12
12
12
12
12
12
12
12
12
12
12
12
12
12
12
12
12
12
12
12
12
12
12
12
12
12
12
12
12
12
12
12
12
12
12
12
12
12
12
12
12
12
12
12
12
12
12
12
12
12
12
12
12
12
12
12
12
12
12
12
12
12
12
12
12
12
12
12
12
12
12
12
12
12
12
12
12
12
12
12
12
12
12
12
12
12
12
12
12
12
12
12
12
12
12
12
12
12
12
12
12
12
12
12
12
12
12
12
12
12
12
12
12
12
12
12
12
12
12
12
12
12
12
12
12
12
12
12
12
12
12
12
12
12
12
12
12
12
12
12
12
12
12
12
12
12
12
12
12
12
12
12
12
12
12
12
12
12
12
12
12
12
12
12
12
12
12
12
12
12
12
12
12
12
12
12
12
12
12
12
12
12
12
12
12
12
12
12
12
12
12
12
12
12
12
12
12
12
12
12
12
12
12
12
12
12
12
12
12
12
12
12
12
12
12
12
12
12
12
12
12
12
12
12
12
12
12
12
12
12
12
12
12
12
12
12
12
12
12
12
12
12
12
12
12
12
12
12
12
12
12
12
12
12
12
12
12
12
12
12
12
12
12
12
12
12
12
12
12
12
12
12
12
12
12
12
12
12
12
12
12
12
12
12
12
12
12
12
12
12
12
12
12
12
12
12
12
12
12
12
12
12
12
12
12
12
12
12
12
12
12
12
12
12
12
12
12
12
12
12
12
12
12
12
12
12
12
12
12
12
12
12
12
12
12
12
12
12
12
12
12
12
12
12
12
12
12
12
12
12
12
12
12
12
12
12
12
12
12
12
12
12
12
12
12
12
12
12
12
12
12
12
12
12
12
12
12
12
12
12
12
12
12
12
12
12
12
12
12
12
12
12
12
12
12
12
12
12
12
12
12
12
12
12
12
12
12
12
12
12
12
12
12
12
12
12
12
12
12
12
12
12
12
12
12
12
12
12
12
12
12
12
12
12
12
12
12
12
12
12
12
12
12
12
12
12
12
12
12
12
12
12
12
12
12
12
12
12
12
12
12
12
12
12
12
12
12
12
12
12
12
12
12
12
12
12
12
12
12
12
12
12
12
12
12
12
12
12
12
12
12
12
12
12
12
12
12
12
12
12
12
12
12
12
12
12
12
12
12
12
12
12
12
12
12
12
12
12
12
12
12
12
12
12
12
12
12
12
12
12
12
12
12
12
12
12
12
12
12
12
12
12
12
12
12
12
12
12
12
12
12
12
12
12
12
12
12
12
12
12
12
12
12
12
12
12
12
12
12
12
12
12
12
12
12
12
12
12
12
12
12
12
12
12
12
12
12
12
12
12
12
12
12
12
12
12
12
12
12
12
12
12
12
12
12
12
12
12
12
12
12
12
12
12
12
12
12
12
12
12
12
12
12
12
12
12
12
12
12
12
12
12
12
12
12
12
12
12
12
12
12
12
12
12
12
12
12
12
12
12
12
12
12
12
12
12
12
12
12
12
12
12
12
12
12
12
12
12
12
12
12
12
12
12
12
12
12
12
12
12
12
12
12
12
12
12
12
12
12
12
12
12
12
12
12
12
12
12
12
12
12
12
12
12
12
12
12
12
12
12
12
12
12
12
12
12
12
12
12
12
12
12
12
12
12
12
12
12
12
12
12
12
12
12
12
12
12
12
12
12
12
12
12
12
12
12
12
12
12
12
12
12
12
12
12
12
12
12
12
12
12
12
12
12
12
12
12
12
12
12
12
12
12
12
12
12
12
12
12
12
12
12
12
12
12
12
12
12
12
12
12
12
12
12
12
12
12
12
12
12
12
12
12
12
12
12
12
12
12
12
12
12
12
12
12
12
12
12
12
12
12
12
12
12
12
12
12
12
12
12
12
12
12
12
12
12
12
12
12
12
12
12
12
12
12
12
12
12
12
12
12
12
12
12
12
12
12
12
12
12
12
12
12
12
12
12
12
12
12
12
12
12
12
12
12
12
12
12
12
12
12
12
12
12
12
12
12
12
12
12
12
12
12
12
12
12
12
12
12
12
12
12
12
12
12
12
12
12
12
12
12
12
12
12
12
12
12
12
12
12
12
12
12
12
12
12
12
12
12
12
12
12
12
12
12
12
12
12
12
12
12
12
12
12
12
12
12
12
12
12
12
12
12
12
12
12
12
12
12
12
12
12
12
12
12
12
12
12
12
12
12
12
12
12
12
12
12
12
12
12
12
12
12
12
12
12
12
12
12
12
12
12
12
12
12
12
12
12
12
12
12
12
12
12
12
12
12
12
12
12
12
12
12
12
12
12
12
12
12
12
12
12
12
12
12
12
12
12
12
12
12
12
12
12
12
12
12
12
12
12
12
12
12
12
12
12
12
12
12
12
12
12
12
12
12
12
12
12
12
12
12
12
12
12
12
12
12
12
12
12
12
12
12
12
12
12
12
12
12
12
12
12
12
12
12
12
12
12
12
12
12
12
12
12
12
12
12
12
12
12
12
12
12
12
12
12
12
12
12
12
12
12
12
12
12
12
12
12
12
12
12
12
12
12
12
12
12
12
12
12
12
12
12
12
12
12
12
12
12
12
12
12
12
12
12
12
12
12
12
12
12
12
12
12
12
12
12
12
12
12
12
12
12
12
12
12
12
12
12
12
12
12
12
12
12
12
12
12
12
12
12
12
12
12
12
12
12
12
12
12
12
12
12
12
12
12
12
12
12
12
12
12
12
12
12
12
12
12
12
12
12
12
12
12
12
12
12
12
12
12
12
12
12
12
12
12
12
12
12
12
12
12
12
12
12
12
12
12
12
12
12
12
12
12
12
12
12
12
12
12
12
12
12
12
12
12
12
12
12
12
12
12
12
12
12
12
12
12
12
12
12
12
12
12
12
12
12
12
12
12
12
12
12
12
12
12
12
12
12
12
12
12
12
12
12
12
12
12
12
12
12
12
12
12
12
12
12
12
12
12
12
12
12
12
12
12
12
12
12
12
12
12
12
12
12
12
12
12
12
12
12
12
12
12
12
12
12
12
12
12
12
12
12
12
12
12
12
12
12
12
12
12
12
12
12
12
12
12
12
12
12
12
12
12
12
12
12
12
12
12
12
12
12
12
12
12
12
12
12
12
12
12
12
12
12
12
12
12
12
12
12
12
12
12
12
12
12
12
12
12
12
12
12
12
12
12
12
12
12
12
12
12
12
12
12
12
12
12
12
12
12
12
12
12
12
12
12
12
12
12
12
12
12
12
12
12
12
12
12
12
12
12
12
12
12
12
12
12
12
12
12
12
12
12
12
12
12
12
12
12
12
12
12
12
12
12
12
12
12
12
12
12
12
12
12
12
12
12
12
12
12
12
12
12
12
12
12
12
12
12
12
12
12
12
12
12
12
12
12
12
12
12
12
12
12
12
12
12
12
12
12
12
12
12
12
12
12
12
12
12
12
12
12
12
12
12
12
12
12
12
12
12
12
12
12
12
12
12
12
12
12
12
12
12
12
12
12
12
12
12
12
12
12
12
12
12
12
12
12
12
12
12
12
12
12
12
12
12
12
12
12
12
12
12
12
12
POINT_DATA 3999
SCALARS DISPLACEMENT double 3
LOOKUP_TABLE default
0 0 0
0 0 0
0 0 0
0 0 0
0 0 0
0 0 0
0 0 0
0 0 0
0 0 0
0 0 0
0 0 0
0 0 0
0 0 0
0 0 0
0 0 0
0 0 0
0 0 0
0 0 0
0 0 0
0 0 0
0 0 0
0 0 0
0 0 0
0 0 0
0 0 0
0 0 0
0 0 0
0 0 0
0 0 0
0 0 0
0 0 0
0 0 0
0 0 0
0 0 0
0 0 0
0 0 0
0 0 0
0 0 0
0 0 0
0 0 0
0 0 0
0 0 0
0 0 0
0 0 0
0 0 0
0 0 0
0 0 0
0 0 0
0 0 0
0 0 0
0 0 0
0 0 0
0 0 0
0 0 0
0 0 0
0 0 0
0 0 0
0 0 0
0 0 0
0 0 0
0 0 0
0 0 0
0 0 0
0 0 0
0 0 0
0 0 0
0 0 0
0 0 0
0 0 0
0 0 0
0 0 0
0 0 0
0 0 0
0 0 0
0 0 0
0 0 0
0 0 0
0 0 0
0 0 0
0 0 0
0 0 0
0 0 0
0 0 0
0 0 0
0 0 0
0 0 0
0 0 0
0 0 0
0 0 0
0 0 0
0 0 0
0 0 0
0 0 0
0 0 0
0 0 0
0 0 0
0 0 0
0 0 0
0 0 0
0 0 0
0 0 0
0 0 0
0 0 0
0 0 0
0 0 0
0 0 0
0 0 0
0 0 0
0 0 0
0 0 0
0 0 0
0 0 0
0 0 0
0 0 0
0 0 0
0 0 0
0 0 0
0 0 0
0 0 0
0 0 0
0 0 0
0 0 0
0 0 0
0 0 0
0 0 0
0 0 0
0 0 0
0 0 0
0 0 0
0 0 0
0 0 0
0 0 0
0 0 0
0 0 0
0 0 0
0 0 0
0 0 0
0 0 0
0 0 0
0 0 0
0 0 0
0 0 0
0 0 0
0 0 0
0 0 0
0 0 0
0 0 0
0 0 0
0 0 0
0 0 0
0 0 0
0 0 0
0 0 0
0 0 0
0 0 0
0 0 0
0 0 0
0 0 0
0 0 0
0 0 0
0 0 0
0 0 0
0 0 0
0 0 0
0 0 0
0 0 0
0 0 0
0 0 0
0 0 0
0 0 0
0 0 0
0 0 0
0 0 0
0 0 0
0 0 0
0 0 0
0 0 0
0 0 0
0 0 0
0 0 0
0 0 0
0 0 0
0 0 0
0 0 0
0 0 0
0 0 0
0 0 0
0 0 0
0 0 0
0 0 0
0 0 0
0 0 0
0 0 0
0 0 0
0 0 0
0 0 0
0 0 0
0 0 0
0 0 0
0 0 0
0 0 0
0 0 0
0 0 0
0 0 0
0 0 0
0 0 0
0 0 0
0 0 0
0 0 0
0 0 0
0 0 0
0 0 0
0 0 0
0 0 0
0 0 0
0 0 0
0 0 0
0 0 0
0 0 0
0 0 0
0 0 0
0 0 0
0 0 0
0 0 0
0 0 0
0 0 0
0 0 0
0 0 0
0 0 0
0 0 0
0 0 0
0 0 0
0 0 0
0 0 0
0 0 0
0 0 0
0 0 0
0 0 0
0 0 0
0 0 0
0 0 0
0 0 0
0 0 0
0 0 0
0 0 0
0 0 0
0 0 0
0 0 0
0 0 0
0 0 0
0 0 0
0 0 0
0 0 0
0 0 0
0 0 0
0 0 0
0 0 0
0 0 0
0 0 0
0 0 0
0 0 0
0 0 0
0 0 0
0 0 0
0 0 0
0 0 0
0 0 0
0 0 0
0 0 0
0 0 0
0 0 0
0 0 0
0 0 0
0 0 0
0 0 0
0 0 0
0 0 0
0 0 0
0 0 0
0 0 0
0 0 0
0 0 0
0 0 0
0 0 0
0 0 0
0 0 0
0 0 0
0 0 0
0 0 0
0 0 0
0 0 0
0 0 0
0 0 0
0 0 0
0 0 0
0 0 0
0 0 0
0 0 0
0 0 0
0 0 0
0 0 0
0 0 0
0 0 0
0 0 0
0 0 0
0 0 0
0 0 0
0 0 0
0 0 0
0 0 0
0 0 0
0 0 0
0 0 0
0 0 0
0 0 0
0 0 0
0 0 0
0 0 0
0 0 0
0 0 0
0 0 0
0 0 0
0 0 0
0 0 0
0 0 0
0 0 0
0 0 0
0 0 0
0 0 0
0 0 0
0 0 0
0 0 0
0 0 0
0 0 0
0 0 0
0 0 0
0 0 0
0 0 0
0 0 0
0 0 0
0 0 0
0 0 0
0 0 0
0 0 0
0 0 0
0 0 0
0 0 0
0 0 0
0 0 0
0 0 0
0 0 0
0 0 0
0 0 0
0 0 0
0 0 0
0 0 0
0 0 0
0 0 0
0 0 0
0 0 0
0 0 0
0 0 0
0 0 0
0 0 0
0 0 0
0 0 0
0 0 0
0 0 0
0 0 0
0 0 0
0 0 0
0 0 0
0 0 0
0 0 0
0 0 0
0 0 0
0 0 0
0 0 0
0 0 0
0 0 0
0 0 0
0 0 0
0 0 0
0 0 0
0 0 0
0 0 0
0 0 0
0 0 0
0 0 0
0 0 0
0 0 0
0 0 0
0 0 0
0 0 0
0 0 0
0 0 0
0 0 0
0 0 0
0 0 0
0 0 0
0 0 0
0 0 0
0 0 0
0 0 0
0 0 0
0 0 0
0 0 0
0 0 0
0 0 0
0 0 0
0 0 0
0 0 0
0 0 0
0 0 0
0 0 0
0 0 0
0 0 0
0 0 0
0 0 0
0 0 0
0 0 0
0 0 0
0 0 0
0 0 0
0 0 0
0 0 0
0 0 0
0 0 0
0 0 0
0 0 0
0 0 0
0 0 0
0 0 0
0 0 0
0 0 0
0 0 0
0 0 0
0 0 0
0 0 0
0 0 0
0 0 0
0 0 0
0 0 0
0 0 0
0 0 0
0 0 0
0 0 0
0 0 0
0 0 0
0 0 0
0 0 0
0 0 0
0 0 0
0 0 0
0 0 0
0 0 0
0 0 0
0 0 0
0 0 0
0 0 0
0 0 0
0 0 0
0 0 0
0 0 0
0 0 0
0 0 0
0 0 0
0 0 0
0 0 0
0 0 0
0 0 0
0 0 0
0 0 0
0 0 0
0 0 0
0 0 0
0 0 0
0 0 0
0 0 0
0 0 0
0 0 0
0 0 0
0 0 0
0 0 0
0 0 0
0 0 0
0 0 0
0 0 0
0 0 0
0 0 0
0 0 0
0 0 0
0 0 0
0 0 0
0 0 0
0 0 0
0 0 0
0 0 0
0 0 0
0 0 0
0 0 0
0 0 0
0 0 0
0 0 0
0 0 0
0 0 0
0 0 0
0 0 0
0 0 0
0 0 0
0 0 0
0 0 0
0 0 0
0 0 0
0 0 0
0 0 0
0 0 0
0 0 0
0 0 0
0 0 0
0 0 0
0 0 0
0 0 0
0 0 0
0 0 0
0 0 0
0 0 0
0 0 0
0 0 0
0 0 0
0 0 0
0 0 0
0 0 0
0 0 0
0 0 0
0 0 0
0 0 0
0 0 0
0 0 0
0 0 0
0 0 0
0 0 0
0 0 0
0 0 0
0 0 0
0 0 0
0 0 0
0 0 0
0 0 0
0 0 0
0 0 0
0 0 0
0 0 0
0 0 0
0 0 0
0 0 0
0 0 0
0 0 0
0 0 0
0 0 0
0 0 0
0 0 0
0 0 0
0 0 0
0 0 0
0 0 0
0 0 0
0 0 0
0 0 0
0 0 0
0 0 0
0 0 0
0 0 0
0 0 0
0 0 0
0 0 0
0 0 0
0 0 0
0 0 0
0 0 0
0 0 0
0 0 0
0 0 0
0 0 0
0 0 0
0 0 0
0 0 0
0 0 0
0 0 0
0 0 0
0 0 0
0 0 0
0 0 0
0 0 0
0 0 0
0 0 0
0 0 0
0 0 0
0 0 0
0 0 0
0 0 0
0 0 0
0 0 0
0 0 0
0 0 0
0 0 0
0 0 0
0 0 0
0 0 0
0 0 0
0 0 0
0 0 0
0 0 0
0 0 0
0 0 0
0 0 0
0 0 0
0 0 0
0 0 0
0 0 0
0 0 0
0 0 0
0 0 0
0 0 0
0 0 0
0 0 0
0 0 0
0 0 0
0 0 0
0 0 0
0 0 0
0 0 0
0 0 0
0 0 0
0 0 0
0 0 0
0 0 0
0 0 0
0 0 0
0 0 0
0 0 0
0 0 0
0 0 0
0 0 0
0 0 0
0 0 0
0 0 0
0 0 0
0 0 0
0 0 0
0 0 0
0 0 0
0 0 0
0 0 0
0 0 0
0 0 0
0 0 0
0 0 0
0 0 0
0 0 0
0 0 0
0 0 0
0 0 0
0 0 0
0 0 0
0 0 0
0 0 0
0 0 0
0 0 0
0 0 0
0 0 0
0 0 0
0 0 0
0 0 0
0 0 0
0 0 0
0 0 0
0 0 0
0 0 0
0 0 0
0 0 0
0 0 0
0 0 0
0 0 0
0 0 0
0 0 0
0 0 0
0 0 0
0 0 0
0 0 0
0 0 0
0 0 0
0 0 0
0 0 0
0 0 0
0 0 0
0 0 0
0 0 0
0 0 0
0 0 0
0 0 0
0 0 0
0 0 0
0 0 0
0 0 0
0 0 0
0 0 0
0 0 0
0 0 0
0 0 0
0 0 0
0 0 0
0 0 0
0 0 0
0 0 0
0 0 0
0 0 0
0 0 0
0 0 0
0 0 0
0 0 0
0 0 0
0 0 0
0 0 0
0 0 0
0 0 0
0 0 0
0 0 0
0 0 0
0 0 0
0 0 0
0 0 0
0 0 0
0 0 0
0 0 0
0 0 0
0 0 0
0 0 0
0 0 0
0 0 0
0 0 0
0 0 0
0 0 0
0 0 0
0 0 0
0 0 0
0 0 0
0 0 0
0 0 0
0 0 0
0 0 0
0 0 0
0 0 0
0 0 0
0 0 0
0 0 0
0 0 0
0 0 0
0 0 0
0 0 0
0 0 0
0 0 0
0 0 0
0 0 0
0 0 0
0 0 0
0 0 0
0 0 0
0 0 0
0 0 0
0 0 0
0 0 0
0 0 0
0 0 0
0 0 0
0 0 0
0 0 0
0 0 0
0 0 0
0 0 0
0 0 0
0 0 0
0 0 0
0 0 0
0 0 0
0 0 0
0 0 0
0 0 0
0 0 0
0 0 0
0 0 0
0 0 0
0 0 0
0 0 0
0 0 0
0 0 0
0 0 0
0 0 0
0 0 0
0 0 0
0 0 0
0 0 0
0 0 0
0 0 0
0 0 0
0 0 0
0 0 0
0 0 0
0 0 0
0 0 0
0 0 0
0 0 0
0 0 0
0 0 0
0 0 0
0 0 0
0 0 0
0 0 0
0 0 0
0 0 0
0 0 0
0 0 0
0 0 0
0 0 0
0 0 0
0 0 0
0 0 0
0 0 0
0 0 0
0 0 0
0 0 0
0 0 0
0 0 0
0 0 0
0 0 0
0 0 0
0 0 0
0 0 0
0 0 0
0 0 0
0 0 0
0 0 0
0 0 0
0 0 0
0 0 0
0 0 0
0 0 0
0 0 0
0 0 0
0 0 0
0 0 0
0 0 0
0 0 0
0 0 0
0 0 0
0 0 0
0 0 0
0 0 0
0 0 0
0 0 0
0 0 0
0 0 0
0 0 0
0 0 0
0 0 0
0 0 0
0 0 0
0 0 0
0 0 0
0 0 0
0 0 0
0 0 0
0 0 0
0 0 0
0 0 0
0 0 0
0 0 0
0 0 0
0 0 0
0 0 0
0 0 0
0 0 0
0 0 0
0 0 0
0 0 0
0 0 0
0 0 0
0 0 0
0 0 0
0 0 0
0 0 0
0 0 0
0 0 0
0 0 0
0 0 0
0 0 0
0 0 0
0 0 0
0 0 0
0 0 0
0 0 0
0 0 0
0 0 0
0 0 0
0 0 0
0 0 0
0 0 0
0 0 0
0 0 0
0 0 0
0 0 0
0 0 0
0 0 0
0 0 0
0 0 0
0 0 0
0 0 0
0 0 0
0 0 0
0 0 0
0 0 0
0 0 0
0 0 0
0 0 0
0 0 0
0 0 0
0 0 0
0 0 0
0 0 0
0 0 0
0 0 0
0 0 0
0 0 0
0 0 0
0 0 0
0 0 0
0 0 0
0 0 0
0 0 0
0 0 0
0 0 0
0 0 0
0 0 0
0 0 0
0 0 0
0 0 0
0 0 0
0 0 0
0 0 0
0 0 0
0 0 0
0 0 0
0 0 0
0 0 0
0 0 0
0 0 0
0 0 0
0 0 0
0 0 0
0 0 0
0 0 0
0 0 0
0 0 0
0 0 0
0 0 0
0 0 0
0 0 0
0 0 0
0 0 0
0 0 0
0 0 0
0 0 0
0 0 0
0 0 0
0 0 0
0 0 0
0 0 0
0 0 0
0 0 0
0 0 0
0 0 0
0 0 0
0 0 0
0 0 0
0 0 0
0 0 0
0 0 0
0 0 0
0 0 0
0 0 0
0 0 0
0 0 0
0 0 0
0 0 0
0 0 0
0 0 0
0 0 0
0 0 0
0 0 0
0 0 0
0 0 0
0 0 0
0 0 0
0 0 0
0 0 0
0 0 0
0 0 0
0 0 0
0 0 0
0 0 0
0 0 0
0 0 0
0 0 0
0 0 0
0 0 0
0 0 0
0 0 0
0 0 0
0 0 0
0 0 0
0 0 0
0 0 0
0 0 0
0 0 0
0 0 0
0 0 0
0 0 0
0 0 0
0 0 0
0 0 0
0 0 0
0 0 0
0 0 0
0 0 0
0 0 0
0 0 0
0 0 0
0 0 0
0 0 0
0 0 0
0 0 0
0 0 0
0 0 0
0 0 0
0 0 0
0 0 0
0 0 0
0 0 0
0 0 0
0 0 0
0 0 0
0 0 0
0 0 0
0 0 0
0 0 0
0 0 0
0 0 0
0 0 0
0 0 0
0 0 0
0 0 0
0 0 0
0 0 0
0 0 0
0 0 0
0 0 0
0 0 0
0 0 0
0 0 0
0 0 0
0 0 0
0 0 0
0 0 0
0 0 0
0 0 0
0 0 0
0 0 0
0 0 0
0 0 0
0 0 0
0 0 0
0 0 0
0 0 0
0 0 0
0 0 0
0 0 0
0 0 0
0 0 0
0 0 0
0 0 0
0 0 0
0 0 0
0 0 0
0 0 0
0 0 0
0 0 0
0 0 0
0 0 0
0 0 0
0 0 0
0 0 0
0 0 0
0 0 0
0 0 0
0 0 0
0 0 0
0 0 0
0 0 0
0 0 0
0 0 0
0 0 0
0 0 0
0 0 0
0 0 0
0 0 0
0 0 0
0 0 0
0 0 0
0 0 0
0 0 0
0 0 0
0 0 0
0 0 0
0 0 0
0 0 0
0 0 0
0 0 0
0 0 0
0 0 0
0 0 0
0 0 0
0 0 0
0 0 0
0 0 0
0 0 0
0 0 0
0 0 0
0 0 0
0 0 0
0 0 0
0 0 0
0 0 0
0 0 0
0 0 0
0 0 0
0 0 0
0 0 0
0 0 0
0 0 0
0 0 0
0 0 0
0 0 0
0 0 0
0 0 0
0 0 0
0 0 0
0 0 0
0 0 0
0 0 0
0 0 0
0 0 0
0 0 0
-0.157573 0.0121393 -0.0827799
-0.160531 0.0123427 -0.0837763
-0.163427 0.0125489 -0.0847497
-0.166247 0.0127584 -0.0856961
-0.168976 0.012972 -0.086611
-0.154353 0.0123894 -0.0824962
-0.157226 0.0125944 -0.0835002
-0.160041 0.0128023 -0.0844821
-0.162783 0.0130135 -0.0854379
-0.165439 0.0132287 -0.0863631
-0.148256 0.0124261 -0.0811764
-0.151087 0.01263 -0.0822056
-0.153874 0.0128362 -0.0832174
-0.156605 0.0130453 -0.084208
-0.159269 0.0132578 -0.0851736
-0.161851 0.0134744 -0.0861094
-0.164334 0.0136959 -0.08701
-0.14504 0.0126557 -0.0808723
-0.14778 0.0128605 -0.0819083
-0.150478 0.0130676 -0.082928
-0.153125 0.0132776 -0.0839276
-0.155709 0.0134909 -0.0849032
-0.158215 0.0137084 -0.08585
-0.160628 0.0139309 -0.0867624
-0.141789 0.0128753 -0.0805614
-0.144436 0.0130805 -0.0816044
-0.147045 0.0132881 -0.0826321
-0.149606 0.0134986 -0.0836409
-0.152108 0.0137123 -0.0846268
-0.154537 0.0139302 -0.085585
-0.156879 0.0141532 -0.0865097
-0.135926 0.0128814 -0.0791829
-0.138508 0.0130844 -0.080244
-0.141061 0.0132896 -0.081294
-0.143578 0.0134973 -0.0823298
-0.146052 0.0137077 -0.083348
-0.148471 0.0139215 -0.0843445
-0.150822 0.0141393 -0.0853144
-0.153091 0.0143623 -0.0862519
-0.132717 0.0130799 -0.0788532
-0.135201 0.0132825 -0.0799202
-0.137659 0.0134874 -0.0809772
-0.140084 0.0136946 -0.0820213
-0.142469 0.0139046 -0.0830491
-0.144803 0.0141178 -0.0840565
-0.147075 0.0143351 -0.0850385
-0.14927 0.0145575 -0.0859891
-0.129489 0.0132675 -0.0785174
-0.131874 0.0134692 -0.0795902
-0.134236 0.0136732 -0.0806542
-0.136567 0.0138796 -0.0817067
-0.138862 0.0140887 -0.0827443
-0.14111 0.0143008 -0.0837627
-0.143301 0.014517 -0.0847572
-0.145421 0.0147383 -0.0857214
-0.123942 0.0132459 -0.0770917
-0.126247 0.0134438 -0.0781756
-0.128533 0.0136441 -0.0792542
-0.130797 0.0138467 -0.0803253
-0.133034 0.0140517 -0.0813861
-0.135237 0.0142593 -0.0824335
-0.137398 0.0144699 -0.0834634
-0.139507 0.0146844 -0.0844706
-0.141551 0.0149039 -0.0854489
-0.120793 0.0134124 -0.0767397
-0.122996 0.0136083 -0.0778281
-0.125183 0.0138066 -0.0789124
-0.127349 0.0140073 -0.0799904
-0.12949 0.0142104 -0.0810597
-0.131601 0.014416 -0.0821171
-0.133673 0.0146245 -0.0831585
-0.135699 0.0148366 -0.0841789
-0.137665 0.0150537 -0.0851718
-0.113401 0.013189 -0.0741934
-0.115527 0.0133767 -0.0752881
-0.117642 0.0135672 -0.0763824
-0.119744 0.0137605 -0.0774752
-0.121831 0.0139563 -0.0785651
-0.123898 0.0141545 -0.07965
-0.125943 0.0143552 -0.0807277
-0.127959 0.0145581 -0.0817951
-0.129942 0.0147638 -0.0828482
-0.131882 0.014973 -0.0838821
-0.133771 0.015187 -0.0848901
-0.110457 0.0133386 -0.0738256
-0.11248 0.0135228 -0.0749226
-0.114494 0.0137099 -0.0760202
-0.116495 0.0139 -0.0771173
-0.118482 0.0140927 -0.0782125
-0.12045 0.0142878 -0.0793042
-0.122398 0.0144854 -0.0803902
-0.12432 0.0146852 -0.0814675
-0.126211 0.0148875 -0.0825325
-0.128066 0.0150929 -0.0835802
-0.129874 0.015303 -0.0846038
-0.156614 -0.00335885 -0.0744152
-0.159567 -0.00357178 -0.0756361
-0.162459 -0.00376634 -0.0768742
-0.165274 -0.0039402 -0.0781316
-0.167998 -0.00409104 -0.0794109
-0.170613 -0.00421648 -0.0807155
-0.15339 -0.00332872 -0.0743928
-0.156257 -0.00354639 -0.0756127
-0.159067 -0.00374554 -0.0768493
-0.161804 -0.00392369 -0.0781049
-0.164455 -0.00407834 -0.0793823
-0.167002 -0.00420696 -0.0806845
-0.147294 -0.00304738 -0.0731625
-0.150119 -0.0032858 -0.0743667
-0.1529 -0.00350807 -0.0755856
-0.155625 -0.00371171 -0.0768209
-0.158284 -0.00389409 -0.0780749
-0.16086 -0.00405254 -0.0793503
-0.163337 -0.00418437 -0.0806504
-0.144074 -0.00298671 -0.0731328
-0.146807 -0.00322948 -0.0743365
-0.149499 -0.00345618 -0.0755546
-0.15214 -0.0036642 -0.0767888
-0.154717 -0.00385075 -0.0780414
-0.157217 -0.004013 -0.0793149
-0.159624 -0.00414805 -0.0806128
-0.140819 -0.00291228 -0.0730985
-0.143459 -0.00315912 -0.0743019
-0.146061 -0.00339004 -0.0755194
-0.148615 -0.0036023 -0.0767527
-0.15111 -0.00379298 -0.078004
-0.153532 -0.00395902 -0.0792758
-0.155867 -0.0040973 -0.0805715
-0.134958 -0.00255976 -0.0718682
-0.137533 -0.00282347 -0.0730591
-0.140079 -0.00307407 -0.0742625
-0.142589 -0.00330896 -0.0754797
-0.145055 -0.00352531 -0.0767123
-0.147466 -0.00372003 -0.0779624
-0.14981 -0.00388986 -0.0792327
-0.152071 -0.00403143 -0.0805264
-0.131745 -0.00245292 -0.0718229
-0.134222 -0.00271966 -0.0730142
-0.136672 -0.00297363 -0.0742179
-0.139089 -0.00321221 -0.075435
-0.141465 -0.00343247 -0.0766673
-0.143791 -0.00363113 -0.0779165
-0.146055 -0.00380474 -0.0791854
-0.148242 -0.00394963 -0.0804773
-0.128513 -0.00233092 -0.0717715
-0.130891 -0.00260017 -0.0729635
-0.133244 -0.00285709 -0.0741676
-0.135567 -0.00309903 -0.075385
-0.137852 -0.00332295 -0.0766171
-0.140092 -0.00352544 -0.0778658
-0.142274 -0.00370281 -0.0791336
-0.144385 -0.00385109 -0.0804238
-0.122971 -0.00191249 -0.0705318
-0.125267 -0.00219316 -0.0717135
-0.127545 -0.00246434 -0.0729063
-0.129801 -0.00272371 -0.0741112
-0.132028 -0.00296861 -0.0753292
-0.134222 -0.00319591 -0.0765615
-0.136373 -0.00340207 -0.07781
-0.138472 -0.00358316 -0.079077
-0.140506 -0.00373489 -0.0803658
-0.119818 -0.00175765 -0.0704654
-0.122013 -0.00203904 -0.0716482
-0.124191 -0.00231149 -0.0728423
-0.126348 -0.00257274 -0.0740482
-0.128479 -0.0028201 -0.075267
-0.130579 -0.00305043 -0.0765
-0.132641 -0.00326006 -0.0777486
-0.134656 -0.00344482 -0.0790152
-0.136611 -0.00360007 -0.0803028
-0.116663 -0.00158664 -0.0703911
-0.118756 -0.00186796 -0.0715753
-0.120834 -0.00214094 -0.0727707
-0.122891 -0.00240338 -0.073978
-0.124926 -0.00265263 -0.075198
-0.126931 -0.00288555 -0.0764319
-0.128903 -0.00309836 -0.0776812
-0.130831 -0.0032867 -0.0789477
-0.132707 -0.00344555 -0.0802347
-0.113512 -0.00139894 -0.0703082
-0.115504 -0.0016793 -0.071494
-0.11748 -0.00195198 -0.072691
-0.119438 -0.00221483 -0.0738999
-0.121375 -0.00246529 -0.0751215
-0.123285 -0.00270023 -0.0763568
-0.125165 -0.00291585 -0.077607
-0.127006 -0.0031076 -0.0788741
-0.128801 -0.00327011 -0.0801609
-0.157549 0.0114681 -0.0824217
-0.160509 0.011653 -0.0834263
-0.163406 0.0118415 -0.0844095
-0.166228 0.0120341 -0.0853676
-0.168958 0.0122317 -0.0862963
-0.154328 0.0117081 -0.0821495
-0.157202 0.0118943 -0.0831614
-0.160018 0.012084 -0.0841527
-0.162763 0.012278 -0.0851196
-0.16542 0.012477 -0.086058
-0.148229 0.0117552 -0.0808353
-0.151061 0.0119393 -0.0818707
-0.153848 0.0121265 -0.0828899
-0.156581 0.0123172 -0.0838895
-0.159247 0.0125121 -0.0848657
-0.16183 0.0127121 -0.0858141
-0.164315 0.0129182 -0.0867298
-0.145011 0.0119769 -0.0805434
-0.147752 0.0121616 -0.0815854
-0.150452 0.0123493 -0.082612
-0.1531 0.0125406 -0.0836201
-0.155685 0.012736 -0.0846058
-0.158193 0.0129366 -0.0855646
-0.160607 0.0131434 -0.0864915
-0.141759 0.0121894 -0.0802449
-0.144407 0.0123743 -0.0812935
-0.147016 0.0125622 -0.0823278
-0.149578 0.0127537 -0.0833447
-0.152082 0.0129493 -0.0843401
-0.154513 0.01315 -0.0853097
-0.156856 0.013357 -0.0862481
-0.135894 0.0122106 -0.0788744
-0.138476 0.0123925 -0.07994
-0.14103 0.0125772 -0.0809953
-0.143548 0.0127649 -0.0820374
-0.146022 0.0129561 -0.0830632
-0.148442 0.0131513 -0.0840686
-0.150795 0.0133517 -0.0850493
-0.153066 0.0135585 -0.0859997
-0.132683 0.0124044 -0.0785576
-0.135168 0.0125858 -0.0796288
-0.137626 0.0127698 -0.0806908
-0.140052 0.0129569 -0.0817409
-0.142437 0.0131473 -0.0827757
-0.144773 0.0133418 -0.0837915
-0.147046 0.0135414 -0.0847836
-0.149243 0.0137473 -0.0857464
-0.129453 0.0125885 -0.0782346
-0.131839 0.0127688 -0.0793115
-0.134201 0.0129518 -0.0803802
-0.136533 0.0131377 -0.0814383
-0.138828 0.0133269 -0.0824825
-0.141078 0.0135201 -0.0835088
-0.14327 0.0137183 -0.0845127
-0.145392 0.0139229 -0.0854884
-0.123905 0.0125862 -0.0768186
-0.12621 0.0127623 -0.0779058
-0.128497 0.012941 -0.0789882
-0.130761 0.0131225 -0.0800637
-0.132998 0.0133068 -0.0811299
-0.135202 0.0134944 -0.0821834
-0.137363 0.0136858 -0.0832206
-0.139474 0.013882 -0.0842366
-0.141519 0.0140846 -0.0852256
-0.120755 0.0127514 -0.0764796
-0.122958 0.0129255 -0.0775712
-0.125145 0.0131022 -0.0786591
-0.127311 0.0132817 -0.0797414
-0.129453 0.0134639 -0.0808157
-0.131563 0.0136492 -0.0818788
-0.133636 0.0138382 -0.082927
-0.135663 0.0140319 -0.0839555
-0.137631 0.0142319 -0.0849583
-0.113362 0.0125717 -0.0739411
-0.115487 0.0127375 -0.0750382
-0.117602 0.0129062 -0.0761352
-0.119704 0.0130777 -0.0772312
-0.12179 0.0132519 -0.0783245
-0.123858 0.0134288 -0.0794135
-0.125903 0.0136084 -0.0804958
-0.12792 0.013791 -0.0815686
-0.129903 0.013977 -0.082628
-0.131844 0.0141674 -0.0836694
-0.133734 0.014364 -0.0846865
-0.110416 0.0127222 -0.0735862
-0.112439 0.0128847 -0.0746856
-0.114453 0.0130501 -0.0757859
-0.116453 0.0132184 -0.076886
-0.11844 0.0133895 -0.0779847
-0.120408 0.0135633 -0.0790802
-0.122356 0.0137398 -0.0801706
-0.124278 0.013919 -0.081253
-0.12617 0.0141014 -0.0823238
-0.128025 0.0142879 -0.0833783
-0.129834 0.0144803 -0.0844101
-0.157501 0.0101457 -0.081712
-0.157525 0.0108038 -0.0820673
-0.160462 0.0102948 -0.0827337
-0.160486 0.0109706 -0.0830804
-0.163362 0.0104486 -0.0837371
-0.163384 0.0111416 -0.0840737
-0.166186 0.0106082 -0.0847191
-0.166208 0.0113176 -0.0850438
-0.168919 0.0107744 -0.0856763
-0.168939 0.0114994 -0.0859866
-0.154277 0.0103662 -0.0814625
-0.154303 0.0110338 -0.0818065
-0.157153 0.0105159 -0.0824906
-0.157178 0.0112016 -0.0828265
-0.159971 0.0106705 -0.0835011
-0.159995 0.0113736 -0.0838274
-0.162718 0.0108308 -0.0844911
-0.162741 0.0115506 -0.0848059
-0.165378 0.0109979 -0.0854568
-0.1654 0.0117336 -0.0857579
-0.148173 0.010434 -0.0801583
-0.148201 0.0110912 -0.0804974
-0.151007 0.0105799 -0.0812066
-0.151034 0.0112561 -0.0815393
-0.153796 0.0107299 -0.0822412
-0.153823 0.0114245 -0.0825662
-0.156531 0.0108849 -0.0832592
-0.156556 0.0115972 -0.083575
-0.159199 0.0110456 -0.0842573
-0.159223 0.0117749 -0.0845621
-0.161785 0.0112131 -0.0852318
-0.161808 0.0119585 -0.0855235
-0.164272 0.0113888 -0.0861789
-0.164294 0.0121493 -0.0864548
-0.144953 0.0106405 -0.0798903
-0.144982 0.0113051 -0.0802175
-0.147696 0.0107864 -0.0809445
-0.147724 0.0114702 -0.0812656
-0.150396 0.0109365 -0.0819858
-0.150424 0.011639 -0.0822996
-0.153046 0.0110915 -0.0830113
-0.153073 0.0118119 -0.0833165
-0.155634 0.0112522 -0.0840178
-0.155659 0.0119899 -0.0843125
-0.158144 0.0114198 -0.0850016
-0.158169 0.0121738 -0.0852838
-0.160561 0.0115958 -0.0859585
-0.160585 0.0123651 -0.0862256
-0.141698 0.0108399 -0.0796159
-0.141729 0.0115109 -0.0799312
-0.144347 0.0109855 -0.0806761
-0.144377 0.0116759 -0.0809856
-0.146958 0.0111353 -0.0817243
-0.146987 0.0118446 -0.0820269
-0.149522 0.0112899 -0.0827576
-0.14955 0.0120174 -0.083052
-0.152027 0.0114503 -0.0837728
-0.152055 0.0121953 -0.0840573
-0.154461 0.0116176 -0.084766
-0.154487 0.0123791 -0.0850386
-0.156806 0.0117933 -0.0857332
-0.156831 0.0125704 -0.0859913
-0.13583 0.0108905 -0.0782605
-0.135862 0.0115467 -0.0785683
-0.138413 0.0110319 -0.0793353
-0.138444 0.0117082 -0.0796385
-0.140968 0.0111769 -0.0804016
-0.140999 0.0118728 -0.0806993
-0.143487 0.0113259 -0.0814568
-0.143518 0.012041 -0.081748
-0.145963 0.0114798 -0.0824981
-0.145993 0.0122133 -0.0827816
-0.148385 0.0116394 -0.0835222
-0.148414 0.0123906 -0.0837964
-0.15074 0.011806 -0.0845253
-0.150768 0.0125739 -0.0847882
-0.153013 0.011981 -0.085503
-0.15304 0.0127647 -0.0857522
-0.132617 0.0110757 -0.0779685
-0.13265 0.0117361 -0.078264
-0.135102 0.0112161 -0.0790486
-0.135135 0.0118968 -0.0793397
-0.137561 0.0113601 -0.080121
-0.137593 0.0120606 -0.0804069
-0.139988 0.0115082 -0.0811834
-0.14002 0.0122279 -0.0814632
-0.142374 0.0116609 -0.0822329
-0.142406 0.0123993 -0.0825054
-0.144711 0.0118193 -0.0832662
-0.144742 0.0125755 -0.08353
-0.146986 0.0119846 -0.0842794
-0.147016 0.0127578 -0.0845326
-0.149186 0.0121585 -0.0852681
-0.149214 0.0129475 -0.0855083
-0.129384 0.0112533 -0.0776706
-0.129419 0.0119167 -0.0779536
-0.13177 0.0113924 -0.0787558
-0.131805 0.0120761 -0.0790347
-0.134133 0.011535 -0.0798344
-0.134167 0.0122387 -0.0801085
-0.136466 0.0116816 -0.0809041
-0.1365 0.0124048 -0.0811724
-0.138762 0.0118328 -0.081962
-0.138795 0.0125747 -0.0822235
-0.141012 0.0119895 -0.0830048
-0.141045 0.0127495 -0.0832581
-0.143207 0.0121531 -0.0840285
-0.143238 0.0129302 -0.0842718
-0.145331 0.0123252 -0.0850285
-0.145361 0.0131184 -0.0852596
-0.123833 0.0112886 -0.0762726
-0.123869 0.0119332 -0.0765467
-0.126138 0.0114229 -0.0773667
-0.126174 0.0120882 -0.0776374
-0.128424 0.0115603 -0.0784571
-0.12846 0.012246 -0.0787238
-0.130689 0.0117012 -0.079542
-0.130725 0.0124069 -0.0798041
-0.132927 0.0118459 -0.0806191
-0.132963 0.0125712 -0.0808758
-0.135132 0.0119951 -0.0816856
-0.135166 0.0127393 -0.0819359
-0.137294 0.0121497 -0.0827381
-0.137329 0.0129121 -0.0829807
-0.139406 0.0123109 -0.0837726
-0.13944 0.0130906 -0.084006
-0.141454 0.0124808 -0.0847844
-0.141486 0.0132766 -0.0850063
-0.12068 0.011452 -0.0759589
-0.120717 0.0120974 -0.0762204
-0.122883 0.0115842 -0.0770571
-0.12292 0.0122502 -0.0773154
-0.12507 0.0117195 -0.0781527
-0.125107 0.012406 -0.0784072
-0.127236 0.0118583 -0.0792439
-0.127273 0.0125648 -0.079494
-0.129378 0.0120007 -0.0803284
-0.129415 0.0127269 -0.0805735
-0.131489 0.0121474 -0.0814036
-0.131526 0.0128927 -0.0816427
-0.133563 0.0122993 -0.0824661
-0.1336 0.0130628 -0.0826981
-0.135591 0.0124577 -0.0835117
-0.135627 0.0132386 -0.0837352
-0.137561 0.0126246 -0.0845357
-0.137596 0.0134218 -0.0847485
-0.115448 0.0121048 -0.0747887
-0.117524 0.0116073 -0.0756396
-0.117563 0.0122522 -0.0758886
-0.119626 0.0117369 -0.0767419
-0.119665 0.0124025 -0.0769879
-0.121712 0.0118698 -0.0778427
-0.121751 0.0125557 -0.078085
-0.12378 0.0120059 -0.0789401
-0.123819 0.0127119 -0.0791783
-0.125825 0.0121456 -0.0800321
-0.125863 0.0128713 -0.0802655
-0.127842 0.0122894 -0.0811161
-0.12788 0.0130342 -0.081344
-0.129826 0.0124381 -0.0821888
-0.129864 0.0132013 -0.0824101
-0.131768 0.012593 -0.083246
-0.131806 0.0133736 -0.0834594
-0.133659 0.0127562 -0.0842826
-0.133696 0.0135533 -0.0844862
-0.112399 0.0122531 -0.0744486
-0.114372 0.0117541 -0.075315
-0.114412 0.0123974 -0.0755517
-0.116373 0.0118808 -0.0764214
-0.116413 0.0125446 -0.0766551
-0.118358 0.0120106 -0.0775272
-0.118398 0.0126948 -0.0777574
-0.120326 0.0121437 -0.0786308
-0.120367 0.0128479 -0.0788571
-0.122274 0.0122803 -0.0797304
-0.122314 0.0130041 -0.0799522
-0.124196 0.0124206 -0.0808233
-0.124236 0.0131635 -0.0810399
-0.126088 0.0125655 -0.0819063
-0.126129 0.0133269 -0.0821169
-0.127944 0.0127163 -0.0829753
-0.127984 0.0134952 -0.0831787
-0.129755 0.012875 -0.0840251
-0.129794 0.0136704 -0.0842195
-0.157472 0.00949305 -0.0813596
-0.157472 0.00949257 -0.0813593
-0.160434 0.00962447 -0.0823902
-0.160434 0.00962396 -0.0823898
-0.163335 0.00976142 -0.0834042
-0.163335 0.00976089 -0.0834039
-0.16616 0.00990481 -0.0843989
-0.16616 0.00990425 -0.0843985
-0.168895 0.0100557 -0.0853709
-0.168895 0.0100551 -0.0853705
-0.17152 0.0102153 -0.086317
-0.154247 0.00970423 -0.0811211
-0.154247 0.00970373 -0.0811208
-0.157124 0.00983604 -0.0821577
-0.157124 0.00983551 -0.0821574
-0.159943 0.00997341 -0.0831785
-0.159943 0.00997286 -0.0831781
-0.162691 0.0101173 -0.0841805
-0.162691 0.0101167 -0.0841801
-0.165352 0.0102688 -0.0851605
-0.165352 0.0102682 -0.0851601
-0.16791 0.0104292 -0.0861152
-0.148142 0.00978239 -0.0798212
-0.148142 0.0097819 -0.079821
-0.150976 0.00990952 -0.0808764
-0.150976 0.009909 -0.0808762
-0.153766 0.0100414 -0.0819192
-0.153766 0.0100409 -0.0819189
-0.156501 0.0101789 -0.0829469
-0.156501 0.0101783 -0.0829466
-0.15917 0.0103229 -0.0839565
-0.15917 0.0103223 -0.0839562
-0.161758 0.0104747 -0.0849449
-0.161758 0.0104741 -0.0849445
-0.164246 0.0106355 -0.0859085
-0.164246 0.0106348 -0.085908
-0.144921 0.00998172 -0.0795648
-0.144921 0.00998121 -0.0795646
-0.147663 0.0101086 -0.0806256
-0.147663 0.0101081 -0.0806253
-0.150365 0.0102403 -0.0816747
-0.150365 0.0102398 -0.0816744
-0.153016 0.0103776 -0.0827095
-0.153016 0.010377 -0.0827092
-0.155604 0.0105214 -0.0837271
-0.155604 0.0105208 -0.0837267
-0.158115 0.0106731 -0.084724
-0.158115 0.0106724 -0.0847236
-0.160534 0.0108339 -0.0856968
-0.160534 0.0108332 -0.0856963
-0.141665 0.0101749 -0.0793022
-0.141665 0.0101744 -0.079302
-0.144314 0.0103014 -0.0803686
-0.144314 0.0103008 -0.0803684
-0.146926 0.0104325 -0.0814242
-0.146926 0.010432 -0.081424
-0.14949 0.0105692 -0.0824664
-0.14949 0.0105686 -0.0824661
-0.151996 0.0107125 -0.0834921
-0.151996 0.0107119 -0.0834918
-0.15443 0.0108636 -0.084498
-0.15443 0.0108629 -0.0844976
-0.156777 0.0110241 -0.0854803
-0.156777 0.0110234 -0.0854799
-0.135794 0.0102402 -0.0779537
-0.135794 0.0102397 -0.0779535
-0.138378 0.0103618 -0.0790335
-0.138378 0.0103613 -0.0790333
-0.140933 0.0104874 -0.0801056
-0.140933 0.0104869 -0.0801054
-0.143453 0.0106177 -0.0811679
-0.143453 0.0106171 -0.0811677
-0.145929 0.0107535 -0.0822176
-0.145929 0.0107529 -0.0822173
-0.148352 0.0108958 -0.0832517
-0.148352 0.0108951 -0.0832514
-0.150708 0.0110459 -0.0842668
-0.150708 0.0110452 -0.0842664
-0.152982 0.0112056 -0.085259
-0.152982 0.0112049 -0.0852586
-0.13258 0.0104215 -0.0776739
-0.13258 0.010421 -0.0776738
-0.135065 0.010542 -0.0787586
-0.135065 0.0105415 -0.0787585
-0.137525 0.0106665 -0.0798367
-0.137525 0.010666 -0.0798365
-0.139952 0.0107956 -0.0809057
-0.139952 0.010795 -0.0809055
-0.142339 0.0109301 -0.0819632
-0.142339 0.0109294 -0.0819629
-0.144677 0.011071 -0.0830059
-0.144677 0.0110703 -0.0830056
-0.146953 0.0112197 -0.0840305
-0.146953 0.011219 -0.0840302
-0.149153 0.0113781 -0.0850331
-0.149153 0.0113773 -0.0850327
-0.129346 0.0105963 -0.0773881
-0.129346 0.0105958 -0.077388
-0.131733 0.0107154 -0.0784778
-0.131733 0.0107148 -0.0784777
-0.134096 0.0108384 -0.0795618
-0.134096 0.0108378 -0.0795616
-0.136429 0.0109659 -0.0806377
-0.136429 0.0109653 -0.0806375
-0.138725 0.0110987 -0.0817031
-0.138725 0.011098 -0.0817029
-0.140976 0.0112378 -0.0827548
-0.140976 0.0112371 -0.0827546
-0.143171 0.0113846 -0.0837893
-0.143171 0.0113839 -0.083789
-0.145296 0.0115411 -0.0848025
-0.145296 0.0115403 -0.0848021
-0.123794 0.0106503 -0.0759987
-0.123794 0.0106498 -0.0759986
-0.126099 0.0107642 -0.0770964
-0.126099 0.0107637 -0.0770964
-0.128386 0.0108816 -0.0781911
-0.128386 0.010881 -0.078191
-0.130651 0.0110028 -0.0792811
-0.130651 0.0110022 -0.0792809
-0.132889 0.0111284 -0.0803641
-0.132889 0.0111277 -0.0803639
-0.135093 0.011259 -0.0814376
-0.135093 0.0112583 -0.0814374
-0.137257 0.0113958 -0.0824985
-0.137257 0.011395 -0.0824982
-0.139369 0.0115402 -0.0835431
-0.139369 0.0115394 -0.0835428
-0.141417 0.0116943 -0.0845673
-0.141418 0.0116935 -0.084567
-0.12064 0.0108132 -0.0756972
-0.12064 0.0108127 -0.0756971
-0.122843 0.0109251 -0.076799
-0.122843 0.0109245 -0.0767989
-0.12503 0.0110403 -0.0778987
-0.12503 0.0110397 -0.0778986
-0.127196 0.0111593 -0.0789946
-0.127196 0.0111587 -0.0789945
-0.129338 0.0112826 -0.0800847
-0.129338 0.0112819 -0.0800846
-0.13145 0.0114107 -0.0811665
-0.13145 0.0114099 -0.0811663
-0.133524 0.0115447 -0.0822368
-0.133524 0.0115439 -0.0822366
-0.135552 0.0116862 -0.083292
-0.135552 0.0116853 -0.0832917
-0.137523 0.0118372 -0.0843277
-0.137523 0.0118363 -0.0843273
-0.117483 0.0109691 -0.0753901
-0.117483 0.0109685 -0.0753901
-0.119585 0.0110785 -0.0764959
-0.119585 0.011078 -0.0764958
-0.121671 0.0111913 -0.0776005
-0.121671 0.0111907 -0.0776005
-0.123738 0.0113078 -0.0787025
-0.123738 0.0113071 -0.0787024
-0.125783 0.0114283 -0.0797998
-0.125783 0.0114275 -0.0797997
-0.1278 0.0115534 -0.08089
-0.127801 0.0115526 -0.0808898
-0.129785 0.0116841 -0.08197
-0.129785 0.0116833 -0.0819698
-0.131727 0.011822 -0.083036
-0.131727 0.0118212 -0.0830358
-0.133619 0.0119693 -0.0840836
-0.133619 0.0119684 -0.0840833
-0.11433 0.0111177 -0.0750775
-0.11433 0.0111172 -0.0750775
-0.11633 0.0112244 -0.0761873
-0.11633 0.0112238 -0.0761873
-0.118315 0.0113343 -0.0772968
-0.118315 0.0113337 -0.0772968
-0.120283 0.0114478 -0.0784048
-0.120283 0.0114471 -0.0784048
-0.122231 0.0115651 -0.0795093
-0.122231 0.0115644 -0.0795092
-0.124153 0.0116868 -0.080608
-0.124153 0.011686 -0.0806079
-0.126045 0.0118137 -0.0816979
-0.126045 0.0118129 -0.0816978
-0.127901 0.0119475 -0.0827752
-0.127901 0.0119466 -0.082775
-0.129712 0.0120903 -0.0838351
-0.129712 0.0120893 -0.0838348
-0.157442 0.00884399 -0.0810126
-0.160406 0.00895797 -0.0820528
-0.163307 0.00907814 -0.0830781
-0.166133 0.0092055 -0.0840859
-0.168869 0.00934117 -0.0850735
-0.171495 0.00948647 -0.0860379
-0.154216 0.00904589 -0.0807851
-0.157094 0.00915998 -0.0818309
-0.159914 0.00928031 -0.0828625
-0.162662 0.00940789 -0.0838772
-0.165325 0.00954392 -0.0848723
-0.167884 0.00968978 -0.0858447
-0.14811 0.00913426 -0.0794889
-0.150944 0.00924283 -0.0805515
-0.153735 0.00935676 -0.0816031
-0.156471 0.00947695 -0.0826411
-0.159141 0.00960444 -0.0836631
-0.161729 0.00974049 -0.0846659
-0.164219 0.00988655 -0.0856466
-0.144888 0.00932644 -0.079244
-0.147631 0.00943459 -0.0803119
-0.150333 0.00954809 -0.0813694
-0.152984 0.00966782 -0.0824142
-0.155573 0.00979489 -0.0834435
-0.158085 0.0099306 -0.0844544
-0.160505 0.0100765 -0.0854437
-0.14163 0.00951352 -0.078993
-0.14428 0.00962097 -0.0800662
-0.146892 0.00973373 -0.0811299
-0.149457 0.00985269 -0.0821815
-0.151964 0.00997898 -0.0832185
-0.154399 0.010114 -0.0842377
-0.156747 0.0102593 -0.085236
-0.135759 0.0095933 -0.0776506
-0.138343 0.00969527 -0.0787359
-0.140898 0.00980175 -0.0798146
-0.143418 0.00991346 -0.0808845
-0.145895 0.0100313 -0.0819433
-0.148318 0.0101564 -0.0829882
-0.150675 0.0102903 -0.0840161
-0.15295 0.0104347 -0.0850237
-0.132544 0.0097707 -0.0773829
-0.135029 0.00987148 -0.0784728
-0.137489 0.00997669 -0.079557
-0.139916 0.010087 -0.0806334
-0.142304 0.0102034 -0.0816995
-0.144642 0.010327 -0.0827525
-0.146919 0.0104593 -0.0837894
-0.149119 0.0106022 -0.0848066
-0.129309 0.00994262 -0.0771091
-0.131696 0.0100419 -0.0782038
-0.134058 0.0101456 -0.0792936
-0.136392 0.0102542 -0.0803766
-0.138689 0.0103688 -0.0814502
-0.14094 0.0104904 -0.0825116
-0.143136 0.0106207 -0.0835578
-0.145261 0.0107617 -0.084585
-0.123756 0.0100151 -0.0757274
-0.12606 0.0101088 -0.0768293
-0.128347 0.0102064 -0.0779288
-0.130612 0.0103081 -0.0790244
-0.13285 0.0104148 -0.080114
-0.135055 0.0105271 -0.0811953
-0.137219 0.0106463 -0.0822655
-0.139332 0.0107741 -0.0833212
-0.141381 0.0109126 -0.0843588
-0.120601 0.0101774 -0.075438
-0.122803 0.0102691 -0.0765438
-0.12499 0.0103646 -0.0776481
-0.127156 0.0104642 -0.0787494
-0.129298 0.0105684 -0.0798458
-0.13141 0.0106781 -0.080935
-0.133485 0.0107945 -0.0820141
-0.135513 0.0109192 -0.0830798
-0.137484 0.0110546 -0.0841282
-0.117443 0.0103338 -0.0751428
-0.119544 0.0104233 -0.0762525
-0.12163 0.0105163 -0.0773616
-0.123697 0.0106134 -0.0784687
-0.125742 0.0107149 -0.079572
-0.127759 0.0108216 -0.0806692
-0.129744 0.0109347 -0.0817575
-0.131687 0.0110558 -0.0828334
-0.133579 0.0111873 -0.083893
-0.114289 0.0104842 -0.0748421
-0.116288 0.010571 -0.0759556
-0.118273 0.0106613 -0.0770694
-0.120241 0.0107555 -0.0781823
-0.122188 0.0108539 -0.0792925
-0.12411 0.0109572 -0.0803979
-0.126003 0.0110665 -0.0814956
-0.127859 0.0111834 -0.0825822
-0.12967 0.0113104 -0.0836535
-0.157412 0.00819975 -0.0806682
-0.160375 0.00829649 -0.081718
-0.163277 0.00840004 -0.0827547
-0.166104 0.00851149 -0.0837759
-0.168841 0.00863203 -0.0847792
-0.171468 0.00876303 -0.0857621
-0.154185 0.00839253 -0.0804515
-0.157063 0.00848911 -0.0815066
-0.159883 0.00859257 -0.0825491
-0.162632 0.008704 -0.0835768
-0.165296 0.00882466 -0.0845871
-0.167855 0.00895602 -0.0855774
-0.148077 0.00849101 -0.0791587
-0.150912 0.00858128 -0.0802289
-0.153703 0.00867747 -0.0812894
-0.15644 0.00878054 -0.082338
-0.15911 0.00889165 -0.0833723
-0.161699 0.00901212 -0.0843898
-0.164189 0.00914349 -0.0853879
-0.144854 0.00867619 -0.0789252
-0.147597 0.00876583 -0.0800003
-0.1503 0.00886137 -0.0810664
-0.152952 0.00896378 -0.0821212
-0.155541 0.00907426 -0.0831625
-0.158054 0.0091942 -0.0841875
-0.160474 0.00932523 -0.0851937
-0.141596 0.00885726 -0.0786857
-0.144246 0.00894602 -0.0797658
-0.146858 0.00904063 -0.0808376
-0.149423 0.00914208 -0.081899
-0.151931 0.00925159 -0.0829474
-0.154366 0.00937064 -0.0839802
-0.156715 0.00950097 -0.0849947
-0.135724 0.00895134 -0.0773493
-0.138307 0.00903403 -0.0784402
-0.140863 0.00912167 -0.0795255
-0.143383 0.00921508 -0.0806032
-0.14586 0.00931525 -0.0816712
-0.148284 0.00942345 -0.082727
-0.150641 0.00954122 -0.0837679
-0.152917 0.00967042 -0.0847911
-0.132507 0.00912494 -0.0770933
-0.134993 0.00920634 -0.0781887
-0.137453 0.00929261 -0.0792792
-0.13988 0.00938452 -0.080363
-0.142268 0.0094831 -0.0814379
-0.144606 0.00958961 -0.0825014
-0.146883 0.00970569 -0.0835507
-0.149085 0.0098333 -0.0845828
-0.129272 0.00929413 -0.0768314
-0.131658 0.00937401 -0.0779312
-0.134021 0.00945863 -0.0790271
-0.136355 0.00954877 -0.0801171
-0.138652 0.00964541 -0.0811991
-0.140903 0.00974986 -0.0822705
-0.143099 0.0098638 -0.0833285
-0.145225 0.00998934 -0.08437
-0.123718 0.00938472 -0.0754573
-0.126022 0.00945875 -0.0765634
-0.128309 0.00953684 -0.0776679
-0.130574 0.00961956 -0.0787692
-0.132812 0.00970761 -0.0798656
-0.135017 0.00980198 -0.0809548
-0.137181 0.00990396 -0.0820344
-0.139294 0.0100153 -0.0831014
-0.141343 0.0101382 -0.0841526
-0.120562 0.0095465 -0.0751797
-0.122764 0.0096186 -0.0762896
-0.124951 0.00969465 -0.0773987
-0.127117 0.00977518 -0.0785055
-0.129259 0.00986085 -0.0796083
-0.13137 0.00995259 -0.080705
-0.133445 0.0100517 -0.0817931
-0.135474 0.0101599 -0.0828694
-0.137445 0.0102797 -0.0839308
-0.117403 0.00970357 -0.0748963
-0.119504 0.00977348 -0.07601
-0.121589 0.00984723 -0.0771236
-0.123656 0.00992529 -0.078236
-0.125701 0.0100083 -0.0793454
-0.127719 0.010097 -0.0804497
-0.129703 0.0101928 -0.0815465
-0.131646 0.0102974 -0.0826325
-0.133538 0.0104134 -0.0837044
-0.114248 0.00985576 -0.0746072
-0.116247 0.00992319 -0.0757246
-0.118232 0.00999436 -0.0768428
-0.120199 0.0100697 -0.0779608
-0.122146 0.0101496 -0.0790768
-0.124068 0.0102351 -0.0801889
-0.12596 0.0103271 -0.0812946
-0.127817 0.0104275 -0.0823907
-0.129628 0.010539 -0.0834736
-0.157381 0.00755906 -0.080323
-0.160345 0.00763872 -0.0813825
-0.163247 0.00772583 -0.0824305
-0.166075 0.00782153 -0.0834652
-0.168812 0.00792707 -0.0844843
-0.17144 0.0080439 -0.0854857
-0.154153 0.00774294 -0.0801171
-0.157032 0.0078222 -0.0811814
-0.159852 0.00790897 -0.0822349
-0.162602 0.00800442 -0.0832755
-0.165266 0.00810987 -0.084301
-0.167826 0.00822685 -0.0853094
-0.148044 0.00785155 -0.0788276
-0.15088 0.00792373 -0.0799053
-0.153671 0.00800238 -0.0809747
-0.156408 0.00808855 -0.0820338
-0.159078 0.00818346 -0.0830806
-0.161668 0.00828853 -0.0841128
-0.164159 0.00840534 -0.0851283
-0.144821 0.00802996 -0.0786054
-0.147564 0.00810131 -0.0796877
-0.150267 0.00817911 -0.0807623
-0.152919 0.00826442 -0.0818272
-0.155509 0.00835851 -0.0828804
-0.158022 0.00846286 -0.0839196
-0.160443 0.00857918 -0.0849426
-0.141562 0.00820524 -0.0783773
-0.144212 0.00827555 -0.0794643
-0.146824 0.00835226 -0.0805442
-0.14939 0.00843643 -0.0816152
-0.151897 0.0085294 -0.082675
-0.154333 0.0086327 -0.0837215
-0.156682 0.00874817 -0.0847522
-0.135689 0.0083136 -0.0770468
-0.138272 0.00837727 -0.0781432
-0.140828 0.00844633 -0.079235
-0.143348 0.00852169 -0.0803205
-0.145826 0.00860445 -0.0813977
-0.14825 0.00869596 -0.0824644
-0.150607 0.00879786 -0.0835184
-0.152883 0.00891207 -0.0845571
-0.132471 0.00848361 -0.0768025
-0.134957 0.00854591 -0.0779032
-0.137417 0.0086135 -0.0789999
-0.139844 0.00868727 -0.0800911
-0.142232 0.00876833 -0.0811747
-0.144571 0.00885805 -0.0822486
-0.146848 0.00895814 -0.0833104
-0.14905 0.00907067 -0.0843575
-0.129235 0.00865031 -0.0765523
-0.131621 0.00871104 -0.0776572
-0.133984 0.00877693 -0.078759
-0.136318 0.00884886 -0.079856
-0.138615 0.00892791 -0.0809463
-0.140867 0.00901548 -0.0820276
-0.143063 0.00911337 -0.0830974
-0.145189 0.00922376 -0.0841533
-0.123681 0.00875896 -0.0751858
-0.125985 0.00881354 -0.0762961
-0.128271 0.0088725 -0.0774053
-0.130536 0.00893648 -0.0785123
-0.132774 0.0090063 -0.0796153
-0.134979 0.00908304 -0.0807124
-0.137143 0.0091681 -0.0818014
-0.139256 0.00926334 -0.0828796
-0.141306 0.00937109 -0.0839445
-0.120523 0.00892044 -0.07492
-0.122726 0.00897317 -0.0760339
-0.124912 0.00903015 -0.0771475
-0.127078 0.00909198 -0.0782597
-0.12922 0.00915944 -0.0793689
-0.131332 0.00923356 -0.080473
-0.133406 0.00931574 -0.0815699
-0.135435 0.00940787 -0.0826569
-0.137406 0.00951244 -0.0837312
-0.117364 0.00907836 -0.0746483
-0.119465 0.00912904 -0.0757657
-0.12155 0.00918382 -0.0768838
-0.123617 0.00924327 -0.0780013
-0.125661 0.00930811 -0.0791167
-0.127678 0.00937931 -0.0802281
-0.129662 0.00945823 -0.0813331
-0.131606 0.00954677 -0.0824292
-0.133498 0.00964756 -0.0835133
-0.114208 0.00923256 -0.0743707
-0.116207 0.00928097 -0.0754918
-0.118191 0.00933334 -0.0766143
-0.120158 0.00939018 -0.0777371
-0.122105 0.00945215 -0.0788588
-0.124027 0.00952012 -0.0799775
-0.125919 0.00959539 -0.081091
-0.127775 0.00967983 -0.0821965
-0.129586 0.0097762 -0.0832909
-0.157346 0.00692078 -0.0799789
-0.16031 0.00698351 -0.0810483
-0.163213 0.00705432 -0.082108
-0.166041 0.00713443 -0.0831563
-0.168778 0.00722515 -0.0841914
-0.171407 0.00732796 -0.0852114
-0.154118 0.00709587 -0.0797836
-0.156996 0.00715796 -0.0808575
-0.159817 0.0072282 -0.0819222
-0.162567 0.00730783 -0.082976
-0.165232 0.00739825 -0.084017
-0.167792 0.00750104 -0.0850434
-0.148008 0.00721459 -0.0784972
-0.150843 0.00726881 -0.0795826
-0.153635 0.00733007 -0.0806611
-0.156372 0.0073995 -0.081731
-0.159043 0.0074784 -0.0827906
-0.161633 0.00756825 -0.0838377
-0.164124 0.0076707 -0.0848708
-0.144784 0.00738631 -0.0782862
-0.147527 0.00743952 -0.0793759
-0.15023 0.00749974 -0.0804592
-0.152882 0.00756812 -0.0815345
-0.155472 0.00764602 -0.0826
-0.157986 0.007735 -0.0836536
-0.160407 0.0078368 -0.0846935
-0.141524 0.00755591 -0.0780693
-0.144174 0.00760793 -0.0791634
-0.146787 0.00766689 -0.0802517
-0.149352 0.00773398 -0.0813326
-0.15186 0.0078106 -0.0824042
-0.154296 0.00789838 -0.0834645
-0.156645 0.00799921 -0.0845116
-0.13565 0.00767852 -0.0767444
-0.138234 0.0077233 -0.0778465
-0.140789 0.00777394 -0.0789451
-0.14331 0.00783144 -0.0800386
-0.145787 0.00789697 -0.0811253
-0.148211 0.00797201 -0.0822033
-0.150569 0.00805827 -0.0832706
-0.152845 0.00815775 -0.0843252
-0.132432 0.00784506 -0.0765117
-0.134918 0.00788839 -0.0776178
-0.137377 0.00793748 -0.0787211
-0.139805 0.00799328 -0.0798199
-0.142193 0.00805701 -0.0809126
-0.144532 0.00813016 -0.0819973
-0.146809 0.00821452 -0.0830718
-0.149011 0.00831224 -0.0841341
-0.129195 0.00800936 -0.076273
-0.131581 0.0080511 -0.0773832
-0.133944 0.00809844 -0.0784912
-0.136278 0.00815233 -0.0795955
-0.138575 0.00821399 -0.0806944
-0.140827 0.00828493 -0.081786
-0.143023 0.00836703 -0.0828681
-0.145149 0.00846256 -0.0839385
-0.12364 0.00813604 -0.0749138
-0.125944 0.00817134 -0.0760283
-0.12823 0.00821132 -0.0771426
-0.130495 0.00825673 -0.0782555
-0.132733 0.0083085 -0.0793655
-0.134938 0.00836782 -0.0804708
-0.137102 0.00843621 -0.0815695
-0.139215 0.00851564 -0.0826594
-0.141265 0.00860853 -0.0837382
-0.120482 0.00829734 -0.0746596
-0.122685 0.00833087 -0.0757776
-0.12487 0.00836893 -0.0768961
-0.127036 0.00841224 -0.0780139
-0.129178 0.00846168 -0.0791297
-0.13129 0.00851839 -0.0802416
-0.133364 0.00858391 -0.0813478
-0.135393 0.00866024 -0.0824458
-0.137364 0.00874996 -0.0835334
-0.117322 0.00845622 -0.0743994
-0.119423 0.00848784 -0.0755209
-0.121508 0.00852384 -0.0766436
-0.123574 0.00856486 -0.0777664
-0.125618 0.00861175 -0.0788881
-0.127635 0.00866561 -0.0800069
-0.129619 0.00872791 -0.0811207
-0.131562 0.00880071 -0.0822272
-0.133454 0.00888671 -0.083324
-0.114166 0.00861255 -0.0741332
-0.116164 0.00864211 -0.0752581
-0.118148 0.00867588 -0.0763851
-0.120115 0.00871446 -0.077513
-0.122061 0.00875861 -0.0786407
-0.123983 0.00880935 -0.0797664
-0.125875 0.00886811 -0.0808882
-0.127731 0.0089369 -0.0820036
-0.129541 0.0090186 -0.08311
-0.15731 0.00628489 -0.0796379
-0.160275 0.00633074 -0.0807174
-0.163178 0.0063853 -0.081789
-0.166006 0.00644984 -0.0828513
-0.168744 0.00652576 -0.0839025
-0.171372 0.00661456 -0.0849412
-0.154082 0.00645122 -0.0794532
-0.15696 0.0064962 -0.0805368
-0.159781 0.00654996 -0.0816131
-0.162532 0.00661381 -0.0826803
-0.165196 0.00668922 -0.083737
-0.167757 0.00677781 -0.0847816
-0.147971 0.00658003 -0.0781694
-0.150807 0.00661636 -0.0792629
-0.153598 0.00666029 -0.0803508
-0.156336 0.00671303 -0.0814318
-0.159007 0.00677594 -0.0825043
-0.161597 0.00685059 -0.0835667
-0.164088 0.00693868 -0.0846174
-0.144746 0.00674512 -0.0779695
-0.14749 0.00678025 -0.0790669
-0.150193 0.00682295 -0.0801593
-0.152845 0.00687446 -0.0812453
-0.155435 0.0069362 -0.0823233
-0.157949 0.00700981 -0.0833916
-0.16037 0.00709711 -0.0844486
-0.141486 0.00690908 -0.0777638
-0.144136 0.00694287 -0.0788653
-0.146749 0.00698416 -0.0799623
-0.149315 0.00703421 -0.0810535
-0.151822 0.00709451 -0.0821372
-0.154259 0.00716679 -0.0832117
-0.156608 0.00725298 -0.0842753
-0.135612 0.00704589 -0.0764441
-0.138195 0.00707188 -0.0775523
-0.140751 0.00710417 -0.0786579
-0.143272 0.00714386 -0.0797598
-0.145749 0.00719223 -0.0808563
-0.148173 0.00725083 -0.0819459
-0.150531 0.00732145 -0.0830268
-0.152807 0.00740619 -0.0840973
-0.132394 0.00720898 -0.0762229
-0.134879 0.00723346 -0.0773348
-0.137338 0.00726411 -0.0784448
-0.139766 0.00730202 -0.0795517
-0.142154 0.00734849 -0.0806538
-0.144493 0.00740509 -0.0817496
-0.14677 0.00747374 -0.0828372
-0.148972 0.00755664 -0.0839148
-0.129156 0.00737093 -0.0759957
-0.131542 0.00739378 -0.0771114
-0.133905 0.00742265 -0.0782259
-0.136238 0.0074586 -0.0793379
-0.138535 0.00750293 -0.0804458
-0.140787 0.00755726 -0.081548
-0.142983 0.00762357 -0.0826426
-0.145109 0.00770423 -0.0837278
-0.123601 0.00751554 -0.0746433
-0.125904 0.00753166 -0.0757624
-0.12819 0.00755278 -0.076882
-0.130455 0.00757974 -0.0780011
-0.132693 0.00761355 -0.0791184
-0.134897 0.00765552 -0.0802324
-0.137061 0.00770728 -0.0813412
-0.139174 0.00777089 -0.0824431
-0.141224 0.00784887 -0.0835361
-0.120442 0.00767666 -0.0744006
-0.122644 0.00769112 -0.075523
-0.12483 0.0077104 -0.0766466
-0.126995 0.00773531 -0.0777704
-0.129137 0.00776682 -0.0788931
-0.131248 0.00780621 -0.0800133
-0.133322 0.00785511 -0.0811291
-0.135351 0.00791563 -0.0822386
-0.137322 0.00799046 -0.0833398
-0.117282 0.00783651 -0.0741518
-0.119381 0.00784922 -0.0752775
-0.121466 0.00786656 -0.0764051
-0.123532 0.0078893 -0.0775337
-0.125576 0.00791836 -0.078662
-0.127593 0.00795496 -0.0797886
-0.129577 0.0080007 -0.0809116
-0.13152 0.00805773 -0.0820291
-0.133411 0.00812889 -0.0831388
-0.114124 0.00799498 -0.0738968
-0.116122 0.00800584 -0.0750258
-0.118106 0.00802116 -0.0761575
-0.120072 0.00804163 -0.0772909
-0.122018 0.0080681 -0.0784249
-0.12394 0.00810171 -0.0795581
-0.125831 0.00814401 -0.0806887
-0.127687 0.00819715 -0.0818144
-0.129497 0.00826409 -0.0829332
-0.157274 0.00565174 -0.079298
-0.160238 0.00568076 -0.0803877
-0.163141 0.0057191 -0.0814713
-0.165969 0.00576808 -0.0825475
-0.168707 0.00582916 -0.083615
-0.171336 0.00590391 -0.0846724
-0.154044 0.00580942 -0.0791239
-0.156923 0.00583734 -0.0802174
-0.159744 0.00587464 -0.0813051
-0.162495 0.00592271 -0.0823859
-0.165159 0.00598308 -0.0834583
-0.16772 0.00605742 -0.0845211
-0.147934 0.00594832 -0.0778428
-0.150769 0.00596685 -0.0789443
-0.153561 0.0059935 -0.0800417
-0.156298 0.00602958 -0.0811338
-0.158969 0.00607653 -0.0822194
-0.161559 0.00613595 -0.083297
-0.164051 0.00620962 -0.0843653
-0.144708 0.00610685 -0.077654
-0.147452 0.00612401 -0.0787591
-0.150155 0.00614927 -0.0798606
-0.152807 0.00618393 -0.0809573
-0.155397 0.00622952 -0.0820479
-0.157911 0.00628774 -0.0831309
-0.160332 0.00636046 -0.084205
-0.141448 0.00626526 -0.0774595
-0.144098 0.00628093 -0.0785683
-0.14671 0.00630463 -0.0796741
-0.149276 0.00633769 -0.0807756
-0.151784 0.00638169 -0.0818713
-0.15422 0.00643843 -0.08296
-0.156569 0.00650993 -0.0840401
-0.135573 0.00641622 -0.0761449
-0.138156 0.00642355 -0.0772591
-0.140712 0.00643762 -0.0783719
-0.143232 0.0064596 -0.0794821
-0.14571 0.00649086 -0.0805885
-0.148134 0.00653304 -0.0816897
-0.150491 0.00658801 -0.0827843
-0.152767 0.00665793 -0.0838707
-0.132354 0.00657593 -0.0759352
-0.134839 0.00658169 -0.0770529
-0.137299 0.00659406 -0.0781697
-0.139726 0.00661419 -0.0792845
-0.142114 0.00664346 -0.0803961
-0.144453 0.00668356 -0.081503
-0.14673 0.00673646 -0.0826037
-0.148932 0.00680446 -0.0836967
-0.129116 0.00673557 -0.0757194
-0.131502 0.00673971 -0.0768407
-0.133865 0.00675027 -0.0779617
-0.136198 0.0067684 -0.0790813
-0.138494 0.0067955 -0.0801983
-0.140746 0.00683327 -0.0813111
-0.142942 0.00688378 -0.0824183
-0.145068 0.00694948 -0.0835182
-0.123561 0.00689799 -0.0743739
-0.125864 0.00689513 -0.0754975
-0.12815 0.00689757 -0.0766225
-0.130414 0.00690624 -0.0777478
-0.132652 0.00692225 -0.0788724
-0.134856 0.00694698 -0.079995
-0.13702 0.00698217 -0.081114
-0.139133 0.00702996 -0.0822279
-0.141182 0.00709296 -0.083335
-0.120402 0.00705897 -0.0741427
-0.122604 0.00705455 -0.0752695
-0.124789 0.00705526 -0.0763982
-0.126954 0.00706196 -0.077528
-0.129095 0.00707573 -0.0786577
-0.131206 0.00709793 -0.079786
-0.13328 0.00713029 -0.0809115
-0.135309 0.00717501 -0.0820325
-0.13728 0.00723486 -0.0831471
-0.117241 0.00721981 -0.0739052
-0.119341 0.00721382 -0.0750352
-0.121425 0.00721274 -0.0761677
-0.123491 0.0072174 -0.077302
-0.125534 0.00722884 -0.078437
-0.127551 0.00724836 -0.0795714
-0.129534 0.00727765 -0.0807036
-0.131477 0.00731895 -0.0818319
-0.133368 0.00737518 -0.0829545
-0.114083 0.00738043 -0.0736614
-0.116081 0.00737284 -0.0747945
-0.118064 0.00736995 -0.075931
-0.12003 0.00737254 -0.0770699
-0.121976 0.00738157 -0.0782103
-0.123897 0.00739826 -0.0793509
-0.125788 0.00742427 -0.0804901
-0.127643 0.00746181 -0.0816262
-0.129453 0.00751392 -0.0827571
-0.157237 0.00501937 -0.0789576
-0.160201 0.00503163 -0.0800575
-0.163104 0.00505382 -0.081153
-0.165932 0.00508732 -0.0822431
-0.16867 0.00513364 -0.0833269
-0.171299 0.00519437 -0.084403
-0.154007 0.00516844 -0.078794
-0.156886 0.00517937 -0.0798973
-0.159707 0.0052003 -0.0809966
-0.162457 0.00523268 -0.0820909
-0.165122 0.00527809 -0.083179
-0.167682 0.00533825 -0.08426
-0.147896 0.00531738 -0.0775156
-0.150731 0.00531819 -0.078625
-0.153523 0.00532767 -0.0797319
-0.15626 0.00534718 -0.0808351
-0.158931 0.00537825 -0.0819337
-0.161521 0.00542253 -0.0830266
-0.164012 0.00548186 -0.0841125
-0.144671 0.00546941 -0.0773378
-0.147414 0.00546868 -0.0784506
-0.150117 0.00547658 -0.0795612
-0.152769 0.00549451 -0.0806685
-0.155359 0.00552406 -0.0817717
-0.157872 0.00556699 -0.0828694
-0.160293 0.00562523 -0.0839606
-0.14141 0.0056223 -0.0771544
-0.14406 0.00561995 -0.0782706
-0.146672 0.00562616 -0.0793851
-0.149237 0.00564234 -0.0804968
-0.151745 0.00567016 -0.0816047
-0.154181 0.00571148 -0.0827075
-0.15653 0.00576837 -0.0838042
-0.135535 0.00578735 -0.0758451
-0.138118 0.00577611 -0.0769653
-0.140673 0.00577206 -0.0780851
-0.143194 0.00577645 -0.0792036
-0.145671 0.00579073 -0.0803198
-0.148094 0.00581661 -0.0814326
-0.150452 0.00585606 -0.0825408
-0.152728 0.00591129 -0.0836432
-0.132316 0.00594372 -0.0756468
-0.134801 0.00593087 -0.0767702
-0.13726 0.00592505 -0.0778938
-0.139687 0.00592752 -0.0790166
-0.142075 0.00593973 -0.0801375
-0.144413 0.00596347 -0.0812555
-0.14669 0.00600077 -0.0823693
-0.148891 0.00605401 -0.0834777
-0.129077 0.00610111 -0.0754425
-0.131463 0.00608662 -0.0765693
-0.133825 0.00607898 -0.0776967
-0.136158 0.00607942 -0.0788239
-0.138454 0.00608943 -0.0799498
-0.140706 0.00611079 -0.0810732
-0.142901 0.00614567 -0.0821929
-0.145027 0.00619657 -0.0833076
-0.123522 0.00628127 -0.0741039
-0.125825 0.00625952 -0.075232
-0.128111 0.00624339 -0.0763622
-0.130375 0.00623389 -0.0774937
-0.132612 0.00623222 -0.0786255
-0.134816 0.00623988 -0.0797566
-0.136979 0.00625866 -0.0808857
-0.139092 0.00629082 -0.0820115
-0.14114 0.00633901 -0.0831328
-0.120363 0.00644216 -0.0738841
-0.122564 0.00641897 -0.0750153
-0.124749 0.0064012 -0.076149
-0.126914 0.00638981 -0.0772847
-0.129055 0.00638598 -0.0784213
-0.131166 0.00639115 -0.0795577
-0.133239 0.00640716 -0.0806928
-0.135267 0.00643629 -0.0818251
-0.137238 0.00648137 -0.0829532
-0.117202 0.00660404 -0.073658
-0.119301 0.00657945 -0.0747922
-0.121385 0.00656005 -0.0759296
-0.12345 0.00654677 -0.0770695
-0.125493 0.00654072 -0.078211
-0.127509 0.00654333 -0.0793531
-0.129492 0.00655637 -0.0804944
-0.131434 0.00658217 -0.0816335
-0.133325 0.00662372 -0.0827689
-0.114043 0.00676688 -0.0734254
-0.116041 0.00674092 -0.0745626
-0.118024 0.00671993 -0.0757037
-0.119989 0.00670478 -0.076848
-0.121934 0.0066965 -0.0779946
-0.123855 0.00669646 -0.0791425
-0.125746 0.00670638 -0.0802903
-0.1276 0.00672857 -0.0814365
-0.12941 0.00676615 -0.0825796
-0.157196 0.00438696 -0.0786168
-0.16016 0.00438253 -0.0797269
-0.163063 0.00438865 -0.0808344
-0.165891 0.00440676 -0.0819385
-0.168628 0.00443841 -0.0830385
-0.171257 0.00448526 -0.0841333
-0.153966 0.00452741 -0.0784637
-0.156845 0.00452143 -0.0795768
-0.159665 0.00452607 -0.0806877
-0.162415 0.00454285 -0.0817955
-0.16508 0.00457342 -0.0828994
-0.16764 0.00461951 -0.0839985
-0.147855 0.00468636 -0.0771879
-0.15069 0.0046695 -0.0783054
-0.153481 0.00466186 -0.0794217
-0.156218 0.00466488 -0.0805361
-0.158889 0.00468017 -0.0816477
-0.161479 0.00470944 -0.0827558
-0.16397 0.00475455 -0.0838594
-0.144629 0.00483186 -0.0770212
-0.147372 0.00481329 -0.0781416
-0.150075 0.00480391 -0.0792613
-0.152727 0.00480519 -0.0803794
-0.155316 0.00481879 -0.0814951
-0.15783 0.00484656 -0.0826076
-0.16025 0.00489046 -0.0837159
-0.141368 0.00497924 -0.0768488
-0.144018 0.00495891 -0.0779724
-0.14663 0.00494768 -0.0790956
-0.149195 0.00494708 -0.0802177
-0.151702 0.00495882 -0.0813377
-0.154138 0.00498486 -0.0824547
-0.156487 0.0050273 -0.0835679
-0.135494 0.00515836 -0.0755446
-0.138076 0.00512858 -0.0766707
-0.140631 0.00510644 -0.0777977
-0.143151 0.00509328 -0.0789246
-0.145628 0.00509066 -0.0800507
-0.148051 0.00510037 -0.0811752
-0.150408 0.00512444 -0.0822971
-0.152684 0.00516514 -0.0834154
-0.132274 0.00531139 -0.0753577
-0.134759 0.00527994 -0.0764869
-0.137218 0.00525598 -0.0776172
-0.139644 0.00524082 -0.078748
-0.142032 0.00523606 -0.0798785
-0.144369 0.00524354 -0.0810076
-0.146646 0.00526541 -0.0821346
-0.148847 0.00530407 -0.0832583
-0.129036 0.00546653 -0.0751647
-0.131421 0.00543343 -0.076297
-0.133783 0.00540762 -0.077431
-0.136115 0.00539041 -0.0785659
-0.138411 0.0053834 -0.0797008
-0.140662 0.00538847 -0.0808349
-0.142857 0.00540787 -0.0819672
-0.144982 0.00544418 -0.0830966
-0.12348 0.00566447 -0.0738328
-0.125783 0.00562382 -0.0749655
-0.128068 0.00558912 -0.076101
-0.130332 0.00556147 -0.0772388
-0.132569 0.00554216 -0.0783779
-0.134772 0.0055328 -0.0795176
-0.136935 0.00553529 -0.080657
-0.139047 0.00555197 -0.0817948
-0.141095 0.00558558 -0.0829302
-0.120321 0.00582529 -0.0736245
-0.122522 0.00578331 -0.07476
-0.124706 0.00574706 -0.0758989
-0.126871 0.0057176 -0.0770405
-0.129011 0.00569618 -0.0781841
-0.131122 0.00568439 -0.0793288
-0.133195 0.00568414 -0.0804736
-0.135222 0.00569784 -0.0816174
-0.137192 0.0057284 -0.0827591
-0.117159 0.00598825 -0.0734096
-0.119258 0.00594505 -0.074548
-0.121342 0.00590732 -0.0756903
-0.123407 0.00587608 -0.0768359
-0.12545 0.00585258 -0.0779841
-0.127465 0.0058383 -0.079134
-0.129448 0.00583518 -0.0802846
-0.131389 0.00584565 -0.0814346
-0.133279 0.00587276 -0.082583
-0.114001 0.00615335 -0.0731881
-0.115998 0.00610901 -0.0743294
-0.11798 0.00606991 -0.0754752
-0.119946 0.00603699 -0.0766249
-0.12189 0.00601143 -0.0777779
-0.12381 0.00599466 -0.0789332
-0.1257 0.00598856 -0.0800898
-0.127554 0.00599556 -0.0812464
-0.129363 0.00601884 -0.0824018
-0.157154 0.00375474 -0.0782753
-0.160117 0.0037336 -0.0793956
-0.16302 0.00372362 -0.080515
-0.165847 0.00372632 -0.0816331
-0.168585 0.00374329 -0.0827492
-0.171213 0.00377622 -0.0838627
-0.153924 0.00388657 -0.0781326
-0.156802 0.00386365 -0.0792556
-0.159622 0.00385198 -0.080378
-0.162372 0.00385315 -0.0814993
-0.165036 0.00386884 -0.082619
-0.167596 0.00390085 -0.0837362
-0.147813 0.00405553 -0.0768592
-0.150648 0.00402098 -0.0779848
-0.153438 0.00399621 -0.0791106
-0.156175 0.00398273 -0.0802362
-0.158845 0.00398221 -0.0813609
-0.161435 0.00399644 -0.0824842
-0.163926 0.00402732 -0.0836054
-0.144587 0.00419453 -0.0767034
-0.14733 0.00415809 -0.0778316
-0.150032 0.0041314 -0.0789605
-0.152683 0.00411601 -0.0800894
-0.155272 0.00411365 -0.0812178
-0.157786 0.00412623 -0.082345
-0.160206 0.00415576 -0.0834703
-0.141326 0.00433639 -0.076542
-0.143975 0.00429806 -0.0776731
-0.146587 0.00426938 -0.0788052
-0.149151 0.00425196 -0.0799376
-0.151658 0.00424761 -0.0810697
-0.154094 0.00425834 -0.082201
-0.156442 0.00428631 -0.0833307
-0.135451 0.00452959 -0.0752426
-0.138034 0.00448125 -0.0763749
-0.140588 0.00444101 -0.0775091
-0.143108 0.0044103 -0.0786445
-0.145584 0.00439076 -0.0797806
-0.148007 0.00438426 -0.0809168
-0.150364 0.00439293 -0.0820524
-0.152639 0.00441907 -0.0831867
-0.132232 0.00467929 -0.0750669
-0.134716 0.00462923 -0.076202
-0.137175 0.0045871 -0.0773393
-0.139601 0.00455431 -0.0784783
-0.141988 0.00453255 -0.0796183
-0.144325 0.00452375 -0.0807588
-0.146601 0.00453015 -0.0818989
-0.148802 0.0045542 -0.083038
-0.128993 0.00483218 -0.0748851
-0.131378 0.00478046 -0.0760231
-0.133739 0.00473646 -0.0771638
-0.136071 0.00470159 -0.0783065
-0.138367 0.00467753 -0.0794507
-0.140618 0.00466629 -0.0805956
-0.142812 0.00467018 -0.0817406
-0.144937 0.00469186 -0.0828848
-0.123438 0.0050479 -0.0735597
-0.125741 0.00498835 -0.074697
-0.128025 0.00493507 -0.0758381
-0.130289 0.00488925 -0.0769822
-0.132525 0.00485229 -0.0781289
-0.134728 0.00482589 -0.0792774
-0.136891 0.00481206 -0.0804271
-0.139002 0.00481323 -0.0815772
-0.14105 0.00483223 -0.0827268
-0.120279 0.00520865 -0.0733625
-0.122479 0.00514788 -0.0745025
-0.124664 0.00509315 -0.0756467
-0.126828 0.00504559 -0.0767944
-0.128968 0.00500658 -0.0779452
-0.131077 0.00497779 -0.0790984
-0.13315 0.00496127 -0.0802531
-0.135177 0.00495951 -0.0814086
-0.137146 0.00497549 -0.0825639
-0.117117 0.00537269 -0.0731587
-0.119216 0.00531086 -0.0743014
-0.121299 0.0052548 -0.0754488
-0.123363 0.00520561 -0.0766003
-0.125406 0.00516461 -0.0777554
-0.127421 0.00513345 -0.0789134
-0.129403 0.00511414 -0.0800734
-0.131343 0.00510923 -0.0812347
-0.133233 0.00512187 -0.0823961
-0.113959 0.00554004 -0.0729481
-0.115955 0.00547732 -0.0740935
-0.117937 0.00542009 -0.0752442
-0.119902 0.00536941 -0.0763996
-0.121846 0.00532653 -0.0775592
-0.123765 0.00529303 -0.0787222
-0.125655 0.0052709 -0.0798879
-0.127509 0.00526266 -0.0810552
-0.129317 0.00527161 -0.0822231
-0.157154 0.00375562 -0.0782757
-0.160117 0.00373452 -0.0793961
-0.16302 0.00372459 -0.0805156
-0.165847 0.00372732 -0.0816338
-0.168585 0.00374434 -0.0827499
-0.171213 0.0037773 -0.0838635
-0.153924 0.00388749 -0.0781331
-0.156802 0.00386461 -0.0792561
-0.159622 0.00385299 -0.0803786
-0.162372 0.0038542 -0.0815
-0.165036 0.00386993 -0.0826197
-0.167596 0.00390197 -0.083737
-0.147813 0.00405642 -0.0768596
-0.150648 0.00402193 -0.0779852
-0.153438 0.00399721 -0.0791111
-0.156175 0.00398378 -0.0802367
-0.158845 0.0039833 -0.0813615
-0.161435 0.00399758 -0.0824849
-0.163925 0.00402849 -0.0836062
-0.144587 0.00419545 -0.0767037
-0.14733 0.00415907 -0.077832
-0.150032 0.00413244 -0.078961
-0.152683 0.0041171 -0.0800899
-0.155272 0.00411479 -0.0812183
-0.157786 0.00412741 -0.0823456
-0.160206 0.00415699 -0.083471
-0.141326 0.00433734 -0.0765423
-0.143975 0.00429907 -0.0776735
-0.146587 0.00427045 -0.0788056
-0.149151 0.00425309 -0.0799381
-0.151658 0.00424879 -0.0810703
-0.154094 0.00425957 -0.0822017
-0.156442 0.00428759 -0.0833314
-0.135451 0.00453051 -0.0752428
-0.138034 0.00448224 -0.0763752
-0.140588 0.00444205 -0.0775094
-0.143108 0.00441141 -0.0786449
-0.145584 0.00439192 -0.0797811
-0.148007 0.00438548 -0.0809173
-0.150364 0.00439421 -0.082053
-0.152639 0.0044204 -0.0831873
-0.132232 0.00468024 -0.0750671
-0.134716 0.00463024 -0.0762022
-0.137175 0.00458818 -0.0773396
-0.139601 0.00455546 -0.0784787
-0.141988 0.00453376 -0.0796188
-0.144325 0.00452503 -0.0807593
-0.146601 0.00453148 -0.0818995
-0.148802 0.00455558 -0.0830387
-0.128993 0.00483315 -0.0748852
-0.131378 0.00478151 -0.0760233
-0.133739 0.00473757 -0.077164
-0.136071 0.00470277 -0.0783068
-0.138367 0.00467879 -0.079451
-0.140618 0.00466761 -0.0805961
-0.142812 0.00467157 -0.0817411
-0.144937 0.00469331 -0.0828854
-0.123438 0.00504883 -0.0735597
-0.125741 0.00498935 -0.0746971
-0.128025 0.00493614 -0.0758382
-0.130289 0.00489039 -0.0769824
-0.132525 0.00485351 -0.0781291
-0.134728 0.00482718 -0.0792777
-0.136891 0.00481343 -0.0804275
-0.139002 0.00481468 -0.0815777
-0.14105 0.00483373 -0.0827274
-0.120279 0.00520961 -0.0733625
-0.122479 0.00514891 -0.0745026
-0.124664 0.00509425 -0.0756468
-0.126828 0.00504677 -0.0767946
-0.128968 0.00500784 -0.0779455
-0.131077 0.00497914 -0.0790987
-0.13315 0.0049627 -0.0802535
-0.135177 0.00496101 -0.0814091
-0.137146 0.00497706 -0.0825645
-0.117117 0.00537367 -0.0731587
-0.119216 0.00531192 -0.0743014
-0.121299 0.00525593 -0.0754488
-0.123363 0.00520682 -0.0766004
-0.125406 0.00516592 -0.0777556
-0.127421 0.00513484 -0.0789136
-0.129403 0.00511562 -0.0800738
-0.131343 0.0051108 -0.0812351
-0.133233 0.00512351 -0.0823966
-0.113959 0.00554104 -0.072948
-0.115955 0.00547839 -0.0740935
-0.117937 0.00542125 -0.0752442
-0.119902 0.00537066 -0.0763997
-0.121846 0.00532787 -0.0775593
-0.123765 0.00529447 -0.0787224
-0.125655 0.00527243 -0.0798881
-0.127509 0.00526429 -0.0810556
-0.129317 0.00527332 -0.0822236
-0.157112 0.0031218 -0.0779336
-0.160076 0.003084 -0.0790641
-0.162978 0.00305801 -0.0801956
-0.165805 0.00304538 -0.0813276
-0.168542 0.00304777 -0.0824599
-0.171169 0.00306689 -0.0835919
-0.153882 0.00324497 -0.0778013
-0.15676 0.00320518 -0.0789342
-0.15958 0.00317727 -0.0800682
-0.162329 0.00316291 -0.0812031
-0.164993 0.00316383 -0.0823384
-0.167553 0.00318187 -0.0834737
-0.147772 0.00342386 -0.0765302
-0.150606 0.00337166 -0.077664
-0.153397 0.00332981 -0.0787994
-0.156133 0.00329991 -0.0799362
-0.158803 0.00328368 -0.081074
-0.161391 0.00328298 -0.0822125
-0.163882 0.00329974 -0.0833513
-0.144546 0.0035563 -0.0763852
-0.147289 0.00350204 -0.0775214
-0.14999 0.0034581 -0.0786595
-0.152641 0.00342611 -0.0797992
-0.15523 0.00340788 -0.0809402
-0.157742 0.0034054 -0.0820822
-0.160162 0.0034207 -0.0832245
-0.141285 0.0036926 -0.0762348
-0.143934 0.0036363 -0.0773735
-0.146545 0.00359022 -0.0785144
-0.149109 0.00355607 -0.0796573
-0.151615 0.00353572 -0.0808017
-0.15405 0.00353127 -0.0819472
-0.156398 0.00354491 -0.0830934
-0.135411 0.00389983 -0.07494
-0.137993 0.00383295 -0.0760786
-0.140547 0.00377462 -0.07722
-0.143066 0.0037264 -0.0783641
-0.145542 0.00369 -0.0795102
-0.147964 0.0036674 -0.0806582
-0.15032 0.0036608 -0.0818075
-0.152595 0.00367255 -0.0829578
-0.132192 0.00404617 -0.0747755
-0.134676 0.00397749 -0.0759166
-0.137134 0.0039172 -0.0770609
-0.13956 0.00386682 -0.0782082
-0.141946 0.00382813 -0.0793579
-0.144282 0.00380316 -0.0805097
-0.146558 0.00379422 -0.0816631
-0.148758 0.00380383 -0.0828176
-0.128953 0.00419678 -0.0746048
-0.131338 0.00412642 -0.0757485
-0.133698 0.00406423 -0.076896
-0.13603 0.00401172 -0.0780466
-0.138325 0.00397069 -0.0792001
-0.140575 0.00394323 -0.080356
-0.142769 0.00393176 -0.0815137
-0.144893 0.00393899 -0.0826728
-0.123399 0.00443029 -0.0732856
-0.125701 0.0043518 -0.0744277
-0.127985 0.00427991 -0.0755743
-0.130248 0.00421591 -0.0767249
-0.132483 0.00416132 -0.0778792
-0.134686 0.00411792 -0.0790367
-0.136848 0.00408787 -0.0801969
-0.138959 0.00407369 -0.0813593
-0.141006 0.00407826 -0.0825232
-0.12024 0.00459097 -0.0730996
-0.122439 0.00451136 -0.0742441
-0.124623 0.00443809 -0.0753936
-0.126787 0.00437242 -0.0765476
-0.128926 0.00431582 -0.0777058
-0.131035 0.00427008 -0.0788675
-0.133107 0.00423736 -0.0800323
-0.135133 0.00422028 -0.0811996
-0.137102 0.0042219 -0.0823687
-0.117078 0.00475608 -0.0729067
-0.119176 0.00467558 -0.0740538
-0.121258 0.00460113 -0.0752063
-0.123323 0.00453394 -0.0763638
-0.125364 0.00447545 -0.0775259
-0.127379 0.00442741 -0.0786922
-0.12936 0.00439198 -0.0798619
-0.1313 0.00437183 -0.0810344
-0.133189 0.00437021 -0.0822091
-0.113919 0.0049257 -0.0727068
-0.115916 0.00484453 -0.0738565
-0.117897 0.00476912 -0.0750121
-0.119861 0.00470062 -0.0761733
-0.121805 0.0046404 -0.0773395
-0.123724 0.00459016 -0.0785105
-0.125613 0.00455203 -0.0796854
-0.127465 0.00452868 -0.0808636
-0.129273 0.00452351 -0.0820442
-0.157068 0.00248626 -0.0775909
-0.160031 0.00243175 -0.0787317
-0.162933 0.00238968 -0.079875
-0.165759 0.00236168 -0.0810209
-0.168495 0.00234944 -0.0821693
-0.171123 0.00235469 -0.0833199
-0.153839 0.00260061 -0.0774691
-0.156716 0.00254387 -0.0786119
-0.159535 0.00249967 -0.0797574
-0.162284 0.00246973 -0.0809057
-0.164946 0.00245585 -0.0820566
-0.167506 0.00245985 -0.08321
-0.147729 0.00278935 -0.0762005
-0.150563 0.00271941 -0.0773423
-0.153352 0.00266041 -0.0784873
-0.156088 0.00261402 -0.0796352
-0.158757 0.00258204 -0.080786
-0.161345 0.00256637 -0.0819397
-0.163835 0.00256896 -0.083096
-0.144503 0.00291505 -0.0760665
-0.147245 0.00284288 -0.0772104
-0.149946 0.00278161 -0.0783577
-0.152596 0.00273296 -0.0795081
-0.155184 0.00269882 -0.0806617
-0.157696 0.00268122 -0.0818183
-0.160115 0.00268224 -0.0829777
-0.141242 0.00304562 -0.075927
-0.14389 0.00297125 -0.0770732
-0.146501 0.0029077 -0.078223
-0.149064 0.00285673 -0.0793762
-0.15157 0.00282034 -0.0805327
-0.154004 0.00280066 -0.0816924
-0.156351 0.00279993 -0.0828551
-0.135369 0.00326683 -0.0746372
-0.13795 0.00318127 -0.0757818
-0.140504 0.00310475 -0.0769305
-0.143022 0.00303893 -0.078083
-0.145498 0.00298561 -0.0792391
-0.147919 0.00294686 -0.0803988
-0.150275 0.00292494 -0.0815618
-0.152548 0.00292225 -0.082728
-0.13215 0.00340962 -0.0744839
-0.134633 0.00332219 -0.0756309
-0.13709 0.00324363 -0.0767821
-0.139516 0.00317556 -0.0779375
-0.141901 0.00311986 -0.0790968
-0.144237 0.00307865 -0.0802599
-0.146512 0.00305434 -0.0814264
-0.148711 0.00304948 -0.0825964
-0.128911 0.00355778 -0.0743244
-0.131295 0.00346864 -0.0754738
-0.133655 0.00338814 -0.0766279
-0.135986 0.00331788 -0.0777864
-0.138281 0.00325977 -0.0789491
-0.14053 0.00321603 -0.0801157
-0.142723 0.00318916 -0.0812861
-0.144847 0.00318191 -0.0824601
-0.123357 0.00380908 -0.0730117
-0.125659 0.00371148 -0.0741585
-0.127943 0.00362082 -0.0753105
-0.130205 0.0035385 -0.0764675
-0.13244 0.00346614 -0.0776293
-0.134642 0.00340566 -0.0787956
-0.136803 0.00335931 -0.0799662
-0.138913 0.00332972 -0.0811407
-0.140959 0.00331985 -0.082319
-0.120198 0.00396952 -0.0728369
-0.122398 0.00387089 -0.073986
-0.124581 0.00377893 -0.0751407
-0.126744 0.00369498 -0.0763008
-0.128883 0.00362064 -0.0774661
-0.130991 0.00355782 -0.0786363
-0.133063 0.00350883 -0.079811
-0.135088 0.00347638 -0.08099
-0.137056 0.00346362 -0.0821729
-0.117037 0.00413557 -0.0726551
-0.119134 0.00403619 -0.0738065
-0.121216 0.00394316 -0.0749641
-0.12328 0.00385779 -0.0761275
-0.125321 0.00378164 -0.0772965
-0.127335 0.00371659 -0.0784708
-0.129316 0.00366494 -0.07965
-0.131255 0.0036295 -0.0808338
-0.133143 0.0036136 -0.0820216
-0.113879 0.00430732 -0.0724661
-0.115874 0.00420748 -0.07362
-0.117855 0.00411368 -0.0747804
-0.119819 0.00402716 -0.0759472
-0.121762 0.0039494 -0.0771201
-0.12368 0.00388226 -0.0782987
-0.125568 0.00382801 -0.0794828
-0.12742 0.00378949 -0.0806717
-0.129227 0.00377019 -0.081865
-0.157023 0.00185023 -0.0772473
-0.159986 0.00177883 -0.0783981
-0.162886 0.0017205 -0.0795531
-0.165712 0.00167693 -0.0807128
-0.168447 0.00164987 -0.0818772
-0.171074 0.00164107 -0.0830464
-0.153794 0.00195576 -0.0771361
-0.15667 0.0018819 -0.0782885
-0.159489 0.00182122 -0.0794454
-0.162237 0.00177549 -0.080607
-0.164899 0.00174659 -0.0817735
-0.167457 0.00173636 -0.0829449
-0.147685 0.00215451 -0.0758703
-0.150518 0.00206668 -0.07702
-0.153307 0.00199035 -0.0781742
-0.156042 0.00192727 -0.0793331
-0.15871 0.00187931 -0.0804968
-0.161298 0.00184844 -0.0816655
-0.163787 0.00183665 -0.0828393
-0.144459 0.0022735 -0.0757473
-0.147201 0.00218325 -0.0768989
-0.149901 0.00210446 -0.0780551
-0.15255 0.00203894 -0.0792161
-0.155138 0.00198866 -0.0803821
-0.157649 0.00195571 -0.0815532
-0.160067 0.00194221 -0.0827296
-0.141198 0.00239835 -0.075619
-0.143846 0.00230574 -0.0767725
-0.146456 0.00222451 -0.0779309
-0.149019 0.00215653 -0.0790943
-0.151524 0.00210385 -0.0802627
-0.153957 0.00206868 -0.0814364
-0.156303 0.00205332 -0.0826155
-0.135326 0.00263369 -0.0743344
-0.137907 0.00252931 -0.075485
-0.14046 0.00243444 -0.0766407
-0.142978 0.00235082 -0.0778015
-0.145452 0.00228035 -0.0789674
-0.147873 0.00222519 -0.0801385
-0.150228 0.00218768 -0.081315
-0.1525 0.00217028 -0.0824971
-0.132107 0.00277295 -0.0741925
-0.13459 0.00266664 -0.0753452
-0.137047 0.00256964 -0.0765033
-0.139471 0.00248368 -0.0776666
-0.141856 0.00241073 -0.0788352
-0.144191 0.00235302 -0.0800093
-0.146466 0.00231304 -0.0811889
-0.148664 0.00229341 -0.0823741
-0.128869 0.00291867 -0.0740445
-0.131252 0.00281062 -0.0751994
-0.133612 0.00271163 -0.0763599
-0.135942 0.00262342 -0.077526
-0.138236 0.00254801 -0.0786977
-0.140484 0.00248771 -0.0798749
-0.142677 0.00244513 -0.0810577
-0.144799 0.00242308 -0.0822464
-0.123316 0.00318787 -0.0727387
-0.125617 0.00307106 -0.07389
-0.1279 0.0029615 -0.0750472
-0.130162 0.0028607 -0.0762105
-0.132396 0.00277038 -0.0773795
-0.134598 0.00269257 -0.0785544
-0.136758 0.00262965 -0.079735
-0.138867 0.00258433 -0.0809215
-0.140912 0.00255966 -0.0821138
-0.120157 0.00334808 -0.0725753
-0.122356 0.00323033 -0.0737287
-0.124539 0.00311954 -0.0748885
-0.126701 0.00301716 -0.0760546
-0.128839 0.0029249 -0.0772268
-0.130947 0.00284478 -0.0784052
-0.133018 0.00277922 -0.0795895
-0.135042 0.00273107 -0.0807799
-0.137009 0.00270355 -0.0819763
-0.116996 0.00351505 -0.0724048
-0.119093 0.0033967 -0.0735605
-0.121174 0.00328498 -0.0747229
-0.123238 0.00318129 -0.0758919
-0.125278 0.0030873 -0.0770676
-0.127291 0.00300502 -0.0782497
-0.129271 0.00293687 -0.0794381
-0.131209 0.00288579 -0.0806327
-0.133096 0.00285521 -0.0818334
-0.113838 0.00368893 -0.072227
-0.115833 0.00357034 -0.0733849
-0.117814 0.00345804 -0.07455
-0.119777 0.00335336 -0.0757223
-0.121719 0.00325791 -0.0769015
-0.123636 0.00317366 -0.0780875
-0.125524 0.00310303 -0.0792803
-0.127375 0.00304898 -0.0804796
-0.12918 0.00301512 -0.0816851
-0.156976 0.00121341 -0.076901
-0.159937 0.00112496 -0.0780615
-0.162837 0.00105021 -0.0792279
-0.165662 0.000990905 -0.0804009
-0.168396 0.000948879 -0.0815809
-0.171022 0.000925933 -0.0827683
-0.153746 0.00131017 -0.0768005
-0.156622 0.00121901 -0.0779622
-0.15944 0.00114166 -0.0791301
-0.162187 0.00107998 -0.0803046
-0.164848 0.0010359 -0.0814862
-0.167405 0.00101134 -0.0826753
-0.147638 0.00151917 -0.0755379
-0.150471 0.00141327 -0.0766952
-0.153259 0.00131941 -0.0778584
-0.155993 0.00123945 -0.0790278
-0.158661 0.00117533 -0.080204
-0.161247 0.00112909 -0.0813873
-0.163735 0.0011028 -0.0825782
-0.144413 0.00163151 -0.0754261
-0.147154 0.00152299 -0.0765849
-0.149853 0.00142649 -0.0777498
-0.152502 0.00134389 -0.078921
-0.155088 0.00127726 -0.0800989
-0.157599 0.00122877 -0.0812841
-0.160016 0.00120062 -0.082477
-0.141153 0.0017507 -0.0753089
-0.1438 0.00163967 -0.0764695
-0.146409 0.00154057 -0.0776362
-0.148971 0.00145534 -0.0788093
-0.151475 0.00138614 -0.0799893
-0.153907 0.00133529 -0.0811765
-0.156252 0.00130514 -0.0823716
-0.135281 0.00200043 -0.0740299
-0.137861 0.00187706 -0.0751863
-0.140414 0.00176364 -0.0763487
-0.142931 0.001662 -0.0775174
-0.145404 0.00157415 -0.0786927
-0.147824 0.00150234 -0.0798748
-0.150178 0.00144902 -0.0810644
-0.15245 0.00141672 -0.0822618
-0.132063 0.00213625 -0.0738996
-0.134545 0.00201087 -0.0750578
-0.137001 0.00189524 -0.0762223
-0.139425 0.00179116 -0.0773932
-0.141809 0.00170072 -0.0785708
-0.144143 0.00162626 -0.0797554
-0.146416 0.00157036 -0.0809475
-0.148614 0.00153575 -0.0821475
-0.128825 0.00227962 -0.0737631
-0.131207 0.00215248 -0.0749232
-0.133567 0.00203481 -0.07609
-0.135896 0.00192842 -0.0772633
-0.138189 0.00183545 -0.0784435
-0.140437 0.00175832 -0.0796309
-0.142628 0.00169974 -0.0808257
-0.144749 0.00166265 -0.0820285
-0.123273 0.00256697 -0.0724644
-0.125573 0.00243079 -0.07362
-0.127856 0.00230217 -0.0747823
-0.130117 0.00218269 -0.0759515
-0.13235 0.00207418 -0.0771275
-0.134551 0.00197877 -0.0783106
-0.13671 0.00189897 -0.0795009
-0.138818 0.00183762 -0.0806988
-0.140863 0.00179788 -0.0819047
-0.120114 0.00272705 -0.0723125
-0.122313 0.00259003 -0.0734701
-0.124495 0.00246026 -0.0746348
-0.126657 0.00233925 -0.0758065
-0.128794 0.00222882 -0.0769854
-0.130901 0.00213112 -0.0781716
-0.132971 0.00204868 -0.0793652
-0.134994 0.00198449 -0.0805664
-0.13696 0.0019419 -0.0817758
-0.116953 0.00289506 -0.0721534
-0.11905 0.0027576 -0.0733131
-0.121131 0.00262702 -0.0744802
-0.123193 0.00250481 -0.0756547
-0.125233 0.00239275 -0.0768367
-0.127246 0.00229294 -0.0780263
-0.129224 0.00220796 -0.0792234
-0.131162 0.00214088 -0.0804284
-0.133048 0.00209527 -0.0816416
-0.113796 0.00307116 -0.0719868
-0.11579 0.0029337 -0.0731486
-0.11777 0.00280274 -0.0743183
-0.119733 0.00267971 -0.0754957
-0.121675 0.00256634 -0.076681
-0.123591 0.00246469 -0.0778742
-0.125478 0.00237733 -0.0790753
-0.127328 0.00230736 -0.0802844
-0.129132 0.00225855 -0.0815018
-0.156929 0.000572581 -0.0765528
-0.15989 0.000467006 -0.0777227
-0.162788 0.000375784 -0.0789002
-0.165612 0.000300733 -0.0800862
-0.168346 0.000243736 -0.0812814
-0.17097 0.000206655 -0.0824868
-0.1537 0.000660381 -0.0764629
-0.156575 0.00055185 -0.0776338
-0.159392 0.000457786 -0.0788124
-0.162138 0.000380124 -0.0799994
-0.164798 0.00032086 -0.0811957
-0.167354 0.00028198 -0.0824022
-0.147593 0.000879531 -0.0752037
-0.150425 0.000755449 -0.0763684
-0.153212 0.000643996 -0.0775404
-0.155946 0.000547092 -0.0787202
-0.158612 0.000466774 -0.0799084
-0.161197 0.000405164 -0.081106
-0.163685 0.000364381 -0.0823138
-0.144369 0.000985031 -0.0751031
-0.147108 0.000858128 -0.0762691
-0.149807 0.000743817 -0.0774424
-0.152455 0.00064408 -0.0786235
-0.15504 0.000561064 -0.0798131
-0.157549 0.000497025 -0.081012
-0.159966 0.000454235 -0.0822212
-0.141109 0.00109839 -0.0749972
-0.143755 0.000968795 -0.0761646
-0.146363 0.000851696 -0.0773394
-0.148924 0.000749146 -0.0785221
-0.151427 0.000663396 -0.0797132
-0.153859 0.000596843 -0.0809137
-0.156203 0.000551932 -0.0821245
-0.135238 0.00136248 -0.0737239
-0.137818 0.00121995 -0.0748858
-0.140369 0.00108782 -0.0760548
-0.142886 0.000968036 -0.0772313
-0.145358 0.000862709 -0.0784157
-0.147777 0.000774198 -0.0796086
-0.15013 0.000705045 -0.0808109
-0.152401 0.000657875 -0.0820235
-0.13202 0.00149469 -0.0736051
-0.134501 0.00135005 -0.0747687
-0.136957 0.0012156 -0.0759395
-0.13938 0.00109325 -0.0771178
-0.141763 0.000985211 -0.0783042
-0.144097 0.000893926 -0.0794991
-0.146369 0.000822089 -0.0807034
-0.148565 0.000772521 -0.081918
-0.128783 0.00163554 -0.07348
-0.131165 0.00148908 -0.0746454
-0.133523 0.00135252 -0.0758182
-0.135852 0.00122779 -0.0769987
-0.138144 0.00111712 -0.0781873
-0.140391 0.00102306 -0.0793845
-0.142581 0.000948465 -0.080591
-0.144701 0.00089636 -0.0818078
-0.123232 0.00194115 -0.0721885
-0.125531 0.00178535 -0.0733484
-0.127814 0.0016374 -0.0745157
-0.130074 0.001499 -0.0756907
-0.132307 0.00137208 -0.0768736
-0.134507 0.00125891 -0.0780646
-0.136665 0.00116212 -0.0792644
-0.138772 0.0010847 -0.0804735
-0.140816 0.0010299 -0.0816927
-0.120074 0.00210097 -0.0720482
-0.122272 0.0019444 -0.0732099
-0.124453 0.00179534 -0.0743793
-0.126615 0.00165543 -0.0755567
-0.128751 0.00152659 -0.0767421
-0.130858 0.00141111 -0.0779359
-0.132926 0.00131166 -0.0791385
-0.134949 0.00123136 -0.0803505
-0.136913 0.00117371 -0.0815726
-0.116913 0.00226989 -0.0719004
-0.119009 0.00211301 -0.0730641
-0.12109 0.00196326 -0.0742358
-0.123152 0.00182222 -0.0754157
-0.125191 0.00169179 -0.076604
-0.127203 0.00157423 -0.0778008
-0.129181 0.00147224 -0.0790066
-0.131117 0.00138905 -0.0802218
-0.133002 0.0013284 -0.0814471
-0.113756 0.00244813 -0.071745
-0.115751 0.00229144 -0.0729107
-0.11773 0.00214148 -0.0740848
-0.119692 0.00199977 -0.0752674
-0.121633 0.00186813 -0.0764587
-0.123549 0.0017488 -0.0776588
-0.125435 0.00164447 -0.0788681
-0.127284 0.00155844 -0.0800869
-0.129087 0.00149464 -0.0813159
-0.156879 -7.27273e-05 -0.0762042
-0.159839 -0.000195534 -0.0773835
-0.162737 -0.000303326 -0.0785721
-0.16556 -0.000394217 -0.0797711
-0.168292 -0.000466263 -0.0809816
-0.170915 -0.000517553 -0.0822048
-0.153651 5.80567e-06 -0.0761251
-0.156525 -0.000120218 -0.0773051
-0.159341 -0.000231104 -0.0784943
-0.162086 -0.000324841 -0.0796939
-0.164744 -0.000399367 -0.080905
-0.1673 -0.000452646 -0.0821289
-0.147546 0.000234939 -0.0748694
-0.150376 9.25296e-05 -0.0760416
-0.153163 -3.66565e-05 -0.0772223
-0.155895 -0.000150613 -0.0784124
-0.158561 -0.000247223 -0.0796127
-0.161145 -0.000324292 -0.0808245
-0.163631 -0.000379643 -0.0820491
-0.144321 0.000333281 -0.0747801
-0.14706 0.000187832 -0.0759533
-0.149758 5.5569e-05 -0.077135
-0.152405 -6.14324e-05 -0.078326
-0.154989 -0.000160937 -0.0795272
-0.157497 -0.000240611 -0.0807399
-0.159912 -0.000298119 -0.0819654
-0.141062 0.000440464 -0.0746857
-0.143707 0.000292135 -0.0758599
-0.146315 0.000156889 -0.0770428
-0.148875 3.68846e-05 -0.078235
-0.151377 -6.55305e-05 -0.0794373
-0.153807 -0.000147876 -0.0806511
-0.15615 -0.000207635 -0.0818776
-0.135193 0.0007188 -0.0734183
-0.137772 0.000556881 -0.0745858
-0.140323 0.000405856 -0.0757613
-0.142838 0.000267755 -0.0769456
-0.14531 0.000144807 -0.0781391
-0.147728 3.94754e-05 -0.0793428
-0.150079 -4.56048e-05 -0.0805578
-0.152349 -0.000107732 -0.0817855
-0.131975 0.000847062 -0.0733112
-0.134456 0.00068292 -0.0744801
-0.136911 0.000529436 -0.0756572
-0.139333 0.000388636 -0.076843
-0.141715 0.00026283 -0.0780381
-0.144048 0.000154591 -0.0792433
-0.146319 6.67136e-05 -0.0804598
-0.148514 2.10415e-06 -0.0816889
-0.128739 0.00098505 -0.0731978
-0.13112 0.000819017 -0.0743683
-0.133478 0.000663325 -0.0755471
-0.135806 0.000520024 -0.0767347
-0.138097 0.000391476 -0.0779317
-0.140342 0.000280359 -0.0791387
-0.142532 0.00018963 -0.0803569
-0.144651 0.000122422 -0.0815877
-0.123189 0.00130886 -0.0719137
-0.125488 0.00113313 -0.0730778
-0.12777 0.000965569 -0.0742501
-0.130029 0.000807984 -0.0754308
-0.132262 0.000662425 -0.0766205
-0.13446 0.000531295 -0.0778196
-0.136618 0.000417359 -0.0790287
-0.138724 0.000323735 -0.0802489
-0.140766 0.000253799 -0.0814816
-0.120031 0.0014681 -0.071785
-0.122229 0.00129164 -0.0729508
-0.12441 0.00112299 -0.074125
-0.126571 0.000963879 -0.0753079
-0.128707 0.000816366 -0.0764999
-0.130812 0.000682864 -0.0777013
-0.13288 0.000566209 -0.0789129
-0.134901 0.000469669 -0.0801355
-0.136864 0.000396872 -0.0813703
-0.116872 0.00163762 -0.0716489
-0.118967 0.00146095 -0.0728165
-0.121047 0.00129167 -0.0739928
-0.123109 0.00113148 -0.075178
-0.125147 0.00098238 -0.0763725
-0.127158 0.000846784 -0.0775766
-0.129135 0.000727565 -0.078791
-0.13107 0.000628122 -0.0800163
-0.132954 0.000552336 -0.0812537
-0.113716 0.00181768 -0.0715049
-0.115709 0.00164137 -0.0726744
-0.117688 0.00147201 -0.0738529
-0.11965 0.00131124 -0.0750406
-0.12159 0.001161 -0.0762379
-0.123505 0.00102366 -0.077445
-0.12539 0.000902116 -0.0786624
-0.127238 0.000799839 -0.0798909
-0.12904 0.000720951 -0.0811314
-0.156829 -0.000720541 -0.0758534
-0.159788 -0.000860896 -0.0770418
-0.162684 -0.000985583 -0.0782413
-0.165506 -0.00109264 -0.079453
-0.168237 -0.00118005 -0.0806785
-0.170858 -0.00124585 -0.0819194
-0.153601 -0.000651338 -0.0757854
-0.156474 -0.000795184 -0.0769741
-0.159289 -0.000923235 -0.0781738
-0.162032 -0.0010334 -0.0793857
-0.16469 -0.00112353 -0.0806113
-0.167244 -0.00119152 -0.0818522
-0.147497 -0.000411959 -0.0745337
-0.150327 -0.000573018 -0.075713
-0.153113 -0.000720281 -0.0769022
-0.155844 -0.000851653 -0.0781022
-0.158508 -0.000964925 -0.0793144
-0.161091 -0.00105782 -0.0805402
-0.163575 -0.00112808 -0.0817814
-0.144274 -0.000320822 -0.074456
-0.147012 -0.000485149 -0.0756359
-0.149709 -0.000635722 -0.0768258
-0.152354 -0.000770368 -0.0780264
-0.154937 -0.000886755 -0.079239
-0.157444 -0.000982457 -0.0804651
-0.159858 -0.00105506 -0.0817066
-0.141015 -0.000219858 -0.0743732
-0.14366 -0.000387266 -0.075554
-0.146266 -0.00054103 -0.0767446
-0.148825 -0.000678887 -0.077946
-0.151326 -0.000798385 -0.0791592
-0.153755 -0.000896942 -0.0803859
-0.156096 -0.000971959 -0.0816278
-0.135148 7.2991e-05 -0.0731122
-0.137726 -0.000108627 -0.074285
-0.140275 -0.000278902 -0.0754669
-0.14279 -0.000435703 -0.0766585
-0.145261 -0.000576687 -0.0778608
-0.147677 -0.000699282 -0.0790749
-0.150027 -0.000800741 -0.0803023
-0.152296 -0.000878268 -0.0815447
-0.131931 0.000197265 -0.0730171
-0.134411 1.33043e-05 -0.0741911
-0.136865 -0.000159569 -0.0753742
-0.139286 -0.000319219 -0.0765671
-0.141667 -0.000463221 -0.0777706
-0.143998 -0.00058888 -0.0789857
-0.146268 -0.000693282 -0.080214
-0.148462 -0.000773416 -0.0814573
-0.128695 0.000332353 -0.0729158
-0.131075 0.000146419 -0.0740912
-0.133432 -2.87624e-05 -0.0752757
-0.135759 -0.000191034 -0.0764701
-0.138049 -0.000337907 -0.077675
-0.140294 -0.000466577 -0.0788915
-0.142482 -0.000573956 -0.080121
-0.144599 -0.000656792 -0.0813652
-0.123146 0.000674618 -0.0716397
-0.125445 0.000478662 -0.0728078
-0.127726 0.000291168 -0.0739847
-0.129984 0.000114032 -0.075171
-0.132216 -5.05779e-05 -0.0763671
-0.134414 -0.000200132 -0.0775737
-0.13657 -0.000331727 -0.0787918
-0.138675 -0.000442101 -0.0800228
-0.140715 -0.000527749 -0.0812683
-0.119989 0.000833225 -0.0715231
-0.122186 0.000636587 -0.0726928
-0.124367 0.000448013 -0.0738715
-0.126527 0.000269341 -0.0750596
-0.128662 0.000102736 -0.0762577
-0.130766 -4.92525e-05 -0.0774664
-0.132833 -0.000183641 -0.0786864
-0.134853 -0.000297007 -0.0799192
-0.136815 -0.000385576 -0.0811663
-0.11683 0.00100329 -0.071399
-0.118926 0.000806545 -0.0725703
-0.121005 0.000617414 -0.0737509
-0.123066 0.000437694 -0.0749412
-0.125103 0.000269511 -0.0761415
-0.127113 0.000115408 -0.0773525
-0.129089 -2.15846e-05 -0.0785748
-0.131023 -0.000137899 -0.0798097
-0.132905 -0.00022949 -0.0810588
-0.113675 0.00118513 -0.0712668
-0.115668 0.000988905 -0.0724399
-0.117647 0.000799828 -0.0736226
-0.119608 0.000619621 -0.0748152
-0.121547 0.000450358 -0.076018
-0.123461 0.000294545 -0.0772315
-0.125345 0.000155225 -0.0784566
-0.127192 3.60639e-05 -0.0796941
-0.128993 -5.86336e-05 -0.0809456
-0.156829 -0.000720062 -0.0758536
-0.159788 -0.000860393 -0.0770421
-0.162684 -0.000985056 -0.0782416
-0.165506 -0.00109209 -0.0794534
-0.168237 -0.00117948 -0.0806789
-0.170858 -0.00124526 -0.0819199
-0.153601 -0.000650841 -0.0757856
-0.156474 -0.000794662 -0.0769744
-0.159289 -0.000922687 -0.0781741
-0.162032 -0.00103282 -0.0793861
-0.16469 -0.00112293 -0.0806117
-0.167244 -0.00119091 -0.0818527
-0.147497 -0.000411471 -0.0745339
-0.150327 -0.000572502 -0.0757132
-0.153113 -0.000719739 -0.0769024
-0.155844 -0.000851084 -0.0781026
-0.158508 -0.000964329 -0.0793148
-0.161091 -0.0010572 -0.0805406
-0.163575 -0.00112744 -0.0817818
-0.144274 -0.000320318 -0.0744562
-0.147012 -0.000484615 -0.0756362
-0.149709 -0.000635159 -0.076826
-0.152354 -0.000769777 -0.0780267
-0.154937 -0.000886136 -0.0792393
-0.157444 -0.000981812 -0.0804655
-0.159858 -0.00105439 -0.081707
-0.141015 -0.000219336 -0.0743734
-0.14366 -0.000386713 -0.0755542
-0.146266 -0.000540446 -0.0767449
-0.148825 -0.000678272 -0.0779463
-0.151326 -0.000797741 -0.0791596
-0.153755 -0.000896271 -0.0803863
-0.156096 -0.000971263 -0.0816282
-0.135147 7.34974e-05 -0.0731124
-0.137726 -0.000108088 -0.0742852
-0.140275 -0.00027833 -0.0754671
-0.14279 -0.000435097 -0.0766587
-0.145261 -0.000576049 -0.0778611
-0.147677 -0.000698612 -0.0790752
-0.150027 -0.000800041 -0.0803026
-0.152296 -0.000877541 -0.0815452
-0.131931 0.000197788 -0.0730173
-0.134411 1.3861e-05 -0.0741913
-0.136864 -0.000158977 -0.0753744
-0.139286 -0.000318592 -0.0765673
-0.141667 -0.000462559 -0.0777708
-0.143998 -0.000588184 -0.078986
-0.146268 -0.000692554 -0.0802144
-0.148462 -0.000772657 -0.0814577
-0.128695 0.000332891 -0.0729159
-0.131075 0.000146994 -0.0740913
-0.133432 -2.81505e-05 -0.0752759
-0.135759 -0.000190384 -0.0764703
-0.138049 -0.000337219 -0.0776752
-0.140294 -0.000465852 -0.0788918
-0.142482 -0.000573196 -0.0801213
-0.144599 -0.000656 -0.0813656
-0.123146 0.000675134 -0.0716398
-0.125445 0.000479216 -0.0728079
-0.127725 0.00029176 -0.0739849
-0.129984 0.000114664 -0.0751711
-0.132216 -4.99053e-05 -0.0763673
-0.134414 -0.000199419 -0.0775739
-0.13657 -0.000330974 -0.0787921
-0.138675 -0.00044131 -0.0800231
-0.140715 -0.000526922 -0.0812687
-0.119989 0.000833755 -0.0715232
-0.122186 0.000637156 -0.0726928
-0.124367 0.000448623 -0.0738716
-0.126527 0.000269994 -0.0750597
-0.128662 0.000103432 -0.0762578
-0.130766 -4.85126e-05 -0.0774665
-0.132833 -0.000182858 -0.0786866
-0.134853 -0.000296182 -0.0799194
-0.136815 -0.000384711 -0.0811666
-0.11683 0.00100383 -0.071399
-0.118926 0.00080713 -0.0725703
-0.121005 0.000618043 -0.073751
-0.123066 0.000438368 -0.0749413
-0.125103 0.000270232 -0.0761416
-0.127113 0.000116176 -0.0773526
-0.129089 -2.07695e-05 -0.078575
-0.131023 -0.000137038 -0.07981
-0.132905 -0.000228586 -0.0810591
-0.113675 0.00118568 -0.0712668
-0.115668 0.000989507 -0.07244
-0.117647 0.000800476 -0.0736227
-0.119608 0.000620317 -0.0748152
-0.121547 0.000451104 -0.076018
-0.123461 0.000295342 -0.0772317
-0.125345 0.000156074 -0.0784568
-0.127192 3.69639e-05 -0.0796943
-0.128993 -5.76853e-05 -0.0809459
-0.156776 -0.00137036 -0.0754974
-0.159733 -0.00152852 -0.0766945
-0.162629 -0.00167037 -0.0779041
-0.165449 -0.00179385 -0.0791278
-0.168178 -0.00189688 -0.0803674
-0.170799 -0.00197741 -0.081625
-0.153549 -0.00131042 -0.0754406
-0.156421 -0.00147236 -0.0766376
-0.159234 -0.00161786 -0.077847
-0.161976 -0.00174472 -0.0790704
-0.164632 -0.00185072 -0.0803096
-0.167184 -0.00193369 -0.0815667
-0.147447 -0.00106044 -0.0741936
-0.150276 -0.00124042 -0.0753796
-0.15306 -0.00140606 -0.0765766
-0.15579 -0.00155514 -0.077786
-0.158453 -0.00168537 -0.0790092
-0.161034 -0.00179438 -0.080248
-0.163517 -0.00187983 -0.0815047
-0.144224 -0.00097641 -0.0741277
-0.146961 -0.0011599 -0.075314
-0.149657 -0.00132909 -0.0765113
-0.152301 -0.0014817 -0.0777208
-0.154883 -0.00161529 -0.0789439
-0.157388 -0.00172733 -0.0801826
-0.1598 -0.00181532 -0.081439
-0.140966 -0.000881555 -0.0740567
-0.143609 -0.00106834 -0.0752436
-0.146215 -0.00124095 -0.0764413
-0.148773 -0.00139699 -0.0776511
-0.151272 -0.00153392 -0.0788744
-0.1537 -0.00164903 -0.0801131
-0.15604 -0.00173962 -0.0813693
-0.1351 -0.000573794 -0.0728029
-0.137677 -0.000775392 -0.0739805
-0.140226 -0.000965228 -0.0751681
-0.14274 -0.00114106 -0.0763665
-0.145209 -0.00130044 -0.0775768
-0.147625 -0.00144067 -0.0788005
-0.149973 -0.00155888 -0.0800393
-0.15224 -0.00165215 -0.0812954
-0.131884 -0.000453372 -0.0727199
-0.134363 -0.000657439 -0.0738985
-0.136816 -0.00085002 -0.0750871
-0.139236 -0.00102887 -0.0762865
-0.141616 -0.00119145 -0.0774976
-0.143946 -0.00133492 -0.0787218
-0.146215 -0.00145625 -0.0799609
-0.148407 -0.00155229 -0.0812172
-0.128649 -0.000321039 -0.0726308
-0.131029 -0.000527163 -0.0738106
-0.133385 -0.000722161 -0.0750003
-0.135711 -0.000903766 -0.0762008
-0.138 -0.00106936 -0.077413
-0.140243 -0.00121601 -0.0786381
-0.142429 -0.00134047 -0.0798778
-0.144546 -0.00143936 -0.0811345
-0.123101 4.00882e-05 -0.0713632
-0.125399 -0.000176342 -0.0725349
-0.12768 -0.000384064 -0.0737161
-0.129938 -0.000581082 -0.0749074
-0.132168 -0.000765118 -0.0761093
-0.134365 -0.000933514 -0.0773228
-0.13652 -0.00108322 -0.078549
-0.138623 -0.00121082 -0.0797897
-0.140662 -0.00131265 -0.0810469
-0.119946 0.000198229 -0.0712589
-0.122142 -1.8839e-05 -0.072432
-0.124322 -0.000227625 -0.0736148
-0.126481 -0.000426196 -0.0748077
-0.128615 -0.000612276 -0.0760113
-0.130719 -0.000783184 -0.0772265
-0.132784 -0.000935787 -0.0784542
-0.134803 -0.00106649 -0.0796961
-0.136763 -0.00117135 -0.0809542
-0.116787 0.00036901 -0.0711468
-0.118882 0.00015194 -0.0723216
-0.120961 -5.7329e-05 -0.0735061
-0.123021 -0.00025691 -0.0747009
-0.125058 -0.000444564 -0.0759065
-0.127067 -0.00061762 -0.0771236
-0.129041 -0.000772893 -0.0783533
-0.130974 -0.00090663 -0.0795968
-0.132855 -0.0010146 -0.0808562
-0.113633 0.000552793 -0.0710266
-0.115626 0.000336422 -0.0722031
-0.117604 0.000127346 -0.0733896
-0.119564 -7.26199e-05 -0.0745865
-0.121503 -0.000261295 -0.0757943
-0.123416 -0.000436041 -0.0770137
-0.125299 -0.00059366 -0.0782456
-0.127144 -0.000730294 -0.0794912
-0.128943 -0.00084144 -0.0807523
-0.156776 -0.00136989 -0.0754976
-0.159733 -0.00152804 -0.0766946
-0.162629 -0.00166986 -0.0779043
-0.165449 -0.00179332 -0.079128
-0.168178 -0.00189633 -0.0803676
-0.170799 -0.00197685 -0.0816252
-0.153549 -0.00130994 -0.0754408
-0.156421 -0.00147186 -0.0766377
-0.159234 -0.00161733 -0.0778472
-0.161976 -0.00174417 -0.0790706
-0.164632 -0.00185015 -0.0803098
-0.167184 -0.0019331 -0.0815669
-0.147447 -0.00105997 -0.0741938
-0.150276 -0.00123993 -0.0753797
-0.15306 -0.00140553 -0.0765767
-0.15579 -0.00155459 -0.0777861
-0.158453 -0.0016848 -0.0790093
-0.161034 -0.00179378 -0.0802482
-0.163517 -0.00187921 -0.0815049
-0.144224 -0.000975922 -0.0741278
-0.146961 -0.00115939 -0.0753141
-0.149657 -0.00132855 -0.0765114
-0.152301 -0.00148113 -0.0777209
-0.154883 -0.00161469 -0.0789441
-0.157388 -0.00172671 -0.0801828
-0.1598 -0.00181468 -0.0814392
-0.140966 -0.000881051 -0.0740568
-0.143609 -0.00106781 -0.0752437
-0.146215 -0.00124038 -0.0764414
-0.148773 -0.0013964 -0.0776513
-0.151272 -0.0015333 -0.0788746
-0.1537 -0.00164838 -0.0801133
-0.15604 -0.00173895 -0.0813695
-0.1351 -0.000573305 -0.0728029
-0.137677 -0.000774871 -0.0739805
-0.140226 -0.000964676 -0.0751681
-0.14274 -0.00114048 -0.0763666
-0.145209 -0.00129983 -0.077577
-0.147625 -0.00144003 -0.0788006
-0.149973 -0.0015582 -0.0800394
-0.15224 -0.00165145 -0.0812956
-0.131884 -0.000452867 -0.07272
-0.134363 -0.000656901 -0.0738986
-0.136816 -0.000849448 -0.0750872
-0.139236 -0.00102827 -0.0762865
-0.141616 -0.00119081 -0.0774977
-0.143946 -0.00133425 -0.0787219
-0.146215 -0.00145555 -0.0799611
-0.148407 -0.00155156 -0.0812174
-0.128649 -0.00032052 -0.0726308
-0.131029 -0.000526608 -0.0738106
-0.133385 -0.00072157 -0.0750004
-0.135711 -0.000903139 -0.0762009
-0.138 -0.0010687 -0.0774131
-0.140243 -0.00121531 -0.0786382
-0.142429 -0.00133974 -0.079878
-0.144546 -0.0014386 -0.0811346
-0.123101 4.0587e-05 -0.0713632
-0.125399 -0.000175807 -0.0725349
-0.12768 -0.000383491 -0.0737161
-0.129938 -0.000580471 -0.0749074
-0.132168 -0.000764469 -0.0761093
-0.134365 -0.000932825 -0.0773229
-0.13652 -0.00108249 -0.0785491
-0.138623 -0.00121005 -0.0797898
-0.140662 -0.00131185 -0.081047
-0.119946 0.000198741 -0.0712588
-0.122142 -1.82888e-05 -0.072432
-0.124322 -0.000227035 -0.0736148
-0.126481 -0.000425565 -0.0748077
-0.128615 -0.000611604 -0.0760114
-0.130719 -0.00078247 -0.0772265
-0.132784 -0.000935032 -0.0784543
-0.134803 -0.00106569 -0.0796962
-0.136763 -0.00117052 -0.0809544
-0.116787 0.000369535 -0.0711468
-0.118882 0.000152506 -0.0723215
-0.120961 -5.67215e-05 -0.0735061
-0.123021 -0.000256258 -0.0747009
-0.125058 -0.000443868 -0.0759065
-0.127067 -0.000616878 -0.0771237
-0.129041 -0.000772106 -0.0783533
-0.130974 -0.0009058 -0.0795968
-0.132855 -0.00101373 -0.0808563
-0.113633 0.000553332 -0.0710265
-0.115626 0.000337003 -0.072203
-0.117604 0.000127972 -0.0733895
-0.119564 -7.19477e-05 -0.0745864
-0.121503 -0.000260574 -0.0757943
-0.123416 -0.000435271 -0.0770137
-0.125299 -0.00059284 -0.0782456
-0.127144 -0.000729426 -0.0794912
-0.128943 -0.000840525 -0.0807524
-0.156724 -0.0020266 -0.0751381
-0.15968 -0.00220271 -0.0763433
-0.162574 -0.00236182 -0.0775625
-0.165393 -0.00250182 -0.0787976
-0.168121 -0.00262052 -0.0800506
-0.170739 -0.00271584 -0.0813241
-0.153498 -0.00197622 -0.0750926
-0.156368 -0.00215641 -0.0762973
-0.15918 -0.00231947 -0.0775159
-0.161921 -0.00246313 -0.0787502
-0.164576 -0.00258506 -0.0800023
-0.167126 -0.00268305 -0.0812747
-0.147398 -0.00171576 -0.0738507
-0.150226 -0.00191486 -0.0750429
-0.153009 -0.00209903 -0.0762473
-0.155737 -0.00226596 -0.0774655
-0.158399 -0.00241325 -0.0786991
-0.160978 -0.00253844 -0.0799504
-0.16346 -0.00263913 -0.0812217
-0.144176 -0.00163914 -0.0737966
-0.146912 -0.00184201 -0.0749888
-0.149606 -0.00203 -0.0761932
-0.15225 -0.00220072 -0.0774111
-0.15483 -0.00235162 -0.0786442
-0.157334 -0.00248008 -0.0798947
-0.159744 -0.00258351 -0.0811651
-0.140919 -0.0015507 -0.0737375
-0.143561 -0.00175711 -0.0749301
-0.146165 -0.00194875 -0.0761346
-0.148722 -0.00212316 -0.0773524
-0.15122 -0.00227763 -0.0785851
-0.153646 -0.00240937 -0.079835
-0.155984 -0.0025156 -0.0811047
-0.135054 -0.00122804 -0.0724911
-0.137631 -0.00144992 -0.0736733
-0.140179 -0.00165959 -0.0748663
-0.142691 -0.00185469 -0.0760711
-0.14516 -0.00203265 -0.0772891
-0.147574 -0.00219065 -0.0785217
-0.149921 -0.00232569 -0.0797712
-0.152186 -0.00243478 -0.0810401
-0.131839 -0.00111176 -0.0724204
-0.134318 -0.00133627 -0.0736034
-0.13677 -0.00154886 -0.0747971
-0.139189 -0.00174717 -0.0760026
-0.141568 -0.00192854 -0.0772209
-0.143897 -0.00208999 -0.0784537
-0.146163 -0.00222834 -0.0797029
-0.148354 -0.00234035 -0.0809713
-0.128605 -0.00098247 -0.0723434
-0.130984 -0.00120915 -0.0735274
-0.133339 -0.00142431 -0.0747222
-0.135664 -0.00162555 -0.0759285
-0.137952 -0.00181012 -0.0771475
-0.140194 -0.00197493 -0.0783806
-0.142379 -0.00211659 -0.0796299
-0.144494 -0.0022316 -0.080898
-0.123059 -0.000602339 -0.0710847
-0.125357 -0.000839673 -0.0722598
-0.127636 -0.00106803 -0.073445
-0.129893 -0.00128532 -0.074641
-0.132123 -0.00148913 -0.0758484
-0.134319 -0.00167665 -0.0770684
-0.136473 -0.00184469 -0.0783023
-0.138575 -0.00198965 -0.079552
-0.140612 -0.00210774 -0.08082
-0.119904 -0.00044491 -0.0709925
-0.1221 -0.000682876 -0.072169
-0.124279 -0.000912331 -0.0733557
-0.126438 -0.00113124 -0.0745531
-0.128571 -0.00133719 -0.075762
-0.130674 -0.00152736 -0.0769833
-0.132738 -0.00169844 -0.0782183
-0.134755 -0.00184666 -0.0794686
-0.136714 -0.0019679 -0.0807369
-0.116747 -0.000273651 -0.0708926
-0.118841 -0.000511556 -0.0720707
-0.12092 -0.000741471 -0.073259
-0.122979 -0.000961403 -0.0744581
-0.125015 -0.00116899 -0.0756687
-0.127023 -0.0013614 -0.0768916
-0.128997 -0.00153528 -0.078128
-0.130928 -0.00168667 -0.0793795
-0.132807 -0.00181113 -0.0806484
-0.113594 -8.81489e-05 -0.0707845
-0.115586 -0.000325227 -0.0719641
-0.117564 -0.000554863 -0.0731542
-0.119523 -0.000775141 -0.0743553
-0.121461 -0.000983755 -0.0755679
-0.123374 -0.00117792 -0.0767928
-0.125256 -0.00135424 -0.0780311
-0.1271 -0.00150863 -0.0792842
-0.128898 -0.00163638 -0.0805542
-0.156669 -0.00269047 -0.0747784
-0.159624 -0.00288476 -0.0759916
-0.162517 -0.00306135 -0.0772204
-0.165334 -0.00321805 -0.0784668
-0.16806 -0.00335259 -0.0797332
-0.170677 -0.00346279 -0.0810225
-0.153444 -0.00265015 -0.0747443
-0.156313 -0.00284884 -0.0759567
-0.159124 -0.00302969 -0.0771845
-0.161863 -0.00319034 -0.0784297
-0.164516 -0.00332838 -0.0796946
-0.167065 -0.0034415 -0.0809822
-0.147346 -0.00237944 -0.0735079
-0.150172 -0.00259795 -0.0747062
-0.152955 -0.00280092 -0.0759181
-0.155682 -0.00298594 -0.077145
-0.158341 -0.0031505 -0.0783891
-0.16092 -0.00329205 -0.0796526
-0.163399 -0.0034081 -0.0809386
-0.144125 -0.00231074 -0.0734658
-0.14686 -0.00253331 -0.0746639
-0.149553 -0.00274038 -0.0758754
-0.152195 -0.00292947 -0.0771016
-0.154774 -0.00309792 -0.0783447
-0.157276 -0.00324298 -0.0796069
-0.159684 -0.00336199 -0.0808914
-0.140869 -0.00222926 -0.0734189
-0.14351 -0.00245562 -0.0746171
-0.146113 -0.00266662 -0.0758283
-0.148668 -0.00285966 -0.0770541
-0.151165 -0.00303193 -0.0782963
-0.153589 -0.00318051 -0.0795574
-0.155926 -0.00330251 -0.0808404
-0.135006 -0.00189186 -0.0721801
-0.137582 -0.00213441 -0.0733668
-0.140129 -0.00236428 -0.0745653
-0.14264 -0.00257898 -0.0757765
-0.145107 -0.00277583 -0.077002
-0.14752 -0.00295187 -0.0782437
-0.149865 -0.00310397 -0.0795038
-0.152129 -0.00322901 -0.0807855
-0.131792 -0.00178026 -0.0721219
-0.13427 -0.00202563 -0.0733092
-0.136721 -0.00225864 -0.0745082
-0.139139 -0.00247679 -0.0757197
-0.141517 -0.00267727 -0.0769452
-0.143844 -0.00285699 -0.0781865
-0.146109 -0.00301261 -0.0794458
-0.148298 -0.00314075 -0.0807263
-0.128559 -0.00165457 -0.0720575
-0.130937 -0.00190229 -0.0732457
-0.133292 -0.00213804 -0.0744453
-0.135616 -0.00235932 -0.0756574
-0.137902 -0.00256323 -0.0768832
-0.140143 -0.00274652 -0.0781245
-0.142327 -0.00290565 -0.0793833
-0.14444 -0.00303695 -0.0806628
-0.123015 -0.00125549 -0.0708078
-0.125312 -0.00151425 -0.0719864
-0.12759 -0.00176376 -0.0731756
-0.129847 -0.0020018 -0.0743763
-0.132076 -0.00222584 -0.0755893
-0.13427 -0.0024329 -0.0768157
-0.136423 -0.00261962 -0.0780572
-0.138523 -0.00278223 -0.0793158
-0.140559 -0.00291676 -0.0805946
-0.119861 -0.00109931 -0.0707283
-0.122056 -0.00135875 -0.0719081
-0.124235 -0.00160944 -0.0730987
-0.126393 -0.00184922 -0.0743006
-0.128525 -0.00207555 -0.0755147
-0.130626 -0.00228544 -0.0767421
-0.132689 -0.0024754 -0.0779842
-0.134705 -0.00264144 -0.079243
-0.136663 -0.00277927 -0.0805214
-0.116705 -0.000928129 -0.0706409
-0.118799 -0.0011875 -0.0718222
-0.120876 -0.00143868 -0.0730142
-0.122935 -0.00167956 -0.0742176
-0.12497 -0.00190765 -0.0754332
-0.126977 -0.00211994 -0.076662
-0.12895 -0.00231288 -0.0779051
-0.13088 -0.00248227 -0.0791645
-0.132757 -0.00262347 -0.0804429
-0.113553 -0.000741474 -0.0705451
-0.115545 -0.000999948 -0.0717279
-0.117522 -0.00125083 -0.0729217
-0.11948 -0.00149209 -0.0741269
-0.121418 -0.00172129 -0.0753442
-0.123329 -0.00193546 -0.0765747
-0.12521 -0.002131 -0.0778193
-0.127053 -0.00230359 -0.0790798
-0.128849 -0.00244822 -0.0803587
-0.163784 0.0120814 -0.0840457
-0.16676 0.0122856 -0.0850108
-0.169656 0.0124931 -0.085948
-0.172456 0.0127046 -0.0868529
-0.162826 -0.00358483 -0.0756562
-0.165797 -0.00377472 -0.0768958
-0.168689 -0.00394427 -0.0781551
-0.171484 -0.00409128 -0.0794365
-0.174166 -0.00421354 -0.0807433
-0.163764 0.0114031 -0.0836847
-0.166741 0.0115899 -0.08466
-0.169638 0.0117808 -0.0856095
-0.17244 0.0119767 -0.0865288
-0.16372 0.0100668 -0.0829705
-0.163742 0.0107319 -0.0833279
-0.166699 0.0102196 -0.083967
-0.16672 0.0109016 -0.0843139
-0.169599 0.0103781 -0.0849414
-0.169619 0.0110762 -0.0852757
-0.172404 0.0105431 -0.0858903
-0.172423 0.0112565 -0.0862098
-0.163693 0.00940697 -0.0826165
-0.163693 0.00940648 -0.0826162
-0.166673 0.00954319 -0.0836241
-0.166673 0.00954268 -0.0836237
-0.169575 0.00968578 -0.0846116
-0.169575 0.00968524 -0.0846112
-0.172381 0.00983574 -0.0855759
-0.172381 0.00983519 -0.0855754
-0.175072 0.00999427 -0.0865137
-0.163665 0.00875094 -0.0822687
-0.166646 0.00887068 -0.0832879
-0.169549 0.0089975 -0.0842891
-0.172356 0.0091325 -0.0852695
-0.175048 0.00927692 -0.0862262
-0.163636 0.00809975 -0.0819236
-0.166618 0.00820315 -0.0829546
-0.169521 0.00831433 -0.0839697
-0.172329 0.00843444 -0.0849663
-0.175022 0.0085648 -0.085942
-0.163606 0.00745205 -0.0815779
-0.166589 0.00753926 -0.0826207
-0.169492 0.00763494 -0.0836496
-0.172301 0.00774029 -0.0846625
-0.174995 0.00785668 -0.0856573
-0.163572 0.00680679 -0.0812335
-0.166555 0.00687797 -0.0822884
-0.169459 0.00695829 -0.0833315
-0.172268 0.00704904 -0.0843608
-0.174963 0.00715162 -0.0853747
-0.163537 0.00616393 -0.0808926
-0.166521 0.0062191 -0.0819598
-0.169425 0.00628411 -0.0830172
-0.172234 0.00636028 -0.0840632
-0.174929 0.00644906 -0.0850963
-0.163501 0.00552377 -0.0805528
-0.166484 0.00556297 -0.0816324
-0.169389 0.00561265 -0.0827042
-0.172198 0.00567421 -0.0837669
-0.174894 0.00574913 -0.0848193
-0.163464 0.0048844 -0.0802125
-0.166448 0.00490769 -0.0813044
-0.169352 0.00494213 -0.0823906
-0.172161 0.00498914 -0.0834701
-0.174857 0.00505025 -0.0845416
-0.163423 0.00424507 -0.0798719
-0.166407 0.00425253 -0.0809762
-0.169311 0.0042718 -0.0820768
-0.17212 0.00430436 -0.083173
-0.174815 0.00435176 -0.0842637
-0.163381 0.0036059 -0.0795306
-0.166364 0.00359751 -0.0806472
-0.169268 0.00360159 -0.0817622
-0.172077 0.00361968 -0.082875
-0.174772 0.00365336 -0.0839849
-0.163381 0.00360679 -0.0795311
-0.166364 0.00359844 -0.0806478
-0.169268 0.00360256 -0.0817629
-0.172076 0.00362069 -0.0828758
-0.174772 0.00365439 -0.0839857
-0.163339 0.00296612 -0.0791892
-0.166322 0.00294194 -0.0803182
-0.169225 0.00293092 -0.0814476
-0.172034 0.00293464 -0.082577
-0.174728 0.00295468 -0.083706
-0.163295 0.00232383 -0.0788467
-0.166276 0.00228381 -0.079988
-0.169179 0.00225764 -0.0811317
-0.171987 0.00224694 -0.0822777
-0.174681 0.00225329 -0.0834257
-0.163249 0.00168088 -0.078503
-0.16623 0.00162486 -0.0796565
-0.169132 0.00158335 -0.0808143
-0.171939 0.00155804 -0.0819768
-0.174632 0.00155053 -0.0831439
-0.1632 0.00103695 -0.0781562
-0.16618 0.000964758 -0.0793214
-0.169081 0.000907771 -0.0804931
-0.171888 0.000867716 -0.0816716
-0.17458 0.000846276 -0.0828574
-0.163152 0.000389127 -0.0778072
-0.166131 0.000300728 -0.0789839
-0.169032 0.000228239 -0.080169
-0.171837 0.000173441 -0.0813632
-0.174528 0.000138072 -0.0825675
-0.163101 -0.000262983 -0.0774577
-0.166079 -0.000367683 -0.0786458
-0.168978 -0.000455759 -0.0798443
-0.171782 -0.000525374 -0.0810543
-0.174473 -0.000574745 -0.082277
-0.163049 -0.000917836 -0.0771055
-0.166026 -0.00103914 -0.0783049
-0.168924 -0.00114312 -0.0795166
-0.171726 -0.00122785 -0.080742
-0.174415 -0.0012915 -0.0819829
-0.163049 -0.000917352 -0.0771058
-0.166026 -0.00103864 -0.0783052
-0.168924 -0.00114259 -0.079517
-0.171726 -0.0012273 -0.0807425
-0.174415 -0.00129093 -0.0819834
-0.162994 -0.001575 -0.0767475
-0.16597 -0.00171316 -0.0779574
-0.168866 -0.00183327 -0.0791816
-0.171667 -0.00193334 -0.0804217
-0.174355 -0.00201148 -0.0816798
-0.162994 -0.00157453 -0.0767477
-0.16597 -0.00171267 -0.0779576
-0.168866 -0.00183276 -0.0791818
-0.171667 -0.00193282 -0.0804219
-0.174355 -0.00201094 -0.0816801
-0.16294 -0.00223842 -0.0763855
-0.165915 -0.00239354 -0.0776055
-0.16881 -0.00252987 -0.0788415
-0.171609 -0.00264534 -0.0800955
-0.174295 -0.00273802 -0.0813701
-0.162883 -0.00290921 -0.0760229
-0.165856 -0.00308149 -0.0772529
-0.16875 -0.00323421 -0.0785006
-0.171547 -0.00336524 -0.0797686
-0.174231 -0.00347255 -0.0810596
CELL_DATA 2144
SCALARS MARKER int 1
LOOKUP_TABLE default
1
1
1
1
1
1
1
1
1
1
1
1
1
1
1
1
1
1
1
1
1
1
1
1
1
1
1
1
1
1
1
1
1
1
1
1
1
1
1
1
1
1
1
1
1
1
1
1
1
1
1
1
1
1
1
1
1
1
1
1
1
1
1
1
1
1
1
1
1
1
1
1
1
1
1
1
1
1
1
1
1
1
1
1
1
1
1
1
1
1
1
1
1
1
1
1
1
1
1
1
1
1
1
1
1
1
1
1
1
1
1
1
1
1
1
1
1
1
1
1
1
1
1
1
1
1
1
1
1
1
1
1
1
1
1
1
1
1
1
1
1
1
1
1
1
1
1
1
1
1
2
2
2
2
2
2
2
2
2
2
2
2
2
2
2
2
2
2
2
2
2
2
2
2
2
2
2
2
2
2
2
2
2
2
2
2
2
2
2
2
2
2
2
2
2
2
2
2
2
2
2
2
2
2
2
2
2
2
2
2
2
2
2
2
2
2
2
2
2
2
2
2
2
2
1
1
1
1
1
1
1
1
1
1
1
1
1
1
1
1
1
1
1
1
1
1
1
1
1
1
1
1
1
1
1
1
1
1
1
1
1
1
1
1
1
1
1
1
1
1
1
1
1
1
1
1
1
1
1
1
1
1
1
1
1
1
1
1
1
1
1
1
1
1
1
1
1
1
1
1
1
1
1
1
1
1
1
1
1
1
1
1
1
1
1
1
1
1
1
1
1
1
1
1
1
1
1
1
1
1
1
1
1
1
1
1
1
1
1
1
1
1
1
1
1
1
1
1
1
1
1
1
1
1
1
1
1
1
1
1
1
1
1
1
1
1
1
1
1
1
1
1
1
1
1
1
1
1
1
1
1
1
1
1
1
1
1
1
1
1
1
1
1
1
1
1
1
1
1
1
1
1
1
1
1
1
1
1
1
1
1
1
1
1
1
1
1
1
1
1
1
1
1
1
1
1
1
1
1
1
1
1
1
1
1
1
1
1
1
1
1
1
1
1
1
1
1
1
1
1
1
1
1
1
1
1
1
1
1
1
1
1
1
1
1
1
1
1
1
1
1
1
1
1
1
1
1
1
1
1
1
1
1
1
1
1
1
1
1
1
1
1
1
1
1
1
1
1
1
1
1
1
1
1
1
1
1
1
1
1
1
1
1
1
1
1
1
1
1
1
1
1
1
1
1
1
1
1
1
1
1
1
1
1
1
1
1
1
1
1
1
1
1
1
1
1
1
1
1
1
1
1
1
1
1
1
1
1
1
1
1
1
1
1
1
1
1
1
1
1
1
1
1
1
1
1
1
1
1
1
1
1
1
1
1
1
1
1
1
1
1
1
1
1
1
1
1
1
1
1
1
1
1
1
1
1
1
1
1
1
1
1
1
1
1
1
1
1
1
1
1
1
1
1
1
1
1
1
1
1
1
1
1
1
1
1
1
1
1
1
1
1
1
1
1
1
1
1
1
1
1
1
1
1
1
1
1
1
1
1
1
1
1
1
1
1
1
1
1
1
1
1
1
1
1
1
1
1
1
1
1
1
1
1
1
1
1
1
1
1
1
1
1
1
1
1
1
1
1
1
1
1
1
1
1
1
1
1
1
1
1
1
1
1
1
1
1
1
1
1
1
1
1
1
1
1
1
1
1
1
1
1
1
1
1
1
1
1
1
1
1
1
1
1
1
1
1
1
1
1
1
1
1
1
1
1
1
1
1
1
1
1
1
1
1
1
1
1
1
1
1
1
1
1
1
1
1
1
1
1
1
1
1
1
1
1
1
1
1
1
1
1
1
1
1
1
1
1
1
1
1
1
1
1
1
1
1
1
1
1
1
1
1
1
1
1
1
1
1
1
1
1
1
1
1
1
1
1
1
1
1
1
1
1
1
1
1
1
1
1
1
1
1
1
1
1
1
1
1
1
1
1
1
1
1
1
1
1
1
1
1
1
1
1
1
1
1
1
1
1
1
1
1
1
1
1
1
1
1
1
1
1
1
1
1
1
1
1
1
1
1
1
1
1
1
1
1
1
1
1
1
1
1
1
1
1
1
1
1
1
1
1
1
1
1
1
1
5
5
5
5
5
5
5
5
5
5
5
5
5
5
5
5
5
5
5
5
5
5
5
5
5
5
5
5
5
5
5
5
5
5
5
5
5
5
5
5
5
5
5
5
5
5
5
5
5
5
5
5
5
5
5
5
5
5
5
5
5
5
5
5
5
5
5
5
5
5
5
5
5
5
5
5
5
1
1
1
1
1
1
1
1
1
1
1
1
1
1
1
1
1
1
1
1
1
1
1
1
1
1
1
1
1
1
1
1
1
1
1
1
1
1
1
1
1
1
1
1
1
1
1
1
1
1
1
1
1
1
1
1
1
1
1
1
1
1
1
1
1
1
1
1
1
1
1
1
1
1
1
1
1
1
1
1
1
1
1
1
1
1
1
1
1
1
1
1
1
1
1
1
1
1
1
1
1
1
1
1
1
1
1
1
1
1
1
1
1
1
1
1
1
1
1
1
1
1
1
1
1
1
1
1
1
1
1
1
1
1
1
1
1
1
1
1
1
1
1
1
1
1
1
1
1
1
1
1
1
1
1
1
1
1
1
1
1
1
1
1
1
1
1
1
1
1
1
1
1
1
1
1
1
1
1
1
1
1
1
1
1
1
1
1
1
1
1
1
1
1
1
1
1
1
1
1
1
1
1
1
1
1
1
1
1
1
1
1
1
1
1
1
1
1
1
1
1
1
1
1
1
1
1
1
1
1
1
1
1
1
1
1
1
1
1
1
1
1
1
1
1
1
1
1
1
1
1
1
1
1
1
1
1
1
1
1
1
1
1
1
1
1
1
1
1
1
1
1
1
1
1
1
1
1
1
1
1
1
1
1
1
1
1
1
1
1
1
1
1
1
1
1
1
1
1
1
1
1
1
1
1
1
1
1
1
1
1
1
1
1
1
1
1
1
1
1
1
1
1
1
1
1
1
1
1
1
1
1
1
1
1
1
1
1
1
1
1
1
1
1
1
1
1
1
1
1
1
1
1
1
1
1
1
1
1
1
1
1
1
1
1
1
1
1
1
1
1
1
1
1
1
1
1
1
1
1
1
1
1
1
1
1
1
1
1
1
1
1
1
1
1
1
1
1
1
1
1
1
1
1
1
1
1
1
1
1
1
1
1
1
1
1
1
1
1
1
1
1
1
1
1
1
1
1
1
1
1
1
1
1
1
1
1
1
1
1
1
1
1
1
1
1
1
1
1
1
1
1
1
1
1
1
1
1
1
1
1
1
1
1
1
1
1
1
1
1
1
1
1
1
1
1
1
1
1
1
1
1
1
1
1
1
1
1
1
1
1
1
1
1
1
1
1
1
1
1
1
1
1
1
1
1
1
1
1
1
1
1
1
1
1
1
1
1
1
1
1
1
1
1
1
1
1
1
1
1
1
1
1
1
1
1
1
1
1
6
6
6
6
6
6
6
6
6
6
6
6
6
6
6
6
6
6
6
6
6
6
6
6
6
6
6
6
6
6
6
6
6
6
6
6
6
6
6
6
6
6
6
6
6
6
6
6
6
6
6
6
6
6
6
6
6
6
6
6
6
6
6
6
6
6
6
6
6
6
6
6
6
6
6
6
6
1
1
1
1
1
1
1
1
1
1
1
1
1
1
1
1
1
1
1
1
1
1
1
1
1
1
1
1
1
1
1
1
1
1
1
1
1
1
1
1
1
1
1
1
1
1
1
1
1
1
1
1
1
1
1
1
1
1
1
1
1
1
1
1
1
1
1
1
1
1
1
1
1
1
1
1
1
7
7
7
7
7
7
7
7
7
7
7
7
7
7
7
7
7
7
7
7
7
7
7
7
7
7
7
7
7
7
7
7
7
7
7
7
7
7
7
7
7
7
7
7
7
7
7
7
7
7
7
7
7
7
7
7
7
7
7
7
7
7
7
7
7
7
7
7
7
7
7
7
7
7
7
7
7
1
1
1
1
1
1
1
1
1
1
1
1
1
1
1
1
1
1
1
1
1
1
1
1
1
1
1
1
1
1
1
1
1
1
1
1
1
1
1
1
1
1
1
1
1
1
1
1
1
1
1
1
1
1
1
1
1
1
1
1
1
1
1
1
1
1
1
1
1
1
1
1
1
1
1
1
1
1
1
1
1
1
1
1
1
1
1
1
1
1
1
1
1
1
1
1
1
1
1
1
1
1
1
1
1
1
1
1
1
1
1
1
1
1
1
1
1
1
1
1
1
1
1
1
1
1
1
1
1
1
1
1
1
1
1
1
1
1
1
1
1
1
1
1
1
1
1
1
1
1
1
1
1
1
1
1
1
1
1
1
1
1
1
1
1
1
1
1
1
1
1
1
1
1
1
1
1
1
1
1
1
1
1
1
1
1
1
1
1
1
1
1
1
1
1
1
1
1
1
1
1
1
1
1
1
1
1
1
1
1
1
1
1
1
1
1
1
1
1
1
1
1
1
1
1
1
1
1
1
1
1
1
1
1
1
1
1
1
1
1
1
1
1
1
1
1
1
1
1
1
1
1
1
1
1
1
1
1
1
1
1
1
1
1
1
1
1
1
1
1
1
1
1
1
1
1
1
1
1
1
1
1
1
1
1
1
1
1
1
1
1
1
1
1
1
1
1
1
1
1
1
1
1
1
1
1
1
1
1
1
1
1
1
1
1
1
1
1
1
1
1
1
1
1
1
1
1
1
1
1
1
1
1
1
1
1
1
1
1
1
1
1
1
1
1
1
1
1
1
1
1
1
1
1
1
1
1
1
1
1
1
1
1
1
1
1
1
1
1
1
1
1
1
1
1
1
1
1
1
1
SCALARS LOCAL_STRESS double 6
LOOKUP_TABLE default
-27.2868 -0.67159 -0.0868142 3.15387 0.00568514 0.162846
-25.7513 -0.61758 -0.0893374 3.10838 0.00499452 0.172094
-24.0734 -0.552396 -0.0916222 3.05432 0.00412231 0.181424
-29.9503 -0.786736 -0.0849832 3.18161 0.00683612 0.154037
-28.586 -0.74745 -0.0879447 3.14417 0.00631756 0.163621
-27.0803 -0.698669 -0.0906785 3.09885 0.00562741 0.173254
-25.4268 -0.638671 -0.0931803 3.04466 0.00473968 0.182985
-31.2426 -0.860511 -0.0857586 3.17052 0.00744822 0.154212
-29.9148 -0.826695 -0.0888755 3.13343 0.00694038 0.164233
-28.4411 -0.783599 -0.0918696 3.0883 0.00626823 0.174309
-26.8149 -0.729054 -0.094569 3.03404 0.00537557 0.184484
-33.7053 -0.958054 -0.0829533 3.18754 0.00842093 0.14387
-32.5613 -0.937619 -0.0864131 3.15816 0.00808513 0.154214
-31.2736 -0.909591 -0.0897073 3.12156 0.00759425 0.164689
-29.8353 -0.8724 -0.0929015 3.07668 0.00693114 0.175244
-28.239 -0.823698 -0.0958172 3.02238 0.00601403 0.185894
-26.4727 -0.760589 -0.0988322 2.95715 0.00475616 0.197428
-35.0024 -1.03251 -0.0832692 3.17333 0.0090454 0.143192
-33.9061 -1.01792 -0.0868554 3.14454 0.008734 0.153998
-32.6624 -0.996107 -0.0903709 3.10846 0.0082706 0.164968
-31.2631 -0.965154 -0.0937575 3.06391 0.00761944 0.17604
-29.7007 -0.922638 -0.0968868 3.00961 0.00669778 0.187229
-27.9618 -0.865338 -0.100073 2.94395 0.00544495 0.199283
-36.3204 -1.11007 -0.083431 3.15764 0.00968745 0.142249
-35.2765 -1.10165 -0.0871662 3.12952 0.00940613 0.153544
-34.0811 -1.08629 -0.0908502 3.09405 0.00897135 0.165043
-32.725 -1.06194 -0.0944215 3.04989 0.00833649 0.176678
-31.1997 -1.02601 -0.0977419 2.99565 0.00741116 0.188445
-29.4915 -0.97512 -0.101168 2.92958 0.00617585 0.201065
-38.499 -1.18759 -0.0794798 3.1616 0.0104431 0.129651
-37.658 -1.19072 -0.083397 3.14036 0.0103544 0.141038
-36.672 -1.18876 -0.0872876 3.11299 0.0100991 0.152814
-35.5297 -1.18018 -0.091129 3.0782 0.00969897 0.164883
-34.2213 -1.16284 -0.094876 3.03454 0.00908593 0.177132
-32.7372 -1.13395 -0.0983816 2.98043 0.00816073 0.189531
-31.0642 -1.08999 -0.10208 2.91397 0.00691837 0.202748
-39.7909 -1.2651 -0.0791767 3.14193 0.0110528 0.127576
-39.015 -1.27447 -0.0831801 3.12136 0.010987 0.139443
-38.0916 -1.27925 -0.0872048 3.09481 0.0108133 0.151767
-37.0077 -1.27779 -0.0911907 3.06082 0.0104556 0.16445
-35.7521 -1.2679 -0.0951037 3.01775 0.00987179 0.177368
-34.314 -1.24656 -0.0987871 2.96386 0.00895197 0.190464
-32.6788 -1.20985 -0.102626 2.8971 0.00771352 0.204374
-41.0938 -1.34551 -0.0786713 3.1204 0.01168 0.125133
-40.3889 -1.36138 -0.0827733 3.10054 0.0116643 0.137466
-39.5341 -1.37312 -0.0869027 3.07485 0.0115484 0.150353
-38.5147 -1.37914 -0.0910182 3.04175 0.0112427 0.163694
-37.3176 -1.37716 -0.0950864 2.99942 0.0106979 0.177345
-35.9307 -1.36395 -0.0989413 2.94586 0.00979103 0.191211
-34.338 -1.33516 -0.102939 2.87878 0.0085533 0.205891
-42.897 -1.40375 -0.0739075 3.11184 0.0121202 0.110356
-42.4052 -1.42882 -0.0779719 3.09693 0.0123228 0.122304
-41.7777 -1.45139 -0.0821532 3.07774 0.0123514 0.135038
-40.9979 -1.47035 -0.0863668 3.05294 0.0123031 0.148507
-40.0496 -1.4842 -0.0905942 3.02084 0.0120607 0.162552
-38.9178 -1.49063 -0.0948053 2.97941 0.0115672 0.177006
-37.5881 -1.4862 -0.0988254 2.92635 0.010684 0.191728
-36.0431 -1.46606 -0.102977 2.85902 0.00945615 0.207269
-44.1326 -1.48365 -0.0730208 3.08597 0.0126496 0.106593
-43.7228 -1.51508 -0.0771136 3.07137 0.0128751 0.118896
-43.1784 -1.54448 -0.0813077 3.0528 0.0130424 0.132088
-42.4807 -1.57089 -0.0855818 3.02891 0.0130717 0.146148
-41.6112 -1.5929 -0.0898996 2.99794 0.0129062 0.160937
-40.552 -1.60825 -0.0942392 2.9576 0.0124807 0.176269
-39.2866 -1.61331 -0.0984183 2.90523 0.0116371 0.191954
-37.7955 -1.60272 -0.102725 2.83778 0.0104328 0.20846
-45.6729 -1.48749 -0.0640842 3.07976 0.0122476 0.0803806
-45.5677 -1.52722 -0.0679336 3.06995 0.0127793 0.0909352
-45.3624 -1.56627 -0.0719225 3.05813 0.0132308 0.102436
-45.0413 -1.60426 -0.0760334 3.04365 0.013529 0.114968
-44.5861 -1.6406 -0.0802018 3.02562 0.0137577 0.128552
-43.9777 -1.67464 -0.0844879 3.00265 0.0138544 0.143174
-43.1955 -1.70514 -0.0888892 2.97286 0.0137732 0.158727
-42.2185 -1.72997 -0.0933915 2.9338 0.0134429 0.175019
-41.0263 -1.74541 -0.0977938 2.8824 0.0126806 0.191796
-39.5962 -1.7453 -0.102216 2.81501 0.0114884 0.209409
27.1042 -3.54654 -0.0848167 0.751886 0.196073 -0.399049
27.3225 -3.45433 -0.0872635 0.717249 0.211461 -0.416345
27.5555 -3.34784 -0.0894081 0.682781 0.229186 -0.431989
26.0125 -3.69587 -0.0828453 0.804796 0.173946 -0.394397
26.1789 -3.62064 -0.0858146 0.76954 0.187949 -0.414176
26.3547 -3.53221 -0.088474 0.733698 0.203607 -0.432684
26.5429 -3.42917 -0.09085 0.697892 0.221718 -0.4495
25.0902 -3.76787 -0.0834833 0.823312 0.165056 -0.408405
25.2135 -3.69686 -0.086619 0.786928 0.179272 -0.429546
25.3436 -3.61255 -0.0895321 0.749752 0.195214 -0.449421
25.485 -3.51318 -0.0921091 0.712578 0.213724 -0.467538
24.0512 -3.89621 -0.0805072 0.877458 0.14263 -0.399298
24.1269 -3.84177 -0.0839903 0.841506 0.155597 -0.4226
24.2055 -3.77532 -0.0873064 0.803977 0.169992 -0.445212
24.2881 -3.69535 -0.0904223 0.76546 0.186209 -0.466581
24.3793 -3.59997 -0.093225 0.726821 0.205134 -0.486115
24.4879 -3.48703 -0.0945626 0.689166 0.228662 -0.503169
23.0932 -3.96703 -0.0806556 0.896318 0.132422 -0.412094
23.1237 -3.91747 -0.0842734 0.859437 0.145511 -0.436917
23.1543 -3.85595 -0.0878148 0.820696 0.160065 -0.46115
23.1867 -3.78064 -0.0911286 0.780798 0.176541 -0.484168
23.2252 -3.68954 -0.0941383 0.740668 0.19588 -0.505309
23.2791 -3.58021 -0.0956168 0.701546 0.220016 -0.523827
22.0948 -4.03934 -0.0806335 0.914801 0.121568 -0.42488
22.0779 -3.99503 -0.0844054 0.877003 0.134752 -0.451338
22.0587 -3.93873 -0.0881254 0.83707 0.149441 -0.477333
22.0382 -3.86842 -0.0916331 0.795749 0.166149 -0.502177
22.0204 -3.78192 -0.0948465 0.754044 0.185885 -0.525113
22.0144 -3.67662 -0.0965269 0.713293 0.210625 -0.545288
21.1189 -4.14152 -0.076477 0.968646 0.098058 -0.409655
21.0553 -4.11304 -0.0804 0.932869 0.110034 -0.43762
20.9889 -4.07434 -0.0843274 0.894212 0.123271 -0.465801
20.9175 -4.0236 -0.088218 0.853088 0.138065 -0.493718
20.8411 -3.95869 -0.0919163 0.810296 0.154969 -0.520589
20.7634 -3.87717 -0.0953319 0.76693 0.175075 -0.545546
20.6927 -3.7763 -0.0972394 0.724458 0.200425 -0.567566
20.0876 -4.21085 -0.075952 0.986821 0.0857299 -0.420535
19.9738 -4.18804 -0.0799519 0.950547 0.097761 -0.450143
19.8555 -4.15528 -0.0840194 0.911045 0.111019 -0.480228
19.7294 -4.11052 -0.0880703 0.868741 0.125883 -0.510238
19.5942 -4.05143 -0.0919561 0.82443 0.142934 -0.539363
19.4527 -3.97533 -0.0955758 0.7793 0.163362 -0.56661
19.3146 -3.87914 -0.0976029 0.735011 0.189343 -0.590772
19.0157 -4.28105 -0.075203 1.00439 0.0726452 -0.431112
18.8491 -4.26426 -0.0792871 0.967725 0.0846746 -0.462435
18.6765 -4.23777 -0.0834587 0.927481 0.0979446 -0.494511
18.4932 -4.19939 -0.0876562 0.884026 0.112838 -0.526793
18.2962 -4.14661 -0.0917262 0.838152 0.129975 -0.558424
18.0869 -4.07644 -0.0955554 0.791138 0.150653 -0.588275
17.8748 -3.98537 -0.09773 0.744856 0.177234 -0.614917
18.1231 -4.35492 -0.0702691 1.05431 0.048035 -0.409501
17.903 -4.35199 -0.0742349 1.02131 0.0587713 -0.441275
17.6805 -4.34151 -0.0783713 0.984375 0.0707399 -0.474326
17.451 -4.32163 -0.0826195 0.943498 0.0839944 -0.508499
17.208 -4.2901 -0.0869443 0.898947 0.0988753 -0.543233
16.9462 -4.24417 -0.0911939 0.851475 0.116024 -0.577645
16.6648 -4.18052 -0.0952417 0.80244 0.136852 -0.610471
16.3727 -4.09512 -0.0975712 0.753964 0.163952 -0.64001
17.0271 -4.42042 -0.0691073 1.07038 0.0333922 -0.417407
16.7484 -4.42356 -0.0730615 1.03749 0.0440417 -0.450699
16.4672 -4.4196 -0.077181 1.00044 0.055903 -0.485623
16.1779 -4.40669 -0.0814705 0.95907 0.0691106 -0.521984
15.8725 -4.38248 -0.0858944 0.913514 0.0839378 -0.559339
15.5431 -4.344 -0.0903138 0.864433 0.101018 -0.596819
15.1855 -4.28755 -0.0945929 0.813227 0.121862 -0.633047
14.8068 -4.20849 -0.0970986 0.7623 0.149341 -0.666005
15.8935 -4.48616 -0.0677296 1.08537 0.0179388 -0.424552
15.5523 -4.49555 -0.0716304 1.05275 0.0283746 -0.45936
15.2095 -4.49831 -0.0756749 1.01576 0.0400999 -0.496099
14.8576 -4.49268 -0.0799357 0.974077 0.0532202 -0.534685
14.4868 -4.47628 -0.0844313 0.927658 0.0679563 -0.574792
14.086 -4.44596 -0.0890486 0.877011 0.0848877 -0.615631
13.6471 -4.39758 -0.0936407 0.823486 0.105569 -0.655765
13.1753 -4.32561 -0.0963243 0.769819 0.133238 -0.692776
0 0 0 0 0 0
0 0 0 0 0 0
0 0 0 0 0 0
0 0 0 0 0 0
0 0 0 0 0 0
0 0 0 0 0 0
0 0 0 0 0 0
0 0 0 0 0 0
0 0 0 0 0 0
0 0 0 0 0 0
0 0 0 0 0 0
0 0 0 0 0 0
0 0 0 0 0 0
0 0 0 0 0 0
0 0 0 0 0 0
0 0 0 0 0 0
0 0 0 0 0 0
0 0 0 0 0 0
0 0 0 0 0 0
0 0 0 0 0 0
0 0 0 0 0 0
0 0 0 0 0 0
0 0 0 0 0 0
0 0 0 0 0 0
0 0 0 0 0 0
0 0 0 0 0 0
0 0 0 0 0 0
0 0 0 0 0 0
0 0 0 0 0 0
0 0 0 0 0 0
0 0 0 0 0 0
0 0 0 0 0 0
0 0 0 0 0 0
0 0 0 0 0 0
0 0 0 0 0 0
0 0 0 0 0 0
0 0 0 0 0 0
0 0 0 0 0 0
0 0 0 0 0 0
0 0 0 0 0 0
0 0 0 0 0 0
0 0 0 0 0 0
0 0 0 0 0 0
0 0 0 0 0 0
0 0 0 0 0 0
0 0 0 0 0 0
0 0 0 0 0 0
0 0 0 0 0 0
0 0 0 0 0 0
0 0 0 0 0 0
0 0 0 0 0 0
0 0 0 0 0 0
0 0 0 0 0 0
0 0 0 0 0 0
0 0 0 0 0 0
0 0 0 0 0 0
0 0 0 0 0 0
0 0 0 0 0 0
0 0 0 0 0 0
0 0 0 0 0 0
0 0 0 0 0 0
0 0 0 0 0 0
0 0 0 0 0 0
0 0 0 0 0 0
0 0 0 0 0 0
0 0 0 0 0 0
0 0 0 0 0 0
0 0 0 0 0 0
0 0 0 0 0 0
0 0 0 0 0 0
0 0 0 0 0 0
0 0 0 0 0 0
0 0 0 0 0 0
0 0 0 0 0 0
-26.6656 -1.29042 -0.0844178 3.07811 0.124637 0.709159
-25.7012 -1.25792 -0.0865702 3.04623 0.114108 0.755961
-24.6649 -1.21691 -0.0879968 3.00948 0.0995488 0.804167
-23.5627 -1.16632 -0.0882681 2.96796 0.0798318 0.854116
-28.4666 -1.3656 -0.0826593 3.10675 0.155511 0.667727
-27.5991 -1.34454 -0.085432 3.07972 0.148967 0.714761
-26.6556 -1.31604 -0.0878035 3.0477 0.138919 0.763432
-25.6382 -1.27895 -0.0894797 3.01052 0.124587 0.813712
-24.5523 -1.23193 -0.0898973 2.96836 0.104809 0.865876
-29.4001 -1.41763 -0.0833037 3.10794 0.18004 0.671045
-28.5563 -1.40079 -0.0862575 3.08098 0.174248 0.719913
-27.6348 -1.3766 -0.0888782 3.04881 0.164799 0.77062
-26.6377 -1.34364 -0.0907855 3.01123 0.150749 0.823137
-25.5708 -1.30061 -0.0914609 2.96835 0.130936 0.877688
-31.0947 -1.47799 -0.0804621 3.1304 0.207283 0.625293
-30.3561 -1.47168 -0.083825 3.10863 0.20553 0.673815
-29.5379 -1.4593 -0.0869623 3.08183 0.20061 0.724595
-28.6399 -1.43963 -0.0897901 3.04956 0.191844 0.77747
-27.6645 -1.41107 -0.0918567 3.01156 0.178196 0.832388
-26.6175 -1.37211 -0.0926987 2.96798 0.158424 0.889548
-32.0436 -1.52936 -0.0806038 3.13028 0.232622 0.625621
-31.3346 -1.52761 -0.0841206 3.10887 0.231991 0.675904
-30.5439 -1.52004 -0.0874875 3.08226 0.228092 0.72872
-29.6713 -1.50517 -0.0905205 3.0499 0.220134 0.783913
-28.7193 -1.48126 -0.0927206 3.0115 0.207032 0.841423
-27.6943 -1.44663 -0.0937168 2.96713 0.187373 0.901413
-33.0126 -1.5825 -0.0805666 3.12952 0.258835 0.625133
-32.3357 -1.58556 -0.084252 3.10855 0.25948 0.677236
-31.5746 -1.58301 -0.0878115 3.0822 0.256748 0.732189
-30.7293 -1.57325 -0.0910493 3.04981 0.24975 0.78986
-29.8024 -1.55437 -0.0934517 3.01099 0.237283 0.850179
-28.8011 -1.52453 -0.0946527 2.96576 0.21784 0.913254
-34.5585 -1.62514 -0.0764353 3.14367 0.281126 0.573001
-34.0012 -1.63736 -0.0803126 3.12805 0.285935 0.623728
-33.3593 -1.64546 -0.0841619 3.10764 0.288012 0.677683
-32.6303 -1.64821 -0.0879091 3.08162 0.286628 0.734881
-31.8143 -1.64388 -0.0913524 3.04926 0.280769 0.795197
-30.9145 -1.6304 -0.0939599 3.01004 0.269099 0.858561
-29.9388 -1.60577 -0.095385 2.96391 0.249963 0.924995
-35.5271 -1.67675 -0.0758396 3.14079 0.30743 0.568885
-35.0096 -1.69385 -0.0798103 3.12583 0.313849 0.621204
-34.4054 -1.70726 -0.083822 3.10604 0.317593 0.6771
-33.7112 -1.7156 -0.0877497 3.08046 0.317765 0.736644
-32.9268 -1.71709 -0.0914002 3.0482 0.313263 0.79978
-32.0559 -1.70944 -0.0942192 3.00861 0.302591 0.866448
-31.107 -1.69029 -0.0957901 2.96156 0.283917 0.936619
-36.5108 -1.72982 -0.0749936 3.13697 0.334385 0.563572
-36.037 -1.75202 -0.079062 3.12277 0.342614 0.617459
-35.4739 -1.77092 -0.0831974 3.10369 0.348205 0.675312
-34.8175 -1.78516 -0.0872948 3.07866 0.350175 0.737293
-34.0673 -1.79285 -0.0911539 3.04661 0.347289 0.803419
-33.2273 -1.79152 -0.0941954 3.0067 0.337865 0.873671
-32.307 -1.7784 -0.0959394 2.95864 0.319843 0.947981
-37.8506 -1.755 -0.069926 3.1417 0.349756 0.505664
-37.5089 -1.78431 -0.0738842 3.13214 0.361895 0.55691
-37.0827 -1.81175 -0.0780129 3.11874 0.372118 0.612288
-36.5645 -1.83636 -0.0822439 3.10047 0.37979 0.672107
-35.9495 -1.8568 -0.0864939 3.07613 0.383834 0.736592
-35.2364 -1.87113 -0.0905611 3.04443 0.382876 0.80587
-34.4295 -1.87666 -0.0938403 3.00429 0.375011 0.880001
-33.5395 -1.87019 -0.0957727 2.95519 0.357904 0.958897
-38.8101 -1.80593 -0.0685384 3.13504 0.375553 0.496204
-38.5205 -1.84017 -0.072487 3.12619 0.389728 0.548591
-38.1457 -1.87297 -0.0766152 3.11363 0.402226 0.605464
-37.6768 -1.90349 -0.0809046 3.09627 0.412238 0.667224
-37.1073 -1.93042 -0.08528 3.07277 0.41867 0.734248
-36.4348 -1.95183 -0.0895492 3.04161 0.420004 0.806817
-35.6634 -1.96484 -0.0930848 3.00138 0.414087 0.885126
-34.8056 -1.96575 -0.0952332 2.95124 0.398242 0.969112
-39.7766 -1.85816 -0.0668534 3.12716 0.40142 0.485109
-39.5432 -1.8974 -0.0707444 3.11898 0.417842 0.538498
-39.224 -1.93563 -0.0747999 3.10731 0.432757 0.596736
-38.8089 -1.97217 -0.0790741 3.09097 0.445366 0.660351
-38.2899 -2.0059 -0.0835432 3.06847 0.454532 0.72989
-37.6627 -2.0349 -0.0880362 3.03805 0.4586 0.805847
-36.9305 -2.05614 -0.091902 2.99791 0.45514 0.888631
-36.1067 -2.06526 -0.0942892 2.94677 0.440995 0.978269
-12.8357 -2.0937 -0.0824833 -3.06356 0.823629 -0.152464
-12.6738 -2.03543 -0.0844961 -3.03543 0.875659 -0.141276
-12.4184 -1.97111 -0.085609 -3.0033 0.928795 -0.125318
-12.0586 -1.90103 -0.0854198 -2.96763 0.983286 -0.103437
-13.3268 -2.2107 -0.0808476 -3.09216 0.77763 -0.18731
-13.2932 -2.16066 -0.0834958 -3.0681 0.83021 -0.181036
-13.1789 -2.10472 -0.0857193 -3.03977 0.88432 -0.170505
-12.9701 -2.04262 -0.0870456 -3.00719 0.939719 -0.154912
-12.6531 -1.97452 -0.0869818 -2.97085 0.996623 -0.133005
-13.7546 -2.27703 -0.0815008 -3.09648 0.781634 -0.216006
-13.7715 -2.2295 -0.0843319 -3.07246 0.836287 -0.210729
-13.7088 -2.17602 -0.0867869 -3.04394 0.892662 -0.201
-13.5495 -2.11626 -0.0883072 -3.01091 0.950501 -0.185866
-13.2796 -2.05044 -0.0884721 -2.97381 1.01 -0.163972
-14.0688 -2.38435 -0.0787657 -3.11995 0.73038 -0.246134
-14.2015 -2.34519 -0.0820281 -3.1005 0.785017 -0.245801
-14.2717 -2.30029 -0.0850386 -3.07659 0.841835 -0.241677
-14.2634 -2.2494 -0.0876941 -3.04791 0.900622 -0.232875
-14.1569 -2.19213 -0.0894052 -3.01442 0.961092 -0.218314
-13.9359 -2.12863 -0.0897217 -2.97659 1.02343 -0.196517
-14.4794 -2.45137 -0.0789094 -3.12337 0.730948 -0.275593
-14.6659 -2.41508 -0.082329 -3.10426 0.787627 -0.276706
-14.7936 -2.37304 -0.0855666 -3.08049 0.846758 -0.273928
-14.8431 -2.3249 -0.0884215 -3.05168 0.908126 -0.266222
-14.7933 -2.27028 -0.0903223 -3.01772 0.971435 -0.252377
-14.6243 -2.20928 -0.0907805 -2.97906 1.03685 -0.23077
-14.906 -2.52 -0.0788744 -3.12636 0.730575 -0.306024
-15.1492 -2.48678 -0.0824633 -3.10767 0.789377 -0.308776
-15.337 -2.44776 -0.0858922 -3.08412 0.850949 -0.30754
-15.4482 -2.40254 -0.0889471 -3.05522 0.915081 -0.301136
-15.4593 -2.35073 -0.0910383 -3.02078 0.981458 -0.288185
-15.3481 -2.29246 -0.0916836 -2.98121 1.05021 -0.266914
-15.0107 -2.61468 -0.0748287 -3.14258 0.671422 -0.329772
-15.3481 -2.5902 -0.0786217 -3.12885 0.729136 -0.337436
-15.6505 -2.56026 -0.0823709 -3.11069 0.790124 -0.342023
-15.9017 -2.52444 -0.0859873 -3.08744 0.854275 -0.342562
-16.0787 -2.48234 -0.0892442 -3.05851 0.921367 -0.337707
-16.1556 -2.43354 -0.0915298 -3.0236 0.99107 -0.325877
-16.1073 -2.37821 -0.092374 -2.98307 1.06344 -0.305075
-15.4109 -2.68295 -0.0742134 -3.14385 0.666765 -0.360085
-15.8042 -2.66196 -0.0781038 -3.1308 0.726407 -0.369743
-16.1691 -2.63551 -0.0820191 -3.11327 0.789701 -0.376443
-16.4872 -2.60311 -0.0858168 -3.09041 0.856573 -0.379027
-16.7348 -2.56432 -0.0892787 -3.06152 0.926835 -0.376017
-16.883 -2.51873 -0.0917666 -3.02618 1.00015 -0.365593
-16.9018 -2.46644 -0.0927393 -2.98466 1.07652 -0.34547
-15.824 -2.75249 -0.073337 -3.14439 0.660692 -0.391094
-16.2753 -2.73524 -0.0773254 -3.13213 0.722256 -0.402969
-16.7043 -2.7125 -0.0813663 -3.11531 0.787911 -0.412001
-17.0928 -2.68375 -0.0853353 -3.09298 0.857639 -0.416938
-17.416 -2.64852 -0.0890052 -3.06425 0.931289 -0.416127
-17.6419 -2.60636 -0.0917077 -3.02851 1.00852 -0.407467
-17.735 -2.55734 -0.0928369 -2.9859 1.08931 -0.388307
-15.7348 -2.83164 -0.0682958 -3.15187 0.594025 -0.406518
-16.2493 -2.82326 -0.0721786 -3.14412 0.653013 -0.422695
-16.7598 -2.80999 -0.0762214 -3.13272 0.716446 -0.436986
-17.2551 -2.79121 -0.0803591 -3.11674 0.784507 -0.448621
-17.7176 -2.76636 -0.0844823 -3.09508 0.857215 -0.456256
-18.1216 -2.73493 -0.0883609 -3.06664 0.934478 -0.45806
-18.4324 -2.69646 -0.0912954 -3.03059 1.01597 -0.451612
-18.608 -2.65095 -0.0925988 -2.98686 1.10164 -0.433805
-16.1186 -2.89943 -0.0668189 -3.14986 0.582971 -0.436082
-16.6866 -2.89518 -0.07069 -3.14293 0.643397 -0.454644
-17.2571 -2.88612 -0.0747324 -3.13245 0.708716 -0.471642
-17.8203 -2.87158 -0.0789281 -3.11742 0.779196 -0.486167
-18.36 -2.85092 -0.0831774 -3.09661 0.854981 -0.496879
-18.8505 -2.82359 -0.0872587 -3.06866 0.936074 -0.501782
-19.2543 -2.78908 -0.0904454 -3.03245 1.0222 -0.498104
-19.5223 -2.74735 -0.0919544 -2.98758 1.11328 -0.482176
-16.5152 -2.96803 -0.0650165 -3.14677 0.569991 -0.465734
-17.1367 -2.96816 -0.0688229 -3.14067 0.631703 -0.486892
-17.7672 -2.96352 -0.0727863 -3.13119 0.69878 -0.50675
-18.3993 -2.95347 -0.0769635 -3.11724 0.771623 -0.524444
-19.0191 -2.93734 -0.0813036 -3.09745 0.850528 -0.538632
-19.6018 -2.91449 -0.0856062 -3.07021 0.935649 -0.547192
-20.108 -2.88432 -0.0891159 -3.03402 1.02681 -0.547001
-20.4797 -2.84666 -0.0908572 -2.98806 1.1239 -0.533638
21.8922 -3.88769 -0.0831593 0.40468 0.465774 -0.763913
21.9542 -3.83695 -0.0850354 0.384563 0.511532 -0.796242
22.0361 -3.77819 -0.086044 0.366142 0.562018 -0.825728
22.1454 -3.71165 -0.0850753 0.350102 0.617672 -0.851566
21.4006 -3.9843 -0.0815663 0.439598 0.405449 -0.757027
21.418 -3.94406 -0.084167 0.417376 0.447511 -0.793742
21.4465 -3.89591 -0.0862542 0.396284 0.494177 -0.82832
21.4923 -3.8395 -0.0874683 0.376911 0.545948 -0.859985
21.5653 -3.77493 -0.0865993 0.360022 0.603334 -0.887811
20.9396 -4.03934 -0.0822131 0.453519 0.385303 -0.784947
20.9249 -4.00201 -0.0850056 0.430255 0.427981 -0.824162
20.9181 -3.95664 -0.0873153 0.408072 0.475567 -0.861258
20.9261 -3.90272 -0.0887133 0.387675 0.528673 -0.895327
20.9582 -3.84037 -0.0880414 0.369868 0.587888 -0.925331
20.5071 -4.12253 -0.0794804 0.492454 0.325312 -0.770244
20.4593 -4.09581 -0.0827358 0.467688 0.363845 -0.813347
20.4118 -4.06159 -0.0857078 0.443315 0.407069 -0.855262
20.3682 -4.01916 -0.0882151 0.419972 0.455565 -0.895099
20.3362 -3.9679 -0.0897949 0.398465 0.510041 -0.931826
20.3265 -3.90784 -0.0892444 0.379681 0.571191 -0.964282
20.0401 -4.17693 -0.0796017 0.507966 0.302206 -0.796207
19.9612 -4.15362 -0.0830283 0.482161 0.340959 -0.842122
19.8787 -4.12278 -0.0862284 0.456584 0.384667 -0.887009
19.7966 -4.0835 -0.0889344 0.431994 0.434042 -0.929864
19.7221 -4.03509 -0.0906953 0.409276 0.48991 -0.969541
19.6673 -3.97744 -0.0902536 0.389463 0.553083 -1.00473
19.5542 -4.23247 -0.079537 0.523812 0.277677 -0.822313
19.4434 -4.21282 -0.0831425 0.496919 0.316544 -0.871257
19.3251 -4.18556 -0.0865422 0.470087 0.360655 -0.919372
19.2027 -4.14965 -0.0894503 0.444151 0.410856 -0.965559
19.0832 -4.1043 -0.0913949 0.420105 0.468119 -1.00853
18.9788 -4.04932 -0.091105 0.399106 0.533368 -1.0468
19.1811 -4.29814 -0.0754041 0.567275 0.217545 -0.796577
19.049 -4.28906 -0.0792459 0.540018 0.251635 -0.848479
18.9059 -4.27332 -0.0830189 0.512015 0.290493 -0.900656
18.7508 -4.2499 -0.0866178 0.483862 0.334902 -0.952294
18.5863 -4.21763 -0.0897339 0.456469 0.38585 -1.00217
18.4192 -4.17559 -0.0918687 0.430952 0.444484 -1.04883
18.2614 -4.12348 -0.0917367 0.408626 0.511889 -1.09055
18.6871 -4.35163 -0.0747145 0.58477 0.190189 -0.819448
18.5249 -4.3466 -0.0786665 0.556653 0.223987 -0.874489
18.3481 -4.33506 -0.0826201 0.527494 0.262698 -0.930203
18.1551 -4.31576 -0.0864157 0.497953 0.307273 -0.985683
17.947 -4.28743 -0.0897475 0.46898 0.358851 -1.03965
17.7296 -4.24897 -0.0920846 0.441828 0.4188 -1.09047
17.5159 -4.1999 -0.0920509 0.418027 0.488451 -1.13614
18.1731 -4.40575 -0.0737439 0.602646 0.161301 -0.841914
17.98 -4.40507 -0.0778032 0.573697 0.194631 -0.900268
17.7693 -4.39795 -0.0818974 0.543406 0.233051 -0.959733
17.5377 -4.38308 -0.0858831 0.51242 0.277625 -1.0194
17.2845 -4.35903 -0.0894395 0.481738 0.329675 -1.07791
17.0141 -4.32449 -0.0919973 0.452753 0.390833 -1.13344
16.7393 -4.27873 -0.0920939 0.42725 0.462761 -1.18366
17.8473 -4.45151 -0.0685095 0.648708 0.10265 -0.804056
17.6385 -4.46042 -0.0724638 0.620937 0.130826 -0.863772
17.4139 -4.46429 -0.0765812 0.591209 0.163501 -0.925565
17.1686 -4.46188 -0.0807878 0.559811 0.201446 -0.989029
16.8979 -4.45178 -0.0849499 0.527338 0.245817 -1.05324
16.5984 -4.4324 -0.088738 0.494813 0.298128 -1.1168
16.2725 -4.40218 -0.0915418 0.463769 0.360326 -1.17766
15.932 -4.36005 -0.0917908 0.436289 0.434495 -1.23315
17.3219 -4.50208 -0.0668616 0.667817 0.0714235 -0.821818
17.0823 -4.51549 -0.0708063 0.639635 0.0987077 -0.884637
16.8252 -4.52411 -0.0749312 0.609223 0.130529 -0.950106
16.545 -4.52671 -0.0792097 0.576773 0.167785 -1.01781
16.2346 -4.52175 -0.0835223 0.542799 0.211708 -1.08693
15.8882 -4.50747 -0.0875432 0.508308 0.264012 -1.15606
15.5045 -4.48204 -0.0906247 0.474951 0.326999 -1.223
15.0936 -4.44397 -0.0910654 0.445147 0.403288 -1.28465
16.7735 -4.55279 -0.0648613 0.687166 0.0387479 -0.838407
16.5019 -4.57083 -0.0687354 0.658693 0.0648886 -0.904401
16.2125 -4.58438 -0.0727797 0.627718 0.0956508 -0.973596
15.8972 -4.59223 -0.0770502 0.594307 0.131968 -1.04572
15.5469 -4.59281 -0.0814766 0.558859 0.175156 -1.12009
15.1524 -4.58416 -0.0857521 0.52231 0.227117 -1.19537
14.7086 -4.56411 -0.0891873 0.486373 0.290526 -1.26925
14.2228 -4.53063 -0.0898676 0.453843 0.368708 -1.33811
-64.3565 0.0555265 -0.0828529 -0.319997 0.814701 0.504027
-63.7605 0.0687584 -0.0845391 -0.303383 0.850427 0.555489
-63.0798 0.0855109 -0.085315 -0.288805 0.883484 0.611323
-62.3292 0.106414 -0.0842107 -0.276869 0.913001 0.670655
-65.4911 0.00971566 -0.0814088 -0.350648 0.806807 0.436153
-65.0091 0.0174361 -0.0838576 -0.331603 0.846866 0.483966
-64.4366 0.0280115 -0.0857507 -0.31407 0.885025 0.536558
-63.7755 0.0420123 -0.0867169 -0.298629 0.920483 0.593943
-63.0402 0.0602679 -0.0856988 -0.28596 0.95224 0.655285
-66.1332 -0.0269674 -0.0820575 -0.363575 0.836959 0.413894
-65.6798 -0.0218769 -0.0847047 -0.343516 0.879673 0.462508
-65.1326 -0.0140997 -0.0868092 -0.324954 0.920552 0.516252
-64.4926 -0.00297806 -0.0879478 -0.308574 0.95866 0.575256
-63.774 0.0122714 -0.0871002 -0.295102 0.992872 0.638729
-67.122 -0.0652774 -0.0794431 -0.398897 0.821201 0.346034
-66.7914 -0.0648778 -0.0825869 -0.376906 0.867653 0.39017
-66.3689 -0.0624802 -0.0854142 -0.355754 0.913224 0.439518
-65.849 -0.0576197 -0.0877131 -0.336082 0.95705 0.494427
-65.2317 -0.0495477 -0.089023 -0.318669 0.998076 0.555107
-64.5307 -0.0373528 -0.0882768 -0.304321 1.03505 0.620846
-67.7599 -0.101596 -0.0795636 -0.413737 0.849393 0.320371
-67.4652 -0.103844 -0.0828912 -0.390691 0.898782 0.364847
-67.0763 -0.104352 -0.0859469 -0.36835 0.947485 0.414875
-66.5859 -0.102556 -0.0884433 -0.347471 0.994539 0.470936
-65.993 -0.0977157 -0.0899251 -0.328918 1.03879 0.533344
-65.3105 -0.088788 -0.0892643 -0.313639 1.07884 0.601473
-68.4103 -0.139009 -0.0794978 -0.429101 0.877799 0.293107
-68.1545 -0.144002 -0.083014 -0.40494 0.93034 0.337806
-67.8019 -0.147492 -0.0862766 -0.381343 0.982426 0.388438
-67.3435 -0.148912 -0.0889762 -0.359147 1.03303 0.445616
-66.7771 -0.1475 -0.0906337 -0.339328 1.08086 0.50979
-66.1146 -0.142184 -0.0900982 -0.322961 1.12437 0.580411
-69.1979 -0.168738 -0.0754108 -0.470099 0.851023 0.224934
-69.0721 -0.177508 -0.079205 -0.445028 0.906341 0.264135
-68.8586 -0.185309 -0.0828975 -0.419715 0.962236 0.308921
-68.5454 -0.191894 -0.0863698 -0.394781 1.01799 0.36005
-68.1221 -0.196688 -0.0892817 -0.371146 1.07249 0.418285
-67.5845 -0.198913 -0.091123 -0.34991 1.12433 0.484241
-66.9439 -0.197467 -0.0907155 -0.3323 1.17169 0.557485
-69.8244 -0.20556 -0.07469 -0.487599 0.876243 0.194459
-69.7444 -0.216999 -0.0786109 -0.4616 0.934815 0.233351
-69.5767 -0.22776 -0.0825005 -0.435075 0.994362 0.278063
-69.3066 -0.237552 -0.0861834 -0.408725 1.0541 0.329546
-68.9218 -0.245879 -0.0893192 -0.383515 1.1129 0.388737
-68.416 -0.251962 -0.0913594 -0.360685 1.16921 0.456463
-67.7987 -0.254558 -0.0910306 -0.34168 1.22098 0.532483
-70.4565 -0.2434 -0.0736769 -0.505733 0.901151 0.162275
-70.4262 -0.257596 -0.0777206 -0.478817 0.963158 0.200643
-70.3077 -0.271352 -0.0817689 -0.45109 1.02657 0.245098
-70.0849 -0.284455 -0.08566 -0.42325 1.09063 0.296749
-69.7426 -0.29647 -0.0890329 -0.396322 1.15415 0.356748
-69.2722 -0.306644 -0.0912944 -0.37169 1.21548 0.426185
-68.6802 -0.313648 -0.0910755 -0.351053 1.27229 0.505096
-70.9995 -0.265134 -0.0683747 -0.550879 0.862236 0.0961429
-71.0931 -0.282262 -0.072337 -0.524558 0.925557 0.128325
-71.1156 -0.299261 -0.0764515 -0.496759 0.991139 0.165931
-71.0503 -0.316083 -0.0806326 -0.467839 1.05867 0.209898
-70.8793 -0.332593 -0.0847222 -0.438451 1.12738 0.26148
-70.5846 -0.348445 -0.0883449 -0.409654 1.19611 0.322073
-70.1538 -0.362947 -0.090858 -0.382982 1.26307 0.393103
-69.5902 -0.374706 -0.0907727 -0.360428 1.32567 0.474965
-71.5851 -0.302312 -0.06662 -0.570917 0.882496 0.0614719
-71.7321 -0.322127 -0.0705878 -0.54408 0.949098 0.0925579
-71.8104 -0.342007 -0.0747282 -0.515486 1.01851 0.129143
-71.8026 -0.361958 -0.0790031 -0.48541 1.0904 0.172343
-71.6887 -0.381957 -0.0832693 -0.454439 1.16413 0.223557
-71.4473 -0.401781 -0.0871496 -0.423632 1.23857 0.284454
-71.0618 -0.420845 -0.0899531 -0.394652 1.31186 0.356867
-70.5305 -0.437736 -0.0900429 -0.369827 1.38113 0.441677
-72.1687 -0.340586 -0.0644938 -0.591527 0.901713 0.0252312
-72.3711 -0.363141 -0.0683996 -0.564286 0.971703 0.05492
-72.5083 -0.38587 -0.0724767 -0.535009 1.04503 0.0902174
-72.5623 -0.408962 -0.0767683 -0.503851 1.12148 0.132321
-72.5111 -0.432527 -0.0811772 -0.471303 1.20056 0.182795
-72.3298 -0.456486 -0.0853366 -0.438373 1.28124 0.243608
-71.9965 -0.48039 -0.0885038 -0.406806 1.36167 0.31706
-71.503 -0.502806 -0.0888313 -0.379297 1.43865 0.404723
-26.2416 -1.89869 -0.0832306 3.02627 0.200827 1.01865
-25.8362 -1.88859 -0.0848757 3.00983 0.186198 1.08542
-25.4204 -1.87269 -0.0855477 2.99187 0.166902 1.15275
-25.0045 -1.85088 -0.0851649 2.97321 0.143695 1.21856
-27.2008 -1.93252 -0.081939 3.05431 0.248216 0.959642
-26.8234 -1.93037 -0.0842965 3.03972 0.239189 1.02718
-26.4302 -1.92307 -0.0861438 3.02299 0.225342 1.09663
-26.0273 -1.90986 -0.0869902 3.00453 0.206479 1.16693
-25.6251 -1.89045 -0.0866863 2.9852 0.183262 1.2359
-27.7899 -1.96201 -0.0826503 3.06813 0.286918 0.964968
-27.4242 -1.96286 -0.0852115 3.05351 0.279086 1.03512
-27.0431 -1.95853 -0.087259 3.03651 0.266202 1.10749
-26.6534 -1.94818 -0.0882666 3.01753 0.247891 1.18097
-26.2663 -1.93148 -0.0881202 2.99742 0.224711 1.25336
-28.7338 -1.98391 -0.0801708 3.09409 0.328954 0.899827
-28.3992 -1.99217 -0.0832467 3.08222 0.327151 0.969567
-28.0449 -1.99613 -0.0859845 3.06763 0.320702 1.04245
-27.6759 -1.99497 -0.0882221 3.05038 0.308917 1.11791
-27.2996 -1.98768 -0.0893894 3.03086 0.291289 1.19482
-26.9273 -1.9738 -0.0893373 3.00998 0.268251 1.27093
-29.3501 -2.01133 -0.0803485 3.10818 0.368979 0.901003
-29.0281 -2.02281 -0.0836174 3.09661 0.368942 0.973255
-28.6859 -2.03017 -0.086581 3.08209 0.364107 1.04904
-28.3292 -2.03239 -0.0890125 3.06461 0.353616 1.1278
-27.9664 -2.02838 -0.0903408 3.04454 0.336835 1.20841
-27.6097 -2.0175 -0.0903658 3.02281 0.314049 1.28857
-29.9868 -2.03911 -0.080339 3.12243 0.410417 0.901086
-29.6779 -2.05399 -0.0838015 3.11126 0.412388 0.975934
-29.348 -2.0649 -0.0869735 3.09688 0.409394 1.05476
-29.0037 -2.07074 -0.0896056 3.07922 0.400434 1.13704
-28.6542 -2.07027 -0.091099 3.05859 0.384702 1.22165
-28.3136 -2.06274 -0.0912413 3.0359 0.362331 1.30621
-30.913 -2.0459 -0.0763352 3.14425 0.444981 0.827024
-30.6444 -2.06718 -0.0801024 3.13679 0.453295 0.899927
-30.3492 -2.0856 -0.0837423 3.12616 0.457525 0.977438
-30.032 -2.10028 -0.0871266 3.11201 0.456655 1.05946
-29.6999 -2.10999 -0.0899691 3.09422 0.449508 1.1455
-29.3637 -2.11335 -0.0916365 3.07303 0.435077 1.23444
-29.0389 -2.10948 -0.0918921 3.04935 0.41328 1.32378
-31.5752 -2.07067 -0.0756421 3.15793 0.486691 0.8221
-31.3234 -2.09537 -0.0795493 3.15126 0.497553 0.897292
-31.043 -2.11757 -0.0833947 3.14125 0.504385 0.977583
-30.7389 -2.13623 -0.0869941 3.12746 0.505967 1.06296
-30.419 -2.15009 -0.0900596 3.10963 0.500973 1.153
-30.0955 -2.15761 -0.0919161 3.08791 0.488159 1.24661
-29.7861 -2.15763 -0.0922436 3.06319 0.467171 1.34125
-32.2581 -2.09545 -0.0746473 3.17146 0.529514 0.815571
-32.0246 -2.1237 -0.078687 3.16573 0.543233 0.893036
-31.7601 -2.14978 -0.0827009 3.1565 0.552974 0.976151
-31.4697 -2.17265 -0.0865143 3.14321 0.557389 1.06501
-31.162 -2.19096 -0.0898173 3.12545 0.554956 1.1593
-30.8508 -2.20302 -0.0918854 3.10325 0.544153 1.25799
-30.5561 -2.20737 -0.0923151 3.07741 0.524283 1.35847
-33.1418 -2.0872 -0.0693214 3.18649 0.55362 0.733477
-32.9625 -2.12014 -0.0733107 3.18479 0.573355 0.807241
-32.7487 -2.15202 -0.0774278 3.18013 0.590235 0.886917
-32.5018 -2.18212 -0.0815856 3.17183 0.60326 0.972889
-32.2261 -2.20941 -0.0856051 3.15921 0.610947 1.06535
-31.9305 -2.23249 -0.0891593 3.14169 0.611563 1.16413
-31.6307 -2.24952 -0.0914694 3.11911 0.603262 1.26829
-31.3498 -2.25867 -0.0920251 3.0921 0.584927 1.37524
-33.8427 -2.10837 -0.0675245 3.19832 0.595002 0.721358
-33.6879 -2.14463 -0.0715325 3.19782 0.617993 0.796805
-33.4967 -2.18021 -0.0756918 3.19434 0.638441 0.878686
-33.2693 -2.21445 -0.0799565 3.18714 0.655168 0.967506
-33.0096 -2.24637 -0.0841625 3.17541 0.66663 1.06365
-32.7265 -2.27456 -0.0879766 3.15834 0.670875 1.16714
-32.4373 -2.29702 -0.090566 3.13551 0.665689 1.27721
-32.1685 -2.31155 -0.0912881 3.10735 0.649439 1.39129
-34.563 -2.12937 -0.0653398 3.20956 0.636835 0.707185
-34.4352 -2.16894 -0.0692956 3.21034 0.663408 0.784159
-34.2687 -2.20818 -0.0734062 3.2082 0.687715 0.868099
-34.0632 -2.24662 -0.0777045 3.20232 0.708579 0.959683
-33.8215 -2.28336 -0.0820649 3.1917 0.724378 1.05952
-33.5521 -2.31701 -0.0861575 3.17533 0.732949 1.1679
-33.2729 -2.34544 -0.0890904 3.15247 0.73167 1.2843
-33.0144 -2.36603 -0.0900434 3.12323 0.718215 1.40629
-21.903 -2.25092 -0.0820692 -3.01556 1.07774 -0.217612
-21.9081 -2.23353 -0.0836872 -3.00304 1.14601 -0.202235
-21.8408 -2.21445 -0.0844671 -2.98968 1.21451 -0.1818
-21.6965 -2.1943 -0.0845436 -2.97628 1.28119 -0.157061
-22.0295 -2.30393 -0.0809076 -3.04337 1.01808 -0.266958
-22.1319 -2.28958 -0.0831786 -3.03203 1.08725 -0.257817
-22.1697 -2.2736 -0.0849928 -3.01921 1.1582 -0.243336
-22.1332 -2.25599 -0.0859334 -3.00533 1.22965 -0.223412
-22.0159 -2.23729 -0.0860721 -2.99127 1.29946 -0.198678
-22.2248 -2.34239 -0.0816718 -3.0604 1.02438 -0.307408
-22.363 -2.32944 -0.0841516 -3.04902 1.0962 -0.299631
-22.4359 -2.3149 -0.0861541 -3.0359 1.17006 -0.286254
-22.4326 -2.2988 -0.0872437 -3.02149 1.24466 -0.26697
-22.346 -2.28173 -0.0875174 -3.00666 1.31785 -0.242297
-22.1908 -2.39215 -0.0793306 -3.0871 0.958325 -0.35053
-22.4196 -2.38213 -0.0823302 -3.07788 1.02998 -0.349434
-22.5955 -2.37055 -0.0849837 -3.06652 1.10456 -0.343241
-22.7064 -2.35748 -0.087171 -3.05313 1.18151 -0.331132
-22.7392 -2.34294 -0.0884079 -3.03817 1.25951 -0.312645
-22.6852 -2.32747 -0.088758 -3.02256 1.33637 -0.288149
-22.3441 -2.43159 -0.0795633 -3.10477 0.960438 -0.392157
-22.6118 -2.42302 -0.0827663 -3.09587 1.03469 -0.393062
-22.8288 -2.41292 -0.0856451 -3.08455 1.11222 -0.388716
-22.9805 -2.40138 -0.0880226 -3.07092 1.19247 -0.378107
-23.0526 -2.38842 -0.0894085 -3.05539 1.27412 -0.360613
-23.0335 -2.37464 -0.0898133 -3.03893 1.35496 -0.336425
-22.4925 -2.47225 -0.0796108 -3.12279 0.961466 -0.435204
-22.8014 -2.46518 -0.0830149 -3.1143 1.03842 -0.43838
-23.0618 -2.45659 -0.0861068 -3.10312 1.11905 -0.436148
-23.2577 -2.4466 -0.0886834 -3.08929 1.20284 -0.42732
-23.3727 -2.43528 -0.0902238 -3.07319 1.28843 -0.411064
-23.3932 -2.42329 -0.0907255 -3.05577 1.37357 -0.38738
-22.2503 -2.51814 -0.0757006 -3.14632 0.885867 -0.469609
-22.6348 -2.51416 -0.0794325 -3.14112 0.961257 -0.479687
-22.9868 -2.5086 -0.0830193 -3.13319 1.041 -0.485418
-23.2934 -2.50157 -0.086331 -3.12225 1.12492 -0.485624
-23.5371 -2.49317 -0.0891196 -3.10828 1.21248 -0.478913
-23.6991 -2.48354 -0.0908257 -3.09161 1.30233 -0.464202
-23.7634 -2.47337 -0.0914144 -3.07319 1.39213 -0.441215
-22.3433 -2.55958 -0.0750379 -3.16412 0.8817 -0.512632
-22.7684 -2.55723 -0.0789243 -3.15978 0.959567 -0.525535
-23.1664 -2.55331 -0.0827308 -3.15249 1.04226 -0.534193
-23.5222 -2.5479 -0.0862682 -3.14191 1.12965 -0.537214
-23.8175 -2.54114 -0.0892849 -3.1279 1.22124 -0.533022
-24.0312 -2.53322 -0.0911749 -3.11069 1.3157 -0.520242
-24.1434 -2.52487 -0.0918151 -3.09123 1.41065 -0.498241
-22.4262 -2.60218 -0.0740651 -3.18198 0.875882 -0.556724
-22.8934 -2.60157 -0.0780963 -3.17865 0.956242 -0.572773
-23.3386 -2.59935 -0.082086 -3.17218 1.04197 -0.584694
-23.7464 -2.59561 -0.0858516 -3.16212 1.13301 -0.590962
-24.0975 -2.59053 -0.0891151 -3.14819 1.22891 -0.589772
-24.3683 -2.58436 -0.0912156 -3.13049 1.32838 -0.579404
-24.5345 -2.5779 -0.0919403 -3.10991 1.42899 -0.558785
-21.9808 -2.64321 -0.0687382 -3.1993 0.791148 -0.579446
-22.4973 -2.64598 -0.0727375 -3.19983 0.868198 -0.601777
-23.0075 -2.64716 -0.0768541 -3.19765 0.951029 -0.621285
-23.5013 -2.64673 -0.0810038 -3.19217 1.03988 -0.636871
-23.964 -2.64474 -0.0849931 -3.18282 1.13473 -0.646875
-24.3753 -2.64141 -0.0885219 -3.16914 1.23525 -0.649257
-24.7093 -2.63701 -0.0908691 -3.15106 1.34015 -0.641903
-24.9364 -2.63246 -0.0917061 -3.12934 1.44699 -0.623191
-22.0017 -2.68613 -0.0669079 -3.2157 0.779345 -0.621748
-22.5555 -2.69088 -0.0709375 -3.21757 0.858327 -0.647563
-23.1088 -2.69402 -0.0751122 -3.21668 0.943658 -0.670933
-23.6525 -2.6955 -0.0793859 -3.21238 1.03567 -0.690618
-24.1726 -2.69535 -0.0835819 -3.20397 1.1345 -0.704907
-24.6486 -2.69382 -0.0873897 -3.19077 1.23992 -0.71153
-25.0524 -2.69124 -0.0900271 -3.17247 1.35072 -0.707936
-25.3489 -2.68862 -0.0910245 -3.14961 1.46446 -0.691836
-22.0103 -2.73016 -0.0646826 -3.23167 0.76537 -0.664433
-22.6006 -2.73699 -0.0686655 -3.23498 0.846144 -0.694043
-23.1962 -2.74215 -0.0728028 -3.23557 0.933862 -0.721566
-23.79 -2.74563 -0.0771299 -3.23269 1.02901 -0.745789
-24.3696 -2.74746 -0.0815016 -3.22548 1.13191 -0.764956
-24.9147 -2.74784 -0.0856071 -3.21303 1.24251 -0.776597
-25.3953 -2.74714 -0.088598 -3.19474 1.35973 -0.777716
-25.7711 -2.74649 -0.0898332 -3.17085 1.48113 -0.765149
16.9349 -4.23934 -0.0830446 0.0681387 0.599895 -0.930798
16.857 -4.23065 -0.0846149 0.0617607 0.659717 -0.969936
16.8034 -4.21925 -0.0856704 0.0583349 0.723696 -1.00566
16.7837 -4.20552 -0.0857457 0.0583067 0.789198 -1.03685
17.0316 -4.28258 -0.0819746 0.0863802 0.521482 -0.922721
16.9181 -4.27826 -0.0842075 0.0766418 0.577117 -0.967081
16.8172 -4.27105 -0.0859708 0.0695017 0.638128 -1.00892
16.7379 -4.26099 -0.0871757 0.065467 0.703776 -1.04728
16.6915 -4.24841 -0.0872883 0.0650376 0.771492 -1.08088
17.0367 -4.32081 -0.0827963 0.0965168 0.496322 -0.956762
16.9037 -4.3182 -0.0852477 0.0858355 0.552755 -1.00412
16.7795 -4.31254 -0.0871893 0.0778403 0.614953 -1.04898
16.6732 -4.30389 -0.0885309 0.0731001 0.682327 -1.09024
16.5962 -4.2926 -0.0887474 0.0721907 0.752376 -1.12649
17.1945 -4.35788 -0.0805362 0.121405 0.418407 -0.93944
17.044 -4.36002 -0.0835202 0.107545 0.469529 -0.991436
16.8919 -4.35917 -0.0861464 0.0958064 0.526661 -1.04203
16.7437 -4.35517 -0.0882693 0.0868298 0.590036 -1.09018
16.6091 -4.34801 -0.0897466 0.0812702 0.659175 -1.13463
16.5009 -4.33802 -0.090008 0.0797639 0.731681 -1.17386
17.2213 -4.3959 -0.0808168 0.134465 0.389566 -0.971249
17.0556 -4.40008 -0.0840231 0.119502 0.440955 -1.02663
16.8834 -4.40116 -0.0868782 0.106606 0.498709 -1.08078
16.7104 -4.39894 -0.0891908 0.0965207 0.563219 -1.13253
16.5462 -4.39337 -0.0908063 0.0900083 0.634144 -1.18053
16.4048 -4.38473 -0.0910896 0.0878373 0.709215 -1.22307
17.2504 -4.43469 -0.08091 0.148639 0.35896 -1.00331
17.0702 -4.44103 -0.0843329 0.132479 0.410477 -1.06234
16.8785 -4.44417 -0.0874133 0.11831 0.468748 -1.12035
16.6804 -4.44385 -0.0899284 0.106974 0.534325 -1.17609
16.4851 -4.43998 -0.0916901 0.099352 0.607036 -1.22802
16.3068 -4.43282 -0.0920356 0.0963557 0.684738 -1.27428
17.4572 -4.46259 -0.0769762 0.182635 0.281328 -0.972867
17.2815 -4.47416 -0.0807735 0.164015 0.326476 -1.03555
17.0883 -4.48281 -0.0843943 0.146572 0.377966 -1.09848
16.8776 -4.48818 -0.0877122 0.131013 0.43662 -1.16071
16.6541 -4.48991 -0.0904478 0.118265 0.503162 -1.22085
16.4266 -4.48786 -0.0923707 0.109349 0.577628 -1.27719
16.2094 -4.48227 -0.0927625 0.105327 0.658049 -1.32759
17.5001 -4.50011 -0.0763135 0.200439 0.247282 -1.00123
17.316 -4.51421 -0.0802898 0.180701 0.292002 -1.06774
17.1097 -4.52538 -0.0841545 0.161895 0.343287 -1.13495
16.8809 -4.53315 -0.0877217 0.144825 0.402156 -1.20179
16.6323 -4.53712 -0.0907012 0.130489 0.469519 -1.26681
16.3715 -4.53705 -0.0928092 0.120062 0.545668 -1.3281
16.1138 -4.5331 -0.0932196 0.114827 0.628906 -1.38323
17.5426 -4.538 -0.0753262 0.219659 0.211355 -1.02924
17.3516 -4.55481 -0.0794691 0.198777 0.25542 -1.09982
17.1343 -4.56867 -0.0835445 0.178574 0.306307 -1.17159
16.8886 -4.57905 -0.08737 0.159876 0.36518 -1.24347
16.6154 -4.58546 -0.0906207 0.143765 0.433171 -1.31391
16.3207 -4.58756 -0.0929491 0.131576 0.510875 -1.38079
16.0194 -4.5854 -0.093418 0.124856 0.596957 -1.44136
17.754 -4.55424 -0.0698332 0.262332 0.136371 -0.984218
17.5838 -4.57619 -0.0739646 0.240417 0.173477 -1.0567
17.3878 -4.59583 -0.0782094 0.218383 0.21665 -1.13155
17.1612 -4.61258 -0.0824757 0.196753 0.266896 -1.20822
16.9004 -4.62581 -0.0865616 0.176325 0.325514 -1.2856
16.6038 -4.63491 -0.0901122 0.158241 0.393878 -1.36205
16.2751 -4.63942 -0.0927084 0.144005 0.47294 -1.43527
15.928 -4.63922 -0.093271 0.135467 0.561821 -1.5021
17.7953 -4.58958 -0.067913 0.285447 0.0977283 -1.00688
17.6235 -4.61449 -0.0720922 0.262755 0.133592 -1.08325
17.4234 -4.63715 -0.0764189 0.239647 0.175611 -1.16266
17.1894 -4.657 -0.080841 0.216593 0.224934 -1.24455
16.9157 -4.67334 -0.0851761 0.194355 0.282987 -1.32791
16.5976 -4.68542 -0.0890518 0.174108 0.351398 -1.41106
16.2357 -4.69263 -0.0919758 0.157509 0.431529 -1.49148
15.8409 -4.69463 -0.0926922 0.146746 0.523067 -1.56558
17.8292 -4.62489 -0.0655827 0.310139 0.0573397 -1.02841
17.6574 -4.65281 -0.0697211 0.286767 0.0916562 -1.10879
17.4562 -4.67862 -0.0740269 0.262674 0.132239 -1.19288
17.2176 -4.70179 -0.078537 0.23824 0.180309 -1.28027
16.9336 -4.72152 -0.0830947 0.214158 0.237428 -1.37007
16.5966 -4.73693 -0.0873209 0.191586 0.30548 -1.46063
16.203 -4.74719 -0.0906456 0.172305 0.38626 -1.54927
15.7595 -4.75175 -0.0916196 0.15884 0.480191 -1.63188
-68.0904 -0.354301 -0.0828242 0.0152181 0.929344 0.601242
-68.0747 -0.362121 -0.0842765 0.0182138 0.970422 0.661956
-68.0469 -0.367878 -0.0854852 0.0179576 1.00836 0.726564
-68.013 -0.370756 -0.0858866 0.014105 1.042 0.792158
-68.6094 -0.34805 -0.0818988 0.00105615 0.919501 0.520845
-68.6225 -0.358978 -0.0840042 0.00770282 0.965529 0.577702
-68.6175 -0.368456 -0.0856424 0.0114059 1.00938 0.639743
-68.5983 -0.376 -0.0869851 0.0116745 1.05008 0.706151
-68.5709 -0.380663 -0.0874122 0.00811535 1.08631 0.774048
-69.143 -0.350996 -0.0827467 -0.00819295 0.953387 0.494705
-69.1709 -0.363418 -0.0850779 -0.000632084 1.00244 0.552513
-69.1773 -0.374566 -0.0868822 0.00386357 1.0494 0.615895
-69.167 -0.383973 -0.0883487 0.00475731 1.09313 0.684174
-69.1465 -0.390692 -0.088856 0.001571 1.13218 0.754513
-69.6232 -0.339312 -0.08064 -0.0296378 0.934608 0.414139
-69.6922 -0.353708 -0.0835079 -0.0184987 0.987898 0.466847
-69.7354 -0.367563 -0.0860133 -0.00989883 1.0402 0.525518
-69.7544 -0.380446 -0.0879941 -0.0044706 1.09051 0.590254
-69.7537 -0.391806 -0.089584 -0.00283184 1.13756 0.660465
-69.7402 -0.400599 -0.0901163 -0.00551495 1.1798 0.733387
-70.167 -0.340318 -0.0809525 -0.0421455 0.966291 0.383984
-70.2565 -0.355976 -0.0840579 -0.0298939 1.02292 0.437109
-70.3166 -0.371371 -0.0867914 -0.0201537 1.07877 0.49658
-70.3494 -0.386039 -0.0889595 -0.0136576 1.13274 0.56265
-70.3589 -0.399442 -0.0906761 -0.0111339 1.18347 0.634841
-70.3527 -0.410419 -0.0912107 -0.0132447 1.22923 0.710477
-70.7241 -0.340996 -0.0810818 -0.055965 0.998256 0.351942
-70.8356 -0.357879 -0.0844155 -0.0424961 1.05847 0.405349
-70.9147 -0.374791 -0.0873829 -0.0314872 1.11815 0.465534
-70.9626 -0.391287 -0.089754 -0.0237705 1.17613 0.532895
-70.9833 -0.406824 -0.091607 -0.0201974 1.23092 0.607097
-70.9844 -0.420237 -0.0921774 -0.0215758 1.28062 0.685547
-71.1237 -0.323828 -0.0772303 -0.0876369 0.967054 0.270862
-71.2935 -0.341337 -0.0809846 -0.0712017 1.03044 0.317884
-71.4295 -0.359352 -0.0845295 -0.0564145 1.09446 0.37142
-71.5298 -0.377769 -0.0877474 -0.0440063 1.1583 0.432201
-71.5946 -0.396124 -0.0903441 -0.0348985 1.22069 0.500778
-71.6276 -0.413882 -0.0923505 -0.0300825 1.27999 0.576997
-71.6366 -0.42984 -0.0929388 -0.0305128 1.33407 0.658388
-71.6754 -0.322781 -0.0765804 -0.105582 0.99554 0.234998
-71.8747 -0.341157 -0.0805365 -0.0879716 1.06265 0.281682
-72.0379 -0.360361 -0.0843449 -0.071778 1.13083 0.335168
-72.1619 -0.380255 -0.0878304 -0.0578377 1.19919 0.396385
-72.2459 -0.400483 -0.0906815 -0.0471513 1.26641 0.466064
-72.2926 -0.420541 -0.0928696 -0.0408667 1.33074 0.544272
-72.3101 -0.439129 -0.0934554 -0.0401563 1.38979 0.628749
-72.2348 -0.32144 -0.0756004 -0.125204 1.02379 0.197101
-72.4668 -0.340613 -0.0797448 -0.106381 1.09484 0.243202
-72.6603 -0.360881 -0.0837886 -0.0887336 1.16745 0.296433
-72.8111 -0.382198 -0.0875569 -0.0731314 1.2407 0.357882
-72.917 -0.404292 -0.0906968 -0.0606649 1.31326 0.428497
-72.9795 -0.426716 -0.0931078 -0.0526501 1.38321 0.508618
-73.0061 -0.448142 -0.0937331 -0.0505218 1.44792 0.596272
-72.5008 -0.301284 -0.0700749 -0.167045 0.979043 0.118288
-72.8011 -0.319837 -0.0742375 -0.14665 1.05164 0.157093
-73.0684 -0.339659 -0.078503 -0.126589 1.12682 0.202345
-73.2957 -0.360896 -0.0827663 -0.107447 1.20415 0.255058
-73.477 -0.383557 -0.0868257 -0.0900648 1.28272 0.316478
-73.6082 -0.407479 -0.0902921 -0.0756087 1.36116 0.387799
-73.6892 -0.432309 -0.0929816 -0.0655669 1.43742 0.46969
-73.7264 -0.45673 -0.0936859 -0.0616768 1.50857 0.560553
-73.0326 -0.298886 -0.0681085 -0.191224 1.00237 0.0773973
-73.3721 -0.317871 -0.0723417 -0.169968 1.07876 0.114915
-73.6779 -0.338315 -0.0767124 -0.148747 1.15836 0.159016
-73.9428 -0.360407 -0.0811626 -0.1281 1.24073 0.210896
-74.159 -0.384301 -0.0855085 -0.108845 1.32505 0.271959
-74.3198 -0.409976 -0.0893361 -0.0921924 1.40996 0.343674
-74.4229 -0.43722 -0.0923761 -0.0797959 1.4933 0.427103
-74.4727 -0.464771 -0.0932257 -0.0737279 1.57184 0.521132
-73.5646 -0.296545 -0.0657143 -0.217314 1.02475 0.0346343
-73.9453 -0.315809 -0.0699185 -0.195291 1.10507 0.070516
-74.2931 -0.336646 -0.0742929 -0.172992 1.18921 0.11314
-74.5999 -0.359435 -0.078867 -0.150872 1.27688 0.163808
-74.8558 -0.384429 -0.0834777 -0.129694 1.36738 0.224109
-75.0517 -0.411743 -0.0876973 -0.110667 1.4594 0.295809
-75.1814 -0.441345 -0.091166 -0.0955869 1.55071 0.380413
-75.2476 -0.47216 -0.0922837 -0.0868561 1.63776 0.477455
-69.0286 -0.456263 -0.0828645 0.0983346 0.929103 0.590781
-69.1567 -0.469288 -0.0843603 0.0979767 0.970042 0.651731
-69.2903 -0.480479 -0.0855223 0.0940674 1.00783 0.716099
-69.4305 -0.489593 -0.0874191 0.0863407 1.04133 0.781257
-69.3952 -0.437083 -0.0820535 0.0882025 0.91942 0.508176
-69.5315 -0.452598 -0.0840833 0.0917892 0.965315 0.566023
-69.6672 -0.467027 -0.0857612 0.0920849 1.00902 0.628565
-69.8063 -0.479757 -0.0870476 0.0886181 1.04956 0.694964
-69.9508 -0.490438 -0.0889776 0.0810809 1.08564 0.762563
-69.9025 -0.43161 -0.0829473 0.0798167 0.953337 0.480407
-70.0502 -0.448335 -0.0852074 0.0842918 1.00225 0.539509
-70.1938 -0.464151 -0.0870427 0.0853225 1.04906 0.60369
-70.3389 -0.478483 -0.0884459 0.0824041 1.09262 0.672223
-70.4875 -0.490974 -0.0904564 0.0751375 1.13152 0.742438
-70.256 -0.407488 -0.0809592 0.0617588 0.934713 0.396157
-70.4252 -0.425535 -0.0837605 0.0702083 0.987888 0.450764
-70.5845 -0.44338 -0.0861917 0.0757066 1.04005 0.511062
-70.7371 -0.460634 -0.0882006 0.0776251 1.0902 0.57694
-70.8885 -0.476639 -0.0897202 0.0753815 1.13708 0.647713
-71.0412 -0.490952 -0.0917613 0.0685265 1.17915 0.720722
-70.777 -0.399677 -0.0813222 0.0497712 0.966438 0.36372
-70.9629 -0.418641 -0.0843682 0.059345 1.02295 0.41906
-71.1352 -0.437686 -0.0870232 0.0659695 1.07866 0.480525
-71.2977 -0.456406 -0.0892167 0.0689203 1.13247 0.54813
-71.4558 -0.474151 -0.0908562 0.0674991 1.18301 0.621244
-71.6128 -0.490375 -0.0929068 0.0611302 1.22859 0.697223
-71.3112 -0.391178 -0.0815049 0.0362707 0.998451 0.329163
-71.5152 -0.41099 -0.0847829 0.0470831 1.05855 0.385115
-71.7024 -0.431189 -0.0876725 0.0549765 1.11809 0.4477
-71.8761 -0.45139 -0.0900672 0.0591221 1.17591 0.517043
-72.0415 -0.470942 -0.0918363 0.0586966 1.23049 0.592596
-72.2025 -0.489301 -0.0939276 0.0529758 1.28001 0.671718
-71.6132 -0.362314 -0.0777576 0.0068619 0.967379 0.242575
-71.8581 -0.381979 -0.0814676 0.0211344 1.03068 0.292325
-72.0825 -0.40251 -0.0849574 0.0333009 1.0946 0.348748
-72.2865 -0.423822 -0.0880993 0.0426048 1.1583 0.412368
-72.4728 -0.445506 -0.0907185 0.0481266 1.22052 0.483434
-72.6464 -0.466921 -0.0926346 0.0488998 1.27961 0.561511
-72.8117 -0.487491 -0.0947455 0.0440538 1.33348 0.643977
-72.1463 -0.351792 -0.0771533 -0.0112645 0.995913 0.203417
-72.417 -0.371876 -0.0810767 0.00423746 1.06295 0.253046
-72.6643 -0.393158 -0.0848354 0.0178511 1.13103 0.309758
-72.8876 -0.41552 -0.0882483 0.0287101 1.19925 0.374283
-73.0885 -0.438667 -0.091122 0.0358073 1.2663 0.447021
-73.2715 -0.461992 -0.0932135 0.0380158 1.33041 0.527687
-73.4413 -0.484832 -0.0953274 0.0342486 1.38924 0.613735
-72.6876 -0.340638 -0.0762192 -0.0313328 1.02421 0.161927
-72.987 -0.361032 -0.0803398 -0.0145537 1.0952 0.211155
-73.2602 -0.3829 -0.0843422 0.000567012 1.16772 0.267936
-73.5057 -0.40622 -0.088043 0.0131227 1.24084 0.333179
-73.7237 -0.430785 -0.0912071 0.0220091 1.31323 0.407485
-73.9178 -0.456046 -0.0935157 0.0259259 1.38295 0.490769
-74.0927 -0.481329 -0.0956751 0.0235233 1.44741 0.580626
-72.8823 -0.310001 -0.0707374 -0.0723778 0.979542 0.0765475
-73.2361 -0.328889 -0.0749011 -0.0535093 1.05211 0.118008
-73.5668 -0.349396 -0.0791487 -0.0354182 1.12725 0.166513
-73.8694 -0.371714 -0.0833802 -0.0187388 1.2045 0.223066
-74.1406 -0.395871 -0.0873791 -0.00435668 1.28295 0.288767
-74.3789 -0.421772 -0.0908728 0.00654117 1.36121 0.364466
-74.5866 -0.448966 -0.0934549 0.0124754 1.43724 0.450343
-74.7675 -0.476804 -0.0956997 0.011793 1.50812 0.544198
-73.4 -0.297674 -0.0687874 -0.0976572 1.00291 0.0314667
-73.7897 -0.316428 -0.073035 -0.0778557 1.07928 0.0715894
-74.1549 -0.336993 -0.0774001 -0.0585281 1.15885 0.118997
-74.4907 -0.3596 -0.0818295 -0.0402725 1.24116 0.174943
-74.7917 -0.384435 -0.0861235 -0.0239586 1.32538 0.240749
-75.0545 -0.411548 -0.0899829 -0.0108304 1.41012 0.317567
-75.2791 -0.440632 -0.0929104 -0.00253892 1.49322 0.405926
-75.4679 -0.471108 -0.0953067 -0.0010726 1.57148 0.503929
-73.9184 -0.285124 -0.0663935 -0.125183 1.02534 -0.015742
-74.3458 -0.30354 -0.0706196 -0.104537 1.10565 0.0226099
-74.7491 -0.323888 -0.0750022 -0.0840505 1.18977 0.0685051
-75.1222 -0.346589 -0.0795707 -0.0642433 1.2774 0.123375
-75.458 -0.371918 -0.0841397 -0.0459396 1.36781 0.188813
-75.7504 -0.400065 -0.0883923 -0.0303907 1.45968 0.266343
-75.9961 -0.43091 -0.0917363 -0.0194017 1.55077 0.35694
-76.1962 -0.4641 -0.0944073 -0.015288 1.63751 0.459176
0 0 0 0 0 0
0 0 0 0 0 0
0 0 0 0 0 0
0 0 0 0 0 0
0 0 0 0 0 0
0 0 0 0 0 0
0 0 0 0 0 0
0 0 0 0 0 0
0 0 0 0 0 0
0 0 0 0 0 0
0 0 0 0 0 0
0 0 0 0 0 0
0 0 0 0 0 0
0 0 0 0 0 0
0 0 0 0 0 0
0 0 0 0 0 0
0 0 0 0 0 0
0 0 0 0 0 0
0 0 0 0 0 0
0 0 0 0 0 0
0 0 0 0 0 0
0 0 0 0 0 0
0 0 0 0 0 0
0 0 0 0 0 0
0 0 0 0 0 0
0 0 0 0 0 0
0 0 0 0 0 0
0 0 0 0 0 0
0 0 0 0 0 0
0 0 0 0 0 0
0 0 0 0 0 0
0 0 0 0 0 0
0 0 0 0 0 0
0 0 0 0 0 0
0 0 0 0 0 0
0 0 0 0 0 0
0 0 0 0 0 0
0 0 0 0 0 0
0 0 0 0 0 0
0 0 0 0 0 0
0 0 0 0 0 0
0 0 0 0 0 0
0 0 0 0 0 0
0 0 0 0 0 0
0 0 0 0 0 0
0 0 0 0 0 0
0 0 0 0 0 0
0 0 0 0 0 0
0 0 0 0 0 0
0 0 0 0 0 0
0 0 0 0 0 0
0 0 0 0 0 0
0 0 0 0 0 0
0 0 0 0 0 0
0 0 0 0 0 0
0 0 0 0 0 0
0 0 0 0 0 0
0 0 0 0 0 0
0 0 0 0 0 0
0 0 0 0 0 0
0 0 0 0 0 0
0 0 0 0 0 0
0 0 0 0 0 0
0 0 0 0 0 0
0 0 0 0 0 0
0 0 0 0 0 0
0 0 0 0 0 0
0 0 0 0 0 0
0 0 0 0 0 0
0 0 0 0 0 0
0 0 0 0 0 0
0 0 0 0 0 0
0 0 0 0 0 0
0 0 0 0 0 0
0 0 0 0 0 0
0 0 0 0 0 0
0 0 0 0 0 0
13.2661 -4.50515 -0.0838109 -0.181094 0.57912 -0.894508
13.0882 -4.52776 -0.085442 -0.17742 0.639349 -0.936452
12.9384 -4.55126 -0.0868282 -0.169896 0.702751 -0.975572
12.8273 -4.57602 -0.0895808 -0.158321 0.767341 -1.01068
13.7997 -4.50859 -0.0829949 -0.174929 0.496457 -0.882554
13.5928 -4.53116 -0.0850769 -0.175493 0.553977 -0.929066
13.4003 -4.55444 -0.0868864 -0.172419 0.615915 -0.973787
13.233 -4.57853 -0.0883949 -0.165258 0.681439 -1.01572
13.1029 -4.60379 -0.0911892 -0.153774 0.748514 -1.05352
14.1546 -4.5344 -0.0839426 -0.167373 0.468119 -0.914782
13.9378 -4.55782 -0.0862544 -0.168803 0.527038 -0.964261
13.7313 -4.58174 -0.0882128 -0.166412 0.590746 -1.01209
13.5457 -4.60644 -0.089839 -0.159727 0.658513 -1.05711
13.3935 -4.63227 -0.09272 -0.148416 0.728265 -1.09784
14.751 -4.53694 -0.0819825 -0.152635 0.383036 -0.8944
14.528 -4.56085 -0.0848073 -0.158429 0.437844 -0.947585
14.3026 -4.58504 -0.0872848 -0.160867 0.498116 -1.00023
14.0818 -4.6097 -0.0894131 -0.159324 0.563678 -1.05138
13.8773 -4.63502 -0.0911558 -0.153247 0.633815 -1.09977
13.7026 -4.66139 -0.0940766 -0.14226 0.706439 -1.1438
15.1483 -4.56283 -0.0823997 -0.141126 0.349731 -0.92447
14.9222 -4.5878 -0.0854673 -0.148058 0.40543 -0.980845
14.6881 -4.61288 -0.0881611 -0.151612 0.467046 -1.03693
14.4533 -4.63831 -0.0904689 -0.151069 0.534516 -1.0917
14.2291 -4.66428 -0.092331 -0.145759 0.60715 -1.14379
14.0308 -4.6912 -0.0952737 -0.135178 0.682843 -1.19146
15.5642 -4.58918 -0.0826387 -0.1279 0.314203 -0.954816
15.3366 -4.61524 -0.0859327 -0.136092 0.370682 -1.01459
15.0954 -4.64131 -0.0888534 -0.140917 0.433616 -1.07436
14.8472 -4.66758 -0.0913558 -0.141549 0.503032 -1.13305
14.603 -4.69424 -0.0933457 -0.137187 0.578293 -1.18921
14.3781 -4.72175 -0.0963432 -0.12718 0.657262 -1.24094
16.2026 -4.58853 -0.0789501 -0.100687 0.225795 -0.923098
15.9983 -4.61594 -0.0826639 -0.112815 0.276276 -0.985398
15.7723 -4.64317 -0.0861581 -0.122396 0.333401 -1.04877
15.5257 -4.67032 -0.0893218 -0.128645 0.397586 -1.1125
15.2648 -4.69751 -0.0920398 -0.130643 0.468965 -1.17547
15.0004 -4.72492 -0.0941729 -0.127443 0.546977 -1.23611
14.7482 -4.75301 -0.0971973 -0.118243 0.629458 -1.29233
16.649 -4.61412 -0.0784058 -0.0823304 0.185291 -0.950284
16.453 -4.64296 -0.0823323 -0.0957379 0.235772 -1.01606
16.2296 -4.67154 -0.0860876 -0.106803 0.293364 -1.08332
15.9798 -4.69988 -0.0895112 -0.114631 0.358687 -1.15133
15.7078 -4.7281 -0.0924718 -0.118206 0.432009 -1.21895
15.4234 -4.75633 -0.0947735 -0.116417 0.512884 -1.28454
15.1431 -4.78501 -0.0978084 -0.108246 0.599161 -1.34581
17.1105 -4.63985 -0.0775373 -0.0617631 0.142315 -0.977351
16.9257 -4.67023 -0.0816566 -0.0765053 0.192503 -1.04679
16.7086 -4.70028 -0.0856469 -0.0891258 0.250336 -1.11817
16.4583 -4.72996 -0.0893449 -0.0986841 0.316622 -1.19078
16.1773 -4.75934 -0.0925804 -0.104062 0.391818 -1.26347
15.8738 -4.78849 -0.0950884 -0.103969 0.475637 -1.33455
15.5638 -4.81783 -0.0981756 -0.0971233 0.566 -1.4015
17.7226 -4.63344 -0.0721119 -0.0214768 0.0544586 -0.933725
17.5857 -4.66564 -0.0762888 -0.0388014 0.0967648 -1.00418
17.4162 -4.69765 -0.0805276 -0.0549204 0.146311 -1.07744
17.2089 -4.7293 -0.0847379 -0.0691547 0.204074 -1.15321
16.9617 -4.76049 -0.0887186 -0.0805824 0.271068 -1.23077
16.6747 -4.7912 -0.0922632 -0.0879963 0.347992 -1.30901
16.3535 -4.82142 -0.0950277 -0.0899213 0.434788 -1.38616
16.0133 -4.85151 -0.0982024 -0.0847704 0.529506 -1.45953
18.1912 -4.65725 -0.0702191 0.00494864 0.00759106 -0.956517
18.0751 -4.69128 -0.0744826 -0.0133703 0.0485585 -1.0305
17.9229 -4.72507 -0.0788395 -0.0307896 0.0970556 -1.10787
17.7295 -4.7585 -0.0832385 -0.0466601 0.154344 -1.18829
17.4897 -4.7914 -0.0874961 -0.0600693 0.221683 -1.27118
17.2005 -4.82364 -0.0913805 -0.0697473 0.300083 -1.35545
16.8645 -4.85512 -0.0944644 -0.0740416 0.389806 -1.43934
16.4942 -4.88609 -0.0977857 -0.07103 0.489122 -1.51997
18.665 -4.68081 -0.0678749 0.0339537 -0.041527 -0.978661
18.5732 -4.71668 -0.0721183 0.0147279 -0.00236959 -1.05631
18.4436 -4.75235 -0.0764949 -0.00391785 0.0446249 -1.13788
18.2685 -4.78773 -0.0810288 -0.0214025 0.100928 -1.2232
18.0409 -4.82256 -0.0855415 -0.0368541 0.16811 -1.31178
17.7547 -4.85659 -0.0897807 -0.0489918 0.247584 -1.40264
17.4083 -4.88956 -0.0932361 -0.0560075 0.340053 -1.49401
17.0093 -4.92167 -0.0968141 -0.0556521 0.444165 -1.58286
-33.1337 -2.45211 -0.0829456 -2.96388 1.01042 -0.200595
-33.3474 -2.48492 -0.0846288 -2.97108 1.08306 -0.187331
-33.5087 -2.521 -0.0863661 -2.98079 1.15614 -0.169648
-33.6096 -2.56024 -0.0891122 -2.99338 1.22764 -0.147577
-32.7973 -2.42621 -0.0821062 -2.9905 0.942156 -0.248336
-33.0716 -2.45595 -0.0841888 -2.99557 1.0158 -0.240382
-33.2994 -2.48904 -0.0860416 -3.00238 1.0916 -0.227928
-33.4718 -2.52561 -0.087898 -3.01155 1.1682 -0.210797
-33.5801 -2.56555 -0.0906953 -3.02351 1.24343 -0.188917
-32.6964 -2.43041 -0.0830439 -3.02364 0.943607 -0.28857
-32.9883 -2.46019 -0.0853513 -3.02863 1.02028 -0.281772
-33.2309 -2.49345 -0.0873388 -3.03509 1.09952 -0.270328
-33.4163 -2.53047 -0.0893143 -3.04369 1.17992 -0.253861
-33.5343 -2.57116 -0.0921994 -3.0549 1.25919 -0.232224
-32.2178 -2.40901 -0.0811383 -3.05388 0.86806 -0.3317
-32.5695 -2.43523 -0.0838987 -3.05818 0.94405 -0.330448
-32.8801 -2.46484 -0.0863617 -3.06313 1.02385 -0.324982
-33.1403 -2.49821 -0.0885106 -3.06926 1.10673 -0.314652
-33.341 -2.53558 -0.0906025 -3.07727 1.1912 -0.298978
-33.4708 -2.57691 -0.0935343 -3.0877 1.27491 -0.277719
-32.0423 -2.41457 -0.0815664 -3.08953 0.864511 -0.373622
-32.4145 -2.44052 -0.0845599 -3.09419 0.943265 -0.37402
-32.7458 -2.46995 -0.0872216 -3.09916 1.02635 -0.370092
-33.026 -2.50332 -0.0895385 -3.10499 1.11308 -0.361048
-33.2443 -2.54096 -0.0917477 -3.11239 1.20195 -0.346323
-33.3875 -2.58288 -0.0947134 -3.122 1.29049 -0.325567
-31.8347 -2.42086 -0.081826 -3.12651 0.859579 -0.417167
-32.2289 -2.44641 -0.0850309 -3.13166 0.941139 -0.419436
-32.5831 -2.47554 -0.0879024 -3.13676 1.02764 -0.417236
-32.8859 -2.5088 -0.0903986 -3.14235 1.11845 -0.409683
-33.1246 -2.54661 -0.0927304 -3.14914 1.21204 -0.396093
-33.2846 -2.58909 -0.0957572 -3.15781 1.30584 -0.37601
-31.1472 -2.40616 -0.078288 -3.15836 0.774525 -0.45429
-31.5926 -2.42798 -0.0818866 -3.16482 0.853131 -0.462427
-32.01 -2.45295 -0.0852721 -3.17063 0.937509 -0.466788
-32.3893 -2.48167 -0.0883661 -3.176 1.02754 -0.466561
-32.7175 -2.51469 -0.0910581 -3.18144 1.12265 -0.460739
-32.98 -2.55253 -0.0935234 -3.18765 1.22132 -0.448511
-33.1599 -2.59541 -0.0965783 -3.19533 1.32085 -0.429266
-30.8457 -2.41454 -0.0778032 -3.19689 0.764097 -0.498871
-31.3123 -2.4358 -0.0816053 -3.20451 0.844952 -0.509415
-31.7548 -2.4602 -0.0852308 -3.21113 0.932197 -0.51619
-32.1614 -2.48839 -0.0885603 -3.21695 1.02586 -0.518224
-32.5181 -2.52103 -0.0914694 -3.22236 1.12547 -0.514424
-32.8081 -2.55876 -0.0940873 -3.22802 1.2296 -0.503832
-33.0115 -2.60188 -0.0971529 -3.2347 1.33543 -0.485652
-30.5037 -2.42393 -0.0770136 -3.23646 0.751926 -0.544997
-30.992 -2.44454 -0.0809964 -3.24546 0.834935 -0.558267
-31.4603 -2.46824 -0.0848363 -3.25315 0.925013 -0.567755
-31.8961 -2.49577 -0.088412 -3.25963 1.02236 -0.572393
-32.2844 -2.52788 -0.0915636 -3.26518 1.12668 -0.570964
-32.6063 -2.56532 -0.0943632 -3.27039 1.23664 -0.562346
-32.838 -2.60856 -0.0974736 -3.27603 1.3494 -0.545526
-29.6016 -2.41716 -0.0718101 -3.26498 0.660142 -0.573473
-30.1183 -2.43444 -0.0758643 -3.277 0.737895 -0.592684
-30.6282 -2.45423 -0.0799548 -3.28763 0.822907 -0.609008
-31.1226 -2.47716 -0.0839942 -3.29666 0.915753 -0.621588
-31.5896 -2.50391 -0.0878207 -3.30407 1.0168 -0.629239
-32.0128 -2.53532 -0.0912409 -3.31 1.12599 -0.630607
-32.3713 -2.57228 -0.0942615 -3.31491 1.24215 -0.624378
-32.6371 -2.61544 -0.0974411 -3.31951 1.3625 -0.609295
-29.1549 -2.42927 -0.0700333 -3.30436 0.642717 -0.619332
-29.6872 -2.44593 -0.0741753 -3.31843 0.721803 -0.641829
-30.2176 -2.46498 -0.0783755 -3.33091 0.808708 -0.661655
-30.7382 -2.48706 -0.0825842 -3.34158 0.904199 -0.67777
-31.2376 -2.51292 -0.0866529 -3.35024 1.00891 -0.688924
-31.6989 -2.54345 -0.0903636 -3.35685 1.12306 -0.693605
-32.0991 -2.57972 -0.0936524 -3.36169 1.24577 -0.690284
-32.4059 -2.62256 -0.0969442 -3.36535 1.37439 -0.677418
-28.6628 -2.44271 -0.0678077 -3.34412 0.623462 -0.666337
-29.2083 -2.45867 -0.0719329 -3.36047 0.703635 -0.69251
-29.7571 -2.47689 -0.076155 -3.37513 0.79218 -0.716197
-30.3032 -2.49807 -0.0804846 -3.38778 0.890101 -0.736331
-30.8356 -2.52294 -0.0847718 -3.39806 0.99833 -0.751554
-31.3376 -2.55244 -0.088775 -3.40576 1.11746 -0.760182
-31.7842 -2.58776 -0.0923619 -3.41086 1.24701 -0.760433
-32.1403 -2.63004 -0.0958526 -3.41375 1.38459 -0.750399
-25.6631 -2.95401 -0.0832198 2.95256 0.201928 0.981073
-26.2084 -2.98308 -0.0849336 2.96365 0.187642 1.0497
-26.8298 -3.01056 -0.0869179 2.97797 0.168452 1.1192
-27.5216 -3.03604 -0.0896143 2.99593 0.144354 1.1879
-25.1821 -2.9149 -0.0823492 2.97899 0.248882 0.918208
-25.646 -2.94608 -0.0844355 2.98726 0.240262 0.987508
-26.188 -2.97584 -0.0863141 2.99796 0.226816 1.05899
-26.811 -3.00387 -0.0884147 3.01173 0.208181 1.13168
-27.5095 -3.02974 -0.0911717 3.02906 0.184236 1.20378
-25.1857 -2.90455 -0.0832636 3.01533 0.287533 0.921151
-25.6408 -2.93659 -0.0855724 3.02353 0.280136 0.993212
-26.1778 -2.96703 -0.0875775 3.03385 0.267746 1.0678
-26.8008 -2.99572 -0.0897984 3.04704 0.249786 1.14391
-27.5054 -3.02211 -0.0926449 3.06362 0.226055 1.21967
-24.8409 -2.85839 -0.0813721 3.04634 0.32921 0.851903
-25.2061 -2.89242 -0.0840973 3.05327 0.327737 0.923268
-25.6491 -2.92528 -0.0865531 3.06142 0.321761 0.998166
-26.1786 -2.95656 -0.0887136 3.07139 0.310551 1.07603
-26.7996 -2.98599 -0.0910508 3.08398 0.293411 1.15581
-27.508 -3.01298 -0.0939498 3.09978 0.270032 1.2356
-24.8928 -2.84332 -0.081788 3.08557 0.369243 0.850432
-25.2425 -2.87829 -0.0847418 3.09288 0.369532 0.924354
-25.672 -2.91208 -0.0873838 3.10102 0.365205 1.00225
-26.1915 -2.94429 -0.0897047 3.11069 0.355373 1.0836
-26.8081 -2.97457 -0.0921573 3.12265 0.33923 1.16732
-27.5191 -3.00225 -0.0951042 3.13762 0.316341 1.25146
-24.9662 -2.82609 -0.0820423 3.12635 0.410759 0.847788
-25.2979 -2.862 -0.0851978 3.13414 0.413049 0.924325
-25.7109 -2.89683 -0.0880381 3.14242 0.410588 1.00535
-26.2177 -2.93009 -0.0905282 3.15183 0.402368 1.09037
-26.8269 -2.96135 -0.0930995 3.16317 0.38744 1.17834
-27.5387 -2.98987 -0.0961135 3.1772 0.365237 1.2672
-24.8228 -2.76917 -0.0785762 3.15993 0.445371 0.769813
-25.0635 -2.80654 -0.0821103 3.16865 0.453831 0.843851
-25.3739 -2.84341 -0.0854317 3.17713 0.458362 0.923038
-25.7678 -2.87935 -0.0884807 3.18569 0.458038 1.00731
-26.2585 -2.91378 -0.0911533 3.19493 0.451711 1.09623
-26.8571 -2.94617 -0.0938513 3.20566 0.438263 1.18875
-27.566 -2.97566 -0.0968953 3.21871 0.416934 1.28273
-24.9655 -2.74614 -0.0781128 3.20262 0.487461 0.762177
-25.185 -2.78437 -0.0818474 3.21256 0.49845 0.83842
-25.473 -2.8223 -0.0853942 3.22188 0.505559 0.920344
-25.8447 -2.85944 -0.0886628 3.23088 0.507692 1.00799
-26.3158 -2.89518 -0.0915356 3.2401 0.503591 1.10101
-26.8999 -2.92886 -0.0943749 3.25027 0.49195 1.19842
-27.6023 -2.95946 -0.0974319 3.26231 0.471767 1.29803
-25.138 -2.72044 -0.0773624 3.24657 0.530896 0.752999
-25.3346 -2.75948 -0.0812704 3.25795 0.544731 0.8314
-25.5978 -2.79846 -0.085019 3.26839 0.554728 0.916075
-25.9444 -2.83688 -0.0885158 3.27807 0.55969 1.00719
-26.392 -2.87405 -0.0916102 3.28743 0.558214 1.10453
-26.9572 -2.90924 -0.0946142 3.29715 0.548782 1.20718
-27.6492 -2.9412 -0.0977147 3.30814 0.530108 1.31296
-25.2237 -2.65275 -0.0722859 3.27743 0.555861 0.668193
-25.3434 -2.6919 -0.076274 3.29168 0.57568 0.742159
-25.5148 -2.73164 -0.0802799 3.30479 0.592676 0.822627
-25.7515 -2.77164 -0.0842159 3.31663 0.605944 0.910052
-26.0701 -2.81139 -0.0879439 3.32728 0.614172 1.00472
-26.4901 -2.85015 -0.0912817 3.33703 0.6158 1.10656
-27.0315 -2.88705 -0.094483 3.34645 0.609073 1.21483
-27.7078 -2.92065 -0.0976446 3.35642 0.592374 1.32734
-25.4827 -2.62071 -0.0705824 3.32146 0.59857 0.653997
-25.5818 -2.66025 -0.0746622 3.33791 0.621705 0.729447
-25.7288 -2.70063 -0.078773 3.35298 0.642286 0.81194
-25.9376 -2.7416 -0.0828672 3.36654 0.65926 0.902072
-26.2256 -2.78269 -0.0868169 3.37851 0.671262 1.00033
-26.6139 -2.82316 -0.0904151 3.38897 0.676566 1.10685
-27.126 -2.86202 -0.0938524 3.39833 0.673158 1.22109
-27.7804 -2.89758 -0.0971085 3.40736 0.65904 1.34097
-25.7801 -2.58571 -0.0684385 3.36606 0.642234 0.638102
-25.8581 -2.6254 -0.0725022 3.38495 0.669042 0.714852
-25.9802 -2.66623 -0.0766381 3.40234 0.693545 0.799184
-26.1605 -2.70807 -0.0808477 3.418 0.714682 0.891896
-26.4159 -2.75049 -0.0849965 3.43167 0.731021 0.993706
-26.7687 -2.79274 -0.0888511 3.44327 0.740678 1.10504
-27.2454 -2.83375 -0.092542 3.45291 0.741364 1.2256
-27.871 -2.8717 -0.095964 3.4612 0.730613 1.35352
-72.7468 -0.867712 -0.082871 0.432042 0.810136 0.490016
-73.4444 -0.901572 -0.0845791 0.418276 0.845559 0.541043
-74.2217 -0.934922 -0.0864453 0.399751 0.878413 0.596072
-75.0797 -0.967396 -0.0896062 0.376475 0.907973 0.655036
-72.5123 -0.796817 -0.0820473 0.438057 0.802676 0.420738
-73.1349 -0.830865 -0.0840863 0.429428 0.842266 0.468777
-73.8272 -0.865118 -0.0859582 0.416093 0.880057 0.521099
-74.598 -0.899014 -0.0879375 0.397677 0.915296 0.577784
-75.4495 -0.932161 -0.0911672 0.374179 0.94711 0.638764
-72.9168 -0.757829 -0.0829699 0.43318 0.83289 0.396969
-73.5374 -0.791973 -0.085236 0.425337 0.875071 0.44605
-74.2236 -0.8265 -0.0872284 0.412511 0.91554 0.499695
-74.9875 -0.860973 -0.0893268 0.394334 0.953387 0.558117
-75.8314 -0.89492 -0.0926466 0.370696 0.987655 0.621251
-72.7715 -0.683837 -0.0811357 0.428704 0.817929 0.326352
-73.3366 -0.716755 -0.0838187 0.42643 0.863746 0.371622
-73.954 -0.750812 -0.0862303 0.419543 0.908704 0.421679
-74.6346 -0.785619 -0.0883771 0.407425 0.952041 0.476701
-75.3909 -0.820661 -0.0905906 0.389639 0.992749 0.536937
-76.2263 -0.855387 -0.09397 0.366031 1.02978 0.602361
-73.2036 -0.640871 -0.0815726 0.418858 0.846444 0.29863
-73.771 -0.673367 -0.0844885 0.41776 0.895138 0.344526
-74.3858 -0.707309 -0.0870817 0.411947 0.943145 0.395539
-75.061 -0.742338 -0.0893883 0.400717 0.989612 0.451959
-75.8091 -0.777934 -0.0917162 0.383499 1.03347 0.514085
-76.6354 -0.813479 -0.095157 0.360023 1.07356 0.581928
-73.6495 -0.595749 -0.0818546 0.406701 0.875331 0.269103
-74.2198 -0.627639 -0.084974 0.40693 0.92712 0.315527
-74.8336 -0.661336 -0.0877658 0.402389 0.978414 0.367464
-75.5037 -0.696508 -0.0902416 0.392251 1.02831 0.425289
-76.2432 -0.732634 -0.0926876 0.375808 1.07564 0.489376
-77.0589 -0.769095 -0.0962023 0.352638 1.11914 0.559755
-73.5648 -0.519738 -0.0784619 0.38637 0.849899 0.19626
-74.1089 -0.548441 -0.0819619 0.392037 0.904565 0.237626
-74.6837 -0.57946 -0.0852477 0.393766 0.959659 0.284467
-75.2978 -0.612761 -0.0882495 0.390683 1.01453 0.337266
-75.9635 -0.647973 -0.0909084 0.381862 1.06818 0.396486
-76.6943 -0.684583 -0.0934812 0.366435 1.11937 0.462592
-77.4982 -0.721923 -0.0970339 0.34382 1.16664 0.535652
-74.0255 -0.471294 -0.0780423 0.367589 0.876057 0.162734
-74.5811 -0.49867 -0.0817503 0.374707 0.934008 0.204051
-75.1627 -0.528735 -0.0852627 0.378047 0.992731 0.251169
-75.779 -0.561451 -0.0884867 0.376613 1.0515 0.304734
-76.4416 -0.596563 -0.091348 0.369356 1.1093 0.365311
-77.1639 -0.633586 -0.0940627 0.355225 1.16477 0.433481
-77.9551 -0.671773 -0.0976395 0.333426 1.2163 0.509398
-74.4957 -0.420799 -0.0773483 0.345806 0.902225 0.127178
-75.0652 -0.446576 -0.0812356 0.35446 0.963685 0.168213
-75.6565 -0.475376 -0.0849551 0.359522 1.0263 0.215441
-76.2775 -0.507272 -0.0884121 0.359928 1.08933 0.269633
-76.9388 -0.542101 -0.0914987 0.354499 1.15171 0.331492
-77.6536 -0.579434 -0.0943805 0.341983 1.21198 0.401745
-78.4316 -0.61851 -0.0980137 0.321315 1.26835 0.480677
-74.4044 -0.347591 -0.0723554 0.307982 0.865196 0.0548427
-74.9743 -0.368283 -0.0763325 0.32078 0.928317 0.0894898
-75.5601 -0.392081 -0.080323 0.331041 0.993487 0.129979
-76.1643 -0.419313 -0.0842372 0.337915 1.06031 0.177082
-76.7933 -0.4501 -0.0879323 0.340338 1.128 0.231706
-77.4561 -0.484407 -0.0912688 0.337011 1.19546 0.29472
-78.165 -0.521897 -0.0943529 0.326469 1.26114 0.367035
-78.9298 -0.561827 -0.0980631 0.307331 1.32301 0.449108
-74.8663 -0.29529 -0.0707276 0.278367 0.887512 0.0160144
-75.459 -0.313584 -0.0748075 0.292391 0.954108 0.0495826
-76.0641 -0.33519 -0.0789099 0.304187 1.0233 0.0892126
-76.6851 -0.360503 -0.0829912 0.312921 1.09467 0.135889
-77.3261 -0.389834 -0.0869173 0.317508 1.16747 0.190673
-77.9941 -0.42331 -0.0905238 0.316553 1.24058 0.254642
-78.6998 -0.460741 -0.0938532 0.308378 1.31236 0.328939
-79.4524 -0.501444 -0.0976794 0.291245 1.38056 0.414247
-75.3295 -0.241483 -0.0686644 0.245167 0.909409 -0.0247394
-75.9467 -0.256975 -0.0727328 0.260334 0.979646 0.00737375
-76.5751 -0.275954 -0.076873 0.273609 1.05303 0.0457959
-77.2169 -0.298983 -0.0810866 0.284205 1.12923 0.0916591
-77.8746 -0.32647 -0.0852257 0.29105 1.20759 0.146233
-78.553 -0.358701 -0.0891 0.292704 1.287 0.210854
-79.2594 -0.39571 -0.0926921 0.287292 1.36571 0.286961
-80.0026 -0.437067 -0.096711 0.272715 1.44124 0.375548
8.2775 -4.85546 -0.0845974 -0.516865 0.442298 -0.723735
7.96148 -4.91938 -0.0864008 -0.499673 0.487853 -0.758707
7.67931 -4.9895 -0.0881932 -0.477372 0.536882 -0.79151
7.44384 -5.06663 -0.0915313 -0.449997 0.590487 -0.821329
9.39613 -4.80652 -0.0837622 -0.527041 0.378331 -0.713219
9.05867 -4.86442 -0.0858872 -0.515328 0.421708 -0.751797
8.73875 -4.92787 -0.0878573 -0.498512 0.468629 -0.789053
8.44976 -4.99752 -0.0897645 -0.476236 0.519327 -0.824215
8.2052 -5.07424 -0.0931801 -0.448529 0.574883 -0.85631
10.2145 -4.81594 -0.0847632 -0.523135 0.355091 -0.739352
9.87928 -4.8735 -0.0871188 -0.512189 0.39965 -0.780355
9.55699 -4.93638 -0.0892085 -0.495831 0.447989 -0.820185
9.2607 -5.00551 -0.0912387 -0.473715 0.500459 -0.857916
9.00518 -5.08176 -0.0947524 -0.445759 0.558123 -0.892484
11.401 -4.77305 -0.0829128 -0.522131 0.288577 -0.722122
11.0732 -4.82554 -0.0856901 -0.517199 0.330259 -0.765977
10.7424 -4.88258 -0.0881924 -0.507202 0.375958 -0.809551
10.4182 -4.94492 -0.0904389 -0.491513 0.425804 -0.852113
10.1146 -5.01346 -0.0925881 -0.469717 0.480151 -0.892648
9.8481 -5.08915 -0.0961714 -0.441685 0.540076 -0.93
12.2908 -4.78295 -0.0834291 -0.51291 0.261145 -0.746562
11.9751 -4.83519 -0.086442 -0.50918 0.303654 -0.792988
11.6497 -4.89173 -0.0891253 -0.500257 0.350503 -0.839357
11.3247 -4.95349 -0.0915338 -0.48543 0.40191 -0.884872
11.0142 -5.02139 -0.0938017 -0.46414 0.458244 -0.928469
10.7359 -5.09646 -0.0974616 -0.436144 0.52058 -0.968892
13.2213 -4.79292 -0.0837944 -0.501182 0.231842 -0.771282
12.9207 -4.84485 -0.0870121 -0.498817 0.2751 -0.820442
12.6036 -4.90095 -0.0898946 -0.491182 0.323102 -0.869786
12.2793 -4.9621 -0.092474 -0.477432 0.376118 -0.918496
11.9623 -5.02929 -0.0948639 -0.456867 0.434551 -0.965446
11.6708 -5.10367 -0.0986126 -0.429086 0.499458 -1.00928
14.4455 -4.75469 -0.0803997 -0.483128 0.161501 -0.74526
14.1928 -4.80292 -0.0839945 -0.486732 0.20051 -0.796285
13.912 -4.85454 -0.0873766 -0.485921 0.244423 -0.84832
13.6061 -4.91021 -0.0904696 -0.479774 0.293545 -0.900856
13.2848 -4.97076 -0.0932339 -0.467343 0.348205 -0.953029
12.9622 -5.0372 -0.0957538 -0.447757 0.408849 -1.00366
12.6576 -5.11074 -0.0995535 -0.420447 0.476517 -1.05122
15.4317 -4.76454 -0.0800739 -0.464259 0.127812 -0.767651
15.2087 -4.81278 -0.0838816 -0.469387 0.166979 -0.821464
14.9503 -4.86422 -0.0874917 -0.470248 0.211418 -0.876624
14.6596 -4.9195 -0.0908076 -0.465799 0.261596 -0.932589
14.3441 -4.97946 -0.0937757 -0.454949 0.31791 -0.988519
14.0174 -5.04512 -0.0964415 -0.436638 0.38087 -1.04319
13.7002 -5.11773 -0.100279 -0.410079 0.451534 -1.09494
16.455 -4.7742 -0.0794873 -0.442122 0.0919763 -0.790124
16.2667 -4.8225 -0.0834779 -0.448868 0.131061 -0.84689
16.0367 -4.87381 -0.0872975 -0.451529 0.175867 -0.905358
15.766 -4.92878 -0.0908477 -0.448982 0.226985 -0.965014
15.4603 -4.9882 -0.0940429 -0.439998 0.284927 -1.02503
15.1319 -5.05307 -0.09688 -0.4233 0.350296 -1.08415
14.8017 -5.12472 -0.100791 -0.39782 0.424196 -1.1406
17.6173 -4.73783 -0.0745061 -0.405035 0.0207289 -0.75516
17.5144 -4.7836 -0.0785958 -0.416454 0.0538869 -0.812662
17.3675 -4.83195 -0.0826923 -0.424899 0.0926025 -0.872522
17.1719 -4.88323 -0.086711 -0.429458 0.137535 -0.93453
16.9272 -4.93799 -0.0905021 -0.429007 0.189413 -0.99817
16.6363 -4.99695 -0.0939494 -0.422183 0.248903 -1.06264
16.3096 -5.06108 -0.0969929 -0.407479 0.316738 -1.12668
15.9675 -5.13171 -0.101 -0.383498 0.394101 -1.18839
18.6633 -4.74637 -0.0730061 -0.374383 -0.0187464 -0.774731
18.6108 -4.79249 -0.0772081 -0.387116 0.0134423 -0.835131
18.51 -4.841 -0.0814265 -0.397189 0.0514499 -0.898351
18.3558 -4.89237 -0.085619 -0.403706 0.0961858 -0.964153
18.144 -4.94704 -0.0896456 -0.405512 0.148554 -1.0321
17.8745 -5.00567 -0.093367 -0.401138 0.209426 -1.10145
17.5545 -5.06915 -0.0966612 -0.388844 0.279727 -1.17093
17.2026 -5.13877 -0.100806 -0.366862 0.360773 -1.23858
19.7346 -4.75433 -0.0710783 -0.339803 -0.0602648 -0.794252
19.7392 -4.80073 -0.0752767 -0.353768 -0.0294524 -0.857693
19.6924 -4.8495 -0.0795476 -0.36542 0.00747241 -0.924394
19.5867 -4.90107 -0.0838894 -0.373902 0.0515934 -0.994224
19.4158 -4.95582 -0.0881397 -0.378068 0.104057 -1.06683
19.1762 -5.01428 -0.0921321 -0.376397 0.16602 -1.14152
18.8703 -5.07722 -0.0956939 -0.36694 0.238692 -1.21707
18.5125 -5.14596 -0.100056 -0.347538 0.32361 -1.29143
-42.1876 -2.60922 -0.0839985 -2.91307 0.75219 -0.134756
-42.5632 -2.68219 -0.0858158 -2.93536 0.808053 -0.125926
-42.9068 -2.7627 -0.0876676 -2.96336 0.865037 -0.11326
-43.2201 -2.85105 -0.0902354 -2.99809 0.923434 -0.0951871
-41.4927 -2.52034 -0.0831215 -2.93948 0.698142 -0.167825
-41.9 -2.58521 -0.0852826 -2.9568 0.754639 -0.162881
-42.2745 -2.65755 -0.0872659 -2.97859 0.813007 -0.154631
-42.6128 -2.73776 -0.089236 -3.00596 0.872799 -0.142396
-42.9171 -2.82619 -0.0918887 -3.04001 0.934181 -0.124493
-41.1623 -2.49714 -0.084124 -2.98546 0.697367 -0.196275
-41.5728 -2.56096 -0.0865154 -3.00261 0.756282 -0.192119
-41.9459 -2.63246 -0.0886109 -3.02393 0.81738 -0.184612
-42.2805 -2.71226 -0.0907096 -3.05062 0.88019 -0.172883
-42.5769 -2.80071 -0.0934631 -3.08386 0.944805 -0.155183
-40.3378 -2.41891 -0.0822747 -3.01946 0.637341 -0.226323
-40.7861 -2.47399 -0.0850532 -3.03362 0.695717 -0.225909
-41.2004 -2.53645 -0.0875866 -3.05063 0.757093 -0.222664
-41.575 -2.60695 -0.0898367 -3.07149 0.821074 -0.215947
-41.9076 -2.68616 -0.0920588 -3.09746 0.887128 -0.204813
-42.1977 -2.77444 -0.0948881 -3.12984 0.955301 -0.187427
-39.9065 -2.39734 -0.0828126 -3.06953 0.632441 -0.256084
-40.3615 -2.45078 -0.0858202 -3.08404 0.692988 -0.256759
-40.781 -2.51172 -0.0885218 -3.10098 0.756955 -0.254562
-41.1591 -2.58103 -0.0909289 -3.1214 0.823983 -0.248747
-41.4915 -2.65944 -0.0932724 -3.14663 0.893522 -0.238312
-41.7768 -2.74746 -0.0961914 -3.17808 0.965556 -0.221336
-39.4216 -2.37608 -0.0832103 -3.12176 0.626365 -0.287055
-39.8841 -2.42761 -0.0864112 -3.13677 0.689099 -0.288964
-40.3111 -2.48683 -0.0893006 -3.15377 0.755745 -0.287924
-40.6949 -2.5547 -0.0918703 -3.17382 0.825985 -0.283137
-41.0296 -2.6321 -0.0943357 -3.19829 0.899266 -0.273524
-41.3121 -2.71969 -0.0973491 -3.2287 0.9755 -0.25709
-38.3819 -2.31287 -0.079911 -3.16133 0.558658 -0.313598
-38.8793 -2.35527 -0.08346 -3.17617 0.619019 -0.31933
-39.3505 -2.40458 -0.0868108 -3.1919 0.683927 -0.322607
-39.7867 -2.46183 -0.0898959 -3.20912 0.753328 -0.322876
-40.1787 -2.52801 -0.0926383 -3.2289 0.826943 -0.319266
-40.5185 -2.60413 -0.0952302 -3.25262 0.904236 -0.310625
-40.8005 -2.691 -0.0982981 -3.28192 0.985019 -0.294837
-37.7704 -2.2947 -0.0796667 -3.21664 0.548161 -0.345633
-38.2749 -2.33478 -0.0834205 -3.23287 0.610234 -0.35294
-38.756 -2.38177 -0.086981 -3.2495 0.677345 -0.357808
-39.2034 -2.43679 -0.0902711 -3.26716 0.749559 -0.359565
-39.6064 -2.50099 -0.0932004 -3.28682 0.826701 -0.357314
-39.9545 -2.57555 -0.0959303 -3.30984 0.908283 -0.349819
-40.2392 -2.66139 -0.0990399 -3.33797 0.994065 -0.334831
-37.0932 -2.27734 -0.0791902 -3.27386 0.53627 -0.378947
-37.6046 -2.31486 -0.0831166 -3.29176 0.59996 -0.388059
-38.0959 -2.35926 -0.0868705 -3.30963 0.669231 -0.394708
-38.5562 -2.41179 -0.0903741 -3.328 0.74429 -0.398172
-38.973 -2.47371 -0.0935086 -3.34773 0.825093 -0.397497
-39.3331 -2.54637 -0.0963957 -3.37015 0.911243 -0.391362
-39.6247 -2.63092 -0.0995773 -3.39708 1.0025 -0.377373
-35.8217 -2.23211 -0.074418 -3.31251 0.463555 -0.400538
-36.3462 -2.26093 -0.0784451 -3.33292 0.522953 -0.413626
-36.8633 -2.2956 -0.0824702 -3.35283 0.588111 -0.424776
-37.3647 -2.33719 -0.086408 -3.3723 0.659474 -0.433469
-37.8391 -2.38694 -0.0901299 -3.39173 0.737374 -0.438912
-38.2727 -2.44624 -0.0934896 -3.41183 0.821943 -0.440085
-38.6492 -2.51663 -0.0965613 -3.43382 0.912932 -0.435576
-38.9525 -2.59952 -0.0998324 -3.45956 1.01016 -0.422837
-35.0018 -2.21927 -0.073111 -3.37072 0.447771 -0.434354
-35.5254 -2.24538 -0.0772531 -3.39378 0.508108 -0.449691
-36.0462 -2.27713 -0.0813946 -3.41601 0.574644 -0.463226
-36.5566 -2.31568 -0.0854945 -3.43749 0.647991 -0.474287
-37.0458 -2.36236 -0.0894296 -3.4584 0.728683 -0.48205
-37.4987 -2.41869 -0.093032 -3.47924 0.817082 -0.485416
-37.8963 -2.48642 -0.0963239 -3.50109 0.913158 -0.482869
-38.2176 -2.56721 -0.0997148 -3.52573 1.01687 -0.471701
-34.1073 -2.20779 -0.0714151 -3.43012 0.430789 -0.469491
-34.6261 -2.23095 -0.0755632 -3.45615 0.491861 -0.487398
-35.1476 -2.25959 -0.0797651 -3.48116 0.559571 -0.503596
-35.6656 -2.29492 -0.0840105 -3.50509 0.634727 -0.51739
-36.1692 -2.33828 -0.088151 -3.52796 0.718096 -0.527888
-36.6431 -2.39127 -0.0919906 -3.55008 0.810323 -0.533888
-37.066 -2.45583 -0.0955133 -3.5722 0.911691 -0.533747
-37.4127 -2.53407 -0.0990909 -3.59596 1.02241 -0.524576
-25.2171 -3.56174 -0.0841582 2.89746 0.125003 0.668784
-26.3077 -3.61279 -0.0859696 2.92336 0.114974 0.716985
-27.5344 -3.66483 -0.0878264 2.95583 0.100997 0.766597
-28.8999 -3.7183 -0.0896936 2.99619 0.0818471 0.817858
-23.9122 -3.48185 -0.0831956 2.92396 0.155386 0.623941
-24.8547 -3.53172 -0.0853941 2.94413 0.149301 0.672342
-25.933 -3.58226 -0.0873737 2.96949 0.139805 0.722555
-27.1547 -3.6336 -0.0893511 3.00128 0.126188 0.774447
-28.5226 -3.68626 -0.0913066 3.04094 0.107113 0.828167
-23.5777 -3.44933 -0.0841448 2.97309 0.179861 0.624955
-24.4997 -3.49884 -0.0865733 2.99306 0.174552 0.675315
-25.563 -3.54875 -0.0886627 3.01789 0.165762 0.72773
-26.7769 -3.59946 -0.0907734 3.04896 0.152585 0.782063
-28.1458 -3.65134 -0.0928285 3.08778 0.133617 0.838429
-22.4963 -3.36502 -0.0822252 3.0082 0.206727 0.57561
-23.2577 -3.41364 -0.0850209 3.02459 0.205332 0.62536
-24.1541 -3.4627 -0.0875857 3.04438 0.200938 0.677707
-25.1987 -3.51212 -0.0898277 3.0687 0.192916 0.732438
-26.4016 -3.56222 -0.0920649 3.099 0.180274 0.789387
-27.768 -3.61335 -0.0941974 3.13693 0.161518 0.848661
-22.2216 -3.32627 -0.0827166 3.06183 0.232086 0.573439
-22.9515 -3.37456 -0.0857361 3.07856 0.231811 0.624981
-23.8194 -3.4232 -0.0884602 3.09822 0.228487 0.679431
-24.8412 -3.47218 -0.0908551 3.12206 0.221361 0.736611
-26.0293 -3.52172 -0.0932146 3.15156 0.20937 0.796362
-27.391 -3.57215 -0.0954492 3.18852 0.190922 0.858776
-21.9686 -3.28391 -0.0830735 3.11784 0.258404 0.570411
-22.6623 -3.33183 -0.0862768 3.13504 0.259407 0.623772
-23.4974 -3.38012 -0.0891789 3.15473 0.257281 0.680404
-24.4918 -3.42871 -0.0917297 3.17814 0.251201 0.740168
-25.6607 -3.47775 -0.0942103 3.20681 0.240006 0.802919
-27.0144 -3.52752 -0.0965401 3.24268 0.222007 0.868725
-21.2126 -3.19093 -0.0797657 3.15959 0.280752 0.514947
-21.7401 -3.23773 -0.0832948 3.17625 0.285741 0.566455
-22.3928 -3.28522 -0.0866335 3.19415 0.288169 0.621642
-23.1903 -3.3332 -0.0897191 3.21403 0.287415 0.680535
-24.1523 -3.38147 -0.0924322 3.2371 0.282561 0.74302
-25.2969 -3.43009 -0.095036 3.26496 0.272334 0.808982
-26.6373 -3.47924 -0.097418 3.29965 0.254904 0.878439
-21.0526 -3.1411 -0.0795148 3.2191 0.307498 0.508393
-21.5369 -3.18736 -0.0832415 3.23718 0.314091 0.561424
-22.1456 -3.23447 -0.0867745 3.25599 0.318175 0.6185
-22.9008 -3.28217 -0.0900502 3.27627 0.318997 0.679728
-23.8248 -3.33019 -0.0929365 3.29915 0.315583 0.745071
-24.9392 -3.37848 -0.09567 3.32624 0.306538 0.814467
-26.2607 -3.42709 -0.0980933 3.35969 0.289856 0.887925
-20.9263 -3.087 -0.0790569 3.28074 0.335177 0.50078
-21.3638 -3.13261 -0.0829454 3.30054 0.343587 0.555289
-21.9243 -3.17926 -0.0866577 3.32061 0.349517 0.614259
-22.6319 -3.22668 -0.09013 3.34158 0.352154 0.677887
-23.5119 -3.27453 -0.093204 3.36448 0.350438 0.746223
-24.5895 -3.32263 -0.0960813 3.39089 0.34284 0.819282
-25.8863 -3.37085 -0.0985729 3.42306 0.327149 0.897113
-20.5525 -2.98515 -0.0743856 3.32226 0.351555 0.44079
-20.8378 -3.02839 -0.0783666 3.34447 0.363845 0.49207
-21.2242 -3.07315 -0.0823423 3.36635 0.374277 0.547977
-21.7327 -3.11925 -0.0862249 3.38806 0.382305 0.608841
-22.3876 -3.16637 -0.0898976 3.41008 0.387043 0.67492
-23.2169 -3.21412 -0.0931761 3.4333 0.387339 0.74638
-24.2503 -3.26216 -0.096221 3.4592 0.381515 0.82334
-25.5147 -3.31017 -0.0987917 3.49008 0.367135 0.905927
-20.5498 -2.9229 -0.0731824 3.38526 0.379077 0.429872
-20.7878 -2.96492 -0.0772774 3.41025 0.393503 0.48216
-21.1223 -3.00866 -0.0813623 3.43456 0.406262 0.539454
-21.5752 -3.05405 -0.0853962 3.45833 0.416683 0.602187
-22.1722 -3.10081 -0.0892652 3.48185 0.423863 0.670754
-22.9441 -3.14849 -0.0927636 3.50578 0.426552 0.745457
-23.9249 -3.19663 -0.0960068 3.53146 0.422916 0.826566
-25.148 -3.24467 -0.0986823 3.56115 0.410265 0.914326
-20.5937 -2.85589 -0.0716456 3.4497 0.407566 0.418017
-20.7822 -2.8963 -0.0757488 3.47783 0.424399 0.471188
-21.0627 -2.93875 -0.0798969 3.50506 0.439712 0.529747
-21.4572 -2.98325 -0.0840719 3.53137 0.452839 0.594272
-21.992 -3.02953 -0.0881344 3.55689 0.462845 0.665318
-22.6996 -3.07712 -0.0918498 3.58208 0.468388 0.743368
-23.6185 -3.12545 -0.0953006 3.60796 0.46747 0.828879
-24.79 -3.17383 -0.0981412 3.63668 0.457112 0.922267
0 0 0 0 0 0
0 0 0 0 0 0
0 0 0 0 0 0
0 0 0 0 0 0
0 0 0 0 0 0
0 0 0 0 0 0
0 0 0 0 0 0
0 0 0 0 0 0
0 0 0 0 0 0
0 0 0 0 0 0
0 0 0 0 0 0
0 0 0 0 0 0
0 0 0 0 0 0
0 0 0 0 0 0
0 0 0 0 0 0
0 0 0 0 0 0
0 0 0 0 0 0
0 0 0 0 0 0
0 0 0 0 0 0
0 0 0 0 0 0
0 0 0 0 0 0
0 0 0 0 0 0
0 0 0 0 0 0
0 0 0 0 0 0
0 0 0 0 0 0
0 0 0 0 0 0
0 0 0 0 0 0
0 0 0 0 0 0
0 0 0 0 0 0
0 0 0 0 0 0
0 0 0 0 0 0
0 0 0 0 0 0
0 0 0 0 0 0
0 0 0 0 0 0
0 0 0 0 0 0
0 0 0 0 0 0
0 0 0 0 0 0
0 0 0 0 0 0
0 0 0 0 0 0
0 0 0 0 0 0
0 0 0 0 0 0
0 0 0 0 0 0
0 0 0 0 0 0
0 0 0 0 0 0
0 0 0 0 0 0
0 0 0 0 0 0
0 0 0 0 0 0
0 0 0 0 0 0
0 0 0 0 0 0
0 0 0 0 0 0
0 0 0 0 0 0
0 0 0 0 0 0
0 0 0 0 0 0
0 0 0 0 0 0
0 0 0 0 0 0
0 0 0 0 0 0
0 0 0 0 0 0
0 0 0 0 0 0
0 0 0 0 0 0
0 0 0 0 0 0
0 0 0 0 0 0
0 0 0 0 0 0
0 0 0 0 0 0
0 0 0 0 0 0
0 0 0 0 0 0
0 0 0 0 0 0
0 0 0 0 0 0
0 0 0 0 0 0
0 0 0 0 0 0
0 0 0 0 0 0
0 0 0 0 0 0
0 0 0 0 0 0
0 0 0 0 0 0
0 0 0 0 0 0
0 0 0 0 0 0
0 0 0 0 0 0
0 0 0 0 0 0
-76.2305 -1.28883 -0.0842089 0.776551 0.495397 0.257407
-77.4821 -1.3442 -0.0860451 0.748868 0.516942 0.283557
-78.9036 -1.40032 -0.0876227 0.714964 0.536965 0.312129
-80.5222 -1.45713 -0.0898971 0.675037 0.554874 0.343624
-75.4142 -1.16582 -0.0832066 0.799692 0.491281 0.220457
-76.5013 -1.21914 -0.0854221 0.778559 0.515317 0.245267
-77.7328 -1.27397 -0.0874332 0.751078 0.538277 0.272179
-79.1341 -1.32972 -0.0891336 0.71693 0.559763 0.301695
-80.7344 -1.38636 -0.0914991 0.676321 0.579067 0.33432
-75.7152 -1.09359 -0.0841325 0.799042 0.510038 0.206767
-76.785 -1.14595 -0.0865852 0.778616 0.535641 0.23227
-77.9948 -1.20002 -0.0887057 0.751428 0.560243 0.259966
-79.3743 -1.25539 -0.0905437 0.717187 0.583322 0.290482
-80.9539 -1.3119 -0.0930059 0.675979 0.604129 0.324327
-75.0953 -0.969166 -0.082158 0.808947 0.501468 0.168317
-76.0314 -1.01779 -0.084988 0.795928 0.529246 0.192157
-77.0816 -1.06893 -0.0875798 0.776421 0.556521 0.218302
-78.2692 -1.1222 -0.0898565 0.749773 0.582859 0.246845
-79.6249 -1.17712 -0.0918246 0.715621 0.607681 0.278418
-81.1817 -1.23344 -0.0943677 0.673996 0.6302 0.31357
-75.4399 -0.891245 -0.082632 0.802009 0.519292 0.152168
-76.3624 -0.938172 -0.0856898 0.790274 0.548812 0.176506
-77.3928 -0.987964 -0.0884401 0.77184 0.577934 0.203302
-78.5572 -1.0403 -0.0908736 0.74596 0.606163 0.232723
-79.8874 -1.09469 -0.092968 0.712107 0.632898 0.26541
-81.4193 -1.15085 -0.0956251 0.670198 0.657306 0.301942
-75.7995 -0.809676 -0.0829751 0.792012 0.537408 0.134916
-76.7082 -0.854614 -0.0862195 0.781766 0.568804 0.159703
-77.7195 -0.90285 -0.0891506 0.764664 0.599909 0.187161
-78.86 -0.954099 -0.0917439 0.739808 0.630204 0.217487
-80.1629 -1.00785 -0.0939643 0.706505 0.659046 0.25135
-81.6671 -1.06382 -0.0967193 0.664502 0.685553 0.289329
-75.3566 -0.685686 -0.0796289 0.781276 0.522639 0.0940225
-76.1741 -0.72439 -0.083192 0.778688 0.555821 0.116466
-77.07 -0.766955 -0.0865736 0.77017 0.589215 0.141649
-78.063 -0.813381 -0.0896917 0.754652 0.622479 0.169757
-79.1793 -0.86334 -0.0924518 0.731105 0.65504 0.20101
-80.4533 -0.91633 -0.0948008 0.698645 0.686211 0.236108
-81.9264 -0.971991 -0.0976123 0.65682 0.715012 0.275633
-75.7495 -0.59936 -0.079384 0.762638 0.539238 0.074117
-76.5631 -0.635046 -0.0831485 0.761829 0.574442 0.0967069
-77.4482 -0.675026 -0.0867252 0.755192 0.610062 0.122219
-78.4241 -0.719333 -0.0900378 0.741519 0.645687 0.150948
-79.5164 -0.767755 -0.0929769 0.7196 0.680744 0.183138
-80.7604 -0.819814 -0.0954612 0.688321 0.714503 0.219527
-82.1999 -0.875072 -0.0983243 0.647002 0.745896 0.260735
-76.1539 -0.509482 -0.0789486 0.739968 0.555979 0.0529144
-76.9656 -0.541716 -0.0828781 0.741071 0.59336 0.0755071
-77.8428 -0.578656 -0.0866387 0.736498 0.631372 0.101273
-78.8037 -0.620469 -0.0901544 0.724933 0.669592 0.13057
-79.8731 -0.667043 -0.0932892 0.704987 0.707416 0.163692
-81.0865 -0.717955 -0.0959255 0.675284 0.744069 0.201422
-82.4902 -0.772746 -0.0988671 0.634831 0.778396 0.244439
-75.8064 -0.392541 -0.0742916 0.705447 0.53434 0.0110712
-76.5688 -0.416027 -0.0783068 0.712938 0.572873 0.0303379
-77.3811 -0.444253 -0.0823288 0.71607 0.612565 0.0527646
-78.2536 -0.477677 -0.0862667 0.71371 0.653191 0.0786587
-79.2024 -0.516539 -0.0899922 0.704509 0.694278 0.108435
-80.2509 -0.560873 -0.093343 0.686899 0.735191 0.142455
-81.434 -0.610353 -0.0961597 0.65922 0.775103 0.181564
-82.7998 -0.664525 -0.099195 0.620101 0.812771 0.226505
-76.2201 -0.299929 -0.0731729 0.67219 0.549092 -0.0124719
-76.9919 -0.318766 -0.0773084 0.681339 0.589844 0.00629473
-77.8081 -0.342577 -0.0814455 0.686454 0.632106 0.0283619
-78.6796 -0.371932 -0.0855446 0.686412 0.675595 0.0542104
-79.6202 -0.407291 -0.0894799 0.679798 0.719867 0.084328
-80.651 -0.448887 -0.093068 0.66489 0.764258 0.119171
-81.8055 -0.496551 -0.0961035 0.639729 0.80788 0.159669
-83.1324 -0.549883 -0.0992687 0.60251 0.849396 0.206645
-76.6368 -0.204242 -0.0717685 0.63398 0.564046 -0.0373337
-77.4199 -0.217802 -0.0759179 0.644708 0.607173 -0.0193215
-78.2442 -0.236575 -0.080132 0.651788 0.652133 0.00218133
-79.1191 -0.261299 -0.0843925 0.654118 0.698716 0.0277509
-80.0563 -0.292552 -0.0885441 0.650259 0.746513 0.058001
-81.0743 -0.330758 -0.0923761 0.638387 0.794845 0.0935258
-82.2031 -0.376028 -0.0956487 0.616265 0.84275 0.13538
-83.4921 -0.428215 -0.0990176 0.581604 0.888763 0.18449
0 0 0 0 0 0
0 0 0 0 0 0
0 0 0 0 0 0
0 0 0 0 0 0
0 0 0 0 0 0
0 0 0 0 0 0
0 0 0 0 0 0
0 0 0 0 0 0
0 0 0 0 0 0
0 0 0 0 0 0
0 0 0 0 0 0
0 0 0 0 0 0
0 0 0 0 0 0
0 0 0 0 0 0
0 0 0 0 0 0
0 0 0 0 0 0
0 0 0 0 0 0
0 0 0 0 0 0
0 0 0 0 0 0
0 0 0 0 0 0
0 0 0 0 0 0
0 0 0 0 0 0
0 0 0 0 0 0
0 0 0 0 0 0
0 0 0 0 0 0
0 0 0 0 0 0
0 0 0 0 0 0
0 0 0 0 0 0
0 0 0 0 0 0
0 0 0 0 0 0
0 0 0 0 0 0
0 0 0 0 0 0
0 0 0 0 0 0
0 0 0 0 0 0
0 0 0 0 0 0
0 0 0 0 0 0
0 0 0 0 0 0
0 0 0 0 0 0
0 0 0 0 0 0
0 0 0 0 0 0
0 0 0 0 0 0
0 0 0 0 0 0
0 0 0 0 0 0
0 0 0 0 0 0
0 0 0 0 0 0
0 0 0 0 0 0
0 0 0 0 0 0
0 0 0 0 0 0
0 0 0 0 0 0
0 0 0 0 0 0
0 0 0 0 0 0
0 0 0 0 0 0
0 0 0 0 0 0
0 0 0 0 0 0
0 0 0 0 0 0
0 0 0 0 0 0
0 0 0 0 0 0
0 0 0 0 0 0
0 0 0 0 0 0
0 0 0 0 0 0
0 0 0 0 0 0
0 0 0 0 0 0
0 0 0 0 0 0
0 0 0 0 0 0
0 0 0 0 0 0
0 0 0 0 0 0
0 0 0 0 0 0
0 0 0 0 0 0
0 0 0 0 0 0
0 0 0 0 0 0
0 0 0 0 0 0
0 0 0 0 0 0
0 0 0 0 0 0
0 0 0 0 0 0
0 0 0 0 0 0
0 0 0 0 0 0
0 0 0 0 0 0
3.04496 -5.19261 -0.0867461 -0.8653 0.174899 -0.357916
2.57307 -5.29669 -0.088822 -0.834015 0.190313 -0.377672
2.14132 -5.41279 -0.0902926 -0.796069 0.206261 -0.396374
1.76438 -5.54358 -0.0934184 -0.751751 0.22365 -0.413332
4.76086 -5.09254 -0.0856115 -0.89296 0.148821 -0.349852
4.27365 -5.18444 -0.0880353 -0.868641 0.164541 -0.371377
3.80687 -5.28685 -0.0903015 -0.837502 0.180754 -0.392389
3.37721 -5.40132 -0.091909 -0.799223 0.197571 -0.412459
2.99972 -5.53067 -0.0951382 -0.754098 0.21586 -0.43077
6.03726 -5.08561 -0.0866086 -0.893541 0.136844 -0.362142
5.56292 -5.17587 -0.0892751 -0.86992 0.153414 -0.384971
5.10373 -5.2764 -0.0916615 -0.839031 0.170483 -0.407435
4.67594 -5.38911 -0.0934213 -0.800574 0.188256 -0.428982
4.29679 -5.51686 -0.0967633 -0.754727 0.207558 -0.448743
7.82986 -4.99877 -0.0844833 -0.907208 0.107424 -0.35065
7.37605 -5.07841 -0.0875275 -0.891524 0.123989 -0.374634
6.91726 -5.16678 -0.0903422 -0.868826 0.141396 -0.398819
6.46648 -5.26536 -0.0928962 -0.838445 0.159435 -0.422788
6.04113 -5.37615 -0.0948018 -0.800003 0.178255 -0.445938
5.66048 -5.50212 -0.0982422 -0.753615 0.198674 -0.467349
9.2086 -4.99284 -0.0850198 -0.901173 0.0927897 -0.36195
8.78038 -5.07083 -0.0882933 -0.88682 0.110124 -0.387227
8.33936 -5.15723 -0.0912728 -0.865215 0.128422 -0.412879
7.89879 -5.25376 -0.0939942 -0.835585 0.147511 -0.438456
7.4766 -5.36244 -0.0960434 -0.797381 0.167484 -0.463342
7.09358 -5.48651 -0.0996213 -0.750596 0.189114 -0.486573
10.6506 -4.98662 -0.0854245 -0.8919 0.077024 -0.373353
10.2523 -5.06283 -0.0888874 -0.879099 0.0951142 -0.399979
9.83266 -5.14724 -0.0920523 -0.858865 0.114369 -0.427157
9.40464 -5.24159 -0.0949434 -0.830261 0.134594 -0.454446
8.9867 -5.34801 -0.0971353 -0.79256 0.155842 -0.481213
8.60099 -5.46992 -0.100834 -0.745577 0.178803 -0.506456
12.4823 -4.91245 -0.0819523 -0.883633 0.0427905 -0.357837
12.1571 -4.98008 -0.0857096 -0.879105 0.0600197 -0.384881
11.7947 -5.05444 -0.0893087 -0.868113 0.0788411 -0.412882
11.4008 -5.1368 -0.0926637 -0.849522 0.0990912 -0.441663
10.9885 -5.22887 -0.0957306 -0.822251 0.120542 -0.470773
10.5764 -5.33286 -0.0980668 -0.785363 0.143197 -0.499578
10.1884 -5.45233 -0.101846 -0.738462 0.167648 -0.526991
14.0082 -4.90689 -0.0817824 -0.8652 0.0239394 -0.36813
13.7325 -4.97306 -0.0857396 -0.862558 0.0416352 -0.396463
13.4106 -5.04563 -0.0895344 -0.853548 0.0611492 -0.425956
13.0478 -5.12592 -0.093086 -0.836883 0.0824164 -0.456421
12.6551 -5.21563 -0.0963392 -0.811287 0.10518 -0.487467
12.2512 -5.31702 -0.098827 -0.775577 0.129388 -0.518473
11.8616 -5.43383 -0.102684 -0.729109 0.155544 -0.548296
15.5949 -4.90086 -0.0814363 -0.842481 0.00368963 -0.378529
15.376 -4.96554 -0.0855581 -0.841875 0.0217102 -0.408209
15.1026 -5.03634 -0.0895361 -0.835047 0.0418643 -0.43924
14.7775 -5.11456 -0.0932918 -0.820597 0.0641417 -0.471477
14.41 -5.20186 -0.0967464 -0.79705 0.0882904 -0.504577
14.0175 -5.30054 -0.0994028 -0.762939 0.114212 -0.537956
13.6269 -5.41447 -0.103367 -0.717285 0.142313 -0.570446
17.3362 -4.83621 -0.0767113 -0.808747 -0.0337535 -0.359606
17.2425 -4.89427 -0.0809062 -0.815127 -0.018037 -0.38909
17.0896 -4.95742 -0.0851216 -0.816683 0.000121988 -0.420147
16.8733 -5.02649 -0.0892775 -0.812208 0.0207954 -0.452799
16.5943 -5.10267 -0.0932439 -0.800252 0.0440306 -0.486908
16.2588 -5.18756 -0.0969194 -0.779148 0.0696101 -0.522194
15.8826 -5.28343 -0.0997708 -0.747118 0.0974027 -0.558129
15.4928 -5.39428 -0.103861 -0.702778 0.127709 -0.593555
18.9675 -4.82998 -0.0757363 -0.774718 -0.0568051 -0.368997
18.9532 -4.88687 -0.0800526 -0.782893 -0.0413527 -0.399781
18.8743 -4.94856 -0.0843908 -0.786583 -0.0232705 -0.432368
18.7252 -5.01597 -0.0887111 -0.78458 -0.00226207 -0.466744
18.5023 -5.09017 -0.0928901 -0.775368 0.0218113 -0.502849
18.208 -5.17268 -0.0968088 -0.757107 0.048814 -0.540469
17.8549 -5.26571 -0.0998935 -0.727693 0.0786179 -0.579162
17.4692 -5.37331 -0.104149 -0.68527 0.111422 -0.617815
20.65 -4.82283 -0.074513 -0.73539 -0.0812943 -0.378744
20.7253 -4.87847 -0.0788517 -0.745283 -0.0663868 -0.410904
20.7314 -4.93876 -0.0832804 -0.751099 -0.0486 -0.445055
20.6599 -5.00459 -0.0877778 -0.751641 -0.0275123 -0.481255
20.5044 -5.07693 -0.0921839 -0.745363 -0.00281846 -0.519497
20.2634 -5.15714 -0.0963535 -0.730312 0.0255033 -0.559633
19.9437 -5.24733 -0.0996925 -0.704084 0.0574141 -0.601314
19.5677 -5.35161 -0.104191 -0.664291 0.0930377 -0.64353
-51.4326 -2.7556 -0.0864642 -2.84041 0.264364 -0.0243451
-51.9557 -2.86886 -0.0887585 -2.87595 0.286836 -0.024992
-52.4653 -2.99413 -0.0903869 -2.92064 0.308888 -0.0252736
-52.9776 -3.13303 -0.0933391 -2.97639 0.331391 -0.0239069
-50.4056 -2.60337 -0.0851426 -2.86818 0.238757 -0.0300178
-50.9351 -2.7033 -0.0877349 -2.89577 0.2622 -0.0311625
-51.4417 -2.81502 -0.0902339 -2.93054 0.285992 -0.031941
-51.929 -2.9392 -0.0920203 -2.97435 0.30953 -0.0323986
-52.4147 -3.07758 -0.0950978 -3.02922 0.333565 -0.0311984
-49.8622 -2.55232 -0.0861194 -2.92673 0.234645 -0.0369569
-50.3807 -2.65007 -0.0889555 -2.95393 0.25941 -0.0381994
-50.8698 -2.75992 -0.0915807 -2.98794 0.284681 -0.0391907
-51.336 -2.88281 -0.0935386 -3.03077 0.309829 -0.0398284
-51.7952 -3.02052 -0.0967523 -3.08462 0.335532 -0.0387735
-48.7148 -2.41702 -0.0838373 -2.96636 0.204935 -0.0427729
-49.2544 -2.50072 -0.0870087 -2.98826 0.229896 -0.0442233
-49.7625 -2.59587 -0.0899957 -3.01506 0.255974 -0.0455907
-50.237 -2.7036 -0.0927963 -3.04831 0.282813 -0.0467408
-50.6833 -2.82493 -0.0949194 -3.09009 0.309707 -0.0475681
-51.117 -2.96166 -0.098166 -3.1428 0.337267 -0.0466653
-48.0459 -2.36786 -0.0843605 -3.03076 0.198252 -0.0502789
-48.5792 -2.44848 -0.0877507 -3.05287 0.224341 -0.0518047
-49.0779 -2.54076 -0.0908955 -3.07933 0.251803 -0.0533128
-49.5396 -2.64606 -0.0938677 -3.11182 0.280302 -0.0546171
-49.9675 -2.76551 -0.0961525 -3.15249 0.309086 -0.0556379
-50.3763 -2.90109 -0.0995422 -3.20395 0.338694 -0.0549495
-47.3028 -2.31855 -0.0847558 -3.09819 0.190729 -0.058179
-47.8308 -2.39572 -0.0883211 -3.12066 0.217919 -0.0597904
-48.3225 -2.4848 -0.0916411 -3.14694 0.246797 -0.0614044
-48.7735 -2.58729 -0.0947825 -3.17871 0.277042 -0.0628526
-49.1852 -2.70451 -0.0972246 -3.21821 0.30787 -0.0640658
-49.5706 -2.83873 -0.100874 -3.26824 0.339779 -0.0636997
-45.9282 -2.20674 -0.0812528 -3.14774 0.156344 -0.0647919
-46.4806 -2.26927 -0.0850416 -3.1687 0.182318 -0.0665233
-47.0044 -2.34254 -0.088724 -3.19179 0.210542 -0.0682073
-47.4912 -2.42804 -0.0922176 -3.21807 0.240847 -0.0699136
-47.9342 -2.52733 -0.0955278 -3.24919 0.272914 -0.0714899
-48.332 -2.64193 -0.0981237 -3.2875 0.305945 -0.0728903
-48.6954 -2.77429 -0.101878 -3.33596 0.340321 -0.0727762
-45.026 -2.16152 -0.0811215 -3.22001 0.146202 -0.0734965
-45.5735 -2.2199 -0.0850889 -3.24247 0.172883 -0.0753181
-46.0943 -2.28902 -0.0889416 -3.26642 0.202117 -0.0771188
-46.5781 -2.37054 -0.0926081 -3.29292 0.233836 -0.0789036
-47.0159 -2.4662 -0.096089 -3.32355 0.267782 -0.0805859
-47.4032 -2.57773 -0.0988404 -3.36066 0.303169 -0.0821585
-47.7476 -2.7078 -0.102699 -3.40743 0.340293 -0.0822912
-44.0336 -2.11687 -0.080838 -3.29513 0.135146 -0.0827399
-44.5756 -2.17072 -0.0849467 -3.31944 0.162408 -0.0847038
-45.0937 -2.2353 -0.0889536 -3.34465 0.192557 -0.0866033
-45.5765 -2.3124 -0.0927928 -3.3717 0.22564 -0.0884571
-46.0123 -2.40394 -0.0964491 -3.40205 0.261494 -0.0902197
-46.3929 -2.5119 -0.0993627 -3.43804 0.299376 -0.0919354
-46.7218 -2.63924 -0.103349 -3.48301 0.339543 -0.0923044
-42.3997 -2.03324 -0.0762476 -3.34649 0.0985854 -0.0902195
-42.9451 -2.07296 -0.0803999 -3.37309 0.123196 -0.0925822
-43.48 -2.12184 -0.0845833 -3.39969 0.15085 -0.0947299
-43.9952 -2.18149 -0.0887363 -3.42661 0.181787 -0.096759
-44.4783 -2.25372 -0.0927475 -3.45462 0.216143 -0.0986847
-44.9153 -2.34063 -0.0965867 -3.48501 0.253889 -0.100502
-45.2938 -2.44445 -0.099674 -3.52004 0.294378 -0.10232
-45.6121 -2.56851 -0.103797 -3.56314 0.337866 -0.1029
-41.2234 -1.99494 -0.0754314 -3.42413 0.0855979 -0.10038
-41.7541 -2.02972 -0.0796874 -3.45389 0.110277 -0.103037
-42.2793 -2.07342 -0.0839737 -3.48321 0.138202 -0.105494
-42.7901 -2.12774 -0.0882602 -3.51237 0.169764 -0.107711
-43.2741 -2.19462 -0.0924405 -3.54187 0.205251 -0.109735
-43.7154 -2.27633 -0.0964721 -3.57275 0.244816 -0.111592
-44.0969 -2.3754 -0.0997523 -3.6071 0.287972 -0.113463
-44.4107 -2.4955 -0.104033 -3.64836 0.335043 -0.114201
-39.9414 -1.95794 -0.0744144 -3.50397 0.0719682 -0.111268
-40.4524 -1.98742 -0.0786913 -3.53737 0.096517 -0.114337
-40.9641 -2.02559 -0.0830575 -3.57001 0.124516 -0.117136
-41.4685 -2.07422 -0.0874919 -3.60197 0.156497 -0.11962
-41.953 -2.13528 -0.0918527 -3.63357 0.192916 -0.121806
-42.4002 -2.21119 -0.0960733 -3.66557 0.234143 -0.123715
-42.7897 -2.30476 -0.0995496 -3.69972 0.279946 -0.125588
-43.107 -2.42019 -0.104042 -3.73933 0.330837 -0.126407
-24.5159 -4.17983 -0.0866015 2.81727 0.00399086 0.126284
-26.1546 -4.25189 -0.0889959 2.85574 0.00312453 0.13726
-27.9939 -4.32724 -0.0912174 2.90411 0.00197849 0.147955
-30.044 -4.40687 -0.0926807 2.96451 0.00133916 0.158708
-22.3748 -4.06079 -0.0849829 2.84567 0.00534089 0.113832
-23.7953 -4.12865 -0.08777 2.87543 0.00469572 0.125264
-25.4129 -4.19898 -0.0903863 2.91303 0.0038278 0.13687
-27.2402 -4.27237 -0.0927832 2.96043 0.00269662 0.148305
-29.2889 -4.34991 -0.0943993 3.01986 0.00205072 0.159823
-21.6901 -4.00706 -0.0858469 2.90728 0.00602709 0.111803
-23.0772 -4.07336 -0.0888761 2.93655 0.00538353 0.12391
-24.669 -4.14178 -0.0916281 2.9733 0.004593 0.136254
-26.4807 -4.21319 -0.0942127 3.01961 0.00347814 0.148489
-28.5254 -4.28855 -0.0958495 3.07793 0.00276736 0.160862
-19.8632 -3.886 -0.08331 2.94863 0.00718226 0.0972778
-21.0162 -3.94887 -0.0866081 2.97204 0.00677311 0.109488
-22.3636 -4.01348 -0.0897877 3.00084 0.00617133 0.122237
-23.9246 -4.08008 -0.0927224 3.03671 0.00541399 0.135363
-25.7158 -4.14949 -0.0954872 3.08185 0.0043197 0.148465
-27.7525 -4.2227 -0.0972937 3.13892 0.00359496 0.161766
-19.2492 -3.82463 -0.0837077 3.01654 0.00791398 0.0939764
-20.3531 -3.88596 -0.0872129 3.0401 0.00754035 0.106759
-21.6562 -3.94887 -0.0905447 3.06847 0.00701195 0.120198
-23.1806 -4.01366 -0.0936552 3.10346 0.00629501 0.134151
-24.9461 -4.08106 -0.0965939 3.14736 0.00522726 0.148194
-26.9705 -4.15208 -0.0987088 3.20307 0.00452542 0.162496
-18.6557 -3.75828 -0.0839749 3.0877 0.00869315 0.0902645
-19.7045 -3.818 -0.0876387 3.11156 0.00837864 0.103598
-20.9571 -3.87924 -0.0911339 3.13964 0.00790863 0.117743
-22.4386 -3.94224 -0.0944123 3.17378 0.00724008 0.132565
-24.172 -4.00764 -0.0975173 3.21637 0.00620638 0.147626
-26.1798 -4.07646 -0.0998322 3.27049 0.00554953 0.163087
-17.2823 -3.63033 -0.0803091 3.14015 0.00960611 0.0733964
-18.0867 -3.6867 -0.0841334 3.16217 0.00951999 0.0861253
-19.0733 -3.74471 -0.0878907 3.18659 0.00926554 0.0999592
-20.2687 -3.8043 -0.0915408 3.21457 0.00886373 0.114815
-21.7002 -3.86554 -0.09498 3.24794 0.00825365 0.130545
-23.3946 -3.92896 -0.0982425 3.28916 0.00726398 0.146702
-25.3786 -3.99548 -0.100694 3.34153 0.00662276 0.163377
-16.8057 -3.55485 -0.0800743 3.21663 0.0103761 0.0683627
-17.5433 -3.60942 -0.0840524 3.24014 0.010345 0.081457
-18.4629 -3.66574 -0.0879538 3.26537 0.0102024 0.0957961
-19.5941 -3.72368 -0.0917507 3.29347 0.00988 0.111355
-20.9677 -3.7832 -0.0953439 3.3262 0.00934066 0.128021
-22.6151 -3.8447 -0.0987573 3.36605 0.0084065 0.145351
-24.5673 -3.90897 -0.101349 3.41653 0.00778079 0.163396
-16.366 -3.47358 -0.079703 3.29621 0.0111879 0.0628867
-17.031 -3.52618 -0.0837911 3.32158 0.0112403 0.0762707
-17.8773 -3.5807 -0.0878137 3.34803 0.0111906 0.0910635
-18.9368 -3.63696 -0.091748 3.37658 0.0109602 0.1073
-20.2439 -3.69482 -0.0954889 3.40887 0.0105064 0.124915
-21.835 -3.75448 -0.0990485 3.4474 0.00964236 0.143487
-23.7474 -3.81658 -0.101792 3.49586 0.00903807 0.163055
-15.5323 -3.33809 -0.0751037 3.35125 0.0117479 0.0449349
-15.9677 -3.38617 -0.0791909 3.37888 0.012036 0.0569851
-16.5543 -3.43655 -0.0833241 3.40657 0.0121761 0.0705415
-17.3209 -3.48912 -0.0874543 3.4347 0.012231 0.0857234
-18.3008 -3.54366 -0.0915166 3.46413 0.0121078 0.102591
-19.5322 -3.59991 -0.0953993 3.4963 0.0117568 0.121146
-21.0566 -3.65784 -0.0991009 3.53365 0.0109822 0.141014
-22.9187 -3.71789 -0.101997 3.57998 0.0104169 0.162242
-15.2544 -3.24677 -0.0742699 3.43377 0.0124982 0.0384827
-15.613 -3.29216 -0.0784314 3.46465 0.0128619 0.0505761
-16.1178 -3.34008 -0.0826371 3.49512 0.0131535 0.0642653
-16.7986 -3.3905 -0.0868596 3.52549 0.0133272 0.0797532
-17.6909 -3.44321 -0.0910388 3.55633 0.0133285 0.0971792
-18.8365 -3.49785 -0.095058 3.58885 0.0131006 0.116635
-20.2828 -3.5542 -0.098901 3.62527 0.0124382 0.137827
-22.0824 -3.61239 -0.101947 3.66947 0.0119377 0.160844
-15.0301 -3.14886 -0.0732674 3.51875 0.0133277 0.0317406
-15.3085 -3.19109 -0.0774315 3.55341 0.013805 0.0437661
-15.727 -3.2362 -0.0816876 3.58728 0.0141994 0.0574784
-16.3163 -3.28422 -0.0860129 3.62048 0.0144894 0.0731606
-17.1133 -3.33491 -0.0903122 3.65338 0.0146263 0.09104
-18.1625 -3.38788 -0.0944484 3.68687 0.0145436 0.111315
-19.5175 -3.44275 -0.0984114 3.72284 0.014026 0.133816
-21.2405 -3.49937 -0.101636 3.76505 0.0136246 0.158735
-3.57451 -1.94428 -0.0842849 -3.13205 0.334001 -0.0441176
-3.25861 -1.84457 -0.0867495 -3.0897 0.35252 -0.0429112
-2.8257 -1.73391 -0.0889988 -3.03966 0.371182 -0.0401841
-4.40567 -2.12617 -0.0824353 -3.16021 0.316548 -0.0510577
-4.24714 -2.04015 -0.0853552 -3.12511 0.335805 -0.0513252
-3.99426 -1.94367 -0.0880245 -3.08284 0.355146 -0.0503713
-3.62485 -1.83597 -0.0904966 -3.03257 0.374658 -0.0478302
-5.05125 -2.22099 -0.083154 -3.15215 0.317162 -0.0581641
-4.95796 -2.13861 -0.086229 -3.11731 0.33732 -0.0587718
-4.77362 -2.04563 -0.0891525 -3.07512 0.357583 -0.0581234
-4.47081 -1.94109 -0.0918243 -3.02466 0.378018 -0.0558039
-5.69135 -2.3866 -0.0803431 -3.17075 0.296574 -0.0636007
-5.73455 -2.31824 -0.0837498 -3.14301 0.317427 -0.0655106
-5.70989 -2.2398 -0.0869996 -3.10856 0.338532 -0.0665074
-5.59669 -2.15054 -0.0901201 -3.0665 0.359789 -0.0662043
-5.36525 -2.04943 -0.0930138 -3.01587 0.381214 -0.0641218
-4.97848 -1.93514 -0.0951713 -2.95567 0.404294 -0.0588791
-6.34284 -2.48185 -0.0805983 -3.16005 0.295459 -0.0707431
-6.45394 -2.41784 -0.0841293 -3.13281 0.317267 -0.0730883
-6.50274 -2.34368 -0.0875996 -3.09878 0.339396 -0.0745351
-6.46454 -2.25843 -0.0909098 -3.05692 0.361729 -0.0746346
-6.30819 -2.16106 -0.0940134 -3.00616 0.384254 -0.0728576
-5.99254 -2.05004 -0.0963157 -2.94539 0.408432 -0.0677811
-7.03008 -2.57916 -0.0806955 -3.14808 0.293817 -0.0780817
-7.21236 -2.51986 -0.0843735 -3.12144 0.316631 -0.0809109
-7.33717 -2.45026 -0.0880119 -3.0879 0.33986 -0.0828645
-7.37822 -2.36935 -0.0915048 -3.0463 0.363361 -0.0834356
-7.3019 -2.27599 -0.0948043 -2.99544 0.387083 -0.0820299
-7.06459 -2.16862 -0.0973191 -2.9341 0.412457 -0.0771808
-7.46425 -2.72319 -0.0767577 -3.15486 0.268555 -0.0817408
-7.75328 -2.67844 -0.0805951 -3.13475 0.291604 -0.0856202
-8.00934 -2.62422 -0.0844227 -3.1088 0.315448 -0.0889737
-8.21371 -2.55954 -0.0882186 -3.07583 0.339859 -0.0915014
-8.33862 -2.48331 -0.0918869 -3.03456 0.364631 -0.0926267
-8.34779 -2.39432 -0.0953777 -2.98365 0.389666 -0.0916749
-8.19484 -2.291 -0.0981327 -2.92174 0.416323 -0.0870843
-8.15395 -2.81902 -0.0763859 -3.13941 0.264644 -0.0889244
-8.51223 -2.77968 -0.0803012 -3.11996 0.288662 -0.0932905
-8.84516 -2.73088 -0.0842603 -3.09476 0.313631 -0.0972668
-9.13272 -2.67149 -0.0882011 -3.06246 0.339314 -0.100444
-9.34648 -2.60035 -0.0920368 -3.02163 0.365475 -0.102222
-9.44731 -2.51611 -0.095715 -2.97075 0.391953 -0.101831
-9.38323 -2.41703 -0.0985871 -2.90831 0.420063 -0.097581
-8.87888 -2.91627 -0.0758079 -3.12235 0.259959 -0.096253
-9.30836 -2.88276 -0.0798114 -3.1036 0.284938 -0.101156
-9.71994 -2.83978 -0.0838688 -3.0792 0.311076 -0.105772
-10.0943 -2.78611 -0.0879391 -3.04769 0.338125 -0.10968
-10.4022 -2.72047 -0.0919334 -3.00743 0.365804 -0.112226
-10.6017 -2.64143 -0.0957965 -2.95665 0.393878 -0.11253
-10.6347 -2.54702 -0.0988058 -2.89364 0.423602 -0.10873
-9.13863 -3.03388 -0.0711027 -3.11743 0.23014 -0.0981593
-9.63926 -3.01484 -0.0750322 -3.10359 0.254426 -0.103708
-10.1414 -2.98755 -0.079098 -3.08553 0.280306 -0.109157
-10.6336 -2.9508 -0.0832294 -3.06199 0.307654 -0.114458
-11.0982 -2.90331 -0.08741 -3.03139 0.33616 -0.119178
-11.5058 -2.84368 -0.0915525 -2.99184 0.365501 -0.122626
-11.8117 -2.77031 -0.0955993 -2.94131 0.395351 -0.123796
-11.9512 -2.68105 -0.0987454 -2.87776 0.426878 -0.120607
-9.86883 -3.12724 -0.0701463 -3.09646 0.222811 -0.10516
-10.436 -3.1146 -0.0740846 -3.08301 0.247801 -0.111157
-11.0112 -3.09389 -0.078146 -3.06562 0.274624 -0.117254
-11.5857 -3.06382 -0.0823228 -3.04298 0.303199 -0.123275
-12.1436 -3.023 -0.0865882 -3.0134 0.333244 -0.128884
-12.6565 -2.96992 -0.0908642 -2.97477 0.364403 -0.133378
-13.0776 -2.9028 -0.0950942 -2.92467 0.396245 -0.135628
-13.3345 -2.81924 -0.098385 -2.86066 0.429799 -0.133274
-10.0188 -3.22018 -0.0653353 -3.08421 0.191023 -0.105837
-10.6358 -3.22115 -0.0691366 -3.07373 0.214451 -0.112237
-11.2702 -3.21524 -0.0729069 -3.06054 0.240059 -0.118738
-11.9189 -3.20146 -0.0769186 -3.04376 0.267727 -0.125412
-12.5764 -3.17851 -0.0810834 -3.02205 0.297492 -0.132158
-13.2301 -3.14494 -0.0854159 -2.9936 0.329128 -0.138711
-13.854 -3.09908 -0.0898542 -2.95607 0.362264 -0.144398
-14.4005 -3.03895 -0.094339 -2.90664 0.396351 -0.148006
-14.787 -2.9617 -0.0977471 -2.8423 0.432223 -0.146772
-60.7959 0.475266 -0.0845482 -0.663704 0.501563 0.270736
-59.6246 0.510182 -0.0868414 -0.632821 0.523587 0.297429
-58.2744 0.550038 -0.0886235 -0.602538 0.544033 0.327439
-62.5364 0.376933 -0.0826336 -0.711918 0.49678 0.235186
-61.5729 0.403973 -0.0855153 -0.680017 0.521442 0.259694
-60.4394 0.435296 -0.0880261 -0.64799 0.544957 0.286951
-59.1216 0.471505 -0.0900376 -0.616473 0.566871 0.317743
-63.2895 0.306666 -0.0832383 -0.729173 0.515407 0.222972
-62.37 0.329993 -0.0862957 -0.696166 0.541697 0.247893
-61.2774 0.357448 -0.0890578 -0.662871 0.566883 0.275732
-59.9943 0.389838 -0.0912679 -0.630084 0.590429 0.307339
-64.7716 0.217741 -0.0802709 -0.779336 0.505808 0.18738
-64.059 0.23371 -0.0837095 -0.746239 0.534359 0.209961
-63.1874 0.253147 -0.0869547 -0.712095 0.562403 0.235257
-62.1387 0.276569 -0.0899254 -0.677509 0.589403 0.263685
-60.8935 0.304846 -0.0923608 -0.643347 0.614732 0.29615
-59.4383 0.339287 -0.0932706 -0.610636 0.637672 0.334067
-65.5042 0.1462 -0.0803727 -0.797233 0.523218 0.173304
-64.8444 0.158197 -0.0839576 -0.763174 0.553566 0.196077
-64.0247 0.173436 -0.0874359 -0.727818 0.583533 0.221723
-63.0232 0.192592 -0.0906128 -0.691888 0.612524 0.250733
-61.8191 0.216538 -0.0932558 -0.656316 0.639859 0.284083
-60.3957 0.246714 -0.0943075 -0.622266 0.664695 0.323198
-66.2481 0.072131 -0.0802999 -0.814921 0.540745 0.158347
-65.6455 0.0799354 -0.0840499 -0.779895 0.573018 0.181255
-64.8812 0.0908124 -0.0877193 -0.743328 0.605063 0.207212
-63.9309 0.105451 -0.0911014 -0.705996 0.636241 0.236787
-62.7712 0.124766 -0.0939536 -0.66892 0.665797 0.271031
-61.3831 0.150241 -0.0952072 -0.633369 0.692773 0.311399
-67.4033 -0.00535743 -0.0760899 -0.866027 0.524423 0.122266
-67.0019 -0.00445572 -0.0800117 -0.832376 0.558343 0.142458
-66.4608 -0.00105444 -0.083927 -0.79642 0.59265 0.165427
-65.7563 0.0052319 -0.0877823 -0.758623 0.626947 0.191641
-64.8615 0.0150845 -0.0913699 -0.719825 0.660534 0.221747
-63.7503 0.0294545 -0.094433 -0.681145 0.692572 0.256892
-62.4013 0.0498287 -0.0959123 -0.643989 0.721938 0.298579
-68.1023 -0.0800752 -0.0754848 -0.883894 0.539948 0.105475
-67.7643 -0.0835721 -0.0794923 -0.84964 0.575839 0.12557
-67.289 -0.0848007 -0.0835649 -0.812744 0.612379 0.14852
-66.649 -0.0833427 -0.0875986 -0.773707 0.649114 0.174921
-65.8148 -0.0785607 -0.0913928 -0.733374 0.685353 0.205504
-64.7566 -0.0694812 -0.0946732 -0.692972 0.720174 0.241538
-63.4496 -0.0544172 -0.0962883 -0.654104 0.752296 0.284632
-68.8043 -0.157141 -0.0746423 -0.901396 0.555244 0.0877257
-68.534 -0.165272 -0.078743 -0.866619 0.59321 0.107609
-68.1284 -0.171323 -0.0829347 -0.828866 0.63209 0.130461
-67.5581 -0.174939 -0.0871357 -0.78859 0.671454 0.156959
-66.7902 -0.175526 -0.0911382 -0.746653 0.710608 0.187938
-65.7906 -0.172112 -0.0946469 -0.704389 0.748557 0.224824
-64.5294 -0.162868 -0.0964267 -0.663623 0.783839 0.269379
-69.6009 -0.221883 -0.0695869 -0.950288 0.531441 0.0521377
-69.5075 -0.236534 -0.0735595 -0.918504 0.570165 0.0689927
-69.3082 -0.249531 -0.0777183 -0.883311 0.610259 0.0885333
-68.9768 -0.260628 -0.0820011 -0.844782 0.651616 0.111181
-68.4819 -0.26957 -0.0863523 -0.803293 0.693806 0.137657
-67.7869 -0.275837 -0.0905632 -0.759687 0.736155 0.168921
-66.8524 -0.278489 -0.0943167 -0.715399 0.777617 0.206584
-65.6424 -0.275575 -0.0962743 -0.672517 0.816545 0.252622
-70.2349 -0.298752 -0.0682724 -0.966987 0.543653 0.032838
-70.2098 -0.318291 -0.0722338 -0.935161 0.584348 0.0492269
-70.0844 -0.336333 -0.0763832 -0.899681 0.626761 0.0682982
-69.8317 -0.352709 -0.0807198 -0.86049 0.670727 0.0906108
-69.4184 -0.367233 -0.085194 -0.817844 0.715935 0.116922
-68.8038 -0.379494 -0.0896089 -0.772522 0.761766 0.148318
-67.9423 -0.388637 -0.0936288 -0.726031 0.807167 0.186634
-66.79 -0.392624 -0.0957924 -0.680756 0.850316 0.234133
-70.8636 -0.377689 -0.0667061 -0.982946 0.554983 0.0126259
-70.9085 -0.402355 -0.0706084 -0.951221 0.597707 0.0283668
-70.8596 -0.425619 -0.0746829 -0.915612 0.642443 0.0468587
-70.69 -0.447469 -0.0789995 -0.875906 0.689108 0.068682
-70.3646 -0.467859 -0.0835657 -0.832206 0.737501 0.0946518
-69.8388 -0.486515 -0.0882102 -0.785165 0.787111 0.125978
-69.0601 -0.502693 -0.0925794 -0.736284 0.836936 0.164743
-67.9737 -0.514175 -0.0949724 -0.688301 0.884968 0.213636
SCALARS STRAIN double 6
LOOKUP_TABLE default
8.21291e-05 0.000216909 -0.000409989 1.44059e-05 0.000186317 2.71307e-05
7.61265e-05 0.000218811 -0.000399155 1.60277e-05 0.000177972 2.40386e-05
6.93379e-05 0.000220756 -0.000386584 1.76432e-05 0.000169472 2.06563e-05
9.32992e-05 0.000207506 -0.000424772 1.27087e-05 0.000198704 3.11396e-05
8.82879e-05 0.000209072 -0.000415869 1.4399e-05 0.000190419 2.83173e-05
8.25657e-05 0.000210663 -0.000405381 1.60881e-05 0.000181812 2.52338e-05
7.6043e-05 0.000212282 -0.000393112 1.77732e-05 0.000173007 2.18495e-05
9.93825e-05 0.000199643 -0.000430397 1.26077e-05 0.00020294 3.23752e-05
9.46829e-05 0.000200887 -0.000421888 1.43724e-05 0.000194428 2.95634e-05
8.92615e-05 0.000202142 -0.000411776 1.61406e-05 0.000185537 2.64876e-05
8.30251e-05 0.000203418 -0.000399834 1.79028e-05 0.000176423 2.31015e-05
0.000109415 0.000190513 -0.000442775 1.06728e-05 0.000215263 3.62204e-05
0.000105684 0.000191422 -0.000436127 1.24914e-05 0.000207064 3.3671e-05
0.000101316 0.000192332 -0.000428048 1.43336e-05 0.000198327 3.08739e-05
9.62194e-05 0.000193236 -0.000418339 1.61845e-05 0.000189156 2.78047e-05
9.02911e-05 0.000194149 -0.000406755 1.80263e-05 0.000179719 2.44148e-05
8.33442e-05 0.000195107 -0.000392971 1.99472e-05 0.00017023 2.05292e-05
0.000115581 0.000182285 -0.000448142 1.0456e-05 0.000219447 3.75606e-05
0.000112207 0.000182848 -0.000441956 1.23513e-05 0.000211085 3.50315e-05
0.000108194 0.000183399 -0.000434342 1.42786e-05 0.000202116 3.22506e-05
0.000103445 0.000183933 -0.000425068 1.62181e-05 0.000192664 2.91884e-05
9.78499e-05 0.000184461 -0.000413873 1.81513e-05 0.000182904 2.57941e-05
9.12087e-05 0.000185023 -0.000400401 2.01632e-05 0.000173071 2.18977e-05
0.000121946 0.000173699 -0.000453566 1.02115e-05 0.000223491 3.89665e-05
0.000118951 0.000173899 -0.00044788 1.21874e-05 0.000214976 3.64606e-05
0.000115319 0.000174075 -0.000440762 1.42042e-05 0.000205789 3.36969e-05
0.000110946 0.000174218 -0.00043196 1.62393e-05 0.000196054 3.06423e-05
0.00010571 0.000174338 -0.000421187 1.827e-05 0.00018596 2.72443e-05
9.94021e-05 0.00017447 -0.000408065 2.03829e-05 0.000175753 2.33388e-05
0.00013056 0.000164925 -0.000462988 7.95789e-06 0.000235224 4.26613e-05
0.00012851 0.00016475 -0.000459037 9.94033e-06 0.000227381 4.04383e-05
0.000125919 0.000164566 -0.000453884 1.19943e-05 0.000218735 3.79621e-05
0.000122694 0.000164347 -0.000447299 1.41066e-05 0.000209338 3.5217e-05
0.000118725 0.000164078 -0.000439008 1.62452e-05 0.000199321 3.21707e-05
0.000113881 0.000163764 -0.000428698 1.83823e-05 0.000188883 2.87688e-05
0.000107936 0.000163431 -0.000415965 2.05974e-05 0.00017829 2.48536e-05
0.000136905 0.000155998 -0.000467958 7.56266e-06 0.000239004 4.41749e-05
0.000135273 0.000155424 -0.00046454 9.61824e-06 0.000231116 4.19826e-05
0.00013311 0.000154837 -0.000459954 1.17668e-05 0.000222351 3.95402e-05
0.000130322 0.000154203 -0.000453942 1.39812e-05 0.000212758 3.68157e-05
0.000126789 0.000153499 -0.000446208 1.62322e-05 0.000202461 3.37786e-05
0.00012237 0.000152722 -0.000436406 1.84857e-05 0.000191667 3.03726e-05
0.000116822 0.000151909 -0.000424097 2.08189e-05 0.000180676 2.64422e-05
0.000143422 0.00014671 -0.000472916 7.12874e-06 0.00024257 4.57591e-05
0.00014223 0.000145713 -0.000470062 9.25773e-06 0.000234665 4.36087e-05
0.000140523 0.000144701 -0.000466072 1.14981e-05 0.000225812 4.12004e-05
0.000138202 0.000143631 -0.000460676 1.38214e-05 0.000216042 3.84987e-05
0.000135141 0.000142466 -0.00045355 1.61949e-05 0.000205468 3.54718e-05
0.000131185 0.000141197 -0.00044431 1.85768e-05 0.000194309 3.20617e-05
0.000126074 0.000139857 -0.000432467 2.10398e-05 0.000182892 2.81131e-05
0.000150415 0.000138532 -0.00047925 4.59898e-06 0.000252807 4.9245e-05
0.000150105 0.000137059 -0.000477848 6.65449e-06 0.000245901 4.7414e-05
0.000149378 0.000135609 -0.000475578 8.84525e-06 0.000238014 4.53184e-05
0.000148154 0.000134147 -0.000472217 1.11798e-05 0.000229106 4.29489e-05
0.000146333 0.000132617 -0.000467482 1.36188e-05 0.000219182 4.02731e-05
0.000143781 0.000130968 -0.000461022 1.61258e-05 0.000208341 3.72578e-05
0.000140333 0.000129175 -0.000452406 1.86506e-05 0.000196804 3.38435e-05
0.000135704 0.000127266 -0.000441087 2.12587e-05 0.000184933 2.98756e-05
0.000156791 0.00012899 -0.000483593 3.99524e-06 0.00025578 5.0926e-05
0.000156947 0.000127032 -0.000482735 6.09924e-06 0.000248968 4.91492e-05
0.000156709 0.000125104 -0.000481066 8.37115e-06 0.000241139 4.71179e-05
0.000155997 0.000123165 -0.000478365 1.08004e-05 0.000232215 4.47934e-05
0.00015471 0.000121152 -0.000474338 1.33609e-05 0.000222172 4.21479e-05
0.000152709 0.000118994 -0.000468606 1.60137e-05 0.00021108 3.91464e-05
0.000149816 0.000116644 -0.000460689 1.8699e-05 0.000199155 3.57275e-05
0.000145723 0.00011412 -0.000449965 2.14708e-05 0.000186796 3.17397e-05
0.000161129 0.000124304 -0.000486842 -4.13214e-07 0.000269024 5.53333e-05
0.000162342 0.000121676 -0.000487587 1.39178e-06 0.000264134 5.41135e-05
0.000163295 0.000119123 -0.000487864 3.36064e-06 0.000258403 5.26757e-05
0.000163939 0.000116638 -0.000487557 5.50049e-06 0.000251726 5.0981e-05
0.000164214 0.000114202 -0.000486503 7.83135e-06 0.000243993 4.9016e-05
0.000164042 0.000111759 -0.000484487 1.03477e-05 0.0002351 4.67444e-05
0.000163323 0.000109232 -0.000481213 1.30312e-05 0.000224984 4.41353e-05
0.000161917 0.000106533 -0.000476277 1.58437e-05 0.000213672 4.1151e-05
0.000159633 0.000103589 -0.00046915 1.87137e-05 0.000201352 3.77295e-05
0.000156138 0.000100404 -0.000459105 2.16692e-05 0.000188471 3.37152e-05
8.99449e-05 0.00019784 -0.000421535 7.17717e-05 0.000153259 1.20992e-05
8.52664e-05 0.000199166 -0.000412638 7.55499e-05 0.000146553 7.66377e-06
7.99754e-05 0.000200563 -0.000402352 7.89983e-05 0.000139864 2.56051e-06
9.89988e-05 0.000190528 -0.000434227 7.03225e-05 0.000163718 1.87005e-05
9.51229e-05 0.000191531 -0.000426914 7.46e-05 0.000156914 1.47808e-05
9.06887e-05 0.00019257 -0.000418304 7.86308e-05 0.000149981 1.03445e-05
8.56312e-05 0.000193662 -0.000408263 8.23253e-05 0.000143038 5.2123e-06
0.000104106 0.000184236 -0.000439408 7.29202e-05 0.000167534 2.15081e-05
0.000100499 0.000184947 -0.000432424 7.74793e-05 0.00016052 1.76061e-05
9.63268e-05 0.000185675 -0.000424123 8.17947e-05 0.000153335 1.31703e-05
9.15206e-05 0.000186448 -0.000414348 8.57612e-05 0.000146134 8.01001e-06
0.00011221 0.000177245 -0.000450113 7.05744e-05 0.000178195 2.78748e-05
0.000109398 0.00017766 -0.00044469 7.55582e-05 0.000171288 2.44581e-05
0.000106076 0.000178069 -0.000438067 8.04208e-05 0.00016406 2.0585e-05
0.000102185 0.000178475 -0.000430098 8.50462e-05 0.000156624 1.61556e-05
9.76491e-05 0.000178906 -0.000420612 8.93085e-05 0.000149146 1.09687e-05
9.24904e-05 0.000179416 -0.00040948 9.30688e-05 0.000141839 4.63439e-06
0.000117382 0.000170699 -0.000455102 7.29278e-05 0.000182067 3.0933e-05
0.000114875 0.000170809 -0.000450072 7.8223e-05 0.00017499 2.7562e-05
0.000111858 0.000170893 -0.000443837 8.34194e-05 0.000167538 2.37265e-05
0.000108268 0.000170959 -0.000436225 8.8386e-05 0.000159845 1.93116e-05
0.000104023 0.000171031 -0.000427053 9.29824e-05 0.000152086 1.41024e-05
9.91392e-05 0.000171166 -0.000416168 9.70476e-05 0.000144502 7.6989e-06
0.000122722 0.000163872 -0.000460153 7.52833e-05 0.000185864 3.41434e-05
0.000120539 0.000163663 -0.000455548 8.0912e-05 0.000178621 3.08286e-05
0.000117848 0.000163411 -0.000449728 8.64702e-05 0.00017095 2.70404e-05
0.000114581 0.000163118 -0.000442503 9.18135e-05 0.000162992 2.26503e-05
0.00011065 0.000162807 -0.000433671 9.67818e-05 0.000154939 1.74271e-05
0.000106064 0.000162533 -0.000423061 0.000101192 0.000147047 1.09606e-05
0.000129634 0.000157262 -0.000468367 7.17256e-05 0.000196405 4.03572e-05
0.00012823 0.000156761 -0.000465256 7.76336e-05 0.000189578 3.75117e-05
0.000126391 0.000156219 -0.000461107 8.3613e-05 0.000182182 3.42666e-05
0.000124048 0.000155614 -0.000455734 8.95646e-05 0.000174293 3.0537e-05
0.000121128 0.000154942 -0.000448928 9.53251e-05 0.000166063 2.61845e-05
0.000117535 0.000154223 -0.000440467 0.000100711 0.0001577 2.09586e-05
0.000113274 0.000153507 -0.000430161 0.000105505 0.000149486 1.4433e-05
0.000134952 0.000150197 -0.000473047 7.37055e-05 0.000200122 4.38228e-05
0.000133905 0.000149359 -0.000470402 7.99446e-05 0.000193213 4.10487e-05
0.000132432 0.000148466 -0.000466738 8.63107e-05 0.000185668 3.78848e-05
0.000130461 0.000147493 -0.000461846 9.26895e-05 0.000177566 3.42267e-05
0.000127913 0.000146423 -0.000455497 9.89126e-05 0.000169056 2.99279e-05
0.000124686 0.00014527 -0.000447442 0.000104771 0.000160366 2.47151e-05
0.000120777 0.000144092 -0.000437464 0.000110008 0.000151811 1.81316e-05
0.000140414 0.00014285 -0.000477728 7.56312e-05 0.000203716 4.74541e-05
0.000139744 0.000141656 -0.000475576 8.22149e-05 0.000196746 4.47676e-05
0.00013866 0.000140398 -0.000472427 8.89835e-05 0.000189073 4.16918e-05
0.000137086 0.000139039 -0.000468054 9.58249e-05 0.000180765 3.81198e-05
0.000134939 0.000137551 -0.000462205 0.000102561 0.00017197 3.3894e-05
0.000132108 0.000135937 -0.000454596 0.000108955 0.000162931 2.87158e-05
0.000128582 0.000134254 -0.000444976 0.000114705 0.000154006 2.20869e-05
0.000145952 0.000136758 -0.000483258 7.08443e-05 0.000213413 5.34809e-05
0.000146016 0.000135219 -0.000482396 7.74814e-05 0.000207175 5.12557e-05
0.000145745 0.000133647 -0.000480761 8.44106e-05 0.00020017 4.86732e-05
0.000145074 0.000132006 -0.000478156 9.1602e-05 0.000192392 4.56965e-05
0.000143925 0.000130244 -0.000474344 9.89411e-05 0.000183891 4.22258e-05
0.000142208 0.000128319 -0.000469042 0.000106245 0.000174806 3.80957e-05
0.000139806 0.000126216 -0.00046193 0.00011325 0.000165396 3.29804e-05
0.000136701 0.000123985 -0.000452709 0.000119597 0.000156064 2.633e-05
0.000151287 0.00012923 -0.000487406 7.22548e-05 0.000216681 5.73574e-05
0.000151752 0.000127296 -0.000487034 7.91919e-05 0.000210481 5.52388e-05
0.000151902 0.000125328 -0.000485934 8.64942e-05 0.000203472 5.27737e-05
0.00015167 0.000123284 -0.000483906 9.4125e-05 0.000195618 4.99081e-05
0.000150974 0.000121102 -0.000480698 0.000101995 0.000186943 4.65541e-05
0.000149722 0.00011872 -0.000475999 0.000109924 0.00017757 4.25447e-05
0.000147787 0.000116101 -0.000469442 0.000117626 0.000167762 3.75285e-05
0.000145143 0.000113279 -0.00046067 0.000124676 0.000157977 3.08936e-05
0.000156731 0.000121441 -0.000491498 7.35246e-05 0.00021973 6.1401e-05
0.000157616 0.000119082 -0.000491624 8.076e-05 0.000213598 5.94173e-05
0.00015821 0.000116698 -0.000491076 8.84223e-05 0.000206618 5.7079e-05
0.000158442 0.000114232 -0.000489652 9.64979e-05 0.000198724 5.43381e-05
0.000158231 0.00011161 -0.000487092 0.000104922 0.000189905 5.11159e-05
0.000157479 0.000108747 -0.000483056 0.000113535 0.000180254 4.72528e-05
0.000156051 0.000105577 -0.000477128 0.000122035 0.000170025 4.23831e-05
0.000153914 0.00010212 -0.000468868 0.000129917 0.000159736 3.58123e-05
0 0 0 0 0 0
0 0 0 0 0 0
0 0 0 0 0 0
0 0 0 0 0 0
0 0 0 0 0 0
0 0 0 0 0 0
0 0 0 0 0 0
0 0 0 0 0 0
0 0 0 0 0 0
0 0 0 0 0 0
0 0 0 0 0 0
0 0 0 0 0 0
0 0 0 0 0 0
0 0 0 0 0 0
0 0 0 0 0 0
0 0 0 0 0 0
0 0 0 0 0 0
0 0 0 0 0 0
0 0 0 0 0 0
0 0 0 0 0 0
0 0 0 0 0 0
0 0 0 0 0 0
0 0 0 0 0 0
0 0 0 0 0 0
0 0 0 0 0 0
0 0 0 0 0 0
0 0 0 0 0 0
0 0 0 0 0 0
0 0 0 0 0 0
0 0 0 0 0 0
0 0 0 0 0 0
0 0 0 0 0 0
0 0 0 0 0 0
0 0 0 0 0 0
0 0 0 0 0 0
0 0 0 0 0 0
0 0 0 0 0 0
0 0 0 0 0 0
0 0 0 0 0 0
0 0 0 0 0 0
0 0 0 0 0 0
0 0 0 0 0 0
0 0 0 0 0 0
0 0 0 0 0 0
0 0 0 0 0 0
0 0 0 0 0 0
0 0 0 0 0 0
0 0 0 0 0 0
0 0 0 0 0 0
0 0 0 0 0 0
0 0 0 0 0 0
0 0 0 0 0 0
0 0 0 0 0 0
0 0 0 0 0 0
0 0 0 0 0 0
0 0 0 0 0 0
0 0 0 0 0 0
0 0 0 0 0 0
0 0 0 0 0 0
0 0 0 0 0 0
0 0 0 0 0 0
0 0 0 0 0 0
0 0 0 0 0 0
0 0 0 0 0 0
0 0 0 0 0 0
0 0 0 0 0 0
0 0 0 0 0 0
0 0 0 0 0 0
0 0 0 0 0 0
0 0 0 0 0 0
0 0 0 0 0 0
0 0 0 0 0 0
0 0 0 0 0 0
0 0 0 0 0 0
0.000111547 0.000179741 -0.000434971 0.000111345 0.000120344 -2.77957e-05
0.000108141 0.000180549 -0.000428255 0.000116708 0.000115194 -3.69103e-05
0.00010431 0.000181453 -0.000420515 0.000121693 0.000110223 -4.69382e-05
0.000100074 0.000182494 -0.000411742 0.00012618 0.000105575 -5.80852e-05
0.000118572 0.000174487 -0.000445366 0.000109429 0.000128939 -1.58336e-05
0.0001158 0.000174987 -0.000439891 0.000115398 0.000123541 -2.42301e-05
0.000112607 0.000175535 -0.000433414 0.000121102 0.000118193 -3.34957e-05
0.000108979 0.000176162 -0.000425879 0.000126421 0.000113013 -4.37434e-05
0.00010494 0.000176925 -0.000417273 0.000131222 0.000108163 -5.51755e-05
0.000122752 0.000169788 -0.00045013 0.000113179 0.000132327 -1.19401e-05
0.000120211 0.00017003 -0.000444932 0.000119522 0.000126733 -2.04387e-05
0.000117243 0.000170301 -0.000438713 0.000125608 0.000121163 -2.98589e-05
0.000113835 0.000170638 -0.000431401 0.000131292 0.000115766 -4.03385e-05
0.000110005 0.000171089 -0.000422979 0.000136435 0.000110701 -5.20733e-05
0.000128988 0.000164892 -0.000458939 0.000110121 0.000141392 -1.18622e-07
0.000127076 0.000164881 -0.000454991 0.000116988 0.000135708 -7.80935e-06
0.000124777 0.000164859 -0.000450095 0.000123733 0.000129909 -1.64001e-05
0.000122052 0.000164841 -0.000444153 0.000130231 0.000124113 -2.5978e-05
0.000118886 0.000164868 -0.000437081 0.000136322 0.000118482 -3.66918e-05
0.000115283 0.000165002 -0.000428854 0.000141849 0.000113199 -4.8747e-05
0.000133199 0.000160046 -0.000463562 0.000113555 0.000144953 4.30065e-06
0.000131544 0.000159776 -0.000459948 0.000120837 0.000139093 -3.42114e-06
0.000129505 0.000159471 -0.000455378 0.000128024 0.000133075 -1.20965e-05
0.000127039 0.000159149 -0.000449733 0.000134974 0.000127041 -2.18319e-05
0.000124134 0.000158848 -0.00044292 0.000141518 0.000121166 -3.27828e-05
0.000120776 0.000158638 -0.000434898 0.000147471 0.00011566 -4.51767e-05
0.00013754 0.000154996 -0.000468249 0.000116999 0.000148508 8.97814e-06
0.000136157 0.000154457 -0.000464996 0.000124725 0.000142468 1.24309e-06
0.000134394 0.00015386 -0.000460775 0.000132388 0.00013623 -7.50668e-06
0.000132206 0.000153218 -0.000455452 0.000139834 0.000129946 -1.73966e-05
0.000129575 0.000152569 -0.00044892 0.000146877 0.000123809 -2.85987e-05
0.000126483 0.000151981 -0.000441123 0.000153306 0.000118051 -4.1349e-05
0.00014278 0.000150487 -0.000475018 0.000112328 0.000157922 2.06969e-05
0.000142011 0.000149739 -0.000472992 0.000120438 0.000152054 1.39292e-05
0.000140916 0.000148921 -0.000470126 0.000128636 0.00014584 6.20256e-06
0.000139448 0.00014802 -0.000466282 0.000136815 0.000139377 -2.60684e-06
0.000137557 0.000147042 -0.000461308 0.000144808 0.000132828 -1.26447e-05
0.000135221 0.000146023 -0.000455081 0.000152405 0.00012641 -2.41043e-05
0.000132417 0.000145029 -0.000447532 0.000159364 0.00012038 -3.72319e-05
0.000147083 0.000145292 -0.000479404 0.000115268 0.000161585 2.58661e-05
0.00014661 0.000144272 -0.00047778 0.000123835 0.000155601 1.91707e-05
0.000145821 0.000143163 -0.000475329 0.000132549 0.000149209 1.14777e-05
0.000144667 0.000141946 -0.000471891 0.000141289 0.000142516 2.62872e-06
0.000143094 0.000140617 -0.000467298 0.000149883 0.00013569 -7.54558e-06
0.000141076 0.000139204 -0.000461405 0.000158101 0.000128967 -1.92657e-05
0.000138584 0.000137783 -0.000454123 0.000165666 0.000122644 -3.27981e-05
0.000151499 0.000139888 -0.0004838 0.000118132 0.000165219 3.13082e-05
0.000151338 0.000138585 -0.000482604 0.00012718 0.000159133 2.47214e-05
0.000150873 0.000137176 -0.000480594 0.000136438 0.000152577 1.70893e-05
0.000150052 0.000135632 -0.000477594 0.000145785 0.000145653 8.22771e-06
0.000148819 0.000133936 -0.000473418 0.000155043 0.000138533 -2.06474e-06
0.000147145 0.000132107 -0.000467893 0.000163957 0.000131477 -1.40435e-05
0.000144992 0.000130218 -0.000460901 0.000172213 0.000124827 -2.80056e-05
0.000155608 0.000135788 -0.000488303 0.000111684 0.000174432 4.2525e-05
0.000156022 0.000134272 -0.000488193 0.000120887 0.000168823 3.70302e-05
0.000156192 0.000132673 -0.000487446 0.000130429 0.000162651 3.05925e-05
0.00015607 0.000130954 -0.000485904 0.000140264 0.000155946 2.30582e-05
0.000155604 0.000129072 -0.000483381 0.000150267 0.000148792 1.42192e-05
0.000154737 0.000126995 -0.000479663 0.000160255 0.000141364 3.836e-06
0.000153434 0.000124725 -0.000474547 0.000169954 0.000133943 -8.39227e-06
0.000151651 0.000122332 -0.000467876 0.000179002 0.000126925 -2.28037e-05
0.000159909 0.000130253 -0.000492245 0.000113805 0.000178007 4.83326e-05
0.000160654 0.000128436 -0.000492567 0.000123455 0.000172384 4.30408e-05
0.00016117 0.00012653 -0.000492288 0.000133531 0.000166152 3.67951e-05
0.000161412 0.00012449 -0.000491245 0.000143975 0.000159316 2.94034e-05
0.000161325 0.00012226 -0.000489235 0.000154684 0.000151942 2.06324e-05
0.00016085 0.000119789 -0.000486023 0.000165473 0.000144194 1.01982e-05
0.000159949 0.000117055 -0.000481365 0.000176054 0.000136372 -2.2589e-06
0.00015857 0.000114116 -0.000475057 0.000186017 0.000128931 -1.7134e-05
0.000164302 0.000124508 -0.00049614 0.00011571 0.000181488 5.43857e-05
0.000165392 0.000122372 -0.000496906 0.000125817 0.000175879 4.93489e-05
0.000166274 0.000120148 -0.000497112 0.000136427 0.000169616 4.33369e-05
0.0001669 0.000117778 -0.000496593 0.000147503 0.000162675 3.61413e-05
0.000167216 0.000115189 -0.000495138 0.00015896 0.000155096 2.74974e-05
0.000167161 0.000112308 -0.000492484 0.000170628 0.000147024 1.70688e-05
0.000166694 0.000109084 -0.000488346 0.000182206 0.000138764 4.42223e-06
0.00016576 0.00010556 -0.000482453 0.000193229 0.000130839 -1.09253e-05
0.000117291 0.000170843 -0.000441557 0.000132182 0.000104186 -3.8801e-05
0.000114582 0.000171403 -0.00043587 0.000138151 9.97785e-05 -4.85745e-05
0.000111528 0.000172072 -0.000429324 0.000143593 9.56132e-05 -5.92987e-05
0.000108171 0.000172895 -0.000421974 0.000148372 9.18297e-05 -7.11624e-05
0.000123186 0.000166606 -0.000450871 0.000130227 0.000111899 -2.58541e-05
0.000121032 0.000166868 -0.000446257 0.00013698 0.000107181 -3.48476e-05
0.00011852 0.000167184 -0.000440785 0.000143344 0.000102588 -4.47809e-05
0.000115661 0.00016759 -0.000434424 0.000149164 9.8235e-05 -5.57353e-05
0.000112492 0.000168149 -0.000427222 0.000154289 9.42757e-05 -6.79099e-05
0.00012685 0.000162704 -0.000455438 0.000134669 0.000115101 -2.15403e-05
0.000124909 0.000162728 -0.000451075 0.000141864 0.000110193 -3.06394e-05
0.000122608 0.000162784 -0.000445834 0.00014867 0.000105393 -4.0735e-05
0.000119958 0.000162915 -0.000439673 0.000154909 0.00010084 -5.19284e-05
0.00011699 0.000163177 -0.000432634 0.00016041 9.66938e-05 -6.44317e-05
0.00013203 0.000158838 -0.000463363 0.00013128 0.000123408 -8.72831e-06
0.00013064 0.000158631 -0.000460102 0.000139178 0.000118325 -1.69611e-05
0.000128923 0.000158412 -0.000456013 0.00014685 0.000113217 -2.61534e-05
0.000126849 0.000158198 -0.000451019 0.000154137 0.000108202 -3.64114e-05
0.000124422 0.000158036 -0.000445071 0.000160837 0.000103437 -4.78516e-05
0.00012167 0.000157996 -0.000438207 0.000166761 9.90964e-05 -6.07033e-05
0.00013571 0.000154841 -0.000467816 0.000135335 0.000126843 -3.83124e-06
0.000134555 0.000154399 -0.00046486 0.000143732 0.000121582 -1.2094e-05
0.000133077 0.000153918 -0.000461065 0.000151931 0.000116259 -2.13694e-05
0.000131244 0.00015342 -0.000456339 0.000159746 0.000111016 -3.17862e-05
0.000129057 0.000152949 -0.000450621 0.000166958 0.000106022 -4.34793e-05
0.000126539 0.00015258 -0.00044394 0.000173352 0.00010148 -5.66971e-05
0.000139502 0.000150677 -0.000472336 0.000139393 0.000130307 1.35427e-06
0.000138596 0.000149992 -0.000469709 0.000148329 0.000124863 -6.91895e-06
0.000137373 0.000149244 -0.00046623 0.000157099 0.000119322 -1.62642e-05
0.000135797 0.000148448 -0.000461792 0.000165498 0.000113836 -2.68328e-05
0.000133867 0.000147647 -0.000456324 0.000173281 0.000108594 -3.87823e-05
0.000131601 0.000146918 -0.000449842 0.000180203 0.000103823 -5.23784e-05
0.000143777 0.000147194 -0.000478435 0.000133965 0.00013918 1.4107e-05
0.000143406 0.000146343 -0.000476912 0.000143437 0.000133802 6.84574e-06
0.000142764 0.00014541 -0.000474641 0.000152948 0.000128176 -1.4148e-06
0.000141811 0.000144384 -0.000471503 0.000162342 0.000122408 -1.08124e-05
0.00014051 0.000143276 -0.000467379 0.00017139 0.000116663 -2.15214e-05
0.000138856 0.000142126 -0.000462181 0.000179811 0.000111152 -3.37276e-05
0.000136863 0.000141009 -0.000455917 0.00018732 0.00010613 -4.77187e-05
0.000147525 0.000142927 -0.000482688 0.000137394 0.000142843 1.98498e-05
0.000147423 0.000141839 -0.000481537 0.000147423 0.000137337 1.26622e-05
0.00014706 0.000140646 -0.000479647 0.000157566 0.000131525 4.44031e-06
0.000146394 0.000139333 -0.000476879 0.000167642 0.000125523 -4.98685e-06
0.000145386 0.0001379 -0.000473096 0.00017741 0.000119501 -1.58192e-05
0.000144029 0.00013638 -0.000468195 0.000186552 0.000113695 -2.82773e-05
0.000142331 0.000134856 -0.000462164 0.000194734 0.000108399 -4.26851e-05
0.00015137 0.000138486 -0.000486954 0.000140719 0.000146527 2.59021e-05
0.000151551 0.000137153 -0.000486201 0.000151337 0.000140903 1.88246e-05
0.000151483 0.000135696 -0.000484717 0.000162149 0.000134916 1.06689e-05
0.000151123 0.000134089 -0.000482349 0.000172971 0.000128674 1.24137e-06
0.000150429 0.000132318 -0.000478942 0.000183539 0.000122358 -9.69015e-06
0.00014939 0.000130407 -0.000474367 0.000193498 0.000116225 -2.23884e-05
0.000148012 0.000128437 -0.000468588 0.000202453 0.000110617 -3.72269e-05
0.000154633 0.000135351 -0.000490979 0.000133058 0.000155494 3.8231e-05
0.000155311 0.000133868 -0.000491221 0.000143901 0.000150232 3.22746e-05
0.000155791 0.000132281 -0.000490888 0.000155128 0.000144504 2.53463e-05
0.000156035 0.000130553 -0.000489837 0.000166653 0.000138352 1.72932e-05
0.000156 0.000128644 -0.000487904 0.000178286 0.000131871 7.90209e-06
0.000155641 0.000126524 -0.000484911 0.000189746 0.000125242 -3.09522e-06
0.000154946 0.000124201 -0.000480699 0.000200635 0.000118747 -1.60125e-05
0.000153915 0.000121751 -0.0004752 0.000210485 0.000112781 -3.12863e-05
0.000158371 0.000130801 -0.000494824 0.000135476 0.000159244 4.473e-05
0.000159347 0.000129065 -0.000495475 0.000146859 0.000153949 3.89783e-05
0.000160143 0.000127215 -0.000495579 0.000158736 0.000148142 3.22414e-05
0.000160717 0.000125209 -0.000494991 0.000171016 0.00014184 2.43344e-05
0.000161027 0.000122992 -0.000493531 0.000183527 0.000135124 1.50253e-05
0.000161028 0.000120515 -0.000490996 0.000195979 0.000128166 4.00667e-06
0.000160704 0.000117761 -0.000487193 0.00020793 0.000121269 -9.09569e-06
0.000160051 0.000114793 -0.000482009 0.000218826 0.000114889 -2.47983e-05
0.000162194 0.000126065 -0.000498627 0.000137637 0.000162963 5.15179e-05
0.000163482 0.000124062 -0.000499697 0.000149566 0.000157661 4.60244e-05
0.000164608 0.000121945 -0.000500257 0.000162096 0.0001518 3.9522e-05
0.000165532 0.000119657 -0.000500159 0.000175161 0.000145373 3.18132e-05
0.00016621 0.000117126 -0.000499212 0.000188612 0.000138434 2.26425e-05
0.000166594 0.00011428 -0.000497187 0.000202162 0.00013114 1.16611e-05
0.00016667 0.000111074 -0.000493848 0.000215334 0.000123799 -1.57278e-06
0.00016643 0.000107552 -0.000489025 0.000227462 0.000116939 -1.76852e-05
0.000119601 0.00016212 -0.000447493 0.000147667 8.79387e-05 -3.62139e-05
0.000117472 0.000162445 -0.000442814 0.000154286 8.42652e-05 -4.6039e-05
0.000115079 0.000162889 -0.000437445 0.000160324 8.09002e-05 -5.69047e-05
0.000112532 0.000163502 -0.000431481 0.000165614 7.79718e-05 -6.8878e-05
0.000124554 0.000158892 -0.000455744 0.000145953 9.48039e-05 -2.28367e-05
0.00012288 0.00015893 -0.000451969 0.000153464 9.07559e-05 -3.17871e-05
0.000120929 0.000159026 -0.00044748 0.00016054 8.6911e-05 -4.17571e-05
0.000118712 0.000159223 -0.000442274 0.000167019 8.33787e-05 -5.28454e-05
0.000116342 0.000159587 -0.000436442 0.000172712 8.03014e-05 -6.51338e-05
0.000127763 0.000155791 -0.00046011 0.000151359 9.78453e-05 -1.80519e-05
0.000126277 0.00015561 -0.000456559 0.000159377 9.36153e-05 -2.70843e-05
0.000124514 0.000155466 -0.000452274 0.000166963 8.95787e-05 -3.71986e-05
0.000122487 0.000155405 -0.000447243 0.00017393 8.58669e-05 -4.85171e-05
0.000120305 0.000155488 -0.000441556 0.000180065 8.26289e-05 -6.11377e-05
0.000132108 0.000152944 -0.000467175 0.000148053 0.00010543 -4.92139e-06
0.000131078 0.000152556 -0.000464573 0.000156857 0.000100941 -1.29847e-05
0.000129791 0.000152154 -0.000461264 0.000165422 9.65173e-05 -2.20819e-05
0.00012823 0.00015176 -0.000457198 0.000173564 9.22777e-05 -3.23358e-05
0.000126406 0.000151424 -0.000452355 0.00018107 8.83717e-05 -4.38891e-05
0.000124425 0.000151221 -0.000446822 0.000187701 8.49642e-05 -5.68605e-05
0.000135326 0.000149797 -0.000471457 0.000153054 0.000108768 4.47198e-07
0.000134502 0.0001492 -0.000469129 0.000162428 0.0001041 -7.61187e-06
0.000133425 0.000148561 -0.000466082 0.000171594 9.9467e-05 -1.67585e-05
0.000132078 0.000147904 -0.000462251 0.000180348 9.50098e-05 -2.71431e-05
0.000130471 0.000147278 -0.000457609 0.000188452 9.08928e-05 -3.89324e-05
0.000128707 0.000146765 -0.000452239 0.000195636 8.73081e-05 -5.22701e-05
0.000138642 0.00014652 -0.000475807 0.000158081 0.000112174 6.11683e-06
0.000138035 0.000145709 -0.000473775 0.000168066 0.00010732 -1.91355e-06
0.00013718 0.000144828 -0.000471009 0.000177886 0.00010247 -1.10902e-05
0.000136062 0.000143897 -0.000467432 0.000187315 9.77783e-05 -2.15916e-05
0.000134686 0.000142963 -0.000463009 0.000196086 9.34301e-05 -3.36145e-05
0.000133156 0.000142108 -0.000457812 0.000203893 8.96405e-05 -4.73261e-05
0.000142219 0.000144047 -0.000481274 0.000152539 0.000120549 1.90383e-05
0.000142056 0.000143111 -0.000480217 0.000163115 0.000115652 1.21046e-05
0.000141678 0.000142082 -0.000478505 0.000173754 0.000110609 4.13108e-06
0.000141059 0.000140952 -0.000476043 0.000184287 0.000105532 -5.05128e-06
0.000140182 0.000139735 -0.000472742 0.000194462 0.000100588 -1.56498e-05
0.000139053 0.000138476 -0.000468555 0.00020398 9.59842e-05 -2.78982e-05
0.000137777 0.000137255 -0.000463549 0.000212485 9.19651e-05 -4.19961e-05
0.000145498 0.000140708 -0.000485396 0.000156906 0.000124249 2.52463e-05
0.000145569 0.00013957 -0.000484679 0.000168115 0.000119213 1.84284e-05
0.000145433 0.000138315 -0.000483311 0.000179467 0.000113976 1.05429e-05
0.000145062 0.00013693 -0.000481178 0.000190777 0.000108661 1.38544e-06
0.000144442 0.000135417 -0.000478179 0.000201781 0.000103444 -9.28304e-06
0.000143578 0.000133815 -0.000474251 0.000212141 9.85572e-05 -2.17417e-05
0.000142573 0.000132209 -0.000469446 0.000221445 9.42846e-05 -3.6241e-05
0.000148864 0.000137229 -0.000489536 0.00016119 0.000128022 3.17708e-05
0.000149181 0.000135885 -0.000489184 0.000173064 0.000122853 2.51077e-05
0.0001493 0.000134403 -0.000488184 0.000185173 0.000117429 1.73427e-05
0.000149193 0.000132758 -0.000486409 0.000197328 0.000111868 8.24781e-06
0.000148845 0.00013094 -0.000483742 0.000209251 0.000106357 -2.45439e-06
0.000148263 0.000128976 -0.000480097 0.000220564 0.000101153 -1.50979e-05
0.000147551 0.00012695 -0.000475511 0.000230789 9.65877e-05 -3.00009e-05
0.000151577 0.000135039 -0.000493135 0.000153215 0.000136792 4.41227e-05
0.000152316 0.000133607 -0.000493684 0.000165349 0.000131871 3.86218e-05
0.000152893 0.000132053 -0.000493717 0.000177913 0.000126581 3.21543e-05
0.000153282 0.00013034 -0.000493111 0.000190827 0.000120977 2.45508e-05
0.000153455 0.000128431 -0.000491728 0.0002039 0.000115167 1.55638e-05
0.000153397 0.000126301 -0.000489426 0.000216842 0.000109339 4.87505e-06
0.000153116 0.000123958 -0.000486097 0.000229236 0.00010378 -7.91445e-06
0.000152719 0.000121482 -0.000481752 0.000240528 9.88739e-05 -2.32095e-05
0.000154857 0.000131471 -0.000496894 0.000156553 0.000140763 5.10675e-05
0.000155856 0.000129834 -0.000497824 0.000169306 0.000135791 4.58093e-05
0.000156708 0.000128063 -0.000498262 0.000182608 0.000130402 3.95805e-05
0.000157383 0.000126117 -0.000498079 0.000196372 0.000124631 3.21857e-05
0.000157853 0.000123943 -0.000497122 0.000210435 0.000118571 2.33607e-05
0.000158103 0.000121495 -0.000495226 0.000224505 0.000112409 1.2745e-05
0.000158143 0.00011876 -0.000492253 0.000238128 0.00010645 -1.34438e-07
0.000158085 0.0001158 -0.000488178 0.000250664 0.000101144 -1.57918e-05
0.000158216 0.000127743 -0.000500616 0.000159654 0.00014477 5.83062e-05
0.000159488 0.000125891 -0.00050194 0.000173041 0.000139771 5.33433e-05
0.000160629 0.000123904 -0.000502802 0.000187088 0.000134308 4.73976e-05
0.000161607 0.000121725 -0.000503069 0.00020174 0.00012839 4.02659e-05
0.000162393 0.000119284 -0.000502575 0.00021686 0.000122089 3.16659e-05
0.000162971 0.000116513 -0.000501133 0.000232171 0.000115579 2.11971e-05
0.000163353 0.00011337 -0.000498566 0.000247198 0.000109177 8.30831e-06
0.00016366 0.000109896 -0.000494799 0.000261194 0.000103402 -7.65971e-06
0.000136697 0.000153546 -0.000453922 0.000158593 7.16281e-05 -4.14986e-05
0.000135122 0.000153645 -0.000450302 0.000165851 6.86838e-05 -5.23018e-05
0.00013334 0.000153874 -0.000446145 0.00017256 6.61175e-05 -6.40533e-05
0.000131445 0.000154288 -0.000441548 0.00017854 6.40403e-05 -7.65593e-05
0.000140731 0.000151321 -0.000461059 0.000156721 7.76359e-05 -2.6817e-05
0.000139542 0.000151144 -0.000458184 0.000164864 7.4252e-05 -3.67778e-05
0.000138128 0.000151032 -0.000454733 0.000172615 7.11493e-05 -4.77738e-05
0.000136508 0.000151031 -0.000450721 0.000179809 6.84355e-05 -5.98045e-05
0.000134776 0.000151212 -0.000446244 0.000186241 6.62352e-05 -7.26834e-05
0.000143505 0.000149024 -0.00046523 0.00016258 8.0502e-05 -2.16731e-05
0.000142484 0.00014865 -0.000462556 0.00017126 7.69432e-05 -3.17572e-05
0.000141241 0.000148316 -0.000459286 0.000179561 7.36634e-05 -4.2948e-05
0.000139795 0.000148075 -0.00045543 0.000187291 7.07892e-05 -5.52689e-05
0.000138237 0.000147993 -0.000451084 0.000194218 6.84537e-05 -6.85433e-05
0.000147001 0.00014719 -0.000471371 0.0001591 8.73593e-05 -7.14808e-06
0.000146367 0.000146632 -0.000469497 0.000168542 8.34538e-05 -1.62183e-05
0.000145523 0.000146058 -0.000467039 0.000177801 7.97063e-05 -2.64095e-05
0.000144463 0.000145495 -0.000463963 0.000186698 7.62352e-05 -3.77952e-05
0.000143202 0.000144999 -0.000460275 0.000195017 7.31851e-05 -5.04159e-05
0.000141832 0.000144648 -0.000456067 0.000202501 7.07031e-05 -6.41103e-05
0.00014977 0.000144898 -0.000475481 0.00016455 9.05858e-05 -1.33087e-06
0.000149317 0.000144156 -0.000473854 0.000174586 8.65001e-05 -1.0426e-05
0.000148661 0.000143369 -0.00047163 0.000184479 8.25475e-05 -2.07108e-05
0.000147794 0.000142567 -0.000468764 0.000194029 7.88688e-05 -3.22863e-05
0.000146731 0.000141802 -0.000465255 0.000203 7.56244e-05 -4.52144e-05
0.000145563 0.00014116 -0.000461192 0.000211104 7.2988e-05 -5.93514e-05
0.000152618 0.000142512 -0.00047966 0.000170038 9.39186e-05 4.8213e-06
0.000152357 0.000141584 -0.0004783 0.000180711 8.96427e-05 -4.27251e-06
0.000151899 0.000140582 -0.000476328 0.000191288 8.54743e-05 -1.46327e-05
0.000151237 0.00013953 -0.000473688 0.000201555 8.15694e-05 -2.63884e-05
0.000150385 0.000138481 -0.000470373 0.000211251 7.8109e-05 -3.96286e-05
0.000149435 0.000137519 -0.000466466 0.000220052 7.52911e-05 -5.42262e-05
0.000155433 0.000141042 -0.000484417 0.000164315 0.000101794 1.92019e-05
0.000155546 0.00014003 -0.0004839 0.000175548 9.73646e-05 1.13286e-05
0.000155487 0.000138917 -0.000482829 0.000186898 9.28931e-05 2.26671e-06
0.000155239 0.000137695 -0.000481129 0.000198217 8.84958e-05 -8.14448e-06
0.000154794 0.000136385 -0.000478736 0.000209273 8.43438e-05 -2.00648e-05
0.000154167 0.000135035 -0.000475631 0.000219776 8.06417e-05 -3.36175e-05
0.00015345 0.00013373 -0.000471893 0.000229356 7.76153e-05 -4.86988e-05
0.000158237 0.000138634 -0.0004884 0.000169149 0.000105519 2.59713e-05
0.000158555 0.000137457 -0.000488193 0.000181037 0.000100938 1.82115e-05
0.000158709 0.000136151 -0.000487434 0.000193124 9.6262e-05 9.21712e-06
0.000158681 0.000134706 -0.00048603 0.000205248 9.1623e-05 -1.21313e-06
0.000158465 0.00013313 -0.000483906 0.000217173 8.7201e-05 -1.32745e-05
0.000158078 0.000131464 -0.000481031 0.00022858 8.32269e-05 -2.71337e-05
0.000157613 0.0001298 -0.000477473 0.000239049 7.99671e-05 -4.27264e-05
0.000161112 0.000136122 -0.000492404 0.000173914 0.000109367 3.30916e-05
0.000161645 0.000134778 -0.000492532 0.000186494 0.000104638 2.54917e-05
0.000162023 0.000133282 -0.000492106 0.000199361 9.97617e-05 1.66044e-05
0.000162228 0.000131612 -0.000491025 0.000212356 9.48698e-05 6.19616e-06
0.000162255 0.000129764 -0.000489198 0.000225237 9.01535e-05 -5.9724e-06
0.000162123 0.000127767 -0.000486576 0.000237659 8.58714e-05 -2.01227e-05
0.000161929 0.000125713 -0.000483213 0.000249144 8.23376e-05 -3.62462e-05
0.000163173 0.00013487 -0.000495496 0.000165739 0.000117945 4.68219e-05
0.000164058 0.0001335 -0.00049642 0.000178574 0.000113347 4.0573e-05
0.000164819 0.000131989 -0.000496901 0.000191872 0.000108478 3.31836e-05
0.000165433 0.000130304 -0.000496835 0.000205567 0.000103406 2.44536e-05
0.000165884 0.00012841 -0.000496106 0.000219504 9.8253e-05 1.41192e-05
0.000166168 0.000126285 -0.000494607 0.000233437 9.32174e-05 1.89039e-06
0.000166308 0.000123944 -0.000492267 0.000246997 8.85861e-05 -1.25224e-05
0.000166404 0.000121471 -0.00048912 0.000259651 8.47291e-05 -2.9185e-05
0.000165966 0.000132288 -0.000499154 0.000169563 0.000122125 5.43961e-05
0.000167079 0.000130761 -0.000500433 0.000183054 0.000117457 4.84247e-05
0.000168079 0.000129082 -0.000501287 0.000197121 0.000112468 4.13005e-05
0.000168943 0.000127208 -0.000501606 0.000211694 0.00010721 3.27874e-05
0.000169654 0.000125092 -0.000501263 0.000226642 0.000101793 2.25914e-05
0.00017021 0.00012269 -0.000500129 0.000241728 9.64145e-05 1.03657e-05
0.000170638 0.000119996 -0.000498107 0.000256569 9.13877e-05 -4.26262e-06
0.000171046 0.000117076 -0.000495202 0.00027057 8.7146e-05 -2.14586e-05
0.000168827 0.000129572 -0.00050278 0.000173174 0.000126408 6.22876e-05
0.000170177 0.000127886 -0.000504426 0.000187342 0.000121694 5.66559e-05
0.000171428 0.000126043 -0.000505671 0.000202192 0.000116608 4.98535e-05
0.000172557 0.000123986 -0.000506403 0.000217682 0.000111181 4.16275e-05
0.000173544 0.00012165 -0.000506482 0.000233708 0.000105503 3.16491e-05
0.000174389 0.000118972 -0.000505756 0.000250056 9.97651e-05 1.95103e-05
0.000175121 0.000115914 -0.000504097 0.000266339 9.42957e-05 4.74098e-06
0.000175864 0.000112523 -0.00050147 0.000281897 8.95975e-05 -1.29636e-05
0.000139444 0.000145039 -0.000460876 0.000168879 5.5384e-05 -5.53634e-05
0.000138498 0.000144915 -0.000458313 0.000176331 5.31374e-05 -6.72158e-05
0.000137407 0.000144933 -0.000455346 0.000183183 5.133e-05 -7.98623e-05
0.000136177 0.000145154 -0.000452053 0.000189243 5.00601e-05 -9.28925e-05
0.000142466 0.000143815 -0.000466901 0.000166986 6.05552e-05 -3.94246e-05
0.000141829 0.000143426 -0.000464936 0.000175359 5.7808e-05 -5.0503e-05
0.000141027 0.000143109 -0.000462523 0.000183306 5.54141e-05 -6.25946e-05
0.000140085 0.000142916 -0.000459684 0.000190642 5.34768e-05 -7.55705e-05
0.000139007 0.000142918 -0.000456498 0.000197151 5.21062e-05 -8.90232e-05
0.000144781 0.000142324 -0.00047089 0.000173049 6.32415e-05 -3.40772e-05
0.000144292 0.000141759 -0.000469104 0.000181967 6.03248e-05 -4.53238e-05
0.000143643 0.000141241 -0.000466849 0.000190468 5.77658e-05 -5.76594e-05
0.000142859 0.000140825 -0.000464148 0.000198337 5.56843e-05 -7.0978e-05
0.000141944 0.000140581 -0.000461077 0.000205337 5.42002e-05 -8.48795e-05
0.000147355 0.000141501 -0.000476099 0.000169489 6.93902e-05 -1.81542e-05
0.000147167 0.000140775 -0.000474972 0.000179219 6.60451e-05 -2.83942e-05
0.000146833 0.000140033 -0.000473378 0.000188725 6.29431e-05 -3.97957e-05
0.000146347 0.000139307 -0.000471295 0.000197824 6.02022e-05 -5.23795e-05
0.000145732 0.000138656 -0.00046874 0.000206282 5.79593e-05 -6.60548e-05
0.000144991 0.000138161 -0.000465791 0.000213833 5.63478e-05 -8.04333e-05
0.000149654 0.000140063 -0.000480049 0.000175133 7.25021e-05 -1.2039e-05
0.000149623 0.00013918 -0.000479144 0.000185474 6.89747e-05 -2.23463e-05
0.000149454 0.000138251 -0.000477758 0.000195625 6.56704e-05 -3.38922e-05
0.000149139 0.000137307 -0.00047586 0.000205382 6.27293e-05 -4.67238e-05
0.000148704 0.000136408 -0.000473462 0.000214488 6.03052e-05 -6.07685e-05
0.00014815 0.000135644 -0.000470641 0.000222651 5.85573e-05 -7.56515e-05
0.000152017 0.000138569 -0.000484068 0.000180814 7.57586e-05 -5.55645e-06
0.00015215 0.00013753 -0.000483403 0.000191813 7.20367e-05 -1.59062e-05
0.000152154 0.000136412 -0.000482241 0.000202663 6.85168e-05 -2.75821e-05
0.000152021 0.000135244 -0.000480544 0.000213142 6.53546e-05 -4.06571e-05
0.000151777 0.000134083 -0.000478317 0.000222969 6.27257e-05 -5.50819e-05
0.000151424 0.00013302 -0.000475631 0.000231817 6.08138e-05 -7.04939e-05
0.000154026 0.0001381 -0.000488096 0.000174885 8.31468e-05 1.03959e-05
0.000154444 0.000137017 -0.000488148 0.000186516 7.91701e-05 1.31753e-06
0.00015475 0.000135824 -0.000487744 0.000198218 7.52452e-05 -9.04575e-06
0.000154935 0.000134515 -0.000486827 0.000209828 7.1494e-05 -2.08308e-05
0.000154994 0.000133117 -0.000485348 0.000221104 6.80878e-05 -3.41395e-05
0.000154954 0.000131681 -0.000483306 0.000231734 6.52262e-05 -4.89522e-05
0.000154816 0.0001303 -0.000480768 0.000241346 6.31209e-05 -6.49227e-05
0.000156344 0.000136624 -0.000491946 0.000179876 8.6892e-05 1.76031e-05
0.000156935 0.000135413 -0.000492283 0.000192196 8.27519e-05 8.60714e-06
0.000157422 0.000134061 -0.000492161 0.000204666 7.86141e-05 -1.73484e-06
0.000157798 0.000132562 -0.00049151 0.000217105 7.46165e-05 -1.36008e-05
0.000158059 0.000130927 -0.000490272 0.00022926 7.09409e-05 -2.71263e-05
0.000158235 0.000129204 -0.000488432 0.00024079 6.78138e-05 -4.233e-05
0.00015833 0.000127489 -0.000486051 0.000251272 6.54878e-05 -5.88952e-05
0.000158721 0.000135078 -0.00049582 0.000184789 9.0811e-05 2.52025e-05
0.000159493 0.000133741 -0.000496464 0.000197839 8.6509e-05 1.6338e-05
0.000160171 0.000132237 -0.000496646 0.000211126 8.21595e-05 6.05744e-06
0.000160746 0.000130549 -0.000496287 0.000224468 7.79016e-05 -5.85163e-06
0.00016122 0.000128675 -0.000495313 0.000237596 7.39296e-05 -1.95677e-05
0.000161625 0.000126652 -0.000493698 0.000250138 7.04987e-05 -3.51577e-05
0.000161968 0.000124576 -0.000491488 0.000261614 6.79093e-05 -5.23494e-05
0.000160119 0.000134757 -0.00049837 0.000176207 9.91954e-05 4.06028e-05
0.000161157 0.000133456 -0.000499709 0.000189582 9.49169e-05 3.32074e-05
0.00016212 0.000131998 -0.000500678 0.000203396 9.04587e-05 2.4529e-05
0.000162997 0.000130347 -0.000501189 0.000217558 8.58993e-05 1.43619e-05
0.000163784 0.000128473 -0.000501149 0.000231881 8.13701e-05 2.4594e-06
0.000164482 0.00012636 -0.000500471 0.000246087 7.70743e-05 -1.14081e-05
0.000165129 0.000124028 -0.000499107 0.000259769 7.32957e-05 -2.73693e-05
0.000165739 0.000121566 -0.000497086 0.000272386 7.03907e-05 -4.5211e-05
0.000162429 0.000133161 -0.000501927 0.000180107 0.000103575 4.87498e-05
0.000163656 0.000131754 -0.000503597 0.000194181 9.92103e-05 4.1629e-05
0.000164819 0.000130174 -0.00050491 0.000208814 9.46147e-05 3.31977e-05
0.000165907 0.000128382 -0.000505776 0.000223909 8.98532e-05 2.32079e-05
0.000166916 0.00012633 -0.000506088 0.000239296 8.50467e-05 1.1376e-05
0.00016785 0.000123981 -0.000505741 0.000254692 8.04009e-05 -2.58701e-06
0.000168754 0.000121334 -0.000504662 0.000269663 7.62259e-05 -1.8888e-05
0.000169648 0.000118462 -0.000502856 0.000283599 7.29411e-05 -3.73943e-05
0.000164797 0.000131458 -0.000505455 0.000183773 0.000108124 5.72538e-05
0.000166222 0.000129946 -0.000507467 0.00019857 0.000103694 5.04774e-05
0.000167595 0.000128257 -0.000509144 0.000214042 9.89831e-05 4.23578e-05
0.000168905 0.000126333 -0.00051039 0.000230117 9.40339e-05 3.26226e-05
0.000170148 0.000124112 -0.000511089 0.000246647 8.89523e-05 2.0944e-05
0.00017133 0.000121533 -0.000511114 0.000263359 8.39369e-05 6.96392e-06
0.000172505 0.000118567 -0.000510363 0.000279794 7.93161e-05 -9.62015e-06
0.000173704 0.000115264 -0.000508808 0.000295259 7.55765e-05 -2.8793e-05
0.000145872 0.000136593 -0.000467459 0.000180367 3.92436e-05 -6.00365e-05
0.000145533 0.000136248 -0.000465909 0.00018789 3.76775e-05 -7.20439e-05
0.000145081 0.000136056 -0.000464077 0.00019471 3.66048e-05 -8.48387e-05
0.000144499 0.00013608 -0.00046204 0.000200636 3.61177e-05 -9.80165e-05
0.00014786 0.000136369 -0.000472426 0.000178697 4.36052e-05 -4.39382e-05
0.000147769 0.000135772 -0.000471324 0.000187253 4.14818e-05 -5.51226e-05
0.000147559 0.000135251 -0.000469901 0.000195287 3.97793e-05 -6.73568e-05
0.000147242 0.000134865 -0.000468177 0.000202598 3.85938e-05 -8.04702e-05
0.0001468 0.000134688 -0.000466231 0.000208971 3.80276e-05 -9.40676e-05
0.000149685 0.000135684 -0.000476241 0.000185151 4.61263e-05 -3.85478e-05
0.000149724 0.000134933 -0.000475294 0.00019428 4.3839e-05 -4.98852e-05
0.000149649 0.000134232 -0.000474004 0.000202887 4.19833e-05 -6.23478e-05
0.000149476 0.000133641 -0.000472397 0.000210739 4.06691e-05 -7.57908e-05
0.000149185 0.000133236 -0.000470548 0.0002176 4.00106e-05 -8.98314e-05
0.000151291 0.000135867 -0.000480582 0.00018165 5.15896e-05 -2.2527e-05
0.000151561 0.000134979 -0.00048015 0.000191721 4.87975e-05 -3.2821e-05
0.000151735 0.000134075 -0.000479366 0.000201471 4.63284e-05 -4.42949e-05
0.000151805 0.000133187 -0.000478223 0.000210699 4.43e-05 -5.69859e-05
0.000151784 0.000132381 -0.000476738 0.000219149 4.28385e-05 -7.07683e-05
0.000151654 0.000131742 -0.000474992 0.000226558 4.20707e-05 -8.52769e-05
0.000153083 0.000135284 -0.000484385 0.000187656 5.46025e-05 -1.63832e-05
0.000153487 0.000134268 -0.000484149 0.000198383 5.16267e-05 -2.67287e-05
0.000153804 0.000133201 -0.000483543 0.000208818 4.89589e-05 -3.83258e-05
0.000154025 0.00013212 -0.000482556 0.000218732 4.67375e-05 -5.12402e-05
0.000154166 0.000131088 -0.000481203 0.000227844 4.51072e-05 -6.53691e-05
0.000154209 0.000130199 -0.000479565 0.000235863 4.42201e-05 -8.03685e-05
0.00015492 0.000134683 -0.00048826 0.0001937 5.77995e-05 -9.87409e-06
0.000155464 0.000133539 -0.000488234 0.000205137 5.4626e-05 -2.02454e-05
0.00015593 0.000132312 -0.000487823 0.000216317 5.1743e-05 -3.19481e-05
0.000156311 0.000131033 -0.000487006 0.000226989 4.93059e-05 -4.50762e-05
0.000156624 0.000129763 -0.000485795 0.00023684 4.74814e-05 -5.95556e-05
0.000156852 0.000128596 -0.000484269 0.000245543 4.64468e-05 -7.50621e-05
0.000156045 0.000135203 -0.00049163 0.000187556 6.47178e-05 6.11872e-06
0.000156802 0.000134059 -0.000492198 0.000199762 6.1194e-05 -2.97617e-06
0.000157493 0.000132796 -0.000492403 0.000211963 5.78114e-05 -1.33438e-05
0.000158114 0.000131409 -0.000492203 0.00022396 5.46957e-05 -2.5129e-05
0.000158663 0.000129928 -0.000491572 0.000235473 5.20176e-05 -3.84557e-05
0.000159157 0.000128409 -0.000490515 0.000246152 4.99686e-05 -5.32848e-05
0.000159584 0.000126949 -0.000489111 0.000255618 4.87543e-05 -6.9319e-05
0.000157829 0.000134656 -0.00049537 0.000192836 6.84996e-05 1.33397e-05
0.000158731 0.000133422 -0.000496195 0.000205797 6.48032e-05 4.33424e-06
0.000159575 0.000132036 -0.00049665 0.000218836 6.12006e-05 -5.99586e-06
0.000160359 0.000130493 -0.000496683 0.00023173 5.78348e-05 -1.78335e-05
0.000161082 0.000128808 -0.000496256 0.000244179 5.4888e-05 -3.13364e-05
0.000161769 0.00012703 -0.000495369 0.000255792 5.25794e-05 -4.65082e-05
0.000162407 0.000125263 -0.000494093 0.00026613 5.11552e-05 -6.30952e-05
0.000159655 0.000134074 -0.000499138 0.000198023 7.25067e-05 2.0952e-05
0.000160708 0.000132756 -0.000500242 0.000211787 6.86369e-05 1.2082e-05
0.000161712 0.000131258 -0.000500968 0.000225723 6.48134e-05 1.82732e-06
0.000162666 0.000129563 -0.000501257 0.000239601 6.11814e-05 -1.00244e-05
0.000163573 0.000127674 -0.000501058 0.000253095 5.79366e-05 -2.36718e-05
0.000164461 0.00012563 -0.000500358 0.000265766 5.53274e-05 -3.91708e-05
0.000165325 0.00012353 -0.000499221 0.000277109 5.36484e-05 -5.63258e-05
0.000160276 0.00013467 -0.000501221 0.000188885 8.0704e-05 3.64051e-05
0.000161524 0.000133448 -0.000502925 0.000203071 7.67561e-05 2.89702e-05
0.000162737 0.000132055 -0.000504326 0.000217677 7.27164e-05 2.02854e-05
0.000163909 0.000130454 -0.000505348 0.000232579 6.8672e-05 1.01545e-05
0.000165041 0.000128617 -0.00050592 0.000247535 6.47607e-05 -1.6631e-06
0.000166139 0.000126529 -0.000505977 0.000262197 6.11881e-05 -1.54119e-05
0.000167239 0.000124213 -0.000505488 0.000276075 5.82318e-05 -3.12105e-05
0.000168343 0.000121761 -0.000504505 0.000288579 5.62424e-05 -4.89376e-05
0.000162037 0.000134054 -0.000504704 0.000192948 8.52982e-05 4.45749e-05
0.000163442 0.000132778 -0.000506717 0.000207901 8.12506e-05 3.74061e-05
0.000164822 0.000131313 -0.000508433 0.000223411 7.70596e-05 2.89622e-05
0.00016617 0.000129618 -0.000509777 0.000239346 7.28004e-05 1.90131e-05
0.000167489 0.00012765 -0.000510663 0.000255478 6.86018e-05 7.28969e-06
0.000168787 0.000125372 -0.000511009 0.000271445 6.46733e-05 -6.50327e-06
0.000170109 0.000122783 -0.000510763 0.000286703 6.13188e-05 -2.25584e-05
0.000171467 0.00011996 -0.000509954 0.000300565 5.89511e-05 -4.08478e-05
0.000163842 0.000133358 -0.000508162 0.000196748 9.01266e-05 5.31078e-05
0.000165412 0.000132033 -0.000510495 0.000212491 8.60004e-05 4.62704e-05
0.000166967 0.000130513 -0.000512548 0.000228928 8.16786e-05 3.81274e-05
0.0001685 0.000128741 -0.00051424 0.000245954 7.72177e-05 2.84297e-05
0.000170015 0.000126655 -0.000515474 0.00026336 7.27328e-05 1.68749e-05
0.000171523 0.000124198 -0.000516148 0.000280781 6.84269e-05 3.11294e-06
0.000173076 0.000121342 -0.000516183 0.000297628 6.46233e-05 -1.31319e-05
0.000174703 0.000118134 -0.000515581 0.000313088 6.17985e-05 -3.19565e-05
0.00014765 0.000128211 -0.000473683 0.000184146 2.27709e-05 -5.75745e-05
0.000147872 0.000127649 -0.000473144 0.00019198 2.18931e-05 -6.95595e-05
0.000148012 0.000127251 -0.000472445 0.000199109 2.15676e-05 -8.23988e-05
0.000148089 0.000127083 -0.000471643 0.000205301 2.18715e-05 -9.55594e-05
0.000148684 0.000128982 -0.000477591 0.000182361 2.63128e-05 -4.14117e-05
0.00014907 0.000128183 -0.000477347 0.000191266 2.48196e-05 -5.25138e-05
0.000149401 0.000127465 -0.000476911 0.000199644 2.38172e-05 -6.47148e-05
0.00014966 0.000126889 -0.000476302 0.000207301 2.33969e-05 -7.78669e-05
0.000149865 0.000126537 -0.000475578 0.000213978 2.36452e-05 -9.14491e-05
0.000150036 0.000129105 -0.000481225 0.000189019 2.86636e-05 -3.58848e-05
0.000150527 0.000128174 -0.000481111 0.000198529 2.70128e-05 -4.71226e-05
0.000150972 0.000127296 -0.000480785 0.000207517 2.58707e-05 -5.95384e-05
0.000151357 0.000126536 -0.000480271 0.000215756 2.53391e-05 -7.30131e-05
0.000151701 0.000125972 -0.000479629 0.000222963 2.55184e-05 -8.70393e-05
0.000150786 0.000130288 -0.000484697 0.000185333 3.34335e-05 -1.98935e-05
0.00015142 0.000129246 -0.000484953 0.000195795 3.11975e-05 -3.00188e-05
0.00015202 0.000128185 -0.000484976 0.000205957 2.9369e-05 -4.13718e-05
0.000152586 0.000127143 -0.000484769 0.000215607 2.80646e-05 -5.39986e-05
0.000153105 0.000126189 -0.000484356 0.000224489 2.7402e-05 -6.78025e-05
0.000153596 0.00012541 -0.000483799 0.000232293 2.74924e-05 -8.22964e-05
0.000152099 0.000130561 -0.000488347 0.000191519 3.63425e-05 -1.36333e-05
0.000152837 0.000129418 -0.00048877 0.000202664 3.39213e-05 -2.37848e-05
0.000153551 0.000128221 -0.000488941 0.000213544 3.1898e-05 -3.52356e-05
0.000154243 0.000127011 -0.000488863 0.000223921 3.04094e-05 -4.80637e-05
0.000154902 0.000125852 -0.000488557 0.000233516 2.95928e-05 -6.21998e-05
0.000155551 0.000124844 -0.000488089 0.000241984 2.95841e-05 -7.71814e-05
0.000153441 0.000130851 -0.00049207 0.000197745 3.94752e-05 -7.0101e-06
0.000154287 0.000129612 -0.000492674 0.000209626 3.68525e-05 -1.71583e-05
0.000155119 0.000128285 -0.000493007 0.000221286 3.46151e-05 -2.86845e-05
0.000155941 0.000126903 -0.000493069 0.000232466 3.29175e-05 -4.16985e-05
0.000156748 0.000125531 -0.000492878 0.000242853 3.19196e-05 -5.61652e-05
0.000157565 0.000124268 -0.000492502 0.000252068 3.17839e-05 -7.16463e-05
0.000153849 0.000132353 -0.000494791 0.000191362 4.59234e-05 8.81502e-06
0.000154816 0.000131157 -0.00049586 0.000203993 4.28485e-05 -1.76814e-09
0.000155772 0.000129832 -0.000496662 0.000216662 4.00098e-05 -1.01136e-05
0.000156725 0.000128377 -0.000497173 0.000229174 3.75381e-05 -2.16864e-05
0.000157682 0.000126823 -0.000497388 0.000241241 3.5604e-05 -3.48644e-05
0.000158643 0.00012523 -0.000497322 0.000252517 3.43928e-05 -4.96537e-05
0.000159638 0.000123699 -0.000497044 0.000262565 3.40946e-05 -6.56504e-05
0.000155148 0.000132735 -0.000498416 0.000196817 4.97401e-05 1.61112e-05
0.000156223 0.000131488 -0.000499712 0.00021022 4.64814e-05 7.41365e-06
0.000157294 0.000130077 -0.000500729 0.000223751 4.34143e-05 -2.6241e-06
0.00015837 0.000128501 -0.000501437 0.000237193 4.06884e-05 -1.42078e-05
0.000159466 0.000126777 -0.000501821 0.000250245 3.84874e-05 -2.7519e-05
0.000160587 0.000124956 -0.000501892 0.000262519 3.70254e-05 -4.26147e-05
0.000161772 0.000123144 -0.000501718 0.000273519 3.65333e-05 -5.9145e-05
0.000156479 0.000133116 -0.000502073 0.000202188 5.38346e-05 2.37899e-05
0.000157666 0.000131826 -0.000503617 0.000216411 5.03891e-05 1.5259e-05
0.000158855 0.000130345 -0.000504871 0.000230862 4.70899e-05 5.33652e-06
0.000160059 0.000128657 -0.000505797 0.000245321 4.40909e-05 -6.21328e-06
0.000161297 0.000126766 -0.00050637 0.000259466 4.15911e-05 -1.96168e-05
0.000162583 0.000124714 -0.000506592 0.000272868 3.98348e-05 -3.49916e-05
0.000163967 0.000122601 -0.000506529 0.000284961 3.91019e-05 -5.20591e-05
0.000156544 0.000134619 -0.000503707 0.000192825 6.18609e-05 3.89425e-05
0.000157845 0.000133487 -0.000505755 0.000207435 5.82291e-05 3.18643e-05
0.000159149 0.000132169 -0.000507564 0.000222516 5.45971e-05 2.35501e-05
0.000160462 0.000130629 -0.000509078 0.000237954 5.10633e-05 1.3794e-05
0.000161797 0.000128842 -0.000510247 0.000253522 4.77752e-05 2.33253e-06
0.00016318 0.000126795 -0.000511033 0.000268883 4.49436e-05 -1.11097e-05
0.000164634 0.00012451 -0.000511427 0.000283562 4.28437e-05 -2.67216e-05
0.000166227 0.000122081 -0.000511485 0.000296917 4.18119e-05 -4.43152e-05
0.000157833 0.000134983 -0.000507116 0.000197095 6.66757e-05 4.71347e-05
0.000159251 0.000133846 -0.000509448 0.000212485 6.29282e-05 4.03447e-05
0.00016068 0.000132506 -0.000511541 0.000228483 5.91281e-05 3.23021e-05
0.000162121 0.000130923 -0.00051334 0.000244972 5.53636e-05 2.2772e-05
0.000163592 0.000129053 -0.000514781 0.000261745 5.17754e-05 1.14643e-05
0.000165122 0.000126863 -0.00051581 0.000278456 4.85806e-05 -1.94813e-06
0.000166748 0.000124352 -0.000516401 0.000294589 4.60831e-05 -1.77366e-05
0.000168556 0.000121595 -0.000516598 0.00030941 4.46816e-05 -3.58258e-05
0.000159162 0.000135294 -0.000510505 0.000201124 7.17924e-05 5.56776e-05
0.000160703 0.000134164 -0.000513132 0.000217317 6.79496e-05 4.92387e-05
0.000162261 0.000132823 -0.000515532 0.000234254 6.40005e-05 4.15268e-05
0.000163839 0.000131215 -0.000517643 0.00025185 6.00164e-05 3.22918e-05
0.000165451 0.000129281 -0.000519388 0.000269919 5.61261e-05 2.12155e-05
0.000167132 0.000126967 -0.000520697 0.000288125 5.25433e-05 7.91789e-06
0.00016893 0.000124242 -0.000521517 0.000305917 4.95948e-05 -7.95996e-06
0.000170957 0.000121151 -0.000521878 0.000322454 4.77414e-05 -2.64887e-05
0.000164234 0.00011985 -0.000479972 0.000184685 6.20492e-06 -5.55509e-05
0.000165001 0.000119078 -0.000480443 0.000192871 6.01791e-06 -6.75578e-05
0.000165714 0.000118479 -0.000480875 0.000200401 6.44544e-06 -8.03523e-05
0.000166376 0.000118126 -0.000481281 0.000207043 7.54439e-06 -9.33514e-05
0.000164403 0.000121613 -0.000482813 0.00018259 8.91924e-06 -3.91851e-05
0.000165268 0.000120615 -0.000483438 0.000191795 8.05643e-06 -5.03962e-05
0.000166127 0.000119705 -0.000483993 0.00020054 7.75652e-06 -6.26506e-05
0.000166942 0.000118948 -0.000484496 0.000208623 8.10723e-06 -7.57872e-05
0.00016772 0.000118427 -0.000484967 0.000215781 9.17362e-06 -8.92286e-05
0.000165371 0.000122544 -0.000486267 0.000189226 1.10922e-05 -3.35189e-05
0.000166322 0.000121436 -0.000487001 0.000199041 1.00779e-05 -4.49004e-05
0.000167278 0.000120387 -0.000487644 0.00020841 9.65143e-06 -5.74043e-05
0.000168202 0.000119464 -0.000488225 0.000217102 9.9081e-06 -7.08962e-05
0.000169102 0.000118751 -0.000488762 0.000224825 1.09285e-05 -8.48063e-05
0.000165331 0.000124724 -0.000488849 0.000185284 1.51639e-05 -1.71663e-05
0.000166356 0.00012353 -0.000489814 0.000195977 1.34812e-05 -2.74983e-05
0.000167395 0.000122317 -0.00049066 0.000206446 1.22928e-05 -3.90322e-05
0.000168451 0.000121126 -0.0004914 0.00021649 1.17144e-05 -5.17868e-05
0.00016949 0.00012003 -0.000492062 0.00022585 1.18562e-05 -6.5645e-05
0.000170521 0.000119121 -0.000492669 0.000234209 1.28083e-05 -8.00511e-05
0.00016625 0.000125853 -0.000492341 0.000191451 1.7962e-05 -1.06988e-05
0.000167356 0.000124585 -0.000493449 0.000202817 1.60915e-05 -2.10916e-05
0.000168487 0.000123263 -0.000494417 0.000214004 1.4712e-05 -3.27641e-05
0.000169647 0.000121928 -0.000495262 0.000224785 1.39579e-05 -4.57643e-05
0.000170807 0.00012065 -0.00049601 0.000234882 1.39604e-05 -5.99974e-05
0.000171978 0.000119534 -0.000496689 0.000243948 1.48339e-05 -7.49245e-05
0.000167184 0.000127037 -0.000495908 0.000197661 2.10234e-05 -3.84531e-06
0.000168373 0.000125703 -0.000497169 0.000209751 1.89468e-05 -1.42708e-05
0.000169597 0.000124278 -0.000498272 0.000221711 1.73534e-05 -2.60631e-05
0.000170864 0.000122798 -0.000499231 0.0002333 1.63968e-05 -3.92991e-05
0.00017215 0.000121333 -0.000500071 0.000244215 1.62312e-05 -5.3912e-05
0.000173471 0.000119984 -0.000500824 0.000254071 1.69984e-05 -6.93792e-05
0.000166894 0.000129521 -0.00049794 0.000191151 2.70025e-05 1.25296e-05
0.000168134 0.000128273 -0.000499542 0.0002039 2.43684e-05 3.41933e-06
0.000169408 0.000126887 -0.000500972 0.00021676 2.20679e-05 -7.00665e-06
0.000170725 0.000125366 -0.000502225 0.00022956 2.02379e-05 -1.88934e-05
0.000172103 0.000123744 -0.000503309 0.000242038 1.90488e-05 -3.23489e-05
0.000173519 0.000122085 -0.000504249 0.00025386 1.86812e-05 -4.73418e-05
0.000174998 0.000120494 -0.000505081 0.000264595 1.93036e-05 -6.33728e-05
0.000167781 0.000130835 -0.000501436 0.000196629 3.08486e-05 2.0135e-05
0.000169101 0.000129573 -0.000503239 0.000210129 2.80181e-05 1.11203e-05
0.000170461 0.000128138 -0.000504855 0.000223828 2.54795e-05 7.31747e-07
0.000171874 0.00012653 -0.000506274 0.00023754 2.33901e-05 -1.12161e-05
0.000173362 0.00012477 -0.000507497 0.000250995 2.19357e-05 -2.48667e-05
0.000174912 0.000122914 -0.000508547 0.00026383 2.13264e-05 -4.02325e-05
0.000176559 0.000121072 -0.000509462 0.000275563 2.17717e-05 -5.68549e-05
0.000168686 0.000132182 -0.000504968 0.000202044 3.50253e-05 2.8152e-05
0.000170089 0.000130919 -0.00050699 0.000216339 3.19931e-05 1.9284e-05
0.000171536 0.000129454 -0.000508813 0.000230931 2.92098e-05 8.97587e-06
0.000173046 0.000127773 -0.000510417 0.000245632 2.68391e-05 -2.99004e-06
0.000174646 0.000125883 -0.000511797 0.000260163 2.50841e-05 -1.68008e-05
0.000176333 0.00012383 -0.00051297 0.000274132 2.41871e-05 -3.25228e-05
0.000178153 0.000121718 -0.000513974 0.000287002 2.44069e-05 -4.97537e-05
0.00016816 0.000134599 -0.000506101 0.000192743 4.28891e-05 4.39603e-05
0.000169612 0.000133554 -0.000508528 0.000207361 3.956e-05 3.65956e-05
0.000171102 0.000132309 -0.000510787 0.000222488 3.63232e-05 2.79297e-05
0.00017264 0.00013083 -0.000512837 0.000238033 3.329e-05 1.7757e-05
0.000174247 0.000129092 -0.00051465 0.000253808 3.06186e-05 5.82757e-06
0.000175958 0.000127086 -0.000516209 0.000269526 2.85269e-05 -8.09504e-06
0.000177782 0.00012484 -0.000517523 0.000284767 2.72901e-05 -2.41429e-05
0.000179784 0.000122448 -0.000518624 0.000298934 2.7224e-05 -4.19871e-05
0.000169028 0.000135948 -0.000509414 0.000197134 4.79216e-05 5.25496e-05
0.000170566 0.00013495 -0.000512102 0.000212514 4.44595e-05 4.5477e-05
0.000172147 0.000133732 -0.000514616 0.000228531 4.10361e-05 3.70757e-05
0.000173779 0.000132258 -0.000516918 0.000245091 3.77541e-05 2.71042e-05
0.000175485 0.000130484 -0.000518966 0.000262026 3.47679e-05 1.52797e-05
0.000177307 0.000128381 -0.000520732 0.000279051 3.23043e-05 1.31009e-06
0.000179268 0.000125952 -0.000522209 0.000295721 3.06702e-05 -1.50152e-05
0.000181453 0.000123274 -0.000523422 0.000311377 3.02451e-05 -3.3462e-05
0.000169923 0.000137273 -0.000512712 0.000201321 5.33245e-05 6.15144e-05
0.000171553 0.000136337 -0.00051567 0.000217486 4.97488e-05 5.48048e-05
0.000173228 0.000135173 -0.000518461 0.000234416 4.61565e-05 4.67362e-05
0.00017496 0.000133726 -0.000521042 0.000252043 4.26347e-05 3.70444e-05
0.000176769 0.000131941 -0.000523357 0.000270223 3.9328e-05 2.54093e-05
0.000178701 0.000129765 -0.000525362 0.000288683 3.64636e-05 1.14779e-05
0.000180794 0.000127173 -0.00052703 0.000306965 3.43758e-05 -5.04964e-06
0.000183164 0.000124209 -0.000528379 0.000324337 3.35064e-05 -2.40666e-05
0.000170757 0.00011149 -0.000486175 0.000185462 -1.03013e-05 -5.21848e-05
0.000172074 0.000110508 -0.000487639 0.000193587 -9.82384e-06 -6.40843e-05
0.000173389 0.00010971 -0.000489181 0.000201051 -8.67246e-06 -7.66591e-05
0.000174558 0.000109174 -0.00049078 0.000207627 -6.8056e-06 -8.94007e-05
0.000169977 0.000114243 -0.00048796 0.000183439 -8.38563e-06 -3.55788e-05
0.000171338 0.000113047 -0.000489443 0.000192587 -8.64214e-06 -4.6852e-05
0.000172731 0.000111945 -0.000490973 0.000201269 -8.26694e-06 -5.90555e-05
0.000174134 0.000111008 -0.00049257 0.000209283 -7.17611e-06 -7.20217e-05
0.000175404 0.000110322 -0.000494219 0.000216373 -5.32126e-06 -8.52359e-05
0.000170491 0.000115981 -0.000491234 0.00019009 -6.38377e-06 -2.96507e-05
0.000171919 0.000114697 -0.000492807 0.000199847 -6.78673e-06 -4.11589e-05
0.000173392 0.000113477 -0.000494404 0.000209152 -6.52665e-06 -5.36749e-05
0.000174889 0.000112394 -0.000496059 0.000217772 -5.51471e-06 -6.70524e-05
0.000176267 0.000111535 -0.000497759 0.000225424 -3.68561e-06 -8.07733e-05
0.000169566 0.000119159 -0.000492925 0.000186213 -2.98305e-06 -1.27401e-05
0.000171001 0.000117812 -0.000494599 0.000196855 -4.13287e-06 -2.33393e-05
0.0001725 0.000116446 -0.000496262 0.000207267 -4.7068e-06 -3.50704e-05
0.000174056 0.000115107 -0.000497935 0.000217244 -4.5898e-06 -4.79097e-05
0.000175652 0.000113872 -0.000499652 0.00022653 -3.67891e-06 -6.17184e-05
0.000177145 0.000112836 -0.000501404 0.000234815 -1.9001e-06 -7.59809e-05
0.000170013 0.000121144 -0.000496255 0.000192393 -2.8778e-07 -5.88033e-06
0.000171509 0.000119751 -0.000498051 0.00020371 -1.6277e-06 -1.66076e-05
0.000173078 0.000118301 -0.000499812 0.000214838 -2.38999e-06 -2.85549e-05
0.00017472 0.000116842 -0.000501568 0.000225551 -2.44167e-06 -4.17223e-05
0.00017642 0.000115448 -0.000503351 0.000235572 -1.65773e-06 -5.5982e-05
0.000178035 0.000114227 -0.000505158 0.00024456 5.94611e-08 -7.08201e-05
0.000170457 0.000123221 -0.00049966 0.000198616 2.71075e-06 1.4102e-06
0.000172013 0.000121791 -0.000501585 0.000210656 1.16048e-06 -9.4204e-06
0.000173654 0.000120267 -0.000503458 0.000222558 1.84282e-07 -2.15732e-05
0.000175383 0.00011869 -0.000505305 0.000234078 -6.48995e-08 -3.50699e-05
0.00017719 0.000117133 -0.000507159 0.000244914 5.61569e-07 -4.97989e-05
0.000178937 0.000115704 -0.000509019 0.000254688 2.18907e-06 -6.52464e-05
0.000169363 0.000126692 -0.000500983 0.000192154 8.24177e-06 1.87341e-05
0.000170897 0.000125388 -0.000503131 0.000204866 6.03628e-06 9.16285e-06
0.000172513 0.00012394 -0.000505201 0.000217678 4.25507e-06 -1.74135e-06
0.000174226 0.00012235 -0.000507199 0.000230419 3.04008e-06 -1.40811e-05
0.000176043 0.00012066 -0.000509147 0.000242827 2.56131e-06 -2.79031e-05
0.000177962 0.000118937 -0.000511078 0.000254568 2.99443e-06 -4.31176e-05
0.000179848 0.00011729 -0.000512996 0.000265218 4.49156e-06 -5.92134e-05
0.000169748 0.000128939 -0.000504339 0.00019764 1.21243e-05 2.69334e-05
0.000171335 0.000127659 -0.000506665 0.000211105 9.71173e-06 1.74093e-05
0.000173011 0.000126197 -0.000508895 0.000224758 7.68447e-06 6.46937e-06
0.000174795 0.000124555 -0.000511033 0.000238412 6.20556e-06 -6.03002e-06
0.0001767 0.000122758 -0.000513096 0.000251796 5.46202e-06 -2.01657e-05
0.000178733 0.000120868 -0.000515114 0.000264548 5.66e-06 -3.58774e-05
0.000180766 0.000118999 -0.000517094 0.000276191 6.99203e-06 -5.26682e-05
0.000170134 0.000131254 -0.000507732 0.00020306 1.63901e-05 3.56024e-05
0.000171775 0.000130016 -0.000510252 0.000217323 1.37632e-05 2.61833e-05
0.00017351 0.000128563 -0.000512662 0.000231871 1.14807e-05 1.52536e-05
0.000175363 0.000126885 -0.00051496 0.000246516 9.71359e-06 2.63359e-06
0.000177356 0.000124994 -0.000517153 0.000260977 8.66772e-06 -1.17936e-05
0.000179503 0.00012294 -0.00051927 0.000274861 8.58222e-06 -2.80071e-05
0.000181689 0.000120833 -0.000521317 0.000287635 9.69923e-06 -4.55367e-05
0.000168913 0.000134589 -0.000508326 0.000193782 2.40966e-05 5.25989e-05
0.000170525 0.000133629 -0.000511153 0.00020838 2.10705e-05 4.47597e-05
0.00017222 0.000132455 -0.000513885 0.000223478 1.82242e-05 3.55117e-05
0.000174015 0.000131032 -0.000516495 0.000238983 1.56793e-05 2.46538e-05
0.000175936 0.000129339 -0.000518974 0.000254703 1.36024e-05 1.19672e-05
0.000178014 0.000127371 -0.00052132 0.000270352 1.22155e-05 -2.71458e-06
0.000180275 0.000125161 -0.000523551 0.000285506 1.1792e-05 -1.9423e-05
0.00018262 0.00012281 -0.000525674 0.000299574 1.26312e-05 -3.77282e-05
0.000169263 0.000136926 -0.000511524 0.000198171 2.93481e-05 6.1962e-05
0.000170927 0.000136064 -0.000514588 0.000213533 2.61746e-05 5.44192e-05
0.000172678 0.000134967 -0.000517548 0.000229524 2.31268e-05 4.54191e-05
0.000174532 0.000133597 -0.000520384 0.000246048 2.0319e-05 3.47108e-05
0.000176521 0.000131915 -0.00052307 0.000262933 1.79158e-05 2.20309e-05
0.000178681 0.000129894 -0.000525593 0.00027989 1.61504e-05 7.15148e-06
0.000181053 0.000127543 -0.000527962 0.000296474 1.53291e-05 -1.00279e-05
0.000183559 0.000124946 -0.000530175 0.000312027 1.58148e-05 -2.91368e-05
0.000169629 0.000139268 -0.000514706 0.000202351 3.50364e-05 7.17503e-05
0.000171346 0.000138524 -0.000518016 0.000218503 3.17343e-05 6.45914e-05
0.000173155 0.000137535 -0.000521228 0.000235411 2.85016e-05 5.59245e-05
0.000175071 0.000136246 -0.000524313 0.000253006 2.54386e-05 4.54624e-05
0.000177128 0.000134603 -0.000527236 0.000271141 2.27017e-05 3.28865e-05
0.000179366 0.00013256 -0.00052997 0.000289537 2.05264e-05 1.7894e-05
0.000181843 0.000130094 -0.000532503 0.000307733 1.92487e-05 2.94298e-07
0.000184509 0.000127256 -0.00053483 0.000324998 1.92931e-05 -1.96327e-05
0 0 0 0 0 0
0 0 0 0 0 0
0 0 0 0 0 0
0 0 0 0 0 0
0 0 0 0 0 0
0 0 0 0 0 0
0 0 0 0 0 0
0 0 0 0 0 0
0 0 0 0 0 0
0 0 0 0 0 0
0 0 0 0 0 0
0 0 0 0 0 0
0 0 0 0 0 0
0 0 0 0 0 0
0 0 0 0 0 0
0 0 0 0 0 0
0 0 0 0 0 0
0 0 0 0 0 0
0 0 0 0 0 0
0 0 0 0 0 0
0 0 0 0 0 0
0 0 0 0 0 0
0 0 0 0 0 0
0 0 0 0 0 0
0 0 0 0 0 0
0 0 0 0 0 0
0 0 0 0 0 0
0 0 0 0 0 0
0 0 0 0 0 0
0 0 0 0 0 0
0 0 0 0 0 0
0 0 0 0 0 0
0 0 0 0 0 0
0 0 0 0 0 0
0 0 0 0 0 0
0 0 0 0 0 0
0 0 0 0 0 0
0 0 0 0 0 0
0 0 0 0 0 0
0 0 0 0 0 0
0 0 0 0 0 0
0 0 0 0 0 0
0 0 0 0 0 0
0 0 0 0 0 0
0 0 0 0 0 0
0 0 0 0 0 0
0 0 0 0 0 0
0 0 0 0 0 0
0 0 0 0 0 0
0 0 0 0 0 0
0 0 0 0 0 0
0 0 0 0 0 0
0 0 0 0 0 0
0 0 0 0 0 0
0 0 0 0 0 0
0 0 0 0 0 0
0 0 0 0 0 0
0 0 0 0 0 0
0 0 0 0 0 0
0 0 0 0 0 0
0 0 0 0 0 0
0 0 0 0 0 0
0 0 0 0 0 0
0 0 0 0 0 0
0 0 0 0 0 0
0 0 0 0 0 0
0 0 0 0 0 0
0 0 0 0 0 0
0 0 0 0 0 0
0 0 0 0 0 0
0 0 0 0 0 0
0 0 0 0 0 0
0 0 0 0 0 0
0 0 0 0 0 0
0 0 0 0 0 0
0 0 0 0 0 0
0 0 0 0 0 0
0.000167378 0.000103129 -0.000492405 0.000179414 -2.70779e-05 -4.95689e-05
0.000169211 0.000101938 -0.000494844 0.000187706 -2.59319e-05 -6.11751e-05
0.000171076 0.000100945 -0.000497479 0.000195399 -2.40495e-05 -7.33921e-05
0.000172783 0.00010023 -0.00050028 0.000202257 -2.14025e-05 -8.58457e-05
0.0001656 0.00010687 -0.00049317 0.000176979 -2.59722e-05 -3.31539e-05
0.000167422 0.000105477 -0.000495492 0.000186221 -2.56225e-05 -4.42313e-05
0.000169315 0.000104186 -0.000497975 0.00019507 -2.45682e-05 -5.61683e-05
0.000171254 0.000103072 -0.000500646 0.000203326 -2.27299e-05 -6.87984e-05
0.000173046 0.000102225 -0.000503479 0.000210718 -2.00742e-05 -8.17368e-05
0.000165572 0.000109414 -0.00049628 0.000183304 -2.41521e-05 -2.71827e-05
0.000167445 0.000107954 -0.000498671 0.000193143 -2.39447e-05 -3.85279e-05
0.0001694 0.000106567 -0.000501199 0.000202616 -2.29951e-05 -5.08076e-05
0.000171418 0.000105327 -0.000503909 0.000211488 -2.12207e-05 -6.38742e-05
0.000173302 0.000104326 -0.000506773 0.000219465 -1.85704e-05 -7.73352e-05
0.000163706 0.000113589 -0.000497118 0.00017911 -2.14279e-05 -1.02855e-05
0.000165521 0.000112088 -0.000499483 0.000189728 -2.20503e-05 -2.08175e-05
0.000167444 0.000110571 -0.000501939 0.000200206 -2.20119e-05 -3.24214e-05
0.000169465 0.000109085 -0.000504521 0.000210348 -2.11975e-05 -4.50598e-05
0.000171564 0.000107714 -0.00050727 0.000219896 -1.95106e-05 -5.85875e-05
0.000173547 0.000106557 -0.000510167 0.000228529 -1.68918e-05 -7.26092e-05
0.000163592 0.000116429 -0.000500307 0.000184967 -1.88442e-05 -3.32274e-06
0.000165445 0.000114909 -0.00050277 0.00019623 -1.96608e-05 -1.40191e-05
0.000167418 0.000113333 -0.000505302 0.000207401 -1.98097e-05 -2.58789e-05
0.000169505 0.000111752 -0.000507943 0.00021827 -1.91583e-05 -3.88859e-05
0.00017169 0.000110245 -0.000510734 0.000228561 -1.75866e-05 -5.28998e-05
0.000173778 0.000108924 -0.000513663 0.000237922 -1.50124e-05 -6.75209e-05
0.000163453 0.000119399 -0.00050357 0.000190861 -1.59168e-05 4.08936e-06
0.000165343 0.000117873 -0.00050614 0.000202812 -1.69498e-05 -6.74855e-06
0.000167365 0.000116249 -0.000508759 0.000214728 -1.73145e-05 -1.88581e-05
0.000169519 0.000114576 -0.000511467 0.000226388 -1.68573e-05 -3.22405e-05
0.000171792 0.000112931 -0.000514304 0.000237496 -1.54336e-05 -4.67659e-05
0.000173993 0.000111425 -0.000517264 0.000247668 -1.2933e-05 -6.20271e-05
0.000161495 0.000123858 -0.000504221 0.000184293 -1.0828e-05 2.16229e-05
0.00016329 0.000122498 -0.000506902 0.000196784 -1.26178e-05 1.19851e-05
0.000165213 0.000120985 -0.000509592 0.000209462 -1.38909e-05 1.03362e-06
0.000167283 0.000119327 -0.000512311 0.00022218 -1.4499e-05 -1.1311e-05
0.000169504 0.000117568 -0.000515094 0.000234702 -1.42706e-05 -2.50713e-05
0.000171868 0.000115783 -0.000517984 0.000246711 -1.30332e-05 -4.01322e-05
0.000174188 0.000114088 -0.000520975 0.000257783 -1.06483e-05 -5.608e-05
0.000161285 0.000127039 -0.00050746 0.000189509 -6.91321e-06 3.00195e-05
0.000163103 0.00012574 -0.000510296 0.000202702 -8.92245e-06 2.03995e-05
0.000165058 0.000124249 -0.000513123 0.000216167 -1.04518e-05 9.37165e-06
0.000167173 0.000122571 -0.000515957 0.000229749 -1.13309e-05 -3.18422e-06
0.000169459 0.000120738 -0.000518829 0.000243211 -1.13695e-05 -1.73176e-05
0.000171915 0.000118815 -0.000521778 0.000256219 -1.0363e-05 -3.2935e-05
0.000174361 0.000116925 -0.000524804 0.000268302 -8.13233e-06 -4.96254e-05
0.000161056 0.000130324 -0.000510737 0.000194679 -2.56058e-06 3.89119e-05
0.000162894 0.000129108 -0.000513745 0.000208613 -4.79846e-06 2.937e-05
0.000164879 0.000127665 -0.000516727 0.000222912 -6.59575e-06 1.83124e-05
0.000167036 0.000125988 -0.000519695 0.000237424 -7.77283e-06 5.58167e-06
0.000169384 0.000124094 -0.000522671 0.000251912 -8.11897e-06 -8.9093e-06
0.000171932 0.000122041 -0.000525692 0.000266025 -7.39487e-06 -2.50987e-05
0.000174509 0.000119944 -0.000528758 0.000279251 -5.37077e-06 -4.25884e-05
0.000159084 0.000134582 -0.000510822 0.000185617 5.00566e-06 5.62772e-05
0.000160812 0.000133706 -0.000514042 0.000199779 2.26514e-06 4.83202e-05
0.00016267 0.0001326 -0.000517238 0.000214486 -2.08126e-07 3.89271e-05
0.000164681 0.00013123 -0.000520397 0.000229671 -2.28235e-06 2.79038e-05
0.000166876 0.000129578 -0.000523521 0.000245185 -3.78144e-06 1.50512e-05
0.000169282 0.000127646 -0.000526623 0.000260794 -4.47681e-06 2.33361e-07
0.00017192 0.000125472 -0.000529732 0.000276132 -4.09307e-06 -1.6533e-05
0.000174632 0.000123166 -0.000532845 0.00029065 -2.34186e-06 -3.48744e-05
0.00015882 0.000137911 -0.000513925 0.00018988 1.04791e-05 6.59263e-05
0.00016056 0.000137184 -0.000517362 0.000204753 7.57615e-06 5.82598e-05
0.000162436 0.000136204 -0.000520764 0.000220288 4.88543e-06 4.90987e-05
0.000164471 0.000134935 -0.000524122 0.000236414 2.53257e-06 3.81927e-05
0.0001667 0.00013334 -0.000527428 0.000253005 6.92883e-07 2.52928e-05
0.000169159 0.000131397 -0.000530681 0.000269836 -3.92066e-07 1.02004e-05
0.000171883 0.000129122 -0.000533901 0.000286535 -4.11928e-07 -7.13098e-06
0.000174732 0.000126608 -0.000537077 0.000302515 9.86531e-07 -2.63712e-05
0.000158557 0.000141275 -0.000517013 0.000193989 1.64583e-05 7.60237e-05
0.000160309 0.000140722 -0.000520675 0.000209597 1.34116e-05 6.87425e-05
0.0001622 0.000139905 -0.000524304 0.00022598 1.05191e-05 5.99061e-05
0.000164257 0.000138769 -0.000527887 0.000243094 7.89435e-06 4.92217e-05
0.000166517 0.000137263 -0.000531404 0.000260836 5.70567e-06 3.63773e-05
0.000169023 0.000135346 -0.000534843 0.000278998 4.19762e-06 2.10938e-05
0.000171825 0.000133003 -0.000538202 0.000297211 3.71173e-06 3.23552e-06
0.00017481 0.000130291 -0.000541465 0.000314849 4.66438e-06 -1.69406e-05
0.00017942 9.4653e-05 -0.000498608 0.000172656 -4.39445e-05 -4.64444e-05
0.000181785 9.32525e-05 -0.00050203 0.000180923 -4.21345e-05 -5.80008e-05
0.000184207 9.20639e-05 -0.000505773 0.00018859 -3.953e-05 -7.02064e-05
0.00018655 9.11701e-05 -0.000509813 0.000195377 -3.61199e-05 -8.27868e-05
0.000176784 9.93798e-05 -0.000498363 0.000169752 -4.36609e-05 -3.03426e-05
0.000179077 9.77865e-05 -0.000501524 0.00017895 -4.27058e-05 -4.13239e-05
0.000181484 9.63047e-05 -0.000504968 0.000187781 -4.09759e-05 -5.32068e-05
0.000183961 9.50143e-05 -0.000508727 0.000196023 -3.83982e-05 -6.58249e-05
0.000186372 9.4006e-05 -0.00051278 0.00020336 -3.49585e-05 -7.8897e-05
0.00017637 0.000102725 -0.000501326 0.000175539 -4.20374e-05 -2.46077e-05
0.000178694 0.000101086 -0.000504531 0.000185334 -4.12193e-05 -3.58472e-05
0.000181146 9.95277e-05 -0.000507997 0.000194794 -3.95825e-05 -4.80662e-05
0.000183681 9.81303e-05 -0.000511772 0.000203666 -3.70525e-05 -6.1119e-05
0.000186165 9.69889e-05 -0.000515836 0.000211606 -3.35974e-05 -7.47191e-05
0.000173707 0.0001079 -0.000501334 0.000170874 -4.00097e-05 -8.1066e-06
0.000175915 0.000106239 -0.000504381 0.000181399 -4.01014e-05 -1.8493e-05
0.00017827 0.000104564 -0.000507628 0.000191829 -3.94485e-05 -2.99783e-05
0.000180767 0.000102929 -0.000511122 0.000201965 -3.79373e-05 -4.25462e-05
0.000183364 0.000101421 -0.000514912 0.000211526 -3.54799e-05 -5.60558e-05
0.000185925 0.000100144 -0.000518986 0.000220145 -3.20363e-05 -7.02212e-05
0.000173191 0.000111592 -0.000504402 0.000176153 -3.75569e-05 -1.4263e-06
0.000175418 0.000109938 -0.000507522 0.000187309 -3.78453e-05 -1.19608e-05
0.000177802 0.000108228 -0.000510818 0.000198428 -3.7377e-05 -2.36858e-05
0.000180345 0.00010652 -0.000514344 0.000209294 -3.6021e-05 -3.66085e-05
0.000183005 0.000104899 -0.000518151 0.000219613 -3.36654e-05 -5.05966e-05
0.00018565 0.000103479 -0.000522234 0.000228983 -3.02478e-05 -6.53639e-05
0.000172633 0.000115452 -0.000507546 0.000181446 -3.47215e-05 5.68212e-06
0.000174875 0.000113819 -0.000510747 0.000193271 -3.52312e-05 -4.97496e-06
0.000177288 0.000112088 -0.000514103 0.000205125 -3.49786e-05 -1.69293e-05
0.000179876 0.000110313 -0.000517668 0.000216785 -3.3811e-05 -3.02091e-05
0.000182602 0.000108577 -0.000521493 0.000227935 -3.15914e-05 -4.46959e-05
0.000185336 0.000106997 -0.000525582 0.000238143 -2.82293e-05 -6.0102e-05
0.000169944 0.000120909 -0.000507566 0.000174469 -3.0105e-05 2.26763e-05
0.000172032 0.000119481 -0.000510763 0.000186747 -3.14724e-05 1.32498e-05
0.000174287 0.000117892 -0.000514057 0.000199275 -3.22298e-05 2.50093e-06
0.000176725 0.000116154 -0.000517484 0.000211916 -3.22228e-05 -9.66373e-06
0.000179357 0.00011432 -0.000521096 0.000224436 -3.12805e-05 -2.32971e-05
0.00018215 0.00011247 -0.000524943 0.000236502 -2.92369e-05 -3.83005e-05
0.000184978 0.000110726 -0.000529036 0.000247639 -2.59729e-05 -5.43875e-05
0.0001693 0.000125024 -0.000510718 0.00017908 -2.61838e-05 3.06996e-05
0.000171388 0.000123694 -0.000514045 0.000192025 -2.77827e-05 2.13086e-05
0.000173652 0.00012216 -0.000517449 0.00020531 -2.8805e-05 1.05075e-05
0.000176113 0.000120434 -0.000520962 0.000218793 -2.90738e-05 -1.83899e-06
0.000178786 0.000118553 -0.000524631 0.000232246 -2.83974e-05 -1.58142e-05
0.000181647 0.000116593 -0.000528508 0.000245321 -2.65765e-05 -3.13471e-05
0.000184573 0.000114682 -0.000532604 0.000257502 -2.3452e-05 -4.81642e-05
0.000168618 0.000129282 -0.00051391 0.000183639 -2.17724e-05 3.91879e-05
0.000170703 0.000128074 -0.000517385 0.000197283 -2.36142e-05 2.98922e-05
0.000172971 0.000126625 -0.000520917 0.000211362 -2.4916e-05 1.90873e-05
0.00017545 0.000124934 -0.000524534 0.000225746 -2.54902e-05 6.60007e-06
0.000178162 0.000123024 -0.000528276 0.00024021 -2.51227e-05 -7.69372e-06
0.00018109 0.000120963 -0.000532192 0.000254398 -2.35783e-05 -2.37613e-05
0.000184119 0.000118875 -0.000536296 0.000267756 -2.06466e-05 -4.13542e-05
0.000165989 0.000134482 -0.000513541 0.000174358 -1.43811e-05 5.58782e-05
0.000167902 0.000133675 -0.000517136 0.000188129 -1.68319e-05 4.81592e-05
0.00016998 0.000132621 -0.000520773 0.000202497 -1.89251e-05 3.90276e-05
0.000172249 0.000131286 -0.000524454 0.000217417 -2.05176e-05 2.82837e-05
0.000174742 0.000129658 -0.000528197 0.000232762 -2.14238e-05 1.57129e-05
0.000177487 0.000127745 -0.000532033 0.000248322 -2.14098e-05 1.13958e-06
0.000180479 0.000125595 -0.000536003 0.000263736 -2.02022e-05 -1.5455e-05
0.000183615 0.000123329 -0.000540121 0.000278419 -1.75314e-05 -3.3862e-05
0.000165261 0.00013881 -0.00051659 0.000178077 -8.7166e-06 6.5052e-05
0.000167158 0.000138203 -0.000520379 0.000192507 -1.13462e-05 5.76269e-05
0.000169225 0.000137323 -0.000524197 0.000207647 -1.36736e-05 4.87395e-05
0.000171491 0.000136136 -0.00052805 0.00022345 -1.55605e-05 3.81384e-05
0.000173992 0.000134606 -0.000531945 0.000239822 -1.68198e-05 2.55615e-05
0.000176765 0.00013272 -0.0005359 0.000256567 -1.72023e-05 1.07696e-05
0.000179817 0.000130506 -0.000539946 0.000273332 -1.63975e-05 -6.32535e-06
0.000183062 0.000128067 -0.000544091 0.000289508 -1.40695e-05 -2.55739e-05
0.000164516 0.000143206 -0.000519625 0.000181671 -2.47875e-06 7.46431e-05
0.000166394 0.000142829 -0.000523619 0.00019678 -5.26911e-06 6.76023e-05
0.000168447 0.000142165 -0.000527639 0.000212705 -7.81632e-06 5.90479e-05
0.000170706 0.000141161 -0.00053169 0.00022943 -9.99245e-06 4.869e-05
0.00017321 0.00013977 -0.000535766 0.000246888 -1.16155e-05 3.62094e-05
0.000176005 0.000137954 -0.000539874 0.000264912 -1.24308e-05 2.1289e-05
0.00017911 0.000135709 -0.000544025 0.000283164 -1.20945e-05 3.74912e-06
0.000182462 0.000133109 -0.00054822 0.000301024 -1.02049e-05 -1.6351e-05
0.000184872 8.61203e-05 -0.000504643 0.000169552 -6.07358e-05 -4.09576e-05
0.000187784 8.45067e-05 -0.000509029 0.000177079 -5.82942e-05 -5.19407e-05
0.000190807 8.31184e-05 -0.000513868 0.000183995 -5.50003e-05 -6.36822e-05
0.000193852 8.20423e-05 -0.000519148 0.000190066 -5.08577e-05 -7.59591e-05
0.000181372 9.1835e-05 -0.000503421 0.000167337 -6.12254e-05 -2.59151e-05
0.000184124 9.00381e-05 -0.000507396 0.000175801 -5.9696e-05 -3.62496e-05
0.000187057 8.83615e-05 -0.000511779 0.000183852 -5.7325e-05 -4.75159e-05
0.000190115 8.68902e-05 -0.000516612 0.000191295 -5.40433e-05 -5.96266e-05
0.000193209 8.5717e-05 -0.000521886 0.000197864 -4.98529e-05 -7.23574e-05
0.000180566 9.59798e-05 -0.000506245 0.000173119 -5.97788e-05 -2.06678e-05
0.000183325 9.41579e-05 -0.00051024 0.000182151 -5.83822e-05 -3.12168e-05
0.000186279 9.24254e-05 -0.000514619 0.000190792 -5.60941e-05 -4.27707e-05
0.000189373 9.08663e-05 -0.000519443 0.000198813 -5.28468e-05 -5.52668e-05
0.00019252 8.95797e-05 -0.000524706 0.000205926 -4.8623e-05 -6.84813e-05
0.000177152 0.000102156 -0.000505464 0.000169169 -5.83986e-05 -5.41639e-06
0.00017971 0.000100331 -0.000509163 0.000178986 -5.79872e-05 -1.50798e-05
0.000182473 9.84956e-05 -0.000513172 0.000188626 -5.67529e-05 -2.58273e-05
0.000185447 9.67079e-05 -0.000517552 0.0001979 -5.45826e-05 -3.76756e-05
0.000188577 9.50588e-05 -0.000522366 0.000206557 -5.13957e-05 -5.05723e-05
0.00019178 9.36569e-05 -0.000527615 0.000214285 -4.71671e-05 -6.43006e-05
0.000176253 0.000106698 -0.000508423 0.00017448 -5.60544e-05 6.54227e-07
0.000178801 0.000104906 -0.000512171 0.000184915 -5.58424e-05 -9.11793e-06
0.000181566 0.00010306 -0.000516198 0.000195218 -5.47903e-05 -2.00542e-05
0.000184557 0.000101222 -0.000520582 0.000205182 -5.2769e-05 -3.21967e-05
0.000187725 9.94818e-05 -0.000525384 0.00021454 -4.9673e-05 -4.55075e-05
0.000190986 9.79584e-05 -0.000530617 0.000222951 -4.54552e-05 -5.97778e-05
0.000175304 0.000111447 -0.000511464 0.000179813 -5.32883e-05 7.10313e-06
0.000177838 0.000109705 -0.000515264 0.000190909 -5.33016e-05 -2.75196e-06
0.0001806 0.000107864 -0.000519322 0.000201925 -5.24654e-05 -1.38632e-05
0.000183607 0.000105982 -0.000523713 0.000212644 -5.0628e-05 -2.62958e-05
0.000186811 0.000104151 -0.000528503 0.000222776 -4.76584e-05 -4.00316e-05
0.000190133 0.000102491 -0.000533714 0.00023195 -4.34817e-05 -5.48686e-05
0.000172008 0.000117903 -0.000510902 0.0001735 -4.91009e-05 2.26231e-05
0.000174304 0.000116404 -0.000514582 0.00018516 -5.00655e-05 1.3957e-05
0.000176818 0.000114736 -0.000518446 0.000196958 -5.03332e-05 4.04863e-06
0.000179574 0.000112916 -0.000522544 0.000208745 -4.97446e-05 -7.21661e-06
0.000182592 0.000111003 -0.000526949 0.000220289 -4.81297e-05 -1.99293e-05
0.000185832 0.000109083 -0.000531729 0.000231279 -4.53282e-05 -3.4097e-05
0.000189218 0.000107284 -0.000536913 0.000241301 -4.12362e-05 -4.95298e-05
0.00017099 0.000122951 -0.000513985 0.000178152 -4.51511e-05 2.98558e-05
0.000173253 0.000121586 -0.00051777 0.000190491 -4.63576e-05 2.12427e-05
0.000175742 0.000120007 -0.000521714 0.00020305 -4.68974e-05 1.13174e-05
0.000178487 0.00011823 -0.000525866 0.000215671 -4.65886e-05 -7.26387e-08
0.000181511 0.000116298 -0.000530295 0.00022812 -4.52385e-05 -1.30478e-05
0.000184784 0.000114296 -0.000535069 0.000240063 -4.26534e-05 -2.76486e-05
0.000188235 0.000112357 -0.000540224 0.000251044 -3.86898e-05 -4.37103e-05
0.000169927 0.000128181 -0.000517115 0.000182749 -4.06592e-05 3.74966e-05
0.000172153 0.000126978 -0.000521022 0.000195805 -4.21205e-05 2.8989e-05
0.000174611 0.000125521 -0.000525064 0.000209172 -4.29496e-05 1.90898e-05
0.000177338 0.000123813 -0.000529287 0.000222696 -4.2952e-05 7.61423e-06
0.000180363 0.000121884 -0.000533753 0.000236137 -4.19119e-05 -5.59562e-06
0.000183665 0.00011981 -0.00053853 0.000249143 -3.95984e-05 -2.0622e-05
0.000187182 0.000117725 -0.000543656 0.000261214 -3.58173e-05 -3.73383e-05
0.000166847 0.000134324 -0.000516345 0.000173964 -3.34138e-05 5.26195e-05
0.000168825 0.000133584 -0.000520285 0.000187273 -3.55824e-05 4.55627e-05
0.000171007 0.000132579 -0.000524328 0.000201078 -3.73091e-05 3.72191e-05
0.000173429 0.000131278 -0.000528489 0.000215308 -3.84401e-05 2.74018e-05
0.00017613 0.000129671 -0.000532805 0.000229808 -3.87824e-05 1.58929e-05
0.00017915 0.000127774 -0.000537328 0.000244339 -3.80984e-05 2.48945e-06
0.000182475 0.000125645 -0.000542119 0.000258531 -3.61184e-05 -1.2943e-05
0.000186057 0.000123414 -0.000547221 0.000271842 -3.2589e-05 -3.03289e-05
0.000165763 0.000139653 -0.000519365 0.000177684 -2.75403e-05 6.08535e-05
0.000167689 0.000139163 -0.000523477 0.000191678 -2.99021e-05 5.40674e-05
0.000169823 0.000138381 -0.000527676 0.000206285 -3.18769e-05 4.59551e-05
0.000172203 0.000137273 -0.00053198 0.000221433 -3.3315e-05 3.62891e-05
0.000174871 0.000135807 -0.000536415 0.000236988 -3.40199e-05 2.48149e-05
0.000177876 0.000133976 -0.000541019 0.000252715 -3.3737e-05 1.12763e-05
0.000181217 0.000131818 -0.000545846 0.000268235 -3.21578e-05 -4.52565e-06
0.000184863 0.00012945 -0.000550932 0.000282962 -2.89626e-05 -2.25831e-05
0.000164659 0.000145085 -0.000522375 0.000181267 -2.10278e-05 6.94594e-05
0.000166529 0.00014488 -0.000526671 0.00019597 -2.35648e-05 6.30215e-05
0.00016861 0.000144366 -0.000531048 0.0002114 -2.57743e-05 5.52159e-05
0.000170941 0.000143492 -0.000535522 0.000227512 -2.75158e-05 4.57856e-05
0.00017357 0.000142212 -0.000540105 0.000244196 -2.85958e-05 3.44327e-05
0.000176552 0.000140495 -0.000544824 0.000261234 -2.87521e-05 2.08393e-05
0.000179899 0.000138349 -0.000549713 0.000278244 -2.76404e-05 4.72907e-06
0.000183603 0.000135859 -0.000554806 0.000294598 -2.48749e-05 -1.39814e-05
0.000196365 7.75947e-05 -0.000510148 0.000165152 -7.77444e-05 -2.70806e-05
0.000199754 7.57589e-05 -0.000515438 0.00017205 -7.46594e-05 -3.64062e-05
0.00020332 7.41608e-05 -0.000521325 0.000178389 -7.06548e-05 -4.64537e-05
0.000206933 7.28913e-05 -0.000527812 0.000184028 -6.57397e-05 -5.72226e-05
0.000192078 8.4308e-05 -0.000507994 0.000163731 -7.90129e-05 -1.38841e-05
0.000195246 8.22997e-05 -0.00051273 0.000171506 -7.69064e-05 -2.26903e-05
0.000198636 8.04188e-05 -0.000517994 0.000178878 -7.38834e-05 -3.22771e-05
0.000202218 7.87553e-05 -0.00052385 0.000185692 -6.98768e-05 -4.26571e-05
0.000205859 7.74055e-05 -0.000530311 0.000191776 -6.48951e-05 -5.38286e-05
0.000190904 8.92563e-05 -0.00051067 0.000169682 -7.77445e-05 -8.98435e-06
0.000194059 8.72438e-05 -0.000515401 0.00017798 -7.57684e-05 -1.80004e-05
0.000197449 8.53266e-05 -0.000520635 0.000185888 -7.28198e-05 -2.78547e-05
0.000201046 8.35937e-05 -0.000526458 0.000193223 -6.88348e-05 -3.85834e-05
0.000204718 8.21487e-05 -0.000532885 0.000199792 -6.3801e-05 -5.01855e-05
0.000186767 9.64419e-05 -0.000509133 0.000166667 -7.70043e-05 4.55678e-06
0.000189663 9.44495e-05 -0.000513441 0.000175742 -7.6098e-05 -3.76629e-06
0.000192801 9.24452e-05 -0.00051816 0.0001846 -7.4284e-05 -1.29804e-05
0.00019619 9.04938e-05 -0.000523368 0.000193085 -7.14475e-05 -2.31124e-05
0.000199801 8.86906e-05 -0.000529154 0.000200992 -6.75118e-05 -3.42061e-05
0.000203506 8.71493e-05 -0.000535543 0.000208111 -6.24564e-05 -4.62663e-05
0.000185487 0.000101838 -0.000511972 0.000172231 -7.47661e-05 1.02521e-05
0.000188352 9.9905e-05 -0.000516303 0.000181889 -7.40646e-05 1.80315e-06
0.000191471 9.7915e-05 -0.000521014 0.000191364 -7.24338e-05 -7.60479e-06
0.000194854 9.59357e-05 -0.000526197 0.000200479 -6.97427e-05 -1.80191e-05
0.000198479 9.40623e-05 -0.000531943 0.000209016 -6.58884e-05 -2.9493e-05
0.000202218 9.24193e-05 -0.00053829 0.000216744 -6.08289e-05 -4.20373e-05
0.00018414 0.00010748 -0.000514896 0.000177846 -7.20653e-05 1.63099e-05
0.000186969 0.000105625 -0.000519253 0.000188132 -7.15968e-05 7.75452e-06
0.000190063 0.000103666 -0.000523965 0.000198272 -7.01857e-05 -1.84043e-06
0.000193438 0.000101668 -0.000529126 0.000208078 -6.76774e-05 -1.25386e-05
0.000197075 9.97268e-05 -0.000534831 0.000217313 -6.39425e-05 -2.44071e-05
0.000200849 9.79693e-05 -0.000541126 0.000225721 -5.89098e-05 -3.746e-05
0.000180184 0.000114939 -0.000513767 0.000172595 -6.8281e-05 3.03549e-05
0.000182724 0.000113369 -0.000517899 0.000183505 -6.88635e-05 2.27583e-05
0.000185511 0.00011162 -0.000522294 0.000194462 -6.86599e-05 1.41192e-05
0.000188574 0.000109712 -0.000527018 0.000205327 -6.75028e-05 4.35017e-06
0.000191937 0.000107709 -0.000532161 0.000215893 -6.52186e-05 -6.62965e-06
0.000195583 0.000105704 -0.000537823 0.000225903 -6.16473e-05 -1.8905e-05
0.000199393 0.000103831 -0.000544061 0.000235064 -5.66875e-05 -3.24957e-05
0.000178754 0.000120924 -0.000516763 0.000177602 -6.42921e-05 3.72106e-05
0.000181237 0.000119525 -0.000520978 0.00018918 -6.51301e-05 2.96266e-05
0.000183976 0.000117899 -0.000525424 0.000200873 -6.52102e-05 2.09324e-05
0.000187004 0.000116066 -0.000530172 0.000212528 -6.43421e-05 1.10091e-05
0.000190348 0.000114075 -0.000535306 0.000223933 -6.23272e-05 -2.44612e-07
0.000194 0.000112015 -0.000540929 0.000234808 -5.89705e-05 -1.29358e-05
0.000197845 0.000110028 -0.000547105 0.000244823 -5.41304e-05 -2.71001e-05
0.000177261 0.000127128 -0.000519811 0.000182582 -5.9707e-05 4.44708e-05
0.000179682 0.000125932 -0.000524122 0.000194871 -6.08152e-05 3.69465e-05
0.000182366 0.000124467 -0.00052864 0.000207355 -6.11986e-05 2.82321e-05
0.00018535 0.000122739 -0.000533428 0.000219874 -6.06535e-05 1.81831e-05
0.000188668 0.000120784 -0.000538567 0.000232206 -5.89562e-05 6.67107e-06
0.000192321 0.000118683 -0.000544157 0.000244051 -5.58725e-05 -6.43947e-06
0.0001962 0.000116578 -0.000550268 0.000255037 -5.1209e-05 -2.12091e-05
0.000173584 0.000134212 -0.000518638 0.000174854 -5.25641e-05 5.84377e-05
0.000175707 0.000133543 -0.000522901 0.000187514 -5.44786e-05 5.21552e-05
0.000178061 0.000132592 -0.000527325 0.000200557 -5.58691e-05 4.47446e-05
0.000180683 0.000131326 -0.000531936 0.000213893 -5.65705e-05 3.60581e-05
0.000183615 0.00012974 -0.000536786 0.000227358 -5.63795e-05 2.59239e-05
0.000186898 0.000127854 -0.000541947 0.000240721 -5.50491e-05 1.41799e-05
0.000190545 0.000125732 -0.000547515 0.000253656 -5.2304e-05 6.54515e-07
0.000194456 0.000123513 -0.000553563 0.000265752 -4.78895e-05 -1.47458e-05
0.000172055 0.000140541 -0.000521601 0.000178991 -4.6462e-05 6.63396e-05
0.000174101 0.000140174 -0.000526018 0.000192354 -4.85856e-05 6.02803e-05
0.00017638 0.000139496 -0.000530573 0.000206211 -5.02408e-05 5.30471e-05
0.000178931 0.000138471 -0.0005353 0.000220467 -5.12665e-05 4.44505e-05
0.000181802 0.000137073 -0.000540239 0.000234969 -5.14546e-05 3.42871e-05
0.000185043 0.000135295 -0.000545448 0.000249477 -5.05391e-05 2.23528e-05
0.000188674 0.000133183 -0.000551013 0.000263647 -4.82033e-05 8.42956e-06
0.000192613 0.000130863 -0.000557006 0.00027702 -4.41241e-05 -7.62005e-06
0.000170487 0.000147008 -0.000524558 0.000183009 -3.96523e-05 7.46218e-05
0.000172449 0.000146983 -0.000529139 0.000197106 -4.19667e-05 6.88613e-05
0.000174646 0.000146628 -0.00053385 0.000211809 -4.3874e-05 6.18768e-05
0.00017712 0.000145891 -0.00053872 0.000227044 -4.52215e-05 5.34493e-05
0.000179923 0.000144728 -0.000543777 0.000242672 -4.58027e-05 4.33329e-05
0.000183109 0.000143113 -0.000549067 0.000258457 -4.53426e-05 3.12708e-05
0.000186714 0.000141058 -0.000554656 0.000274032 -4.34866e-05 1.69857e-05
0.000190674 0.000138658 -0.000560613 0.000288884 -3.98424e-05 2.79755e-07
0.00019266 6.89998e-05 -0.000515662 0.000148839 -9.5445e-05 -1.73649e-05
0.000196471 6.69351e-05 -0.000521861 0.000155612 -9.16841e-05 -2.54635e-05
0.000200518 6.51212e-05 -0.000528807 0.000161904 -8.69303e-05 -3.4158e-05
0.000204658 6.36534e-05 -0.00053655 0.000167553 -8.11986e-05 -4.36773e-05
0.000187433 7.67177e-05 -0.000512565 0.000146852 -9.757e-05 -5.41808e-06
0.000190971 7.44903e-05 -0.000518066 0.000154395 -9.48611e-05 -1.31791e-05
0.000194768 7.23976e-05 -0.000524216 0.000161626 -9.11523e-05 -2.15571e-05
0.000198813 7.05352e-05 -0.000531109 0.000168387 -8.638e-05 -3.05905e-05
0.000202967 6.90029e-05 -0.000538805 0.000174485 -8.05597e-05 -4.05031e-05
0.000185686 8.24687e-05 -0.000515087 0.000152002 -9.65349e-05 -6.97005e-07
0.000189192 8.02569e-05 -0.000520559 0.000160035 -9.39543e-05 -8.70016e-06
0.00019297 7.81467e-05 -0.000526654 0.000167781 -9.03108e-05 -1.73689e-05
0.000197014 7.62323e-05 -0.000533489 0.000175054 -8.55448e-05 -2.67622e-05
0.000201182 7.46225e-05 -0.000541129 0.00018164 -7.96505e-05 -3.71002e-05
0.000180655 9.06729e-05 -0.000512781 0.000148571 -9.65065e-05 1.18574e-05
0.000183847 8.85029e-05 -0.000517705 0.00015723 -9.50919e-05 4.34276e-06
0.000187317 8.63206e-05 -0.000523138 0.000165783 -9.26742e-05 -3.89574e-06
0.000191074 8.4196e-05 -0.000529181 0.000174078 -8.91364e-05 -1.28728e-05
0.000195115 8.22299e-05 -0.000535954 0.00018191 -8.44061e-05 -2.26477e-05
0.000199298 8.05419e-05 -0.000543531 0.000189049 -7.84691e-05 -3.34424e-05
0.000178776 9.69244e-05 -0.000515491 0.000153332 -9.44331e-05 1.74219e-05
0.000181915 9.48387e-05 -0.000520414 0.000162513 -9.32315e-05 9.73654e-06
0.000185343 9.26939e-05 -0.000525813 0.000171632 -9.09994e-05 1.26058e-06
0.000189075 9.05627e-05 -0.000531803 0.000180522 -8.76034e-05 -8.03635e-06
0.00019311 8.85464e-05 -0.000538508 0.000188968 -8.29432e-05 -1.82155e-05
0.000197309 8.67751e-05 -0.000546017 0.000196716 -7.69828e-05 -2.94971e-05
0.000176807 0.00010346 -0.000518288 0.000158124 -9.18589e-05 2.33598e-05
0.000179885 0.00010148 -0.000523212 0.000167862 -9.09013e-05 1.55188e-05
0.000183265 9.93923e-05 -0.000528585 0.000177584 -8.88953e-05 6.80525e-06
0.000186967 9.72655e-05 -0.000534524 0.00018712 -8.56815e-05 -2.82142e-06
0.000190994 9.52023e-05 -0.000541157 0.000196238 -8.11319e-05 -1.3428e-05
0.000195208 9.33372e-05 -0.000548587 0.000204665 -7.51804e-05 -2.52297e-05
0.000172018 0.000111935 -0.000516574 0.000152778 -8.85323e-05 3.67625e-05
0.000174744 0.000110283 -0.000521167 0.000162945 -8.87414e-05 2.9702e-05
0.000177753 0.00010844 -0.000526102 0.000173269 -8.80637e-05 2.17244e-05
0.000181079 0.000106431 -0.000531459 0.00018364 -8.63216e-05 1.27798e-05
0.000184745 0.000104324 -0.00053735 0.000193876 -8.33352e-05 2.81646e-06
0.000188759 0.00010222 -0.000543911 0.000203735 -7.89436e-05 -8.24056e-06
0.000192988 0.000100262 -0.000551251 0.000212909 -7.30486e-05 -2.06013e-05
0.000169946 0.000118859 -0.00051947 0.000157036 -8.45634e-05 4.35765e-05
0.000172585 0.000117415 -0.000524124 0.000167773 -8.50474e-05 3.64819e-05
0.000175518 0.000115729 -0.000529084 0.000178734 -8.46707e-05 2.83938e-05
0.00017878 0.000113826 -0.000534436 0.000189802 -8.32315e-05 1.92316e-05
0.000182403 0.000111759 -0.000540288 0.0002008 -8.0522e-05 8.92939e-06
0.0001864 0.000109626 -0.000546776 0.000211474 -7.63433e-05 -2.59957e-06
0.000190641 0.000107577 -0.000554021 0.000221487 -7.05558e-05 -1.55673e-05
0.000167787 0.000126042 -0.000522421 0.000161279 -7.99447e-05 5.08162e-05
0.000170331 0.000124841 -0.000527148 0.000172618 -8.07207e-05 4.37359e-05
0.000173177 0.000123355 -0.000532155 0.000184254 -8.06684e-05 3.55705e-05
0.000176367 0.000121591 -0.000537519 0.000196074 -7.95704e-05 2.62141e-05
0.000179936 0.000119592 -0.000543343 0.000207902 -7.71907e-05 1.55784e-05
0.000183909 0.000117445 -0.000549763 0.000219475 -7.32882e-05 3.5592e-06
0.00018816 0.000115303 -0.000556909 0.000230431 -6.76683e-05 -1.0064e-05
0.000163373 0.000134084 -0.000520819 0.000153968 -7.29277e-05 6.44489e-05
0.000165545 0.000133476 -0.000525417 0.000165499 -7.46241e-05 5.85023e-05
0.000167984 0.000132565 -0.000530234 0.000177469 -7.57067e-05 5.14941e-05
0.000170733 0.00013132 -0.000535307 0.000189827 -7.59964e-05 4.33004e-05
0.000173838 0.000129738 -0.000540704 0.000202459 -7.5275e-05 3.3787e-05
0.000177343 0.000127842 -0.000546519 0.000215193 -7.32799e-05 2.28348e-05
0.000181282 0.000125706 -0.000552882 0.000227762 -6.97245e-05 1.03138e-05
0.00018554 0.000123478 -0.000559927 0.000239779 -6.435e-05 -4.01098e-06
0.000161171 0.000141421 -0.000523711 0.00015755 -6.6647e-05 7.24055e-05
0.000163224 0.000141166 -0.000528442 0.00016967 -6.85757e-05 6.66541e-05
0.000165549 0.000140579 -0.000533367 0.000182323 -6.99482e-05 5.97866e-05
0.000168188 0.000139624 -0.000538531 0.000195453 -7.05889e-05 5.16303e-05
0.000171196 0.000138274 -0.000543988 0.000208964 -7.02729e-05 4.20154e-05
0.000174625 0.000136527 -0.000549818 0.00022269 -6.87158e-05 3.07808e-05
0.000178519 0.000134436 -0.000556143 0.000236364 -6.5585e-05 1.77587e-05
0.000182776 0.000132139 -0.000563094 0.000249578 -6.05485e-05 2.68862e-06
0.00015891 0.000148933 -0.000526598 0.000161083 -5.9587e-05 8.0764e-05
0.000160835 0.000149078 -0.000531472 0.000173818 -6.173e-05 7.52891e-05
0.000163033 0.00014887 -0.000536531 0.000187179 -6.33814e-05 6.86387e-05
0.000165552 0.000148255 -0.000541812 0.000201128 -6.43724e-05 6.06049e-05
0.00016845 0.000147191 -0.000547359 0.000215586 -6.44788e-05 5.09689e-05
0.000171787 0.000145654 -0.000553238 0.0002304 -6.34055e-05 3.95122e-05
0.000175622 0.000143662 -0.000559551 0.000245308 -6.07775e-05 2.60091e-05
0.000179869 0.000141321 -0.000566427 0.000259881 -5.61868e-05 1.01568e-05
0.000205143 6.01952e-05 -0.000521485 0.000130511 -0.000113354 -1.43896e-05
0.000209489 5.78978e-05 -0.000528642 0.00013691 -0.000108924 -2.23765e-05
0.00021413 5.58658e-05 -0.000536699 0.000142873 -0.00010343 -3.0944e-05
0.000219025 5.41984e-05 -0.000545775 0.000148222 -9.68944e-05 -4.03476e-05
0.000199111 6.89148e-05 -0.000517429 0.000127708 -0.00011636 -3.09252e-06
0.000203111 6.64617e-05 -0.000523731 0.0001348 -0.000113054 -1.07404e-05
0.000207424 6.41528e-05 -0.000530813 0.000141635 -0.000108666 -1.90103e-05
0.000212044 6.20888e-05 -0.000538795 0.000148052 -0.000103136 -2.79231e-05
0.000216934 6.03729e-05 -0.000547803 0.00015384 -9.64904e-05 -3.77317e-05
0.000197023 7.54595e-05 -0.000519818 0.000131565 -0.00011559 1.06668e-06
0.000200972 7.30407e-05 -0.000526066 0.000139114 -0.00011241 -6.82207e-06
0.000205247 7.07321e-05 -0.000533067 0.000146441 -0.000108077 -1.53846e-05
0.000209845 6.86332e-05 -0.000540966 0.000153354 -0.000102538 -2.4663e-05
0.000214729 6.68574e-05 -0.000549896 0.00015962 -9.57965e-05 -3.49079e-05
0.000191254 8.46843e-05 -0.00051674 0.000127381 -0.000116306 1.29059e-05
0.000194829 8.23256e-05 -0.000522305 0.000135444 -0.000114385 5.5161e-06
0.000198721 7.9956e-05 -0.000528487 0.000143475 -0.000111367 -2.60403e-06
0.000202954 7.76516e-05 -0.000535408 0.000151324 -0.000107133 -1.14743e-05
0.000207527 7.55188e-05 -0.000543217 0.000158778 -0.000101615 -2.11386e-05
0.000212406 7.36829e-05 -0.00055206 0.000165587 -9.48095e-05 -3.18512e-05
0.000189022 9.1783e-05 -0.00051935 0.000130787 -0.000114435 1.78409e-05
0.000192523 8.95319e-05 -0.000524887 0.00013932 -0.000112734 1.0288e-05
0.000196353 8.72215e-05 -0.000531005 0.000147873 -0.000109903 1.93736e-06
0.00020054 8.49303e-05 -0.000537842 0.000156284 -0.000105805 -7.24922e-06
0.000205085 8.2766e-05 -0.000545555 0.00016433 -0.000100346 -1.73196e-05
0.000209956 8.0865e-05 -0.000554303 0.000171738 -9.34969e-05 -2.85301e-05
0.000186682 9.92053e-05 -0.00052205 0.000134171 -0.000112028 2.31113e-05
0.000190102 9.70854e-05 -0.00052756 0.000143198 -0.000110581 1.54127e-05
0.000193863 9.48549e-05 -0.000533623 0.000152302 -0.000107981 6.83472e-06
0.000197997 9.25891e-05 -0.000540377 0.000161319 -0.000104063 -2.67412e-06
0.000202511 9.0398e-05 -0.000547986 0.000170013 -9.87039e-05 -1.31704e-05
0.000207372 8.84232e-05 -0.000556626 0.000178087 -9.1845e-05 -2.49095e-05
0.000181219 0.000108708 -0.000519769 0.000128236 -0.000109203 3.56512e-05
0.000184231 0.000106955 -0.000524838 0.000137531 -0.000109039 2.87428e-05
0.000187561 0.000105001 -0.000530331 0.00014707 -0.000107886 2.09198e-05
0.000191246 0.000102874 -0.000536345 0.00015676 -0.000105557 1.21248e-05
0.00019532 0.000100651 -0.000543019 0.00016643 -0.000101868 2.29163e-06
0.000199797 9.84401e-05 -0.00055052 0.000175832 -9.66593e-05 -8.64879e-06
0.000204647 9.63931e-05 -0.000559038 0.00018464 -8.98388e-05 -2.09526e-05
0.000178761 0.000116568 -0.000522606 0.000131072 -0.000105302 4.16982e-05
0.000181665 0.000115057 -0.000527709 0.000140845 -0.000105432 3.47633e-05
0.000184896 0.000113291 -0.000533199 0.000150934 -0.000104597 2.68436e-05
0.000188495 0.000111298 -0.000539176 0.000161245 -0.000102583 1.7849e-05
0.000192502 0.000109139 -0.000545775 0.000171616 -9.91758e-05 7.69514e-06
0.000196936 0.000106921 -0.000553167 0.000181795 -9.41749e-05 -3.70455e-06
0.000201772 0.000104804 -0.000561554 0.000191423 -8.74474e-05 -1.66162e-05
0.000176197 0.000124728 -0.000525503 0.000133858 -0.000100702 4.81183e-05
0.000178983 0.000123499 -0.000530654 0.000144127 -0.000101146 4.1203e-05
0.000182104 0.000121966 -0.00053616 0.000154789 -0.000100655 3.32204e-05
0.000185607 0.000120143 -0.000542117 0.000165759 -9.8999e-05 2.40533e-05
0.000189537 0.000118078 -0.000548652 0.000176884 -9.59307e-05 1.35908e-05
0.000193919 0.000115871 -0.000555938 0.00018791 -9.12053e-05 1.72212e-06
0.000198738 0.000113685 -0.000564186 0.000198458 -8.46329e-05 -1.18381e-05
0.000171168 0.000133754 -0.000523513 0.00012632 -9.38618e-05 6.07389e-05
0.000173527 0.000133182 -0.000528451 0.000136597 -9.53452e-05 5.49275e-05
0.000176185 0.000132285 -0.000533667 0.000147376 -9.61214e-05 4.80861e-05
0.000179184 0.000131033 -0.000539211 0.000158639 -9.59966e-05 4.00883e-05
0.000182578 0.000129426 -0.000545168 0.000170307 -9.47372e-05 3.07887e-05
0.000186419 0.000127494 -0.000551656 0.000182242 -9.20677e-05 2.00415e-05
0.000190741 0.000125324 -0.000558844 0.000194196 -8.76932e-05 7.70284e-06
0.000195536 0.000123076 -0.00056695 0.000205771 -8.13571e-05 -6.54062e-06
0.000168541 0.000142105 -0.000526385 0.000128538 -8.74593e-05 6.77711e-05
0.000170756 0.000141937 -0.000531435 0.000139276 -8.92012e-05 6.21416e-05
0.000173272 0.000141412 -0.000536735 0.000150602 -9.02946e-05 5.54369e-05
0.000176137 0.000140494 -0.000542341 0.000162495 -9.05482e-05 4.74861e-05
0.000179408 0.000139158 -0.000548325 0.000174904 -8.97194e-05 3.81101e-05
0.000183147 0.000137409 -0.000554791 0.00018771 -8.75073e-05 2.71192e-05
0.000187396 0.000135313 -0.000561897 0.000200678 -8.35667e-05 1.43235e-05
0.00019216 0.000133022 -0.000569864 0.000213404 -7.75642e-05 -6.30483e-07
0.000165831 0.000150675 -0.000529258 0.00013073 -8.02087e-05 7.51511e-05
0.000167889 0.000150962 -0.000534431 0.000141946 -8.21917e-05 6.97775e-05
0.000170251 0.000150869 -0.00053984 0.000153827 -8.35936e-05 6.32786e-05
0.000172968 0.000150341 -0.000545536 0.000166379 -8.42282e-05 5.54524e-05
0.000176101 0.000149337 -0.000551578 0.000179573 -8.38516e-05 4.60767e-05
0.000179722 0.000147839 -0.000558055 0.000193314 -8.21484e-05 3.49063e-05
0.000183883 0.000145874 -0.000565106 0.000207391 -7.8727e-05 2.16887e-05
0.000188607 0.000143568 -0.000572949 0.000221406 -7.31714e-05 6.01002e-06
0.000209193 5.12246e-05 -0.000526811 0.00011829 -0.00013119 -3.04345e-06
0.000214112 4.86845e-05 -0.000534878 0.00012341 -0.000126129 -9.96879e-06
0.000219409 4.64241e-05 -0.000544005 0.000128116 -0.000119931 -1.75069e-05
0.000225124 4.45467e-05 -0.000554362 0.000132271 -0.000112627 -2.58437e-05
0.000202294 6.0951e-05 -0.000521852 0.000116446 -0.000135008 6.39609e-06
0.000206766 5.82622e-05 -0.000528906 0.000122209 -0.000131143 -1.46549e-07
0.000211628 5.57261e-05 -0.000536871 0.000127688 -0.000126115 -7.29665e-06
0.000216884 5.34494e-05 -0.000545896 0.000132763 -0.000119868 -1.51203e-05
0.000222576 5.15388e-05 -0.000556163 0.000137268 -0.000112435 -2.38054e-05
0.000199828 6.82848e-05 -0.00052412 0.000120006 -0.000134468 9.69094e-06
0.000204223 6.56484e-05 -0.000531091 0.00012616 -0.000130727 2.96511e-06
0.000209023 6.31301e-05 -0.000538945 0.000132052 -0.000125748 -4.41361e-06
0.000214234 6.08346e-05 -0.000547859 0.000137532 -0.000119479 -1.25357e-05
0.000219902 5.88807e-05 -0.000558022 0.000142418 -0.000111931 -2.15924e-05
0.000193319 7.85358e-05 -0.000520339 0.000116912 -0.000135856 1.94269e-05
0.000197248 7.5978e-05 -0.00052649 0.000123598 -0.000133465 1.32116e-05
0.00020156 7.34098e-05 -0.000533364 0.000130169 -0.000129886 6.31601e-06
0.000206291 7.09136e-05 -0.000541106 0.0001365 -0.000125 -1.29955e-06
0.000211453 6.86012e-05 -0.000549899 0.000142423 -0.000118742 -9.73286e-06
0.000217093 6.66042e-05 -0.000559948 0.000147745 -0.000111113 -1.91845e-05
0.000190726 8.64771e-05 -0.000522866 0.00012009 -0.000134149 2.33099e-05
0.000194552 8.40499e-05 -0.000528959 0.000127198 -0.000131984 1.69834e-05
0.000198772 8.15619e-05 -0.000535736 0.000134225 -0.000128595 9.92305e-06
0.000203429 7.90978e-05 -0.000543362 0.000141033 -0.000123843 2.0688e-06
0.000208535 7.67719e-05 -0.000552023 0.000147445 -0.000117633 -6.6869e-06
0.000214143 7.47266e-05 -0.000561947 0.000153249 -0.000109945 -1.65546e-05
0.000188021 9.47812e-05 -0.000525491 0.000123255 -0.000131869 2.74479e-05
0.000191734 9.251e-05 -0.000531526 0.000130812 -0.000129968 2.10278e-05
0.000195855 9.01243e-05 -0.000538213 0.000138326 -0.000126815 1.38097e-05
0.000200428 8.77058e-05 -0.000545719 0.000145654 -0.000122242 5.71784e-06
0.000205472 8.53719e-05 -0.000554241 0.000152605 -0.000116125 -3.36968e-06
0.000211044 8.3272e-05 -0.000564023 0.000158948 -0.000108413 -1.36708e-05
0.000181981 0.000105319 -0.000522727 0.000118474 -0.00012948 3.7559e-05
0.0001852 0.000103454 -0.00052821 0.0001264 -0.000128967 3.1859e-05
0.000188792 0.000101375 -0.000534196 0.00013443 -0.000127373 2.53652e-05
0.000192802 9.91175e-05 -0.000540799 0.00014247 -0.000124499 1.80019e-05
0.000197283 9.67629e-05 -0.000548186 0.000150365 -0.000120158 9.67757e-06
0.000202258 9.44297e-05 -0.000556561 0.000157911 -0.000114186 2.51475e-07
0.000207789 9.2277e-05 -0.000566185 0.00016485 -0.000106499 -1.05051e-05
0.000179184 0.00011411 -0.000525531 0.000121122 -0.000125607 4.22645e-05
0.000182262 0.000112521 -0.000531022 0.000129505 -0.000125406 3.65626e-05
0.00018572 0.000110661 -0.000536971 0.00013805 -0.000124143 3.00188e-05
0.000189609 0.000108563 -0.000543501 0.000146657 -0.000121596 2.25286e-05
0.000193986 0.000106296 -0.000550772 0.000155171 -0.000117541 1.3982e-05
0.000198882 0.000103977 -0.000558996 0.000163377 -0.000111776 4.21484e-06
0.000204366 0.000101775 -0.000568447 0.000170989 -0.000104172 -7.02351e-06
0.000176279 0.000123243 -0.000528406 0.000123715 -0.000120984 4.72477e-05
0.000179204 0.000121972 -0.000533917 0.000132578 -0.000121118 4.15804e-05
0.000182516 0.000120379 -0.00053985 0.000141668 -0.000120218 3.50135e-05
0.000186271 0.000118481 -0.000546321 0.000150887 -0.000118042 2.74214e-05
0.000190532 0.000116335 -0.000553486 0.000160079 -0.000114336 1.86696e-05
0.000195338 0.000114049 -0.000561558 0.000169018 -0.000108847 8.56504e-06
0.000200767 0.000111799 -0.000570826 0.000177392 -0.00010139 -3.17498e-06
0.000170845 0.000133262 -0.000526122 0.000117241 -0.000114271 5.72637e-05
0.000173266 0.000132714 -0.000531341 0.000126253 -0.000115552 5.25211e-05
0.000176026 0.000131817 -0.000536889 0.000135615 -0.00011604 4.69288e-05
0.000179178 0.000130542 -0.000542829 0.000145286 -0.000115527 4.03755e-05
0.000182784 0.000128893 -0.000549262 0.000155167 -0.000113766 3.27152e-05
0.000186914 0.000126909 -0.000556336 0.000165102 -0.000110471 2.37841e-05
0.000191617 0.000124685 -0.000564261 0.000174858 -0.000105339 1.33539e-05
0.000196981 0.000122396 -0.000573337 0.000184097 -9.81125e-05 1.10129e-06
0.000167907 0.000142627 -0.000529012 0.00011925 -0.000107711 6.26898e-05
0.000170147 0.000142532 -0.000534322 0.000128719 -0.000109274 5.80975e-05
0.000172728 0.000142053 -0.000539928 0.000138621 -0.000110103 5.26261e-05
0.000175705 0.000141156 -0.000545898 0.000148912 -0.000109992 4.61322e-05
0.000179145 0.000139816 -0.000552321 0.000159509 -0.000108684 3.84478e-05
0.000183128 0.000138048 -0.000559328 0.000170261 -0.000105864 2.93751e-05
0.000187712 0.000135926 -0.00056712 0.000180931 -0.000101174 1.86425e-05
0.000192998 0.000133618 -0.000576002 0.000191158 -9.42789e-05 5.8763e-06
0.00016488 0.000152256 -0.000531911 0.000121218 -0.000100237 6.83772e-05
0.000166927 0.000152672 -0.000537325 0.000131163 -0.000102064 6.3991e-05
0.000169313 0.000152677 -0.000543016 0.000141619 -0.000103227 5.86908e-05
0.0001721 0.000152219 -0.000549046 0.000152564 -0.000103525 5.23129e-05
0.000175357 0.000151256 -0.000555489 0.000163931 -0.000102695 4.46613e-05
0.000179174 0.000149775 -0.000562462 0.000175583 -0.000100405 3.54988e-05
0.000183619 0.000147816 -0.000570145 0.000187282 -9.62479e-05 2.45036e-05
0.000188812 0.000145521 -0.000578845 0.000198646 -8.98009e-05 1.12383e-05
0 0 0 0 0 0
0 0 0 0 0 0
0 0 0 0 0 0
0 0 0 0 0 0
0 0 0 0 0 0
0 0 0 0 0 0
0 0 0 0 0 0
0 0 0 0 0 0
0 0 0 0 0 0
0 0 0 0 0 0
0 0 0 0 0 0
0 0 0 0 0 0
0 0 0 0 0 0
0 0 0 0 0 0
0 0 0 0 0 0
0 0 0 0 0 0
0 0 0 0 0 0
0 0 0 0 0 0
0 0 0 0 0 0
0 0 0 0 0 0
0 0 0 0 0 0
0 0 0 0 0 0
0 0 0 0 0 0
0 0 0 0 0 0
0 0 0 0 0 0
0 0 0 0 0 0
0 0 0 0 0 0
0 0 0 0 0 0
0 0 0 0 0 0
0 0 0 0 0 0
0 0 0 0 0 0
0 0 0 0 0 0
0 0 0 0 0 0
0 0 0 0 0 0
0 0 0 0 0 0
0 0 0 0 0 0
0 0 0 0 0 0
0 0 0 0 0 0
0 0 0 0 0 0
0 0 0 0 0 0
0 0 0 0 0 0
0 0 0 0 0 0
0 0 0 0 0 0
0 0 0 0 0 0
0 0 0 0 0 0
0 0 0 0 0 0
0 0 0 0 0 0
0 0 0 0 0 0
0 0 0 0 0 0
0 0 0 0 0 0
0 0 0 0 0 0
0 0 0 0 0 0
0 0 0 0 0 0
0 0 0 0 0 0
0 0 0 0 0 0
0 0 0 0 0 0
0 0 0 0 0 0
0 0 0 0 0 0
0 0 0 0 0 0
0 0 0 0 0 0
0 0 0 0 0 0
0 0 0 0 0 0
0 0 0 0 0 0
0 0 0 0 0 0
0 0 0 0 0 0
0 0 0 0 0 0
0 0 0 0 0 0
0 0 0 0 0 0
0 0 0 0 0 0
0 0 0 0 0 0
0 0 0 0 0 0
0 0 0 0 0 0
0 0 0 0 0 0
0 0 0 0 0 0
0 0 0 0 0 0
0 0 0 0 0 0
0 0 0 0 0 0
0.000220441 4.22412e-05 -0.000531154 0.000106077 -0.000149276 2.3916e-05
0.000225759 3.94442e-05 -0.000540011 0.00011008 -0.000143565 2.0112e-05
0.000231536 3.69397e-05 -0.000550076 0.00011372 -0.000136634 1.59913e-05
0.00023774 3.48364e-05 -0.000561542 0.000116879 -0.000128529 1.14697e-05
0.000212877 5.29912e-05 -0.000525384 0.00010549 -0.000153912 2.9962e-05
0.000217686 5.00536e-05 -0.000533084 0.000110053 -0.000149477 2.62589e-05
0.000222925 4.72753e-05 -0.00054181 0.000114339 -0.000143792 2.22816e-05
0.000228638 4.47689e-05 -0.000551744 0.000118266 -0.000136798 1.79528e-05
0.000234795 4.26462e-05 -0.000563094 0.000121696 -0.000128543 1.31892e-05
0.00021009 6.1119e-05 -0.000527515 0.000109208 -0.000153597 3.26317e-05
0.0002148 5.82518e-05 -0.000535104 0.000114089 -0.000149287 2.87691e-05
0.000219953 5.55076e-05 -0.000543687 0.000118704 -0.000143644 2.46122e-05
0.000225597 5.29973e-05 -0.000553479 0.000122947 -0.000136616 2.00624e-05
0.000231705 5.08461e-05 -0.000564697 0.000126669 -0.000128227 1.50367e-05
0.000202983 7.24115e-05 -0.000523105 0.000107604 -0.000155648 3.91597e-05
0.000207175 6.96445e-05 -0.000529752 0.000112991 -0.000152787 3.54829e-05
0.00021178 6.68646e-05 -0.000537213 0.000118213 -0.000148643 3.14685e-05
0.00021684 6.41597e-05 -0.000545652 0.000123178 -0.000143091 2.71186e-05
0.000222408 6.16482e-05 -0.00055529 0.000127768 -0.000136063 2.23347e-05
0.000228461 5.94688e-05 -0.000566361 0.000131826 -0.000127574 1.70277e-05
0.00020006 8.1201e-05 -0.000525531 0.000111075 -0.000154094 4.23367e-05
0.000204128 7.8588e-05 -0.000532092 0.00011682 -0.000151471 3.85392e-05
0.000208618 7.59092e-05 -0.000539423 0.000122419 -0.000147521 3.43704e-05
0.000213578 7.32548e-05 -0.000547711 0.000127768 -0.000142102 2.98199e-05
0.000219064 7.07463e-05 -0.000557182 0.00013274 -0.000135115 2.47883e-05
0.000225057 6.85333e-05 -0.000568094 0.000137171 -0.000126551 1.91836e-05
0.00019701 9.03924e-05 -0.00052806 0.000114573 -0.000151929 4.57315e-05
0.000200944 8.79612e-05 -0.000534533 0.000120705 -0.000149583 4.1822e-05
0.000205311 8.54073e-05 -0.000541741 0.000126712 -0.000145878 3.74962e-05
0.000210162 8.28186e-05 -0.000549873 0.00013248 -0.000140642 3.27382e-05
0.000215558 8.03196e-05 -0.000559167 0.000137877 -0.000133743 2.7445e-05
0.000221485 7.80686e-05 -0.0005699 0.000142723 -0.000125139 2.15265e-05
0.00019043 0.000101975 -0.000524862 0.000111534 -0.000149944 5.29221e-05
0.000193828 9.99932e-05 -0.000530689 0.000118097 -0.000149101 4.93624e-05
0.000197617 9.77831e-05 -0.000537082 0.000124643 -0.000147078 4.53516e-05
0.00020185 9.53821e-05 -0.000544173 0.000131094 -0.000143666 4.08706e-05
0.000206582 9.2879e-05 -0.000552148 0.000137325 -0.000138667 3.58998e-05
0.000211879 9.03996e-05 -0.000561254 0.000143192 -0.000131912 3.0331e-05
0.000217733 8.81129e-05 -0.000571787 0.000148496 -0.000123322 2.40764e-05
0.000187276 0.000111703 -0.000527608 0.000114644 -0.000146078 5.68584e-05
0.000190511 0.000110031 -0.000533416 0.000121627 -0.000145568 5.32514e-05
0.000194144 0.000108071 -0.000539743 0.000128633 -0.000143897 4.91524e-05
0.000198231 0.000105858 -0.000546725 0.000135572 -0.000140828 4.45218e-05
0.000202832 0.000103467 -0.000554546 0.000142315 -0.000136128 3.93351e-05
0.00020802 0.000101022 -0.000563457 0.000148708 -0.000129582 3.34778e-05
0.000213793 9.87033e-05 -0.000573773 0.000154531 -0.000121065 2.68572e-05
0.000183994 0.000121812 -0.000530431 0.000117744 -0.000141411 6.10488e-05
0.000187054 0.000120498 -0.000536234 0.000125177 -0.000141258 5.74232e-05
0.000190518 0.00011884 -0.000542515 0.000132679 -0.000139973 5.32519e-05
0.000194445 0.000116859 -0.000549403 0.000140154 -0.000137297 4.84824e-05
0.000198902 0.000114615 -0.000557077 0.000147466 -0.000132961 4.30804e-05
0.000203969 0.000112226 -0.000565791 0.000154449 -0.000126699 3.69232e-05
0.000209652 0.000109878 -0.000575875 0.000160864 -0.000118326 2.99087e-05
0.000178066 0.000132826 -0.000527875 0.000113104 -0.000134771 6.85589e-05
0.000180584 0.000132303 -0.000533322 0.00012083 -0.000135876 6.55078e-05
0.000183456 0.000131406 -0.000539137 0.000128742 -0.000136103 6.18976e-05
0.000186735 0.000130106 -0.000545394 0.000136786 -0.000135232 5.76798e-05
0.000190487 0.00012841 -0.000552209 0.000144852 -0.000132997 5.27896e-05
0.000194785 0.000126359 -0.00055975 0.000152801 -0.000129094 4.71789e-05
0.000199715 0.000124057 -0.00056827 0.000160452 -0.000123201 4.07131e-05
0.000205296 0.000121693 -0.000578111 0.000167543 -0.00011506 3.32796e-05
0.00017473 0.000143207 -0.000530747 0.000115703 -0.000128021 7.32166e-05
0.000177045 0.000143187 -0.000536265 0.000123886 -0.000129433 7.0252e-05
0.000179712 0.000142757 -0.000542114 0.000132328 -0.000130029 6.66966e-05
0.000182791 0.00014188 -0.000548373 0.000140963 -0.000129589 6.24679e-05
0.00018635 0.000140534 -0.000555142 0.000149688 -0.000127836 5.74857e-05
0.00019047 0.000138735 -0.000562574 0.000158355 -0.000124435 5.16819e-05
0.000195248 0.000136565 -0.000570911 0.000166767 -0.000119006 4.49048e-05
0.000200712 0.000134205 -0.000580503 0.000174641 -0.000111203 3.70279e-05
0.00017128 0.000153897 -0.000533635 0.000118293 -0.000120285 7.81277e-05
0.000173375 0.000154445 -0.000539236 0.000126963 -0.000121987 7.53003e-05
0.000175822 0.000154553 -0.000545148 0.000135961 -0.000122947 7.18419e-05
0.000178683 0.000154166 -0.000551438 0.000145233 -0.000122947 6.76502e-05
0.00018203 0.000153244 -0.000558195 0.000154686 -0.000121706 6.2619e-05
0.000185952 0.000151774 -0.000565551 0.000164165 -0.000118869 5.66515e-05
0.000190555 0.000149804 -0.000573729 0.000173458 -0.000114001 4.95699e-05
0.000195884 0.000147486 -0.000583078 0.00018225 -0.000106661 4.12288e-05
0 0 0 0 0 0
0 0 0 0 0 0
0 0 0 0 0 0
0 0 0 0 0 0
0 0 0 0 0 0
0 0 0 0 0 0
0 0 0 0 0 0
0 0 0 0 0 0
0 0 0 0 0 0
0 0 0 0 0 0
0 0 0 0 0 0
0 0 0 0 0 0
0 0 0 0 0 0
0 0 0 0 0 0
0 0 0 0 0 0
0 0 0 0 0 0
0 0 0 0 0 0
0 0 0 0 0 0
0 0 0 0 0 0
0 0 0 0 0 0
0 0 0 0 0 0
0 0 0 0 0 0
0 0 0 0 0 0
0 0 0 0 0 0
0 0 0 0 0 0
0 0 0 0 0 0
0 0 0 0 0 0
0 0 0 0 0 0
0 0 0 0 0 0
0 0 0 0 0 0
0 0 0 0 0 0
0 0 0 0 0 0
0 0 0 0 0 0
0 0 0 0 0 0
0 0 0 0 0 0
0 0 0 0 0 0
0 0 0 0 0 0
0 0 0 0 0 0
0 0 0 0 0 0
0 0 0 0 0 0
0 0 0 0 0 0
0 0 0 0 0 0
0 0 0 0 0 0
0 0 0 0 0 0
0 0 0 0 0 0
0 0 0 0 0 0
0 0 0 0 0 0
0 0 0 0 0 0
0 0 0 0 0 0
0 0 0 0 0 0
0 0 0 0 0 0
0 0 0 0 0 0
0 0 0 0 0 0
0 0 0 0 0 0
0 0 0 0 0 0
0 0 0 0 0 0
0 0 0 0 0 0
0 0 0 0 0 0
0 0 0 0 0 0
0 0 0 0 0 0
0 0 0 0 0 0
0 0 0 0 0 0
0 0 0 0 0 0
0 0 0 0 0 0
0 0 0 0 0 0
0 0 0 0 0 0
0 0 0 0 0 0
0 0 0 0 0 0
0 0 0 0 0 0
0 0 0 0 0 0
0 0 0 0 0 0
0 0 0 0 0 0
0 0 0 0 0 0
0 0 0 0 0 0
0 0 0 0 0 0
0 0 0 0 0 0
0 0 0 0 0 0
0.000216469 3.31364e-05 -0.00053567 7.96597e-05 -0.000168263 4.04564e-05
0.000222085 3.00713e-05 -0.000545317 8.3272e-05 -0.000161855 3.89066e-05
0.000228212 2.73128e-05 -0.000556314 8.66088e-05 -0.000154135 3.74367e-05
0.000234713 2.49745e-05 -0.000568878 8.95361e-05 -0.000145166 3.58733e-05
0.000208043 4.49196e-05 -0.000529073 7.83332e-05 -0.000173836 4.41606e-05
0.00021312 4.17208e-05 -0.000537427 8.23658e-05 -0.000168793 4.23661e-05
0.000218639 3.86881e-05 -0.000546913 8.62289e-05 -0.000162401 4.0631e-05
0.000224683 3.59408e-05 -0.000557751 8.98339e-05 -0.000154601 3.89633e-05
0.00023112 3.35957e-05 -0.000570171 9.30219e-05 -0.000145459 3.71993e-05
0.000204656 5.384e-05 -0.00053106 8.07793e-05 -0.000173829 4.64134e-05
0.000209615 5.07281e-05 -0.000539273 8.50778e-05 -0.000168912 4.44232e-05
0.00021503 4.77447e-05 -0.000548587 8.92315e-05 -0.000162555 4.24892e-05
0.000220986 4.50069e-05 -0.000559252 9.31282e-05 -0.000154706 4.06042e-05
0.000227354 4.26468e-05 -0.00057151 9.65969e-05 -0.000145406 3.86149e-05
0.000196713 6.61874e-05 -0.000525998 7.86331e-05 -0.000176657 5.0988e-05
0.000201116 6.31963e-05 -0.000533154 8.32397e-05 -0.000173304 4.8837e-05
0.00020595 6.01894e-05 -0.00054121 8.78167e-05 -0.000168557 4.66512e-05
0.000211252 5.72609e-05 -0.000550347 9.22744e-05 -0.000162287 4.44945e-05
0.000217112 5.45361e-05 -0.000560824 9.64894e-05 -0.000154424 4.2372e-05
0.000223406 5.21618e-05 -0.000572903 0.00010028 -0.000145 4.01338e-05
0.000193162 7.58253e-05 -0.000528311 8.0817e-05 -0.000175346 5.3788e-05
0.000197419 7.30101e-05 -0.000535352 8.56935e-05 -0.000172245 5.14572e-05
0.000202117 7.01235e-05 -0.000543249 9.05726e-05 -0.000167701 4.90636e-05
0.000207298 6.72622e-05 -0.000552201 9.5357e-05 -0.000161563 4.66665e-05
0.000213056 6.45553e-05 -0.000562476 9.99191e-05 -0.00015373 4.42829e-05
0.000219267 6.21604e-05 -0.00057436 0.000104067 -0.00014421 4.17751e-05
0.000189458 8.59049e-05 -0.00053073 8.29891e-05 -0.000173392 5.68093e-05
0.000193558 8.32955e-05 -0.000537656 8.81489e-05 -0.000170586 5.43001e-05
0.00019811 8.05547e-05 -0.000545398 9.33445e-05 -0.000166298 5.16853e-05
0.000203161 7.77768e-05 -0.000554159 9.84791e-05 -0.000160348 4.90287e-05
0.000208806 7.50948e-05 -0.000564218 0.00010342 -0.000152596 4.63577e-05
0.000214929 7.26765e-05 -0.000575884 0.000107966 -0.000143016 4.35534e-05
0.00018208 9.85514e-05 -0.000527063 7.98262e-05 -0.000171904 6.25421e-05
0.000185596 9.64351e-05 -0.000533254 8.51511e-05 -0.000170737 6.00728e-05
0.000189526 9.40736e-05 -0.000540073 9.06018e-05 -0.000168276 5.73897e-05
0.000193921 9.15086e-05 -0.000547665 9.61321e-05 -0.000164299 5.45452e-05
0.000198829 8.88355e-05 -0.000556232 0.000101642 -0.000158595 5.16101e-05
0.000204352 8.61893e-05 -0.000566063 0.000106995 -0.000150984 4.86227e-05
0.000210379 8.37501e-05 -0.000577486 0.000111973 -0.000141399 4.54865e-05
0.000178246 0.000109219 -0.000529733 8.16869e-05 -0.000168142 6.61921e-05
0.000181571 0.000107446 -0.000535881 8.72865e-05 -0.000167336 6.3606e-05
0.000185317 0.000105364 -0.000542605 9.30533e-05 -0.000165254 6.07566e-05
0.000189541 0.000103012 -0.000550056 9.89371e-05 -0.000161643 5.76776e-05
0.000194294 0.000100472 -0.000558431 0.000104848 -0.000156252 5.44455e-05
0.000199684 9.78778e-05 -0.000568024 0.00011065 -0.000148854 5.11104e-05
0.000205605 9.54213e-05 -0.000579184 0.00011611 -0.000139331 4.75965e-05
0.000174259 0.00012031 -0.000532484 8.35262e-05 -0.000163528 7.01143e-05
0.000177377 0.000118932 -0.000538603 8.94136e-05 -0.000163113 6.74396e-05
0.000180924 0.000117186 -0.000545254 9.55073e-05 -0.000161449 6.4435e-05
0.00018496 0.000115094 -0.000552578 0.000101765 -0.000158259 6.11227e-05
0.000189544 0.000112725 -0.000560768 0.000108104 -0.000153255 5.75781e-05
0.000194787 0.000110205 -0.000570119 0.000114393 -0.000146151 5.38619e-05
0.000200591 0.000107735 -0.000580997 0.000120391 -0.000136763 4.99194e-05
0.000167602 0.000132342 -0.000529612 7.94339e-05 -0.000157017 7.66403e-05
0.000170116 0.000131825 -0.000535309 8.53517e-05 -0.000157991 7.43232e-05
0.000173009 0.000130907 -0.000541416 9.15339e-05 -0.000157992 7.15972e-05
0.000176339 0.000129557 -0.000548016 9.79729e-05 -0.000156779 6.84619e-05
0.000180169 0.000127784 -0.000555235 0.000104627 -0.000154066 6.49271e-05
0.000184565 0.000125634 -0.000563254 0.000111424 -0.000149526 6.10607e-05
0.000189646 0.000123222 -0.000572363 0.000118241 -0.000142809 5.69301e-05
0.00019532 0.00012075 -0.000582944 0.000124835 -0.000133653 5.25043e-05
0.000163543 0.000143744 -0.000532443 8.09608e-05 -0.000150167 8.11231e-05
0.000165812 0.000143781 -0.00053819 8.71545e-05 -0.000151485 7.88392e-05
0.000168462 0.000143376 -0.000544309 9.36616e-05 -0.000151894 7.61053e-05
0.000171553 0.000142493 -0.000550883 0.000100468 -0.000151155 7.28767e-05
0.000175157 0.000141109 -0.000558025 0.000107545 -0.000148967 6.91439e-05
0.000179344 0.000139242 -0.000565897 0.000114834 -0.000144968 6.49575e-05
0.000184244 0.000136986 -0.000574777 0.000122225 -0.000138743 6.03838e-05
0.000189772 0.000134537 -0.000585052 0.000129479 -0.000129936 5.54137e-05
0.00015934 0.000155501 -0.000535292 8.25056e-05 -0.000142261 8.58806e-05
0.000161345 0.000156162 -0.000541105 8.89897e-05 -0.000143906 8.36856e-05
0.00016373 0.00015635 -0.000547264 9.58285e-05 -0.000144722 8.09882e-05
0.00016656 0.000156007 -0.000553844 0.000103022 -0.00014447 7.77182e-05
0.000169913 0.000155091 -0.000560942 0.000110553 -0.000142844 7.38318e-05
0.000173867 0.000153592 -0.000568701 0.000118373 -0.000139457 6.93471e-05
0.00017856 0.000151564 -0.000577375 0.000126389 -0.000133835 6.43112e-05
0.000183923 0.000149176 -0.00058735 0.000134377 -0.000125515 5.87309e-05
0.000229377 2.36829e-05 -0.000540783 5.00194e-05 -0.000187634 4.32978e-05
0.000235493 2.03407e-05 -0.000551304 5.29186e-05 -0.000180535 4.18821e-05
0.000242178 1.73208e-05 -0.000563314 5.56369e-05 -0.00017203 4.06805e-05
0.000249353 1.47418e-05 -0.000577094 5.81197e-05 -0.000162187 3.94089e-05
0.000220222 3.64975e-05 -0.000533312 4.7541e-05 -0.000194185 4.60504e-05
0.000225734 3.30251e-05 -0.00054239 5.07198e-05 -0.000188543 4.43626e-05
0.000231732 2.97277e-05 -0.000552721 5.38236e-05 -0.00018145 4.27482e-05
0.000238313 2.67312e-05 -0.000564543 5.67711e-05 -0.000172849 4.13321e-05
0.000245402 2.41576e-05 -0.000578152 5.94831e-05 -0.000162808 3.98419e-05
0.000216547 4.61964e-05 -0.00053518 4.79567e-05 -0.000194539 4.74307e-05
0.000221921 4.28258e-05 -0.000544087 5.13416e-05 -0.000189023 4.55389e-05
0.000227793 3.95914e-05 -0.000554215 5.46849e-05 -0.000181959 4.37127e-05
0.000234263 3.66171e-05 -0.000565832 5.78811e-05 -0.000173293 4.20628e-05
0.00024126 3.40412e-05 -0.00057925 6.08394e-05 -0.000163071 4.0329e-05
0.000207944 5.96028e-05 -0.000529438 4.4776e-05 -0.000198192 5.10119e-05
0.000212706 5.63688e-05 -0.000537159 4.83018e-05 -0.000194355 4.89416e-05
0.000217934 5.31185e-05 -0.000545877 5.18978e-05 -0.000189012 4.68484e-05
0.000223671 4.9953e-05 -0.000555794 5.54883e-05 -0.00018203 4.47883e-05
0.000230021 4.70046e-05 -0.000567188 5.89556e-05 -0.000173337 4.28843e-05
0.000236927 4.44257e-05 -0.000580397 6.21894e-05 -0.00016297 4.08794e-05
0.000204096 7.00763e-05 -0.000531672 4.48416e-05 -0.000197185 5.28547e-05
0.000208693 6.70373e-05 -0.000539248 4.85499e-05 -0.000193613 5.06047e-05
0.000213765 6.39239e-05 -0.000547772 5.23709e-05 -0.000188479 4.83008e-05
0.000219358 6.08399e-05 -0.000557469 5.62234e-05 -0.000181629 4.59914e-05
0.000225579 5.79224e-05 -0.000568623 5.9985e-05 -0.000172956 4.38108e-05
0.000232377 5.53396e-05 -0.000581601 6.35313e-05 -0.000162469 4.15128e-05
0.000200081 8.10309e-05 -0.000534017 4.48106e-05 -0.000195506 5.48664e-05
0.000204501 7.82185e-05 -0.000541448 4.87016e-05 -0.000192245 5.24405e-05
0.000209406 7.52683e-05 -0.000549782 5.27503e-05 -0.00018738 4.99158e-05
0.000214845 7.22825e-05 -0.000559249 5.68782e-05 -0.000180719 4.73416e-05
0.000220927 6.94032e-05 -0.000570148 6.09584e-05 -0.000172119 4.48597e-05
0.0002276 6.68084e-05 -0.000582868 6.48698e-05 -0.000161552 4.22439e-05
0.0001921 9.47581e-05 -0.000529884 4.08553e-05 -0.000194579 5.94443e-05
0.000195891 9.24774e-05 -0.000536477 4.46806e-05 -0.000193094 5.70603e-05
0.000200123 8.99353e-05 -0.000543767 4.87457e-05 -0.0001902 5.44657e-05
0.000204849 8.71796e-05 -0.000551916 5.30246e-05 -0.000185661 5.17157e-05
0.000210123 8.4314e-05 -0.000561149 5.74398e-05 -0.000179254 4.88621e-05
0.000216056 8.14839e-05 -0.000571775 6.18631e-05 -0.000170791 4.60533e-05
0.000222603 7.88808e-05 -0.000584208 6.6156e-05 -0.0001602 4.30831e-05
0.00018794 0.000106356 -0.000532525 4.04737e-05 -0.000190994 6.19549e-05
0.000191522 0.000104448 -0.000539048 4.4431e-05 -0.000189901 5.94555e-05
0.000195551 0.00010221 -0.000546212 4.86749e-05 -0.000187412 5.67017e-05
0.000200085 9.96881e-05 -0.000554182 5.3183e-05 -0.00018326 5.37261e-05
0.00020518 9.69716e-05 -0.00056318 5.7894e-05 -0.00017718 5.05805e-05
0.000210953 9.42063e-05 -0.000573522 6.26838e-05 -0.00016893 4.74186e-05
0.000217363 9.15977e-05 -0.000585642 6.74008e-05 -0.000158387 4.40498e-05
0.00018361 0.000118419 -0.000535258 3.99946e-05 -0.000186514 6.46627e-05
0.000186966 0.000116939 -0.000541724 4.40749e-05 -0.000185845 6.20731e-05
0.000190776 0.000115065 -0.000548782 4.8484e-05 -0.000183808 5.91715e-05
0.000195103 0.000112826 -0.000556589 5.32164e-05 -0.000180105 5.59757e-05
0.000200006 0.000110297 -0.000565358 5.82274e-05 -0.00017443 5.25296e-05
0.000205605 0.000107619 -0.000575407 6.34036e-05 -0.000166481 4.89886e-05
0.000211865 0.000105008 -0.000587193 6.85884e-05 -0.000156064 4.51749e-05
0.000176395 0.000131502 -0.000532101 3.55858e-05 -0.000180206 6.98453e-05
0.000179103 0.000130952 -0.000538074 3.94254e-05 -0.000181065 6.75722e-05
0.000182215 0.000129968 -0.000544502 4.36094e-05 -0.00018085 6.49249e-05
0.000185789 0.000128522 -0.000551478 4.81722e-05 -0.000179301 6.18982e-05
0.00018989 0.000126626 -0.000559142 5.31195e-05 -0.00017611 5.84958e-05
0.000194583 0.000124335 -0.000567695 5.84292e-05 -0.000170926 5.47475e-05
0.000199994 0.000121777 -0.00057745 6.40067e-05 -0.000163379 5.08043e-05
0.000206093 0.000119175 -0.00058888 6.97e-05 -0.000153189 4.64992e-05
0.000171972 0.000143922 -0.000534957 3.48449e-05 -0.000173347 7.29586e-05
0.000174414 0.000143971 -0.000540958 3.87548e-05 -0.000174591 7.06935e-05
0.000177262 0.000143544 -0.000547372 4.30433e-05 -0.000174828 6.80238e-05
0.000180578 0.000142601 -0.000554293 4.77463e-05 -0.000173798 6.4904e-05
0.000184432 0.000141123 -0.000561842 5.28951e-05 -0.000171175 6.13195e-05
0.000188897 0.000139136 -0.000570202 5.84951e-05 -0.000166568 5.72776e-05
0.000194101 0.000136748 -0.000579674 6.44813e-05 -0.000159537 5.29158e-05
0.000200022 0.000134175 -0.000590734 7.07189e-05 -0.0001497 4.80721e-05
0.000167381 0.000156742 -0.000537841 3.40602e-05 -0.00016537 7.62515e-05
0.000169536 0.000157468 -0.000543888 3.80283e-05 -0.000166985 7.40389e-05
0.000172097 0.000157681 -0.000550318 4.23979e-05 -0.000167677 7.138e-05
0.000175131 0.000157322 -0.000557216 4.72245e-05 -0.000167186 6.8208e-05
0.000178714 0.000156348 -0.000564685 5.2558e-05 -0.000165176 6.44794e-05
0.000182925 0.000154754 -0.000572888 5.84322e-05 -0.000161228 6.01688e-05
0.000187901 0.000152607 -0.000582097 6.48234e-05 -0.000154836 5.53843e-05
0.000193627 0.000150101 -0.00059279 7.1635e-05 -0.000145501 4.99557e-05
0.000231954 1.39567e-05 -0.000545063 2.86845e-05 -0.000206948 6.06182e-05
0.000238641 1.03207e-05 -0.000556385 2.972e-05 -0.000199201 6.07505e-05
0.000245937 7.02216e-06 -0.000569333 3.06022e-05 -0.000189961 6.11069e-05
0.000253964 4.18551e-06 -0.000584201 3.14902e-05 -0.00017925 6.17926e-05
0.000221947 2.78116e-05 -0.000536802 2.74935e-05 -0.000214384 6.0737e-05
0.000227925 2.40487e-05 -0.000546527 2.87021e-05 -0.00020819 6.06048e-05
0.00023447 2.04687e-05 -0.000557627 2.98263e-05 -0.000200444 6.06113e-05
0.000241639 1.72044e-05 -0.000570352 3.08091e-05 -0.000191094 6.08303e-05
0.00024956 1.43838e-05 -0.000585019 3.17931e-05 -0.000180166 6.13761e-05
0.000217908 3.82816e-05 -0.000538567 2.73378e-05 -0.000215048 6.08924e-05
0.000223721 3.46344e-05 -0.000548085 2.8648e-05 -0.000208984 6.06281e-05
0.000230115 3.11301e-05 -0.000558945 2.98883e-05 -0.000201263 6.05019e-05
0.000237147 2.78993e-05 -0.000571429 3.09822e-05 -0.000191837 6.05724e-05
0.000244967 2.50868e-05 -0.000585872 3.20674e-05 -0.000180711 6.09557e-05
0.000208588 5.27569e-05 -0.000532242 2.56748e-05 -0.000219428 6.15395e-05
0.000213701 4.92626e-05 -0.000540447 2.71221e-05 -0.000215151 6.10916e-05
0.00021934 4.575e-05 -0.00054974 2.85376e-05 -0.000209264 6.07023e-05
0.00022557 4.23271e-05 -0.00056035 2.98965e-05 -0.000201624 6.04291e-05
0.000232456 3.91336e-05 -0.000572572 3.11136e-05 -0.000192164 6.03389e-05
0.000240152 3.63281e-05 -0.000586767 3.23193e-05 -0.000180872 6.05519e-05
0.000204403 6.40584e-05 -0.000534419 2.52751e-05 -0.000218668 6.1908e-05
0.00020932 6.07774e-05 -0.000542443 2.68218e-05 -0.000214669 6.13466e-05
0.000214773 5.74173e-05 -0.000551506 2.83557e-05 -0.000209001 6.08284e-05
0.00022083 5.40889e-05 -0.000561853 2.98434e-05 -0.000201495 6.04002e-05
0.000227558 5.09377e-05 -0.000573792 3.11974e-05 -0.000192048 6.01367e-05
0.000235104 4.81429e-05 -0.000587714 3.25404e-05 -0.000180621 6.01691e-05
0.000200051 7.58803e-05 -0.000536717 2.47892e-05 -0.000217204 6.23366e-05
0.000204761 7.28452e-05 -0.00054456 2.64381e-05 -0.000213534 6.16668e-05
0.000210015 6.96645e-05 -0.000553392 2.80936e-05 -0.000208146 6.10141e-05
0.000215885 6.64477e-05 -0.000563466 2.97203e-05 -0.000200835 6.04238e-05
0.000222443 6.33462e-05 -0.000575102 3.12259e-05 -0.000191459 5.99738e-05
0.000229842 6.05484e-05 -0.00058872 3.27336e-05 -0.000179938 5.98036e-05
0.000191534 9.06989e-05 -0.000532234 2.25203e-05 -0.000216744 6.35455e-05
0.000195528 8.82343e-05 -0.00053914 2.42114e-05 -0.000214975 6.28277e-05
0.000200016 8.54908e-05 -0.000546807 2.59587e-05 -0.000211692 6.20558e-05
0.000205059 8.25219e-05 -0.000555412 2.77409e-05 -0.000206645 6.12682e-05
0.000210728 7.94391e-05 -0.000565204 2.95168e-05 -0.000199598 6.05097e-05
0.000217103 7.63981e-05 -0.000576517 3.11898e-05 -0.00019036 5.98603e-05
0.000224342 7.36021e-05 -0.000589796 3.28687e-05 -0.000178804 5.94708e-05
0.000187077 0.000103219 -0.000534883 2.17469e-05 -0.000213278 6.41843e-05
0.000190828 0.000101155 -0.000541687 2.3518e-05 -0.000211926 6.3388e-05
0.00019508 9.87389e-05 -0.000549191 2.53736e-05 -0.000209074 6.25205e-05
0.000199895 9.60221e-05 -0.000557574 2.72864e-05 -0.000204435 6.15998e-05
0.00020535 9.31028e-05 -0.000567083 2.9221e-05 -0.000197729 6.0669e-05
0.000211526 9.01375e-05 -0.000578056 3.10777e-05 -0.000188708 5.9808e-05
0.00021859 8.7345e-05 -0.000590967 3.29539e-05 -0.000177194 5.91725e-05
0.000182454 0.000116246 -0.000537638 2.087e-05 -0.000208872 6.48854e-05
0.000185946 0.000114641 -0.000544354 2.27165e-05 -0.000207976 6.40252e-05
0.000189944 0.000112614 -0.000551715 2.46731e-05 -0.000205603 6.30669e-05
0.000194515 0.0001102 -0.000559891 2.67179e-05 -0.00020144 6.20181e-05
0.000199738 0.000107483 -0.000569118 2.88194e-05 -0.000195159 6.09141e-05
0.000205701 0.000104616 -0.000579741 3.08764e-05 -0.00018645 5.98308e-05
0.000212575 0.000101829 -0.000592254 3.29761e-05 -0.000175058 5.89244e-05
0.000174893 0.000130394 -0.00053433 1.8113e-05 -0.000202691 6.64112e-05
0.000177661 0.000129787 -0.00054049 1.98876e-05 -0.00020345 6.56444e-05
0.000180874 0.000128711 -0.000547139 2.17951e-05 -0.000203041 6.47376e-05
0.000184599 0.000127141 -0.000554381 2.38473e-05 -0.000201192 6.36998e-05
0.000188906 0.000125093 -0.000562369 2.60232e-05 -0.000197572 6.25318e-05
0.00019388 0.00012263 -0.000571328 2.82973e-05 -0.000191807 6.12575e-05
0.000199612 0.000119893 -0.000581594 3.05703e-05 -0.000183517 5.99448e-05
0.000206279 0.000117121 -0.000593683 3.29207e-05 -0.000172356 5.87461e-05
0.000170224 0.000143821 -0.000537261 1.69643e-05 -0.000195767 6.72546e-05
0.000172692 0.000143857 -0.000543426 1.87767e-05 -0.000196948 6.64628e-05
0.000175606 0.000143379 -0.000550033 2.07488e-05 -0.000197032 6.55244e-05
0.000179035 0.000142346 -0.000557184 2.28887e-05 -0.000195742 6.44214e-05
0.000183056 0.000140741 -0.000565014 2.51911e-05 -0.000192728 6.31475e-05
0.000187759 0.000138599 -0.000573725 2.76398e-05 -0.000187575 6.17114e-05
0.000193241 0.00013604 -0.000583641 3.01419e-05 -0.000179824 6.01674e-05
0.000199683 0.000133302 -0.000595287 3.27714e-05 -0.000169025 5.86579e-05
0.000165395 0.000157693 -0.000540235 1.5727e-05 -0.000187666 6.81384e-05
0.000167541 0.000158454 -0.000546425 1.75663e-05 -0.000189257 6.73425e-05
0.000170131 0.000158661 -0.000553023 1.95811e-05 -0.00018984 6.6382e-05
0.000173239 0.000158251 -0.000560117 2.1794e-05 -0.000189135 6.523e-05
0.000176947 0.000157181 -0.000567824 2.42123e-05 -0.000186781 6.38676e-05
0.000181354 0.000155452 -0.000576322 2.68319e-05 -0.00018233 6.22852e-05
0.000186562 0.000153143 -0.000585908 2.95723e-05 -0.000175251 6.0516e-05
0.000192758 0.000150472 -0.000597106 3.25094e-05 -0.000164973 5.86823e-05
8.71308e-05 0.000207231 -0.000416236 4.47366e-05 0.000169719 9.50654e-06
8.18856e-05 0.000208836 -0.000406389 4.7549e-05 0.000162208 5.20669e-06
7.59283e-05 0.000210499 -0.000394972 5.01709e-05 0.00015463 4.42914e-07
9.70889e-05 0.00019888 -0.000429954 4.26877e-05 0.000181103 1.53264e-05
9.27505e-05 0.000200155 -0.000421868 4.58126e-05 0.000173571 1.13979e-05
8.77729e-05 0.00020146 -0.000412338 4.87884e-05 0.000165816 7.07615e-06
8.20702e-05 0.000202805 -0.000401195 5.157e-05 0.000157958 2.27165e-06
0.000102631 0.0001918 -0.000435358 4.35745e-05 0.000185101 1.73411e-05
9.85876e-05 0.000192766 -0.000427634 4.68849e-05 0.00017735 1.33993e-05
9.38966e-05 0.000193747 -0.000418448 5.0047e-05 0.000169326 9.05362e-06
8.84678e-05 0.000194761 -0.000407603 5.3004e-05 0.000161185 4.20715e-06
0.000111528 0.000183748 -0.000446875 4.08692e-05 0.000196552 2.30646e-05
0.000108373 0.000184399 -0.000440865 4.44505e-05 0.000189009 1.94693e-05
0.000104644 0.000185046 -0.000433538 4.796e-05 0.000181039 1.55199e-05
0.000100262 0.000185688 -0.00042472 5.13238e-05 0.00017275 1.11504e-05
9.51272e-05 0.000186349 -0.000414198 5.44684e-05 0.000164309 6.2597e-06
8.91712e-05 0.000187072 -0.000401752 5.73976e-05 0.000155941 4.13204e-07
0.000117138 0.00017636 -0.000452051 4.1518e-05 0.000200547 2.53124e-05
0.000114318 0.000176684 -0.00044647 4.53031e-05 0.000192838 2.17206e-05
0.000110925 0.000176988 -0.000439571 4.90316e-05 0.000184639 1.77665e-05
0.000106873 0.000177274 -0.00043115 5.26169e-05 0.000176081 1.33749e-05
0.000102056 0.000177561 -0.000420981 5.59744e-05 0.000167339 8.43913e-06
9.63967e-05 0.000177897 -0.000408814 5.9097e-05 0.000158661 2.51871e-06
0.00012293 0.000168652 -0.000457287 4.21255e-05 0.000204433 2.76868e-05
0.000120467 0.000168634 -0.00045217 4.61284e-05 0.000196564 2.41033e-05
0.000117433 0.000168581 -0.000445728 5.00939e-05 0.000188146 2.01475e-05
0.000113737 0.000168491 -0.000437737 5.39237e-05 0.000179314 1.57363e-05
0.000109263 0.00016838 -0.00042795 5.75178e-05 0.000170257 1.07564e-05
0.000103925 0.000168295 -0.000416096 6.08577e-05 0.000161239 4.76275e-06
0.000130506 0.000160972 -0.000466071 3.85301e-05 0.000215527 3.3413e-05
0.000128905 0.000160621 -0.000462571 4.26868e-05 0.000208199 3.01933e-05
0.000126821 0.000160243 -0.000457951 4.69156e-05 0.000200186 2.66262e-05
0.000124171 0.000159815 -0.000452 5.1139e-05 0.000191554 2.26721e-05
0.000120857 0.000159328 -0.000444477 5.52398e-05 0.000182444 1.82448e-05
0.000116755 0.000158794 -0.000435107 5.90988e-05 0.000173061 1.32226e-05
0.000111768 0.000158254 -0.000423599 6.26734e-05 0.000163689 7.1542e-06
0.000136272 0.000152976 -0.00047089 3.88051e-05 0.000219237 3.60417e-05
0.000135061 0.000152256 -0.000467891 4.317e-05 0.000211844 3.28433e-05
0.00013338 0.000151501 -0.000463799 4.76517e-05 0.000203697 2.92984e-05
0.00013114 0.00015068 -0.000458378 5.21558e-05 0.000194859 2.53506e-05
0.000128238 0.000149774 -0.000451363 5.65578e-05 0.000185469 2.09117e-05
0.000124539 0.000148789 -0.000442451 6.07161e-05 0.000175743 1.5851e-05
0.000119935 0.000147776 -0.000431319 6.45615e-05 0.000166003 9.70154e-06
0.000142195 0.00014466 -0.000475703 3.90002e-05 0.000222777 3.88154e-05
0.000141396 0.00014355 -0.000473234 4.35779e-05 0.000215344 3.56513e-05
0.000140142 0.000142398 -0.0004697 4.83196e-05 0.000207088 3.21304e-05
0.000138341 0.000141165 -0.000464849 5.31285e-05 0.000198057 2.81941e-05
0.000135883 0.000139817 -0.00045839 5.78665e-05 0.000188385 2.37495e-05
0.000132622 0.000138353 -0.000449984 6.23651e-05 0.000178301 1.86563e-05
0.000128436 0.00013682 -0.000439263 6.65209e-05 0.000168163 1.24254e-05
0.000148268 0.00013754 -0.000481592 3.45751e-05 0.000232701 4.4497e-05
0.000148269 0.000136021 -0.000480494 3.91031e-05 0.00022613 4.17395e-05
0.000147905 0.000134495 -0.000478578 4.38852e-05 0.000218687 3.86244e-05
0.000147103 0.000132926 -0.000475633 4.88974e-05 0.000210349 3.51339e-05
0.000145772 0.00013126 -0.000471396 5.40345e-05 0.000201144 3.1215e-05
0.000143794 0.000129449 -0.000465547 5.91475e-05 0.000191192 2.6772e-05
0.00014101 0.000127475 -0.000457703 6.40368e-05 0.000180732 2.16545e-05
0.000137285 0.00012538 -0.000447443 6.85539e-05 0.000170162 1.53477e-05
0.000154053 0.000129009 -0.000485827 3.4375e-05 0.000235779 4.75259e-05
0.000154487 0.00012705 -0.000485247 3.9062e-05 0.000229272 4.4828e-05
0.000154581 0.000125087 -0.000483901 4.40666e-05 0.000221854 4.17741e-05
0.000154259 0.000123077 -0.000481576 4.93553e-05 0.000213469 3.83223e-05
0.000153428 0.000120958 -0.000477998 5.48417e-05 0.000204116 3.44278e-05
0.000151968 0.000118662 -0.000472818 6.03712e-05 0.000193892 2.99947e-05
0.000149706 0.000116147 -0.000465604 6.57126e-05 0.000183037 2.48638e-05
0.00014649 0.000113444 -0.000455867 7.06564e-05 0.000171995 1.8492e-05
0.000158791 0.000122657 -0.000489494 2.95791e-05 0.000244115 5.29555e-05
0.000159942 0.000120187 -0.000489996 3.40548e-05 0.000238572 5.07153e-05
0.000160844 0.000117752 -0.000489942 3.88947e-05 0.000232164 4.81007e-05
0.000161417 0.000115326 -0.00048918 4.40965e-05 0.000224806 4.51158e-05
0.000161601 0.000112853 -0.000487503 4.96553e-05 0.000216415 4.17138e-05
0.000161304 0.000110256 -0.000484629 5.55038e-05 0.000206951 3.7852e-05
0.0001604 0.000107447 -0.000480183 6.14922e-05 0.000196476 3.34377e-05
0.000158709 0.000104356 -0.000473682 6.73612e-05 0.000185209 2.831e-05
0.000156059 0.000100998 -0.00046454 7.28147e-05 0.000173651 2.18854e-05
0.000107581 0.000188722 -0.000427751 9.30025e-05 0.000136767 -4.27785e-07
0.000103456 0.000189784 -0.000419921 9.76823e-05 0.000130853 -6.95976e-06
9.87993e-05 0.00019093 -0.00041089 0.000102043 0.000125043 -1.43282e-05
0.000115672 0.000182443 -0.000439313 9.15742e-05 0.000146293 8.64559e-06
0.000112277 0.000183189 -0.000432893 9.67878e-05 0.000140203 2.7647e-06
0.00010838 0.000183977 -0.000425324 0.000101775 0.000134077 -3.83095e-06
0.000103942 0.000184831 -0.000416516 0.000106439 0.000128037 -1.13113e-05
0.000120295 0.000176946 -0.00044428 9.51014e-05 0.000149904 1.20474e-05
0.000117149 0.000177417 -0.000438161 0.000100649 0.000143611 6.13918e-06
0.000113495 0.000177911 -0.000430874 0.000105981 0.00013725 -5.19947e-07
0.000109293 0.00017846 -0.000422308 0.000110982 0.000130973 -8.11535e-06
0.000127501 0.000171007 -0.000454063 9.26976e-05 0.000159769 2.08622e-05
0.00012508 0.000171204 -0.000449347 9.86953e-05 0.000153481 1.56348e-05
0.000122199 0.000171391 -0.000443557 0.000104603 0.00014698 9.7111e-06
0.000118807 0.000171579 -0.000436571 0.000110307 0.00014038 2.9907e-06
0.000114857 0.000171801 -0.000428268 0.000115676 0.000133848 -4.72443e-06
0.000110377 0.000172117 -0.000418572 0.000120556 0.000127581 -1.37217e-05
0.000132168 0.000165311 -0.000458866 9.59767e-05 0.000163496 2.46242e-05
0.000130029 0.000165225 -0.000454511 0.000102341 0.000157034 1.94227e-05
0.00012743 0.000165108 -0.000449075 0.000108642 0.000150311 1.34931e-05
0.000124317 0.000164973 -0.000442415 0.000114755 0.000143465 6.71691e-06
0.000120639 0.000164852 -0.000434397 0.000120536 0.000136673 -1.1192e-06
0.000116417 0.000164808 -0.000424923 0.000125806 0.000130158 -1.03078e-05
0.000136982 0.000159373 -0.000463734 9.92813e-05 0.000167182 2.85833e-05
0.000135141 0.000158992 -0.000459768 0.000106037 0.000160547 2.34238e-05
0.000132843 0.00015856 -0.000454712 0.000112763 0.000153605 1.75002e-05
0.00013003 0.000158085 -0.000448404 0.000119325 0.000146502 1.06766e-05
0.000126645 0.000157598 -0.000440693 0.000125562 0.000139433 2.7219e-06
0.000122703 0.000157159 -0.000431467 0.000131271 0.000132642 -6.66407e-06
0.000143075 0.00015382 -0.000471261 9.55331e-05 0.000177168 3.7158e-05
0.000141944 0.000153188 -0.000468656 0.000102602 0.000170823 3.27488e-05
0.000140419 0.000152501 -0.000465109 0.000109771 0.000164024 2.76511e-05
0.000138442 0.000151741 -0.000460461 0.000116957 0.000156859 2.1749e-05
0.00013595 0.000150908 -0.000454534 0.000124011 0.000149489 1.48897e-05
0.000132881 0.000150031 -0.000447158 0.000130757 0.000142126 6.82018e-06
0.000129243 0.000149167 -0.000438205 0.000136957 0.00013504 -2.77147e-06
0.000147855 0.00014769 -0.000475798 9.84383e-05 0.000180869 4.14469e-05
0.000147051 0.000146754 -0.000473623 0.000105905 0.000174424 3.7133e-05
0.000145863 0.000145746 -0.000470524 0.000113527 0.000167461 3.21178e-05
0.000144228 0.000144642 -0.000466316 0.000121209 0.000160074 2.62567e-05
0.00014208 0.000143434 -0.000460803 0.000128805 0.000152425 1.93781e-05
0.000139351 0.000142143 -0.000453793 0.00013612 0.000144749 1.12019e-05
0.000136043 0.000140834 -0.000445135 0.000142884 0.00013735 1.39183e-06
0.000152761 0.000141316 -0.000480339 0.000101302 0.000184497 4.59405e-05
0.000152302 0.00014006 -0.000478623 0.000109186 0.000177968 4.17496e-05
0.000151471 0.000138718 -0.000475998 0.000117281 0.000170858 3.6837e-05
0.000150201 0.000137258 -0.000472266 0.000125497 0.000163251 3.10411e-05
0.000148422 0.000135657 -0.000467207 0.000133688 0.000155313 2.41657e-05
0.000146061 0.000133925 -0.0004606 0.000141643 0.000147297 1.58966e-05
0.000143112 0.000132129 -0.000452262 0.000149053 0.000139553 5.86262e-06
0.000157582 0.00013623 -0.000485402 9.60901e-05 0.000193968 5.40419e-05
0.000157789 0.000134695 -0.000484875 0.000104095 0.000188042 5.06422e-05
0.000157695 0.000133101 -0.00048364 0.000112405 0.000181452 4.66046e-05
0.000157242 0.000131412 -0.000481518 0.000121 0.000174212 4.18214e-05
0.000156362 0.000129581 -0.000478299 0.000129789 0.000166393 3.61202e-05
0.00015498 0.000127569 -0.000473737 0.000138631 0.000158154 2.92776e-05
0.000153016 0.000125372 -0.000467578 0.000147304 0.000149772 2.09379e-05
0.00015046 0.000123049 -0.000459596 0.000155459 0.000141644 1.06827e-05
0.000162361 0.000129703 -0.000489455 9.83491e-05 0.000197405 5.87837e-05
0.000162935 0.000127819 -0.000489389 0.000106746 0.00019149 5.55599e-05
0.000163226 0.000125872 -0.000488653 0.000115519 0.000184866 5.17048e-05
0.000163175 0.00012382 -0.000487065 0.000124639 0.000177521 4.70822e-05
0.00016271 0.000121604 -0.000484399 0.000134039 0.000169502 4.15111e-05
0.000161754 0.000119167 -0.000480385 0.000143589 0.000160957 3.47399e-05
0.000160221 0.000116479 -0.000474726 0.000153066 0.000152177 2.6363e-05
0.000158094 0.000113586 -0.000467145 0.000162083 0.000143615 1.58991e-05
0.000167238 0.000122941 -0.000493459 0.00010044 0.000200687 6.37126e-05
0.000168195 0.000120684 -0.000493862 0.000109239 0.000194812 6.07038e-05
0.000168892 0.00011837 -0.000493642 0.000118475 0.000188185 5.70567e-05
0.000169266 0.000115941 -0.000492616 0.000128135 0.000180764 5.26309e-05
0.000169245 0.000113324 -0.000490546 0.000138178 0.000172567 4.72323e-05
0.000168747 0.00011044 -0.000487136 0.000148496 0.000163719 4.05813e-05
0.00016768 0.000107231 -0.000482042 0.000158875 0.000154508 3.22181e-05
0.000166025 0.000103726 -0.000474916 0.000168888 0.000145457 2.15685e-05
SCALARS PreDamageArea int 1
LOOKUP_TABLE default
0
0
0
0
0
0
0
0
0
0
0
0
0
0
0
0
0
0
0
0
0
0
0
0
0
0
0
0
0
0
0
0
0
0
0
0
0
0
0
0
0
0
0
0
0
0
0
0
0
0
0
0
0
0
0
0
0
0
0
0
0
0
0
0
0
0
0
0
0
0
0
0
0
0
0
0
0
0
0
0
0
0
0
0
0
0
0
0
0
0
0
0
0
0
0
0
0
0
0
0
0
0
0
0
0
0
0
0
0
0
0
0
0
0
0
0
0
0
0
0
0
0
0
0
0
0
0
0
0
0
0
0
0
0
0
0
0
0
0
0
0
0
0
0
0
0
0
0
0
0
0
0
0
0
0
0
0
0
0
0
0
0
0
0
0
0
0
0
0
0
0
0
0
0
0
0
0
0
0
0
0
0
0
0
0
0
0
0
0
0
0
0
0
0
0
0
0
0
0
0
0
0
0
0
0
0
0
0
0
0
0
0
0
0
0
0
0
0
0
0
0
0
0
0
0
0
0
0
0
0
0
0
0
0
0
0
0
0
0
0
0
0
0
0
0
0
0
0
0
0
0
0
0
0
0
0
0
0
0
0
0
0
0
0
0
0
0
0
0
0
0
0
0
0
0
0
0
0
0
0
0
0
0
0
0
0
0
0
0
0
0
0
0
0
0
0
0
0
0
0
0
0
0
0
0
0
0
0
0
0
0
0
0
0
0
0
0
0
0
0
0
0
0
0
0
0
0
0
0
0
0
0
0
0
0
0
0
0
0
0
0
0
0
0
0
0
0
0
0
0
0
0
0
0
0
0
0
0
0
0
0
0
0
0
0
0
0
0
0
0
0
0
0
0
0
0
0
0
0
0
0
0
0
0
0
0
0
0
0
0
0
0
0
0
0
0
0
0
0
0
0
0
0
0
0
0
0
0
0
0
0
0
0
0
0
0
0
0
0
0
0
0
0
0
0
0
0
0
0
0
0
0
0
0
0
0
0
0
0
0
0
0
0
0
0
0
0
0
0
0
0
0
0
0
0
0
0
0
0
0
0
0
0
0
0
0
0
0
0
0
0
0
0
0
0
0
0
0
0
0
0
0
0
0
0
0
0
0
0
0
0
0
0
0
0
0
0
0
0
0
0
0
0
0
0
0
0
0
0
0
0
0
0
0
0
0
0
0
0
0
0
0
0
0
0
0
0
0
0
0
0
0
0
0
0
0
0
0
0
0
0
0
0
0
0
0
0
0
0
0
0
0
0
0
0
0
0
0
0
0
0
0
0
0
0
0
0
0
0
0
0
0
0
0
0
0
0
0
0
0
0
0
0
0
0
0
0
0
0
0
0
0
0
0
0
0
0
0
0
0
0
0
0
0
0
0
0
0
0
0
0
0
0
0
0
0
0
0
0
0
0
0
0
0
0
0
0
0
0
0
0
0
0
0
0
0
0
0
0
0
0
0
0
0
0
0
0
0
0
0
0
0
0
0
0
0
0
0
0
0
0
0
0
0
0
0
0
0
0
0
0
0
0
0
0
0
0
0
0
0
0
0
0
0
0
0
0
0
0
0
0
0
0
0
0
0
0
0
0
0
0
0
0
0
0
0
0
0
0
0
0
0
0
0
0
0
0
0
0
0
0
0
0
0
0
0
0
0
0
0
0
0
0
0
0
0
0
0
0
0
0
0
0
0
0
0
0
0
0
0
0
0
0
0
0
0
0
0
0
0
0
0
0
0
0
0
0
0
0
0
0
0
0
0
0
0
0
0
0
0
0
0
0
0
0
0
0
0
0
0
0
0
0
0
0
0
0
0
0
0
0
0
0
0
0
0
0
0
0
0
0
0
0
0
0
0
0
0
0
0
0
0
0
0
0
0
0
0
0
0
0
0
0
0
0
0
0
0
0
0
0
0
0
0
0
0
0
0
0
0
0
0
0
0
0
0
0
0
0
0
0
0
0
0
0
0
0
0
0
0
0
0
0
0
0
0
0
0
0
0
0
0
0
0
0
0
0
0
0
0
0
0
0
0
0
0
0
0
0
0
0
0
0
0
0
0
0
0
0
0
0
0
0
0
0
0
0
1
1
1
0
1
1
1
1
0
1
1
1
1
0
1
1
1
1
1
0
1
1
1
1
1
0
1
1
1
1
1
0
1
1
1
1
1
1
0
1
1
1
1
1
0
0
1
1
1
1
1
0
0
1
1
1
1
1
1
0
0
1
1
1
1
1
0
0
0
1
1
1
1
1
0
0
0
0
0
0
0
0
0
0
0
0
0
0
0
0
0
0
0
0
0
0
0
0
0
0
0
0
0
0
0
0
0
0
0
0
0
0
0
0
0
0
0
0
0
0
0
0
0
0
0
0
0
0
0
0
0
0
0
0
0
0
0
0
0
0
0
0
0
0
0
0
0
0
0
0
0
0
0
0
0
0
0
0
0
0
0
0
0
0
0
0
0
0
0
0
0
0
0
0
0
0
0
0
0
0
0
0
0
0
0
0
0
0
0
0
0
0
0
0
0
0
0
0
0
0
0
0
0
0
0
0
0
0
0
0
0
0
0
0
0
0
0
0
0
0
0
0
0
0
0
0
0
0
0
0
0
0
0
0
0
0
0
0
0
0
0
0
0
0
0
0
0
0
0
0
0
0
0
0
0
0
0
0
0
0
0
0
0
0
0
0
0
0
0
0
0
0
0
0
0
0
0
0
0
0
0
0
0
0
0
0
0
0
0
0
0
0
0
0
0
0
0
0
0
0
0
0
0
0
0
0
0
0
0
0
0
0
0
0
0
0
0
0
0
0
0
0
0
0
0
0
0
0
0
0
0
0
0
0
0
0
0
0
0
0
0
0
0
0
0
0
0
0
0
0
0
0
0
0
0
0
0
0
0
0
0
0
0
0
0
0
0
0
0
0
0
0
0
0
0
0
0
0
0
0
0
0
0
0
0
0
0
0
0
0
0
0
0
0
0
0
0
0
0
0
0
0
0
0
0
0
0
0
0
0
0
0
0
0
0
0
0
0
0
0
0
0
0
0
0
0
0
0
0
0
0
0
0
0
0
0
0
0
0
0
0
0
0
0
0
0
0
0
0
0
0
0
0
0
0
0
0
0
0
0
0
0
0
0
0
0
0
0
0
0
0
0
0
0
0
0
0
0
0
0
0
0
0
0
0
0
0
0
0
0
0
0
0
0
0
0
0
0
0
0
0
0
0
0
0
0
0
0
0
0
0
0
0
0
0
0
0
0
0
0
0
0
0
0
0
0
0
0
0
0
0
0
0
0
0
0
0
0
0
0
0
0
0
0
0
0
0
0
0
0
0
0
0
0
0
0
0
0
0
0
0
0
0
0
0
0
0
0
0
0
0
0
0
0
0
0
0
0
0
0
0
0
0
0
0
0
0
0
0
0
0
0
0
0
0
0
0
0
0
0
0
0
0
0
0
0
0
0
0
0
0
0
0
0
0
0
0
0
0
0
0
0
0
0
0
0
0
0
0
0
0
0
0
0
0
0
0
0
0
0
0
0
0
0
0
0
0
0
0
0
0
0
0
0
0
0
0
0
0
0
0
0
0
0
0
0
0
0
0
0
0
0
0
0
0
0
0
0
0
0
0
0
0
0
0
0
0
0
0
0
0
0
0
0
0
0
0
0
0
0
0
0
0
0
0
0
0
0
0
0
0
0
0
0
0
0
0
0
0
0
0
0
0
0
0
0
0
0
0
0
0
0
0
0
0
0
0
0
0
0
0
0
0
0
0
0
0
0
0
0
0
0
0
0
0
0
0
0
0
0
0
0
0
0
0
0
0
0
0
0
0
0
0
0
0
0
0
0
0
0
0
0
0
0
0
0
0
0
0
0
0
0
0
0
0
0
0
0
0
0
0
0
0
0
0
0
0
0
0
0
0
0
0
0
0
0
0
0
0
0
0
0
0
0
0
0
0
0
0
0
0
0
0
0
0
0
0
0
0
0
0
0
0
0
0
0
0
0
0
0
0
0
0
0
0
0
0
0
0
0
0
0
0
0
0
0
0
0
0
0
0
0
0
0
0
0
0
0
0
0
0
0
0
0
0
0
0
0
0
0
0
0
0
0
0
0
0
0
0
0
0
0
0
0
0
0
0
0
0
0
0
0
0
0
0
0
0
0
0
0
0
0
0
0
0
0
0
0
0
0
0
0
0
0
0
0
0
0
0
0
0
0
0
0
0
0
0
0
0
0
0
0
0
0
0
0
0
0
0
0
0
0
0
0
0
0
0
0
0
0
0
0
0
0
0
0
0
0
0
0
0
0
0
0
0
0
0
0
0
0
0
0
0
0
0
0
0
0
0
0
0
0
0
0
0
0
0
0
0
0
0
0
0
0
0
0
0
0
0
0
0
0
0
0
0
0
0
0
0
0
0
0
0
0
0
0
0
0
0
0
0
0
0
0
0
0
0
0
0
0
0
0
0
0
0
0
0
0
0
0
0
0
0
0
0
0
0
0
0
0
0
0
0
0
0
0
0
0
0
0
0
0
0
0
0
0
0
0
0
0
0
0
0
0
0
0
0
0
0
0
0
0
0
0
0
0
0
0
0
0
0
0
0
0
0
0
0
0
0
0
0
0
0
0
0
0
0
0
0
0
0
0
0
0
0
0
0
0
0
0
0
0
0
0
0
0
0
0
0
0
0
0
0
0
0
0
0
0
0
0
0
0
0
0
0
0
0
0
0
0
0
0
0
0
0
0
0
0
0
0
0
0
0
0
0
0
0
0
0
0
0
0
0
0
0
0
0
0
0
0
0
0
0
0
0
0
0
0
0
0
0
0
0
0
0
0
0
0
0
0
0
0
0
0
0
0
0
SCALARS d double 9
LOOKUP_TABLE default
0 0 0 0 0 0 0 0 0
0 0 0 0 0 0 0 0 0
0 0 0 0 0 0 0 0 0
0 0 0 0 0 0 0 0 0
0 0 0 0 0 0 0 0 0
0 0 0 0 0 0 0 0 0
0 0 0 0 0 0 0 0 0
0 0 0 0 0 0 0 0 0
0 0 0 0 0 0 0 0 0
0 0 0 0 0 0 0 0 0
0 0 0 0 0 0 0 0 0
0 0 0 0 0 0 0 0 0
0 0 0 0 0 0 0 0 0
0 0 0 0 0 0 0 0 0
0 0 0 0 0 0 0 0 0
0 0 0 0 0 0 0 0 0
0 0 0 0 0 0 0 0 0
0 0 0 0 0 0 0 0 0
0 0 0 0 0 0 0 0 0
0 0 0 0 0 0 0 0 0
0 0 0 0 0 0 0 0 0
0 0 0 0 0 0 0 0 0
0 0 0 0 0 0 0 0 0
0 0 0 0 0 0 0 0 0
0 0 0 0 0 0 0 0 0
0 0 0 0 0 0 0 0 0
0 0 0 0 0 0 0 0 0
0 0 0 0 0 0 0 0 0
0 0 0 0 0 0 0 0 0
0 0 0 0 0 0 0 0 0
0 0 0 0 0 0 0 0 0
0 0 0 0 0 0 0 0 0
0 0 0 0 0 0 0 0 0
0 0 0 0 0 0 0 0 0
0 0 0 0 0 0 0 0 0
0 0 0 0 0 0 0 0 0
0 0 0 0 0 0 0 0 0
0 0 0 0 0 0 0 0 0
0 0 0 0 0 0 0 0 0
0 0 0 0 0 0 0 0 0
0 0 0 0 0 0 0 0 0
0 0 0 0 0 0 0 0 0
0 0 0 0 0 0 0 0 0
0 0 0 0 0 0 0 0 0
0 0 0 0 0 0 0 0 0
0 0 0 0 0 0 0 0 0
0 0 0 0 0 0 0 0 0
0 0 0 0 0 0 0 0 0
0 0 0 0 0 0 0 0 0
0 0 0 0 0 0 0 0 0
0 0 0 0 0 0 0 0 0
0 0 0 0 0 0 0 0 0
0 0 0 0 0 0 0 0 0
0 0 0 0 0 0 0 0 0
0 0 0 0 0 0 0 0 0
0 0 0 0 0 0 0 0 0
0 0 0 0 0 0 0 0 0
0 0 0 0 0 0 0 0 0
0 0 0 0 0 0 0 0 0
0 0 0 0 0 0 0 0 0
0 0 0 0 0 0 0 0 0
0 0 0 0 0 0 0 0 0
0 0 0 0 0 0 0 0 0
0 0 0 0 0 0 0 0 0
0 0 0 0 0 0 0 0 0
0 0 0 0 0 0 0 0 0
0 0 0 0 0 0 0 0 0
0 0 0 0 0 0 0 0 0
0 0 0 0 0 0 0 0 0
0 0 0 0 0 0 0 0 0
0 0 0 0 0 0 0 0 0
0 0 0 0 0 0 0 0 0
0 0 0 0 0 0 0 0 0
0 0 0 0 0 0 0 0 0
0 0 0 0 0 0 0 0 0
0 0 0 0 0 0 0 0 0
0 0 0 0 0 0 0 0 0
0 0 0 0 0 0 0 0 0
0 0 0 0 0 0 0 0 0
0 0 0 0 0 0 0 0 0
0 0 0 0 0 0 0 0 0
0 0 0 0 0 0 0 0 0
0 0 0 0 0 0 0 0 0
0 0 0 0 0 0 0 0 0
0 0 0 0 0 0 0 0 0
0 0 0 0 0 0 0 0 0
0 0 0 0 0 0 0 0 0
0 0 0 0 0 0 0 0 0
0 0 0 0 0 0 0 0 0
0 0 0 0 0 0 0 0 0
0 0 0 0 0 0 0 0 0
0 0 0 0 0 0 0 0 0
0 0 0 0 0 0 0 0 0
0 0 0 0 0 0 0 0 0
0 0 0 0 0 0 0 0 0
0 0 0 0 0 0 0 0 0
0 0 0 0 0 0 0 0 0
0 0 0 0 0 0 0 0 0
0 0 0 0 0 0 0 0 0
0 0 0 0 0 0 0 0 0
0 0 0 0 0 0 0 0 0
0 0 0 0 0 0 0 0 0
0 0 0 0 0 0 0 0 0
0 0 0 0 0 0 0 0 0
0 0 0 0 0 0 0 0 0
0 0 0 0 0 0 0 0 0
0 0 0 0 0 0 0 0 0
0 0 0 0 0 0 0 0 0
0 0 0 0 0 0 0 0 0
0 0 0 0 0 0 0 0 0
0 0 0 0 0 0 0 0 0
0 0 0 0 0 0 0 0 0
0 0 0 0 0 0 0 0 0
0 0 0 0 0 0 0 0 0
0 0 0 0 0 0 0 0 0
0 0 0 0 0 0 0 0 0
0 0 0 0 0 0 0 0 0
0 0 0 0 0 0 0 0 0
0 0 0 0 0 0 0 0 0
0 0 0 0 0 0 0 0 0
0 0 0 0 0 0 0 0 0
0 0 0 0 0 0 0 0 0
0 0 0 0 0 0 0 0 0
0 0 0 0 0 0 0 0 0
0 0 0 0 0 0 0 0 0
0 0 0 0 0 0 0 0 0
0 0 0 0 0 0 0 0 0
0 0 0 0 0 0 0 0 0
0 0 0 0 0 0 0 0 0
0 0 0 0 0 0 0 0 0
0 0 0 0 0 0 0 0 0
0 0 0 0 0 0 0 0 0
0 0 0 0 0 0 0 0 0
0 0 0 0 0 0 0 0 0
0 0 0 0 0 0 0 0 0
0 0 0 0 0 0 0 0 0
0 0 0 0 0 0 0 0 0
0 0 0 0 0 0 0 0 0
0 0 0 0 0 0 0 0 0
0 0 0 0 0 0 0 0 0
0 0 0 0 0 0 0 0 0
0 0 0 0 0 0 0 0 0
0 0 0 0 0 0 0 0 0
0 0 0 0 0 0 0 0 0
0 0 0 0 0 0 0 0 0
0 0 0 0 0 0 0 0 0
0 0 0 0 0 0 0 0 0
0 0 0 0 0 0 0 0 0
0 0 0 0 0 0 0 0 0
0 0 0 0 0 0 0 0 0
0 0 0 0 0 0 0 0 0
0 0 0 0 0 0 0 0 0
0 0 0 0 0 0 0 0 0
0 0 0 0 0 0 0 0 0
0 0 0 0 0 0 0 0 0
0 0 0 0 0 0 0 0 0
0 0 0 0 0 0 0 0 0
0 0 0 0 0 0 0 0 0
0 0 0 0 0 0 0 0 0
0 0 0 0 0 0 0 0 0
0 0 0 0 0 0 0 0 0
0 0 0 0 0 0 0 0 0
0 0 0 0 0 0 0 0 0
0 0 0 0 0 0 0 0 0
0 0 0 0 0 0 0 0 0
0 0 0 0 0 0 0 0 0
0 0 0 0 0 0 0 0 0
0 0 0 0 0 0 0 0 0
0 0 0 0 0 0 0 0 0
0 0 0 0 0 0 0 0 0
0 0 0 0 0 0 0 0 0
0 0 0 0 0 0 0 0 0
0 0 0 0 0 0 0 0 0
0 0 0 0 0 0 0 0 0
0 0 0 0 0 0 0 0 0
0 0 0 0 0 0 0 0 0
0 0 0 0 0 0 0 0 0
0 0 0 0 0 0 0 0 0
0 0 0 0 0 0 0 0 0
0 0 0 0 0 0 0 0 0
0 0 0 0 0 0 0 0 0
0 0 0 0 0 0 0 0 0
0 0 0 0 0 0 0 0 0
0 0 0 0 0 0 0 0 0
0 0 0 0 0 0 0 0 0
0 0 0 0 0 0 0 0 0
0 0 0 0 0 0 0 0 0
0 0 0 0 0 0 0 0 0
0 0 0 0 0 0 0 0 0
0 0 0 0 0 0 0 0 0
0 0 0 0 0 0 0 0 0
0 0 0 0 0 0 0 0 0
0 0 0 0 0 0 0 0 0
0 0 0 0 0 0 0 0 0
0 0 0 0 0 0 0 0 0
0 0 0 0 0 0 0 0 0
0 0 0 0 0 0 0 0 0
0 0 0 0 0 0 0 0 0
0 0 0 0 0 0 0 0 0
0 0 0 0 0 0 0 0 0
0 0 0 0 0 0 0 0 0
0 0 0 0 0 0 0 0 0
0 0 0 0 0 0 0 0 0
0 0 0 0 0 0 0 0 0
0 0 0 0 0 0 0 0 0
0 0 0 0 0 0 0 0 0
0 0 0 0 0 0 0 0 0
0 0 0 0 0 0 0 0 0
0 0 0 0 0 0 0 0 0
0 0 0 0 0 0 0 0 0
0 0 0 0 0 0 0 0 0
0 0 0 0 0 0 0 0 0
0 0 0 0 0 0 0 0 0
0 0 0 0 0 0 0 0 0
0 0 0 0 0 0 0 0 0
0 0 0 0 0 0 0 0 0
0 0 0 0 0 0 0 0 0
0 0 0 0 0 0 0 0 0
0 0 0 0 0 0 0 0 0
0 0 0 0 0 0 0 0 0
0 0 0 0 0 0 0 0 0
0 0 0 0 0 0 0 0 0
0 0 0 0 0 0 0 0 0
0 0 0 0 0 0 0 0 0
0 0 0 0 0 0 0 0 0
0 0 0 0 0 0 0 0 0
0 0 0 0 0 0 0 0 0
0 0 0 0 0 0 0 0 0
0 0 0 0 0 0 0 0 0
0 0 0 0 0 0 0 0 0
0 0 0 0 0 0 0 0 0
0 0 0 0 0 0 0 0 0
0 0 0 0 0 0 0 0 0
0 0 0 0 0 0 0 0 0
0 0 0 0 0 0 0 0 0
0 0 0 0 0 0 0 0 0
0 0 0 0 0 0 0 0 0
0 0 0 0 0 0 0 0 0
0 0 0 0 0 0 0 0 0
0 0 0 0 0 0 0 0 0
0 0 0 0 0 0 0 0 0
0 0 0 0 0 0 0 0 0
0 0 0 0 0 0 0 0 0
0 0 0 0 0 0 0 0 0
0 0 0 0 0 0 0 0 0
0 0 0 0 0 0 0 0 0
0 0 0 0 0 0 0 0 0
0 0 0 0 0 0 0 0 0
0 0 0 0 0 0 0 0 0
0 0 0 0 0 0 0 0 0
0 0 0 0 0 0 0 0 0
0 0 0 0 0 0 0 0 0
0 0 0 0 0 0 0 0 0
0 0 0 0 0 0 0 0 0
0 0 0 0 0 0 0 0 0
0 0 0 0 0 0 0 0 0
0 0 0 0 0 0 0 0 0
0 0 0 0 0 0 0 0 0
0 0 0 0 0 0 0 0 0
0 0 0 0 0 0 0 0 0
0 0 0 0 0 0 0 0 0
0 0 0 0 0 0 0 0 0
0 0 0 0 0 0 0 0 0
0 0 0 0 0 0 0 0 0
0 0 0 0 0 0 0 0 0
0 0 0 0 0 0 0 0 0
0 0 0 0 0 0 0 0 0
0 0 0 0 0 0 0 0 0
0 0 0 0 0 0 0 0 0
0 0 0 0 0 0 0 0 0
0 0 0 0 0 0 0 0 0
0 0 0 0 0 0 0 0 0
0 0 0 0 0 0 0 0 0
0 0 0 0 0 0 0 0 0
0 0 0 0 0 0 0 0 0
0 0 0 0 0 0 0 0 0
0 0 0 0 0 0 0 0 0
0 0 0 0 0 0 0 0 0
0 0 0 0 0 0 0 0 0
0 0 0 0 0 0 0 0 0
0 0 0 0 0 0 0 0 0
0 0 0 0 0 0 0 0 0
0 0 0 0 0 0 0 0 0
0 0 0 0 0 0 0 0 0
0 0 0 0 0 0 0 0 0
0 0 0 0 0 0 0 0 0
0 0 0 0 0 0 0 0 0
0 0 0 0 0 0 0 0 0
0 0 0 0 0 0 0 0 0
0 0 0 0 0 0 0 0 0
0 0 0 0 0 0 0 0 0
0 0 0 0 0 0 0 0 0
0 0 0 0 0 0 0 0 0
0 0 0 0 0 0 0 0 0
0 0 0 0 0 0 0 0 0
0 0 0 0 0 0 0 0 0
0 0 0 0 0 0 0 0 0
0 0 0 0 0 0 0 0 0
0 0 0 0 0 0 0 0 0
0 0 0 0 0 0 0 0 0
0 0 0 0 0 0 0 0 0
0 0 0 0 0 0 0 0 0
0 0 0 0 0 0 0 0 0
0 0 0 0 0 0 0 0 0
0 0 0 0 0 0 0 0 0
0 0 0 0 0 0 0 0 0
0 0 0 0 0 0 0 0 0
0 0 0 0 0 0 0 0 0
0 0 0 0 0 0 0 0 0
0 0 0 0 0 0 0 0 0
0 0 0 0 0 0 0 0 0
0 0 0 0 0 0 0 0 0
0 0 0 0 0 0 0 0 0
0 0 0 0 0 0 0 0 0
0 0 0 0 0 0 0 0 0
0 0 0 0 0 0 0 0 0
0 0 0 0 0 0 0 0 0
0 0 0 0 0 0 0 0 0
0 0 0 0 0 0 0 0 0
0 0 0 0 0 0 0 0 0
0 0 0 0 0 0 0 0 0
0 0 0 0 0 0 0 0 0
0 0 0 0 0 0 0 0 0
0 0 0 0 0 0 0 0 0
0 0 0 0 0 0 0 0 0
0 0 0 0 0 0 0 0 0
0 0 0 0 0 0 0 0 0
0 0 0 0 0 0 0 0 0
0 0 0 0 0 0 0 0 0
0 0 0 0 0 0 0 0 0
0 0 0 0 0 0 0 0 0
0 0 0 0 0 0 0 0 0
0 0 0 0 0 0 0 0 0
0 0 0 0 0 0 0 0 0
0 0 0 0 0 0 0 0 0
0 0 0 0 0 0 0 0 0
0 0 0 0 0 0 0 0 0
0 0 0 0 0 0 0 0 0
0 0 0 0 0 0 0 0 0
0 0 0 0 0 0 0 0 0
0 0 0 0 0 0 0 0 0
0 0 0 0 0 0 0 0 0
0 0 0 0 0 0 0 0 0
0 0 0 0 0 0 0 0 0
0 0 0 0 0 0 0 0 0
0 0 0 0 0 0 0 0 0
0 0 0 0 0 0 0 0 0
0 0 0 0 0 0 0 0 0
0 0 0 0 0 0 0 0 0
0 0 0 0 0 0 0 0 0
0 0 0 0 0 0 0 0 0
0 0 0 0 0 0 0 0 0
0 0 0 0 0 0 0 0 0
0 0 0 0 0 0 0 0 0
0 0 0 0 0 0 0 0 0
0 0 0 0 0 0 0 0 0
0 0 0 0 0 0 0 0 0
0 0 0 0 0 0 0 0 0
0 0 0 0 0 0 0 0 0
0 0 0 0 0 0 0 0 0
0 0 0 0 0 0 0 0 0
0 0 0 0 0 0 0 0 0
0 0 0 0 0 0 0 0 0
0 0 0 0 0 0 0 0 0
0 0 0 0 0 0 0 0 0
0 0 0 0 0 0 0 0 0
0 0 0 0 0 0 0 0 0
0 0 0 0 0 0 0 0 0
0 0 0 0 0 0 0 0 0
0 0 0 0 0 0 0 0 0
0 0 0 0 0 0 0 0 0
0 0 0 0 0 0 0 0 0
0 0 0 0 0 0 0 0 0
0 0 0 0 0 0 0 0 0
0 0 0 0 0 0 0 0 0
0 0 0 0 0 0 0 0 0
0 0 0 0 0 0 0 0 0
0 0 0 0 0 0 0 0 0
0 0 0 0 0 0 0 0 0
0 0 0 0 0 0 0 0 0
0 0 0 0 0 0 0 0 0
0 0 0 0 0 0 0 0 0
0 0 0 0 0 0 0 0 0
0 0 0 0 0 0 0 0 0
0 0 0 0 0 0 0 0 0
0 0 0 0 0 0 0 0 0
0 0 0 0 0 0 0 0 0
0 0 0 0 0 0 0 0 0
0 0 0 0 0 0 0 0 0
0 0 0 0 0 0 0 0 0
0 0 0 0 0 0 0 0 0
0 0 0 0 0 0 0 0 0
0 0 0 0 0 0 0 0 0
0 0 0 0 0 0 0 0 0
0 0 0 0 0 0 0 0 0
0 0 0 0 0 0 0 0 0
0 0 0 0 0 0 0 0 0
0 0 0 0 0 0 0 0 0
0 0 0 0 0 0 0 0 0
0 0 0 0 0 0 0 0 0
0 0 0 0 0 0 0 0 0
0 0 0 0 0 0 0 0 0
0 0 0 0 0 0 0 0 0
0 0 0 0 0 0 0 0 0
0 0 0 0 0 0 0 0 0
0 0 0 0 0 0 0 0 0
0 0 0 0 0 0 0 0 0
0 0 0 0 0 0 0 0 0
0 0 0 0 0 0 0 0 0
0 0 0 0 0 0 0 0 0
0 0 0 0 0 0 0 0 0
0 0 0 0 0 0 0 0 0
0 0 0 0 0 0 0 0 0
0 0 0 0 0 0 0 0 0
0 0 0 0 0 0 0 0 0
0 0 0 0 0 0 0 0 0
0 0 0 0 0 0 0 0 0
0 0 0 0 0 0 0 0 0
0 0 0 0 0 0 0 0 0
0 0 0 0 0 0 0 0 0
0 0 0 0 0 0 0 0 0
0 0 0 0 0 0 0 0 0
0 0 0 0 0 0 0 0 0
0 0 0 0 0 0 0 0 0
0 0 0 0 0 0 0 0 0
0 0 0 0 0 0 0 0 0
0 0 0 0 0 0 0 0 0
0 0 0 0 0 0 0 0 0
0 0 0 0 0 0 0 0 0
0 0 0 0 0 0 0 0 0
0 0 0 0 0 0 0 0 0
0 0 0 0 0 0 0 0 0
0 0 0 0 0 0 0 0 0
0 0 0 0 0 0 0 0 0
0 0 0 0 0 0 0 0 0
0 0 0 0 0 0 0 0 0
0 0 0 0 0 0 0 0 0
0 0 0 0 0 0 0 0 0
0 0 0 0 0 0 0 0 0
0 0 0 0 0 0 0 0 0
0 0 0 0 0 0 0 0 0
0 0 0 0 0 0 0 0 0
0 0 0 0 0 0 0 0 0
0 0 0 0 0 0 0 0 0
0 0 0 0 0 0 0 0 0
0 0 0 0 0 0 0 0 0
0 0 0 0 0 0 0 0 0
0 0 0 0 0 0 0 0 0
0 0 0 0 0 0 0 0 0
0 0 0 0 0 0 0 0 0
0 0 0 0 0 0 0 0 0
0 0 0 0 0 0 0 0 0
0 0 0 0 0 0 0 0 0
0 0 0 0 0 0 0 0 0
0 0 0 0 0 0 0 0 0
0 0 0 0 0 0 0 0 0
0 0 0 0 0 0 0 0 0
0 0 0 0 0 0 0 0 0
0 0 0 0 0 0 0 0 0
0 0 0 0 0 0 0 0 0
0 0 0 0 0 0 0 0 0
0 0 0 0 0 0 0 0 0
0 0 0 0 0 0 0 0 0
0 0 0 0 0 0 0 0 0
0 0 0 0 0 0 0 0 0
0 0 0 0 0 0 0 0 0
0 0 0 0 0 0 0 0 0
0 0 0 0 0 0 0 0 0
0 0 0 0 0 0 0 0 0
0 0 0 0 0 0 0 0 0
0 0 0 0 0 0 0 0 0
0 0 0 0 0 0 0 0 0
0 0 0 0 0 0 0 0 0
0 0 0 0 0 0 0 0 0
0 0 0 0 0 0 0 0 0
0 0 0 0 0 0 0 0 0
0 0 0 0 0 0 0 0 0
0 0 0 0 0 0 0 0 0
0 0 0 0 0 0 0 0 0
0 0 0 0 0 0 0 0 0
0 0 0 0 0 0 0 0 0
0 0 0 0 0 0 0 0 0
0 0 0 0 0 0 0 0 0
0 0 0 0 0 0 0 0 0
0 0 0 0 0 0 0 0 0
0 0 0 0 0 0 0 0 0
0 0 0 0 0 0 0 0 0
0 0 0 0 0 0 0 0 0
0 0 0 0 0 0 0 0 0
0 0 0 0 0 0 0 0 0
0 0 0 0 0 0 0 0 0
0 0 0 0 0 0 0 0 0
0 0 0 0 0 0 0 0 0
0 0 0 0 0 0 0 0 0
0 0 0 0 0 0 0 0 0
0 0 0 0 0 0 0 0 0
0 0 0 0 0 0 0 0 0
0 0 0 0 0 0 0 0 0
0 0 0 0 0 0 0 0 0
0 0 0 0 0 0 0 0 0
0 0 0 0 0 0 0 0 0
0 0 0 0 0 0 0 0 0
0 0 0 0 0 0 0 0 0
0 0 0 0 0 0 0 0 0
0 0 0 0 0 0 0 0 0
0 0 0 0 0 0 0 0 0
0 0 0 0 0 0 0 0 0
0 0 0 0 0 0 0 0 0
0 0 0 0 0 0 0 0 0
0 0 0 0 0 0 0 0 0
0 0 0 0 0 0 0 0 0
0 0 0 0 0 0 0 0 0
0 0 0 0 0 0 0 0 0
0 0 0 0 0 0 0 0 0
0 0 0 0 0 0 0 0 0
0 0 0 0 0 0 0 0 0
0 0 0 0 0 0 0 0 0
0 0 0 0 0 0 0 0 0
0 0 0 0 0 0 0 0 0
0 0 0 0 0 0 0 0 0
0 0 0 0 0 0 0 0 0
0 0 0 0 0 0 0 0 0
0 0 0 0 0 0 0 0 0
0 0 0 0 0 0 0 0 0
0 0 0 0 0 0 0 0 0
0 0 0 0 0 0 0 0 0
0 0 0 0 0 0 0 0 0
0 0 0 0 0 0 0 0 0
0 0 0 0 0 0 0 0 0
0 0 0 0 0 0 0 0 0
0 0 0 0 0 0 0 0 0
0 0 0 0 0 0 0 0 0
0 0 0 0 0 0 0 0 0
0 0 0 0 0 0 0 0 0
0 0 0 0 0 0 0 0 0
0 0 0 0 0 0 0 0 0
0 0 0 0 0 0 0 0 0
0 0 0 0 0 0 0 0 0
0 0 0 0 0 0 0 0 0
0 0 0 0 0 0 0 0 0
0 0 0 0 0 0 0 0 0
0 0 0 0 0 0 0 0 0
0 0 0 0 0 0 0 0 0
0 0 0 0 0 0 0 0 0
0 0 0 0 0 0 0 0 0
0 0 0 0 0 0 0 0 0
0 0 0 0 0 0 0 0 0
0 0 0 0 0 0 0 0 0
0 0 0 0 0 0 0 0 0
0 0 0 0 0 0 0 0 0
0 0 0 0 0 0 0 0 0
0 0 0 0 0 0 0 0 0
0 0 0 0 0 0 0 0 0
0 0 0 0 0 0 0 0 0
0 0 0 0 0 0 0 0 0
0 0 0 0 0 0 0 0 0
0 0 0 0 0 0 0 0 0
0 0 0 0 0 0 0 0 0
0 0 0 0 0 0 0 0 0
0 0 0 0 0 0 0 0 0
0 0 0 0 0 0 0 0 0
0 0 0 0 0 0 0 0 0
0 0 0 0 0 0 0 0 0
0 0 0 0 0 0 0 0 0
0 0 0 0 0 0 0 0 0
0 0 0 0 0 0 0 0 0
0 0 0 0 0 0 0 0 0
0 0 0 0 0 0 0 0 0
0 0 0 0 0 0 0 0 0
0 0 0 0 0 0 0 0 0
0 0 0 0 0 0 0 0 0
0 0 0 0 0 0 0 0 0
0 0 0 0 0 0 0 0 0
0 0 0 0 0 0 0 0 0
0 0 0 0 0 0 0 0 0
0 0 0 0 0 0 0 0 0
0 0 0 0 0 0 0 0 0
0 0 0 0 0 0 0 0 0
0 0 0 0 0 0 0 0 0
0 0 0 0 0 0 0 0 0
0 0 0 0 0 0 0 0 0
0 0 0 0 0 0 0 0 0
0 0 0 0 0 0 0 0 0
0 0 0 0 0 0 0 0 0
0 0 0 0 0 0 0 0 0
0 0 0 0 0 0 0 0 0
0 0 0 0 0 0 0 0 0
0 0 0 0 0 0 0 0 0
0 0 0 0 0 0 0 0 0
0 0 0 0 0 0 0 0 0
0 0 0 0 0 0 0 0 0
0 0 0 0 0 0 0 0 0
0 0 0 0 0 0 0 0 0
0 0 0 0 0 0 0 0 0
0 0 0 0 0 0 0 0 0
0 0 0 0 0 0 0 0 0
0 0 0 0 0 0 0 0 0
0 0 0 0 0 0 0 0 0
0 0 0 0 0 0 0 0 0
0 0 0 0 0 0 0 0 0
0 0 0 0 0 0 0 0 0
0 0 0 0 0 0 0 0 0
0 0 0 0 0 0 0 0 0
0 0 0 0 0 0 0 0 0
0 0 0 0 0 0 0 0 0
0 0 0 0 0 0 0 0 0
0 0 0 0 0 0 0 0 0
0 0 0 0 0 0 0 0 0
0 0 0 0 0 0 0 0 0
0 0 0 0 0 0 0 0 0
0 0 0 0 0 0 0 0 0
0 0 0 0 0 0 0 0 0
0 0 0 0 0 0 0 0 0
0 0 0 0 0 0 0 0 0
0 0 0 0 0 0 0 0 0
0 0 0 0 0 0 0 0 0
0 0 0 0 0 0 0 0 0
0 0 0 0 0 0 0 0 0
0 0 0 0 0 0 0 0 0
0 0 0 0 0 0 0 0 0
0 0 0 0 0 0 0 0 0
0 0 0 0 0 0 0 0 0
0 0 0 0 0 0 0 0 0
0 0 0 0 0 0 0 0 0
0 0 0 0 0 0 0 0 0
0 0 0 0 0 0 0 0 0
0 0 0 0 0 0 0 0 0
0 0 0 0 0 0 0 0 0
0 0 0 0 0 0 0 0 0
0 0 0 0 0 0 0 0 0
0 0 0 0 0 0 0 0 0
0 0 0 0 0 0 0 0 0
0 0 0 0 0 0 0 0 0
0 0 0 0 0 0 0 0 0
0 0 0 0 0 0 0 0 0
0 0 0 0 0 0 0 0 0
0 0 0 0 0 0 0 0 0
0 0 0 0 0 0 0 0 0
0 0 0 0 0 0 0 0 0
0 0 0 0 0 0 0 0 0
0 0 0 0 0 0 0 0 0
0 0 0 0 0 0 0 0 0
0 0 0 0 0 0 0 0 0
0 0 0 0 0 0 0 0 0
0 0 0 0 0 0 0 0 0
0 0 0 0 0 0 0 0 0
0 0 0 0 0 0 0 0 0
0 0 0 0 0 0 0 0 0
0 0 0 0 0 0 0 0 0
0 0 0 0 0 0 0 0 0
0 0 0 0 0 0 0 0 0
0 0 0 0 0 0 0 0 0
0 0 0 0 0 0 0 0 0
0 0 0 0 0 0 0 0 0
0 0 0 0 0 0 0 0 0
0 0 0 0 0 0 0 0 0
0 0 0 0 0 0 0 0 0
0 0 0 0 0 0 0 0 0
0 0 0 0 0 0 0 0 0
0 0 0 0 0 0 0 0 0
0 0 0 0 0 0 0 0 0
0 0 0 0 0 0 0 0 0
0 0 0 0 0 0 0 0 0
0 0 0 0 0 0 0 0 0
0 0 0 0 0 0 0 0 0
0 0 0 0 0 0 0 0 0
0 0 0 0 0 0 0 0 0
0 0 0 0 0 0 0 0 0
0 0 0 0 0 0 0 0 0
0 0 0 0 0 0 0 0 0
0 0 0 0 0 0 0 0 0
0 0 0 0 0 0 0 0 0
0 0 0 0 0 0 0 0 0
0 0 0 0 0 0 0 0 0
0 0 0 0 0 0 0 0 0
0 0 0 0 0 0 0 0 0
0 0 0 0 0 0 0 0 0
0 0 0 0 0 0 0 0 0
0 0 0 0 0 0 0 0 0
0 0 0 0 0 0 0 0 0
0 0 0 0 0 0 0 0 0
0 0 0 0 0 0 0 0 0
0 0 0 0 0 0 0 0 0
0 0 0 0 0 0 0 0 0
0 0 0 0 0 0 0 0 0
0 0 0 0 0 0 0 0 0
0 0 0 0 0 0 0 0 0
0 0 0 0 0 0 0 0 0
0 0 0 0 0 0 0 0 0
0 0 0 0 0 0 0 0 0
0 0 0 0 0 0 0 0 0
0 0 0 0 0 0 0 0 0
0 0 0 0 0 0 0 0 0
0 0 0 0 0 0 0 0 0
0 0 0 0 0 0 0 0 0
0 0 0 0 0 0 0 0 0
0 0 0 0 0 0 0 0 0
0 0 0 0 0 0 0 0 0
0 0 0 0 0 0 0 0 0
0 0 0 0 0 0 0 0 0
0 0 0 0 0 0 0 0 0
0 0 0 0 0 0 0 0 0
0 0 0 0 0 0 0 0 0
0 0 0 0 0 0 0 0 0
0 0 0 0 0 0 0 0 0
0 0 0 0 0 0 0 0 0
0 0 0 0 0 0 0 0 0
0 0 0 0 0 0 0 0 0
0 0 0 0 0 0 0 0 0
0 0 0 0 0 0 0 0 0
0 0 0 0 0 0 0 0 0
0 0 0 0 0 0 0 0 0
0 0 0 0 0 0 0 0 0
0 0 0 0 0 0 0 0 0
0 0 0 0 0 0 0 0 0
0 0 0 0 0 0 0 0 0
0 0 0 0 0 0 0 0 0
0 0 0 0 0 0 0 0 0
0 0 0 0 0 0 0 0 0
0 0 0 0 0 0 0 0 0
0 0 0 0 0 0 0 0 0
0 0 0 0 0 0 0 0 0
0 0 0 0 0 0 0 0 0
0 0 0 0 0 0 0 0 0
0 0 0 0 0 0 0 0 0
0 0 0 0 0 0 0 0 0
0 0 0 0 0 0 0 0 0
0 0 0 0 0 0 0 0 0
0 0 0 0 0 0 0 0 0
0 0 0 0 0 0 0 0 0
0 0 0 0 0 0 0 0 0
0 0 0 0 0 0 0 0 0
0 0 0 0 0 0 0 0 0
0 0 0 0 0 0 0 0 0
0 0 0 0 0 0 0 0 0
0 0 0 0 0 0 0 0 0
0 0 0 0 0 0 0 0 0
0 0 0 0 0 0 0 0 0
0 0 0 0 0 0 0 0 0
0 0 0 0 0 0 0 0 0
0 0 0 0 0 0 0 0 0
0 0 0 0 0 0 0 0 0
0 0 0 0 0 0 0 0 0
0 0 0 0 0 0 0 0 0
0 0 0 0 0 0 0 0 0
0 0 0 0 0 0 0 0 0
0 0 0 0 0 0 0 0 0
0 0 0 0 0 0 0 0 0
0 0 0 0 0 0 0 0 0
0 0 0 0 0 0 0 0 0
0 0 0 0 0 0 0 0 0
0 0 0 0 0 0 0 0 0
0 0 0 0 0 0 0 0 0
0 0 0 0 0 0 0 0 0
0 0 0 0 0 0 0 0 0
0 0 0 0 0 0 0 0 0
0 0 0 0 0 0 0 0 0
0 0 0 0 0 0 0 0 0
0 0 0 0 0 0 0 0 0
0 0 0 0 0 0 0 0 0
0 0 0 0 0 0 0 0 0
0 0 0 0 0 0 0 0 0
0 0 0 0 0 0 0 0 0
0 0 0 0 0 0 0 0 0
0 0 0 0 0 0 0 0 0
0 0 0 0 0 0 0 0 0
0 0 0 0 0 0 0 0 0
0 0 0 0 0 0 0 0 0
0 0 0 0 0 0 0 0 0
0 0 0 0 0 0 0 0 0
0 0 0 0 0 0 0 0 0
0 0 0 0 0 0 0 0 0
0 0 0 0 0 0 0 0 0
0 0 0 0 0 0 0 0 0
0 0 0 0 0 0 0 0 0
0 0 0 0 0 0 0 0 0
0 0 0 0 0 0 0 0 0
0 0 0 0 0 0 0 0 0
0 0 0 0 0 0 0 0 0
0 0 0 0 0 0 0 0 0
0 0 0 0 0 0 0 0 0
0 0 0 0 0 0 0 0 0
0 0 0 0 0 0 0 0 0
0 0 0 0 0 0 0 0 0
0 0 0 0 0 0 0 0 0
0 0 0 0 0 0 0 0 0
0 0 0 0 0 0 0 0 0
0 0 0 0 0 0 0 0 0
0 0 0 0 0 0 0 0 0
0 0 0 0 0 0 0 0 0
0 0 0 0 0 0 0 0 0
0 0 0 0 0 0 0 0 0
0 0 0 0 0 0 0 0 0
0 0 0 0 0 0 0 0 0
0 0 0 0 0 0 0 0 0
0 0 0 0 0 0 0 0 0
0 0 0 0 0 0 0 0 0
0 0 0 0 0 0 0 0 0
0 0 0 0 0 0 0 0 0
0 0 0 0 0 0 0 0 0
0 0 0 0 0 0 0 0 0
0 0 0 0 0 0 0 0 0
0 0 0 0 0 0 0 0 0
0 0 0 0 0 0 0 0 0
0 0 0 0 0 0 0 0 0
0 0 0 0 0 0 0 0 0
0 0 0 0 0 0 0 0 0
0 0 0 0 0 0 0 0 0
0 0 0 0 0 0 0 0 0
0 0 0 0 0 0 0 0 0
0 0 0 0 0 0 0 0 0
0 0 0 0 0 0 0 0 0
0 0 0 0 0 0 0 0 0
0 0 0 0 0 0 0 0 0
0 0 0 0 0 0 0 0 0
0 0 0 0 0 0 0 0 0
0 0 0 0 0 0 0 0 0
0 0 0 0 0 0 0 0 0
0 0 0 0 0 0 0 0 0
0 0 0 0 0 0 0 0 0
0 0 0 0 0 0 0 0 0
0 0 0 0 0 0 0 0 0
0 0 0 0 0 0 0 0 0
0 0 0 0 0 0 0 0 0
0 0 0 0 0 0 0 0 0
0 0 0 0 0 0 0 0 0
0 0 0 0 0 0 0 0 0
0 0 0 0 0 0 0 0 0
0 0 0 0 0 0 0 0 0
0 0 0 0 0 0 0 0 0
0 0 0 0 0 0 0 0 0
0 0 0 0 0 0 0 0 0
0 0 0 0 0 0 0 0 0
0 0 0 0 0 0 0 0 0
0 0 0 0 0 0 0 0 0
0 0 0 0 0 0 0 0 0
0 0 0 0 0 0 0 0 0
0 0 0 0 0 0 0 0 0
0 0 0 0 0 0 0 0 0
0 0 0 0 0 0 0 0 0
0 0 0 0 0 0 0 0 0
0 0 0 0 0 0 0 0 0
0 0 0 0 0 0 0 0 0
0 0 0 0 0 0 0 0 0
0 0 0 0 0 0 0 0 0
0 0 0 0 0 0 0 0 0
0 0 0 0 0 0 0 0 0
0 0 0 0 0 0 0 0 0
0 0 0 0 0 0 0 0 0
0 0 0 0 0 0 0 0 0
0 0 0 0 0 0 0 0 0
0 0 0 0 0 0 0 0 0
0 0 0 0 0 0 0 0 0
0 0 0 0 0 0 0 0 0
0 0 0 0 0 0 0 0 0
0 0 0 0 0 0 0 0 0
0 0 0 0 0 0 0 0 0
0 0 0 0 0 0 0 0 0
0 0 0 0 0 0 0 0 0
0 0 0 0 0 0 0 0 0
0 0 0 0 0 0 0 0 0
0 0 0 0 0 0 0 0 0
0 0 0 0 0 0 0 0 0
0 0 0 0 0 0 0 0 0
0 0 0 0 0 0 0 0 0
0 0 0 0 0 0 0 0 0
0 0 0 0 0 0 0 0 0
0 0 0 0 0 0 0 0 0
0 0 0 0 0 0 0 0 0
0 0 0 0 0 0 0 0 0
0 0 0 0 0 0 0 0 0
0 0 0 0 0 0 0 0 0
0 0 0 0 0 0 0 0 0
0 0 0 0 0 0 0 0 0
0 0 0 0 0 0 0 0 0
0 0 0 0 0 0 0 0 0
0 0 0 0 0 0 0 0 0
0 0 0 0 0 0 0 0 0
0 0 0 0 0 0 0 0 0
0 0 0 0 0 0 0 0 0
0 0 0 0 0 0 0 0 0
0 0 0 0 0 0 0 0 0
0 0 0 0 0 0 0 0 0
0 0 0 0 0 0 0 0 0
0 0 0 0 0 0 0 0 0
0 0 0 0 0 0 0 0 0
0 0 0 0 0 0 0 0 0
0 0 0 0 0 0 0 0 0
0 0 0 0 0 0 0 0 0
0 0 0 0 0 0 0 0 0
0 0 0 0 0 0 0 0 0
0 0 0 0 0 0 0 0 0
0 0 0 0 0 0 0 0 0
0 0 0 0 0 0 0 0 0
0 0 0 0 0 0 0 0 0
0 0 0 0 0 0 0 0 0
0 0 0 0 0 0 0 0 0
0 0 0 0 0 0 0 0 0
0 0 0 0 0 0 0 0 0
0 0 0 0 0 0 0 0 0
0 0 0 0 0 0 0 0 0
0 0 0 0 0 0 0 0 0
0 0 0 0 0 0 0 0 0
0 0 0 0 0 0 0 0 0
0 0 0 0 0 0 0 0 0
0 0 0 0 0 0 0 0 0
0 0 0 0 0 0 0 0 0
0 0 0 0 0 0 0 0 0
0 0 0 0 0 0 0 0 0
0 0 0 0 0 0 0 0 0
0 0 0 0 0 0 0 0 0
0 0 0 0 0 0 0 0 0
0 0 0 0 0 0 0 0 0
0 0 0 0 0 0 0 0 0
0 0 0 0 0 0 0 0 0
0 0 0 0 0 0 0 0 0
0 0 0 0 0 0 0 0 0
0 0 0 0 0 0 0 0 0
0 0 0 0 0 0 0 0 0
0 0 0 0 0 0 0 0 0
0 0 0 0 0 0 0 0 0
0 0 0 0 0 0 0 0 0
0 0 0 0 0 0 0 0 0
0 0 0 0 0 0 0 0 0
0 0 0 0 0 0 0 0 0
0 0 0 0 0 0 0 0 0
0 0 0 0 0 0 0 0 0
0 0 0 0 0 0 0 0 0
0 0 0 0 0 0 0 0 0
0 0 0 0 0 0 0 0 0
0 0 0 0 0 0 0 0 0
0 0 0 0 0 0 0 0 0
0 0 0 0 0 0 0 0 0
0 0 0 0 0 0 0 0 0
0 0 0 0 0 0 0 0 0
0 0 0 0 0 0 0 0 0
0 0 0 0 0 0 0 0 0
0 0 0 0 0 0 0 0 0
0 0 0 0 0 0 0 0 0
0 0 0 0 0 0 0 0 0
0 0 0 0 0 0 0 0 0
0 0 0 0 0 0 0 0 0
0 0 0 0 0 0 0 0 0
0 0 0 0 0 0 0 0 0
0 0 0 0 0 0 0 0 0
0 0 0 0 0 0 0 0 0
0 0 0 0 0 0 0 0 0
0 0 0 0 0 0 0 0 0
0 0 0 0 0 0 0 0 0
0 0 0 0 0 0 0 0 0
0 0 0 0 0 0 0 0 0
0 0 0 0 0 0 0 0 0
0 0 0 0 0 0 0 0 0
0 0 0 0 0 0 0 0 0
0 0 0 0 0 0 0 0 0
0 0 0 0 0 0 0 0 0
0 0 0 0 0 0 0 0 0
0 0 0 0 0 0 0 0 0
0 0 0 0 0 0 0 0 0
0 0 0 0 0 0 0 0 0
0 0 0 0 0 0 0 0 0
0 0 0 0 0 0 0 0 0
0 0 0 0 0 0 0 0 0
0 0 0 0 0 0 0 0 0
0 0 0 0 0 0 0 0 0
0 0 0 0 0 0 0 0 0
0 0 0 0 0 0 0 0 0
0 0 0 0 0 0 0 0 0
0 0 0 0 0 0 0 0 0
0 0 0 0 0 0 0 0 0
0 0 0 0 0 0 0 0 0
0 0 0 0 0 0 0 0 0
0 0 0 0 0 0 0 0 0
0 0 0 0 0 0 0 0 0
0 0 0 0 0 0 0 0 0
0 0 0 0 0 0 0 0 0
0 0 0 0 0 0 0 0 0
0 0 0 0 0 0 0 0 0
0 0 0 0 0 0 0 0 0
0 0 0 0 0 0 0 0 0
0 0 0 0 0 0 0 0 0
0 0 0 0 0 0 0 0 0
0 0 0 0 0 0 0 0 0
0 0 0 0 0 0 0 0 0
0 0 0 0 0 0 0 0 0
0 0 0 0 0 0 0 0 0
0 0 0 0 0 0 0 0 0
0 0 0 0 0 0 0 0 0
0 0 0 0 0 0 0 0 0
0 0 0 0 0 0 0 0 0
0 0 0 0 0 0 0 0 0
0 0 0 0 0 0 0 0 0
0 0 0 0 0 0 0 0 0
0 0 0 0 0 0 0 0 0
0 0 0 0 0 0 0 0 0
0 0 0 0 0 0 0 0 0
0 0 0 0 0 0 0 0 0
0 0 0 0 0 0 0 0 0
0 0 0 0 0 0 0 0 0
0 0 0 0 0 0 0 0 0
0 0 0 0 0 0 0 0 0
0 0 0 0 0 0 0 0 0
0 0 0 0 0 0 0 0 0
0 0 0 0 0 0 0 0 0
0 0 0 0 0 0 0 0 0
0 0 0 0 0 0 0 0 0
0 0 0 0 0 0 0 0 0
0 0 0 0 0 0 0 0 0
0 0 0 0 0 0 0 0 0
0 0 0 0 0 0 0 0 0
0 0 0 0 0 0 0 0 0
0 0 0 0 0 0 0 0 0
0 0 0 0 0 0 0 0 0
0 0 0 0 0 0 0 0 0
0 0 0 0 0 0 0 0 0
0 0 0 0 0 0 0 0 0
0 0 0 0 0 0 0 0 0
0 0 0 0 0 0 0 0 0
0 0 0 0 0 0 0 0 0
0 0 0 0 0 0 0 0 0
0 0 0 0 0 0 0 0 0
0 0 0 0 0 0 0 0 0
0 0 0 0 0 0 0 0 0
0 0 0 0 0 0 0 0 0
0 0 0 0 0 0 0 0 0
0 0 0 0 0 0 0 0 0
0 0 0 0 0 0 0 0 0
0 0 0 0 0 0 0 0 0
0 0 0 0 0 0 0 0 0
0 0 0 0 0 0 0 0 0
0 0 0 0 0 0 0 0 0
0 0 0 0 0 0 0 0 0
0 0 0 0 0 0 0 0 0
0 0 0 0 0 0 0 0 0
0 0 0 0 0 0 0 0 0
0 0 0 0 0 0 0 0 0
0 0 0 0 0 0 0 0 0
0 0 0 0 0 0 0 0 0
0 0 0 0 0 0 0 0 0
0 0 0 0 0 0 0 0 0
0 0 0 0 0 0 0 0 0
0 0 0 0 0 0 0 0 0
0 0 0 0 0 0 0 0 0
0 0 0 0 0 0 0 0 0
0 0 0 0 0 0 0 0 0
0 0 0 0 0 0 0 0 0
0 0 0 0 0 0 0 0 0
0 0 0 0 0 0 0 0 0
0 0 0 0 0 0 0 0 0
0 0 0 0 0 0 0 0 0
0 0 0 0 0 0 0 0 0
0 0 0 0 0 0 0 0 0
0 0 0 0 0 0 0 0 0
0 0 0 0 0 0 0 0 0
0 0 0 0 0 0 0 0 0
0 0 0 0 0 0 0 0 0
0 0 0 0 0 0 0 0 0
0 0 0 0 0 0 0 0 0
0 0 0 0 0 0 0 0 0
0 0 0 0 0 0 0 0 0
0 0 0 0 0 0 0 0 0
0 0 0 0 0 0 0 0 0
0 0 0 0 0 0 0 0 0
0 0 0 0 0 0 0 0 0
0 0 0 0 0 0 0 0 0
0 0 0 0 0 0 0 0 0
0 0 0 0 0 0 0 0 0
0 0 0 0 0 0 0 0 0
0 0 0 0 0 0 0 0 0
0 0 0 0 0 0 0 0 0
0 0 0 0 0 0 0 0 0
0 0 0 0 0 0 0 0 0
0 0 0 0 0 0 0 0 0
0 0 0 0 0 0 0 0 0
0 0 0 0 0 0 0 0 0
0 0 0 0 0 0 0 0 0
0 0 0 0 0 0 0 0 0
0 0 0 0 0 0 0 0 0
0 0 0 0 0 0 0 0 0
0 0 0 0 0 0 0 0 0
0 0 0 0 0 0 0 0 0
0 0 0 0 0 0 0 0 0
0 0 0 0 0 0 0 0 0
0 0 0 0 0 0 0 0 0
0 0 0 0 0 0 0 0 0
0 0 0 0 0 0 0 0 0
0 0 0 0 0 0 0 0 0
0 0 0 0 0 0 0 0 0
0 0 0 0 0 0 0 0 0
0 0 0 0 0 0 0 0 0
0 0 0 0 0 0 0 0 0
0 0 0 0 0 0 0 0 0
0 0 0 0 0 0 0 0 0
0 0 0 0 0 0 0 0 0
0 0 0 0 0 0 0 0 0
0 0 0 0 0 0 0 0 0
0 0 0 0 0 0 0 0 0
0 0 0 0 0 0 0 0 0
0 0 0 0 0 0 0 0 0
0 0 0 0 0 0 0 0 0
0 0 0 0 0 0 0 0 0
0 0 0 0 0 0 0 0 0
0 0 0 0 0 0 0 0 0
0 0 0 0 0 0 0 0 0
0 0 0 0 0 0 0 0 0
0 0 0 0 0 0 0 0 0
0 0 0 0 0 0 0 0 0
0 0 0 0 0 0 0 0 0
0 0 0 0 0 0 0 0 0
0 0 0 0 0 0 0 0 0
0 0 0 0 0 0 0 0 0
0 0 0 0 0 0 0 0 0
0 0 0 0 0 0 0 0 0
0 0 0 0 0 0 0 0 0
0 0 0 0 0 0 0 0 0
0 0 0 0 0 0 0 0 0
0 0 0 0 0 0 0 0 0
0 0 0 0 0 0 0 0 0
0 0 0 0 0 0 0 0 0
0 0 0 0 0 0 0 0 0
0 0 0 0 0 0 0 0 0
0 0 0 0 0 0 0 0 0
0 0 0 0 0 0 0 0 0
0 0 0 0 0 0 0 0 0
0 0 0 0 0 0 0 0 0
0 0 0 0 0 0 0 0 0
0 0 0 0 0 0 0 0 0
0 0 0 0 0 0 0 0 0
0 0 0 0 0 0 0 0 0
0 0 0 0 0 0 0 0 0
0 0 0 0 0 0 0 0 0
0 0 0 0 0 0 0 0 0
0 0 0 0 0 0 0 0 0
0 0 0 0 0 0 0 0 0
0 0 0 0 0 0 0 0 0
0 0 0 0 0 0 0 0 0
0 0 0 0 0 0 0 0 0
0 0 0 0 0 0 0 0 0
0 0 0 0 0 0 0 0 0
0 0 0 0 0 0 0 0 0
0 0 0 0 0 0 0 0 0
0 0 0 0 0 0 0 0 0
0 0 0 0 0 0 0 0 0
0 0 0 0 0 0 0 0 0
0 0 0 0 0 0 0 0 0
0 0 0 0 0 0 0 0 0
0 0 0 0 0 0 0 0 0
0 0 0 0 0 0 0 0 0
0 0 0 0 0 0 0 0 0
0 0 0 0 0 0 0 0 0
0 0 0 0 0 0 0 0 0
0 0 0 0 0 0 0 0 0
0 0 0 0 0 0 0 0 0
0 0 0 0 0 0 0 0 0
0 0 0 0 0 0 0 0 0
0 0 0 0 0 0 0 0 0
0 0 0 0 0 0 0 0 0
0 0 0 0 0 0 0 0 0
0 0 0 0 0 0 0 0 0
0 0 0 0 0 0 0 0 0
0 0 0 0 0 0 0 0 0
0 0 0 0 0 0 0 0 0
0 0 0 0 0 0 0 0 0
0 0 0 0 0 0 0 0 0
0 0 0 0 0 0 0 0 0
0 0 0 0 0 0 0 0 0
0 0 0 0 0 0 0 0 0
0 0 0 0 0 0 0 0 0
0 0 0 0 0 0 0 0 0
0 0 0 0 0 0 0 0 0
0 0 0 0 0 0 0 0 0
0 0 0 0 0 0 0 0 0
0 0 0 0 0 0 0 0 0
0 0 0 0 0 0 0 0 0
0 0 0 0 0 0 0 0 0
0 0 0 0 0 0 0 0 0
0 0 0 0 0 0 0 0 0
0 0 0 0 0 0 0 0 0
0 0 0 0 0 0 0 0 0
0 0 0 0 0 0 0 0 0
0 0 0 0 0 0 0 0 0
0 0 0 0 0 0 0 0 0
0 0 0 0 0 0 0 0 0
0 0 0 0 0 0 0 0 0
0 0 0 0 0 0 0 0 0
0 0 0 0 0 0 0 0 0
0 0 0 0 0 0 0 0 0
0 0 0 0 0 0 0 0 0
0 0 0 0 0 0 0 0 0
0 0 0 0 0 0 0 0 0
0 0 0 0 0 0 0 0 0
0 0 0 0 0 0 0 0 0
0 0 0 0 0 0 0 0 0
0 0 0 0 0 0 0 0 0
0 0 0 0 0 0 0 0 0
0 0 0 0 0 0 0 0 0
0 0 0 0 0 0 0 0 0
0 0 0 0 0 0 0 0 0
0 0 0 0 0 0 0 0 0
0 0 0 0 0 0 0 0 0
0 0 0 0 0 0 0 0 0
0 0 0 0 0 0 0 0 0
0 0 0 0 0 0 0 0 0
0 0 0 0 0 0 0 0 0
0 0 0 0 0 0 0 0 0
0 0 0 0 0 0 0 0 0
0 0 0 0 0 0 0 0 0
0 0 0 0 0 0 0 0 0
0 0 0 0 0 0 0 0 0
0 0 0 0 0 0 0 0 0
0 0 0 0 0 0 0 0 0
0 0 0 0 0 0 0 0 0
0 0 0 0 0 0 0 0 0
0 0 0 0 0 0 0 0 0
0 0 0 0 0 0 0 0 0
0 0 0 0 0 0 0 0 0
0 0 0 0 0 0 0 0 0
0 0 0 0 0 0 0 0 0
0 0 0 0 0 0 0 0 0
0 0 0 0 0 0 0 0 0
0 0 0 0 0 0 0 0 0
0 0 0 0 0 0 0 0 0
0 0 0 0 0 0 0 0 0
0 0 0 0 0 0 0 0 0
0 0 0 0 0 0 0 0 0
0 0 0 0 0 0 0 0 0
0 0 0 0 0 0 0 0 0
0 0 0 0 0 0 0 0 0
0 0 0 0 0 0 0 0 0
0 0 0 0 0 0 0 0 0
0 0 0 0 0 0 0 0 0
0 0 0 0 0 0 0 0 0
0 0 0 0 0 0 0 0 0
0 0 0 0 0 0 0 0 0
0 0 0 0 0 0 0 0 0
0 0 0 0 0 0 0 0 0
0 0 0 0 0 0 0 0 0
0 0 0 0 0 0 0 0 0
0 0 0 0 0 0 0 0 0
0 0 0 0 0 0 0 0 0
0 0 0 0 0 0 0 0 0
0 0 0 0 0 0 0 0 0
0 0 0 0 0 0 0 0 0
0 0 0 0 0 0 0 0 0
0 0 0 0 0 0 0 0 0
0 0 0 0 0 0 0 0 0
0 0 0 0 0 0 0 0 0
0 0 0 0 0 0 0 0 0
0 0 0 0 0 0 0 0 0
0 0 0 0 0 0 0 0 0
0 0 0 0 0 0 0 0 0
0 0 0 0 0 0 0 0 0
0 0 0 0 0 0 0 0 0
0 0 0 0 0 0 0 0 0
0 0 0 0 0 0 0 0 0
0 0 0 0 0 0 0 0 0
0 0 0 0 0 0 0 0 0
0 0 0 0 0 0 0 0 0
0 0 0 0 0 0 0 0 0
0 0 0 0 0 0 0 0 0
0 0 0 0 0 0 0 0 0
0 0 0 0 0 0 0 0 0
0 0 0 0 0 0 0 0 0
0 0 0 0 0 0 0 0 0
0 0 0 0 0 0 0 0 0
0 0 0 0 0 0 0 0 0
0 0 0 0 0 0 0 0 0
0 0 0 0 0 0 0 0 0
0 0 0 0 0 0 0 0 0
0 0 0 0 0 0 0 0 0
0 0 0 0 0 0 0 0 0
0 0 0 0 0 0 0 0 0
0 0 0 0 0 0 0 0 0
0 0 0 0 0 0 0 0 0
0 0 0 0 0 0 0 0 0
0 0 0 0 0 0 0 0 0
0 0 0 0 0 0 0 0 0
0 0 0 0 0 0 0 0 0
0 0 0 0 0 0 0 0 0
0 0 0 0 0 0 0 0 0
0 0 0 0 0 0 0 0 0
0 0 0 0 0 0 0 0 0
0 0 0 0 0 0 0 0 0
0 0 0 0 0 0 0 0 0
0 0 0 0 0 0 0 0 0
0 0 0 0 0 0 0 0 0
0 0 0 0 0 0 0 0 0
0 0 0 0 0 0 0 0 0
0 0 0 0 0 0 0 0 0
0 0 0 0 0 0 0 0 0
0 0 0 0 0 0 0 0 0
0 0 0 0 0 0 0 0 0
0 0 0 0 0 0 0 0 0
0 0 0 0 0 0 0 0 0
0 0 0 0 0 0 0 0 0
0 0 0 0 0 0 0 0 0
0 0 0 0 0 0 0 0 0
0 0 0 0 0 0 0 0 0
0 0 0 0 0 0 0 0 0
0 0 0 0 0 0 0 0 0
0 0 0 0 0 0 0 0 0
0 0 0 0 0 0 0 0 0
0 0 0 0 0 0 0 0 0
0 0 0 0 0 0 0 0 0
0 0 0 0 0 0 0 0 0
0 0 0 0 0 0 0 0 0
0 0 0 0 0 0 0 0 0
0 0 0 0 0 0 0 0 0
0 0 0 0 0 0 0 0 0
0 0 0 0 0 0 0 0 0
0 0 0 0 0 0 0 0 0
0 0 0 0 0 0 0 0 0
0 0 0 0 0 0 0 0 0
0 0 0 0 0 0 0 0 0
0 0 0 0 0 0 0 0 0
0 0 0 0 0 0 0 0 0
0 0 0 0 0 0 0 0 0
0 0 0 0 0 0 0 0 0
0 0 0 0 0 0 0 0 0
0 0 0 0 0 0 0 0 0
0 0 0 0 0 0 0 0 0
0 0 0 0 0 0 0 0 0
0 0 0 0 0 0 0 0 0
0 0 0 0 0 0 0 0 0
0 0 0 0 0 0 0 0 0
0 0 0 0 0 0 0 0 0
0 0 0 0 0 0 0 0 0
0 0 0 0 0 0 0 0 0
0 0 0 0 0 0 0 0 0
0 0 0 0 0 0 0 0 0
0 0 0 0 0 0 0 0 0
0 0 0 0 0 0 0 0 0
0 0 0 0 0 0 0 0 0
0 0 0 0 0 0 0 0 0
0 0 0 0 0 0 0 0 0
0 0 0 0 0 0 0 0 0
0 0 0 0 0 0 0 0 0
0 0 0 0 0 0 0 0 0
0 0 0 0 0 0 0 0 0
0 0 0 0 0 0 0 0 0
0 0 0 0 0 0 0 0 0
0 0 0 0 0 0 0 0 0
0 0 0 0 0 0 0 0 0
0 0 0 0 0 0 0 0 0
0 0 0 0 0 0 0 0 0
0 0 0 0 0 0 0 0 0
0 0 0 0 0 0 0 0 0
0 0 0 0 0 0 0 0 0
0 0 0 0 0 0 0 0 0
0 0 0 0 0 0 0 0 0
0 0 0 0 0 0 0 0 0
0 0 0 0 0 0 0 0 0
0 0 0 0 0 0 0 0 0
0 0 0 0 0 0 0 0 0
0 0 0 0 0 0 0 0 0
0 0 0 0 0 0 0 0 0
0 0 0 0 0 0 0 0 0
0 0 0 0 0 0 0 0 0
0 0 0 0 0 0 0 0 0
0 0 0 0 0 0 0 0 0
0 0 0 0 0 0 0 0 0
0 0 0 0 0 0 0 0 0
0 0 0 0 0 0 0 0 0
0 0 0 0 0 0 0 0 0
0 0 0 0 0 0 0 0 0
0 0 0 0 0 0 0 0 0
0 0 0 0 0 0 0 0 0
0 0 0 0 0 0 0 0 0
0 0 0 0 0 0 0 0 0
0 0 0 0 0 0 0 0 0
0 0 0 0 0 0 0 0 0
0 0 0 0 0 0 0 0 0
0 0 0 0 0 0 0 0 0
0 0 0 0 0 0 0 0 0
0 0 0 0 0 0 0 0 0
0 0 0 0 0 0 0 0 0
0 0 0 0 0 0 0 0 0
0 0 0 0 0 0 0 0 0
0 0 0 0 0 0 0 0 0
0 0 0 0 0 0 0 0 0
0 0 0 0 0 0 0 0 0
0 0 0 0 0 0 0 0 0
0 0 0 0 0 0 0 0 0
0 0 0 0 0 0 0 0 0
0 0 0 0 0 0 0 0 0
0 0 0 0 0 0 0 0 0
0 0 0 0 0 0 0 0 0
0 0 0 0 0 0 0 0 0
0 0 0 0 0 0 0 0 0
0 0 0 0 0 0 0 0 0
0 0 0 0 0 0 0 0 0
0 0 0 0 0 0 0 0 0
0 0 0 0 0 0 0 0 0
0 0 0 0 0 0 0 0 0
0 0 0 0 0 0 0 0 0
0 0 0 0 0 0 0 0 0
0 0 0 0 0 0 0 0 0
0 0 0 0 0 0 0 0 0
0 0 0 0 0 0 0 0 0
0 0 0 0 0 0 0 0 0
0 0 0 0 0 0 0 0 0
0 0 0 0 0 0 0 0 0
0 0 0 0 0 0 0 0 0
0 0 0 0 0 0 0 0 0
0 0 0 0 0 0 0 0 0
0 0 0 0 0 0 0 0 0
0 0 0 0 0 0 0 0 0
0 0 0 0 0 0 0 0 0
0 0 0 0 0 0 0 0 0
0 0 0 0 0 0 0 0 0
0 0 0 0 0 0 0 0 0
0 0 0 0 0 0 0 0 0
0 0 0 0 0 0 0 0 0
0 0 0 0 0 0 0 0 0
0 0 0 0 0 0 0 0 0
0 0 0 0 0 0 0 0 0
0 0 0 0 0 0 0 0 0
0 0 0 0 0 0 0 0 0
0 0 0 0 0 0 0 0 0
0 0 0 0 0 0 0 0 0
0 0 0 0 0 0 0 0 0
0 0 0 0 0 0 0 0 0
0 0 0 0 0 0 0 0 0
0 0 0 0 0 0 0 0 0
0 0 0 0 0 0 0 0 0
0 0 0 0 0 0 0 0 0
0 0 0 0 0 0 0 0 0
0 0 0 0 0 0 0 0 0
0 0 0 0 0 0 0 0 0
0 0 0 0 0 0 0 0 0
0 0 0 0 0 0 0 0 0
0 0 0 0 0 0 0 0 0
0 0 0 0 0 0 0 0 0
0 0 0 0 0 0 0 0 0
0 0 0 0 0 0 0 0 0
0 0 0 0 0 0 0 0 0
0 0 0 0 0 0 0 0 0
0 0 0 0 0 0 0 0 0
0 0 0 0 0 0 0 0 0
0 0 0 0 0 0 0 0 0
0 0 0 0 0 0 0 0 0
0 0 0 0 0 0 0 0 0
0 0 0 0 0 0 0 0 0
0 0 0 0 0 0 0 0 0
0 0 0 0 0 0 0 0 0
0 0 0 0 0 0 0 0 0
0 0 0 0 0 0 0 0 0
0 0 0 0 0 0 0 0 0
0 0 0 0 0 0 0 0 0
0 0 0 0 0 0 0 0 0
0 0 0 0 0 0 0 0 0
0 0 0 0 0 0 0 0 0
0 0 0 0 0 0 0 0 0
0 0 0 0 0 0 0 0 0
0 0 0 0 0 0 0 0 0
0 0 0 0 0 0 0 0 0
0 0 0 0 0 0 0 0 0
0 0 0 0 0 0 0 0 0
0 0 0 0 0 0 0 0 0
0 0 0 0 0 0 0 0 0
0 0 0 0 0 0 0 0 0
0 0 0 0 0 0 0 0 0
0 0 0 0 0 0 0 0 0
0 0 0 0 0 0 0 0 0
0 0 0 0 0 0 0 0 0
0 0 0 0 0 0 0 0 0
0 0 0 0 0 0 0 0 0
0 0 0 0 0 0 0 0 0
0 0 0 0 0 0 0 0 0
0 0 0 0 0 0 0 0 0
0 0 0 0 0 0 0 0 0
0 0 0 0 0 0 0 0 0
0 0 0 0 0 0 0 0 0
0 0 0 0 0 0 0 0 0
0 0 0 0 0 0 0 0 0
0 0 0 0 0 0 0 0 0
0 0 0 0 0 0 0 0 0
0 0 0 0 0 0 0 0 0
0 0 0 0 0 0 0 0 0
0 0 0 0 0 0 0 0 0
0 0 0 0 0 0 0 0 0
0 0 0 0 0 0 0 0 0
0 0 0 0 0 0 0 0 0
0 0 0 0 0 0 0 0 0
0 0 0 0 0 0 0 0 0
0 0 0 0 0 0 0 0 0
0 0 0 0 0 0 0 0 0
0 0 0 0 0 0 0 0 0
0 0 0 0 0 0 0 0 0
0 0 0 0 0 0 0 0 0
0 0 0 0 0 0 0 0 0
0 0 0 0 0 0 0 0 0
0 0 0 0 0 0 0 0 0
0 0 0 0 0 0 0 0 0
0 0 0 0 0 0 0 0 0
0 0 0 0 0 0 0 0 0
0 0 0 0 0 0 0 0 0
0 0 0 0 0 0 0 0 0
0 0 0 0 0 0 0 0 0
0 0 0 0 0 0 0 0 0
0 0 0 0 0 0 0 0 0
0 0 0 0 0 0 0 0 0
0 0 0 0 0 0 0 0 0
0 0 0 0 0 0 0 0 0
0 0 0 0 0 0 0 0 0
0 0 0 0 0 0 0 0 0
0 0 0 0 0 0 0 0 0
0 0 0 0 0 0 0 0 0
0 0 0 0 0 0 0 0 0
0 0 0 0 0 0 0 0 0
0 0 0 0 0 0 0 0 0
0 0 0 0 0 0 0 0 0
0 0 0 0 0 0 0 0 0
0 0 0 0 0 0 0 0 0
0 0 0 0 0 0 0 0 0
0 0 0 0 0 0 0 0 0
0 0 0 0 0 0 0 0 0
0 0 0 0 0 0 0 0 0
0 0 0 0 0 0 0 0 0
0 0 0 0 0 0 0 0 0
0 0 0 0 0 0 0 0 0
0 0 0 0 0 0 0 0 0
0 0 0 0 0 0 0 0 0
0 0 0 0 0 0 0 0 0
0 0 0 0 0 0 0 0 0
0 0 0 0 0 0 0 0 0
0 0 0 0 0 0 0 0 0
0 0 0 0 0 0 0 0 0
0 0 0 0 0 0 0 0 0
0 0 0 0 0 0 0 0 0
0 0 0 0 0 0 0 0 0
0 0 0 0 0 0 0 0 0
0 0 0 0 0 0 0 0 0
0 0 0 0 0 0 0 0 0
0 0 0 0 0 0 0 0 0
0 0 0 0 0 0 0 0 0
0 0 0 0 0 0 0 0 0
0 0 0 0 0 0 0 0 0
0 0 0 0 0 0 0 0 0
0 0 0 0 0 0 0 0 0
0 0 0 0 0 0 0 0 0
0 0 0 0 0 0 0 0 0
0 0 0 0 0 0 0 0 0
0 0 0 0 0 0 0 0 0
0 0 0 0 0 0 0 0 0
0 0 0 0 0 0 0 0 0
0 0 0 0 0 0 0 0 0
0 0 0 0 0 0 0 0 0
0 0 0 0 0 0 0 0 0
0 0 0 0 0 0 0 0 0
0 0 0 0 0 0 0 0 0
0 0 0 0 0 0 0 0 0
0 0 0 0 0 0 0 0 0
0 0 0 0 0 0 0 0 0
0 0 0 0 0 0 0 0 0
0 0 0 0 0 0 0 0 0
0 0 0 0 0 0 0 0 0
0 0 0 0 0 0 0 0 0
0 0 0 0 0 0 0 0 0
0 0 0 0 0 0 0 0 0
0 0 0 0 0 0 0 0 0
0 0 0 0 0 0 0 0 0
0 0 0 0 0 0 0 0 0
0 0 0 0 0 0 0 0 0
0 0 0 0 0 0 0 0 0
0 0 0 0 0 0 0 0 0
0 0 0 0 0 0 0 0 0
0 0 0 0 0 0 0 0 0
0 0 0 0 0 0 0 0 0
0 0 0 0 0 0 0 0 0
0 0 0 0 0 0 0 0 0
0 0 0 0 0 0 0 0 0
0 0 0 0 0 0 0 0 0
0 0 0 0 0 0 0 0 0
0 0 0 0 0 0 0 0 0
0 0 0 0 0 0 0 0 0
0 0 0 0 0 0 0 0 0
0 0 0 0 0 0 0 0 0
0 0 0 0 0 0 0 0 0
0 0 0 0 0 0 0 0 0
0 0 0 0 0 0 0 0 0
0 0 0 0 0 0 0 0 0
0 0 0 0 0 0 0 0 0
0 0 0 0 0 0 0 0 0
0 0 0 0 0 0 0 0 0
0 0 0 0 0 0 0 0 0
0 0 0 0 0 0 0 0 0
0 0 0 0 0 0 0 0 0
0 0 0 0 0 0 0 0 0
0 0 0 0 0 0 0 0 0
0 0 0 0 0 0 0 0 0
0 0 0 0 0 0 0 0 0
0 0 0 0 0 0 0 0 0
0 0 0 0 0 0 0 0 0
0 0 0 0 0 0 0 0 0
0 0 0 0 0 0 0 0 0
0 0 0 0 0 0 0 0 0
0 0 0 0 0 0 0 0 0
0 0 0 0 0 0 0 0 0
0 0 0 0 0 0 0 0 0
0 0 0 0 0 0 0 0 0
0 0 0 0 0 0 0 0 0
0 0 0 0 0 0 0 0 0
0 0 0 0 0 0 0 0 0
0 0 0 0 0 0 0 0 0
0 0 0 0 0 0 0 0 0
0 0 0 0 0 0 0 0 0
0 0 0 0 0 0 0 0 0
0 0 0 0 0 0 0 0 0
0 0 0 0 0 0 0 0 0
0 0 0 0 0 0 0 0 0
0 0 0 0 0 0 0 0 0
0 0 0 0 0 0 0 0 0
0 0 0 0 0 0 0 0 0
0 0 0 0 0 0 0 0 0
0 0 0 0 0 0 0 0 0
0 0 0 0 0 0 0 0 0
0 0 0 0 0 0 0 0 0
0 0 0 0 0 0 0 0 0
0 0 0 0 0 0 0 0 0
0 0 0 0 0 0 0 0 0
0 0 0 0 0 0 0 0 0
0 0 0 0 0 0 0 0 0
0 0 0 0 0 0 0 0 0
0 0 0 0 0 0 0 0 0
0 0 0 0 0 0 0 0 0
0 0 0 0 0 0 0 0 0
0 0 0 0 0 0 0 0 0
0 0 0 0 0 0 0 0 0
0 0 0 0 0 0 0 0 0
0 0 0 0 0 0 0 0 0
0 0 0 0 0 0 0 0 0
0 0 0 0 0 0 0 0 0
0 0 0 0 0 0 0 0 0
0 0 0 0 0 0 0 0 0
0 0 0 0 0 0 0 0 0
0 0 0 0 0 0 0 0 0
0 0 0 0 0 0 0 0 0
0 0 0 0 0 0 0 0 0
0 0 0 0 0 0 0 0 0
0 0 0 0 0 0 0 0 0
0 0 0 0 0 0 0 0 0
0 0 0 0 0 0 0 0 0
0 0 0 0 0 0 0 0 0
0 0 0 0 0 0 0 0 0
0 0 0 0 0 0 0 0 0
0 0 0 0 0 0 0 0 0
0 0 0 0 0 0 0 0 0
0 0 0 0 0 0 0 0 0
0 0 0 0 0 0 0 0 0
0 0 0 0 0 0 0 0 0
0 0 0 0 0 0 0 0 0
0 0 0 0 0 0 0 0 0
0 0 0 0 0 0 0 0 0
0 0 0 0 0 0 0 0 0
0 0 0 0 0 0 0 0 0
0 0 0 0 0 0 0 0 0
0 0 0 0 0 0 0 0 0
0 0 0 0 0 0 0 0 0
0 0 0 0 0 0 0 0 0
0 0 0 0 0 0 0 0 0
0 0 0 0 0 0 0 0 0
0 0 0 0 0 0 0 0 0
0 0 0 0 0 0 0 0 0
0 0 0 0 0 0 0 0 0
0 0 0 0 0 0 0 0 0
0 0 0 0 0 0 0 0 0
0 0 0 0 0 0 0 0 0
0 0 0 0 0 0 0 0 0
0 0 0 0 0 0 0 0 0
0 0 0 0 0 0 0 0 0
0 0 0 0 0 0 0 0 0
0 0 0 0 0 0 0 0 0
0 0 0 0 0 0 0 0 0
0 0 0 0 0 0 0 0 0
0 0 0 0 0 0 0 0 0
0 0 0 0 0 0 0 0 0
0 0 0 0 0 0 0 0 0
0 0 0 0 0 0 0 0 0
0 0 0 0 0 0 0 0 0
0 0 0 0 0 0 0 0 0
0 0 0 0 0 0 0 0 0
0 0 0 0 0 0 0 0 0
0 0 0 0 0 0 0 0 0
0 0 0 0 0 0 0 0 0
0 0 0 0 0 0 0 0 0
0 0 0 0 0 0 0 0 0
0 0 0 0 0 0 0 0 0
0 0 0 0 0 0 0 0 0
0 0 0 0 0 0 0 0 0
0 0 0 0 0 0 0 0 0
0 0 0 0 0 0 0 0 0
0 0 0 0 0 0 0 0 0
0 0 0 0 0 0 0 0 0
0 0 0 0 0 0 0 0 0
0 0 0 0 0 0 0 0 0
0 0 0 0 0 0 0 0 0
0 0 0 0 0 0 0 0 0
0 0 0 0 0 0 0 0 0
0 0 0 0 0 0 0 0 0
0 0 0 0 0 0 0 0 0
0 0 0 0 0 0 0 0 0
0 0 0 0 0 0 0 0 0
0 0 0 0 0 0 0 0 0
0 0 0 0 0 0 0 0 0
0 0 0 0 0 0 0 0 0
0 0 0 0 0 0 0 0 0
0 0 0 0 0 0 0 0 0
0 0 0 0 0 0 0 0 0
0 0 0 0 0 0 0 0 0
0 0 0 0 0 0 0 0 0
0 0 0 0 0 0 0 0 0
0 0 0 0 0 0 0 0 0
0 0 0 0 0 0 0 0 0
0 0 0 0 0 0 0 0 0
0 0 0 0 0 0 0 0 0
0 0 0 0 0 0 0 0 0
0 0 0 0 0 0 0 0 0
0 0 0 0 0 0 0 0 0
0 0 0 0 0 0 0 0 0
0 0 0 0 0 0 0 0 0
0 0 0 0 0 0 0 0 0
0 0 0 0 0 0 0 0 0
0 0 0 0 0 0 0 0 0
0 0 0 0 0 0 0 0 0
0 0 0 0 0 0 0 0 0
0 0 0 0 0 0 0 0 0
0 0 0 0 0 0 0 0 0
0 0 0 0 0 0 0 0 0
0 0 0 0 0 0 0 0 0
0 0 0 0 0 0 0 0 0
0 0 0 0 0 0 0 0 0
0 0 0 0 0 0 0 0 0
0 0 0 0 0 0 0 0 0
0 0 0 0 0 0 0 0 0
0 0 0 0 0 0 0 0 0
0 0 0 0 0 0 0 0 0
0 0 0 0 0 0 0 0 0
0 0 0 0 0 0 0 0 0
0 0 0 0 0 0 0 0 0
0 0 0 0 0 0 0 0 0
0 0 0 0 0 0 0 0 0
0 0 0 0 0 0 0 0 0
0 0 0 0 0 0 0 0 0
0 0 0 0 0 0 0 0 0
0 0 0 0 0 0 0 0 0
0 0 0 0 0 0 0 0 0
0 0 0 0 0 0 0 0 0
0 0 0 0 0 0 0 0 0
0 0 0 0 0 0 0 0 0
0 0 0 0 0 0 0 0 0
0 0 0 0 0 0 0 0 0
0 0 0 0 0 0 0 0 0
0 0 0 0 0 0 0 0 0
0 0 0 0 0 0 0 0 0
0 0 0 0 0 0 0 0 0
0 0 0 0 0 0 0 0 0
0 0 0 0 0 0 0 0 0
0 0 0 0 0 0 0 0 0
0 0 0 0 0 0 0 0 0
0 0 0 0 0 0 0 0 0
0 0 0 0 0 0 0 0 0
0 0 0 0 0 0 0 0 0
0 0 0 0 0 0 0 0 0
0 0 0 0 0 0 0 0 0
0 0 0 0 0 0 0 0 0
0 0 0 0 0 0 0 0 0
0 0 0 0 0 0 0 0 0
0 0 0 0 0 0 0 0 0
0 0 0 0 0 0 0 0 0
0 0 0 0 0 0 0 0 0
0 0 0 0 0 0 0 0 0
0 0 0 0 0 0 0 0 0
0 0 0 0 0 0 0 0 0
0 0 0 0 0 0 0 0 0
0 0 0 0 0 0 0 0 0
0 0 0 0 0 0 0 0 0
0 0 0 0 0 0 0 0 0
0 0 0 0 0 0 0 0 0
0 0 0 0 0 0 0 0 0
0 0 0 0 0 0 0 0 0
0 0 0 0 0 0 0 0 0
0 0 0 0 0 0 0 0 0
0 0 0 0 0 0 0 0 0
0 0 0 0 0 0 0 0 0
0 0 0 0 0 0 0 0 0
0 0 0 0 0 0 0 0 0
0 0 0 0 0 0 0 0 0
0 0 0 0 0 0 0 0 0
0 0 0 0 0 0 0 0 0
0 0 0 0 0 0 0 0 0
0 0 0 0 0 0 0 0 0
0 0 0 0 0 0 0 0 0
0 0 0 0 0 0 0 0 0
0 0 0 0 0 0 0 0 0
0 0 0 0 0 0 0 0 0
0 0 0 0 0 0 0 0 0
0 0 0 0 0 0 0 0 0
0 0 0 0 0 0 0 0 0
0 0 0 0 0 0 0 0 0
0 0 0 0 0 0 0 0 0
0 0 0 0 0 0 0 0 0
0 0 0 0 0 0 0 0 0
0 0 0 0 0 0 0 0 0
0 0 0 0 0 0 0 0 0
0 0 0 0 0 0 0 0 0
0 0 0 0 0 0 0 0 0
0 0 0 0 0 0 0 0 0
0 0 0 0 0 0 0 0 0
0 0 0 0 0 0 0 0 0
0 0 0 0 0 0 0 0 0
0 0 0 0 0 0 0 0 0
0 0 0 0 0 0 0 0 0
0 0 0 0 0 0 0 0 0
0 0 0 0 0 0 0 0 0
0 0 0 0 0 0 0 0 0
0 0 0 0 0 0 0 0 0
0 0 0 0 0 0 0 0 0
0 0 0 0 0 0 0 0 0
0 0 0 0 0 0 0 0 0
0 0 0 0 0 0 0 0 0
0 0 0 0 0 0 0 0 0
0 0 0 0 0 0 0 0 0
0 0 0 0 0 0 0 0 0
0 0 0 0 0 0 0 0 0
0 0 0 0 0 0 0 0 0
0 0 0 0 0 0 0 0 0
0 0 0 0 0 0 0 0 0
0 0 0 0 0 0 0 0 0
0 0 0 0 0 0 0 0 0
0 0 0 0 0 0 0 0 0
0 0 0 0 0 0 0 0 0
0 0 0 0 0 0 0 0 0
0 0 0 0 0 0 0 0 0
0 0 0 0 0 0 0 0 0
0 0 0 0 0 0 0 0 0
0 0 0 0 0 0 0 0 0
0 0 0 0 0 0 0 0 0
0 0 0 0 0 0 0 0 0
0 0 0 0 0 0 0 0 0
0 0 0 0 0 0 0 0 0
0 0 0 0 0 0 0 0 0
0 0 0 0 0 0 0 0 0
0 0 0 0 0 0 0 0 0
0 0 0 0 0 0 0 0 0
0 0 0 0 0 0 0 0 0
0 0 0 0 0 0 0 0 0
0 0 0 0 0 0 0 0 0
0 0 0 0 0 0 0 0 0
0 0 0 0 0 0 0 0 0
0 0 0 0 0 0 0 0 0
0 0 0 0 0 0 0 0 0
0 0 0 0 0 0 0 0 0
0 0 0 0 0 0 0 0 0
0 0 0 0 0 0 0 0 0
0 0 0 0 0 0 0 0 0
0 0 0 0 0 0 0 0 0
0 0 0 0 0 0 0 0 0
0 0 0 0 0 0 0 0 0
0 0 0 0 0 0 0 0 0
0 0 0 0 0 0 0 0 0
0 0 0 0 0 0 0 0 0
0 0 0 0 0 0 0 0 0
0 0 0 0 0 0 0 0 0
0 0 0 0 0 0 0 0 0
0 0 0 0 0 0 0 0 0
0 0 0 0 0 0 0 0 0
0 0 0 0 0 0 0 0 0
0 0 0 0 0 0 0 0 0
0 0 0 0 0 0 0 0 0
0 0 0 0 0 0 0 0 0
0 0 0 0 0 0 0 0 0
0 0 0 0 0 0 0 0 0
0 0 0 0 0 0 0 0 0
0 0 0 0 0 0 0 0 0
0 0 0 0 0 0 0 0 0
0 0 0 0 0 0 0 0 0
0 0 0 0 0 0 0 0 0
0 0 0 0 0 0 0 0 0
0 0 0 0 0 0 0 0 0
0 0 0 0 0 0 0 0 0
0 0 0 0 0 0 0 0 0
0 0 0 0 0 0 0 0 0
0 0 0 0 0 0 0 0 0
0 0 0 0 0 0 0 0 0
0 0 0 0 0 0 0 0 0
0 0 0 0 0 0 0 0 0
0 0 0 0 0 0 0 0 0
0 0 0 0 0 0 0 0 0
0 0 0 0 0 0 0 0 0
0 0 0 0 0 0 0 0 0
0 0 0 0 0 0 0 0 0
0 0 0 0 0 0 0 0 0
0 0 0 0 0 0 0 0 0
0 0 0 0 0 0 0 0 0
0 0 0 0 0 0 0 0 0
0 0 0 0 0 0 0 0 0
0 0 0 0 0 0 0 0 0
0 0 0 0 0 0 0 0 0
0 0 0 0 0 0 0 0 0
0 0 0 0 0 0 0 0 0
0 0 0 0 0 0 0 0 0
0 0 0 0 0 0 0 0 0
0 0 0 0 0 0 0 0 0
0 0 0 0 0 0 0 0 0
0 0 0 0 0 0 0 0 0
0 0 0 0 0 0 0 0 0
0 0 0 0 0 0 0 0 0
0 0 0 0 0 0 0 0 0
0 0 0 0 0 0 0 0 0
0 0 0 0 0 0 0 0 0
0 0 0 0 0 0 0 0 0
0 0 0 0 0 0 0 0 0
0 0 0 0 0 0 0 0 0
0 0 0 0 0 0 0 0 0
0 0 0 0 0 0 0 0 0
0 0 0 0 0 0 0 0 0
0 0 0 0 0 0 0 0 0
0 0 0 0 0 0 0 0 0
0 0 0 0 0 0 0 0 0
0 0 0 0 0 0 0 0 0
0 0 0 0 0 0 0 0 0
0 0 0 0 0 0 0 0 0
0 0 0 0 0 0 0 0 0
0 0 0 0 0 0 0 0 0
0 0 0 0 0 0 0 0 0
0 0 0 0 0 0 0 0 0
0 0 0 0 0 0 0 0 0
0 0 0 0 0 0 0 0 0
0 0 0 0 0 0 0 0 0
0 0 0 0 0 0 0 0 0
0 0 0 0 0 0 0 0 0
0 0 0 0 0 0 0 0 0
0 0 0 0 0 0 0 0 0
0 0 0 0 0 0 0 0 0
0 0 0 0 0 0 0 0 0
0 0 0 0 0 0 0 0 0
0 0 0 0 0 0 0 0 0
0 0 0 0 0 0 0 0 0
0 0 0 0 0 0 0 0 0
0 0 0 0 0 0 0 0 0
0 0 0 0 0 0 0 0 0
0 0 0 0 0 0 0 0 0
0 0 0 0 0 0 0 0 0
0 0 0 0 0 0 0 0 0
0 0 0 0 0 0 0 0 0
0 0 0 0 0 0 0 0 0
0 0 0 0 0 0 0 0 0
0 0 0 0 0 0 0 0 0
0 0 0 0 0 0 0 0 0
0 0 0 0 0 0 0 0 0
0 0 0 0 0 0 0 0 0
0 0 0 0 0 0 0 0 0
0 0 0 0 0 0 0 0 0
0 0 0 0 0 0 0 0 0
0 0 0 0 0 0 0 0 0
0 0 0 0 0 0 0 0 0
0 0 0 0 0 0 0 0 0
0 0 0 0 0 0 0 0 0
0 0 0 0 0 0 0 0 0
0 0 0 0 0 0 0 0 0
0 0 0 0 0 0 0 0 0
0 0 0 0 0 0 0 0 0
0 0 0 0 0 0 0 0 0
0 0 0 0 0 0 0 0 0
0 0 0 0 0 0 0 0 0
0 0 0 0 0 0 0 0 0
0 0 0 0 0 0 0 0 0
0 0 0 0 0 0 0 0 0
0 0 0 0 0 0 0 0 0
0 0 0 0 0 0 0 0 0
0 0 0 0 0 0 0 0 0
0 0 0 0 0 0 0 0 0
0 0 0 0 0 0 0 0 0
0 0 0 0 0 0 0 0 0
0 0 0 0 0 0 0 0 0
0 0 0 0 0 0 0 0 0
0 0 0 0 0 0 0 0 0
0 0 0 0 0 0 0 0 0
0 0 0 0 0 0 0 0 0
0 0 0 0 0 0 0 0 0
0 0 0 0 0 0 0 0 0
0 0 0 0 0 0 0 0 0
0 0 0 0 0 0 0 0 0
0 0 0 0 0 0 0 0 0
0 0 0 0 0 0 0 0 0
0 0 0 0 0 0 0 0 0
0 0 0 0 0 0 0 0 0
0 0 0 0 0 0 0 0 0
0 0 0 0 0 0 0 0 0
0 0 0 0 0 0 0 0 0
0 0 0 0 0 0 0 0 0
0 0 0 0 0 0 0 0 0
0 0 0 0 0 0 0 0 0
0 0 0 0 0 0 0 0 0
0 0 0 0 0 0 0 0 0
0 0 0 0 0 0 0 0 0
0 0 0 0 0 0 0 0 0
0 0 0 0 0 0 0 0 0
0 0 0 0 0 0 0 0 0
0 0 0 0 0 0 0 0 0
0 0 0 0 0 0 0 0 0
0 0 0 0 0 0 0 0 0
0 0 0 0 0 0 0 0 0
0 0 0 0 0 0 0 0 0
0 0 0 0 0 0 0 0 0
0 0 0 0 0 0 0 0 0
0 0 0 0 0 0 0 0 0
0 0 0 0 0 0 0 0 0
0 0 0 0 0 0 0 0 0
0 0 0 0 0 0 0 0 0
0 0 0 0 0 0 0 0 0
0 0 0 0 0 0 0 0 0
0 0 0 0 0 0 0 0 0
0 0 0 0 0 0 0 0 0
0 0 0 0 0 0 0 0 0
0 0 0 0 0 0 0 0 0
0 0 0 0 0 0 0 0 0
0 0 0 0 0 0 0 0 0
0 0 0 0 0 0 0 0 0
0 0 0 0 0 0 0 0 0
0 0 0 0 0 0 0 0 0
0 0 0 0 0 0 0 0 0
0 0 0 0 0 0 0 0 0
0 0 0 0 0 0 0 0 0
0 0 0 0 0 0 0 0 0
0 0 0 0 0 0 0 0 0
0 0 0 0 0 0 0 0 0
0 0 0 0 0 0 0 0 0
0 0 0 0 0 0 0 0 0
0 0 0 0 0 0 0 0 0
0 0 0 0 0 0 0 0 0
0 0 0 0 0 0 0 0 0
0 0 0 0 0 0 0 0 0
0 0 0 0 0 0 0 0 0
0 0 0 0 0 0 0 0 0
0 0 0 0 0 0 0 0 0
0 0 0 0 0 0 0 0 0
0 0 0 0 0 0 0 0 0
0 0 0 0 0 0 0 0 0
0 0 0 0 0 0 0 0 0
0 0 0 0 0 0 0 0 0
0 0 0 0 0 0 0 0 0
0 0 0 0 0 0 0 0 0
0 0 0 0 0 0 0 0 0
0 0 0 0 0 0 0 0 0
0 0 0 0 0 0 0 0 0
0 0 0 0 0 0 0 0 0
0 0 0 0 0 0 0 0 0
0 0 0 0 0 0 0 0 0
0 0 0 0 0 0 0 0 0
0 0 0 0 0 0 0 0 0
0 0 0 0 0 0 0 0 0
0 0 0 0 0 0 0 0 0
0 0 0 0 0 0 0 0 0
0 0 0 0 0 0 0 0 0
0 0 0 0 0 0 0 0 0
0 0 0 0 0 0 0 0 0
0 0 0 0 0 0 0 0 0
0 0 0 0 0 0 0 0 0
0 0 0 0 0 0 0 0 0
0 0 0 0 0 0 0 0 0
0 0 0 0 0 0 0 0 0
0 0 0 0 0 0 0 0 0
0 0 0 0 0 0 0 0 0
0 0 0 0 0 0 0 0 0
0 0 0 0 0 0 0 0 0
0 0 0 0 0 0 0 0 0
0 0 0 0 0 0 0 0 0
0 0 0 0 0 0 0 0 0
0 0 0 0 0 0 0 0 0
0 0 0 0 0 0 0 0 0
0 0 0 0 0 0 0 0 0
0 0 0 0 0 0 0 0 0
0 0 0 0 0 0 0 0 0
0 0 0 0 0 0 0 0 0
0 0 0 0 0 0 0 0 0
0 0 0 0 0 0 0 0 0
0 0 0 0 0 0 0 0 0
0 0 0 0 0 0 0 0 0
0 0 0 0 0 0 0 0 0
0 0 0 0 0 0 0 0 0
0 0 0 0 0 0 0 0 0
0 0 0 0 0 0 0 0 0
0 0 0 0 0 0 0 0 0
0 0 0 0 0 0 0 0 0
0 0 0 0 0 0 0 0 0
0 0 0 0 0 0 0 0 0
0 0 0 0 0 0 0 0 0
0 0 0 0 0 0 0 0 0
0 0 0 0 0 0 0 0 0
0 0 0 0 0 0 0 0 0
0 0 0 0 0 0 0 0 0
0 0 0 0 0 0 0 0 0
0 0 0 0 0 0 0 0 0
0 0 0 0 0 0 0 0 0
0 0 0 0 0 0 0 0 0
0 0 0 0 0 0 0 0 0
0 0 0 0 0 0 0 0 0
0 0 0 0 0 0 0 0 0
0 0 0 0 0 0 0 0 0
0 0 0 0 0 0 0 0 0
0 0 0 0 0 0 0 0 0
0 0 0 0 0 0 0 0 0
0 0 0 0 0 0 0 0 0
0 0 0 0 0 0 0 0 0
0 0 0 0 0 0 0 0 0
0 0 0 0 0 0 0 0 0
0 0 0 0 0 0 0 0 0
0 0 0 0 0 0 0 0 0
0 0 0 0 0 0 0 0 0
0 0 0 0 0 0 0 0 0
0 0 0 0 0 0 0 0 0
0 0 0 0 0 0 0 0 0
0 0 0 0 0 0 0 0 0
0 0 0 0 0 0 0 0 0
0 0 0 0 0 0 0 0 0
0 0 0 0 0 0 0 0 0
0 0 0 0 0 0 0 0 0
0 0 0 0 0 0 0 0 0
0 0 0 0 0 0 0 0 0
0 0 0 0 0 0 0 0 0
0 0 0 0 0 0 0 0 0
0 0 0 0 0 0 0 0 0
0 0 0 0 0 0 0 0 0
0 0 0 0 0 0 0 0 0
0 0 0 0 0 0 0 0 0
0 0 0 0 0 0 0 0 0
0 0 0 0 0 0 0 0 0
0 0 0 0 0 0 0 0 0
0 0 0 0 0 0 0 0 0
0 0 0 0 0 0 0 0 0
0 0 0 0 0 0 0 0 0
0 0 0 0 0 0 0 0 0
0 0 0 0 0 0 0 0 0
0 0 0 0 0 0 0 0 0
0 0 0 0 0 0 0 0 0
0 0 0 0 0 0 0 0 0
0 0 0 0 0 0 0 0 0
0 0 0 0 0 0 0 0 0
0 0 0 0 0 0 0 0 0
0 0 0 0 0 0 0 0 0
0 0 0 0 0 0 0 0 0
0 0 0 0 0 0 0 0 0
SCALARS max_shear_normal_tau double 9
LOOKUP_TABLE default
0 0 0 0 0 0 0 0 0
0 0 0 0 0 0 0 0 0
0 0 0 0 0 0 0 0 0
0 0 0 0 0 0 0 0 0
0 0 0 0 0 0 0 0 0
0 0 0 0 0 0 0 0 0
0 0 0 0 0 0 0 0 0
0 0 0 0 0 0 0 0 0
0 0 0 0 0 0 0 0 0
0 0 0 0 0 0 0 0 0
0 0 0 0 0 0 0 0 0
0 0 0 0 0 0 0 0 0
0 0 0 0 0 0 0 0 0
0 0 0 0 0 0 0 0 0
0 0 0 0 0 0 0 0 0
0 0 0 0 0 0 0 0 0
0 0 0 0 0 0 0 0 0
0 0 0 0 0 0 0 0 0
0 0 0 0 0 0 0 0 0
0 0 0 0 0 0 0 0 0
0 0 0 0 0 0 0 0 0
0 0 0 0 0 0 0 0 0
0 0 0 0 0 0 0 0 0
0 0 0 0 0 0 0 0 0
0 0 0 0 0 0 0 0 0
0 0 0 0 0 0 0 0 0
0 0 0 0 0 0 0 0 0
0 0 0 0 0 0 0 0 0
0 0 0 0 0 0 0 0 0
0 0 0 0 0 0 0 0 0
0 0 0 0 0 0 0 0 0
0 0 0 0 0 0 0 0 0
0 0 0 0 0 0 0 0 0
0 0 0 0 0 0 0 0 0
0 0 0 0 0 0 0 0 0
0 0 0 0 0 0 0 0 0
0 0 0 0 0 0 0 0 0
0 0 0 0 0 0 0 0 0
0 0 0 0 0 0 0 0 0
0 0 0 0 0 0 0 0 0
0 0 0 0 0 0 0 0 0
0 0 0 0 0 0 0 0 0
0 0 0 0 0 0 0 0 0
0 0 0 0 0 0 0 0 0
0 0 0 0 0 0 0 0 0
0 0 0 0 0 0 0 0 0
0 0 0 0 0 0 0 0 0
0 0 0 0 0 0 0 0 0
0 0 0 0 0 0 0 0 0
0 0 0 0 0 0 0 0 0
0 0 0 0 0 0 0 0 0
0 0 0 0 0 0 0 0 0
0 0 0 0 0 0 0 0 0
0 0 0 0 0 0 0 0 0
0 0 0 0 0 0 0 0 0
0 0 0 0 0 0 0 0 0
0 0 0 0 0 0 0 0 0
0 0 0 0 0 0 0 0 0
0 0 0 0 0 0 0 0 0
0 0 0 0 0 0 0 0 0
0 0 0 0 0 0 0 0 0
0 0 0 0 0 0 0 0 0
0 0 0 0 0 0 0 0 0
0 0 0 0 0 0 0 0 0
0 0 0 0 0 0 0 0 0
0 0 0 0 0 0 0 0 0
0 0 0 0 0 0 0 0 0
0 0 0 0 0 0 0 0 0
0 0 0 0 0 0 0 0 0
0 0 0 0 0 0 0 0 0
0 0 0 0 0 0 0 0 0
0 0 0 0 0 0 0 0 0
0 0 0 0 0 0 0 0 0
0 0 0 0 0 0 0 0 0
0 0 0 0 0 0 0 0 0
0 0 0 0 0 0 0 0 0
0 0 0 0 0 0 0 0 0
0 0 0 0 0 0 0 0 0
0 0 0 0 0 0 0 0 0
0 0 0 0 0 0 0 0 0
0 0 0 0 0 0 0 0 0
0 0 0 0 0 0 0 0 0
0 0 0 0 0 0 0 0 0
0 0 0 0 0 0 0 0 0
0 0 0 0 0 0 0 0 0
0 0 0 0 0 0 0 0 0
0 0 0 0 0 0 0 0 0
0 0 0 0 0 0 0 0 0
0 0 0 0 0 0 0 0 0
0 0 0 0 0 0 0 0 0
0 0 0 0 0 0 0 0 0
0 0 0 0 0 0 0 0 0
0 0 0 0 0 0 0 0 0
0 0 0 0 0 0 0 0 0
0 0 0 0 0 0 0 0 0
0 0 0 0 0 0 0 0 0
0 0 0 0 0 0 0 0 0
0 0 0 0 0 0 0 0 0
0 0 0 0 0 0 0 0 0
0 0 0 0 0 0 0 0 0
0 0 0 0 0 0 0 0 0
0 0 0 0 0 0 0 0 0
0 0 0 0 0 0 0 0 0
0 0 0 0 0 0 0 0 0
0 0 0 0 0 0 0 0 0
0 0 0 0 0 0 0 0 0
0 0 0 0 0 0 0 0 0
0 0 0 0 0 0 0 0 0
0 0 0 0 0 0 0 0 0
0 0 0 0 0 0 0 0 0
0 0 0 0 0 0 0 0 0
0 0 0 0 0 0 0 0 0
0 0 0 0 0 0 0 0 0
0 0 0 0 0 0 0 0 0
0 0 0 0 0 0 0 0 0
0 0 0 0 0 0 0 0 0
0 0 0 0 0 0 0 0 0
0 0 0 0 0 0 0 0 0
0 0 0 0 0 0 0 0 0
0 0 0 0 0 0 0 0 0
0 0 0 0 0 0 0 0 0
0 0 0 0 0 0 0 0 0
0 0 0 0 0 0 0 0 0
0 0 0 0 0 0 0 0 0
0 0 0 0 0 0 0 0 0
0 0 0 0 0 0 0 0 0
0 0 0 0 0 0 0 0 0
0 0 0 0 0 0 0 0 0
0 0 0 0 0 0 0 0 0
0 0 0 0 0 0 0 0 0
0 0 0 0 0 0 0 0 0
0 0 0 0 0 0 0 0 0
0 0 0 0 0 0 0 0 0
0 0 0 0 0 0 0 0 0
0 0 0 0 0 0 0 0 0
0 0 0 0 0 0 0 0 0
0 0 0 0 0 0 0 0 0
0 0 0 0 0 0 0 0 0
0 0 0 0 0 0 0 0 0
0 0 0 0 0 0 0 0 0
0 0 0 0 0 0 0 0 0
0 0 0 0 0 0 0 0 0
0 0 0 0 0 0 0 0 0
0 0 0 0 0 0 0 0 0
0 0 0 0 0 0 0 0 0
0 0 0 0 0 0 0 0 0
0 0 0 0 0 0 0 0 0
0 0 0 0 0 0 0 0 0
0 0 0 0 0 0 0 0 0
0 0 0 0 0 0 0 0 0
0.602396 0.624588 0.597103 0.618939 0.602396 0.624588 0.597103 0.618939 0
0.641131 0.664173 0.635218 0.657887 0.641131 0.664173 0.635218 0.657887 0
0.681226 0.704807 0.674661 0.697845 0.681226 0.704807 0.674661 0.697845 0
0.573642 0.595682 0.568567 0.590259 0.573642 0.595682 0.568567 0.590259 0
0.612099 0.634939 0.606412 0.628872 0.612099 0.634939 0.606412 0.628872 0
0.651969 0.675699 0.645618 0.668943 0.651969 0.675699 0.645618 0.668943 0
0.693266 0.717567 0.686209 0.710089 0.693266 0.717567 0.686209 0.710089 0
0.582943 0.605615 0.577491 0.599793 0.582943 0.605615 0.577491 0.599793 0
0.622514 0.646044 0.616411 0.639537 0.622514 0.646044 0.616411 0.639537 0
0.663598 0.68807 0.656784 0.680821 0.663598 0.68807 0.656784 0.680821 0
0.706194 0.731276 0.698618 0.723242 0.706194 0.731276 0.698618 0.723242 0
0.553859 0.576196 0.548637 0.57063 0.553859 0.576196 0.548637 0.57063 0
0.592907 0.616251 0.587071 0.610021 0.592907 0.616251 0.587071 0.610021 0
0.633667 0.657938 0.627135 0.650972 0.633667 0.657938 0.627135 0.650972 0
0.676055 0.70133 0.668758 0.693563 0.676055 0.70133 0.668758 0.693563 0
0.720055 0.745986 0.711935 0.737368 0.720055 0.745986 0.711935 0.737368 0
0.76595 0.794733 0.756982 0.785298 0.76595 0.794733 0.756982 0.785298 0
0.5634 0.586363 0.557812 0.580409 0.5634 0.586363 0.557812 0.580409 0
0.60356 0.627615 0.597322 0.620962 0.60356 0.627615 0.597322 0.620962 0
0.645581 0.670649 0.638606 0.663208 0.645581 0.670649 0.638606 0.663208 0
0.689374 0.715521 0.681576 0.70721 0.689374 0.715521 0.681576 0.70721 0
0.734904 0.761764 0.726206 0.75252 0.734904 0.761764 0.726206 0.75252 0
0.782385 0.812056 0.772754 0.8019 0.782385 0.812056 0.772754 0.8019 0
0.573576 0.597196 0.567621 0.590857 0.573576 0.597196 0.567621 0.590857 0
0.614909 0.639717 0.608269 0.632637 0.614909 0.639717 0.608269 0.632637 0
0.658271 0.684197 0.650847 0.67627 0.658271 0.684197 0.650847 0.67627 0
0.703581 0.730679 0.695267 0.721806 0.703581 0.730679 0.695267 0.721806 0
0.750783 0.778673 0.741485 0.768768 0.750783 0.778673 0.741485 0.768768 0
0.800022 0.830676 0.789688 0.819763 0.800022 0.830676 0.789688 0.819763 0
0.543968 0.567034 0.538282 0.561002 0.543968 0.567034 0.538282 0.561002 0
0.584368 0.608688 0.57806 0.60197 0.584368 0.608688 0.57806 0.60197 0
0.626949 0.652555 0.61991 0.64505 0.626949 0.652555 0.61991 0.64505 0
0.671737 0.698586 0.663864 0.690172 0.671737 0.698586 0.663864 0.690172 0
0.718686 0.746824 0.709852 0.737379 0.718686 0.746824 0.709852 0.737379 0
0.767726 0.796764 0.757811 0.78617 0.767726 0.796764 0.757811 0.78617 0
0.818933 0.850703 0.807854 0.838962 0.818933 0.850703 0.807854 0.838962 0
0.554247 0.577943 0.548243 0.57157 0.554247 0.577943 0.548243 0.57157 0
0.595773 0.620822 0.58911 0.613736 0.595773 0.620822 0.58911 0.613736 0
0.639657 0.666108 0.632236 0.658193 0.639657 0.666108 0.632236 0.658193 0
0.685961 0.713801 0.677653 0.704913 0.685961 0.713801 0.677653 0.704913 0
0.734678 0.763958 0.725333 0.753942 0.734678 0.763958 0.725333 0.753942 0
0.785744 0.816066 0.775206 0.80477 0.785744 0.816066 0.775206 0.80477 0
0.839163 0.87221 0.827318 0.859607 0.839163 0.87221 0.827318 0.859607 0
0.565024 0.58938 0.558741 0.582712 0.565024 0.58938 0.558741 0.582712 0
0.607729 0.633541 0.600758 0.626125 0.607729 0.633541 0.600758 0.626125 0
0.652981 0.680327 0.645211 0.672035 0.652981 0.680327 0.645211 0.672035 0
0.700893 0.729797 0.692183 0.720464 0.700893 0.729797 0.692183 0.720464 0
0.751516 0.782044 0.741689 0.771483 0.751516 0.782044 0.741689 0.771483 0
0.804811 0.836578 0.793671 0.824584 0.804811 0.836578 0.793671 0.824584 0
0.860731 0.895249 0.848111 0.881756 0.860731 0.895249 0.848111 0.881756 0
0.534813 0.558401 0.52893 0.552178 0.534813 0.558401 0.52893 0.552178 0
0.576193 0.601243 0.569697 0.594342 0.576193 0.601243 0.569697 0.594342 0
0.620138 0.64675 0.612919 0.639064 0.620138 0.64675 0.612919 0.639064 0
0.666826 0.695116 0.658768 0.686507 0.666826 0.695116 0.658768 0.686507 0
0.716439 0.746478 0.707387 0.736762 0.716439 0.746478 0.707387 0.736762 0
0.769106 0.800998 0.758857 0.789947 0.769106 0.800998 0.758857 0.789947 0
0.824853 0.858249 0.81316 0.845593 0.824853 0.858249 0.81316 0.845593 0
0.883609 0.919839 0.870237 0.905448 0.883609 0.919839 0.870237 0.905448 0
0.545123 0.569324 0.539149 0.562992 0.545123 0.569324 0.539149 0.562992 0
0.587605 0.613377 0.580988 0.60634 0.587605 0.613377 0.580988 0.60634 0
0.632844 0.660295 0.625473 0.652435 0.632844 0.660295 0.625473 0.652435 0
0.681041 0.710323 0.67279 0.701492 0.681041 0.710323 0.67279 0.701492 0
0.732448 0.76369 0.723149 0.753687 0.732448 0.76369 0.723149 0.753687 0
0.787293 0.820656 0.776719 0.80922 0.787293 0.820656 0.776719 0.80922 0
0.845711 0.880934 0.833568 0.867711 0.845711 0.880934 0.833568 0.867711 0
0.907685 0.945929 0.893637 0.930679 0.907685 0.945929 0.893637 0.930679 0
0.555342 0.580182 0.549459 0.573927 0.555342 0.580182 0.549459 0.573927 0
0.598973 0.625503 0.59242 0.618508 0.598973 0.625503 0.59242 0.618508 0
0.645569 0.673903 0.638224 0.666044 0.645569 0.673903 0.638224 0.666044 0
0.695351 0.725674 0.687082 0.716798 0.695351 0.725674 0.687082 0.716798 0
0.748643 0.781156 0.739274 0.771044 0.748643 0.781156 0.739274 0.771044 0
0.805801 0.840756 0.795078 0.829098 0.805801 0.840756 0.795078 0.829098 0
0.867134 0.904401 0.854697 0.890757 0.867134 0.904401 0.854697 0.890757 0
0.932743 0.973347 0.918155 0.957354 0.932743 0.973347 0.918155 0.957354 0
0 0 0 0 0 0 0 0 0
0 0 0 0 0 0 0 0 0
0 0 0 0 0 0 0 0 0
0 0 0 0 0 0 0 0 0
0 0 0 0 0 0 0 0 0
0 0 0 0 0 0 0 0 0
0 0 0 0 0 0 0 0 0
0 0 0 0 0 0 0 0 0
0 0 0 0 0 0 0 0 0
0 0 0 0 0 0 0 0 0
0 0 0 0 0 0 0 0 0
0 0 0 0 0 0 0 0 0
0 0 0 0 0 0 0 0 0
0 0 0 0 0 0 0 0 0
0 0 0 0 0 0 0 0 0
0 0 0 0 0 0 0 0 0
0 0 0 0 0 0 0 0 0
0 0 0 0 0 0 0 0 0
0 0 0 0 0 0 0 0 0
0 0 0 0 0 0 0 0 0
0 0 0 0 0 0 0 0 0
0 0 0 0 0 0 0 0 0
0 0 0 0 0 0 0 0 0
0 0 0 0 0 0 0 0 0
0 0 0 0 0 0 0 0 0
0 0 0 0 0 0 0 0 0
0 0 0 0 0 0 0 0 0
0 0 0 0 0 0 0 0 0
0 0 0 0 0 0 0 0 0
0 0 0 0 0 0 0 0 0
0 0 0 0 0 0 0 0 0
0 0 0 0 0 0 0 0 0
0 0 0 0 0 0 0 0 0
0 0 0 0 0 0 0 0 0
0 0 0 0 0 0 0 0 0
0 0 0 0 0 0 0 0 0
0 0 0 0 0 0 0 0 0
0 0 0 0 0 0 0 0 0
0 0 0 0 0 0 0 0 0
0 0 0 0 0 0 0 0 0
0 0 0 0 0 0 0 0 0
0 0 0 0 0 0 0 0 0
0 0 0 0 0 0 0 0 0
0 0 0 0 0 0 0 0 0
0 0 0 0 0 0 0 0 0
0 0 0 0 0 0 0 0 0
0 0 0 0 0 0 0 0 0
0 0 0 0 0 0 0 0 0
0 0 0 0 0 0 0 0 0
0 0 0 0 0 0 0 0 0
0 0 0 0 0 0 0 0 0
0 0 0 0 0 0 0 0 0
0 0 0 0 0 0 0 0 0
0 0 0 0 0 0 0 0 0
0 0 0 0 0 0 0 0 0
0 0 0 0 0 0 0 0 0
0 0 0 0 0 0 0 0 0
0 0 0 0 0 0 0 0 0
0 0 0 0 0 0 0 0 0
0 0 0 0 0 0 0 0 0
0 0 0 0 0 0 0 0 0
0 0 0 0 0 0 0 0 0
0 0 0 0 0 0 0 0 0
0 0 0 0 0 0 0 0 0
0 0 0 0 0 0 0 0 0
0 0 0 0 0 0 0 0 0
0 0 0 0 0 0 0 0 0
0 0 0 0 0 0 0 0 0
0 0 0 0 0 0 0 0 0
0 0 0 0 0 0 0 0 0
0 0 0 0 0 0 0 0 0
0 0 0 0 0 0 0 0 0
0 0 0 0 0 0 0 0 0
0 0 0 0 0 0 0 0 0
0 0 0 0 0 0 0 0 0
0 0 0 0 0 0 0 0 0
0 0 0 0 0 0 0 0 0
0 0 0 0 0 0 0 0 0
0 0 0 0 0 0 0 0 0
0 0 0 0 0 0 0 0 0
0 0 0 0 0 0 0 0 0
0 0 0 0 0 0 0 0 0
0 0 0 0 0 0 0 0 0
0 0 0 0 0 0 0 0 0
0 0 0 0 0 0 0 0 0
0 0 0 0 0 0 0 0 0
0 0 0 0 0 0 0 0 0
0 0 0 0 0 0 0 0 0
0 0 0 0 0 0 0 0 0
0 0 0 0 0 0 0 0 0
0 0 0 0 0 0 0 0 0
0 0 0 0 0 0 0 0 0
0 0 0 0 0 0 0 0 0
0 0 0 0 0 0 0 0 0
0 0 0 0 0 0 0 0 0
0 0 0 0 0 0 0 0 0
0 0 0 0 0 0 0 0 0
0 0 0 0 0 0 0 0 0
0 0 0 0 0 0 0 0 0
0 0 0 0 0 0 0 0 0
0 0 0 0 0 0 0 0 0
0 0 0 0 0 0 0 0 0
0 0 0 0 0 0 0 0 0
0 0 0 0 0 0 0 0 0
0 0 0 0 0 0 0 0 0
0 0 0 0 0 0 0 0 0
0 0 0 0 0 0 0 0 0
0 0 0 0 0 0 0 0 0
0 0 0 0 0 0 0 0 0
0 0 0 0 0 0 0 0 0
0 0 0 0 0 0 0 0 0
0 0 0 0 0 0 0 0 0
0 0 0 0 0 0 0 0 0
0 0 0 0 0 0 0 0 0
0 0 0 0 0 0 0 0 0
0 0 0 0 0 0 0 0 0
0 0 0 0 0 0 0 0 0
0 0 0 0 0 0 0 0 0
0 0 0 0 0 0 0 0 0
0 0 0 0 0 0 0 0 0
0 0 0 0 0 0 0 0 0
0 0 0 0 0 0 0 0 0
0 0 0 0 0 0 0 0 0
0 0 0 0 0 0 0 0 0
0 0 0 0 0 0 0 0 0
0 0 0 0 0 0 0 0 0
0 0 0 0 0 0 0 0 0
0 0 0 0 0 0 0 0 0
0 0 0 0 0 0 0 0 0
0 0 0 0 0 0 0 0 0
0 0 0 0 0 0 0 0 0
0 0 0 0 0 0 0 0 0
0 0 0 0 0 0 0 0 0
0 0 0 0 0 0 0 0 0
0 0 0 0 0 0 0 0 0
0 0 0 0 0 0 0 0 0
0 0 0 0 0 0 0 0 0
0 0 0 0 0 0 0 0 0
0 0 0 0 0 0 0 0 0
0 0 0 0 0 0 0 0 0
0 0 0 0 0 0 0 0 0
0 0 0 0 0 0 0 0 0
0 0 0 0 0 0 0 0 0
0 0 0 0 0 0 0 0 0
0 0 0 0 0 0 0 0 0
0 0 0 0 0 0 0 0 0
0 0 0 0 0 0 0 0 0
0 0 0 0 0 0 0 0 0
0 0 0 0 0 0 0 0 0
0 0 0 0 0 0 0 0 0
0 0 0 0 0 0 0 0 0
0 0 0 0 0 0 0 0 0
0 0 0 0 0 0 0 0 0
0 0 0 0 0 0 0 0 0
0 0 0 0 0 0 0 0 0
0 0 0 0 0 0 0 0 0
0 0 0 0 0 0 0 0 0
0 0 0 0 0 0 0 0 0
0 0 0 0 0 0 0 0 0
0 0 0 0 0 0 0 0 0
0 0 0 0 0 0 0 0 0
0 0 0 0 0 0 0 0 0
0 0 0 0 0 0 0 0 0
0 0 0 0 0 0 0 0 0
0 0 0 0 0 0 0 0 0
0 0 0 0 0 0 0 0 0
0 0 0 0 0 0 0 0 0
0 0 0 0 0 0 0 0 0
0 0 0 0 0 0 0 0 0
0 0 0 0 0 0 0 0 0
0 0 0 0 0 0 0 0 0
0 0 0 0 0 0 0 0 0
0 0 0 0 0 0 0 0 0
0 0 0 0 0 0 0 0 0
0 0 0 0 0 0 0 0 0
0 0 0 0 0 0 0 0 0
0 0 0 0 0 0 0 0 0
0 0 0 0 0 0 0 0 0
0 0 0 0 0 0 0 0 0
0 0 0 0 0 0 0 0 0
0 0 0 0 0 0 0 0 0
0 0 0 0 0 0 0 0 0
0 0 0 0 0 0 0 0 0
0 0 0 0 0 0 0 0 0
0 0 0 0 0 0 0 0 0
0 0 0 0 0 0 0 0 0
0 0 0 0 0 0 0 0 0
0 0 0 0 0 0 0 0 0
0 0 0 0 0 0 0 0 0
0 0 0 0 0 0 0 0 0
0 0 0 0 0 0 0 0 0
0 0 0 0 0 0 0 0 0
0 0 0 0 0 0 0 0 0
0 0 0 0 0 0 0 0 0
0 0 0 0 0 0 0 0 0
0 0 0 0 0 0 0 0 0
0 0 0 0 0 0 0 0 0
0 0 0 0 0 0 0 0 0
0 0 0 0 0 0 0 0 0
0 0 0 0 0 0 0 0 0
0 0 0 0 0 0 0 0 0
0 0 0 0 0 0 0 0 0
0 0 0 0 0 0 0 0 0
0 0 0 0 0 0 0 0 0
0 0 0 0 0 0 0 0 0
0 0 0 0 0 0 0 0 0
0 0 0 0 0 0 0 0 0
0 0 0 0 0 0 0 0 0
0 0 0 0 0 0 0 0 0
0 0 0 0 0 0 0 0 0
0 0 0 0 0 0 0 0 0
0 0 0 0 0 0 0 0 0
0 0 0 0 0 0 0 0 0
0 0 0 0 0 0 0 0 0
0 0 0 0 0 0 0 0 0
0 0 0 0 0 0 0 0 0
0 0 0 0 0 0 0 0 0
0 0 0 0 0 0 0 0 0
0 0 0 0 0 0 0 0 0
0 0 0 0 0 0 0 0 0
0 0 0 0 0 0 0 0 0
0 0 0 0 0 0 0 0 0
0 0 0 0 0 0 0 0 0
0 0 0 0 0 0 0 0 0
0 0 0 0 0 0 0 0 0
0 0 0 0 0 0 0 0 0
0 0 0 0 0 0 0 0 0
0 0 0 0 0 0 0 0 0
0 0 0 0 0 0 0 0 0
0 0 0 0 0 0 0 0 0
0 0 0 0 0 0 0 0 0
0 0 0 0 0 0 0 0 0
0 0 0 0 0 0 0 0 0
0 0 0 0 0 0 0 0 0
0 0 0 0 0 0 0 0 0
0 0 0 0 0 0 0 0 0
0 0 0 0 0 0 0 0 0
0 0 0 0 0 0 0 0 0
0 0 0 0 0 0 0 0 0
0 0 0 0 0 0 0 0 0
0 0 0 0 0 0 0 0 0
0 0 0 0 0 0 0 0 0
0 0 0 0 0 0 0 0 0
0 0 0 0 0 0 0 0 0
0 0 0 0 0 0 0 0 0
0 0 0 0 0 0 0 0 0
0 0 0 0 0 0 0 0 0
0 0 0 0 0 0 0 0 0
0 0 0 0 0 0 0 0 0
0 0 0 0 0 0 0 0 0
0 0 0 0 0 0 0 0 0
0 0 0 0 0 0 0 0 0
0 0 0 0 0 0 0 0 0
0 0 0 0 0 0 0 0 0
0 0 0 0 0 0 0 0 0
0 0 0 0 0 0 0 0 0
0 0 0 0 0 0 0 0 0
0 0 0 0 0 0 0 0 0
0 0 0 0 0 0 0 0 0
0 0 0 0 0 0 0 0 0
0 0 0 0 0 0 0 0 0
0 0 0 0 0 0 0 0 0
0 0 0 0 0 0 0 0 0
0 0 0 0 0 0 0 0 0
0 0 0 0 0 0 0 0 0
0 0 0 0 0 0 0 0 0
0 0 0 0 0 0 0 0 0
0 0 0 0 0 0 0 0 0
0 0 0 0 0 0 0 0 0
0 0 0 0 0 0 0 0 0
0 0 0 0 0 0 0 0 0
0 0 0 0 0 0 0 0 0
0 0 0 0 0 0 0 0 0
0 0 0 0 0 0 0 0 0
0 0 0 0 0 0 0 0 0
0 0 0 0 0 0 0 0 0
0 0 0 0 0 0 0 0 0
0 0 0 0 0 0 0 0 0
0 0 0 0 0 0 0 0 0
0 0 0 0 0 0 0 0 0
0 0 0 0 0 0 0 0 0
0 0 0 0 0 0 0 0 0
0 0 0 0 0 0 0 0 0
0 0 0 0 0 0 0 0 0
0 0 0 0 0 0 0 0 0
0 0 0 0 0 0 0 0 0
0 0 0 0 0 0 0 0 0
0 0 0 0 0 0 0 0 0
0 0 0 0 0 0 0 0 0
0 0 0 0 0 0 0 0 0
0 0 0 0 0 0 0 0 0
0 0 0 0 0 0 0 0 0
0 0 0 0 0 0 0 0 0
0 0 0 0 0 0 0 0 0
0 0 0 0 0 0 0 0 0
0 0 0 0 0 0 0 0 0
0 0 0 0 0 0 0 0 0
0 0 0 0 0 0 0 0 0
0 0 0 0 0 0 0 0 0
0 0 0 0 0 0 0 0 0
0 0 0 0 0 0 0 0 0
0 0 0 0 0 0 0 0 0
0 0 0 0 0 0 0 0 0
0 0 0 0 0 0 0 0 0
0 0 0 0 0 0 0 0 0
0 0 0 0 0 0 0 0 0
0 0 0 0 0 0 0 0 0
0 0 0 0 0 0 0 0 0
0 0 0 0 0 0 0 0 0
0 0 0 0 0 0 0 0 0
0 0 0 0 0 0 0 0 0
0 0 0 0 0 0 0 0 0
0 0 0 0 0 0 0 0 0
0 0 0 0 0 0 0 0 0
0 0 0 0 0 0 0 0 0
0 0 0 0 0 0 0 0 0
0 0 0 0 0 0 0 0 0
0 0 0 0 0 0 0 0 0
0 0 0 0 0 0 0 0 0
0 0 0 0 0 0 0 0 0
0 0 0 0 0 0 0 0 0
0 0 0 0 0 0 0 0 0
0 0 0 0 0 0 0 0 0
0 0 0 0 0 0 0 0 0
0 0 0 0 0 0 0 0 0
0 0 0 0 0 0 0 0 0
0 0 0 0 0 0 0 0 0
0 0 0 0 0 0 0 0 0
0 0 0 0 0 0 0 0 0
0 0 0 0 0 0 0 0 0
0 0 0 0 0 0 0 0 0
0 0 0 0 0 0 0 0 0
0 0 0 0 0 0 0 0 0
0 0 0 0 0 0 0 0 0
0 0 0 0 0 0 0 0 0
0 0 0 0 0 0 0 0 0
0 0 0 0 0 0 0 0 0
0 0 0 0 0 0 0 0 0
0 0 0 0 0 0 0 0 0
0 0 0 0 0 0 0 0 0
0 0 0 0 0 0 0 0 0
0 0 0 0 0 0 0 0 0
0 0 0 0 0 0 0 0 0
0 0 0 0 0 0 0 0 0
0 0 0 0 0 0 0 0 0
0 0 0 0 0 0 0 0 0
0 0 0 0 0 0 0 0 0
0 0 0 0 0 0 0 0 0
0 0 0 0 0 0 0 0 0
0 0 0 0 0 0 0 0 0
0 0 0 0 0 0 0 0 0
0 0 0 0 0 0 0 0 0
0 0 0 0 0 0 0 0 0
0 0 0 0 0 0 0 0 0
0 0 0 0 0 0 0 0 0
0 0 0 0 0 0 0 0 0
0 0 0 0 0 0 0 0 0
0 0 0 0 0 0 0 0 0
0 0 0 0 0 0 0 0 0
0 0 0 0 0 0 0 0 0
0 0 0 0 0 0 0 0 0
0 0 0 0 0 0 0 0 0
0 0 0 0 0 0 0 0 0
0 0 0 0 0 0 0 0 0
0 0 0 0 0 0 0 0 0
0 0 0 0 0 0 0 0 0
0 0 0 0 0 0 0 0 0
0 0 0 0 0 0 0 0 0
0 0 0 0 0 0 0 0 0
0 0 0 0 0 0 0 0 0
0 0 0 0 0 0 0 0 0
0 0 0 0 0 0 0 0 0
0 0 0 0 0 0 0 0 0
0 0 0 0 0 0 0 0 0
0 0 0 0 0 0 0 0 0
0 0 0 0 0 0 0 0 0
0 0 0 0 0 0 0 0 0
0 0 0 0 0 0 0 0 0
0 0 0 0 0 0 0 0 0
0 0 0 0 0 0 0 0 0
0 0 0 0 0 0 0 0 0
0 0 0 0 0 0 0 0 0
0 0 0 0 0 0 0 0 0
0 0 0 0 0 0 0 0 0
0 0 0 0 0 0 0 0 0
0 0 0 0 0 0 0 0 0
0 0 0 0 0 0 0 0 0
0 0 0 0 0 0 0 0 0
0 0 0 0 0 0 0 0 0
0 0 0 0 0 0 0 0 0
0 0 0 0 0 0 0 0 0
0 0 0 0 0 0 0 0 0
0 0 0 0 0 0 0 0 0
0 0 0 0 0 0 0 0 0
0 0 0 0 0 0 0 0 0
0 0 0 0 0 0 0 0 0
0 0 0 0 0 0 0 0 0
0 0 0 0 0 0 0 0 0
0 0 0 0 0 0 0 0 0
0 0 0 0 0 0 0 0 0
0 0 0 0 0 0 0 0 0
0 0 0 0 0 0 0 0 0
0 0 0 0 0 0 0 0 0
0 0 0 0 0 0 0 0 0
0 0 0 0 0 0 0 0 0
0 0 0 0 0 0 0 0 0
0 0 0 0 0 0 0 0 0
0 0 0 0 0 0 0 0 0
0 0 0 0 0 0 0 0 0
0 0 0 0 0 0 0 0 0
0 0 0 0 0 0 0 0 0
0 0 0 0 0 0 0 0 0
0 0 0 0 0 0 0 0 0
0 0 0 0 0 0 0 0 0
0 0 0 0 0 0 0 0 0
0 0 0 0 0 0 0 0 0
0 0 0 0 0 0 0 0 0
0 0 0 0 0 0 0 0 0
0 0 0 0 0 0 0 0 0
0 0 0 0 0 0 0 0 0
0 0 0 0 0 0 0 0 0
0 0 0 0 0 0 0 0 0
0 0 0 0 0 0 0 0 0
0 0 0 0 0 0 0 0 0
0 0 0 0 0 0 0 0 0
0 0 0 0 0 0 0 0 0
0 0 0 0 0 0 0 0 0
0 0 0 0 0 0 0 0 0
0 0 0 0 0 0 0 0 0
0 0 0 0 0 0 0 0 0
0 0 0 0 0 0 0 0 0
0 0 0 0 0 0 0 0 0
0 0 0 0 0 0 0 0 0
0 0 0 0 0 0 0 0 0
0 0 0 0 0 0 0 0 0
0 0 0 0 0 0 0 0 0
0 0 0 0 0 0 0 0 0
0 0 0 0 0 0 0 0 0
0 0 0 0 0 0 0 0 0
0 0 0 0 0 0 0 0 0
0 0 0 0 0 0 0 0 0
0 0 0 0 0 0 0 0 0
0 0 0 0 0 0 0 0 0
0 0 0 0 0 0 0 0 0
0 0 0 0 0 0 0 0 0
0 0 0 0 0 0 0 0 0
0 0 0 0 0 0 0 0 0
0 0 0 0 0 0 0 0 0
0 0 0 0 0 0 0 0 0
0 0 0 0 0 0 0 0 0
0 0 0 0 0 0 0 0 0
0 0 0 0 0 0 0 0 0
0 0 0 0 0 0 0 0 0
0 0 0 0 0 0 0 0 0
0 0 0 0 0 0 0 0 0
0 0 0 0 0 0 0 0 0
0 0 0 0 0 0 0 0 0
0 0 0 0 0 0 0 0 0
0 0 0 0 0 0 0 0 0
0 0 0 0 0 0 0 0 0
0 0 0 0 0 0 0 0 0
0 0 0 0 0 0 0 0 0
0 0 0 0 0 0 0 0 0
0 0 0 0 0 0 0 0 0
0 0 0 0 0 0 0 0 0
0 0 0 0 0 0 0 0 0
0 0 0 0 0 0 0 0 0
0 0 0 0 0 0 0 0 0
0 0 0 0 0 0 0 0 0
0 0 0 0 0 0 0 0 0
0 0 0 0 0 0 0 0 0
0 0 0 0 0 0 0 0 0
0 0 0 0 0 0 0 0 0
0 0 0 0 0 0 0 0 0
0 0 0 0 0 0 0 0 0
0 0 0 0 0 0 0 0 0
0 0 0 0 0 0 0 0 0
0 0 0 0 0 0 0 0 0
0 0 0 0 0 0 0 0 0
0 0 0 0 0 0 0 0 0
0 0 0 0 0 0 0 0 0
0 0 0 0 0 0 0 0 0
0 0 0 0 0 0 0 0 0
0 0 0 0 0 0 0 0 0
0 0 0 0 0 0 0 0 0
0 0 0 0 0 0 0 0 0
0 0 0 0 0 0 0 0 0
0 0 0 0 0 0 0 0 0
0 0 0 0 0 0 0 0 0
0 0 0 0 0 0 0 0 0
0 0 0 0 0 0 0 0 0
0 0 0 0 0 0 0 0 0
0 0 0 0 0 0 0 0 0
0 0 0 0 0 0 0 0 0
0 0 0 0 0 0 0 0 0
0 0 0 0 0 0 0 0 0
0 0 0 0 0 0 0 0 0
0 0 0 0 0 0 0 0 0
0 0 0 0 0 0 0 0 0
0 0 0 0 0 0 0 0 0
0 0 0 0 0 0 0 0 0
0 0 0 0 0 0 0 0 0
0 0 0 0 0 0 0 0 0
0 0 0 0 0 0 0 0 0
0 0 0 0 0 0 0 0 0
0 0 0 0 0 0 0 0 0
0 0 0 0 0 0 0 0 0
0 0 0 0 0 0 0 0 0
0 0 0 0 0 0 0 0 0
0 0 0 0 0 0 0 0 0
0 0 0 0 0 0 0 0 0
0 0 0 0 0 0 0 0 0
0 0 0 0 0 0 0 0 0
0 0 0 0 0 0 0 0 0
0 0 0 0 0 0 0 0 0
0 0 0 0 0 0 0 0 0
0 0 0 0 0 0 0 0 0
0 0 0 0 0 0 0 0 0
0 0 0 0 0 0 0 0 0
0 0 0 0 0 0 0 0 0
0 0 0 0 0 0 0 0 0
0 0 0 0 0 0 0 0 0
0 0 0 0 0 0 0 0 0
0 0 0 0 0 0 0 0 0
0 0 0 0 0 0 0 0 0
0 0 0 0 0 0 0 0 0
0 0 0 0 0 0 0 0 0
0 0 0 0 0 0 0 0 0
0 0 0 0 0 0 0 0 0
0 0 0 0 0 0 0 0 0
0 0 0 0 0 0 0 0 0
0 0 0 0 0 0 0 0 0
0 0 0 0 0 0 0 0 0
0 0 0 0 0 0 0 0 0
0 0 0 0 0 0 0 0 0
0 0 0 0 0 0 0 0 0
0 0 0 0 0 0 0 0 0
0 0 0 0 0 0 0 0 0
0 0 0 0 0 0 0 0 0
0 0 0 0 0 0 0 0 0
0 0 0 0 0 0 0 0 0
0 0 0 0 0 0 0 0 0
0 0 0 0 0 0 0 0 0
0 0 0 0 0 0 0 0 0
0 0 0 0 0 0 0 0 0
0 0 0 0 0 0 0 0 0
0 0 0 0 0 0 0 0 0
0 0 0 0 0 0 0 0 0
0 0 0 0 0 0 0 0 0
0 0 0 0 0 0 0 0 0
0 0 0 0 0 0 0 0 0
0 0 0 0 0 0 0 0 0
0 0 0 0 0 0 0 0 0
0 0 0 0 0 0 0 0 0
0 0 0 0 0 0 0 0 0
0 0 0 0 0 0 0 0 0
0 0 0 0 0 0 0 0 0
0 0 0 0 0 0 0 0 0
0 0 0 0 0 0 0 0 0
0 0 0 0 0 0 0 0 0
0 0 0 0 0 0 0 0 0
0 0 0 0 0 0 0 0 0
0 0 0 0 0 0 0 0 0
0 0 0 0 0 0 0 0 0
0 0 0 0 0 0 0 0 0
0 0 0 0 0 0 0 0 0
0 0 0 0 0 0 0 0 0
0 0 0 0 0 0 0 0 0
0 0 0 0 0 0 0 0 0
0 0 0 0 0 0 0 0 0
0 0 0 0 0 0 0 0 0
0 0 0 0 0 0 0 0 0
0 0 0 0 0 0 0 0 0
0 0 0 0 0 0 0 0 0
0 0 0 0 0 0 0 0 0
0 0 0 0 0 0 0 0 0
0 0 0 0 0 0 0 0 0
0 0 0 0 0 0 0 0 0
0 0 0 0 0 0 0 0 0
0 0 0 0 0 0 0 0 0
0 0 0 0 0 0 0 0 0
0 0 0 0 0 0 0 0 0
0 0 0 0 0 0 0 0 0
0 0 0 0 0 0 0 0 0
0 0 0 0 0 0 0 0 0
0 0 0 0 0 0 0 0 0
0 0 0 0 0 0 0 0 0
0 0 0 0 0 0 0 0 0
0 0 0 0 0 0 0 0 0
0 0 0 0 0 0 0 0 0
0 0 0 0 0 0 0 0 0
0 0 0 0 0 0 0 0 0
0 0 0 0 0 0 0 0 0
0 0 0 0 0 0 0 0 0
0 0 0 0 0 0 0 0 0
0 0 0 0 0 0 0 0 0
0 0 0 0 0 0 0 0 0
0 0 0 0 0 0 0 0 0
0 0 0 0 0 0 0 0 0
0 0 0 0 0 0 0 0 0
0 0 0 0 0 0 0 0 0
0 0 0 0 0 0 0 0 0
0 0 0 0 0 0 0 0 0
0 0 0 0 0 0 0 0 0
0 0 0 0 0 0 0 0 0
0 0 0 0 0 0 0 0 0
0 0 0 0 0 0 0 0 0
0 0 0 0 0 0 0 0 0
0 0 0 0 0 0 0 0 0
0 0 0 0 0 0 0 0 0
0 0 0 0 0 0 0 0 0
0 0 0 0 0 0 0 0 0
0 0 0 0 0 0 0 0 0
0 0 0 0 0 0 0 0 0
0 0 0 0 0 0 0 0 0
0 0 0 0 0 0 0 0 0
0 0 0 0 0 0 0 0 0
0 0 0 0 0 0 0 0 0
0 0 0 0 0 0 0 0 0
0 0 0 0 0 0 0 0 0
0 0 0 0 0 0 0 0 0
0 0 0 0 0 0 0 0 0
0 0 0 0 0 0 0 0 0
0 0 0 0 0 0 0 0 0
0 0 0 0 0 0 0 0 0
0 0 0 0 0 0 0 0 0
0 0 0 0 0 0 0 0 0
0 0 0 0 0 0 0 0 0
0 0 0 0 0 0 0 0 0
0 0 0 0 0 0 0 0 0
0 0 0 0 0 0 0 0 0
0 0 0 0 0 0 0 0 0
0 0 0 0 0 0 0 0 0
0 0 0 0 0 0 0 0 0
0 0 0 0 0 0 0 0 0
0 0 0 0 0 0 0 0 0
0 0 0 0 0 0 0 0 0
0 0 0 0 0 0 0 0 0
0 0 0 0 0 0 0 0 0
0 0 0 0 0 0 0 0 0
0 0 0 0 0 0 0 0 0
0 0 0 0 0 0 0 0 0
0 0 0 0 0 0 0 0 0
0 0 0 0 0 0 0 0 0
0 0 0 0 0 0 0 0 0
0 0 0 0 0 0 0 0 0
0 0 0 0 0 0 0 0 0
0 0 0 0 0 0 0 0 0
0 0 0 0 0 0 0 0 0
0 0 0 0 0 0 0 0 0
0 0 0 0 0 0 0 0 0
0 0 0 0 0 0 0 0 0
0 0 0 0 0 0 0 0 0
0 0 0 0 0 0 0 0 0
0 0 0 0 0 0 0 0 0
0 0 0 0 0 0 0 0 0
0 0 0 0 0 0 0 0 0
0 0 0 0 0 0 0 0 0
0 0 0 0 0 0 0 0 0
0 0 0 0 0 0 0 0 0
0 0 0 0 0 0 0 0 0
0 0 0 0 0 0 0 0 0
0 0 0 0 0 0 0 0 0
0 0 0 0 0 0 0 0 0
0 0 0 0 0 0 0 0 0
0 0 0 0 0 0 0 0 0
0 0 0 0 0 0 0 0 0
0 0 0 0 0 0 0 0 0
0 0 0 0 0 0 0 0 0
0 0 0 0 0 0 0 0 0
0 0 0 0 0 0 0 0 0
0 0 0 0 0 0 0 0 0
0 0 0 0 0 0 0 0 0
0 0 0 0 0 0 0 0 0
0 0 0 0 0 0 0 0 0
0 0 0 0 0 0 0 0 0
0 0 0 0 0 0 0 0 0
0 0 0 0 0 0 0 0 0
0 0 0 0 0 0 0 0 0
0 0 0 0 0 0 0 0 0
0 0 0 0 0 0 0 0 0
0 0 0 0 0 0 0 0 0
0 0 0 0 0 0 0 0 0
0 0 0 0 0 0 0 0 0
0 0 0 0 0 0 0 0 0
0 0 0 0 0 0 0 0 0
0 0 0 0 0 0 0 0 0
0 0 0 0 0 0 0 0 0
0 0 0 0 0 0 0 0 0
0 0 0 0 0 0 0 0 0
0 0 0 0 0 0 0 0 0
0 0 0 0 0 0 0 0 0
0 0 0 0 0 0 0 0 0
1.08153 1.12024 1.07188 1.10987 1.08153 1.12024 1.07188 1.10987 0
1.14874 1.18794 1.13784 1.1763 1.14874 1.18794 1.13784 1.1763 0
1.21618 1.25415 1.20397 1.24114 1.21618 1.25415 1.20397 1.24114 0
1.28231 1.3214 1.26874 1.30708 1.28231 1.3214 1.26874 1.30708 0
1.03106 1.07024 1.02191 1.0604 1.03106 1.07024 1.02191 1.0604 0
1.09921 1.13921 1.08885 1.12809 1.09921 1.13921 1.08885 1.12809 0
1.16869 1.20926 1.157 1.19677 1.16869 1.20926 1.157 1.19677 0
1.23854 1.27797 1.22544 1.26401 1.23854 1.27797 1.22544 1.26401 0
1.30717 1.34761 1.29261 1.33225 1.30717 1.34761 1.29261 1.33225 0
1.04784 1.08826 1.038 1.0777 1.04784 1.08826 1.038 1.0777 0
1.11819 1.15956 1.10707 1.14764 1.11819 1.15956 1.10707 1.14764 0
1.19007 1.23211 1.17755 1.21873 1.19007 1.23211 1.17755 1.21873 0
1.2625 1.3035 1.24847 1.28855 1.2625 1.3035 1.24847 1.28855 0
1.33381 1.37574 1.3182 1.35926 1.33381 1.37574 1.3182 1.35926 0
0.995597 1.03587 0.986214 1.02582 0.995597 1.03587 0.986214 1.02582 0
1.06587 1.1076 1.0553 1.09627 1.06587 1.1076 1.0553 1.09627 0
1.13853 1.18135 1.12661 1.16859 1.13853 1.18135 1.12661 1.16859 0
1.21297 1.25658 1.19956 1.24225 1.21297 1.25658 1.19956 1.24225 0
1.28816 1.33086 1.27313 1.31484 1.28816 1.33086 1.27313 1.31484 0
1.36238 1.40593 1.34565 1.38824 1.36238 1.40593 1.34565 1.38824 0
1.01283 1.05429 1.00272 1.04349 1.01283 1.05429 1.00272 1.04349 0
1.08522 1.12831 1.07388 1.11618 1.08522 1.12831 1.07388 1.11618 0
1.16031 1.20467 1.14755 1.19101 1.16031 1.20467 1.14755 1.19101 0
1.23746 1.28276 1.22312 1.26742 1.23746 1.28276 1.22312 1.26742 0
1.31564 1.36018 1.29954 1.34301 1.31564 1.36018 1.29954 1.34301 0
1.39302 1.43835 1.37507 1.41935 1.39302 1.43835 1.37507 1.41935 0
1.03136 1.07406 1.02049 1.06247 1.03136 1.07406 1.02049 1.06247 0
1.10596 1.15048 1.09381 1.1375 1.10596 1.15048 1.09381 1.1375 0
1.18359 1.22959 1.16996 1.215 1.18359 1.22959 1.16996 1.215 0
1.26365 1.31076 1.24832 1.29436 1.26365 1.31076 1.24832 1.29436 0
1.34504 1.39159 1.32782 1.37319 1.34504 1.39159 1.32782 1.37319 0
1.42588 1.47317 1.40663 1.45276 1.42588 1.47317 1.40663 1.45276 0
0.978009 1.01985 0.96748 1.0087 0.978009 1.01985 0.96748 1.0087 0
1.05125 1.09523 1.03959 1.08283 1.05125 1.09523 1.03959 1.08283 0
1.12815 1.17417 1.11516 1.1603 1.12815 1.17417 1.11516 1.1603 0
1.20847 1.25621 1.1939 1.24063 1.20847 1.25621 1.1939 1.24063 0
1.29161 1.34069 1.27524 1.32317 1.29161 1.34069 1.27524 1.32317 0
1.37649 1.42525 1.35807 1.40553 1.37649 1.42525 1.35807 1.40553 0
1.46113 1.51059 1.44048 1.48866 1.46113 1.51059 1.44048 1.48866 0
0.997317 1.04027 0.985996 1.0283 0.997317 1.04027 0.985996 1.0283 0
1.07256 1.11787 1.06007 1.10461 1.07256 1.11787 1.06007 1.10461 0
1.15185 1.19944 1.13797 1.18465 1.15185 1.19944 1.13797 1.18465 0
1.23499 1.28458 1.21946 1.26797 1.23499 1.28458 1.21946 1.26797 0
1.32144 1.37265 1.30398 1.35394 1.32144 1.37265 1.30398 1.35394 0
1.41011 1.46129 1.39042 1.44018 1.41011 1.46129 1.39042 1.44018 0
1.49895 1.55085 1.47679 1.52724 1.49895 1.55085 1.47679 1.52724 0
1.01802 1.06212 1.00589 1.04932 1.01802 1.06212 1.00589 1.04932 0
1.09532 1.14202 1.08199 1.12788 1.09532 1.14202 1.08199 1.12788 0
1.1771 1.22636 1.16232 1.21061 1.1771 1.22636 1.16232 1.21061 0
1.26323 1.3148 1.2467 1.29712 1.26323 1.3148 1.2467 1.29712 0
1.35322 1.40673 1.33463 1.38678 1.35322 1.40673 1.33463 1.38678 0
1.44601 1.49987 1.425 1.47728 1.44601 1.49987 1.425 1.47728 0
1.53951 1.59416 1.51574 1.56877 1.53951 1.59416 1.51574 1.56877 0
0.965391 1.00796 0.953486 0.995495 0.965391 1.00796 0.953486 0.995495 0
1.04011 1.0854 1.02718 1.07178 1.04011 1.0854 1.02718 1.07178 0
1.11957 1.16771 1.10538 1.15268 1.11957 1.16771 1.10538 1.15268 0
1.20395 1.25495 1.18825 1.23822 1.20395 1.25495 1.18825 1.23822 0
1.29322 1.3469 1.27568 1.32813 1.29322 1.3469 1.27568 1.32813 0
1.38701 1.44303 1.36724 1.42179 1.38701 1.44303 1.36724 1.42179 0
1.4843 1.54113 1.46189 1.51697 1.4843 1.54113 1.46189 1.51697 0
1.58298 1.64075 1.55751 1.61343 1.58298 1.64075 1.55751 1.61343 0
0.987035 1.03062 0.974373 1.01737 0.987035 1.03062 0.974373 1.01737 0
1.06358 1.11012 1.04985 1.09567 1.06358 1.11012 1.04985 1.09567 0
1.14529 1.19493 1.13026 1.17902 1.14529 1.19493 1.13026 1.17902 0
1.23239 1.28522 1.21577 1.26753 1.23239 1.28522 1.21577 1.26753 0
1.32499 1.38092 1.30642 1.36104 1.32499 1.38092 1.30642 1.36104 0
1.42284 1.48157 1.40189 1.45903 1.42284 1.48157 1.40189 1.45903 0
1.52504 1.58515 1.50121 1.55938 1.52504 1.58515 1.50121 1.55938 0
1.62949 1.69082 1.60225 1.66147 1.62949 1.69082 1.60225 1.66147 0
1.00991 1.05457 0.996551 1.04058 1.00991 1.05457 0.996551 1.04058 0
1.08839 1.13622 1.0739 1.12098 1.08839 1.13622 1.0739 1.12098 0
1.17244 1.22364 1.15658 1.20687 1.17244 1.22364 1.15658 1.20687 0
1.26238 1.31713 1.24487 1.2985 1.26238 1.31713 1.24487 1.2985 0
1.35847 1.4168 1.33892 1.39585 1.35847 1.4168 1.33892 1.39585 0
1.46067 1.52237 1.43857 1.49853 1.46067 1.52237 1.43857 1.49853 0
1.56826 1.63204 1.54299 1.6046 1.56826 1.63204 1.54299 1.6046 0
1.6792 1.7446 1.65009 1.71308 1.6792 1.7446 1.65009 1.71308 0
0 0 0 0 0 0 0 0 0
0 0 0 0 0 0 0 0 0
0 0 0 0 0 0 0 0 0
0 0 0 0 0 0 0 0 0
0 0 0 0 0 0 0 0 0
0 0 0 0 0 0 0 0 0
0 0 0 0 0 0 0 0 0
0 0 0 0 0 0 0 0 0
0 0 0 0 0 0 0 0 0
0 0 0 0 0 0 0 0 0
0 0 0 0 0 0 0 0 0
0 0 0 0 0 0 0 0 0
0 0 0 0 0 0 0 0 0
0 0 0 0 0 0 0 0 0
0 0 0 0 0 0 0 0 0
0 0 0 0 0 0 0 0 0
0 0 0 0 0 0 0 0 0
0 0 0 0 0 0 0 0 0
0 0 0 0 0 0 0 0 0
0 0 0 0 0 0 0 0 0
0 0 0 0 0 0 0 0 0
0 0 0 0 0 0 0 0 0
0 0 0 0 0 0 0 0 0
0 0 0 0 0 0 0 0 0
0 0 0 0 0 0 0 0 0
0 0 0 0 0 0 0 0 0
0 0 0 0 0 0 0 0 0
0 0 0 0 0 0 0 0 0
0 0 0 0 0 0 0 0 0
0 0 0 0 0 0 0 0 0
0 0 0 0 0 0 0 0 0
0 0 0 0 0 0 0 0 0
0 0 0 0 0 0 0 0 0
0 0 0 0 0 0 0 0 0
0 0 0 0 0 0 0 0 0
0 0 0 0 0 0 0 0 0
0 0 0 0 0 0 0 0 0
0 0 0 0 0 0 0 0 0
0 0 0 0 0 0 0 0 0
0 0 0 0 0 0 0 0 0
0 0 0 0 0 0 0 0 0
0 0 0 0 0 0 0 0 0
0 0 0 0 0 0 0 0 0
0 0 0 0 0 0 0 0 0
0 0 0 0 0 0 0 0 0
0 0 0 0 0 0 0 0 0
0 0 0 0 0 0 0 0 0
0 0 0 0 0 0 0 0 0
0 0 0 0 0 0 0 0 0
0 0 0 0 0 0 0 0 0
0 0 0 0 0 0 0 0 0
0 0 0 0 0 0 0 0 0
0 0 0 0 0 0 0 0 0
0 0 0 0 0 0 0 0 0
0 0 0 0 0 0 0 0 0
0 0 0 0 0 0 0 0 0
0 0 0 0 0 0 0 0 0
0 0 0 0 0 0 0 0 0
0 0 0 0 0 0 0 0 0
0 0 0 0 0 0 0 0 0
0 0 0 0 0 0 0 0 0
0 0 0 0 0 0 0 0 0
0 0 0 0 0 0 0 0 0
0 0 0 0 0 0 0 0 0
0 0 0 0 0 0 0 0 0
0 0 0 0 0 0 0 0 0
0 0 0 0 0 0 0 0 0
0 0 0 0 0 0 0 0 0
0 0 0 0 0 0 0 0 0
0 0 0 0 0 0 0 0 0
0 0 0 0 0 0 0 0 0
0 0 0 0 0 0 0 0 0
0 0 0 0 0 0 0 0 0
0 0 0 0 0 0 0 0 0
0 0 0 0 0 0 0 0 0
0 0 0 0 0 0 0 0 0
0 0 0 0 0 0 0 0 0
0 0 0 0 0 0 0 0 0
0 0 0 0 0 0 0 0 0
0 0 0 0 0 0 0 0 0
0 0 0 0 0 0 0 0 0
0 0 0 0 0 0 0 0 0
0 0 0 0 0 0 0 0 0
0 0 0 0 0 0 0 0 0
0 0 0 0 0 0 0 0 0
0 0 0 0 0 0 0 0 0
0 0 0 0 0 0 0 0 0
0 0 0 0 0 0 0 0 0
0 0 0 0 0 0 0 0 0
0 0 0 0 0 0 0 0 0
0 0 0 0 0 0 0 0 0
0 0 0 0 0 0 0 0 0
0 0 0 0 0 0 0 0 0
0 0 0 0 0 0 0 0 0
0 0 0 0 0 0 0 0 0
0 0 0 0 0 0 0 0 0
0 0 0 0 0 0 0 0 0
0 0 0 0 0 0 0 0 0
0 0 0 0 0 0 0 0 0
0 0 0 0 0 0 0 0 0
0 0 0 0 0 0 0 0 0
0 0 0 0 0 0 0 0 0
0 0 0 0 0 0 0 0 0
0 0 0 0 0 0 0 0 0
0 0 0 0 0 0 0 0 0
0 0 0 0 0 0 0 0 0
0 0 0 0 0 0 0 0 0
0 0 0 0 0 0 0 0 0
0 0 0 0 0 0 0 0 0
0 0 0 0 0 0 0 0 0
0 0 0 0 0 0 0 0 0
0 0 0 0 0 0 0 0 0
0 0 0 0 0 0 0 0 0
0 0 0 0 0 0 0 0 0
0 0 0 0 0 0 0 0 0
0 0 0 0 0 0 0 0 0
0 0 0 0 0 0 0 0 0
0 0 0 0 0 0 0 0 0
0 0 0 0 0 0 0 0 0
0 0 0 0 0 0 0 0 0
0 0 0 0 0 0 0 0 0
0 0 0 0 0 0 0 0 0
0 0 0 0 0 0 0 0 0
0 0 0 0 0 0 0 0 0
0 0 0 0 0 0 0 0 0
0 0 0 0 0 0 0 0 0
0 0 0 0 0 0 0 0 0
0 0 0 0 0 0 0 0 0
0 0 0 0 0 0 0 0 0
0 0 0 0 0 0 0 0 0
0 0 0 0 0 0 0 0 0
0 0 0 0 0 0 0 0 0
0 0 0 0 0 0 0 0 0
0 0 0 0 0 0 0 0 0
0 0 0 0 0 0 0 0 0
0 0 0 0 0 0 0 0 0
0 0 0 0 0 0 0 0 0
0 0 0 0 0 0 0 0 0
0 0 0 0 0 0 0 0 0
0 0 0 0 0 0 0 0 0
0 0 0 0 0 0 0 0 0
0 0 0 0 0 0 0 0 0
0 0 0 0 0 0 0 0 0
0 0 0 0 0 0 0 0 0
0 0 0 0 0 0 0 0 0
0 0 0 0 0 0 0 0 0
0 0 0 0 0 0 0 0 0
0 0 0 0 0 0 0 0 0
0 0 0 0 0 0 0 0 0
0 0 0 0 0 0 0 0 0
0 0 0 0 0 0 0 0 0
0 0 0 0 0 0 0 0 0
0 0 0 0 0 0 0 0 0
0 0 0 0 0 0 0 0 0
0 0 0 0 0 0 0 0 0
0 0 0 0 0 0 0 0 0
0 0 0 0 0 0 0 0 0
0 0 0 0 0 0 0 0 0
0 0 0 0 0 0 0 0 0
0 0 0 0 0 0 0 0 0
0 0 0 0 0 0 0 0 0
0 0 0 0 0 0 0 0 0
0 0 0 0 0 0 0 0 0
0 0 0 0 0 0 0 0 0
0 0 0 0 0 0 0 0 0
0 0 0 0 0 0 0 0 0
0 0 0 0 0 0 0 0 0
0 0 0 0 0 0 0 0 0
0 0 0 0 0 0 0 0 0
0 0 0 0 0 0 0 0 0
0 0 0 0 0 0 0 0 0
0 0 0 0 0 0 0 0 0
0 0 0 0 0 0 0 0 0
0 0 0 0 0 0 0 0 0
0 0 0 0 0 0 0 0 0
0 0 0 0 0 0 0 0 0
0 0 0 0 0 0 0 0 0
0 0 0 0 0 0 0 0 0
0 0 0 0 0 0 0 0 0
0 0 0 0 0 0 0 0 0
0 0 0 0 0 0 0 0 0
0 0 0 0 0 0 0 0 0
0 0 0 0 0 0 0 0 0
0 0 0 0 0 0 0 0 0
0 0 0 0 0 0 0 0 0
0 0 0 0 0 0 0 0 0
0 0 0 0 0 0 0 0 0
0 0 0 0 0 0 0 0 0
0 0 0 0 0 0 0 0 0
0 0 0 0 0 0 0 0 0
0 0 0 0 0 0 0 0 0
0 0 0 0 0 0 0 0 0
0 0 0 0 0 0 0 0 0
0 0 0 0 0 0 0 0 0
0 0 0 0 0 0 0 0 0
0 0 0 0 0 0 0 0 0
0 0 0 0 0 0 0 0 0
0 0 0 0 0 0 0 0 0
0 0 0 0 0 0 0 0 0
0 0 0 0 0 0 0 0 0
0 0 0 0 0 0 0 0 0
0 0 0 0 0 0 0 0 0
0 0 0 0 0 0 0 0 0
0 0 0 0 0 0 0 0 0
0 0 0 0 0 0 0 0 0
0 0 0 0 0 0 0 0 0
0 0 0 0 0 0 0 0 0
0 0 0 0 0 0 0 0 0
0 0 0 0 0 0 0 0 0
0 0 0 0 0 0 0 0 0
0 0 0 0 0 0 0 0 0
0 0 0 0 0 0 0 0 0
0 0 0 0 0 0 0 0 0
0 0 0 0 0 0 0 0 0
0 0 0 0 0 0 0 0 0
0 0 0 0 0 0 0 0 0
0 0 0 0 0 0 0 0 0
0 0 0 0 0 0 0 0 0
0 0 0 0 0 0 0 0 0
0 0 0 0 0 0 0 0 0
0 0 0 0 0 0 0 0 0
0 0 0 0 0 0 0 0 0
0 0 0 0 0 0 0 0 0
0 0 0 0 0 0 0 0 0
0 0 0 0 0 0 0 0 0
0 0 0 0 0 0 0 0 0
0 0 0 0 0 0 0 0 0
0 0 0 0 0 0 0 0 0
0 0 0 0 0 0 0 0 0
0 0 0 0 0 0 0 0 0
0 0 0 0 0 0 0 0 0
0 0 0 0 0 0 0 0 0
0 0 0 0 0 0 0 0 0
0 0 0 0 0 0 0 0 0
0 0 0 0 0 0 0 0 0
0 0 0 0 0 0 0 0 0
0 0 0 0 0 0 0 0 0
0 0 0 0 0 0 0 0 0
0 0 0 0 0 0 0 0 0
0 0 0 0 0 0 0 0 0
0 0 0 0 0 0 0 0 0
0 0 0 0 0 0 0 0 0
0 0 0 0 0 0 0 0 0
0 0 0 0 0 0 0 0 0
0 0 0 0 0 0 0 0 0
0 0 0 0 0 0 0 0 0
0 0 0 0 0 0 0 0 0
0 0 0 0 0 0 0 0 0
0 0 0 0 0 0 0 0 0
0 0 0 0 0 0 0 0 0
0 0 0 0 0 0 0 0 0
0 0 0 0 0 0 0 0 0
0 0 0 0 0 0 0 0 0
0 0 0 0 0 0 0 0 0
0 0 0 0 0 0 0 0 0
0 0 0 0 0 0 0 0 0
0 0 0 0 0 0 0 0 0
0 0 0 0 0 0 0 0 0
0 0 0 0 0 0 0 0 0
0 0 0 0 0 0 0 0 0
0 0 0 0 0 0 0 0 0
0 0 0 0 0 0 0 0 0
0 0 0 0 0 0 0 0 0
0 0 0 0 0 0 0 0 0
0 0 0 0 0 0 0 0 0
0 0 0 0 0 0 0 0 0
0 0 0 0 0 0 0 0 0
0 0 0 0 0 0 0 0 0
0 0 0 0 0 0 0 0 0
0 0 0 0 0 0 0 0 0
0 0 0 0 0 0 0 0 0
0 0 0 0 0 0 0 0 0
0 0 0 0 0 0 0 0 0
0 0 0 0 0 0 0 0 0
0 0 0 0 0 0 0 0 0
0 0 0 0 0 0 0 0 0
0 0 0 0 0 0 0 0 0
0 0 0 0 0 0 0 0 0
0 0 0 0 0 0 0 0 0
0 0 0 0 0 0 0 0 0
0 0 0 0 0 0 0 0 0
0 0 0 0 0 0 0 0 0
0 0 0 0 0 0 0 0 0
0 0 0 0 0 0 0 0 0
0 0 0 0 0 0 0 0 0
0 0 0 0 0 0 0 0 0
0 0 0 0 0 0 0 0 0
0 0 0 0 0 0 0 0 0
0 0 0 0 0 0 0 0 0
0 0 0 0 0 0 0 0 0
0 0 0 0 0 0 0 0 0
0 0 0 0 0 0 0 0 0
0 0 0 0 0 0 0 0 0
0 0 0 0 0 0 0 0 0
0 0 0 0 0 0 0 0 0
0 0 0 0 0 0 0 0 0
0 0 0 0 0 0 0 0 0
0 0 0 0 0 0 0 0 0
0 0 0 0 0 0 0 0 0
0 0 0 0 0 0 0 0 0
0 0 0 0 0 0 0 0 0
0 0 0 0 0 0 0 0 0
0 0 0 0 0 0 0 0 0
0 0 0 0 0 0 0 0 0
0 0 0 0 0 0 0 0 0
0 0 0 0 0 0 0 0 0
0 0 0 0 0 0 0 0 0
0 0 0 0 0 0 0 0 0
0 0 0 0 0 0 0 0 0
0 0 0 0 0 0 0 0 0
0 0 0 0 0 0 0 0 0
0 0 0 0 0 0 0 0 0
0 0 0 0 0 0 0 0 0
0 0 0 0 0 0 0 0 0
0 0 0 0 0 0 0 0 0
0 0 0 0 0 0 0 0 0
0 0 0 0 0 0 0 0 0
0 0 0 0 0 0 0 0 0
0 0 0 0 0 0 0 0 0
0 0 0 0 0 0 0 0 0
0 0 0 0 0 0 0 0 0
0 0 0 0 0 0 0 0 0
0 0 0 0 0 0 0 0 0
0 0 0 0 0 0 0 0 0
0 0 0 0 0 0 0 0 0
0 0 0 0 0 0 0 0 0
0 0 0 0 0 0 0 0 0
0 0 0 0 0 0 0 0 0
0 0 0 0 0 0 0 0 0
0 0 0 0 0 0 0 0 0
0 0 0 0 0 0 0 0 0
0 0 0 0 0 0 0 0 0
0 0 0 0 0 0 0 0 0
0 0 0 0 0 0 0 0 0
0 0 0 0 0 0 0 0 0
0 0 0 0 0 0 0 0 0
0 0 0 0 0 0 0 0 0
0 0 0 0 0 0 0 0 0
0 0 0 0 0 0 0 0 0
0 0 0 0 0 0 0 0 0
0 0 0 0 0 0 0 0 0
0 0 0 0 0 0 0 0 0
0 0 0 0 0 0 0 0 0
0 0 0 0 0 0 0 0 0
0 0 0 0 0 0 0 0 0
0 0 0 0 0 0 0 0 0
0 0 0 0 0 0 0 0 0
0 0 0 0 0 0 0 0 0
0 0 0 0 0 0 0 0 0
0 0 0 0 0 0 0 0 0
0 0 0 0 0 0 0 0 0
0 0 0 0 0 0 0 0 0
0 0 0 0 0 0 0 0 0
0 0 0 0 0 0 0 0 0
0 0 0 0 0 0 0 0 0
0 0 0 0 0 0 0 0 0
0 0 0 0 0 0 0 0 0
0 0 0 0 0 0 0 0 0
0 0 0 0 0 0 0 0 0
0 0 0 0 0 0 0 0 0
0 0 0 0 0 0 0 0 0
0 0 0 0 0 0 0 0 0
0 0 0 0 0 0 0 0 0
0 0 0 0 0 0 0 0 0
0 0 0 0 0 0 0 0 0
0 0 0 0 0 0 0 0 0
0 0 0 0 0 0 0 0 0
0 0 0 0 0 0 0 0 0
0 0 0 0 0 0 0 0 0
0 0 0 0 0 0 0 0 0
0 0 0 0 0 0 0 0 0
0 0 0 0 0 0 0 0 0
0 0 0 0 0 0 0 0 0
0 0 0 0 0 0 0 0 0
0 0 0 0 0 0 0 0 0
0 0 0 0 0 0 0 0 0
0 0 0 0 0 0 0 0 0
0 0 0 0 0 0 0 0 0
0 0 0 0 0 0 0 0 0
0 0 0 0 0 0 0 0 0
0 0 0 0 0 0 0 0 0
0 0 0 0 0 0 0 0 0
0 0 0 0 0 0 0 0 0
0 0 0 0 0 0 0 0 0
0 0 0 0 0 0 0 0 0
0 0 0 0 0 0 0 0 0
0 0 0 0 0 0 0 0 0
0 0 0 0 0 0 0 0 0
0 0 0 0 0 0 0 0 0
0 0 0 0 0 0 0 0 0
0 0 0 0 0 0 0 0 0
0 0 0 0 0 0 0 0 0
0 0 0 0 0 0 0 0 0
0 0 0 0 0 0 0 0 0
0 0 0 0 0 0 0 0 0
0 0 0 0 0 0 0 0 0
0 0 0 0 0 0 0 0 0
0 0 0 0 0 0 0 0 0
0 0 0 0 0 0 0 0 0
0 0 0 0 0 0 0 0 0
0 0 0 0 0 0 0 0 0
0 0 0 0 0 0 0 0 0
0 0 0 0 0 0 0 0 0
0 0 0 0 0 0 0 0 0
0 0 0 0 0 0 0 0 0
0 0 0 0 0 0 0 0 0
0 0 0 0 0 0 0 0 0
0 0 0 0 0 0 0 0 0
0 0 0 0 0 0 0 0 0
0 0 0 0 0 0 0 0 0
0 0 0 0 0 0 0 0 0
0 0 0 0 0 0 0 0 0
0 0 0 0 0 0 0 0 0
0 0 0 0 0 0 0 0 0
0 0 0 0 0 0 0 0 0
0 0 0 0 0 0 0 0 0
0 0 0 0 0 0 0 0 0
0 0 0 0 0 0 0 0 0
0 0 0 0 0 0 0 0 0
0 0 0 0 0 0 0 0 0
0 0 0 0 0 0 0 0 0
0 0 0 0 0 0 0 0 0
0 0 0 0 0 0 0 0 0
0 0 0 0 0 0 0 0 0
0 0 0 0 0 0 0 0 0
0 0 0 0 0 0 0 0 0
0 0 0 0 0 0 0 0 0
0 0 0 0 0 0 0 0 0
0 0 0 0 0 0 0 0 0
0 0 0 0 0 0 0 0 0
0 0 0 0 0 0 0 0 0
0 0 0 0 0 0 0 0 0
0 0 0 0 0 0 0 0 0
0 0 0 0 0 0 0 0 0
0 0 0 0 0 0 0 0 0
0 0 0 0 0 0 0 0 0
0 0 0 0 0 0 0 0 0
0 0 0 0 0 0 0 0 0
0 0 0 0 0 0 0 0 0
0 0 0 0 0 0 0 0 0
0 0 0 0 0 0 0 0 0
0 0 0 0 0 0 0 0 0
0 0 0 0 0 0 0 0 0
0 0 0 0 0 0 0 0 0
0 0 0 0 0 0 0 0 0
0 0 0 0 0 0 0 0 0
0 0 0 0 0 0 0 0 0
0 0 0 0 0 0 0 0 0
0 0 0 0 0 0 0 0 0
0 0 0 0 0 0 0 0 0
0 0 0 0 0 0 0 0 0
0 0 0 0 0 0 0 0 0
0 0 0 0 0 0 0 0 0
0 0 0 0 0 0 0 0 0
0 0 0 0 0 0 0 0 0
0 0 0 0 0 0 0 0 0
0 0 0 0 0 0 0 0 0
0 0 0 0 0 0 0 0 0
0 0 0 0 0 0 0 0 0
0 0 0 0 0 0 0 0 0
0 0 0 0 0 0 0 0 0
0 0 0 0 0 0 0 0 0
0 0 0 0 0 0 0 0 0
0 0 0 0 0 0 0 0 0
0 0 0 0 0 0 0 0 0
0 0 0 0 0 0 0 0 0
0 0 0 0 0 0 0 0 0
0 0 0 0 0 0 0 0 0
0 0 0 0 0 0 0 0 0
0 0 0 0 0 0 0 0 0
0 0 0 0 0 0 0 0 0
0 0 0 0 0 0 0 0 0
0 0 0 0 0 0 0 0 0
0 0 0 0 0 0 0 0 0
0 0 0 0 0 0 0 0 0
0 0 0 0 0 0 0 0 0
0 0 0 0 0 0 0 0 0
0 0 0 0 0 0 0 0 0
0 0 0 0 0 0 0 0 0
0 0 0 0 0 0 0 0 0
0 0 0 0 0 0 0 0 0
0 0 0 0 0 0 0 0 0
0 0 0 0 0 0 0 0 0
0 0 0 0 0 0 0 0 0
0 0 0 0 0 0 0 0 0
0 0 0 0 0 0 0 0 0
0 0 0 0 0 0 0 0 0
0 0 0 0 0 0 0 0 0
0 0 0 0 0 0 0 0 0
0 0 0 0 0 0 0 0 0
0 0 0 0 0 0 0 0 0
0 0 0 0 0 0 0 0 0
0 0 0 0 0 0 0 0 0
0 0 0 0 0 0 0 0 0
0 0 0 0 0 0 0 0 0
0 0 0 0 0 0 0 0 0
0 0 0 0 0 0 0 0 0
0 0 0 0 0 0 0 0 0
0 0 0 0 0 0 0 0 0
0 0 0 0 0 0 0 0 0
0 0 0 0 0 0 0 0 0
0 0 0 0 0 0 0 0 0
0 0 0 0 0 0 0 0 0
0 0 0 0 0 0 0 0 0
0 0 0 0 0 0 0 0 0
0 0 0 0 0 0 0 0 0
0 0 0 0 0 0 0 0 0
0 0 0 0 0 0 0 0 0
0 0 0 0 0 0 0 0 0
0 0 0 0 0 0 0 0 0
0 0 0 0 0 0 0 0 0
0 0 0 0 0 0 0 0 0
0 0 0 0 0 0 0 0 0
0 0 0 0 0 0 0 0 0
0 0 0 0 0 0 0 0 0
0 0 0 0 0 0 0 0 0
0 0 0 0 0 0 0 0 0
0 0 0 0 0 0 0 0 0
0 0 0 0 0 0 0 0 0
0 0 0 0 0 0 0 0 0
0 0 0 0 0 0 0 0 0
0 0 0 0 0 0 0 0 0
0 0 0 0 0 0 0 0 0
0 0 0 0 0 0 0 0 0
0 0 0 0 0 0 0 0 0
0 0 0 0 0 0 0 0 0
0 0 0 0 0 0 0 0 0
0 0 0 0 0 0 0 0 0
0 0 0 0 0 0 0 0 0
0 0 0 0 0 0 0 0 0
0 0 0 0 0 0 0 0 0
0 0 0 0 0 0 0 0 0
0 0 0 0 0 0 0 0 0
0 0 0 0 0 0 0 0 0
0 0 0 0 0 0 0 0 0
0 0 0 0 0 0 0 0 0
0 0 0 0 0 0 0 0 0
0 0 0 0 0 0 0 0 0
0 0 0 0 0 0 0 0 0
0.596621 0.618394 0.591382 0.612834 0.596621 0.618394 0.591382 0.612834 0
0.634677 0.657429 0.628877 0.651288 0.634677 0.657429 0.628877 0.651288 0
0.674162 0.697145 0.667761 0.69037 0.674162 0.697145 0.667761 0.69037 0
0.715434 0.742601 0.70841 0.735264 0.715434 0.742601 0.70841 0.735264 0
0.568562 0.590152 0.563475 0.584757 0.568562 0.590152 0.563475 0.584757 0
0.606236 0.628612 0.600598 0.622619 0.606236 0.628612 0.600598 0.622619 0
0.645342 0.668712 0.639087 0.662095 0.645342 0.668712 0.639087 0.662095 0
0.685921 0.709589 0.679026 0.702292 0.685921 0.709589 0.679026 0.702292 0
0.728331 0.75607 0.720769 0.748174 0.728331 0.75607 0.720769 0.748174 0
0.577937 0.600107 0.572435 0.594263 0.577937 0.600107 0.572435 0.594263 0
0.616632 0.639635 0.61053 0.633169 0.616632 0.639635 0.61053 0.633169 0
0.656833 0.680863 0.650094 0.673738 0.656833 0.680863 0.650094 0.673738 0
0.698578 0.722974 0.691158 0.715128 0.698578 0.722974 0.691158 0.715128 0
0.742201 0.770552 0.734071 0.762063 0.742201 0.770552 0.734071 0.762063 0
0.549864 0.571726 0.544502 0.566037 0.549864 0.571726 0.544502 0.566037 0
0.588061 0.610854 0.582121 0.604549 0.588061 0.610854 0.582121 0.604549 0
0.627849 0.651517 0.621269 0.644548 0.627849 0.651517 0.621269 0.644548 0
0.669214 0.693947 0.661953 0.686275 0.669214 0.693947 0.661953 0.686275 0
0.712204 0.737381 0.704214 0.728934 0.712204 0.737381 0.704214 0.728934 0
0.757137 0.786167 0.748378 0.777007 0.757137 0.786167 0.748378 0.777007 0
0.559743 0.582208 0.553945 0.576056 0.559743 0.582208 0.553945 0.576056 0
0.599004 0.622452 0.592582 0.615648 0.599004 0.622452 0.592582 0.615648 0
0.639946 0.664326 0.63285 0.656813 0.639946 0.664326 0.63285 0.656813 0
0.682559 0.708047 0.674732 0.699778 0.682559 0.708047 0.674732 0.699778 0
0.726886 0.752903 0.718276 0.743801 0.726886 0.752903 0.718276 0.743801 0
0.77323 0.802999 0.763792 0.793128 0.77323 0.802999 0.763792 0.793128 0
0.570407 0.593522 0.564151 0.586885 0.570407 0.593522 0.564151 0.586885 0
0.610812 0.634965 0.603885 0.627625 0.610812 0.634965 0.603885 0.627625 0
0.652997 0.678144 0.645341 0.670038 0.652997 0.678144 0.645341 0.670038 0
0.696955 0.72326 0.68851 0.714335 0.696955 0.72326 0.68851 0.714335 0
0.742728 0.769652 0.733434 0.759826 0.742728 0.769652 0.733434 0.759826 0
0.790594 0.821161 0.780407 0.810506 0.790594 0.821161 0.780407 0.810506 0
0.54217 0.564889 0.536072 0.558424 0.54217 0.564889 0.536072 0.558424 0
0.581912 0.605726 0.575163 0.598567 0.581912 0.605726 0.575163 0.598567 0
0.623551 0.64847 0.616078 0.640547 0.623551 0.64847 0.616078 0.640547 0
0.667085 0.693067 0.658819 0.684311 0.667085 0.693067 0.658819 0.684311 0
0.712506 0.7397 0.70338 0.730052 0.712506 0.7397 0.70338 0.730052 0
0.759853 0.787768 0.749802 0.777134 0.759853 0.787768 0.749802 0.777134 0
0.809388 0.840838 0.798355 0.829283 0.809388 0.840838 0.798355 0.829283 0
0.553377 0.576774 0.546804 0.569803 0.553377 0.576774 0.546804 0.569803 0
0.594321 0.618893 0.587042 0.611169 0.594321 0.618893 0.587042 0.611169 0
0.637301 0.663057 0.629234 0.654497 0.637301 0.663057 0.629234 0.654497 0
0.682313 0.709211 0.673376 0.699735 0.682313 0.709211 0.673376 0.699735 0
0.729342 0.757514 0.719458 0.747054 0.729342 0.757514 0.719458 0.747054 0
0.77842 0.807424 0.767516 0.795879 0.77842 0.807424 0.767516 0.795879 0
0.829793 0.862225 0.817807 0.849659 0.829793 0.862225 0.817807 0.849659 0
0.565453 0.589585 0.558371 0.582071 0.565453 0.589585 0.558371 0.582071 0
0.607704 0.633107 0.599854 0.624767 0.607704 0.633107 0.599854 0.624767 0
0.652157 0.678839 0.643439 0.669574 0.652157 0.678839 0.643439 0.669574 0
0.698806 0.726725 0.689122 0.716438 0.698806 0.726725 0.689122 0.716438 0
0.747625 0.776887 0.736884 0.765502 0.747625 0.776887 0.736884 0.765502 0
0.798632 0.828842 0.786752 0.81625 0.798632 0.828842 0.786752 0.81625 0
0.852048 0.885586 0.838962 0.871846 0.852048 0.885586 0.838962 0.871846 0
0.537155 0.560731 0.530235 0.55341 0.537155 0.560731 0.530235 0.55341 0
0.578476 0.603411 0.570837 0.595299 0.578476 0.603411 0.570837 0.595299 0
0.62216 0.648482 0.613677 0.639457 0.62216 0.648482 0.613677 0.639457 0
0.668245 0.695963 0.658799 0.685905 0.668245 0.695963 0.658799 0.685905 0
0.716728 0.745796 0.706198 0.734585 0.716728 0.745796 0.706198 0.734585 0
0.767567 0.798065 0.75584 0.785606 0.767567 0.798065 0.75584 0.785606 0
0.820756 0.852328 0.807737 0.838502 0.820756 0.852328 0.807737 0.838502 0
0.876484 0.911281 0.862095 0.896145 0.876484 0.911281 0.862095 0.896145 0
0.549933 0.574251 0.54243 0.566312 0.549933 0.574251 0.54243 0.566312 0
0.592587 0.618397 0.584301 0.609596 0.592587 0.618397 0.584301 0.609596 0
0.637837 0.665176 0.628629 0.655368 0.637837 0.665176 0.628629 0.655368 0
0.685738 0.714623 0.675459 0.703652 0.685738 0.714623 0.675459 0.703652 0
0.736294 0.766676 0.724786 0.754388 0.736294 0.766676 0.724786 0.754388 0
0.789447 0.821369 0.776565 0.80764 0.789447 0.821369 0.776565 0.80764 0
0.845152 0.878292 0.830774 0.862982 0.845152 0.878292 0.830774 0.862982 0
0.903549 0.939812 0.887583 0.922972 0.903549 0.939812 0.887583 0.922972 0
0.563872 0.589017 0.555676 0.580331 0.563872 0.589017 0.555676 0.580331 0
0.608008 0.634781 0.598936 0.625141 0.608008 0.634781 0.598936 0.625141 0
0.654982 0.683438 0.644893 0.672692 0.654982 0.683438 0.644893 0.672692 0
0.704883 0.735067 0.693617 0.723034 0.704883 0.735067 0.693617 0.723034 0
0.757764 0.789653 0.745124 0.776118 0.757764 0.789653 0.745124 0.776118 0
0.813588 0.847195 0.79936 0.83196 0.813588 0.847195 0.79936 0.83196 0
0.87227 0.907264 0.856263 0.890148 0.87227 0.907264 0.856263 0.890148 0
0.933832 0.971849 0.915931 0.952898 0.933832 0.971849 0.915931 0.952898 0
0 0 0 0 0 0 0 0 0
0 0 0 0 0 0 0 0 0
0 0 0 0 0 0 0 0 0
0 0 0 0 0 0 0 0 0
0 0 0 0 0 0 0 0 0
0 0 0 0 0 0 0 0 0
0 0 0 0 0 0 0 0 0
0 0 0 0 0 0 0 0 0
0 0 0 0 0 0 0 0 0
0 0 0 0 0 0 0 0 0
0 0 0 0 0 0 0 0 0
0 0 0 0 0 0 0 0 0
0 0 0 0 0 0 0 0 0
0 0 0 0 0 0 0 0 0
0 0 0 0 0 0 0 0 0
0 0 0 0 0 0 0 0 0
0 0 0 0 0 0 0 0 0
0 0 0 0 0 0 0 0 0
0 0 0 0 0 0 0 0 0
0 0 0 0 0 0 0 0 0
0 0 0 0 0 0 0 0 0
0 0 0 0 0 0 0 0 0
0 0 0 0 0 0 0 0 0
0 0 0 0 0 0 0 0 0
0 0 0 0 0 0 0 0 0
0 0 0 0 0 0 0 0 0
0 0 0 0 0 0 0 0 0
0 0 0 0 0 0 0 0 0
0 0 0 0 0 0 0 0 0
0 0 0 0 0 0 0 0 0
0 0 0 0 0 0 0 0 0
0 0 0 0 0 0 0 0 0
0 0 0 0 0 0 0 0 0
0 0 0 0 0 0 0 0 0
0 0 0 0 0 0 0 0 0
0 0 0 0 0 0 0 0 0
0 0 0 0 0 0 0 0 0
0 0 0 0 0 0 0 0 0
0 0 0 0 0 0 0 0 0
0 0 0 0 0 0 0 0 0
0 0 0 0 0 0 0 0 0
0 0 0 0 0 0 0 0 0
0 0 0 0 0 0 0 0 0
0 0 0 0 0 0 0 0 0
0 0 0 0 0 0 0 0 0
0 0 0 0 0 0 0 0 0
0 0 0 0 0 0 0 0 0
0 0 0 0 0 0 0 0 0
0 0 0 0 0 0 0 0 0
0 0 0 0 0 0 0 0 0
0 0 0 0 0 0 0 0 0
0 0 0 0 0 0 0 0 0
0 0 0 0 0 0 0 0 0
0 0 0 0 0 0 0 0 0
0 0 0 0 0 0 0 0 0
0 0 0 0 0 0 0 0 0
0 0 0 0 0 0 0 0 0
0 0 0 0 0 0 0 0 0
0 0 0 0 0 0 0 0 0
0 0 0 0 0 0 0 0 0
0 0 0 0 0 0 0 0 0
0 0 0 0 0 0 0 0 0
0 0 0 0 0 0 0 0 0
0 0 0 0 0 0 0 0 0
0 0 0 0 0 0 0 0 0
0 0 0 0 0 0 0 0 0
0 0 0 0 0 0 0 0 0
0 0 0 0 0 0 0 0 0
0 0 0 0 0 0 0 0 0
0 0 0 0 0 0 0 0 0
0 0 0 0 0 0 0 0 0
0 0 0 0 0 0 0 0 0
0 0 0 0 0 0 0 0 0
0 0 0 0 0 0 0 0 0
0 0 0 0 0 0 0 0 0
0 0 0 0 0 0 0 0 0
0 0 0 0 0 0 0 0 0
0.517033 0.532189 0.509018 0.523723 0.517033 0.532189 0.509018 0.523723 0
0.543108 0.557789 0.534312 0.548542 0.543108 0.557789 0.534312 0.548542 0
0.568176 0.581868 0.558596 0.57183 0.568176 0.581868 0.558596 0.57183 0
0.592101 0.606444 0.581768 0.59576 0.592101 0.606444 0.581768 0.59576 0
0.503426 0.519663 0.495807 0.511593 0.503426 0.519663 0.495807 0.511593 0
0.531454 0.547428 0.523043 0.538539 0.531454 0.547428 0.523043 0.538539 0
0.558953 0.574468 0.549709 0.564735 0.558953 0.574468 0.549709 0.564735 0
0.58547 0.600008 0.575376 0.589418 0.58547 0.600008 0.575376 0.589418 0
0.61079 0.625791 0.599877 0.61449 0.61079 0.625791 0.599877 0.61449 0
0.517129 0.534182 0.509137 0.525714 0.517129 0.534182 0.509137 0.525714 0
0.546588 0.563431 0.537761 0.554097 0.546588 0.563431 0.537761 0.554097 0
0.575601 0.592012 0.565889 0.581776 0.575601 0.592012 0.565889 0.581776 0
0.603676 0.619125 0.593052 0.607967 0.603676 0.619125 0.593052 0.607967 0
0.630513 0.646262 0.618998 0.634304 0.630513 0.646262 0.618998 0.634304 0
0.500645 0.518444 0.493051 0.510401 0.500645 0.518444 0.493051 0.510401 0
0.531512 0.549417 0.523123 0.540531 0.531512 0.549417 0.523123 0.540531 0
0.562472 0.580236 0.553208 0.570433 0.562472 0.580236 0.553208 0.570433 0
0.593094 0.610465 0.582889 0.599698 0.593094 0.610465 0.582889 0.599698 0
0.622843 0.639283 0.611657 0.627515 0.622843 0.639283 0.611657 0.627515 0
0.651338 0.667925 0.639177 0.65527 0.651338 0.667925 0.639177 0.65527 0
0.514323 0.532925 0.506342 0.524477 0.514323 0.532925 0.506342 0.524477 0
0.546612 0.565408 0.537803 0.55608 0.546612 0.565408 0.537803 0.55608 0
0.579146 0.597886 0.56942 0.587589 0.579146 0.597886 0.56942 0.587589 0
0.61148 0.629884 0.600753 0.618551 0.61148 0.629884 0.600753 0.618551 0
0.643035 0.660554 0.631249 0.648134 0.643035 0.660554 0.631249 0.648134 0
0.673342 0.690857 0.660491 0.67746 0.673342 0.690857 0.660491 0.67746 0
0.528702 0.548138 0.520311 0.539262 0.528702 0.548138 0.520311 0.539262 0
0.562472 0.582203 0.553219 0.572405 0.562472 0.582203 0.553219 0.572405 0
0.596663 0.61644 0.586443 0.605614 0.596663 0.61644 0.586443 0.605614 0
0.63082 0.650338 0.619534 0.638399 0.63082 0.650338 0.619534 0.638399 0
0.664328 0.683024 0.651897 0.669901 0.664328 0.683024 0.651897 0.669901 0
0.696622 0.715181 0.683022 0.700963 0.696622 0.715181 0.683022 0.700963 0
0.509493 0.529206 0.50143 0.520706 0.509493 0.529206 0.50143 0.520706 0
0.543847 0.564145 0.535005 0.554802 0.543847 0.564145 0.535005 0.554802 0
0.579154 0.599869 0.569418 0.589559 0.579154 0.599869 0.569418 0.589559 0
0.615092 0.635973 0.604337 0.624572 0.615092 0.635973 0.604337 0.624572 0
0.651196 0.671916 0.639301 0.659316 0.651196 0.671916 0.639301 0.659316 0
0.686818 0.706804 0.673683 0.69291 0.686818 0.706804 0.673683 0.69291 0
0.7213 0.741025 0.706877 0.725914 0.7213 0.741025 0.706877 0.725914 0
0.52408 0.54457 0.515558 0.535596 0.52408 0.54457 0.515558 0.535596 0
0.559824 0.581022 0.550493 0.571167 0.559824 0.581022 0.550493 0.571167 0
0.596739 0.618491 0.58647 0.607618 0.596739 0.618491 0.58647 0.607618 0
0.634524 0.656583 0.623177 0.644546 0.634524 0.656583 0.623177 0.644546 0
0.672713 0.694733 0.660145 0.681402 0.672713 0.694733 0.660145 0.681402 0
0.710631 0.732037 0.696716 0.717286 0.710631 0.732037 0.696716 0.717286 0
0.747534 0.768583 0.732192 0.752457 0.747534 0.768583 0.732192 0.752457 0
0.539529 0.560827 0.530499 0.551326 0.539529 0.560827 0.530499 0.551326 0
0.576722 0.598869 0.566847 0.58844 0.576722 0.598869 0.566847 0.58844 0
0.615334 0.638187 0.604468 0.626678 0.615334 0.638187 0.604468 0.626678 0
0.655084 0.678406 0.643069 0.665651 0.655084 0.678406 0.643069 0.665651 0
0.695515 0.71895 0.682186 0.70479 0.695515 0.71895 0.682186 0.70479 0
0.735939 0.75891 0.721138 0.743187 0.735939 0.75891 0.721138 0.743187 0
0.775528 0.798081 0.759143 0.780805 0.775528 0.798081 0.759143 0.780805 0
0.519034 0.540125 0.510182 0.530857 0.519034 0.540125 0.510182 0.530857 0
0.555945 0.578096 0.546343 0.567995 0.555945 0.578096 0.546343 0.567995 0
0.594671 0.617824 0.584172 0.606737 0.594671 0.617824 0.584172 0.606737 0
0.635087 0.659118 0.623533 0.646874 0.635087 0.659118 0.623533 0.646874 0
0.676944 0.701631 0.664155 0.688042 0.676944 0.701631 0.664155 0.688042 0
0.719804 0.744788 0.70559 0.729662 0.719804 0.744788 0.70559 0.729662 0
0.762979 0.787687 0.747145 0.77083 0.762979 0.787687 0.747145 0.77083 0
0.805569 0.829845 0.787964 0.811218 0.805569 0.829845 0.787964 0.811218 0
0.53521 0.557056 0.525737 0.54714 0.53521 0.557056 0.525737 0.54714 0
0.573483 0.596543 0.563213 0.585741 0.573483 0.596543 0.563213 0.585741 0
0.613844 0.638077 0.602616 0.626216 0.613844 0.638077 0.602616 0.626216 0
0.656199 0.681505 0.643834 0.668391 0.656199 0.681505 0.643834 0.668391 0
0.700341 0.72652 0.686633 0.711935 0.700341 0.72652 0.686633 0.711935 0
0.745862 0.772557 0.730589 0.756275 0.745862 0.772557 0.730589 0.756275 0
0.792085 0.818739 0.775014 0.800519 0.792085 0.818739 0.775014 0.800519 0
0.838057 0.864321 0.818986 0.84407 0.838057 0.864321 0.818986 0.84407 0
0.552641 0.575319 0.542416 0.564602 0.552641 0.575319 0.542416 0.564602 0
0.592411 0.616456 0.581303 0.604769 0.592411 0.616456 0.581303 0.604769 0
0.634538 0.659928 0.622392 0.647104 0.634538 0.659928 0.622392 0.647104 0
0.678974 0.705654 0.665608 0.691483 0.678974 0.705654 0.665608 0.691483 0
0.725588 0.753406 0.710771 0.737624 0.725588 0.753406 0.710771 0.737624 0
0.774047 0.802665 0.757499 0.78498 0.774047 0.802665 0.757499 0.78498 0
0.823706 0.852583 0.805124 0.832683 0.823706 0.852583 0.805124 0.832683 0
0.873559 0.902149 0.852673 0.879878 0.873559 0.902149 0.852673 0.879878 0
0 0 0 0 0 0 0 0 0
0 0 0 0 0 0 0 0 0
0 0 0 0 0 0 0 0 0
0 0 0 0 0 0 0 0 0
0 0 0 0 0 0 0 0 0
0 0 0 0 0 0 0 0 0
0 0 0 0 0 0 0 0 0
0 0 0 0 0 0 0 0 0
0 0 0 0 0 0 0 0 0
0 0 0 0 0 0 0 0 0
0 0 0 0 0 0 0 0 0
0 0 0 0 0 0 0 0 0
0 0 0 0 0 0 0 0 0
0 0 0 0 0 0 0 0 0
0 0 0 0 0 0 0 0 0
0 0 0 0 0 0 0 0 0
0 0 0 0 0 0 0 0 0
0 0 0 0 0 0 0 0 0
0 0 0 0 0 0 0 0 0
0 0 0 0 0 0 0 0 0
0 0 0 0 0 0 0 0 0
0 0 0 0 0 0 0 0 0
0 0 0 0 0 0 0 0 0
0 0 0 0 0 0 0 0 0
0 0 0 0 0 0 0 0 0
0 0 0 0 0 0 0 0 0
0 0 0 0 0 0 0 0 0
0 0 0 0 0 0 0 0 0
0 0 0 0 0 0 0 0 0
0 0 0 0 0 0 0 0 0
0 0 0 0 0 0 0 0 0
0 0 0 0 0 0 0 0 0
0 0 0 0 0 0 0 0 0
0 0 0 0 0 0 0 0 0
0 0 0 0 0 0 0 0 0
0 0 0 0 0 0 0 0 0
0 0 0 0 0 0 0 0 0
0 0 0 0 0 0 0 0 0
0 0 0 0 0 0 0 0 0
0 0 0 0 0 0 0 0 0
0 0 0 0 0 0 0 0 0
0 0 0 0 0 0 0 0 0
0 0 0 0 0 0 0 0 0
0 0 0 0 0 0 0 0 0
0 0 0 0 0 0 0 0 0
0 0 0 0 0 0 0 0 0
0 0 0 0 0 0 0 0 0
0 0 0 0 0 0 0 0 0
0 0 0 0 0 0 0 0 0
0 0 0 0 0 0 0 0 0
0 0 0 0 0 0 0 0 0
0 0 0 0 0 0 0 0 0
0 0 0 0 0 0 0 0 0
0 0 0 0 0 0 0 0 0
0 0 0 0 0 0 0 0 0
0 0 0 0 0 0 0 0 0
0 0 0 0 0 0 0 0 0
0 0 0 0 0 0 0 0 0
0 0 0 0 0 0 0 0 0
0 0 0 0 0 0 0 0 0
0 0 0 0 0 0 0 0 0
0 0 0 0 0 0 0 0 0
0 0 0 0 0 0 0 0 0
0 0 0 0 0 0 0 0 0
0 0 0 0 0 0 0 0 0
0 0 0 0 0 0 0 0 0
0 0 0 0 0 0 0 0 0
0 0 0 0 0 0 0 0 0
0 0 0 0 0 0 0 0 0
0 0 0 0 0 0 0 0 0
0 0 0 0 0 0 0 0 0
0 0 0 0 0 0 0 0 0
0 0 0 0 0 0 0 0 0
0 0 0 0 0 0 0 0 0
0 0 0 0 0 0 0 0 0
0 0 0 0 0 0 0 0 0
0 0 0 0 0 0 0 0 0
0 0 0 0 0 0 0 0 0
0 0 0 0 0 0 0 0 0
0 0 0 0 0 0 0 0 0
0 0 0 0 0 0 0 0 0
0 0 0 0 0 0 0 0 0
0 0 0 0 0 0 0 0 0
0 0 0 0 0 0 0 0 0
0 0 0 0 0 0 0 0 0
0 0 0 0 0 0 0 0 0
0 0 0 0 0 0 0 0 0
0 0 0 0 0 0 0 0 0
0 0 0 0 0 0 0 0 0
0 0 0 0 0 0 0 0 0
0 0 0 0 0 0 0 0 0
0 0 0 0 0 0 0 0 0
0 0 0 0 0 0 0 0 0
0 0 0 0 0 0 0 0 0
0 0 0 0 0 0 0 0 0
0 0 0 0 0 0 0 0 0
0 0 0 0 0 0 0 0 0
0 0 0 0 0 0 0 0 0
0 0 0 0 0 0 0 0 0
0 0 0 0 0 0 0 0 0
0 0 0 0 0 0 0 0 0
0 0 0 0 0 0 0 0 0
0 0 0 0 0 0 0 0 0
0 0 0 0 0 0 0 0 0
0 0 0 0 0 0 0 0 0
0 0 0 0 0 0 0 0 0
0 0 0 0 0 0 0 0 0
0 0 0 0 0 0 0 0 0
0 0 0 0 0 0 0 0 0
0 0 0 0 0 0 0 0 0
0 0 0 0 0 0 0 0 0
0 0 0 0 0 0 0 0 0
0 0 0 0 0 0 0 0 0
0 0 0 0 0 0 0 0 0
0 0 0 0 0 0 0 0 0
0 0 0 0 0 0 0 0 0
0 0 0 0 0 0 0 0 0
0 0 0 0 0 0 0 0 0
0 0 0 0 0 0 0 0 0
0 0 0 0 0 0 0 0 0
0 0 0 0 0 0 0 0 0
0 0 0 0 0 0 0 0 0
0 0 0 0 0 0 0 0 0
0 0 0 0 0 0 0 0 0
0 0 0 0 0 0 0 0 0
0 0 0 0 0 0 0 0 0
0 0 0 0 0 0 0 0 0
0 0 0 0 0 0 0 0 0
0 0 0 0 0 0 0 0 0
0 0 0 0 0 0 0 0 0
0 0 0 0 0 0 0 0 0
0 0 0 0 0 0 0 0 0
0 0 0 0 0 0 0 0 0
0 0 0 0 0 0 0 0 0
0 0 0 0 0 0 0 0 0
0 0 0 0 0 0 0 0 0
0 0 0 0 0 0 0 0 0
0 0 0 0 0 0 0 0 0
0 0 0 0 0 0 0 0 0
0 0 0 0 0 0 0 0 0
0 0 0 0 0 0 0 0 0
0 0 0 0 0 0 0 0 0
0 0 0 0 0 0 0 0 0
0 0 0 0 0 0 0 0 0
0 0 0 0 0 0 0 0 0
0 0 0 0 0 0 0 0 0
0 0 0 0 0 0 0 0 0
0 0 0 0 0 0 0 0 0
0 0 0 0 0 0 0 0 0
0 0 0 0 0 0 0 0 0
0 0 0 0 0 0 0 0 0
0 0 0 0 0 0 0 0 0
0 0 0 0 0 0 0 0 0
0 0 0 0 0 0 0 0 0
0 0 0 0 0 0 0 0 0
0 0 0 0 0 0 0 0 0
0 0 0 0 0 0 0 0 0
0 0 0 0 0 0 0 0 0
0 0 0 0 0 0 0 0 0
0 0 0 0 0 0 0 0 0
0 0 0 0 0 0 0 0 0
0 0 0 0 0 0 0 0 0
0 0 0 0 0 0 0 0 0
0 0 0 0 0 0 0 0 0
0 0 0 0 0 0 0 0 0
0 0 0 0 0 0 0 0 0
0 0 0 0 0 0 0 0 0
0 0 0 0 0 0 0 0 0
0 0 0 0 0 0 0 0 0
0 0 0 0 0 0 0 0 0
0 0 0 0 0 0 0 0 0
0 0 0 0 0 0 0 0 0
0 0 0 0 0 0 0 0 0
0 0 0 0 0 0 0 0 0
0 0 0 0 0 0 0 0 0
0 0 0 0 0 0 0 0 0
0 0 0 0 0 0 0 0 0
0 0 0 0 0 0 0 0 0
0 0 0 0 0 0 0 0 0
0 0 0 0 0 0 0 0 0
0 0 0 0 0 0 0 0 0
0 0 0 0 0 0 0 0 0
0 0 0 0 0 0 0 0 0
0 0 0 0 0 0 0 0 0
0 0 0 0 0 0 0 0 0
0 0 0 0 0 0 0 0 0
0 0 0 0 0 0 0 0 0
0 0 0 0 0 0 0 0 0
0 0 0 0 0 0 0 0 0
0 0 0 0 0 0 0 0 0
0 0 0 0 0 0 0 0 0
0 0 0 0 0 0 0 0 0
0 0 0 0 0 0 0 0 0
0 0 0 0 0 0 0 0 0
0 0 0 0 0 0 0 0 0
0 0 0 0 0 0 0 0 0
0 0 0 0 0 0 0 0 0
0 0 0 0 0 0 0 0 0
0 0 0 0 0 0 0 0 0
0 0 0 0 0 0 0 0 0
0 0 0 0 0 0 0 0 0
0 0 0 0 0 0 0 0 0
0 0 0 0 0 0 0 0 0
0 0 0 0 0 0 0 0 0
0 0 0 0 0 0 0 0 0
0 0 0 0 0 0 0 0 0
0 0 0 0 0 0 0 0 0
0 0 0 0 0 0 0 0 0
0 0 0 0 0 0 0 0 0
0 0 0 0 0 0 0 0 0
0 0 0 0 0 0 0 0 0
0 0 0 0 0 0 0 0 0
0 0 0 0 0 0 0 0 0
0 0 0 0 0 0 0 0 0
0 0 0 0 0 0 0 0 0
0 0 0 0 0 0 0 0 0
0 0 0 0 0 0 0 0 0
0 0 0 0 0 0 0 0 0
0 0 0 0 0 0 0 0 0
0 0 0 0 0 0 0 0 0
0 0 0 0 0 0 0 0 0
0 0 0 0 0 0 0 0 0
0 0 0 0 0 0 0 0 0
0 0 0 0 0 0 0 0 0
0 0 0 0 0 0 0 0 0
0 0 0 0 0 0 0 0 0
0 0 0 0 0 0 0 0 0
0 0 0 0 0 0 0 0 0
0 0 0 0 0 0 0 0 0
0 0 0 0 0 0 0 0 0
0 0 0 0 0 0 0 0 0
0 0 0 0 0 0 0 0 0
0 0 0 0 0 0 0 0 0
0 0 0 0 0 0 0 0 0
0 0 0 0 0 0 0 0 0
0 0 0 0 0 0 0 0 0
0 0 0 0 0 0 0 0 0
0 0 0 0 0 0 0 0 0
0 0 0 0 0 0 0 0 0
0 0 0 0 0 0 0 0 0
0 0 0 0 0 0 0 0 0
0 0 0 0 0 0 0 0 0
0 0 0 0 0 0 0 0 0
0 0 0 0 0 0 0 0 0
0 0 0 0 0 0 0 0 0
0 0 0 0 0 0 0 0 0
0 0 0 0 0 0 0 0 0
0 0 0 0 0 0 0 0 0
0 0 0 0 0 0 0 0 0
0 0 0 0 0 0 0 0 0
0 0 0 0 0 0 0 0 0
0 0 0 0 0 0 0 0 0
0 0 0 0 0 0 0 0 0
0 0 0 0 0 0 0 0 0
0 0 0 0 0 0 0 0 0
0 0 0 0 0 0 0 0 0
0 0 0 0 0 0 0 0 0
0 0 0 0 0 0 0 0 0
0 0 0 0 0 0 0 0 0
0 0 0 0 0 0 0 0 0
0 0 0 0 0 0 0 0 0
0 0 0 0 0 0 0 0 0
0 0 0 0 0 0 0 0 0
0 0 0 0 0 0 0 0 0
0 0 0 0 0 0 0 0 0
0 0 0 0 0 0 0 0 0
0 0 0 0 0 0 0 0 0
0 0 0 0 0 0 0 0 0
0 0 0 0 0 0 0 0 0
0 0 0 0 0 0 0 0 0
0 0 0 0 0 0 0 0 0
0 0 0 0 0 0 0 0 0
0 0 0 0 0 0 0 0 0
0 0 0 0 0 0 0 0 0
0 0 0 0 0 0 0 0 0
0 0 0 0 0 0 0 0 0
0 0 0 0 0 0 0 0 0
0 0 0 0 0 0 0 0 0
0 0 0 0 0 0 0 0 0
0 0 0 0 0 0 0 0 0
0 0 0 0 0 0 0 0 0
0 0 0 0 0 0 0 0 0
0 0 0 0 0 0 0 0 0
0 0 0 0 0 0 0 0 0
0 0 0 0 0 0 0 0 0
0 0 0 0 0 0 0 0 0
0 0 0 0 0 0 0 0 0
0 0 0 0 0 0 0 0 0
0 0 0 0 0 0 0 0 0
0 0 0 0 0 0 0 0 0
0 0 0 0 0 0 0 0 0
0 0 0 0 0 0 0 0 0
0 0 0 0 0 0 0 0 0
0 0 0 0 0 0 0 0 0
0 0 0 0 0 0 0 0 0
0 0 0 0 0 0 0 0 0
0 0 0 0 0 0 0 0 0
0 0 0 0 0 0 0 0 0
0 0 0 0 0 0 0 0 0
0 0 0 0 0 0 0 0 0
0 0 0 0 0 0 0 0 0
0 0 0 0 0 0 0 0 0
0 0 0 0 0 0 0 0 0
0 0 0 0 0 0 0 0 0
0 0 0 0 0 0 0 0 0
0 0 0 0 0 0 0 0 0
0 0 0 0 0 0 0 0 0
0 0 0 0 0 0 0 0 0
0 0 0 0 0 0 0 0 0
0 0 0 0 0 0 0 0 0
0 0 0 0 0 0 0 0 0
0 0 0 0 0 0 0 0 0
0 0 0 0 0 0 0 0 0
0 0 0 0 0 0 0 0 0
0 0 0 0 0 0 0 0 0
0 0 0 0 0 0 0 0 0
0 0 0 0 0 0 0 0 0
0 0 0 0 0 0 0 0 0
0 0 0 0 0 0 0 0 0
0 0 0 0 0 0 0 0 0
0 0 0 0 0 0 0 0 0
0 0 0 0 0 0 0 0 0
0 0 0 0 0 0 0 0 0
0 0 0 0 0 0 0 0 0
0 0 0 0 0 0 0 0 0
0 0 0 0 0 0 0 0 0
0 0 0 0 0 0 0 0 0
0 0 0 0 0 0 0 0 0
0 0 0 0 0 0 0 0 0
0 0 0 0 0 0 0 0 0
0 0 0 0 0 0 0 0 0
0 0 0 0 0 0 0 0 0
0 0 0 0 0 0 0 0 0
0 0 0 0 0 0 0 0 0
0 0 0 0 0 0 0 0 0
0 0 0 0 0 0 0 0 0
0 0 0 0 0 0 0 0 0
0 0 0 0 0 0 0 0 0
0 0 0 0 0 0 0 0 0
0 0 0 0 0 0 0 0 0
0 0 0 0 0 0 0 0 0
0 0 0 0 0 0 0 0 0
0 0 0 0 0 0 0 0 0
0 0 0 0 0 0 0 0 0
0 0 0 0 0 0 0 0 0
0 0 0 0 0 0 0 0 0
0 0 0 0 0 0 0 0 0
0 0 0 0 0 0 0 0 0
0 0 0 0 0 0 0 0 0
0 0 0 0 0 0 0 0 0
0 0 0 0 0 0 0 0 0
0 0 0 0 0 0 0 0 0
0 0 0 0 0 0 0 0 0
0 0 0 0 0 0 0 0 0
0 0 0 0 0 0 0 0 0
0 0 0 0 0 0 0 0 0
0 0 0 0 0 0 0 0 0
0 0 0 0 0 0 0 0 0
0 0 0 0 0 0 0 0 0
0 0 0 0 0 0 0 0 0
0 0 0 0 0 0 0 0 0
0 0 0 0 0 0 0 0 0
0 0 0 0 0 0 0 0 0
0 0 0 0 0 0 0 0 0
0 0 0 0 0 0 0 0 0
0 0 0 0 0 0 0 0 0
0 0 0 0 0 0 0 0 0
0 0 0 0 0 0 0 0 0
0 0 0 0 0 0 0 0 0
0 0 0 0 0 0 0 0 0
0 0 0 0 0 0 0 0 0
0 0 0 0 0 0 0 0 0
0 0 0 0 0 0 0 0 0
0 0 0 0 0 0 0 0 0
0 0 0 0 0 0 0 0 0
0 0 0 0 0 0 0 0 0
0 0 0 0 0 0 0 0 0
0 0 0 0 0 0 0 0 0
0 0 0 0 0 0 0 0 0
0 0 0 0 0 0 0 0 0
SCALARS tauN double 9
LOOKUP_TABLE default
0 0 0 0 0 0 0 0 0
0 0 0 0 0 0 0 0 0
0 0 0 0 0 0 0 0 0
0 0 0 0 0 0 0 0 0
0 0 0 0 0 0 0 0 0
0 0 0 0 0 0 0 0 0
0 0 0 0 0 0 0 0 0
0 0 0 0 0 0 0 0 0
0 0 0 0 0 0 0 0 0
0 0 0 0 0 0 0 0 0
0 0 0 0 0 0 0 0 0
0 0 0 0 0 0 0 0 0
0 0 0 0 0 0 0 0 0
0 0 0 0 0 0 0 0 0
0 0 0 0 0 0 0 0 0
0 0 0 0 0 0 0 0 0
0 0 0 0 0 0 0 0 0
0 0 0 0 0 0 0 0 0
0 0 0 0 0 0 0 0 0
0 0 0 0 0 0 0 0 0
0 0 0 0 0 0 0 0 0
0 0 0 0 0 0 0 0 0
0 0 0 0 0 0 0 0 0
0 0 0 0 0 0 0 0 0
0 0 0 0 0 0 0 0 0
0 0 0 0 0 0 0 0 0
0 0 0 0 0 0 0 0 0
0 0 0 0 0 0 0 0 0
0 0 0 0 0 0 0 0 0
0 0 0 0 0 0 0 0 0
0 0 0 0 0 0 0 0 0
0 0 0 0 0 0 0 0 0
0 0 0 0 0 0 0 0 0
0 0 0 0 0 0 0 0 0
0 0 0 0 0 0 0 0 0
0 0 0 0 0 0 0 0 0
0 0 0 0 0 0 0 0 0
0 0 0 0 0 0 0 0 0
0 0 0 0 0 0 0 0 0
0 0 0 0 0 0 0 0 0
0 0 0 0 0 0 0 0 0
0 0 0 0 0 0 0 0 0
0 0 0 0 0 0 0 0 0
0 0 0 0 0 0 0 0 0
0 0 0 0 0 0 0 0 0
0 0 0 0 0 0 0 0 0
0 0 0 0 0 0 0 0 0
0 0 0 0 0 0 0 0 0
0 0 0 0 0 0 0 0 0
0 0 0 0 0 0 0 0 0
0 0 0 0 0 0 0 0 0
0 0 0 0 0 0 0 0 0
0 0 0 0 0 0 0 0 0
0 0 0 0 0 0 0 0 0
0 0 0 0 0 0 0 0 0
0 0 0 0 0 0 0 0 0
0 0 0 0 0 0 0 0 0
0 0 0 0 0 0 0 0 0
0 0 0 0 0 0 0 0 0
0 0 0 0 0 0 0 0 0
0 0 0 0 0 0 0 0 0
0 0 0 0 0 0 0 0 0
0 0 0 0 0 0 0 0 0
0 0 0 0 0 0 0 0 0
0 0 0 0 0 0 0 0 0
0 0 0 0 0 0 0 0 0
0 0 0 0 0 0 0 0 0
0 0 0 0 0 0 0 0 0
0 0 0 0 0 0 0 0 0
0 0 0 0 0 0 0 0 0
0 0 0 0 0 0 0 0 0
0 0 0 0 0 0 0 0 0
0 0 0 0 0 0 0 0 0
0 0 0 0 0 0 0 0 0
0 0 0 0 0 0 0 0 0
0 0 0 0 0 0 0 0 0
0 0 0 0 0 0 0 0 0
0 0 0 0 0 0 0 0 0
0 0 0 0 0 0 0 0 0
0 0 0 0 0 0 0 0 0
0 0 0 0 0 0 0 0 0
0 0 0 0 0 0 0 0 0
0 0 0 0 0 0 0 0 0
0 0 0 0 0 0 0 0 0
0 0 0 0 0 0 0 0 0
0 0 0 0 0 0 0 0 0
0 0 0 0 0 0 0 0 0
0 0 0 0 0 0 0 0 0
0 0 0 0 0 0 0 0 0
0 0 0 0 0 0 0 0 0
0 0 0 0 0 0 0 0 0
0 0 0 0 0 0 0 0 0
0 0 0 0 0 0 0 0 0
0 0 0 0 0 0 0 0 0
0 0 0 0 0 0 0 0 0
0 0 0 0 0 0 0 0 0
0 0 0 0 0 0 0 0 0
0 0 0 0 0 0 0 0 0
0 0 0 0 0 0 0 0 0
0 0 0 0 0 0 0 0 0
0 0 0 0 0 0 0 0 0
0 0 0 0 0 0 0 0 0
0 0 0 0 0 0 0 0 0
0 0 0 0 0 0 0 0 0
0 0 0 0 0 0 0 0 0
0 0 0 0 0 0 0 0 0
0 0 0 0 0 0 0 0 0
0 0 0 0 0 0 0 0 0
0 0 0 0 0 0 0 0 0
0 0 0 0 0 0 0 0 0
0 0 0 0 0 0 0 0 0
0 0 0 0 0 0 0 0 0
0 0 0 0 0 0 0 0 0
0 0 0 0 0 0 0 0 0
0 0 0 0 0 0 0 0 0
0 0 0 0 0 0 0 0 0
0 0 0 0 0 0 0 0 0
0 0 0 0 0 0 0 0 0
0 0 0 0 0 0 0 0 0
0 0 0 0 0 0 0 0 0
0 0 0 0 0 0 0 0 0
0 0 0 0 0 0 0 0 0
0 0 0 0 0 0 0 0 0
0 0 0 0 0 0 0 0 0
0 0 0 0 0 0 0 0 0
0 0 0 0 0 0 0 0 0
0 0 0 0 0 0 0 0 0
0 0 0 0 0 0 0 0 0
0 0 0 0 0 0 0 0 0
0 0 0 0 0 0 0 0 0
0 0 0 0 0 0 0 0 0
0 0 0 0 0 0 0 0 0
0 0 0 0 0 0 0 0 0
0 0 0 0 0 0 0 0 0
0 0 0 0 0 0 0 0 0
0 0 0 0 0 0 0 0 0
0 0 0 0 0 0 0 0 0
0 0 0 0 0 0 0 0 0
0 0 0 0 0 0 0 0 0
0 0 0 0 0 0 0 0 0
0 0 0 0 0 0 0 0 0
0 0 0 0 0 0 0 0 0
0 0 0 0 0 0 0 0 0
0 0 0 0 0 0 0 0 0
0 0 0 0 0 0 0 0 0
0 0 0 0 0 0 0 0 0
0 0 0 0 0 0 0 0 0
0 0 0 0 0 0 0 0 0
0 0 0 0 0 0 0 0 0
0 0 0 0 0 0 0 0 0
0.0150152 0.0159835 0.0153875 0.0163502 0.0150152 0.0159835 0.0153875 0.0163502 0
0.0167298 0.0178924 0.017091 0.0182419 0.0167298 0.0178924 0.017091 0.0182419 0
0.0189582 0.0207972 0.019299 0.0211234 0.0189582 0.0207972 0.019299 0.0211234 0
0.0128638 0.0136866 0.0132607 0.0140862 0.0128638 0.0136866 0.0132607 0.0140862 0
0.0143096 0.0152883 0.0147088 0.015681 0.0143096 0.0152883 0.0147088 0.015681 0
0.0160424 0.0172221 0.01643 0.0175998 0.0160424 0.0172221 0.01643 0.0175998 0
0.0183027 0.0201712 0.0186711 0.0205215 0.0183027 0.0201712 0.0186711 0.0205215 0
0.0121262 0.0129444 0.0125444 0.0133647 0.0121262 0.0129444 0.0125444 0.0133647 0
0.0135655 0.0145496 0.0139866 0.014968 0.0135655 0.0145496 0.0139866 0.014968 0
0.0153089 0.0165039 0.0157239 0.0169099 0.0153089 0.0165039 0.0157239 0.0169099 0
0.0175996 0.0195004 0.0179962 0.0198778 0.0175996 0.0195004 0.0179962 0.0198778 0
0.0101394 0.01084 0.010569 0.0112752 0.0101394 0.01084 0.010569 0.0112752 0
0.0113528 0.0121639 0.0117924 0.0126077 0.0113528 0.0121639 0.0117924 0.0126077 0
0.0127803 0.0137651 0.0132265 0.0142111 0.0127803 0.0137651 0.0132265 0.0142111 0
0.0145268 0.0157349 0.014971 0.0161715 0.0145268 0.0157349 0.014971 0.0161715 0
0.0168464 0.0187843 0.0172731 0.0191886 0.0168464 0.0187843 0.0172731 0.0191886 0
0.0203338 0.0227344 0.0207203 0.0230916 0.0203338 0.0227344 0.0207203 0.0230916 0
0.00935643 0.0100437 0.00980242 0.0104975 0.00935643 0.0100437 0.00980242 0.0104975 0
0.0105451 0.0113448 0.0110052 0.0118117 0.0105451 0.0113448 0.0110052 0.0118117 0
0.0119529 0.0129335 0.0124244 0.0134076 0.0119529 0.0129335 0.0124244 0.0134076 0
0.0136945 0.0149119 0.0141688 0.015381 0.0136945 0.0149119 0.0141688 0.015381 0
0.0160355 0.0180045 0.0164975 0.0184494 0.0160355 0.0180045 0.0164975 0.0184494 0
0.0195832 0.0220395 0.0200107 0.0224336 0.0195832 0.0220395 0.0200107 0.0224336 0
0.00855003 0.00922061 0.00900997 0.00969026 0.00855003 0.00922061 0.00900997 0.00969026 0
0.00970741 0.0104905 0.0101853 0.0109783 0.00970741 0.0104905 0.0101853 0.0109783 0
0.0110862 0.0120561 0.0115811 0.0125576 0.0110862 0.0120561 0.0115811 0.0125576 0
0.0128118 0.0140325 0.0133163 0.0145356 0.0128118 0.0140325 0.0133163 0.0145356 0
0.0151647 0.0171612 0.0156625 0.0176431 0.0151647 0.0171612 0.0156625 0.0176431 0
0.0187696 0.0212872 0.0192336 0.0217148 0.0187696 0.0212872 0.0192336 0.0217148 0
0.00673887 0.00731751 0.00719629 0.00778324 0.00673887 0.00731751 0.00719629 0.00778324 0
0.0077222 0.00837526 0.00819551 0.00885842 0.0077222 0.00837526 0.00819551 0.00885842 0
0.00884542 0.00960704 0.00933785 0.0101122 0.00884542 0.00960704 0.00933785 0.0101122 0
0.0101855 0.0111372 0.0107005 0.0116634 0.0101855 0.0111372 0.0107005 0.0116634 0
0.0118816 0.0130974 0.0124144 0.0136338 0.0118816 0.0130974 0.0124144 0.0136338 0
0.014233 0.016252 0.0147674 0.0167738 0.014233 0.016252 0.0147674 0.0167738 0
0.017888 0.0204664 0.0183937 0.0209369 0.017888 0.0204664 0.0183937 0.0209369 0
0.00593048 0.00649506 0.00639274 0.00696509 0.00593048 0.00649506 0.00639274 0.00696509 0
0.0068852 0.00751835 0.00736327 0.00800804 0.0068852 0.00751835 0.00736327 0.00800804 0
0.00796924 0.00870465 0.00846988 0.00922073 0.00796924 0.00870465 0.00846988 0.00922073 0
0.00926105 0.0101858 0.00978992 0.010731 0.00926105 0.0101858 0.00978992 0.010731 0
0.0109118 0.0121117 0.0114679 0.0126781 0.0109118 0.0121117 0.0114679 0.0126781 0
0.0132433 0.0152754 0.0138124 0.0158378 0.0132433 0.0152754 0.0138124 0.0158378 0
0.016935 0.0195729 0.0174837 0.020087 0.016935 0.0195729 0.0174837 0.020087 0
0.00512423 0.00567543 0.00558533 0.006144 0.00512423 0.00567543 0.00558533 0.006144 0
0.00605123 0.00666422 0.00652765 0.00715202 0.00605123 0.00666422 0.00652765 0.00715202 0
0.00709451 0.00780024 0.00759387 0.00831689 0.00709451 0.00780024 0.00759387 0.00831689 0
0.00832999 0.00921887 0.00886205 0.00977252 0.00832999 0.00921887 0.00886205 0.00977252 0
0.00991775 0.0110876 0.0104875 0.0116763 0.00991775 0.0110876 0.0104875 0.0116763 0
0.0122052 0.0142374 0.0128026 0.0148362 0.0122052 0.0142374 0.0128026 0.0148362 0
0.0159141 0.0186076 0.0165032 0.019165 0.0159141 0.0186076 0.0165032 0.019165 0
0.00350672 0.00400514 0.00395065 0.00445154 0.00350672 0.00400514 0.00395065 0.00445154 0
0.00433606 0.00487706 0.00478613 0.00533242 0.00433606 0.00487706 0.00478613 0.00533242 0
0.00524078 0.00583635 0.0057025 0.00630758 0.00524078 0.00583635 0.0057025 0.00630758 0
0.00624671 0.00692171 0.00672893 0.00742157 0.00624671 0.00692171 0.00672893 0.00742157 0
0.00742142 0.0082662 0.00793854 0.00880957 0.00742142 0.0082662 0.00793854 0.00880957 0
0.00892899 0.0100525 0.00949376 0.0106459 0.00892899 0.0100525 0.00949376 0.0106459 0
0.0111426 0.0131547 0.0117529 0.0137791 0.0111426 0.0131547 0.0117529 0.0137791 0
0.0148387 0.0175813 0.0154596 0.0181744 0.0148387 0.0175813 0.0154596 0.0181744 0
0.00277632 0.00326578 0.00319104 0.00368632 0.00277632 0.00326578 0.00319104 0.00368632 0
0.00359087 0.00412901 0.00401454 0.00455327 0.00359087 0.00412901 0.00401454 0.00455327 0
0.0044852 0.00506807 0.00491301 0.00550251 0.0044852 0.00506807 0.00491301 0.00550251 0
0.00546137 0.00610846 0.00590497 0.00656764 0.00546137 0.00610846 0.00590497 0.00656764 0
0.00657738 0.00737305 0.00705397 0.0078784 0.00657738 0.00737305 0.00705397 0.0078784 0
0.00799097 0.00904916 0.00852279 0.00962093 0.00799097 0.00904916 0.00852279 0.00962093 0
0.0100947 0.0120599 0.0106938 0.0126894 0.0100947 0.0120599 0.0106938 0.0126894 0
0.0137352 0.0165111 0.0143712 0.0171299 0.0137352 0.0165111 0.0143712 0.0171299 0
0.00211744 0.00261316 0.00248969 0.00297928 0.00211744 0.00261316 0.00248969 0.00297928 0
0.00293886 0.00347588 0.0033037 0.00384138 0.00293886 0.00347588 0.0033037 0.00384138 0
0.00382901 0.00440909 0.0041957 0.00477604 0.00382901 0.00440909 0.0041957 0.00477604 0
0.00479229 0.00542018 0.00516395 0.00580169 0.00479229 0.00542018 0.00516395 0.00580169 0
0.00586204 0.00660975 0.00625832 0.00703338 0.00586204 0.00660975 0.00625832 0.00703338 0
0.00717874 0.00815932 0.00763055 0.00865716 0.00717874 0.00815932 0.00763055 0.00865716 0
0.00914438 0.0110311 0.00967853 0.0116143 0.00914438 0.0110311 0.00967853 0.0116143 0
0.0126726 0.0154444 0.0132781 0.0160574 0.0126726 0.0154444 0.0132781 0.0160574 0
0 0 0 0 0 0 0 0 0
0 0 0 0 0 0 0 0 0
0 0 0 0 0 0 0 0 0
0 0 0 0 0 0 0 0 0
0 0 0 0 0 0 0 0 0
0 0 0 0 0 0 0 0 0
0 0 0 0 0 0 0 0 0
0 0 0 0 0 0 0 0 0
0 0 0 0 0 0 0 0 0
0 0 0 0 0 0 0 0 0
0 0 0 0 0 0 0 0 0
0 0 0 0 0 0 0 0 0
0 0 0 0 0 0 0 0 0
0 0 0 0 0 0 0 0 0
0 0 0 0 0 0 0 0 0
0 0 0 0 0 0 0 0 0
0 0 0 0 0 0 0 0 0
0 0 0 0 0 0 0 0 0
0 0 0 0 0 0 0 0 0
0 0 0 0 0 0 0 0 0
0 0 0 0 0 0 0 0 0
0 0 0 0 0 0 0 0 0
0 0 0 0 0 0 0 0 0
0 0 0 0 0 0 0 0 0
0 0 0 0 0 0 0 0 0
0 0 0 0 0 0 0 0 0
0 0 0 0 0 0 0 0 0
0 0 0 0 0 0 0 0 0
0 0 0 0 0 0 0 0 0
0 0 0 0 0 0 0 0 0
0 0 0 0 0 0 0 0 0
0 0 0 0 0 0 0 0 0
0 0 0 0 0 0 0 0 0
0 0 0 0 0 0 0 0 0
0 0 0 0 0 0 0 0 0
0 0 0 0 0 0 0 0 0
0 0 0 0 0 0 0 0 0
0 0 0 0 0 0 0 0 0
0 0 0 0 0 0 0 0 0
0 0 0 0 0 0 0 0 0
0 0 0 0 0 0 0 0 0
0 0 0 0 0 0 0 0 0
0 0 0 0 0 0 0 0 0
0 0 0 0 0 0 0 0 0
0 0 0 0 0 0 0 0 0
0 0 0 0 0 0 0 0 0
0 0 0 0 0 0 0 0 0
0 0 0 0 0 0 0 0 0
0 0 0 0 0 0 0 0 0
0 0 0 0 0 0 0 0 0
0 0 0 0 0 0 0 0 0
0 0 0 0 0 0 0 0 0
0 0 0 0 0 0 0 0 0
0 0 0 0 0 0 0 0 0
0 0 0 0 0 0 0 0 0
0 0 0 0 0 0 0 0 0
0 0 0 0 0 0 0 0 0
0 0 0 0 0 0 0 0 0
0 0 0 0 0 0 0 0 0
0 0 0 0 0 0 0 0 0
0 0 0 0 0 0 0 0 0
0 0 0 0 0 0 0 0 0
0 0 0 0 0 0 0 0 0
0 0 0 0 0 0 0 0 0
0 0 0 0 0 0 0 0 0
0 0 0 0 0 0 0 0 0
0 0 0 0 0 0 0 0 0
0 0 0 0 0 0 0 0 0
0 0 0 0 0 0 0 0 0
0 0 0 0 0 0 0 0 0
0 0 0 0 0 0 0 0 0
0 0 0 0 0 0 0 0 0
0 0 0 0 0 0 0 0 0
0 0 0 0 0 0 0 0 0
0 0 0 0 0 0 0 0 0
0 0 0 0 0 0 0 0 0
0 0 0 0 0 0 0 0 0
0 0 0 0 0 0 0 0 0
0 0 0 0 0 0 0 0 0
0 0 0 0 0 0 0 0 0
0 0 0 0 0 0 0 0 0
0 0 0 0 0 0 0 0 0
0 0 0 0 0 0 0 0 0
0 0 0 0 0 0 0 0 0
0 0 0 0 0 0 0 0 0
0 0 0 0 0 0 0 0 0
0 0 0 0 0 0 0 0 0
0 0 0 0 0 0 0 0 0
0 0 0 0 0 0 0 0 0
0 0 0 0 0 0 0 0 0
0 0 0 0 0 0 0 0 0
0 0 0 0 0 0 0 0 0
0 0 0 0 0 0 0 0 0
0 0 0 0 0 0 0 0 0
0 0 0 0 0 0 0 0 0
0 0 0 0 0 0 0 0 0
0 0 0 0 0 0 0 0 0
0 0 0 0 0 0 0 0 0
0 0 0 0 0 0 0 0 0
0 0 0 0 0 0 0 0 0
0 0 0 0 0 0 0 0 0
0 0 0 0 0 0 0 0 0
0 0 0 0 0 0 0 0 0
0 0 0 0 0 0 0 0 0
0 0 0 0 0 0 0 0 0
0 0 0 0 0 0 0 0 0
0 0 0 0 0 0 0 0 0
0 0 0 0 0 0 0 0 0
0 0 0 0 0 0 0 0 0
0 0 0 0 0 0 0 0 0
0 0 0 0 0 0 0 0 0
0 0 0 0 0 0 0 0 0
0 0 0 0 0 0 0 0 0
0 0 0 0 0 0 0 0 0
0 0 0 0 0 0 0 0 0
0 0 0 0 0 0 0 0 0
0 0 0 0 0 0 0 0 0
0 0 0 0 0 0 0 0 0
0 0 0 0 0 0 0 0 0
0 0 0 0 0 0 0 0 0
0 0 0 0 0 0 0 0 0
0 0 0 0 0 0 0 0 0
0 0 0 0 0 0 0 0 0
0 0 0 0 0 0 0 0 0
0 0 0 0 0 0 0 0 0
0 0 0 0 0 0 0 0 0
0 0 0 0 0 0 0 0 0
0 0 0 0 0 0 0 0 0
0 0 0 0 0 0 0 0 0
0 0 0 0 0 0 0 0 0
0 0 0 0 0 0 0 0 0
0 0 0 0 0 0 0 0 0
0 0 0 0 0 0 0 0 0
0 0 0 0 0 0 0 0 0
0 0 0 0 0 0 0 0 0
0 0 0 0 0 0 0 0 0
0 0 0 0 0 0 0 0 0
0 0 0 0 0 0 0 0 0
0 0 0 0 0 0 0 0 0
0 0 0 0 0 0 0 0 0
0 0 0 0 0 0 0 0 0
0 0 0 0 0 0 0 0 0
0 0 0 0 0 0 0 0 0
0 0 0 0 0 0 0 0 0
0 0 0 0 0 0 0 0 0
0 0 0 0 0 0 0 0 0
0 0 0 0 0 0 0 0 0
0 0 0 0 0 0 0 0 0
0 0 0 0 0 0 0 0 0
0 0 0 0 0 0 0 0 0
0 0 0 0 0 0 0 0 0
0 0 0 0 0 0 0 0 0
0 0 0 0 0 0 0 0 0
0 0 0 0 0 0 0 0 0
0 0 0 0 0 0 0 0 0
0 0 0 0 0 0 0 0 0
0 0 0 0 0 0 0 0 0
0 0 0 0 0 0 0 0 0
0 0 0 0 0 0 0 0 0
0 0 0 0 0 0 0 0 0
0 0 0 0 0 0 0 0 0
0 0 0 0 0 0 0 0 0
0 0 0 0 0 0 0 0 0
0 0 0 0 0 0 0 0 0
0 0 0 0 0 0 0 0 0
0 0 0 0 0 0 0 0 0
0 0 0 0 0 0 0 0 0
0 0 0 0 0 0 0 0 0
0 0 0 0 0 0 0 0 0
0 0 0 0 0 0 0 0 0
0 0 0 0 0 0 0 0 0
0 0 0 0 0 0 0 0 0
0 0 0 0 0 0 0 0 0
0 0 0 0 0 0 0 0 0
0 0 0 0 0 0 0 0 0
0 0 0 0 0 0 0 0 0
0 0 0 0 0 0 0 0 0
0 0 0 0 0 0 0 0 0
0 0 0 0 0 0 0 0 0
0 0 0 0 0 0 0 0 0
0 0 0 0 0 0 0 0 0
0 0 0 0 0 0 0 0 0
0 0 0 0 0 0 0 0 0
0 0 0 0 0 0 0 0 0
0 0 0 0 0 0 0 0 0
0 0 0 0 0 0 0 0 0
0 0 0 0 0 0 0 0 0
0 0 0 0 0 0 0 0 0
0 0 0 0 0 0 0 0 0
0 0 0 0 0 0 0 0 0
0 0 0 0 0 0 0 0 0
0 0 0 0 0 0 0 0 0
0 0 0 0 0 0 0 0 0
0 0 0 0 0 0 0 0 0
0 0 0 0 0 0 0 0 0
0 0 0 0 0 0 0 0 0
0 0 0 0 0 0 0 0 0
0 0 0 0 0 0 0 0 0
0 0 0 0 0 0 0 0 0
0 0 0 0 0 0 0 0 0
0 0 0 0 0 0 0 0 0
0 0 0 0 0 0 0 0 0
0 0 0 0 0 0 0 0 0
0 0 0 0 0 0 0 0 0
0 0 0 0 0 0 0 0 0
0 0 0 0 0 0 0 0 0
0 0 0 0 0 0 0 0 0
0 0 0 0 0 0 0 0 0
0 0 0 0 0 0 0 0 0
0 0 0 0 0 0 0 0 0
0 0 0 0 0 0 0 0 0
0 0 0 0 0 0 0 0 0
0 0 0 0 0 0 0 0 0
0 0 0 0 0 0 0 0 0
0 0 0 0 0 0 0 0 0
0 0 0 0 0 0 0 0 0
0 0 0 0 0 0 0 0 0
0 0 0 0 0 0 0 0 0
0 0 0 0 0 0 0 0 0
0 0 0 0 0 0 0 0 0
0 0 0 0 0 0 0 0 0
0 0 0 0 0 0 0 0 0
0 0 0 0 0 0 0 0 0
0 0 0 0 0 0 0 0 0
0 0 0 0 0 0 0 0 0
0 0 0 0 0 0 0 0 0
0 0 0 0 0 0 0 0 0
0 0 0 0 0 0 0 0 0
0 0 0 0 0 0 0 0 0
0 0 0 0 0 0 0 0 0
0 0 0 0 0 0 0 0 0
0 0 0 0 0 0 0 0 0
0 0 0 0 0 0 0 0 0
0 0 0 0 0 0 0 0 0
0 0 0 0 0 0 0 0 0
0 0 0 0 0 0 0 0 0
0 0 0 0 0 0 0 0 0
0 0 0 0 0 0 0 0 0
0 0 0 0 0 0 0 0 0
0 0 0 0 0 0 0 0 0
0 0 0 0 0 0 0 0 0
0 0 0 0 0 0 0 0 0
0 0 0 0 0 0 0 0 0
0 0 0 0 0 0 0 0 0
0 0 0 0 0 0 0 0 0
0 0 0 0 0 0 0 0 0
0 0 0 0 0 0 0 0 0
0 0 0 0 0 0 0 0 0
0 0 0 0 0 0 0 0 0
0 0 0 0 0 0 0 0 0
0 0 0 0 0 0 0 0 0
0 0 0 0 0 0 0 0 0
0 0 0 0 0 0 0 0 0
0 0 0 0 0 0 0 0 0
0 0 0 0 0 0 0 0 0
0 0 0 0 0 0 0 0 0
0 0 0 0 0 0 0 0 0
0 0 0 0 0 0 0 0 0
0 0 0 0 0 0 0 0 0
0 0 0 0 0 0 0 0 0
0 0 0 0 0 0 0 0 0
0 0 0 0 0 0 0 0 0
0 0 0 0 0 0 0 0 0
0 0 0 0 0 0 0 0 0
0 0 0 0 0 0 0 0 0
0 0 0 0 0 0 0 0 0
0 0 0 0 0 0 0 0 0
0 0 0 0 0 0 0 0 0
0 0 0 0 0 0 0 0 0
0 0 0 0 0 0 0 0 0
0 0 0 0 0 0 0 0 0
0 0 0 0 0 0 0 0 0
0 0 0 0 0 0 0 0 0
0 0 0 0 0 0 0 0 0
0 0 0 0 0 0 0 0 0
0 0 0 0 0 0 0 0 0
0 0 0 0 0 0 0 0 0
0 0 0 0 0 0 0 0 0
0 0 0 0 0 0 0 0 0
0 0 0 0 0 0 0 0 0
0 0 0 0 0 0 0 0 0
0 0 0 0 0 0 0 0 0
0 0 0 0 0 0 0 0 0
0 0 0 0 0 0 0 0 0
0 0 0 0 0 0 0 0 0
0 0 0 0 0 0 0 0 0
0 0 0 0 0 0 0 0 0
0 0 0 0 0 0 0 0 0
0 0 0 0 0 0 0 0 0
0 0 0 0 0 0 0 0 0
0 0 0 0 0 0 0 0 0
0 0 0 0 0 0 0 0 0
0 0 0 0 0 0 0 0 0
0 0 0 0 0 0 0 0 0
0 0 0 0 0 0 0 0 0
0 0 0 0 0 0 0 0 0
0 0 0 0 0 0 0 0 0
0 0 0 0 0 0 0 0 0
0 0 0 0 0 0 0 0 0
0 0 0 0 0 0 0 0 0
0 0 0 0 0 0 0 0 0
0 0 0 0 0 0 0 0 0
0 0 0 0 0 0 0 0 0
0 0 0 0 0 0 0 0 0
0 0 0 0 0 0 0 0 0
0 0 0 0 0 0 0 0 0
0 0 0 0 0 0 0 0 0
0 0 0 0 0 0 0 0 0
0 0 0 0 0 0 0 0 0
0 0 0 0 0 0 0 0 0
0 0 0 0 0 0 0 0 0
0 0 0 0 0 0 0 0 0
0 0 0 0 0 0 0 0 0
0 0 0 0 0 0 0 0 0
0 0 0 0 0 0 0 0 0
0 0 0 0 0 0 0 0 0
0 0 0 0 0 0 0 0 0
0 0 0 0 0 0 0 0 0
0 0 0 0 0 0 0 0 0
0 0 0 0 0 0 0 0 0
0 0 0 0 0 0 0 0 0
0 0 0 0 0 0 0 0 0
0 0 0 0 0 0 0 0 0
0 0 0 0 0 0 0 0 0
0 0 0 0 0 0 0 0 0
0 0 0 0 0 0 0 0 0
0 0 0 0 0 0 0 0 0
0 0 0 0 0 0 0 0 0
0 0 0 0 0 0 0 0 0
0 0 0 0 0 0 0 0 0
0 0 0 0 0 0 0 0 0
0 0 0 0 0 0 0 0 0
0 0 0 0 0 0 0 0 0
0 0 0 0 0 0 0 0 0
0 0 0 0 0 0 0 0 0
0 0 0 0 0 0 0 0 0
0 0 0 0 0 0 0 0 0
0 0 0 0 0 0 0 0 0
0 0 0 0 0 0 0 0 0
0 0 0 0 0 0 0 0 0
0 0 0 0 0 0 0 0 0
0 0 0 0 0 0 0 0 0
0 0 0 0 0 0 0 0 0
0 0 0 0 0 0 0 0 0
0 0 0 0 0 0 0 0 0
0 0 0 0 0 0 0 0 0
0 0 0 0 0 0 0 0 0
0 0 0 0 0 0 0 0 0
0 0 0 0 0 0 0 0 0
0 0 0 0 0 0 0 0 0
0 0 0 0 0 0 0 0 0
0 0 0 0 0 0 0 0 0
0 0 0 0 0 0 0 0 0
0 0 0 0 0 0 0 0 0
0 0 0 0 0 0 0 0 0
0 0 0 0 0 0 0 0 0
0 0 0 0 0 0 0 0 0
0 0 0 0 0 0 0 0 0
0 0 0 0 0 0 0 0 0
0 0 0 0 0 0 0 0 0
0 0 0 0 0 0 0 0 0
0 0 0 0 0 0 0 0 0
0 0 0 0 0 0 0 0 0
0 0 0 0 0 0 0 0 0
0 0 0 0 0 0 0 0 0
0 0 0 0 0 0 0 0 0
0 0 0 0 0 0 0 0 0
0 0 0 0 0 0 0 0 0
0 0 0 0 0 0 0 0 0
0 0 0 0 0 0 0 0 0
0 0 0 0 0 0 0 0 0
0 0 0 0 0 0 0 0 0
0 0 0 0 0 0 0 0 0
0 0 0 0 0 0 0 0 0
0 0 0 0 0 0 0 0 0
0 0 0 0 0 0 0 0 0
0 0 0 0 0 0 0 0 0
0 0 0 0 0 0 0 0 0
0 0 0 0 0 0 0 0 0
0 0 0 0 0 0 0 0 0
0 0 0 0 0 0 0 0 0
0 0 0 0 0 0 0 0 0
0 0 0 0 0 0 0 0 0
0 0 0 0 0 0 0 0 0
0 0 0 0 0 0 0 0 0
0 0 0 0 0 0 0 0 0
0 0 0 0 0 0 0 0 0
0 0 0 0 0 0 0 0 0
0 0 0 0 0 0 0 0 0
0 0 0 0 0 0 0 0 0
0 0 0 0 0 0 0 0 0
0 0 0 0 0 0 0 0 0
0 0 0 0 0 0 0 0 0
0 0 0 0 0 0 0 0 0
0 0 0 0 0 0 0 0 0
0 0 0 0 0 0 0 0 0
0 0 0 0 0 0 0 0 0
0 0 0 0 0 0 0 0 0
0 0 0 0 0 0 0 0 0
0 0 0 0 0 0 0 0 0
0 0 0 0 0 0 0 0 0
0 0 0 0 0 0 0 0 0
0 0 0 0 0 0 0 0 0
0 0 0 0 0 0 0 0 0
0 0 0 0 0 0 0 0 0
0 0 0 0 0 0 0 0 0
0 0 0 0 0 0 0 0 0
0 0 0 0 0 0 0 0 0
0 0 0 0 0 0 0 0 0
0 0 0 0 0 0 0 0 0
0 0 0 0 0 0 0 0 0
0 0 0 0 0 0 0 0 0
0 0 0 0 0 0 0 0 0
0 0 0 0 0 0 0 0 0
0 0 0 0 0 0 0 0 0
0 0 0 0 0 0 0 0 0
0 0 0 0 0 0 0 0 0
0 0 0 0 0 0 0 0 0
0 0 0 0 0 0 0 0 0
0 0 0 0 0 0 0 0 0
0 0 0 0 0 0 0 0 0
0 0 0 0 0 0 0 0 0
0 0 0 0 0 0 0 0 0
0 0 0 0 0 0 0 0 0
0 0 0 0 0 0 0 0 0
0 0 0 0 0 0 0 0 0
0 0 0 0 0 0 0 0 0
0 0 0 0 0 0 0 0 0
0 0 0 0 0 0 0 0 0
0 0 0 0 0 0 0 0 0
0 0 0 0 0 0 0 0 0
0 0 0 0 0 0 0 0 0
0 0 0 0 0 0 0 0 0
0 0 0 0 0 0 0 0 0
0 0 0 0 0 0 0 0 0
0 0 0 0 0 0 0 0 0
0 0 0 0 0 0 0 0 0
0 0 0 0 0 0 0 0 0
0 0 0 0 0 0 0 0 0
0 0 0 0 0 0 0 0 0
0 0 0 0 0 0 0 0 0
0 0 0 0 0 0 0 0 0
0 0 0 0 0 0 0 0 0
0 0 0 0 0 0 0 0 0
0 0 0 0 0 0 0 0 0
0 0 0 0 0 0 0 0 0
0 0 0 0 0 0 0 0 0
0 0 0 0 0 0 0 0 0
0 0 0 0 0 0 0 0 0
0 0 0 0 0 0 0 0 0
0 0 0 0 0 0 0 0 0
0 0 0 0 0 0 0 0 0
0 0 0 0 0 0 0 0 0
0 0 0 0 0 0 0 0 0
0 0 0 0 0 0 0 0 0
0 0 0 0 0 0 0 0 0
0 0 0 0 0 0 0 0 0
0 0 0 0 0 0 0 0 0
0 0 0 0 0 0 0 0 0
0 0 0 0 0 0 0 0 0
0 0 0 0 0 0 0 0 0
0 0 0 0 0 0 0 0 0
0 0 0 0 0 0 0 0 0
0 0 0 0 0 0 0 0 0
0 0 0 0 0 0 0 0 0
0 0 0 0 0 0 0 0 0
0 0 0 0 0 0 0 0 0
0 0 0 0 0 0 0 0 0
0 0 0 0 0 0 0 0 0
0 0 0 0 0 0 0 0 0
0 0 0 0 0 0 0 0 0
0 0 0 0 0 0 0 0 0
0 0 0 0 0 0 0 0 0
0 0 0 0 0 0 0 0 0
0 0 0 0 0 0 0 0 0
0 0 0 0 0 0 0 0 0
0 0 0 0 0 0 0 0 0
0 0 0 0 0 0 0 0 0
0 0 0 0 0 0 0 0 0
0 0 0 0 0 0 0 0 0
0 0 0 0 0 0 0 0 0
0 0 0 0 0 0 0 0 0
0 0 0 0 0 0 0 0 0
0 0 0 0 0 0 0 0 0
0 0 0 0 0 0 0 0 0
0 0 0 0 0 0 0 0 0
0 0 0 0 0 0 0 0 0
0 0 0 0 0 0 0 0 0
0 0 0 0 0 0 0 0 0
0 0 0 0 0 0 0 0 0
0 0 0 0 0 0 0 0 0
0 0 0 0 0 0 0 0 0
0 0 0 0 0 0 0 0 0
0 0 0 0 0 0 0 0 0
0 0 0 0 0 0 0 0 0
0 0 0 0 0 0 0 0 0
0 0 0 0 0 0 0 0 0
0 0 0 0 0 0 0 0 0
0 0 0 0 0 0 0 0 0
0 0 0 0 0 0 0 0 0
0 0 0 0 0 0 0 0 0
0 0 0 0 0 0 0 0 0
0 0 0 0 0 0 0 0 0
0 0 0 0 0 0 0 0 0
0 0 0 0 0 0 0 0 0
0 0 0 0 0 0 0 0 0
0 0 0 0 0 0 0 0 0
0 0 0 0 0 0 0 0 0
0 0 0 0 0 0 0 0 0
0 0 0 0 0 0 0 0 0
0 0 0 0 0 0 0 0 0
0 0 0 0 0 0 0 0 0
0 0 0 0 0 0 0 0 0
0 0 0 0 0 0 0 0 0
0 0 0 0 0 0 0 0 0
0 0 0 0 0 0 0 0 0
0 0 0 0 0 0 0 0 0
0 0 0 0 0 0 0 0 0
0 0 0 0 0 0 0 0 0
0 0 0 0 0 0 0 0 0
0 0 0 0 0 0 0 0 0
0 0 0 0 0 0 0 0 0
0 0 0 0 0 0 0 0 0
0 0 0 0 0 0 0 0 0
0 0 0 0 0 0 0 0 0
0 0 0 0 0 0 0 0 0
0 0 0 0 0 0 0 0 0
0 0 0 0 0 0 0 0 0
0 0 0 0 0 0 0 0 0
0 0 0 0 0 0 0 0 0
0 0 0 0 0 0 0 0 0
0 0 0 0 0 0 0 0 0
0 0 0 0 0 0 0 0 0
0 0 0 0 0 0 0 0 0
0 0 0 0 0 0 0 0 0
0 0 0 0 0 0 0 0 0
0 0 0 0 0 0 0 0 0
0 0 0 0 0 0 0 0 0
0 0 0 0 0 0 0 0 0
0 0 0 0 0 0 0 0 0
0 0 0 0 0 0 0 0 0
0 0 0 0 0 0 0 0 0
0 0 0 0 0 0 0 0 0
0 0 0 0 0 0 0 0 0
0 0 0 0 0 0 0 0 0
0 0 0 0 0 0 0 0 0
0 0 0 0 0 0 0 0 0
0 0 0 0 0 0 0 0 0
0 0 0 0 0 0 0 0 0
0 0 0 0 0 0 0 0 0
0 0 0 0 0 0 0 0 0
0 0 0 0 0 0 0 0 0
0 0 0 0 0 0 0 0 0
0 0 0 0 0 0 0 0 0
0 0 0 0 0 0 0 0 0
0 0 0 0 0 0 0 0 0
0 0 0 0 0 0 0 0 0
0 0 0 0 0 0 0 0 0
0 0 0 0 0 0 0 0 0
0 0 0 0 0 0 0 0 0
0 0 0 0 0 0 0 0 0
0 0 0 0 0 0 0 0 0
0 0 0 0 0 0 0 0 0
0 0 0 0 0 0 0 0 0
0 0 0 0 0 0 0 0 0
0 0 0 0 0 0 0 0 0
0 0 0 0 0 0 0 0 0
0 0 0 0 0 0 0 0 0
0 0 0 0 0 0 0 0 0
0 0 0 0 0 0 0 0 0
0 0 0 0 0 0 0 0 0
0 0 0 0 0 0 0 0 0
0 0 0 0 0 0 0 0 0
0 0 0 0 0 0 0 0 0
0 0 0 0 0 0 0 0 0
0 0 0 0 0 0 0 0 0
0 0 0 0 0 0 0 0 0
0 0 0 0 0 0 0 0 0
0 0 0 0 0 0 0 0 0
0 0 0 0 0 0 0 0 0
0 0 0 0 0 0 0 0 0
0 0 0 0 0 0 0 0 0
0 0 0 0 0 0 0 0 0
0 0 0 0 0 0 0 0 0
0 0 0 0 0 0 0 0 0
0 0 0 0 0 0 0 0 0
0 0 0 0 0 0 0 0 0
0 0 0 0 0 0 0 0 0
0 0 0 0 0 0 0 0 0
0 0 0 0 0 0 0 0 0
0 0 0 0 0 0 0 0 0
0 0 0 0 0 0 0 0 0
0 0 0 0 0 0 0 0 0
0 0 0 0 0 0 0 0 0
0 0 0 0 0 0 0 0 0
0 0 0 0 0 0 0 0 0
0 0 0 0 0 0 0 0 0
0 0 0 0 0 0 0 0 0
0 0 0 0 0 0 0 0 0
0 0 0 0 0 0 0 0 0
0 0 0 0 0 0 0 0 0
0 0 0 0 0 0 0 0 0
0 0 0 0 0 0 0 0 0
0 0 0 0 0 0 0 0 0
0 0 0 0 0 0 0 0 0
0 0 0 0 0 0 0 0 0
0 0 0 0 0 0 0 0 0
0 0 0 0 0 0 0 0 0
0 0 0 0 0 0 0 0 0
0 0 0 0 0 0 0 0 0
0 0 0 0 0 0 0 0 0
0 0 0 0 0 0 0 0 0
0 0 0 0 0 0 0 0 0
0 0 0 0 0 0 0 0 0
0 0 0 0 0 0 0 0 0
0 0 0 0 0 0 0 0 0
0 0 0 0 0 0 0 0 0
0 0 0 0 0 0 0 0 0
0 0 0 0 0 0 0 0 0
0 0 0 0 0 0 0 0 0
0 0 0 0 0 0 0 0 0
0 0 0 0 0 0 0 0 0
0 0 0 0 0 0 0 0 0
0 0 0 0 0 0 0 0 0
0 0 0 0 0 0 0 0 0
0 0 0 0 0 0 0 0 0
0 0 0 0 0 0 0 0 0
0 0 0 0 0 0 0 0 0
0 0 0 0 0 0 0 0 0
0 0 0 0 0 0 0 0 0
0 0 0 0 0 0 0 0 0
0 0 0 0 0 0 0 0 0
0 0 0 0 0 0 0 0 0
0 0 0 0 0 0 0 0 0
0 0 0 0 0 0 0 0 0
0 0 0 0 0 0 0 0 0
0 0 0 0 0 0 0 0 0
0 0 0 0 0 0 0 0 0
0 0 0 0 0 0 0 0 0
0 0 0 0 0 0 0 0 0
0 0 0 0 0 0 0 0 0
0 0 0 0 0 0 0 0 0
0 0 0 0 0 0 0 0 0
0 0 0 0 0 0 0 0 0
0 0 0 0 0 0 0 0 0
0 0 0 0 0 0 0 0 0
0 0 0 0 0 0 0 0 0
0 0 0 0 0 0 0 0 0
0 0 0 0 0 0 0 0 0
0 0 0 0 0 0 0 0 0
0 0 0 0 0 0 0 0 0
0 0 0 0 0 0 0 0 0
0 0 0 0 0 0 0 0 0
0 0 0 0 0 0 0 0 0
0 0 0 0 0 0 0 0 0
0 0 0 0 0 0 0 0 0
0 0 0 0 0 0 0 0 0
0 0 0 0 0 0 0 0 0
0 0 0 0 0 0 0 0 0
0 0 0 0 0 0 0 0 0
0 0 0 0 0 0 0 0 0
0 0 0 0 0 0 0 0 0
0 0 0 0 0 0 0 0 0
0 0 0 0 0 0 0 0 0
0 0 0 0 0 0 0 0 0
0 0 0 0 0 0 0 0 0
0 0 0 0 0 0 0 0 0
0 0 0 0 0 0 0 0 0
0 0 0 0 0 0 0 0 0
0 0 0 0 0 0 0 0 0
0 0 0 0 0 0 0 0 0
0 0 0 0 0 0 0 0 0
0 0 0 0 0 0 0 0 0
0 0 0 0 0 0 0 0 0
0 0 0 0 0 0 0 0 0
0 0 0 0 0 0 0 0 0
0 0 0 0 0 0 0 0 0
0 0 0 0 0 0 0 0 0
0 0 0 0 0 0 0 0 0
0 0 0 0 0 0 0 0 0
0 0 0 0 0 0 0 0 0
0 0 0 0 0 0 0 0 0
0 0 0 0 0 0 0 0 0
0 0 0 0 0 0 0 0 0
0 0 0 0 0 0 0 0 0
0 0 0 0 0 0 0 0 0
0 0 0 0 0 0 0 0 0
0 0 0 0 0 0 0 0 0
0 0 0 0 0 0 0 0 0
0 0 0 0 0 0 0 0 0
0 0 0 0 0 0 0 0 0
0 0 0 0 0 0 0 0 0
0 0 0 0 0 0 0 0 0
0.0245731 0.0266112 0.0254663 0.0274735 0.0245731 0.0266112 0.0254663 0.0274735 0
0.0280495 0.0301162 0.028886 0.0309088 0.0280495 0.0301162 0.028886 0.0309088 0
0.0317749 0.0344122 0.032529 0.035101 0.0317749 0.0344122 0.032529 0.035101 0
0.0351767 0.0347953 0.0358163 0.0353614 0.0351767 0.0347953 0.0358163 0.0353614 0
0.0197741 0.0215549 0.020747 0.0225192 0.0197741 0.0215549 0.020747 0.0225192 0
0.0228972 0.0249705 0.0238533 0.0259082 0.0228972 0.0249705 0.0238533 0.0259082 0
0.026445 0.0285864 0.0273615 0.0294592 0.026445 0.0285864 0.0273615 0.0294592 0
0.0303121 0.0330692 0.0311446 0.0338307 0.0303121 0.0330692 0.0311446 0.0338307 0
0.0339257 0.0336871 0.0346316 0.0343075 0.0339257 0.0336871 0.0346316 0.0343075 0
0.0179688 0.0197513 0.019002 0.0207847 0.0179688 0.0197513 0.019002 0.0207847 0
0.0211009 0.0232037 0.0221296 0.0242149 0.0211009 0.0232037 0.0221296 0.0242149 0
0.0247108 0.0269238 0.0257021 0.0278736 0.0247108 0.0269238 0.0257021 0.0278736 0
0.0287171 0.0315995 0.0296267 0.0324356 0.0287171 0.0315995 0.0296267 0.0324356 0
0.0325555 0.0324752 0.0333323 0.0331583 0.0325555 0.0324752 0.0333323 0.0331583 0
0.0134395 0.0149408 0.0145035 0.0160222 0.0134395 0.0149408 0.0145035 0.0160222 0
0.0160635 0.0178358 0.0171554 0.0189343 0.0160635 0.0178358 0.0171554 0.0189343 0
0.0191852 0.0213093 0.0202835 0.0223959 0.0191852 0.0213093 0.0202835 0.0223959 0
0.0228437 0.0251222 0.023914 0.0261548 0.0228437 0.0251222 0.023914 0.0261548 0
0.0269816 0.0299914 0.0279751 0.0309105 0.0269816 0.0299914 0.0279751 0.0309105 0
0.0310534 0.0311474 0.0319094 0.0319002 0.0310534 0.0311474 0.0319094 0.0319002 0
0.0115154 0.0129763 0.012617 0.014102 0.0115154 0.0129763 0.012617 0.014102 0
0.0140707 0.0158173 0.0152128 0.0169757 0.0140707 0.0158173 0.0152128 0.0169757 0
0.0171556 0.0192869 0.0183207 0.0204491 0.0171556 0.0192869 0.0183207 0.0204491 0
0.0208398 0.0231741 0.0219912 0.0242939 0.0208398 0.0231741 0.0219912 0.0242939 0
0.0250958 0.0282327 0.0261789 0.0292419 0.0250958 0.0282327 0.0261789 0.0292419 0
0.0294049 0.029686 0.0303489 0.03052 0.0294049 0.029686 0.0303489 0.03052 0
0.00954271 0.0109489 0.010672 0.0121111 0.00954271 0.0109489 0.010672 0.0121111 0
0.0120034 0.0137073 0.013189 0.014919 0.0120034 0.0137073 0.013189 0.014919 0
0.0150214 0.0171418 0.0162475 0.018376 0.0150214 0.0171418 0.0162475 0.018376 0
0.0187012 0.0210771 0.0199319 0.0222851 0.0187012 0.0210771 0.0199319 0.0222851 0
0.0230539 0.0263134 0.0242298 0.0274185 0.0230539 0.0263134 0.0242298 0.0274185 0
0.027598 0.028077 0.0286369 0.0289998 0.027598 0.028077 0.0286369 0.0289998 0
0.00563317 0.00673416 0.00671166 0.00784925 0.00563317 0.00673416 0.00671166 0.00784925 0
0.00754233 0.00888132 0.00868702 0.0100657 0.00754233 0.00888132 0.00868702 0.0100657 0
0.00988476 0.0115277 0.011099 0.0127788 0.00988476 0.0115277 0.011099 0.0127788 0
0.0128027 0.0148898 0.0140771 0.0161858 0.0128027 0.0148898 0.0140771 0.0161858 0
0.0164397 0.0188366 0.017742 0.0201288 0.0164397 0.0188366 0.017742 0.0201288 0
0.0208576 0.0242307 0.0221246 0.0254327 0.0208576 0.0242307 0.0221246 0.0254327 0
0.0256267 0.0263104 0.0267634 0.0273277 0.0256267 0.0263104 0.0267634 0.0273277 0
0.0037713 0.00480416 0.00483275 0.00590512 0.0037713 0.00480416 0.00483275 0.00590512 0
0.00555418 0.00681273 0.00668872 0.00799493 0.00555418 0.00681273 0.00668872 0.00799493 0
0.00775306 0.00931568 0.00897224 0.0105832 0.00775306 0.00931568 0.00897224 0.0105832 0
0.0105348 0.0125623 0.0118356 0.0139003 0.0105348 0.0125623 0.0118356 0.0139003 0
0.0140829 0.0164731 0.0154391 0.0178362 0.0140829 0.0164731 0.0154391 0.0178362 0
0.0185215 0.0219906 0.0198698 0.0232854 0.0185215 0.0219906 0.0198698 0.0232854 0
0.0234947 0.0243927 0.0247263 0.0254989 0.0234947 0.0243927 0.0247263 0.0254989 0
0.00198441 0.00294299 0.0029986 0.00400051 0.00198441 0.00294299 0.0029986 0.00400051 0
0.00362929 0.00479814 0.00472355 0.0059448 0.00362929 0.00479814 0.00472355 0.0059448 0
0.00566523 0.00712898 0.00685452 0.00837717 0.00566523 0.00712898 0.00685452 0.00837717 0
0.0082747 0.0102136 0.00956642 0.0115596 0.0082747 0.0102136 0.00956642 0.0115596 0
0.0116811 0.0140294 0.0130597 0.0154363 0.0116811 0.0140294 0.0130597 0.0154363 0
0.0160815 0.0196185 0.0174881 0.0209891 0.0160815 0.0196185 0.0174881 0.0209891 0
0.0212191 0.022329 0.0225345 0.0235223 0.0212191 0.022329 0.0225345 0.0235223 0
-0.000914212 -0.000169652 -4.32735e-05 0.00073131 -0.000914212 -0.000169652 -4.32735e-05 0.00073131 0
0.000335463 0.00121857 0.00126476 0.00219117 0.000335463 0.00121857 0.00126476 0.00219117 0
0.00183939 0.00291455 0.00284937 0.00397871 0.00183939 0.00291455 0.00284937 0.00397871 0
0.00370144 0.00505118 0.00481196 0.00622897 0.00370144 0.00505118 0.00481196 0.00622897 0
0.00610716 0.00792793 0.00733785 0.00923008 0.00610716 0.00792793 0.00733785 0.00923008 0
0.0093158 0.0115792 0.0106662 0.0129837 0.0093158 0.0115792 0.0106662 0.0129837 0
0.0136039 0.0171665 0.0150271 0.01858 0.0136039 0.0171665 0.0150271 0.01858 0
0.0188428 0.0201506 0.0202143 0.0214094 0.0188428 0.0201506 0.0202143 0.0214094 0
-0.00225207 -0.00155662 -0.00150783 -0.000784635 -0.00225207 -0.00155662 -0.00150783 -0.000784635 0
-0.00109728 -0.000282535 -0.000299681 0.000553314 -0.00109728 -0.000282535 -0.000299681 0.000553314 0
0.000276418 0.00126017 0.00114705 0.00218297 0.000276418 0.00126017 0.00114705 0.00218297 0
0.00196488 0.00319261 0.00293471 0.00423347 0.00196488 0.00319261 0.00293471 0.00423347 0
0.00414622 0.00582236 0.00524689 0.00700946 0.00414622 0.00582236 0.00524689 0.00700946 0
0.0071031 0.00923342 0.0083545 0.0105674 0.0071031 0.00923342 0.0083545 0.0105674 0
0.0111915 0.0147218 0.0125678 0.016124 0.0111915 0.0147218 0.0125678 0.016124 0
0.0164396 0.0179105 0.0178212 0.0192024 0.0164396 0.0179105 0.0178212 0.0192024 0
-0.00330871 -0.00265825 -0.00273262 -0.00205667 -0.00330871 -0.00265825 -0.00273262 -0.00205667 0
-0.00223968 -0.00148452 -0.00161514 -0.000826625 -0.00223968 -0.00148452 -0.00161514 -0.000826625 0
-0.000981216 -8.13888e-05 -0.00029211 0.000655128 -0.000981216 -8.13888e-05 -0.00029211 0.000655128 0
0.00054422 0.00165028 0.0013256 0.00250161 0.00054422 0.00165028 0.0013256 0.00250161 0
0.00249523 0.00400895 0.00340936 0.0050187 0.00249523 0.00400895 0.00340936 0.0050187 0
0.00515808 0.00710637 0.00624593 0.00830516 0.00515808 0.00710637 0.00624593 0.00830516 0
0.00895261 0.0123769 0.0102206 0.0137154 0.00895261 0.0123769 0.0102206 0.0137154 0
0.0140883 0.0156671 0.0154355 0.016959 0.0140883 0.0156671 0.0154355 0.016959 0
0 0 0 0 0 0 0 0 0
0 0 0 0 0 0 0 0 0
0 0 0 0 0 0 0 0 0
0 0 0 0 0 0 0 0 0
0 0 0 0 0 0 0 0 0
0 0 0 0 0 0 0 0 0
0 0 0 0 0 0 0 0 0
0 0 0 0 0 0 0 0 0
0 0 0 0 0 0 0 0 0
0 0 0 0 0 0 0 0 0
0 0 0 0 0 0 0 0 0
0 0 0 0 0 0 0 0 0
0 0 0 0 0 0 0 0 0
0 0 0 0 0 0 0 0 0
0 0 0 0 0 0 0 0 0
0 0 0 0 0 0 0 0 0
0 0 0 0 0 0 0 0 0
0 0 0 0 0 0 0 0 0
0 0 0 0 0 0 0 0 0
0 0 0 0 0 0 0 0 0
0 0 0 0 0 0 0 0 0
0 0 0 0 0 0 0 0 0
0 0 0 0 0 0 0 0 0
0 0 0 0 0 0 0 0 0
0 0 0 0 0 0 0 0 0
0 0 0 0 0 0 0 0 0
0 0 0 0 0 0 0 0 0
0 0 0 0 0 0 0 0 0
0 0 0 0 0 0 0 0 0
0 0 0 0 0 0 0 0 0
0 0 0 0 0 0 0 0 0
0 0 0 0 0 0 0 0 0
0 0 0 0 0 0 0 0 0
0 0 0 0 0 0 0 0 0
0 0 0 0 0 0 0 0 0
0 0 0 0 0 0 0 0 0
0 0 0 0 0 0 0 0 0
0 0 0 0 0 0 0 0 0
0 0 0 0 0 0 0 0 0
0 0 0 0 0 0 0 0 0
0 0 0 0 0 0 0 0 0
0 0 0 0 0 0 0 0 0
0 0 0 0 0 0 0 0 0
0 0 0 0 0 0 0 0 0
0 0 0 0 0 0 0 0 0
0 0 0 0 0 0 0 0 0
0 0 0 0 0 0 0 0 0
0 0 0 0 0 0 0 0 0
0 0 0 0 0 0 0 0 0
0 0 0 0 0 0 0 0 0
0 0 0 0 0 0 0 0 0
0 0 0 0 0 0 0 0 0
0 0 0 0 0 0 0 0 0
0 0 0 0 0 0 0 0 0
0 0 0 0 0 0 0 0 0
0 0 0 0 0 0 0 0 0
0 0 0 0 0 0 0 0 0
0 0 0 0 0 0 0 0 0
0 0 0 0 0 0 0 0 0
0 0 0 0 0 0 0 0 0
0 0 0 0 0 0 0 0 0
0 0 0 0 0 0 0 0 0
0 0 0 0 0 0 0 0 0
0 0 0 0 0 0 0 0 0
0 0 0 0 0 0 0 0 0
0 0 0 0 0 0 0 0 0
0 0 0 0 0 0 0 0 0
0 0 0 0 0 0 0 0 0
0 0 0 0 0 0 0 0 0
0 0 0 0 0 0 0 0 0
0 0 0 0 0 0 0 0 0
0 0 0 0 0 0 0 0 0
0 0 0 0 0 0 0 0 0
0 0 0 0 0 0 0 0 0
0 0 0 0 0 0 0 0 0
0 0 0 0 0 0 0 0 0
0 0 0 0 0 0 0 0 0
0 0 0 0 0 0 0 0 0
0 0 0 0 0 0 0 0 0
0 0 0 0 0 0 0 0 0
0 0 0 0 0 0 0 0 0
0 0 0 0 0 0 0 0 0
0 0 0 0 0 0 0 0 0
0 0 0 0 0 0 0 0 0
0 0 0 0 0 0 0 0 0
0 0 0 0 0 0 0 0 0
0 0 0 0 0 0 0 0 0
0 0 0 0 0 0 0 0 0
0 0 0 0 0 0 0 0 0
0 0 0 0 0 0 0 0 0
0 0 0 0 0 0 0 0 0
0 0 0 0 0 0 0 0 0
0 0 0 0 0 0 0 0 0
0 0 0 0 0 0 0 0 0
0 0 0 0 0 0 0 0 0
0 0 0 0 0 0 0 0 0
0 0 0 0 0 0 0 0 0
0 0 0 0 0 0 0 0 0
0 0 0 0 0 0 0 0 0
0 0 0 0 0 0 0 0 0
0 0 0 0 0 0 0 0 0
0 0 0 0 0 0 0 0 0
0 0 0 0 0 0 0 0 0
0 0 0 0 0 0 0 0 0
0 0 0 0 0 0 0 0 0
0 0 0 0 0 0 0 0 0
0 0 0 0 0 0 0 0 0
0 0 0 0 0 0 0 0 0
0 0 0 0 0 0 0 0 0
0 0 0 0 0 0 0 0 0
0 0 0 0 0 0 0 0 0
0 0 0 0 0 0 0 0 0
0 0 0 0 0 0 0 0 0
0 0 0 0 0 0 0 0 0
0 0 0 0 0 0 0 0 0
0 0 0 0 0 0 0 0 0
0 0 0 0 0 0 0 0 0
0 0 0 0 0 0 0 0 0
0 0 0 0 0 0 0 0 0
0 0 0 0 0 0 0 0 0
0 0 0 0 0 0 0 0 0
0 0 0 0 0 0 0 0 0
0 0 0 0 0 0 0 0 0
0 0 0 0 0 0 0 0 0
0 0 0 0 0 0 0 0 0
0 0 0 0 0 0 0 0 0
0 0 0 0 0 0 0 0 0
0 0 0 0 0 0 0 0 0
0 0 0 0 0 0 0 0 0
0 0 0 0 0 0 0 0 0
0 0 0 0 0 0 0 0 0
0 0 0 0 0 0 0 0 0
0 0 0 0 0 0 0 0 0
0 0 0 0 0 0 0 0 0
0 0 0 0 0 0 0 0 0
0 0 0 0 0 0 0 0 0
0 0 0 0 0 0 0 0 0
0 0 0 0 0 0 0 0 0
0 0 0 0 0 0 0 0 0
0 0 0 0 0 0 0 0 0
0 0 0 0 0 0 0 0 0
0 0 0 0 0 0 0 0 0
0 0 0 0 0 0 0 0 0
0 0 0 0 0 0 0 0 0
0 0 0 0 0 0 0 0 0
0 0 0 0 0 0 0 0 0
0 0 0 0 0 0 0 0 0
0 0 0 0 0 0 0 0 0
0 0 0 0 0 0 0 0 0
0 0 0 0 0 0 0 0 0
0 0 0 0 0 0 0 0 0
0 0 0 0 0 0 0 0 0
0 0 0 0 0 0 0 0 0
0 0 0 0 0 0 0 0 0
0 0 0 0 0 0 0 0 0
0 0 0 0 0 0 0 0 0
0 0 0 0 0 0 0 0 0
0 0 0 0 0 0 0 0 0
0 0 0 0 0 0 0 0 0
0 0 0 0 0 0 0 0 0
0 0 0 0 0 0 0 0 0
0 0 0 0 0 0 0 0 0
0 0 0 0 0 0 0 0 0
0 0 0 0 0 0 0 0 0
0 0 0 0 0 0 0 0 0
0 0 0 0 0 0 0 0 0
0 0 0 0 0 0 0 0 0
0 0 0 0 0 0 0 0 0
0 0 0 0 0 0 0 0 0
0 0 0 0 0 0 0 0 0
0 0 0 0 0 0 0 0 0
0 0 0 0 0 0 0 0 0
0 0 0 0 0 0 0 0 0
0 0 0 0 0 0 0 0 0
0 0 0 0 0 0 0 0 0
0 0 0 0 0 0 0 0 0
0 0 0 0 0 0 0 0 0
0 0 0 0 0 0 0 0 0
0 0 0 0 0 0 0 0 0
0 0 0 0 0 0 0 0 0
0 0 0 0 0 0 0 0 0
0 0 0 0 0 0 0 0 0
0 0 0 0 0 0 0 0 0
0 0 0 0 0 0 0 0 0
0 0 0 0 0 0 0 0 0
0 0 0 0 0 0 0 0 0
0 0 0 0 0 0 0 0 0
0 0 0 0 0 0 0 0 0
0 0 0 0 0 0 0 0 0
0 0 0 0 0 0 0 0 0
0 0 0 0 0 0 0 0 0
0 0 0 0 0 0 0 0 0
0 0 0 0 0 0 0 0 0
0 0 0 0 0 0 0 0 0
0 0 0 0 0 0 0 0 0
0 0 0 0 0 0 0 0 0
0 0 0 0 0 0 0 0 0
0 0 0 0 0 0 0 0 0
0 0 0 0 0 0 0 0 0
0 0 0 0 0 0 0 0 0
0 0 0 0 0 0 0 0 0
0 0 0 0 0 0 0 0 0
0 0 0 0 0 0 0 0 0
0 0 0 0 0 0 0 0 0
0 0 0 0 0 0 0 0 0
0 0 0 0 0 0 0 0 0
0 0 0 0 0 0 0 0 0
0 0 0 0 0 0 0 0 0
0 0 0 0 0 0 0 0 0
0 0 0 0 0 0 0 0 0
0 0 0 0 0 0 0 0 0
0 0 0 0 0 0 0 0 0
0 0 0 0 0 0 0 0 0
0 0 0 0 0 0 0 0 0
0 0 0 0 0 0 0 0 0
0 0 0 0 0 0 0 0 0
0 0 0 0 0 0 0 0 0
0 0 0 0 0 0 0 0 0
0 0 0 0 0 0 0 0 0
0 0 0 0 0 0 0 0 0
0 0 0 0 0 0 0 0 0
0 0 0 0 0 0 0 0 0
0 0 0 0 0 0 0 0 0
0 0 0 0 0 0 0 0 0
0 0 0 0 0 0 0 0 0
0 0 0 0 0 0 0 0 0
0 0 0 0 0 0 0 0 0
0 0 0 0 0 0 0 0 0
0 0 0 0 0 0 0 0 0
0 0 0 0 0 0 0 0 0
0 0 0 0 0 0 0 0 0
0 0 0 0 0 0 0 0 0
0 0 0 0 0 0 0 0 0
0 0 0 0 0 0 0 0 0
0 0 0 0 0 0 0 0 0
0 0 0 0 0 0 0 0 0
0 0 0 0 0 0 0 0 0
0 0 0 0 0 0 0 0 0
0 0 0 0 0 0 0 0 0
0 0 0 0 0 0 0 0 0
0 0 0 0 0 0 0 0 0
0 0 0 0 0 0 0 0 0
0 0 0 0 0 0 0 0 0
0 0 0 0 0 0 0 0 0
0 0 0 0 0 0 0 0 0
0 0 0 0 0 0 0 0 0
0 0 0 0 0 0 0 0 0
0 0 0 0 0 0 0 0 0
0 0 0 0 0 0 0 0 0
0 0 0 0 0 0 0 0 0
0 0 0 0 0 0 0 0 0
0 0 0 0 0 0 0 0 0
0 0 0 0 0 0 0 0 0
0 0 0 0 0 0 0 0 0
0 0 0 0 0 0 0 0 0
0 0 0 0 0 0 0 0 0
0 0 0 0 0 0 0 0 0
0 0 0 0 0 0 0 0 0
0 0 0 0 0 0 0 0 0
0 0 0 0 0 0 0 0 0
0 0 0 0 0 0 0 0 0
0 0 0 0 0 0 0 0 0
0 0 0 0 0 0 0 0 0
0 0 0 0 0 0 0 0 0
0 0 0 0 0 0 0 0 0
0 0 0 0 0 0 0 0 0
0 0 0 0 0 0 0 0 0
0 0 0 0 0 0 0 0 0
0 0 0 0 0 0 0 0 0
0 0 0 0 0 0 0 0 0
0 0 0 0 0 0 0 0 0
0 0 0 0 0 0 0 0 0
0 0 0 0 0 0 0 0 0
0 0 0 0 0 0 0 0 0
0 0 0 0 0 0 0 0 0
0 0 0 0 0 0 0 0 0
0 0 0 0 0 0 0 0 0
0 0 0 0 0 0 0 0 0
0 0 0 0 0 0 0 0 0
0 0 0 0 0 0 0 0 0
0 0 0 0 0 0 0 0 0
0 0 0 0 0 0 0 0 0
0 0 0 0 0 0 0 0 0
0 0 0 0 0 0 0 0 0
0 0 0 0 0 0 0 0 0
0 0 0 0 0 0 0 0 0
0 0 0 0 0 0 0 0 0
0 0 0 0 0 0 0 0 0
0 0 0 0 0 0 0 0 0
0 0 0 0 0 0 0 0 0
0 0 0 0 0 0 0 0 0
0 0 0 0 0 0 0 0 0
0 0 0 0 0 0 0 0 0
0 0 0 0 0 0 0 0 0
0 0 0 0 0 0 0 0 0
0 0 0 0 0 0 0 0 0
0 0 0 0 0 0 0 0 0
0 0 0 0 0 0 0 0 0
0 0 0 0 0 0 0 0 0
0 0 0 0 0 0 0 0 0
0 0 0 0 0 0 0 0 0
0 0 0 0 0 0 0 0 0
0 0 0 0 0 0 0 0 0
0 0 0 0 0 0 0 0 0
0 0 0 0 0 0 0 0 0
0 0 0 0 0 0 0 0 0
0 0 0 0 0 0 0 0 0
0 0 0 0 0 0 0 0 0
0 0 0 0 0 0 0 0 0
0 0 0 0 0 0 0 0 0
0 0 0 0 0 0 0 0 0
0 0 0 0 0 0 0 0 0
0 0 0 0 0 0 0 0 0
0 0 0 0 0 0 0 0 0
0 0 0 0 0 0 0 0 0
0 0 0 0 0 0 0 0 0
0 0 0 0 0 0 0 0 0
0 0 0 0 0 0 0 0 0
0 0 0 0 0 0 0 0 0
0 0 0 0 0 0 0 0 0
0 0 0 0 0 0 0 0 0
0 0 0 0 0 0 0 0 0
0 0 0 0 0 0 0 0 0
0 0 0 0 0 0 0 0 0
0 0 0 0 0 0 0 0 0
0 0 0 0 0 0 0 0 0
0 0 0 0 0 0 0 0 0
0 0 0 0 0 0 0 0 0
0 0 0 0 0 0 0 0 0
0 0 0 0 0 0 0 0 0
0 0 0 0 0 0 0 0 0
0 0 0 0 0 0 0 0 0
0 0 0 0 0 0 0 0 0
0 0 0 0 0 0 0 0 0
0 0 0 0 0 0 0 0 0
0 0 0 0 0 0 0 0 0
0 0 0 0 0 0 0 0 0
0 0 0 0 0 0 0 0 0
0 0 0 0 0 0 0 0 0
0 0 0 0 0 0 0 0 0
0 0 0 0 0 0 0 0 0
0 0 0 0 0 0 0 0 0
0 0 0 0 0 0 0 0 0
0 0 0 0 0 0 0 0 0
0 0 0 0 0 0 0 0 0
0 0 0 0 0 0 0 0 0
0 0 0 0 0 0 0 0 0
0 0 0 0 0 0 0 0 0
0 0 0 0 0 0 0 0 0
0 0 0 0 0 0 0 0 0
0 0 0 0 0 0 0 0 0
0 0 0 0 0 0 0 0 0
0 0 0 0 0 0 0 0 0
0 0 0 0 0 0 0 0 0
0 0 0 0 0 0 0 0 0
0 0 0 0 0 0 0 0 0
0 0 0 0 0 0 0 0 0
0 0 0 0 0 0 0 0 0
0 0 0 0 0 0 0 0 0
0 0 0 0 0 0 0 0 0
0 0 0 0 0 0 0 0 0
0 0 0 0 0 0 0 0 0
0 0 0 0 0 0 0 0 0
0 0 0 0 0 0 0 0 0
0 0 0 0 0 0 0 0 0
0 0 0 0 0 0 0 0 0
0 0 0 0 0 0 0 0 0
0 0 0 0 0 0 0 0 0
0 0 0 0 0 0 0 0 0
0 0 0 0 0 0 0 0 0
0 0 0 0 0 0 0 0 0
0 0 0 0 0 0 0 0 0
0 0 0 0 0 0 0 0 0
0 0 0 0 0 0 0 0 0
0 0 0 0 0 0 0 0 0
0 0 0 0 0 0 0 0 0
0 0 0 0 0 0 0 0 0
0 0 0 0 0 0 0 0 0
0 0 0 0 0 0 0 0 0
0 0 0 0 0 0 0 0 0
0 0 0 0 0 0 0 0 0
0 0 0 0 0 0 0 0 0
0 0 0 0 0 0 0 0 0
0 0 0 0 0 0 0 0 0
0 0 0 0 0 0 0 0 0
0 0 0 0 0 0 0 0 0
0 0 0 0 0 0 0 0 0
0 0 0 0 0 0 0 0 0
0 0 0 0 0 0 0 0 0
0 0 0 0 0 0 0 0 0
0 0 0 0 0 0 0 0 0
0 0 0 0 0 0 0 0 0
0 0 0 0 0 0 0 0 0
0 0 0 0 0 0 0 0 0
0 0 0 0 0 0 0 0 0
0 0 0 0 0 0 0 0 0
0 0 0 0 0 0 0 0 0
0 0 0 0 0 0 0 0 0
0 0 0 0 0 0 0 0 0
0 0 0 0 0 0 0 0 0
0 0 0 0 0 0 0 0 0
0 0 0 0 0 0 0 0 0
0 0 0 0 0 0 0 0 0
0 0 0 0 0 0 0 0 0
0 0 0 0 0 0 0 0 0
0 0 0 0 0 0 0 0 0
0 0 0 0 0 0 0 0 0
0 0 0 0 0 0 0 0 0
0 0 0 0 0 0 0 0 0
0 0 0 0 0 0 0 0 0
0 0 0 0 0 0 0 0 0
0 0 0 0 0 0 0 0 0
0 0 0 0 0 0 0 0 0
0 0 0 0 0 0 0 0 0
0 0 0 0 0 0 0 0 0
0 0 0 0 0 0 0 0 0
0 0 0 0 0 0 0 0 0
0 0 0 0 0 0 0 0 0
0 0 0 0 0 0 0 0 0
0 0 0 0 0 0 0 0 0
0 0 0 0 0 0 0 0 0
0 0 0 0 0 0 0 0 0
0 0 0 0 0 0 0 0 0
0 0 0 0 0 0 0 0 0
0 0 0 0 0 0 0 0 0
0 0 0 0 0 0 0 0 0
0 0 0 0 0 0 0 0 0
0 0 0 0 0 0 0 0 0
0 0 0 0 0 0 0 0 0
0 0 0 0 0 0 0 0 0
0 0 0 0 0 0 0 0 0
0 0 0 0 0 0 0 0 0
0 0 0 0 0 0 0 0 0
0 0 0 0 0 0 0 0 0
0 0 0 0 0 0 0 0 0
0 0 0 0 0 0 0 0 0
0 0 0 0 0 0 0 0 0
0 0 0 0 0 0 0 0 0
0 0 0 0 0 0 0 0 0
0 0 0 0 0 0 0 0 0
0 0 0 0 0 0 0 0 0
0 0 0 0 0 0 0 0 0
0 0 0 0 0 0 0 0 0
0 0 0 0 0 0 0 0 0
0 0 0 0 0 0 0 0 0
0 0 0 0 0 0 0 0 0
0 0 0 0 0 0 0 0 0
0 0 0 0 0 0 0 0 0
0 0 0 0 0 0 0 0 0
0 0 0 0 0 0 0 0 0
0 0 0 0 0 0 0 0 0
0 0 0 0 0 0 0 0 0
0 0 0 0 0 0 0 0 0
0 0 0 0 0 0 0 0 0
0 0 0 0 0 0 0 0 0
0 0 0 0 0 0 0 0 0
0 0 0 0 0 0 0 0 0
0 0 0 0 0 0 0 0 0
0 0 0 0 0 0 0 0 0
0 0 0 0 0 0 0 0 0
0 0 0 0 0 0 0 0 0
0 0 0 0 0 0 0 0 0
0 0 0 0 0 0 0 0 0
0 0 0 0 0 0 0 0 0
0 0 0 0 0 0 0 0 0
0 0 0 0 0 0 0 0 0
0 0 0 0 0 0 0 0 0
0 0 0 0 0 0 0 0 0
0 0 0 0 0 0 0 0 0
0 0 0 0 0 0 0 0 0
0 0 0 0 0 0 0 0 0
0 0 0 0 0 0 0 0 0
0 0 0 0 0 0 0 0 0
0 0 0 0 0 0 0 0 0
0 0 0 0 0 0 0 0 0
0 0 0 0 0 0 0 0 0
0 0 0 0 0 0 0 0 0
0 0 0 0 0 0 0 0 0
0 0 0 0 0 0 0 0 0
0 0 0 0 0 0 0 0 0
0 0 0 0 0 0 0 0 0
0 0 0 0 0 0 0 0 0
0 0 0 0 0 0 0 0 0
0 0 0 0 0 0 0 0 0
0 0 0 0 0 0 0 0 0
0 0 0 0 0 0 0 0 0
0 0 0 0 0 0 0 0 0
0 0 0 0 0 0 0 0 0
0 0 0 0 0 0 0 0 0
0 0 0 0 0 0 0 0 0
0 0 0 0 0 0 0 0 0
0 0 0 0 0 0 0 0 0
0 0 0 0 0 0 0 0 0
0 0 0 0 0 0 0 0 0
0 0 0 0 0 0 0 0 0
0 0 0 0 0 0 0 0 0
0 0 0 0 0 0 0 0 0
0 0 0 0 0 0 0 0 0
0 0 0 0 0 0 0 0 0
0 0 0 0 0 0 0 0 0
0 0 0 0 0 0 0 0 0
0 0 0 0 0 0 0 0 0
0 0 0 0 0 0 0 0 0
0 0 0 0 0 0 0 0 0
0 0 0 0 0 0 0 0 0
0 0 0 0 0 0 0 0 0
0 0 0 0 0 0 0 0 0
0 0 0 0 0 0 0 0 0
0 0 0 0 0 0 0 0 0
0 0 0 0 0 0 0 0 0
0 0 0 0 0 0 0 0 0
0 0 0 0 0 0 0 0 0
0 0 0 0 0 0 0 0 0
0 0 0 0 0 0 0 0 0
0 0 0 0 0 0 0 0 0
0 0 0 0 0 0 0 0 0
0 0 0 0 0 0 0 0 0
0 0 0 0 0 0 0 0 0
0 0 0 0 0 0 0 0 0
0 0 0 0 0 0 0 0 0
0 0 0 0 0 0 0 0 0
0 0 0 0 0 0 0 0 0
0 0 0 0 0 0 0 0 0
0 0 0 0 0 0 0 0 0
0 0 0 0 0 0 0 0 0
0 0 0 0 0 0 0 0 0
0 0 0 0 0 0 0 0 0
0 0 0 0 0 0 0 0 0
0 0 0 0 0 0 0 0 0
0 0 0 0 0 0 0 0 0
0 0 0 0 0 0 0 0 0
0 0 0 0 0 0 0 0 0
0 0 0 0 0 0 0 0 0
0 0 0 0 0 0 0 0 0
0 0 0 0 0 0 0 0 0
0 0 0 0 0 0 0 0 0
0 0 0 0 0 0 0 0 0
0 0 0 0 0 0 0 0 0
0 0 0 0 0 0 0 0 0
0.0147699 0.0160058 0.0152745 0.0164904 0.0147699 0.0160058 0.0152745 0.0164904 0
0.0169426 0.0183636 0.0174099 0.0188012 0.0169426 0.0183636 0.0174099 0.0188012 0
0.0192691 0.0204184 0.019683 0.0207949 0.0192691 0.0204184 0.019683 0.0207949 0
0.0214074 0.0230543 0.0217541 0.0233544 0.0214074 0.0230543 0.0217541 0.0233544 0
0.011858 0.0129871 0.0124099 0.0135334 0.011858 0.0129871 0.0124099 0.0135334 0
0.0138244 0.015086 0.0143644 0.0156121 0.0138244 0.015086 0.0143644 0.0156121 0
0.0160479 0.0175177 0.0165594 0.018001 0.0160479 0.0175177 0.0165594 0.018001 0
0.0184627 0.0196776 0.0189226 0.0200991 0.0184627 0.0196776 0.0189226 0.0200991 0
0.0207211 0.0224577 0.0211099 0.0227929 0.0207211 0.0224577 0.0211099 0.0227929 0
0.0108255 0.0119601 0.0114185 0.0125502 0.0108255 0.0119601 0.0114185 0.0125502 0
0.0128051 0.0140885 0.0133904 0.0146611 0.0128051 0.0140885 0.0133904 0.0146611 0
0.0150731 0.0165898 0.0156321 0.0171216 0.0150731 0.0165898 0.0156321 0.0171216 0
0.0175749 0.0188591 0.0180828 0.0193261 0.0175749 0.0188591 0.0180828 0.0193261 0
0.0199618 0.0217972 0.0203934 0.0221704 0.0199618 0.0217972 0.0203934 0.0221704 0
0.00806255 0.00901138 0.00868014 0.00963524 0.00806255 0.00901138 0.00868014 0.00963524 0
0.00973108 0.0108621 0.0103592 0.0114933 0.00973108 0.0108621 0.0103592 0.0114933 0
0.0117096 0.0130096 0.0123394 0.0136302 0.0117096 0.0130096 0.0123394 0.0136302 0
0.014014 0.0155745 0.0146229 0.0161581 0.014014 0.0155745 0.0146229 0.0161581 0
0.0165992 0.0179541 0.0171594 0.0184731 0.0165992 0.0179541 0.0171594 0.0184731 0
0.0191195 0.0210617 0.0196013 0.0214805 0.0191195 0.0210617 0.0196013 0.0214805 0
0.00694053 0.00786722 0.00758455 0.00852536 0.00694053 0.00786722 0.00758455 0.00852536 0
0.00857265 0.00969304 0.00923931 0.0103663 0.00857265 0.00969304 0.00923931 0.0103663 0
0.0105373 0.0118457 0.0112124 0.0125167 0.0105373 0.0118457 0.0112124 0.0125167 0
0.0128647 0.0144638 0.0135273 0.0151045 0.0128647 0.0144638 0.0135273 0.0151045 0
0.015526 0.0169519 0.0161446 0.0175293 0.015526 0.0169519 0.0161446 0.0175293 0
0.0181817 0.020236 0.018721 0.0207097 0.0181817 0.020236 0.018721 0.0207097 0
0.00577626 0.00667195 0.0064453 0.00735951 0.00577626 0.00667195 0.0064453 0.00735951 0
0.00735578 0.00845443 0.00805613 0.00916852 0.00735578 0.00845443 0.00805613 0.00916852 0
0.00928765 0.0105945 0.0100085 0.0113172 0.00928765 0.0105945 0.0100085 0.0113172 0
0.0116217 0.0132519 0.0123398 0.0139527 0.0116217 0.0132519 0.0123398 0.0139527 0
0.0143472 0.0158398 0.0150289 0.0164833 0.0143472 0.0158398 0.0150289 0.0164833 0
0.0171357 0.0193116 0.0177401 0.0198442 0.0171357 0.0193116 0.0177401 0.0198442 0
0.00335504 0.00405351 0.00400608 0.00472617 0.00335504 0.00405351 0.00400608 0.00472617 0
0.00457565 0.0054313 0.00526593 0.00614558 0.00457565 0.0054313 0.00526593 0.00614558 0
0.00608629 0.0071525 0.00681756 0.00790346 0.00608629 0.0071525 0.00681756 0.00790346 0
0.00796592 0.00925803 0.0087288 0.0100308 0.00796592 0.00925803 0.0087288 0.0100308 0
0.0102844 0.0119343 0.0110582 0.0126979 0.0102844 0.0119343 0.0110582 0.0126979 0
0.0130569 0.0146117 0.0138048 0.0153239 0.0130569 0.0146117 0.0138048 0.0153239 0
0.0159738 0.0182762 0.0166472 0.0188758 0.0159738 0.0182762 0.0166472 0.0188758 0
0.00221219 0.00286584 0.00286743 0.0035478 0.00221219 0.00286584 0.00286743 0.0035478 0
0.00335206 0.00416018 0.00405503 0.00489121 0.00335206 0.00416018 0.00405503 0.00489121 0
0.00477884 0.00579982 0.00553126 0.00657974 0.00477884 0.00579982 0.00553126 0.00657974 0
0.00658307 0.00784504 0.00738116 0.00866219 0.00658307 0.00784504 0.00738116 0.00866219 0
0.00885899 0.0105128 0.00968416 0.0113375 0.00885899 0.0105128 0.00968416 0.0113375 0
0.0116535 0.0132621 0.0124683 0.0140467 0.0116535 0.0132621 0.0124683 0.0140467 0
0.0146881 0.0171192 0.0154355 0.0177918 0.0146881 0.0171192 0.0154355 0.0177918 0
0.00108226 0.00168453 0.00172857 0.00236104 0.00108226 0.00168453 0.00172857 0.00236104 0
0.00212933 0.0028814 0.00283005 0.00361537 0.00212933 0.0028814 0.00283005 0.00361537 0
0.00345604 0.0044193 0.00421593 0.00521379 0.00345604 0.0044193 0.00421593 0.00521379 0
0.00516126 0.00637542 0.00598044 0.00722419 0.00516126 0.00637542 0.00598044 0.00722419 0
0.00736294 0.00900029 0.00822815 0.00987735 0.00736294 0.00900029 0.00822815 0.00987735 0
0.0101456 0.011792 0.0110211 0.0126476 0.0101456 0.011792 0.0110211 0.0126476 0
0.0132757 0.0158356 0.0140982 0.0165835 0.0132757 0.0158356 0.0140982 0.0165835 0
-0.00076584 -0.000324173 -0.0001881 0.000278676 -0.00076584 -0.000324173 -0.0001881 0.000278676 0
-1.15313e-05 0.000537751 0.000612567 0.00119236 -1.15313e-05 0.000537751 0.000612567 0.00119236 0
0.000938712 0.00162961 0.00161855 0.00234512 0.000938712 0.00162961 0.00161855 0.00234512 0
0.00215433 0.00304886 0.00289895 0.0038343 0.00215433 0.00304886 0.00289895 0.0038343 0
0.00373868 0.00488648 0.00455508 0.00574328 0.00373868 0.00488648 0.00455508 0.00574328 0
0.00583163 0.0074278 0.00671434 0.00833721 0.00583163 0.0074278 0.00671434 0.00833721 0
0.00855907 0.010217 0.00947844 0.0111329 0.00855907 0.010217 0.00947844 0.0111329 0
0.0117464 0.0144289 0.0126369 0.0152494 0.0117464 0.0144289 0.0126369 0.0152494 0
-0.00170073 -0.00130112 -0.00117225 -0.000748669 -0.00170073 -0.00130112 -0.00117225 -0.000748669 0
-0.00102437 -0.00052649 -0.000451496 7.57302e-05 -0.00102437 -0.00052649 -0.000451496 7.57302e-05 0
-0.000169361 0.000458691 0.000457924 0.0011223 -0.000169361 0.000458691 0.000457924 0.0011223 0
0.000930382 0.00174936 0.00162463 0.00248784 0.000930382 0.00174936 0.00162463 0.00248784 0
0.00237838 0.00344316 0.00315257 0.00426713 0.00237838 0.00344316 0.00315257 0.00426713 0
0.00432965 0.0058571 0.00518899 0.00675938 0.00432965 0.0058571 0.00518899 0.00675938 0
0.00695246 0.00859039 0.00787763 0.00953089 0.00695246 0.00859039 0.00787763 0.00953089 0
0.0101445 0.0129245 0.0110729 0.0138 0.0101445 0.0129245 0.0110729 0.0138 0
-0.0024961 -0.00213669 -0.00205448 -0.00167207 -0.0024961 -0.00213669 -0.00205448 -0.00167207 0
-0.00189448 -0.00144643 -0.00141005 -0.000933407 -0.00189448 -0.00144643 -0.00141005 -0.000933407 0
-0.00113118 -0.000562425 -0.000594324 8.07625e-06 -0.00113118 -0.000562425 -0.000594324 8.07625e-06 0
-0.000142477 0.000600855 0.000457459 0.00124427 -0.000142477 0.000600855 0.000457459 0.00124427 0
0.00116568 0.00213836 0.00184614 0.00287283 0.00116568 0.00213836 0.00184614 0.00287283 0
0.0029521 0.00438183 0.0037298 0.00521946 0.0029521 0.00438183 0.0037298 0.00521946 0
0.00541486 0.00699032 0.00629129 0.00790824 0.00541486 0.00699032 0.00629129 0.00790824 0
0.00854179 0.0113879 0.00946409 0.0122758 0.00854179 0.0113879 0.00946409 0.0122758 0
0 0 0 0 0 0 0 0 0
0 0 0 0 0 0 0 0 0
0 0 0 0 0 0 0 0 0
0 0 0 0 0 0 0 0 0
0 0 0 0 0 0 0 0 0
0 0 0 0 0 0 0 0 0
0 0 0 0 0 0 0 0 0
0 0 0 0 0 0 0 0 0
0 0 0 0 0 0 0 0 0
0 0 0 0 0 0 0 0 0
0 0 0 0 0 0 0 0 0
0 0 0 0 0 0 0 0 0
0 0 0 0 0 0 0 0 0
0 0 0 0 0 0 0 0 0
0 0 0 0 0 0 0 0 0
0 0 0 0 0 0 0 0 0
0 0 0 0 0 0 0 0 0
0 0 0 0 0 0 0 0 0
0 0 0 0 0 0 0 0 0
0 0 0 0 0 0 0 0 0
0 0 0 0 0 0 0 0 0
0 0 0 0 0 0 0 0 0
0 0 0 0 0 0 0 0 0
0 0 0 0 0 0 0 0 0
0 0 0 0 0 0 0 0 0
0 0 0 0 0 0 0 0 0
0 0 0 0 0 0 0 0 0
0 0 0 0 0 0 0 0 0
0 0 0 0 0 0 0 0 0
0 0 0 0 0 0 0 0 0
0 0 0 0 0 0 0 0 0
0 0 0 0 0 0 0 0 0
0 0 0 0 0 0 0 0 0
0 0 0 0 0 0 0 0 0
0 0 0 0 0 0 0 0 0
0 0 0 0 0 0 0 0 0
0 0 0 0 0 0 0 0 0
0 0 0 0 0 0 0 0 0
0 0 0 0 0 0 0 0 0
0 0 0 0 0 0 0 0 0
0 0 0 0 0 0 0 0 0
0 0 0 0 0 0 0 0 0
0 0 0 0 0 0 0 0 0
0 0 0 0 0 0 0 0 0
0 0 0 0 0 0 0 0 0
0 0 0 0 0 0 0 0 0
0 0 0 0 0 0 0 0 0
0 0 0 0 0 0 0 0 0
0 0 0 0 0 0 0 0 0
0 0 0 0 0 0 0 0 0
0 0 0 0 0 0 0 0 0
0 0 0 0 0 0 0 0 0
0 0 0 0 0 0 0 0 0
0 0 0 0 0 0 0 0 0
0 0 0 0 0 0 0 0 0
0 0 0 0 0 0 0 0 0
0 0 0 0 0 0 0 0 0
0 0 0 0 0 0 0 0 0
0 0 0 0 0 0 0 0 0
0 0 0 0 0 0 0 0 0
0 0 0 0 0 0 0 0 0
0 0 0 0 0 0 0 0 0
0 0 0 0 0 0 0 0 0
0 0 0 0 0 0 0 0 0
0 0 0 0 0 0 0 0 0
0 0 0 0 0 0 0 0 0
0 0 0 0 0 0 0 0 0
0 0 0 0 0 0 0 0 0
0 0 0 0 0 0 0 0 0
0 0 0 0 0 0 0 0 0
0 0 0 0 0 0 0 0 0
0 0 0 0 0 0 0 0 0
0 0 0 0 0 0 0 0 0
0 0 0 0 0 0 0 0 0
0 0 0 0 0 0 0 0 0
0 0 0 0 0 0 0 0 0
0 0 0 0 0 0 0 0 0
0.00668446 0.00743993 0.00712272 0.00785649 0.00668446 0.00743993 0.00712272 0.00785649 0
0.00790942 0.00853222 0.00830932 0.00890605 0.00790942 0.00853222 0.00830932 0.00890605 0
0.00921881 0.0105666 0.00957213 0.0108876 0.00921881 0.0105666 0.00957213 0.0108876 0
0.0102509 0.00813313 0.0105495 0.00840075 0.0102509 0.00813313 0.0105495 0.00840075 0
0.00470484 0.00536586 0.00519764 0.00584664 0.00470484 0.00536586 0.00519764 0.00584664 0
0.00585674 0.00663791 0.00632905 0.00709678 0.00585674 0.00663791 0.00632905 0.00709678 0
0.00713159 0.00780072 0.00757639 0.00821817 0.00713159 0.00780072 0.00757639 0.00821817 0
0.00852311 0.00992836 0.00891904 0.0102905 0.00852311 0.00992836 0.00891904 0.0102905 0
0.0096548 0.00760084 0.00999126 0.00789858 0.0096548 0.00760084 0.00999126 0.00789858 0
0.00377704 0.00445252 0.00430996 0.00497764 0.00377704 0.00445252 0.00430996 0.00497764 0
0.00495593 0.00576289 0.00547333 0.00626459 0.00495593 0.00576289 0.00547333 0.00626459 0
0.00628046 0.00699531 0.0067676 0.0074559 0.00628046 0.00699531 0.0067676 0.0074559 0
0.00775521 0.00922352 0.00819328 0.00962409 0.00775521 0.00922352 0.00819328 0.00962409 0
0.0089973 0.00701585 0.00936932 0.00734479 0.0089973 0.00701585 0.00936932 0.00734479 0
0.00177615 0.00236062 0.00234921 0.00293246 0.00177615 0.00236062 0.00234921 0.00293246 0
0.00278366 0.00346604 0.00335468 0.00403368 0.00278366 0.00346604 0.00335468 0.00403368 0
0.00397874 0.00481036 0.00454084 0.0053582 0.00397874 0.00481036 0.00454084 0.0053582 0
0.00535079 0.00610987 0.00588497 0.00661838 0.00535079 0.00610987 0.00588497 0.00661838 0
0.00690772 0.00844206 0.00739365 0.00888931 0.00690772 0.00844206 0.00739365 0.00888931 0
0.00826584 0.00636148 0.00868336 0.00673374 0.00826584 0.00636148 0.00868336 0.00673374 0
0.000726225 0.001303 0.00133003 0.00191239 0.000726225 0.001303 0.00133003 0.00191239 0
0.00172163 0.00240568 0.00233372 0.00301706 0.00172163 0.00240568 0.00233372 0.00301706 0
0.00292349 0.00377378 0.00353181 0.00437185 0.00292349 0.00377378 0.00353181 0.00437185 0
0.00433385 0.00513458 0.00492038 0.00569711 0.00433385 0.00513458 0.00492038 0.00569711 0
0.00596995 0.00757198 0.00651024 0.0080727 0.00596995 0.00757198 0.00651024 0.0080727 0
0.0074492 0.00562998 0.00791797 0.00604819 0.0074492 0.00562998 0.00791797 0.00604819 0
-0.000375336 0.000184024 0.000259186 0.000829441 -0.000375336 0.000184024 0.000259186 0.000829441 0
0.00059149 0.00126853 0.00124364 0.00192563 0.00059149 0.00126853 0.00124364 0.00192563 0
0.00178544 0.00264681 0.00244324 0.00329886 0.00178544 0.00264681 0.00244324 0.00329886 0
0.00322206 0.0040601 0.00386529 0.00468206 0.00322206 0.0040601 0.00386529 0.00468206 0
0.00493071 0.00659884 0.00553202 0.00716199 0.00493071 0.00659884 0.00553202 0.00716199 0
0.00653217 0.00480732 0.007062 0.00528127 0.00653217 0.00480732 0.007062 0.00528127 0
-0.00226909 -0.00183992 -0.00162651 -0.00118298 -0.00226909 -0.00183992 -0.00162651 -0.00118298 0
-0.00153245 -0.000996972 -0.000864157 -0.000314441 -0.00153245 -0.000996972 -0.000864157 -0.000314441 0
-0.000606347 5.47354e-05 8.60341e-05 0.000757134 -0.000606347 5.47354e-05 8.60341e-05 0.000757134 0
0.000563524 0.00142539 0.00127093 0.00213362 0.000563524 0.00142539 0.00127093 0.00213362 0
0.00200893 0.00287625 0.00271267 0.0035639 0.00200893 0.00287625 0.00271267 0.0035639 0
0.00377884 0.0055125 0.0044478 0.00614336 0.00377884 0.0055125 0.0044478 0.00614336 0
0.00550356 0.00387846 0.00610028 0.00441681 0.00550356 0.00387846 0.00610028 0.00441681 0
-0.00341395 -0.00301581 -0.00275443 -0.00233769 -0.00341395 -0.00301581 -0.00275443 -0.00233769 0
-0.00273367 -0.00223077 -0.0020406 -0.00151795 -0.00273367 -0.00223077 -0.0020406 -0.00151795 0
-0.00186456 -0.00123132 -0.00113713 -0.000486493 -0.00186456 -0.00123132 -0.00113713 -0.000486493 0
-0.000739852 0.000109406 1.56107e-05 0.000873559 -0.000739852 0.000109406 1.56107e-05 0.000873559 0
0.000691826 0.00157611 0.00145724 0.0023331 0.000691826 0.00157611 0.00145724 0.0023331 0
0.00250425 0.00429854 0.00324674 0.00500653 0.00250425 0.00429854 0.00324674 0.00500653 0
0.0043484 0.00283127 0.00502169 0.00344085 0.0043484 0.00283127 0.00502169 0.00344085 0
-0.00457331 -0.00421594 -0.00390609 -0.00352407 -0.00457331 -0.00421594 -0.00390609 -0.00352407 0
-0.00396604 -0.00350486 -0.00325505 -0.00276886 -0.00396604 -0.00350486 -0.00325505 -0.00276886 0
-0.00317104 -0.00257828 -0.00241579 -0.00179831 -0.00317104 -0.00257828 -0.00241579 -0.00179831 0
-0.00211471 -0.00129419 -0.00131782 -0.000478858 -0.00211471 -0.00129419 -0.00131782 -0.000478858 0
-0.00072518 0.00015887 9.8903e-05 0.000985102 -0.00072518 0.00015887 9.8903e-05 0.000985102 0
0.00110179 0.00294489 0.0019203 0.00373663 0.00110179 0.00294489 0.0019203 0.00373663 0
0.00304998 0.00164342 0.00380978 0.00233907 0.00304998 0.00164342 0.00380978 0.00233907 0
-0.00613263 -0.00589072 -0.00550173 -0.00523888 -0.00613263 -0.00589072 -0.00550173 -0.00523888 0
-0.0057364 -0.00542319 -0.00506667 -0.0047279 -0.0057364 -0.00542319 -0.00506667 -0.0047279 0
-0.00520946 -0.00479748 -0.00449318 -0.00405207 -0.00520946 -0.00479748 -0.00449318 -0.00405207 0
-0.00450344 -0.00396384 -0.00373453 -0.00316283 -0.00450344 -0.00396384 -0.00373453 -0.00316283 0
-0.00353964 -0.0027663 -0.00271493 -0.00191219 -0.00353964 -0.0027663 -0.00271493 -0.00191219 0
-0.0022257 -0.00136409 -0.00135383 -0.000476591 -0.0022257 -0.00136409 -0.00135383 -0.000476591 0
-0.00042266 0.00144746 0.000467239 0.00232452 -0.00042266 0.00144746 0.000467239 0.00232452 0
0.00159814 0.000298145 0.00244959 0.00108852 0.00159814 0.000298145 0.00244959 0.00108852 0
-0.00720127 -0.00699681 -0.00658867 -0.00636248 -0.00720127 -0.00699681 -0.00658867 -0.00636248 0
-0.0068749 -0.00660829 -0.00622178 -0.005928 -0.0068749 -0.00660829 -0.00622178 -0.005928 0
-0.00643327 -0.00607511 -0.00573052 -0.00534087 -0.00643327 -0.00607511 -0.00573052 -0.00534087 0
-0.00582602 -0.00534909 -0.00506553 -0.00455145 -0.00582602 -0.00534909 -0.00506553 -0.00455145 0
-0.0049747 -0.00426747 -0.00414743 -0.00339982 -0.0049747 -0.00426747 -0.00414743 -0.00339982 0
-0.00377304 -0.00296314 -0.00287697 -0.00203355 -0.00377304 -0.00296314 -0.00287697 -0.00203355 0
-0.00204478 -0.000176782 -0.00109967 0.000773148 -0.00204478 -0.000176782 -0.00109967 0.000773148 0
6.45655e-07 -0.0012144 0.000937067 -0.000323993 6.45655e-07 -0.0012144 0.000937067 -0.000323993 0
-0.00819264 -0.0080317 -0.00762964 -0.00744267 -0.00819264 -0.0080317 -0.00762964 -0.00744267 0
-0.0079445 -0.00772501 -0.00733509 -0.00708839 -0.0079445 -0.00772501 -0.00733509 -0.00708839 0
-0.00759007 -0.00728913 -0.00693024 -0.00659585 -0.00759007 -0.00728913 -0.00693024 -0.00659585 0
-0.00708794 -0.00667844 -0.00636685 -0.00591797 -0.00708794 -0.00667844 -0.00636685 -0.00591797 0
-0.00636046 -0.00573246 -0.00556701 -0.00489188 -0.00636046 -0.00573246 -0.00556701 -0.00489188 0
-0.00530064 -0.0045739 -0.00442237 -0.0036438 -0.00530064 -0.0045739 -0.00442237 -0.0036438 0
-0.00370528 -0.00188029 -0.00274359 -0.000888496 -0.00370528 -0.00188029 -0.00274359 -0.000888496 0
-0.00170182 -0.00286042 -0.000707954 -0.00189567 -0.00170182 -0.00286042 -0.000707954 -0.00189567 0
0 0 0 0 0 0 0 0 0
0 0 0 0 0 0 0 0 0
0 0 0 0 0 0 0 0 0
0 0 0 0 0 0 0 0 0
0 0 0 0 0 0 0 0 0
0 0 0 0 0 0 0 0 0
0 0 0 0 0 0 0 0 0
0 0 0 0 0 0 0 0 0
0 0 0 0 0 0 0 0 0
0 0 0 0 0 0 0 0 0
0 0 0 0 0 0 0 0 0
0 0 0 0 0 0 0 0 0
0 0 0 0 0 0 0 0 0
0 0 0 0 0 0 0 0 0
0 0 0 0 0 0 0 0 0
0 0 0 0 0 0 0 0 0
0 0 0 0 0 0 0 0 0
0 0 0 0 0 0 0 0 0
0 0 0 0 0 0 0 0 0
0 0 0 0 0 0 0 0 0
0 0 0 0 0 0 0 0 0
0 0 0 0 0 0 0 0 0
0 0 0 0 0 0 0 0 0
0 0 0 0 0 0 0 0 0
0 0 0 0 0 0 0 0 0
0 0 0 0 0 0 0 0 0
0 0 0 0 0 0 0 0 0
0 0 0 0 0 0 0 0 0
0 0 0 0 0 0 0 0 0
0 0 0 0 0 0 0 0 0
0 0 0 0 0 0 0 0 0
0 0 0 0 0 0 0 0 0
0 0 0 0 0 0 0 0 0
0 0 0 0 0 0 0 0 0
0 0 0 0 0 0 0 0 0
0 0 0 0 0 0 0 0 0
0 0 0 0 0 0 0 0 0
0 0 0 0 0 0 0 0 0
0 0 0 0 0 0 0 0 0
0 0 0 0 0 0 0 0 0
0 0 0 0 0 0 0 0 0
0 0 0 0 0 0 0 0 0
0 0 0 0 0 0 0 0 0
0 0 0 0 0 0 0 0 0
0 0 0 0 0 0 0 0 0
0 0 0 0 0 0 0 0 0
0 0 0 0 0 0 0 0 0
0 0 0 0 0 0 0 0 0
0 0 0 0 0 0 0 0 0
0 0 0 0 0 0 0 0 0
0 0 0 0 0 0 0 0 0
0 0 0 0 0 0 0 0 0
0 0 0 0 0 0 0 0 0
0 0 0 0 0 0 0 0 0
0 0 0 0 0 0 0 0 0
0 0 0 0 0 0 0 0 0
0 0 0 0 0 0 0 0 0
0 0 0 0 0 0 0 0 0
0 0 0 0 0 0 0 0 0
0 0 0 0 0 0 0 0 0
0 0 0 0 0 0 0 0 0
0 0 0 0 0 0 0 0 0
0 0 0 0 0 0 0 0 0
0 0 0 0 0 0 0 0 0
0 0 0 0 0 0 0 0 0
0 0 0 0 0 0 0 0 0
0 0 0 0 0 0 0 0 0
0 0 0 0 0 0 0 0 0
0 0 0 0 0 0 0 0 0
0 0 0 0 0 0 0 0 0
0 0 0 0 0 0 0 0 0
0 0 0 0 0 0 0 0 0
0 0 0 0 0 0 0 0 0
0 0 0 0 0 0 0 0 0
0 0 0 0 0 0 0 0 0
0 0 0 0 0 0 0 0 0
0 0 0 0 0 0 0 0 0
0 0 0 0 0 0 0 0 0
0 0 0 0 0 0 0 0 0
0 0 0 0 0 0 0 0 0
0 0 0 0 0 0 0 0 0
0 0 0 0 0 0 0 0 0
0 0 0 0 0 0 0 0 0
0 0 0 0 0 0 0 0 0
0 0 0 0 0 0 0 0 0
0 0 0 0 0 0 0 0 0
0 0 0 0 0 0 0 0 0
0 0 0 0 0 0 0 0 0
0 0 0 0 0 0 0 0 0
0 0 0 0 0 0 0 0 0
0 0 0 0 0 0 0 0 0
0 0 0 0 0 0 0 0 0
0 0 0 0 0 0 0 0 0
0 0 0 0 0 0 0 0 0
0 0 0 0 0 0 0 0 0
0 0 0 0 0 0 0 0 0
0 0 0 0 0 0 0 0 0
0 0 0 0 0 0 0 0 0
0 0 0 0 0 0 0 0 0
0 0 0 0 0 0 0 0 0
0 0 0 0 0 0 0 0 0
0 0 0 0 0 0 0 0 0
0 0 0 0 0 0 0 0 0
0 0 0 0 0 0 0 0 0
0 0 0 0 0 0 0 0 0
0 0 0 0 0 0 0 0 0
0 0 0 0 0 0 0 0 0
0 0 0 0 0 0 0 0 0
0 0 0 0 0 0 0 0 0
0 0 0 0 0 0 0 0 0
0 0 0 0 0 0 0 0 0
0 0 0 0 0 0 0 0 0
0 0 0 0 0 0 0 0 0
0 0 0 0 0 0 0 0 0
0 0 0 0 0 0 0 0 0
0 0 0 0 0 0 0 0 0
0 0 0 0 0 0 0 0 0
0 0 0 0 0 0 0 0 0
0 0 0 0 0 0 0 0 0
0 0 0 0 0 0 0 0 0
0 0 0 0 0 0 0 0 0
0 0 0 0 0 0 0 0 0
0 0 0 0 0 0 0 0 0
0 0 0 0 0 0 0 0 0
0 0 0 0 0 0 0 0 0
0 0 0 0 0 0 0 0 0
0 0 0 0 0 0 0 0 0
0 0 0 0 0 0 0 0 0
0 0 0 0 0 0 0 0 0
0 0 0 0 0 0 0 0 0
0 0 0 0 0 0 0 0 0
0 0 0 0 0 0 0 0 0
0 0 0 0 0 0 0 0 0
0 0 0 0 0 0 0 0 0
0 0 0 0 0 0 0 0 0
0 0 0 0 0 0 0 0 0
0 0 0 0 0 0 0 0 0
0 0 0 0 0 0 0 0 0
0 0 0 0 0 0 0 0 0
0 0 0 0 0 0 0 0 0
0 0 0 0 0 0 0 0 0
0 0 0 0 0 0 0 0 0
0 0 0 0 0 0 0 0 0
0 0 0 0 0 0 0 0 0
0 0 0 0 0 0 0 0 0
0 0 0 0 0 0 0 0 0
0 0 0 0 0 0 0 0 0
0 0 0 0 0 0 0 0 0
0 0 0 0 0 0 0 0 0
0 0 0 0 0 0 0 0 0
0 0 0 0 0 0 0 0 0
0 0 0 0 0 0 0 0 0
0 0 0 0 0 0 0 0 0
0 0 0 0 0 0 0 0 0
0 0 0 0 0 0 0 0 0
0 0 0 0 0 0 0 0 0
0 0 0 0 0 0 0 0 0
0 0 0 0 0 0 0 0 0
0 0 0 0 0 0 0 0 0
0 0 0 0 0 0 0 0 0
0 0 0 0 0 0 0 0 0
0 0 0 0 0 0 0 0 0
0 0 0 0 0 0 0 0 0
0 0 0 0 0 0 0 0 0
0 0 0 0 0 0 0 0 0
0 0 0 0 0 0 0 0 0
0 0 0 0 0 0 0 0 0
0 0 0 0 0 0 0 0 0
0 0 0 0 0 0 0 0 0
0 0 0 0 0 0 0 0 0
0 0 0 0 0 0 0 0 0
0 0 0 0 0 0 0 0 0
0 0 0 0 0 0 0 0 0
0 0 0 0 0 0 0 0 0
0 0 0 0 0 0 0 0 0
0 0 0 0 0 0 0 0 0
0 0 0 0 0 0 0 0 0
0 0 0 0 0 0 0 0 0
0 0 0 0 0 0 0 0 0
0 0 0 0 0 0 0 0 0
0 0 0 0 0 0 0 0 0
0 0 0 0 0 0 0 0 0
0 0 0 0 0 0 0 0 0
0 0 0 0 0 0 0 0 0
0 0 0 0 0 0 0 0 0
0 0 0 0 0 0 0 0 0
0 0 0 0 0 0 0 0 0
0 0 0 0 0 0 0 0 0
0 0 0 0 0 0 0 0 0
0 0 0 0 0 0 0 0 0
0 0 0 0 0 0 0 0 0
0 0 0 0 0 0 0 0 0
0 0 0 0 0 0 0 0 0
0 0 0 0 0 0 0 0 0
0 0 0 0 0 0 0 0 0
0 0 0 0 0 0 0 0 0
0 0 0 0 0 0 0 0 0
0 0 0 0 0 0 0 0 0
0 0 0 0 0 0 0 0 0
0 0 0 0 0 0 0 0 0
0 0 0 0 0 0 0 0 0
0 0 0 0 0 0 0 0 0
0 0 0 0 0 0 0 0 0
0 0 0 0 0 0 0 0 0
0 0 0 0 0 0 0 0 0
0 0 0 0 0 0 0 0 0
0 0 0 0 0 0 0 0 0
0 0 0 0 0 0 0 0 0
0 0 0 0 0 0 0 0 0
0 0 0 0 0 0 0 0 0
0 0 0 0 0 0 0 0 0
0 0 0 0 0 0 0 0 0
0 0 0 0 0 0 0 0 0
0 0 0 0 0 0 0 0 0
0 0 0 0 0 0 0 0 0
0 0 0 0 0 0 0 0 0
0 0 0 0 0 0 0 0 0
0 0 0 0 0 0 0 0 0
0 0 0 0 0 0 0 0 0
0 0 0 0 0 0 0 0 0
0 0 0 0 0 0 0 0 0
0 0 0 0 0 0 0 0 0
0 0 0 0 0 0 0 0 0
0 0 0 0 0 0 0 0 0
0 0 0 0 0 0 0 0 0
0 0 0 0 0 0 0 0 0
0 0 0 0 0 0 0 0 0
0 0 0 0 0 0 0 0 0
0 0 0 0 0 0 0 0 0
0 0 0 0 0 0 0 0 0
0 0 0 0 0 0 0 0 0
0 0 0 0 0 0 0 0 0
0 0 0 0 0 0 0 0 0
0 0 0 0 0 0 0 0 0
0 0 0 0 0 0 0 0 0
0 0 0 0 0 0 0 0 0
0 0 0 0 0 0 0 0 0
0 0 0 0 0 0 0 0 0
0 0 0 0 0 0 0 0 0
0 0 0 0 0 0 0 0 0
0 0 0 0 0 0 0 0 0
0 0 0 0 0 0 0 0 0
0 0 0 0 0 0 0 0 0
0 0 0 0 0 0 0 0 0
0 0 0 0 0 0 0 0 0
0 0 0 0 0 0 0 0 0
0 0 0 0 0 0 0 0 0
0 0 0 0 0 0 0 0 0
0 0 0 0 0 0 0 0 0
0 0 0 0 0 0 0 0 0
0 0 0 0 0 0 0 0 0
0 0 0 0 0 0 0 0 0
0 0 0 0 0 0 0 0 0
0 0 0 0 0 0 0 0 0
0 0 0 0 0 0 0 0 0
0 0 0 0 0 0 0 0 0
0 0 0 0 0 0 0 0 0
0 0 0 0 0 0 0 0 0
0 0 0 0 0 0 0 0 0
0 0 0 0 0 0 0 0 0
0 0 0 0 0 0 0 0 0
0 0 0 0 0 0 0 0 0
0 0 0 0 0 0 0 0 0
0 0 0 0 0 0 0 0 0
0 0 0 0 0 0 0 0 0
0 0 0 0 0 0 0 0 0
0 0 0 0 0 0 0 0 0
0 0 0 0 0 0 0 0 0
0 0 0 0 0 0 0 0 0
0 0 0 0 0 0 0 0 0
0 0 0 0 0 0 0 0 0
0 0 0 0 0 0 0 0 0
0 0 0 0 0 0 0 0 0
0 0 0 0 0 0 0 0 0
0 0 0 0 0 0 0 0 0
0 0 0 0 0 0 0 0 0
0 0 0 0 0 0 0 0 0
0 0 0 0 0 0 0 0 0
0 0 0 0 0 0 0 0 0
0 0 0 0 0 0 0 0 0
0 0 0 0 0 0 0 0 0
0 0 0 0 0 0 0 0 0
0 0 0 0 0 0 0 0 0
0 0 0 0 0 0 0 0 0
0 0 0 0 0 0 0 0 0
0 0 0 0 0 0 0 0 0
0 0 0 0 0 0 0 0 0
0 0 0 0 0 0 0 0 0
0 0 0 0 0 0 0 0 0
0 0 0 0 0 0 0 0 0
0 0 0 0 0 0 0 0 0
0 0 0 0 0 0 0 0 0
0 0 0 0 0 0 0 0 0
0 0 0 0 0 0 0 0 0
0 0 0 0 0 0 0 0 0
0 0 0 0 0 0 0 0 0
0 0 0 0 0 0 0 0 0
0 0 0 0 0 0 0 0 0
0 0 0 0 0 0 0 0 0
0 0 0 0 0 0 0 0 0
0 0 0 0 0 0 0 0 0
0 0 0 0 0 0 0 0 0
0 0 0 0 0 0 0 0 0
0 0 0 0 0 0 0 0 0
0 0 0 0 0 0 0 0 0
0 0 0 0 0 0 0 0 0
0 0 0 0 0 0 0 0 0
0 0 0 0 0 0 0 0 0
0 0 0 0 0 0 0 0 0
0 0 0 0 0 0 0 0 0
0 0 0 0 0 0 0 0 0
0 0 0 0 0 0 0 0 0
0 0 0 0 0 0 0 0 0
0 0 0 0 0 0 0 0 0
0 0 0 0 0 0 0 0 0
0 0 0 0 0 0 0 0 0
0 0 0 0 0 0 0 0 0
0 0 0 0 0 0 0 0 0
0 0 0 0 0 0 0 0 0
0 0 0 0 0 0 0 0 0
0 0 0 0 0 0 0 0 0
0 0 0 0 0 0 0 0 0
0 0 0 0 0 0 0 0 0
0 0 0 0 0 0 0 0 0
0 0 0 0 0 0 0 0 0
0 0 0 0 0 0 0 0 0
0 0 0 0 0 0 0 0 0
0 0 0 0 0 0 0 0 0
0 0 0 0 0 0 0 0 0
0 0 0 0 0 0 0 0 0
0 0 0 0 0 0 0 0 0
0 0 0 0 0 0 0 0 0
0 0 0 0 0 0 0 0 0
0 0 0 0 0 0 0 0 0
0 0 0 0 0 0 0 0 0
0 0 0 0 0 0 0 0 0
0 0 0 0 0 0 0 0 0
0 0 0 0 0 0 0 0 0
0 0 0 0 0 0 0 0 0
0 0 0 0 0 0 0 0 0
0 0 0 0 0 0 0 0 0
0 0 0 0 0 0 0 0 0
0 0 0 0 0 0 0 0 0
0 0 0 0 0 0 0 0 0
0 0 0 0 0 0 0 0 0
0 0 0 0 0 0 0 0 0
0 0 0 0 0 0 0 0 0
0 0 0 0 0 0 0 0 0
0 0 0 0 0 0 0 0 0
0 0 0 0 0 0 0 0 0
0 0 0 0 0 0 0 0 0
0 0 0 0 0 0 0 0 0
0 0 0 0 0 0 0 0 0
0 0 0 0 0 0 0 0 0
0 0 0 0 0 0 0 0 0
0 0 0 0 0 0 0 0 0
0 0 0 0 0 0 0 0 0
0 0 0 0 0 0 0 0 0
0 0 0 0 0 0 0 0 0
0 0 0 0 0 0 0 0 0
0 0 0 0 0 0 0 0 0
0 0 0 0 0 0 0 0 0
0 0 0 0 0 0 0 0 0
0 0 0 0 0 0 0 0 0
0 0 0 0 0 0 0 0 0
0 0 0 0 0 0 0 0 0
0 0 0 0 0 0 0 0 0
0 0 0 0 0 0 0 0 0
0 0 0 0 0 0 0 0 0
0 0 0 0 0 0 0 0 0
0 0 0 0 0 0 0 0 0
0 0 0 0 0 0 0 0 0
0 0 0 0 0 0 0 0 0
0 0 0 0 0 0 0 0 0
0 0 0 0 0 0 0 0 0
0 0 0 0 0 0 0 0 0
0 0 0 0 0 0 0 0 0
0 0 0 0 0 0 0 0 0
0 0 0 0 0 0 0 0 0
0 0 0 0 0 0 0 0 0
SCALARS tauS double 9
LOOKUP_TABLE default
0 0 0 0 0 0 0 0 0
0 0 0 0 0 0 0 0 0
0 0 0 0 0 0 0 0 0
0 0 0 0 0 0 0 0 0
0 0 0 0 0 0 0 0 0
0 0 0 0 0 0 0 0 0
0 0 0 0 0 0 0 0 0
0 0 0 0 0 0 0 0 0
0 0 0 0 0 0 0 0 0
0 0 0 0 0 0 0 0 0
0 0 0 0 0 0 0 0 0
0 0 0 0 0 0 0 0 0
0 0 0 0 0 0 0 0 0
0 0 0 0 0 0 0 0 0
0 0 0 0 0 0 0 0 0
0 0 0 0 0 0 0 0 0
0 0 0 0 0 0 0 0 0
0 0 0 0 0 0 0 0 0
0 0 0 0 0 0 0 0 0
0 0 0 0 0 0 0 0 0
0 0 0 0 0 0 0 0 0
0 0 0 0 0 0 0 0 0
0 0 0 0 0 0 0 0 0
0 0 0 0 0 0 0 0 0
0 0 0 0 0 0 0 0 0
0 0 0 0 0 0 0 0 0
0 0 0 0 0 0 0 0 0
0 0 0 0 0 0 0 0 0
0 0 0 0 0 0 0 0 0
0 0 0 0 0 0 0 0 0
0 0 0 0 0 0 0 0 0
0 0 0 0 0 0 0 0 0
0 0 0 0 0 0 0 0 0
0 0 0 0 0 0 0 0 0
0 0 0 0 0 0 0 0 0
0 0 0 0 0 0 0 0 0
0 0 0 0 0 0 0 0 0
0 0 0 0 0 0 0 0 0
0 0 0 0 0 0 0 0 0
0 0 0 0 0 0 0 0 0
0 0 0 0 0 0 0 0 0
0 0 0 0 0 0 0 0 0
0 0 0 0 0 0 0 0 0
0 0 0 0 0 0 0 0 0
0 0 0 0 0 0 0 0 0
0 0 0 0 0 0 0 0 0
0 0 0 0 0 0 0 0 0
0 0 0 0 0 0 0 0 0
0 0 0 0 0 0 0 0 0
0 0 0 0 0 0 0 0 0
0 0 0 0 0 0 0 0 0
0 0 0 0 0 0 0 0 0
0 0 0 0 0 0 0 0 0
0 0 0 0 0 0 0 0 0
0 0 0 0 0 0 0 0 0
0 0 0 0 0 0 0 0 0
0 0 0 0 0 0 0 0 0
0 0 0 0 0 0 0 0 0
0 0 0 0 0 0 0 0 0
0 0 0 0 0 0 0 0 0
0 0 0 0 0 0 0 0 0
0 0 0 0 0 0 0 0 0
0 0 0 0 0 0 0 0 0
0 0 0 0 0 0 0 0 0
0 0 0 0 0 0 0 0 0
0 0 0 0 0 0 0 0 0
0 0 0 0 0 0 0 0 0
0 0 0 0 0 0 0 0 0
0 0 0 0 0 0 0 0 0
0 0 0 0 0 0 0 0 0
0 0 0 0 0 0 0 0 0
0 0 0 0 0 0 0 0 0
0 0 0 0 0 0 0 0 0
0 0 0 0 0 0 0 0 0
0 0 0 0 0 0 0 0 0
0 0 0 0 0 0 0 0 0
0 0 0 0 0 0 0 0 0
0 0 0 0 0 0 0 0 0
0 0 0 0 0 0 0 0 0
0 0 0 0 0 0 0 0 0
0 0 0 0 0 0 0 0 0
0 0 0 0 0 0 0 0 0
0 0 0 0 0 0 0 0 0
0 0 0 0 0 0 0 0 0
0 0 0 0 0 0 0 0 0
0 0 0 0 0 0 0 0 0
0 0 0 0 0 0 0 0 0
0 0 0 0 0 0 0 0 0
0 0 0 0 0 0 0 0 0
0 0 0 0 0 0 0 0 0
0 0 0 0 0 0 0 0 0
0 0 0 0 0 0 0 0 0
0 0 0 0 0 0 0 0 0
0 0 0 0 0 0 0 0 0
0 0 0 0 0 0 0 0 0
0 0 0 0 0 0 0 0 0
0 0 0 0 0 0 0 0 0
0 0 0 0 0 0 0 0 0
0 0 0 0 0 0 0 0 0
0 0 0 0 0 0 0 0 0
0 0 0 0 0 0 0 0 0
0 0 0 0 0 0 0 0 0
0 0 0 0 0 0 0 0 0
0 0 0 0 0 0 0 0 0
0 0 0 0 0 0 0 0 0
0 0 0 0 0 0 0 0 0
0 0 0 0 0 0 0 0 0
0 0 0 0 0 0 0 0 0
0 0 0 0 0 0 0 0 0
0 0 0 0 0 0 0 0 0
0 0 0 0 0 0 0 0 0
0 0 0 0 0 0 0 0 0
0 0 0 0 0 0 0 0 0
0 0 0 0 0 0 0 0 0
0 0 0 0 0 0 0 0 0
0 0 0 0 0 0 0 0 0
0 0 0 0 0 0 0 0 0
0 0 0 0 0 0 0 0 0
0 0 0 0 0 0 0 0 0
0 0 0 0 0 0 0 0 0
0 0 0 0 0 0 0 0 0
0 0 0 0 0 0 0 0 0
0 0 0 0 0 0 0 0 0
0 0 0 0 0 0 0 0 0
0 0 0 0 0 0 0 0 0
0 0 0 0 0 0 0 0 0
0 0 0 0 0 0 0 0 0
0 0 0 0 0 0 0 0 0
0 0 0 0 0 0 0 0 0
0 0 0 0 0 0 0 0 0
0 0 0 0 0 0 0 0 0
0 0 0 0 0 0 0 0 0
0 0 0 0 0 0 0 0 0
0 0 0 0 0 0 0 0 0
0 0 0 0 0 0 0 0 0
0 0 0 0 0 0 0 0 0
0 0 0 0 0 0 0 0 0
0 0 0 0 0 0 0 0 0
0 0 0 0 0 0 0 0 0
0 0 0 0 0 0 0 0 0
0 0 0 0 0 0 0 0 0
0 0 0 0 0 0 0 0 0
0 0 0 0 0 0 0 0 0
0 0 0 0 0 0 0 0 0
0 0 0 0 0 0 0 0 0
0 0 0 0 0 0 0 0 0
0 0 0 0 0 0 0 0 0
0 0 0 0 0 0 0 0 0
0 0 0 0 0 0 0 0 0
0 0 0 0 0 0 0 0 0
0.490595 0.503028 0.478883 0.490827 0.490595 0.503028 0.478883 0.490827 0
0.511799 0.523286 0.499248 0.510265 0.511799 0.523286 0.499248 0.510265 0
0.531286 0.541596 0.517929 0.52779 0.531286 0.541596 0.517929 0.52779 0
0.487322 0.501265 0.476248 0.48967 0.487322 0.501265 0.476248 0.48967 0
0.511259 0.524588 0.499282 0.512086 0.511259 0.524588 0.499282 0.512086 0
0.534012 0.546388 0.521127 0.532979 0.534012 0.546388 0.521127 0.532979 0
0.55502 0.566171 0.541238 0.551894 0.55502 0.566171 0.541238 0.551894 0
0.506783 0.521682 0.495515 0.509854 0.506783 0.521682 0.495515 0.509854 0
0.532383 0.546691 0.52014 0.533873 0.532383 0.546691 0.52014 0.533873 0
0.55683 0.570184 0.543591 0.55637 0.55683 0.570184 0.543591 0.55637 0
0.579514 0.591598 0.565289 0.576824 0.579514 0.591598 0.565289 0.576824 0
0.498632 0.514807 0.488178 0.503784 0.498632 0.514807 0.488178 0.503784 0
0.526565 0.542494 0.515113 0.530439 0.526565 0.542494 0.515113 0.530439 0
0.553963 0.569342 0.541457 0.556207 0.553963 0.569342 0.541457 0.556207 0
0.580267 0.594699 0.566669 0.580467 0.580267 0.594699 0.566669 0.580467 0
0.6048 0.617917 0.590114 0.602623 0.6048 0.617917 0.590114 0.602623 0
0.626818 0.637954 0.611101 0.621692 0.626818 0.637954 0.611101 0.621692 0
0.516876 0.534091 0.50633 0.522937 0.516876 0.534091 0.50633 0.522937 0
0.546637 0.563681 0.535022 0.551412 0.546637 0.563681 0.535022 0.551412 0
0.575986 0.592536 0.563226 0.579088 0.575986 0.592536 0.563226 0.579088 0
0.604325 0.61995 0.590368 0.60529 0.604325 0.61995 0.590368 0.60529 0
0.63091 0.645184 0.615743 0.629335 0.63091 0.645184 0.615743 0.629335 0
0.654887 0.667064 0.638563 0.650125 0.654887 0.667064 0.638563 0.650125 0
0.535239 0.553563 0.524631 0.542306 0.535239 0.553563 0.524631 0.542306 0
0.566955 0.585203 0.555203 0.572745 0.566955 0.585203 0.555203 0.572745 0
0.598417 0.616251 0.585425 0.602505 0.598417 0.616251 0.585425 0.602505 0
0.628993 0.645942 0.614685 0.630854 0.628993 0.645942 0.614685 0.630854 0
0.657862 0.673439 0.642207 0.657015 0.657862 0.673439 0.642207 0.657015 0
0.684048 0.697402 0.667088 0.679746 0.684048 0.697402 0.667088 0.679746 0
0.520215 0.539455 0.510694 0.529314 0.520215 0.539455 0.510694 0.529314 0
0.553643 0.573156 0.543021 0.561837 0.553643 0.573156 0.543021 0.561837 0
0.587457 0.607004 0.575606 0.594392 0.587457 0.607004 0.575606 0.594392 0
0.621207 0.640444 0.608015 0.626427 0.621207 0.640444 0.608015 0.626427 0
0.654238 0.672661 0.639601 0.657156 0.654238 0.672661 0.639601 0.657156 0
0.685659 0.702709 0.669516 0.685696 0.685659 0.702709 0.669516 0.685696 0
0.714355 0.72907 0.696726 0.710632 0.714355 0.72907 0.696726 0.710632 0
0.536582 0.55695 0.527157 0.546867 0.536582 0.55695 0.527157 0.546867 0
0.572011 0.592781 0.561418 0.581455 0.572011 0.592781 0.561418 0.581455 0
0.608054 0.628997 0.59616 0.616285 0.608054 0.628997 0.59616 0.616285 0
0.644272 0.665044 0.630931 0.650801 0.644272 0.665044 0.630931 0.650801 0
0.679999 0.700064 0.665073 0.68417 0.679999 0.700064 0.665073 0.68417 0
0.714274 0.733 0.697662 0.715397 0.714274 0.733 0.697662 0.715397 0
0.745834 0.762126 0.727525 0.742881 0.745834 0.762126 0.727525 0.742881 0
0.552673 0.574226 0.543424 0.564287 0.552673 0.574226 0.543424 0.564287 0
0.590207 0.612309 0.579731 0.601055 0.590207 0.612309 0.579731 0.601055 0
0.628616 0.651057 0.616758 0.638322 0.628616 0.651057 0.616758 0.638322 0
0.667491 0.689935 0.654077 0.675539 0.667491 0.689935 0.654077 0.675539 0
0.70617 0.728062 0.691021 0.711835 0.70617 0.728062 0.691021 0.711835 0
0.743639 0.764275 0.726604 0.746109 0.743639 0.764275 0.726604 0.746109 0
0.778477 0.796605 0.759498 0.776534 0.778477 0.796605 0.759498 0.776534 0
0.52995 0.551924 0.522106 0.543453 0.52995 0.551924 0.522106 0.543453 0
0.568311 0.591104 0.559346 0.581417 0.568311 0.591104 0.559346 0.581417 0
0.608052 0.631557 0.597801 0.620488 0.608052 0.631557 0.597801 0.620488 0
0.648961 0.672999 0.637251 0.660356 0.648961 0.672999 0.637251 0.660356 0
0.690681 0.71494 0.677306 0.700501 0.690681 0.71494 0.677306 0.700501 0
0.732582 0.756505 0.717315 0.740041 0.732582 0.756505 0.717315 0.740041 0
0.773622 0.79644 0.756247 0.777772 0.773622 0.79644 0.756247 0.777772 0
0.812229 0.832513 0.792618 0.811617 0.812229 0.832513 0.792618 0.811617 0
0.54291 0.566 0.535527 0.557968 0.54291 0.566 0.535527 0.557968 0
0.583265 0.607345 0.574724 0.598055 0.583265 0.607345 0.574724 0.598055 0
0.625302 0.650279 0.615425 0.639544 0.625302 0.650279 0.615425 0.639544 0
0.668842 0.694575 0.657432 0.682175 0.668842 0.694575 0.657432 0.682175 0
0.713592 0.739807 0.700411 0.72548 0.713592 0.739807 0.700411 0.72548 0
0.758984 0.785145 0.743755 0.768599 0.758984 0.785145 0.743755 0.768599 0
0.803992 0.829302 0.786424 0.810258 0.803992 0.829302 0.786424 0.810258 0
0.846937 0.869779 0.826794 0.848109 0.846937 0.869779 0.826794 0.848109 0
0.554772 0.579006 0.548069 0.571639 0.554772 0.579006 0.548069 0.571639 0
0.597177 0.622585 0.589284 0.613921 0.597177 0.622585 0.589284 0.613921 0
0.641591 0.668103 0.632317 0.657935 0.641591 0.668103 0.632317 0.657935 0
0.68788 0.715397 0.677006 0.703482 0.68788 0.715397 0.677006 0.703482 0
0.735835 0.764146 0.72309 0.750175 0.735835 0.764146 0.72309 0.750175 0
0.784993 0.813623 0.77004 0.797218 0.784993 0.813623 0.77004 0.797218 0
0.834413 0.862567 0.816859 0.843328 0.834413 0.862567 0.816859 0.843328 0
0.88235 0.908222 0.861833 0.885897 0.88235 0.908222 0.861833 0.885897 0
0 0 0 0 0 0 0 0 0
0 0 0 0 0 0 0 0 0
0 0 0 0 0 0 0 0 0
0 0 0 0 0 0 0 0 0
0 0 0 0 0 0 0 0 0
0 0 0 0 0 0 0 0 0
0 0 0 0 0 0 0 0 0
0 0 0 0 0 0 0 0 0
0 0 0 0 0 0 0 0 0
0 0 0 0 0 0 0 0 0
0 0 0 0 0 0 0 0 0
0 0 0 0 0 0 0 0 0
0 0 0 0 0 0 0 0 0
0 0 0 0 0 0 0 0 0
0 0 0 0 0 0 0 0 0
0 0 0 0 0 0 0 0 0
0 0 0 0 0 0 0 0 0
0 0 0 0 0 0 0 0 0
0 0 0 0 0 0 0 0 0
0 0 0 0 0 0 0 0 0
0 0 0 0 0 0 0 0 0
0 0 0 0 0 0 0 0 0
0 0 0 0 0 0 0 0 0
0 0 0 0 0 0 0 0 0
0 0 0 0 0 0 0 0 0
0 0 0 0 0 0 0 0 0
0 0 0 0 0 0 0 0 0
0 0 0 0 0 0 0 0 0
0 0 0 0 0 0 0 0 0
0 0 0 0 0 0 0 0 0
0 0 0 0 0 0 0 0 0
0 0 0 0 0 0 0 0 0
0 0 0 0 0 0 0 0 0
0 0 0 0 0 0 0 0 0
0 0 0 0 0 0 0 0 0
0 0 0 0 0 0 0 0 0
0 0 0 0 0 0 0 0 0
0 0 0 0 0 0 0 0 0
0 0 0 0 0 0 0 0 0
0 0 0 0 0 0 0 0 0
0 0 0 0 0 0 0 0 0
0 0 0 0 0 0 0 0 0
0 0 0 0 0 0 0 0 0
0 0 0 0 0 0 0 0 0
0 0 0 0 0 0 0 0 0
0 0 0 0 0 0 0 0 0
0 0 0 0 0 0 0 0 0
0 0 0 0 0 0 0 0 0
0 0 0 0 0 0 0 0 0
0 0 0 0 0 0 0 0 0
0 0 0 0 0 0 0 0 0
0 0 0 0 0 0 0 0 0
0 0 0 0 0 0 0 0 0
0 0 0 0 0 0 0 0 0
0 0 0 0 0 0 0 0 0
0 0 0 0 0 0 0 0 0
0 0 0 0 0 0 0 0 0
0 0 0 0 0 0 0 0 0
0 0 0 0 0 0 0 0 0
0 0 0 0 0 0 0 0 0
0 0 0 0 0 0 0 0 0
0 0 0 0 0 0 0 0 0
0 0 0 0 0 0 0 0 0
0 0 0 0 0 0 0 0 0
0 0 0 0 0 0 0 0 0
0 0 0 0 0 0 0 0 0
0 0 0 0 0 0 0 0 0
0 0 0 0 0 0 0 0 0
0 0 0 0 0 0 0 0 0
0 0 0 0 0 0 0 0 0
0 0 0 0 0 0 0 0 0
0 0 0 0 0 0 0 0 0
0 0 0 0 0 0 0 0 0
0 0 0 0 0 0 0 0 0
0 0 0 0 0 0 0 0 0
0 0 0 0 0 0 0 0 0
0 0 0 0 0 0 0 0 0
0 0 0 0 0 0 0 0 0
0 0 0 0 0 0 0 0 0
0 0 0 0 0 0 0 0 0
0 0 0 0 0 0 0 0 0
0 0 0 0 0 0 0 0 0
0 0 0 0 0 0 0 0 0
0 0 0 0 0 0 0 0 0
0 0 0 0 0 0 0 0 0
0 0 0 0 0 0 0 0 0
0 0 0 0 0 0 0 0 0
0 0 0 0 0 0 0 0 0
0 0 0 0 0 0 0 0 0
0 0 0 0 0 0 0 0 0
0 0 0 0 0 0 0 0 0
0 0 0 0 0 0 0 0 0
0 0 0 0 0 0 0 0 0
0 0 0 0 0 0 0 0 0
0 0 0 0 0 0 0 0 0
0 0 0 0 0 0 0 0 0
0 0 0 0 0 0 0 0 0
0 0 0 0 0 0 0 0 0
0 0 0 0 0 0 0 0 0
0 0 0 0 0 0 0 0 0
0 0 0 0 0 0 0 0 0
0 0 0 0 0 0 0 0 0
0 0 0 0 0 0 0 0 0
0 0 0 0 0 0 0 0 0
0 0 0 0 0 0 0 0 0
0 0 0 0 0 0 0 0 0
0 0 0 0 0 0 0 0 0
0 0 0 0 0 0 0 0 0
0 0 0 0 0 0 0 0 0
0 0 0 0 0 0 0 0 0
0 0 0 0 0 0 0 0 0
0 0 0 0 0 0 0 0 0
0 0 0 0 0 0 0 0 0
0 0 0 0 0 0 0 0 0
0 0 0 0 0 0 0 0 0
0 0 0 0 0 0 0 0 0
0 0 0 0 0 0 0 0 0
0 0 0 0 0 0 0 0 0
0 0 0 0 0 0 0 0 0
0 0 0 0 0 0 0 0 0
0 0 0 0 0 0 0 0 0
0 0 0 0 0 0 0 0 0
0 0 0 0 0 0 0 0 0
0 0 0 0 0 0 0 0 0
0 0 0 0 0 0 0 0 0
0 0 0 0 0 0 0 0 0
0 0 0 0 0 0 0 0 0
0 0 0 0 0 0 0 0 0
0 0 0 0 0 0 0 0 0
0 0 0 0 0 0 0 0 0
0 0 0 0 0 0 0 0 0
0 0 0 0 0 0 0 0 0
0 0 0 0 0 0 0 0 0
0 0 0 0 0 0 0 0 0
0 0 0 0 0 0 0 0 0
0 0 0 0 0 0 0 0 0
0 0 0 0 0 0 0 0 0
0 0 0 0 0 0 0 0 0
0 0 0 0 0 0 0 0 0
0 0 0 0 0 0 0 0 0
0 0 0 0 0 0 0 0 0
0 0 0 0 0 0 0 0 0
0 0 0 0 0 0 0 0 0
0 0 0 0 0 0 0 0 0
0 0 0 0 0 0 0 0 0
0 0 0 0 0 0 0 0 0
0 0 0 0 0 0 0 0 0
0 0 0 0 0 0 0 0 0
0 0 0 0 0 0 0 0 0
0 0 0 0 0 0 0 0 0
0 0 0 0 0 0 0 0 0
0 0 0 0 0 0 0 0 0
0 0 0 0 0 0 0 0 0
0 0 0 0 0 0 0 0 0
0 0 0 0 0 0 0 0 0
0 0 0 0 0 0 0 0 0
0 0 0 0 0 0 0 0 0
0 0 0 0 0 0 0 0 0
0 0 0 0 0 0 0 0 0
0 0 0 0 0 0 0 0 0
0 0 0 0 0 0 0 0 0
0 0 0 0 0 0 0 0 0
0 0 0 0 0 0 0 0 0
0 0 0 0 0 0 0 0 0
0 0 0 0 0 0 0 0 0
0 0 0 0 0 0 0 0 0
0 0 0 0 0 0 0 0 0
0 0 0 0 0 0 0 0 0
0 0 0 0 0 0 0 0 0
0 0 0 0 0 0 0 0 0
0 0 0 0 0 0 0 0 0
0 0 0 0 0 0 0 0 0
0 0 0 0 0 0 0 0 0
0 0 0 0 0 0 0 0 0
0 0 0 0 0 0 0 0 0
0 0 0 0 0 0 0 0 0
0 0 0 0 0 0 0 0 0
0 0 0 0 0 0 0 0 0
0 0 0 0 0 0 0 0 0
0 0 0 0 0 0 0 0 0
0 0 0 0 0 0 0 0 0
0 0 0 0 0 0 0 0 0
0 0 0 0 0 0 0 0 0
0 0 0 0 0 0 0 0 0
0 0 0 0 0 0 0 0 0
0 0 0 0 0 0 0 0 0
0 0 0 0 0 0 0 0 0
0 0 0 0 0 0 0 0 0
0 0 0 0 0 0 0 0 0
0 0 0 0 0 0 0 0 0
0 0 0 0 0 0 0 0 0
0 0 0 0 0 0 0 0 0
0 0 0 0 0 0 0 0 0
0 0 0 0 0 0 0 0 0
0 0 0 0 0 0 0 0 0
0 0 0 0 0 0 0 0 0
0 0 0 0 0 0 0 0 0
0 0 0 0 0 0 0 0 0
0 0 0 0 0 0 0 0 0
0 0 0 0 0 0 0 0 0
0 0 0 0 0 0 0 0 0
0 0 0 0 0 0 0 0 0
0 0 0 0 0 0 0 0 0
0 0 0 0 0 0 0 0 0
0 0 0 0 0 0 0 0 0
0 0 0 0 0 0 0 0 0
0 0 0 0 0 0 0 0 0
0 0 0 0 0 0 0 0 0
0 0 0 0 0 0 0 0 0
0 0 0 0 0 0 0 0 0
0 0 0 0 0 0 0 0 0
0 0 0 0 0 0 0 0 0
0 0 0 0 0 0 0 0 0
0 0 0 0 0 0 0 0 0
0 0 0 0 0 0 0 0 0
0 0 0 0 0 0 0 0 0
0 0 0 0 0 0 0 0 0
0 0 0 0 0 0 0 0 0
0 0 0 0 0 0 0 0 0
0 0 0 0 0 0 0 0 0
0 0 0 0 0 0 0 0 0
0 0 0 0 0 0 0 0 0
0 0 0 0 0 0 0 0 0
0 0 0 0 0 0 0 0 0
0 0 0 0 0 0 0 0 0
0 0 0 0 0 0 0 0 0
0 0 0 0 0 0 0 0 0
0 0 0 0 0 0 0 0 0
0 0 0 0 0 0 0 0 0
0 0 0 0 0 0 0 0 0
0 0 0 0 0 0 0 0 0
0 0 0 0 0 0 0 0 0
0 0 0 0 0 0 0 0 0
0 0 0 0 0 0 0 0 0
0 0 0 0 0 0 0 0 0
0 0 0 0 0 0 0 0 0
0 0 0 0 0 0 0 0 0
0 0 0 0 0 0 0 0 0
0 0 0 0 0 0 0 0 0
0 0 0 0 0 0 0 0 0
0 0 0 0 0 0 0 0 0
0 0 0 0 0 0 0 0 0
0 0 0 0 0 0 0 0 0
0 0 0 0 0 0 0 0 0
0 0 0 0 0 0 0 0 0
0 0 0 0 0 0 0 0 0
0 0 0 0 0 0 0 0 0
0 0 0 0 0 0 0 0 0
0 0 0 0 0 0 0 0 0
0 0 0 0 0 0 0 0 0
0 0 0 0 0 0 0 0 0
0 0 0 0 0 0 0 0 0
0 0 0 0 0 0 0 0 0
0 0 0 0 0 0 0 0 0
0 0 0 0 0 0 0 0 0
0 0 0 0 0 0 0 0 0
0 0 0 0 0 0 0 0 0
0 0 0 0 0 0 0 0 0
0 0 0 0 0 0 0 0 0
0 0 0 0 0 0 0 0 0
0 0 0 0 0 0 0 0 0
0 0 0 0 0 0 0 0 0
0 0 0 0 0 0 0 0 0
0 0 0 0 0 0 0 0 0
0 0 0 0 0 0 0 0 0
0 0 0 0 0 0 0 0 0
0 0 0 0 0 0 0 0 0
0 0 0 0 0 0 0 0 0
0 0 0 0 0 0 0 0 0
0 0 0 0 0 0 0 0 0
0 0 0 0 0 0 0 0 0
0 0 0 0 0 0 0 0 0
0 0 0 0 0 0 0 0 0
0 0 0 0 0 0 0 0 0
0 0 0 0 0 0 0 0 0
0 0 0 0 0 0 0 0 0
0 0 0 0 0 0 0 0 0
0 0 0 0 0 0 0 0 0
0 0 0 0 0 0 0 0 0
0 0 0 0 0 0 0 0 0
0 0 0 0 0 0 0 0 0
0 0 0 0 0 0 0 0 0
0 0 0 0 0 0 0 0 0
0 0 0 0 0 0 0 0 0
0 0 0 0 0 0 0 0 0
0 0 0 0 0 0 0 0 0
0 0 0 0 0 0 0 0 0
0 0 0 0 0 0 0 0 0
0 0 0 0 0 0 0 0 0
0 0 0 0 0 0 0 0 0
0 0 0 0 0 0 0 0 0
0 0 0 0 0 0 0 0 0
0 0 0 0 0 0 0 0 0
0 0 0 0 0 0 0 0 0
0 0 0 0 0 0 0 0 0
0 0 0 0 0 0 0 0 0
0 0 0 0 0 0 0 0 0
0 0 0 0 0 0 0 0 0
0 0 0 0 0 0 0 0 0
0 0 0 0 0 0 0 0 0
0 0 0 0 0 0 0 0 0
0 0 0 0 0 0 0 0 0
0 0 0 0 0 0 0 0 0
0 0 0 0 0 0 0 0 0
0 0 0 0 0 0 0 0 0
0 0 0 0 0 0 0 0 0
0 0 0 0 0 0 0 0 0
0 0 0 0 0 0 0 0 0
0 0 0 0 0 0 0 0 0
0 0 0 0 0 0 0 0 0
0 0 0 0 0 0 0 0 0
0 0 0 0 0 0 0 0 0
0 0 0 0 0 0 0 0 0
0 0 0 0 0 0 0 0 0
0 0 0 0 0 0 0 0 0
0 0 0 0 0 0 0 0 0
0 0 0 0 0 0 0 0 0
0 0 0 0 0 0 0 0 0
0 0 0 0 0 0 0 0 0
0 0 0 0 0 0 0 0 0
0 0 0 0 0 0 0 0 0
0 0 0 0 0 0 0 0 0
0 0 0 0 0 0 0 0 0
0 0 0 0 0 0 0 0 0
0 0 0 0 0 0 0 0 0
0 0 0 0 0 0 0 0 0
0 0 0 0 0 0 0 0 0
0 0 0 0 0 0 0 0 0
0 0 0 0 0 0 0 0 0
0 0 0 0 0 0 0 0 0
0 0 0 0 0 0 0 0 0
0 0 0 0 0 0 0 0 0
0 0 0 0 0 0 0 0 0
0 0 0 0 0 0 0 0 0
0 0 0 0 0 0 0 0 0
0 0 0 0 0 0 0 0 0
0 0 0 0 0 0 0 0 0
0 0 0 0 0 0 0 0 0
0 0 0 0 0 0 0 0 0
0 0 0 0 0 0 0 0 0
0 0 0 0 0 0 0 0 0
0 0 0 0 0 0 0 0 0
0 0 0 0 0 0 0 0 0
0 0 0 0 0 0 0 0 0
0 0 0 0 0 0 0 0 0
0 0 0 0 0 0 0 0 0
0 0 0 0 0 0 0 0 0
0 0 0 0 0 0 0 0 0
0 0 0 0 0 0 0 0 0
0 0 0 0 0 0 0 0 0
0 0 0 0 0 0 0 0 0
0 0 0 0 0 0 0 0 0
0 0 0 0 0 0 0 0 0
0 0 0 0 0 0 0 0 0
0 0 0 0 0 0 0 0 0
0 0 0 0 0 0 0 0 0
0 0 0 0 0 0 0 0 0
0 0 0 0 0 0 0 0 0
0 0 0 0 0 0 0 0 0
0 0 0 0 0 0 0 0 0
0 0 0 0 0 0 0 0 0
0 0 0 0 0 0 0 0 0
0 0 0 0 0 0 0 0 0
0 0 0 0 0 0 0 0 0
0 0 0 0 0 0 0 0 0
0 0 0 0 0 0 0 0 0
0 0 0 0 0 0 0 0 0
0 0 0 0 0 0 0 0 0
0 0 0 0 0 0 0 0 0
0 0 0 0 0 0 0 0 0
0 0 0 0 0 0 0 0 0
0 0 0 0 0 0 0 0 0
0 0 0 0 0 0 0 0 0
0 0 0 0 0 0 0 0 0
0 0 0 0 0 0 0 0 0
0 0 0 0 0 0 0 0 0
0 0 0 0 0 0 0 0 0
0 0 0 0 0 0 0 0 0
0 0 0 0 0 0 0 0 0
0 0 0 0 0 0 0 0 0
0 0 0 0 0 0 0 0 0
0 0 0 0 0 0 0 0 0
0 0 0 0 0 0 0 0 0
0 0 0 0 0 0 0 0 0
0 0 0 0 0 0 0 0 0
0 0 0 0 0 0 0 0 0
0 0 0 0 0 0 0 0 0
0 0 0 0 0 0 0 0 0
0 0 0 0 0 0 0 0 0
0 0 0 0 0 0 0 0 0
0 0 0 0 0 0 0 0 0
0 0 0 0 0 0 0 0 0
0 0 0 0 0 0 0 0 0
0 0 0 0 0 0 0 0 0
0 0 0 0 0 0 0 0 0
0 0 0 0 0 0 0 0 0
0 0 0 0 0 0 0 0 0
0 0 0 0 0 0 0 0 0
0 0 0 0 0 0 0 0 0
0 0 0 0 0 0 0 0 0
0 0 0 0 0 0 0 0 0
0 0 0 0 0 0 0 0 0
0 0 0 0 0 0 0 0 0
0 0 0 0 0 0 0 0 0
0 0 0 0 0 0 0 0 0
0 0 0 0 0 0 0 0 0
0 0 0 0 0 0 0 0 0
0 0 0 0 0 0 0 0 0
0 0 0 0 0 0 0 0 0
0 0 0 0 0 0 0 0 0
0 0 0 0 0 0 0 0 0
0 0 0 0 0 0 0 0 0
0 0 0 0 0 0 0 0 0
0 0 0 0 0 0 0 0 0
0 0 0 0 0 0 0 0 0
0 0 0 0 0 0 0 0 0
0 0 0 0 0 0 0 0 0
0 0 0 0 0 0 0 0 0
0 0 0 0 0 0 0 0 0
0 0 0 0 0 0 0 0 0
0 0 0 0 0 0 0 0 0
0 0 0 0 0 0 0 0 0
0 0 0 0 0 0 0 0 0
0 0 0 0 0 0 0 0 0
0 0 0 0 0 0 0 0 0
0 0 0 0 0 0 0 0 0
0 0 0 0 0 0 0 0 0
0 0 0 0 0 0 0 0 0
0 0 0 0 0 0 0 0 0
0 0 0 0 0 0 0 0 0
0 0 0 0 0 0 0 0 0
0 0 0 0 0 0 0 0 0
0 0 0 0 0 0 0 0 0
0 0 0 0 0 0 0 0 0
0 0 0 0 0 0 0 0 0
0 0 0 0 0 0 0 0 0
0 0 0 0 0 0 0 0 0
0 0 0 0 0 0 0 0 0
0 0 0 0 0 0 0 0 0
0 0 0 0 0 0 0 0 0
0 0 0 0 0 0 0 0 0
0 0 0 0 0 0 0 0 0
0 0 0 0 0 0 0 0 0
0 0 0 0 0 0 0 0 0
0 0 0 0 0 0 0 0 0
0 0 0 0 0 0 0 0 0
0 0 0 0 0 0 0 0 0
0 0 0 0 0 0 0 0 0
0 0 0 0 0 0 0 0 0
0 0 0 0 0 0 0 0 0
0 0 0 0 0 0 0 0 0
0 0 0 0 0 0 0 0 0
0 0 0 0 0 0 0 0 0
0 0 0 0 0 0 0 0 0
0 0 0 0 0 0 0 0 0
0 0 0 0 0 0 0 0 0
0 0 0 0 0 0 0 0 0
0 0 0 0 0 0 0 0 0
0 0 0 0 0 0 0 0 0
0 0 0 0 0 0 0 0 0
0 0 0 0 0 0 0 0 0
0 0 0 0 0 0 0 0 0
0 0 0 0 0 0 0 0 0
0 0 0 0 0 0 0 0 0
0 0 0 0 0 0 0 0 0
0 0 0 0 0 0 0 0 0
0 0 0 0 0 0 0 0 0
0 0 0 0 0 0 0 0 0
0 0 0 0 0 0 0 0 0
0 0 0 0 0 0 0 0 0
0 0 0 0 0 0 0 0 0
0 0 0 0 0 0 0 0 0
0 0 0 0 0 0 0 0 0
0 0 0 0 0 0 0 0 0
0 0 0 0 0 0 0 0 0
0 0 0 0 0 0 0 0 0
0 0 0 0 0 0 0 0 0
0 0 0 0 0 0 0 0 0
0 0 0 0 0 0 0 0 0
0 0 0 0 0 0 0 0 0
0 0 0 0 0 0 0 0 0
0 0 0 0 0 0 0 0 0
0 0 0 0 0 0 0 0 0
0 0 0 0 0 0 0 0 0
0 0 0 0 0 0 0 0 0
0 0 0 0 0 0 0 0 0
0 0 0 0 0 0 0 0 0
0 0 0 0 0 0 0 0 0
0 0 0 0 0 0 0 0 0
0 0 0 0 0 0 0 0 0
0 0 0 0 0 0 0 0 0
0 0 0 0 0 0 0 0 0
0 0 0 0 0 0 0 0 0
0 0 0 0 0 0 0 0 0
0 0 0 0 0 0 0 0 0
0 0 0 0 0 0 0 0 0
0 0 0 0 0 0 0 0 0
0 0 0 0 0 0 0 0 0
0 0 0 0 0 0 0 0 0
0 0 0 0 0 0 0 0 0
0 0 0 0 0 0 0 0 0
0 0 0 0 0 0 0 0 0
0 0 0 0 0 0 0 0 0
0 0 0 0 0 0 0 0 0
0 0 0 0 0 0 0 0 0
0 0 0 0 0 0 0 0 0
0 0 0 0 0 0 0 0 0
0 0 0 0 0 0 0 0 0
0 0 0 0 0 0 0 0 0
0 0 0 0 0 0 0 0 0
0 0 0 0 0 0 0 0 0
0 0 0 0 0 0 0 0 0
0 0 0 0 0 0 0 0 0
0 0 0 0 0 0 0 0 0
0 0 0 0 0 0 0 0 0
0 0 0 0 0 0 0 0 0
0 0 0 0 0 0 0 0 0
0 0 0 0 0 0 0 0 0
0 0 0 0 0 0 0 0 0
0 0 0 0 0 0 0 0 0
0 0 0 0 0 0 0 0 0
0 0 0 0 0 0 0 0 0
0 0 0 0 0 0 0 0 0
0 0 0 0 0 0 0 0 0
0 0 0 0 0 0 0 0 0
0 0 0 0 0 0 0 0 0
0 0 0 0 0 0 0 0 0
0 0 0 0 0 0 0 0 0
0 0 0 0 0 0 0 0 0
0 0 0 0 0 0 0 0 0
0 0 0 0 0 0 0 0 0
0 0 0 0 0 0 0 0 0
0 0 0 0 0 0 0 0 0
0 0 0 0 0 0 0 0 0
0 0 0 0 0 0 0 0 0
0 0 0 0 0 0 0 0 0
0 0 0 0 0 0 0 0 0
0 0 0 0 0 0 0 0 0
0 0 0 0 0 0 0 0 0
0 0 0 0 0 0 0 0 0
0 0 0 0 0 0 0 0 0
0 0 0 0 0 0 0 0 0
0 0 0 0 0 0 0 0 0
0 0 0 0 0 0 0 0 0
0 0 0 0 0 0 0 0 0
0 0 0 0 0 0 0 0 0
0 0 0 0 0 0 0 0 0
0 0 0 0 0 0 0 0 0
0 0 0 0 0 0 0 0 0
0 0 0 0 0 0 0 0 0
0 0 0 0 0 0 0 0 0
0 0 0 0 0 0 0 0 0
0 0 0 0 0 0 0 0 0
0 0 0 0 0 0 0 0 0
0 0 0 0 0 0 0 0 0
0 0 0 0 0 0 0 0 0
0 0 0 0 0 0 0 0 0
0 0 0 0 0 0 0 0 0
0 0 0 0 0 0 0 0 0
0 0 0 0 0 0 0 0 0
0 0 0 0 0 0 0 0 0
0 0 0 0 0 0 0 0 0
0 0 0 0 0 0 0 0 0
0 0 0 0 0 0 0 0 0
0 0 0 0 0 0 0 0 0
0 0 0 0 0 0 0 0 0
0 0 0 0 0 0 0 0 0
0 0 0 0 0 0 0 0 0
0 0 0 0 0 0 0 0 0
0 0 0 0 0 0 0 0 0
0 0 0 0 0 0 0 0 0
0 0 0 0 0 0 0 0 0
0 0 0 0 0 0 0 0 0
0 0 0 0 0 0 0 0 0
0 0 0 0 0 0 0 0 0
0 0 0 0 0 0 0 0 0
0 0 0 0 0 0 0 0 0
0 0 0 0 0 0 0 0 0
0 0 0 0 0 0 0 0 0
0 0 0 0 0 0 0 0 0
0 0 0 0 0 0 0 0 0
0 0 0 0 0 0 0 0 0
0 0 0 0 0 0 0 0 0
0 0 0 0 0 0 0 0 0
0 0 0 0 0 0 0 0 0
0 0 0 0 0 0 0 0 0
0 0 0 0 0 0 0 0 0
0 0 0 0 0 0 0 0 0
0 0 0 0 0 0 0 0 0
0 0 0 0 0 0 0 0 0
0 0 0 0 0 0 0 0 0
0 0 0 0 0 0 0 0 0
0 0 0 0 0 0 0 0 0
0 0 0 0 0 0 0 0 0
0 0 0 0 0 0 0 0 0
0 0 0 0 0 0 0 0 0
0 0 0 0 0 0 0 0 0
0 0 0 0 0 0 0 0 0
0 0 0 0 0 0 0 0 0
0 0 0 0 0 0 0 0 0
0 0 0 0 0 0 0 0 0
0 0 0 0 0 0 0 0 0
0 0 0 0 0 0 0 0 0
0 0 0 0 0 0 0 0 0
0 0 0 0 0 0 0 0 0
0 0 0 0 0 0 0 0 0
0 0 0 0 0 0 0 0 0
0 0 0 0 0 0 0 0 0
0 0 0 0 0 0 0 0 0
0 0 0 0 0 0 0 0 0
0 0 0 0 0 0 0 0 0
0 0 0 0 0 0 0 0 0
0 0 0 0 0 0 0 0 0
0 0 0 0 0 0 0 0 0
0 0 0 0 0 0 0 0 0
0 0 0 0 0 0 0 0 0
0 0 0 0 0 0 0 0 0
0 0 0 0 0 0 0 0 0
0 0 0 0 0 0 0 0 0
0 0 0 0 0 0 0 0 0
0 0 0 0 0 0 0 0 0
0 0 0 0 0 0 0 0 0
0 0 0 0 0 0 0 0 0
0 0 0 0 0 0 0 0 0
0 0 0 0 0 0 0 0 0
0 0 0 0 0 0 0 0 0
0 0 0 0 0 0 0 0 0
0 0 0 0 0 0 0 0 0
0 0 0 0 0 0 0 0 0
0 0 0 0 0 0 0 0 0
0 0 0 0 0 0 0 0 0
0 0 0 0 0 0 0 0 0
0 0 0 0 0 0 0 0 0
0 0 0 0 0 0 0 0 0
0 0 0 0 0 0 0 0 0
0 0 0 0 0 0 0 0 0
0 0 0 0 0 0 0 0 0
0 0 0 0 0 0 0 0 0
0 0 0 0 0 0 0 0 0
0 0 0 0 0 0 0 0 0
0 0 0 0 0 0 0 0 0
0 0 0 0 0 0 0 0 0
0 0 0 0 0 0 0 0 0
0 0 0 0 0 0 0 0 0
0 0 0 0 0 0 0 0 0
0 0 0 0 0 0 0 0 0
0 0 0 0 0 0 0 0 0
0 0 0 0 0 0 0 0 0
0 0 0 0 0 0 0 0 0
0 0 0 0 0 0 0 0 0
0 0 0 0 0 0 0 0 0
0 0 0 0 0 0 0 0 0
0 0 0 0 0 0 0 0 0
0 0 0 0 0 0 0 0 0
0 0 0 0 0 0 0 0 0
0 0 0 0 0 0 0 0 0
0 0 0 0 0 0 0 0 0
0 0 0 0 0 0 0 0 0
0 0 0 0 0 0 0 0 0
0 0 0 0 0 0 0 0 0
0 0 0 0 0 0 0 0 0
0 0 0 0 0 0 0 0 0
0 0 0 0 0 0 0 0 0
0 0 0 0 0 0 0 0 0
0 0 0 0 0 0 0 0 0
0 0 0 0 0 0 0 0 0
0 0 0 0 0 0 0 0 0
0 0 0 0 0 0 0 0 0
0 0 0 0 0 0 0 0 0
0 0 0 0 0 0 0 0 0
0 0 0 0 0 0 0 0 0
0 0 0 0 0 0 0 0 0
0 0 0 0 0 0 0 0 0
0 0 0 0 0 0 0 0 0
0 0 0 0 0 0 0 0 0
0 0 0 0 0 0 0 0 0
0 0 0 0 0 0 0 0 0
0 0 0 0 0 0 0 0 0
0 0 0 0 0 0 0 0 0
0 0 0 0 0 0 0 0 0
0 0 0 0 0 0 0 0 0
0 0 0 0 0 0 0 0 0
0 0 0 0 0 0 0 0 0
0 0 0 0 0 0 0 0 0
0 0 0 0 0 0 0 0 0
0 0 0 0 0 0 0 0 0
0 0 0 0 0 0 0 0 0
0 0 0 0 0 0 0 0 0
0 0 0 0 0 0 0 0 0
0 0 0 0 0 0 0 0 0
0 0 0 0 0 0 0 0 0
0 0 0 0 0 0 0 0 0
0 0 0 0 0 0 0 0 0
0.896762 0.919821 0.875886 0.898071 0.896762 0.919821 0.875886 0.898071 0
0.936124 0.957528 0.91374 0.934286 0.936124 0.957528 0.91374 0.934286 0
0.972454 0.991725 0.948597 0.967048 0.972454 0.991725 0.948597 0.967048 0
1.00474 1.02089 0.97949 0.994901 1.00474 1.02089 0.97949 0.994901 0
0.889373 0.915129 0.869638 0.894458 0.889373 0.915129 0.869638 0.894458 0
0.933609 0.958287 0.912249 0.935978 0.933609 0.958287 0.912249 0.935978 0
0.975769 0.99878 0.952766 0.974832 0.975769 0.99878 0.952766 0.974832 0
1.01485 1.03565 0.990229 1.01013 1.01485 1.03565 0.990229 1.01013 0
1.04973 1.06726 1.02358 1.04031 1.04973 1.06726 1.02358 1.04031 0
0.924062 0.951539 0.903974 0.930443 0.924062 0.951539 0.903974 0.930443 0
0.971291 0.997731 0.949449 0.974855 0.971291 0.997731 0.949449 0.974855 0
1.0165 1.04127 0.992867 1.0166 1.0165 1.04127 0.992867 1.0166 0
1.0586 1.08109 1.03319 1.05469 1.0586 1.08109 1.03319 1.05469 0
1.09634 1.11541 1.06925 1.08741 1.09634 1.11541 1.06925 1.08741 0
0.907941 0.937713 0.889304 0.918047 0.907941 0.937713 0.889304 0.918047 0
0.959357 0.988685 0.938919 0.967163 0.959357 0.988685 0.938919 0.967163 0
1.00981 1.03817 0.987485 1.01472 1.00981 1.03817 0.987485 1.01472 0
1.05835 1.08504 1.03406 1.05963 1.05835 1.08504 1.03406 1.05963 0
1.10376 1.12812 1.07753 1.10079 1.10376 1.12812 1.07753 1.10079 0
1.14468 1.16546 1.11657 1.13635 1.14468 1.16546 1.11657 1.13635 0
0.940509 0.972162 0.921676 0.952229 0.940509 0.972162 0.921676 0.952229 0
0.995225 1.02655 0.974461 1.00462 0.995225 1.02655 0.974461 1.00462 0
1.04918 1.07963 1.02636 1.05558 1.04918 1.07963 1.02636 1.05558 0
1.10134 1.13016 1.07639 1.10397 1.10134 1.13016 1.07639 1.10397 0
1.15041 1.17684 1.12331 1.14852 1.15041 1.17684 1.12331 1.14852 0
1.19486 1.21755 1.16567 1.18724 1.19486 1.21755 1.16567 1.18724 0
0.973369 1.00703 0.954374 0.986862 0.973369 1.00703 0.954374 0.986862 0
1.03162 1.06512 1.01056 1.04278 1.03162 1.06512 1.01056 1.04278 0
1.08937 1.1221 1.06608 1.09747 1.08937 1.1221 1.06608 1.09747 0
1.14551 1.17668 1.11988 1.14967 1.14551 1.17668 1.11988 1.14967 0
1.19863 1.22737 1.17062 1.19799 1.19863 1.22737 1.17062 1.19799 0
1.24701 1.27185 1.21667 1.24024 1.24701 1.27185 1.21667 1.24024 0
0.945016 0.98038 0.927931 0.962152 0.945016 0.98038 0.927931 0.962152 0
1.00644 1.04226 0.987333 1.02189 1.00644 1.04226 0.987333 1.02189 0
1.0685 1.10433 1.04716 1.08162 1.0685 1.10433 1.04716 1.08162 0
1.13035 1.16558 1.10661 1.14037 1.13035 1.16558 1.10661 1.14037 0
1.19086 1.22462 1.16454 1.19678 1.19086 1.22462 1.16454 1.19678 0
1.24847 1.27981 1.21951 1.24931 1.24847 1.27981 1.21951 1.24931 0
1.30128 1.32854 1.2697 1.29553 1.30128 1.32854 1.2697 1.29553 0
0.974519 1.01196 0.957508 0.993737 0.974519 1.01196 0.957508 0.993737 0
1.03962 1.07775 1.02046 1.05724 1.03962 1.07775 1.02046 1.05724 0
1.10576 1.14412 1.08421 1.12109 1.10576 1.14412 1.08421 1.12109 0
1.17207 1.21004 1.14791 1.18427 1.17207 1.21004 1.14791 1.18427 0
1.23737 1.27403 1.21039 1.24534 1.23737 1.27403 1.21039 1.24534 0
1.3 1.33426 1.27006 1.30259 1.3 1.33426 1.27006 1.30259 0
1.35781 1.38785 1.32491 1.3533 1.35781 1.38785 1.32491 1.3533 0
1.00378 1.04341 0.986924 1.02528 1.00378 1.04341 0.986924 1.02528 0
1.07278 1.11337 1.05365 1.0928 1.07278 1.11337 1.05365 1.0928 0
1.14328 1.18438 1.12159 1.16109 1.14328 1.18438 1.12159 1.16109 0
1.21443 1.25541 1.18991 1.22912 1.21443 1.25541 1.18991 1.22912 0
1.28501 1.32488 1.25738 1.29536 1.28501 1.32488 1.25738 1.29536 0
1.35324 1.3908 1.32231 1.35791 1.35324 1.3908 1.32231 1.35791 0
1.41673 1.44996 1.38244 1.41377 1.41673 1.44996 1.38244 1.41377 0
0.961981 1.00243 0.9475 0.98678 0.961981 1.00243 0.9475 0.98678 0
1.0326 1.07455 1.01602 1.05662 1.0326 1.07455 1.01602 1.05662 0
1.10573 1.14894 1.08674 1.12842 1.10573 1.14894 1.08674 1.12842 0
1.18089 1.22496 1.15918 1.20151 1.18089 1.22496 1.15918 1.20151 0
1.2573 1.30156 1.2325 1.27483 1.2573 1.30156 1.2325 1.27483 0
1.33368 1.37713 1.30547 1.34681 1.33368 1.37713 1.30547 1.34681 0
1.40817 1.44949 1.37626 1.41535 1.40817 1.44949 1.37626 1.41535 0
1.47814 1.51507 1.44239 1.47712 1.47814 1.51507 1.44239 1.47712 0
0.986418 1.02896 0.972412 1.01374 0.986418 1.02896 0.972412 1.01374 0
1.06078 1.10516 1.0446 1.08756 1.06078 1.10516 1.0446 1.08756 0
1.13824 1.18423 1.11953 1.1639 1.13824 1.18423 1.11953 1.1639 0
1.21837 1.26562 1.19676 1.24214 1.21837 1.26562 1.19676 1.24214 0
1.30044 1.34831 1.27551 1.32126 1.30044 1.34831 1.27551 1.32126 0
1.38321 1.43066 1.35452 1.39962 1.38321 1.43066 1.35452 1.39962 0
1.46473 1.51032 1.43189 1.47495 1.46473 1.51032 1.43189 1.47495 0
1.54211 1.58333 1.50488 1.54354 1.54211 1.58333 1.50488 1.54354 0
1.00982 1.05453 0.996443 1.03989 1.00982 1.05453 0.996443 1.03989 0
1.08806 1.13495 1.07243 1.11786 1.08806 1.13495 1.07243 1.11786 0
1.17002 1.21894 1.15177 1.19899 1.17002 1.21894 1.15177 1.19899 0
1.25539 1.30604 1.23408 1.28275 1.25539 1.30604 1.23408 1.28275 0
1.34354 1.39535 1.31868 1.36817 1.34354 1.39535 1.31868 1.36817 0
1.43332 1.48523 1.40433 1.45362 1.43332 1.48523 1.40433 1.45362 0
1.52273 1.57322 1.48908 1.53666 1.52273 1.57322 1.48908 1.53666 0
1.60864 1.6549 1.56993 1.61319 1.60864 1.6549 1.56993 1.61319 0
0 0 0 0 0 0 0 0 0
0 0 0 0 0 0 0 0 0
0 0 0 0 0 0 0 0 0
0 0 0 0 0 0 0 0 0
0 0 0 0 0 0 0 0 0
0 0 0 0 0 0 0 0 0
0 0 0 0 0 0 0 0 0
0 0 0 0 0 0 0 0 0
0 0 0 0 0 0 0 0 0
0 0 0 0 0 0 0 0 0
0 0 0 0 0 0 0 0 0
0 0 0 0 0 0 0 0 0
0 0 0 0 0 0 0 0 0
0 0 0 0 0 0 0 0 0
0 0 0 0 0 0 0 0 0
0 0 0 0 0 0 0 0 0
0 0 0 0 0 0 0 0 0
0 0 0 0 0 0 0 0 0
0 0 0 0 0 0 0 0 0
0 0 0 0 0 0 0 0 0
0 0 0 0 0 0 0 0 0
0 0 0 0 0 0 0 0 0
0 0 0 0 0 0 0 0 0
0 0 0 0 0 0 0 0 0
0 0 0 0 0 0 0 0 0
0 0 0 0 0 0 0 0 0
0 0 0 0 0 0 0 0 0
0 0 0 0 0 0 0 0 0
0 0 0 0 0 0 0 0 0
0 0 0 0 0 0 0 0 0
0 0 0 0 0 0 0 0 0
0 0 0 0 0 0 0 0 0
0 0 0 0 0 0 0 0 0
0 0 0 0 0 0 0 0 0
0 0 0 0 0 0 0 0 0
0 0 0 0 0 0 0 0 0
0 0 0 0 0 0 0 0 0
0 0 0 0 0 0 0 0 0
0 0 0 0 0 0 0 0 0
0 0 0 0 0 0 0 0 0
0 0 0 0 0 0 0 0 0
0 0 0 0 0 0 0 0 0
0 0 0 0 0 0 0 0 0
0 0 0 0 0 0 0 0 0
0 0 0 0 0 0 0 0 0
0 0 0 0 0 0 0 0 0
0 0 0 0 0 0 0 0 0
0 0 0 0 0 0 0 0 0
0 0 0 0 0 0 0 0 0
0 0 0 0 0 0 0 0 0
0 0 0 0 0 0 0 0 0
0 0 0 0 0 0 0 0 0
0 0 0 0 0 0 0 0 0
0 0 0 0 0 0 0 0 0
0 0 0 0 0 0 0 0 0
0 0 0 0 0 0 0 0 0
0 0 0 0 0 0 0 0 0
0 0 0 0 0 0 0 0 0
0 0 0 0 0 0 0 0 0
0 0 0 0 0 0 0 0 0
0 0 0 0 0 0 0 0 0
0 0 0 0 0 0 0 0 0
0 0 0 0 0 0 0 0 0
0 0 0 0 0 0 0 0 0
0 0 0 0 0 0 0 0 0
0 0 0 0 0 0 0 0 0
0 0 0 0 0 0 0 0 0
0 0 0 0 0 0 0 0 0
0 0 0 0 0 0 0 0 0
0 0 0 0 0 0 0 0 0
0 0 0 0 0 0 0 0 0
0 0 0 0 0 0 0 0 0
0 0 0 0 0 0 0 0 0
0 0 0 0 0 0 0 0 0
0 0 0 0 0 0 0 0 0
0 0 0 0 0 0 0 0 0
0 0 0 0 0 0 0 0 0
0 0 0 0 0 0 0 0 0
0 0 0 0 0 0 0 0 0
0 0 0 0 0 0 0 0 0
0 0 0 0 0 0 0 0 0
0 0 0 0 0 0 0 0 0
0 0 0 0 0 0 0 0 0
0 0 0 0 0 0 0 0 0
0 0 0 0 0 0 0 0 0
0 0 0 0 0 0 0 0 0
0 0 0 0 0 0 0 0 0
0 0 0 0 0 0 0 0 0
0 0 0 0 0 0 0 0 0
0 0 0 0 0 0 0 0 0
0 0 0 0 0 0 0 0 0
0 0 0 0 0 0 0 0 0
0 0 0 0 0 0 0 0 0
0 0 0 0 0 0 0 0 0
0 0 0 0 0 0 0 0 0
0 0 0 0 0 0 0 0 0
0 0 0 0 0 0 0 0 0
0 0 0 0 0 0 0 0 0
0 0 0 0 0 0 0 0 0
0 0 0 0 0 0 0 0 0
0 0 0 0 0 0 0 0 0
0 0 0 0 0 0 0 0 0
0 0 0 0 0 0 0 0 0
0 0 0 0 0 0 0 0 0
0 0 0 0 0 0 0 0 0
0 0 0 0 0 0 0 0 0
0 0 0 0 0 0 0 0 0
0 0 0 0 0 0 0 0 0
0 0 0 0 0 0 0 0 0
0 0 0 0 0 0 0 0 0
0 0 0 0 0 0 0 0 0
0 0 0 0 0 0 0 0 0
0 0 0 0 0 0 0 0 0
0 0 0 0 0 0 0 0 0
0 0 0 0 0 0 0 0 0
0 0 0 0 0 0 0 0 0
0 0 0 0 0 0 0 0 0
0 0 0 0 0 0 0 0 0
0 0 0 0 0 0 0 0 0
0 0 0 0 0 0 0 0 0
0 0 0 0 0 0 0 0 0
0 0 0 0 0 0 0 0 0
0 0 0 0 0 0 0 0 0
0 0 0 0 0 0 0 0 0
0 0 0 0 0 0 0 0 0
0 0 0 0 0 0 0 0 0
0 0 0 0 0 0 0 0 0
0 0 0 0 0 0 0 0 0
0 0 0 0 0 0 0 0 0
0 0 0 0 0 0 0 0 0
0 0 0 0 0 0 0 0 0
0 0 0 0 0 0 0 0 0
0 0 0 0 0 0 0 0 0
0 0 0 0 0 0 0 0 0
0 0 0 0 0 0 0 0 0
0 0 0 0 0 0 0 0 0
0 0 0 0 0 0 0 0 0
0 0 0 0 0 0 0 0 0
0 0 0 0 0 0 0 0 0
0 0 0 0 0 0 0 0 0
0 0 0 0 0 0 0 0 0
0 0 0 0 0 0 0 0 0
0 0 0 0 0 0 0 0 0
0 0 0 0 0 0 0 0 0
0 0 0 0 0 0 0 0 0
0 0 0 0 0 0 0 0 0
0 0 0 0 0 0 0 0 0
0 0 0 0 0 0 0 0 0
0 0 0 0 0 0 0 0 0
0 0 0 0 0 0 0 0 0
0 0 0 0 0 0 0 0 0
0 0 0 0 0 0 0 0 0
0 0 0 0 0 0 0 0 0
0 0 0 0 0 0 0 0 0
0 0 0 0 0 0 0 0 0
0 0 0 0 0 0 0 0 0
0 0 0 0 0 0 0 0 0
0 0 0 0 0 0 0 0 0
0 0 0 0 0 0 0 0 0
0 0 0 0 0 0 0 0 0
0 0 0 0 0 0 0 0 0
0 0 0 0 0 0 0 0 0
0 0 0 0 0 0 0 0 0
0 0 0 0 0 0 0 0 0
0 0 0 0 0 0 0 0 0
0 0 0 0 0 0 0 0 0
0 0 0 0 0 0 0 0 0
0 0 0 0 0 0 0 0 0
0 0 0 0 0 0 0 0 0
0 0 0 0 0 0 0 0 0
0 0 0 0 0 0 0 0 0
0 0 0 0 0 0 0 0 0
0 0 0 0 0 0 0 0 0
0 0 0 0 0 0 0 0 0
0 0 0 0 0 0 0 0 0
0 0 0 0 0 0 0 0 0
0 0 0 0 0 0 0 0 0
0 0 0 0 0 0 0 0 0
0 0 0 0 0 0 0 0 0
0 0 0 0 0 0 0 0 0
0 0 0 0 0 0 0 0 0
0 0 0 0 0 0 0 0 0
0 0 0 0 0 0 0 0 0
0 0 0 0 0 0 0 0 0
0 0 0 0 0 0 0 0 0
0 0 0 0 0 0 0 0 0
0 0 0 0 0 0 0 0 0
0 0 0 0 0 0 0 0 0
0 0 0 0 0 0 0 0 0
0 0 0 0 0 0 0 0 0
0 0 0 0 0 0 0 0 0
0 0 0 0 0 0 0 0 0
0 0 0 0 0 0 0 0 0
0 0 0 0 0 0 0 0 0
0 0 0 0 0 0 0 0 0
0 0 0 0 0 0 0 0 0
0 0 0 0 0 0 0 0 0
0 0 0 0 0 0 0 0 0
0 0 0 0 0 0 0 0 0
0 0 0 0 0 0 0 0 0
0 0 0 0 0 0 0 0 0
0 0 0 0 0 0 0 0 0
0 0 0 0 0 0 0 0 0
0 0 0 0 0 0 0 0 0
0 0 0 0 0 0 0 0 0
0 0 0 0 0 0 0 0 0
0 0 0 0 0 0 0 0 0
0 0 0 0 0 0 0 0 0
0 0 0 0 0 0 0 0 0
0 0 0 0 0 0 0 0 0
0 0 0 0 0 0 0 0 0
0 0 0 0 0 0 0 0 0
0 0 0 0 0 0 0 0 0
0 0 0 0 0 0 0 0 0
0 0 0 0 0 0 0 0 0
0 0 0 0 0 0 0 0 0
0 0 0 0 0 0 0 0 0
0 0 0 0 0 0 0 0 0
0 0 0 0 0 0 0 0 0
0 0 0 0 0 0 0 0 0
0 0 0 0 0 0 0 0 0
0 0 0 0 0 0 0 0 0
0 0 0 0 0 0 0 0 0
0 0 0 0 0 0 0 0 0
0 0 0 0 0 0 0 0 0
0 0 0 0 0 0 0 0 0
0 0 0 0 0 0 0 0 0
0 0 0 0 0 0 0 0 0
0 0 0 0 0 0 0 0 0
0 0 0 0 0 0 0 0 0
0 0 0 0 0 0 0 0 0
0 0 0 0 0 0 0 0 0
0 0 0 0 0 0 0 0 0
0 0 0 0 0 0 0 0 0
0 0 0 0 0 0 0 0 0
0 0 0 0 0 0 0 0 0
0 0 0 0 0 0 0 0 0
0 0 0 0 0 0 0 0 0
0 0 0 0 0 0 0 0 0
0 0 0 0 0 0 0 0 0
0 0 0 0 0 0 0 0 0
0 0 0 0 0 0 0 0 0
0 0 0 0 0 0 0 0 0
0 0 0 0 0 0 0 0 0
0 0 0 0 0 0 0 0 0
0 0 0 0 0 0 0 0 0
0 0 0 0 0 0 0 0 0
0 0 0 0 0 0 0 0 0
0 0 0 0 0 0 0 0 0
0 0 0 0 0 0 0 0 0
0 0 0 0 0 0 0 0 0
0 0 0 0 0 0 0 0 0
0 0 0 0 0 0 0 0 0
0 0 0 0 0 0 0 0 0
0 0 0 0 0 0 0 0 0
0 0 0 0 0 0 0 0 0
0 0 0 0 0 0 0 0 0
0 0 0 0 0 0 0 0 0
0 0 0 0 0 0 0 0 0
0 0 0 0 0 0 0 0 0
0 0 0 0 0 0 0 0 0
0 0 0 0 0 0 0 0 0
0 0 0 0 0 0 0 0 0
0 0 0 0 0 0 0 0 0
0 0 0 0 0 0 0 0 0
0 0 0 0 0 0 0 0 0
0 0 0 0 0 0 0 0 0
0 0 0 0 0 0 0 0 0
0 0 0 0 0 0 0 0 0
0 0 0 0 0 0 0 0 0
0 0 0 0 0 0 0 0 0
0 0 0 0 0 0 0 0 0
0 0 0 0 0 0 0 0 0
0 0 0 0 0 0 0 0 0
0 0 0 0 0 0 0 0 0
0 0 0 0 0 0 0 0 0
0 0 0 0 0 0 0 0 0
0 0 0 0 0 0 0 0 0
0 0 0 0 0 0 0 0 0
0 0 0 0 0 0 0 0 0
0 0 0 0 0 0 0 0 0
0 0 0 0 0 0 0 0 0
0 0 0 0 0 0 0 0 0
0 0 0 0 0 0 0 0 0
0 0 0 0 0 0 0 0 0
0 0 0 0 0 0 0 0 0
0 0 0 0 0 0 0 0 0
0 0 0 0 0 0 0 0 0
0 0 0 0 0 0 0 0 0
0 0 0 0 0 0 0 0 0
0 0 0 0 0 0 0 0 0
0 0 0 0 0 0 0 0 0
0 0 0 0 0 0 0 0 0
0 0 0 0 0 0 0 0 0
0 0 0 0 0 0 0 0 0
0 0 0 0 0 0 0 0 0
0 0 0 0 0 0 0 0 0
0 0 0 0 0 0 0 0 0
0 0 0 0 0 0 0 0 0
0 0 0 0 0 0 0 0 0
0 0 0 0 0 0 0 0 0
0 0 0 0 0 0 0 0 0
0 0 0 0 0 0 0 0 0
0 0 0 0 0 0 0 0 0
0 0 0 0 0 0 0 0 0
0 0 0 0 0 0 0 0 0
0 0 0 0 0 0 0 0 0
0 0 0 0 0 0 0 0 0
0 0 0 0 0 0 0 0 0
0 0 0 0 0 0 0 0 0
0 0 0 0 0 0 0 0 0
0 0 0 0 0 0 0 0 0
0 0 0 0 0 0 0 0 0
0 0 0 0 0 0 0 0 0
0 0 0 0 0 0 0 0 0
0 0 0 0 0 0 0 0 0
0 0 0 0 0 0 0 0 0
0 0 0 0 0 0 0 0 0
0 0 0 0 0 0 0 0 0
0 0 0 0 0 0 0 0 0
0 0 0 0 0 0 0 0 0
0 0 0 0 0 0 0 0 0
0 0 0 0 0 0 0 0 0
0 0 0 0 0 0 0 0 0
0 0 0 0 0 0 0 0 0
0 0 0 0 0 0 0 0 0
0 0 0 0 0 0 0 0 0
0 0 0 0 0 0 0 0 0
0 0 0 0 0 0 0 0 0
0 0 0 0 0 0 0 0 0
0 0 0 0 0 0 0 0 0
0 0 0 0 0 0 0 0 0
0 0 0 0 0 0 0 0 0
0 0 0 0 0 0 0 0 0
0 0 0 0 0 0 0 0 0
0 0 0 0 0 0 0 0 0
0 0 0 0 0 0 0 0 0
0 0 0 0 0 0 0 0 0
0 0 0 0 0 0 0 0 0
0 0 0 0 0 0 0 0 0
0 0 0 0 0 0 0 0 0
0 0 0 0 0 0 0 0 0
0 0 0 0 0 0 0 0 0
0 0 0 0 0 0 0 0 0
0 0 0 0 0 0 0 0 0
0 0 0 0 0 0 0 0 0
0 0 0 0 0 0 0 0 0
0 0 0 0 0 0 0 0 0
0 0 0 0 0 0 0 0 0
0 0 0 0 0 0 0 0 0
0 0 0 0 0 0 0 0 0
0 0 0 0 0 0 0 0 0
0 0 0 0 0 0 0 0 0
0 0 0 0 0 0 0 0 0
0 0 0 0 0 0 0 0 0
0 0 0 0 0 0 0 0 0
0 0 0 0 0 0 0 0 0
0 0 0 0 0 0 0 0 0
0 0 0 0 0 0 0 0 0
0 0 0 0 0 0 0 0 0
0 0 0 0 0 0 0 0 0
0 0 0 0 0 0 0 0 0
0 0 0 0 0 0 0 0 0
0 0 0 0 0 0 0 0 0
0 0 0 0 0 0 0 0 0
0 0 0 0 0 0 0 0 0
0 0 0 0 0 0 0 0 0
0 0 0 0 0 0 0 0 0
0 0 0 0 0 0 0 0 0
0 0 0 0 0 0 0 0 0
0 0 0 0 0 0 0 0 0
0 0 0 0 0 0 0 0 0
0 0 0 0 0 0 0 0 0
0 0 0 0 0 0 0 0 0
0 0 0 0 0 0 0 0 0
0 0 0 0 0 0 0 0 0
0 0 0 0 0 0 0 0 0
0 0 0 0 0 0 0 0 0
0 0 0 0 0 0 0 0 0
0 0 0 0 0 0 0 0 0
0 0 0 0 0 0 0 0 0
0 0 0 0 0 0 0 0 0
0 0 0 0 0 0 0 0 0
0 0 0 0 0 0 0 0 0
0 0 0 0 0 0 0 0 0
0 0 0 0 0 0 0 0 0
0 0 0 0 0 0 0 0 0
0 0 0 0 0 0 0 0 0
0 0 0 0 0 0 0 0 0
0 0 0 0 0 0 0 0 0
0 0 0 0 0 0 0 0 0
0 0 0 0 0 0 0 0 0
0 0 0 0 0 0 0 0 0
0 0 0 0 0 0 0 0 0
0 0 0 0 0 0 0 0 0
0 0 0 0 0 0 0 0 0
0 0 0 0 0 0 0 0 0
0 0 0 0 0 0 0 0 0
0 0 0 0 0 0 0 0 0
0 0 0 0 0 0 0 0 0
0 0 0 0 0 0 0 0 0
0 0 0 0 0 0 0 0 0
0 0 0 0 0 0 0 0 0
0 0 0 0 0 0 0 0 0
0 0 0 0 0 0 0 0 0
0 0 0 0 0 0 0 0 0
0 0 0 0 0 0 0 0 0
0 0 0 0 0 0 0 0 0
0 0 0 0 0 0 0 0 0
0 0 0 0 0 0 0 0 0
0 0 0 0 0 0 0 0 0
0 0 0 0 0 0 0 0 0
0 0 0 0 0 0 0 0 0
0 0 0 0 0 0 0 0 0
0 0 0 0 0 0 0 0 0
0 0 0 0 0 0 0 0 0
0 0 0 0 0 0 0 0 0
0 0 0 0 0 0 0 0 0
0 0 0 0 0 0 0 0 0
0 0 0 0 0 0 0 0 0
0 0 0 0 0 0 0 0 0
0 0 0 0 0 0 0 0 0
0 0 0 0 0 0 0 0 0
0 0 0 0 0 0 0 0 0
0 0 0 0 0 0 0 0 0
0 0 0 0 0 0 0 0 0
0 0 0 0 0 0 0 0 0
0 0 0 0 0 0 0 0 0
0 0 0 0 0 0 0 0 0
0 0 0 0 0 0 0 0 0
0 0 0 0 0 0 0 0 0
0 0 0 0 0 0 0 0 0
0 0 0 0 0 0 0 0 0
0 0 0 0 0 0 0 0 0
0 0 0 0 0 0 0 0 0
0 0 0 0 0 0 0 0 0
0 0 0 0 0 0 0 0 0
0 0 0 0 0 0 0 0 0
0 0 0 0 0 0 0 0 0
0 0 0 0 0 0 0 0 0
0 0 0 0 0 0 0 0 0
0 0 0 0 0 0 0 0 0
0 0 0 0 0 0 0 0 0
0 0 0 0 0 0 0 0 0
0 0 0 0 0 0 0 0 0
0 0 0 0 0 0 0 0 0
0 0 0 0 0 0 0 0 0
0 0 0 0 0 0 0 0 0
0 0 0 0 0 0 0 0 0
0 0 0 0 0 0 0 0 0
0 0 0 0 0 0 0 0 0
0 0 0 0 0 0 0 0 0
0 0 0 0 0 0 0 0 0
0 0 0 0 0 0 0 0 0
0 0 0 0 0 0 0 0 0
0 0 0 0 0 0 0 0 0
0 0 0 0 0 0 0 0 0
0 0 0 0 0 0 0 0 0
0 0 0 0 0 0 0 0 0
0 0 0 0 0 0 0 0 0
0 0 0 0 0 0 0 0 0
0 0 0 0 0 0 0 0 0
0 0 0 0 0 0 0 0 0
0 0 0 0 0 0 0 0 0
0 0 0 0 0 0 0 0 0
0 0 0 0 0 0 0 0 0
0 0 0 0 0 0 0 0 0
0 0 0 0 0 0 0 0 0
0 0 0 0 0 0 0 0 0
0 0 0 0 0 0 0 0 0
0 0 0 0 0 0 0 0 0
0 0 0 0 0 0 0 0 0
0 0 0 0 0 0 0 0 0
0 0 0 0 0 0 0 0 0
0 0 0 0 0 0 0 0 0
0 0 0 0 0 0 0 0 0
0 0 0 0 0 0 0 0 0
0 0 0 0 0 0 0 0 0
0 0 0 0 0 0 0 0 0
0 0 0 0 0 0 0 0 0
0 0 0 0 0 0 0 0 0
0 0 0 0 0 0 0 0 0
0 0 0 0 0 0 0 0 0
0 0 0 0 0 0 0 0 0
0 0 0 0 0 0 0 0 0
0 0 0 0 0 0 0 0 0
0 0 0 0 0 0 0 0 0
0 0 0 0 0 0 0 0 0
0 0 0 0 0 0 0 0 0
0 0 0 0 0 0 0 0 0
0 0 0 0 0 0 0 0 0
0 0 0 0 0 0 0 0 0
0 0 0 0 0 0 0 0 0
0 0 0 0 0 0 0 0 0
0 0 0 0 0 0 0 0 0
0 0 0 0 0 0 0 0 0
0 0 0 0 0 0 0 0 0
0 0 0 0 0 0 0 0 0
0 0 0 0 0 0 0 0 0
0 0 0 0 0 0 0 0 0
0 0 0 0 0 0 0 0 0
0 0 0 0 0 0 0 0 0
0 0 0 0 0 0 0 0 0
0 0 0 0 0 0 0 0 0
0 0 0 0 0 0 0 0 0
0 0 0 0 0 0 0 0 0
0 0 0 0 0 0 0 0 0
0 0 0 0 0 0 0 0 0
0 0 0 0 0 0 0 0 0
0 0 0 0 0 0 0 0 0
0 0 0 0 0 0 0 0 0
0 0 0 0 0 0 0 0 0
0 0 0 0 0 0 0 0 0
0 0 0 0 0 0 0 0 0
0 0 0 0 0 0 0 0 0
0 0 0 0 0 0 0 0 0
0 0 0 0 0 0 0 0 0
0 0 0 0 0 0 0 0 0
0 0 0 0 0 0 0 0 0
0 0 0 0 0 0 0 0 0
0 0 0 0 0 0 0 0 0
0 0 0 0 0 0 0 0 0
0 0 0 0 0 0 0 0 0
0 0 0 0 0 0 0 0 0
0 0 0 0 0 0 0 0 0
0 0 0 0 0 0 0 0 0
0 0 0 0 0 0 0 0 0
0 0 0 0 0 0 0 0 0
0 0 0 0 0 0 0 0 0
0 0 0 0 0 0 0 0 0
0 0 0 0 0 0 0 0 0
0 0 0 0 0 0 0 0 0
0 0 0 0 0 0 0 0 0
0 0 0 0 0 0 0 0 0
0 0 0 0 0 0 0 0 0
0 0 0 0 0 0 0 0 0
0 0 0 0 0 0 0 0 0
0 0 0 0 0 0 0 0 0
0 0 0 0 0 0 0 0 0
0.487127 0.499533 0.47553 0.48747 0.487127 0.499533 0.47553 0.48747 0
0.508312 0.519849 0.49591 0.506982 0.508312 0.519849 0.49591 0.506982 0
0.527926 0.538399 0.514725 0.524748 0.527926 0.538399 0.514725 0.524748 0
0.54538 0.553906 0.531414 0.539527 0.54538 0.553906 0.531414 0.539527 0
0.483881 0.497687 0.472868 0.486179 0.483881 0.497687 0.472868 0.486179 0
0.507609 0.520882 0.495735 0.508498 0.507609 0.520882 0.495735 0.508498 0
0.530295 0.542698 0.517538 0.529432 0.530295 0.542698 0.517538 0.529432 0
0.551398 0.562711 0.537766 0.548585 0.551398 0.562711 0.537766 0.548585 0
0.570278 0.57957 0.555807 0.56465 0.570278 0.57957 0.555807 0.56465 0
0.503273 0.517994 0.492039 0.506223 0.503273 0.517994 0.492039 0.506223 0
0.528594 0.542803 0.516425 0.530086 0.528594 0.542803 0.516425 0.530086 0
0.552904 0.566252 0.539783 0.552577 0.552904 0.566252 0.539783 0.552577 0
0.575633 0.587865 0.561557 0.573249 0.575633 0.587865 0.561557 0.573249 0
0.596082 0.606234 0.581083 0.590727 0.596082 0.606234 0.581083 0.590727 0
0.495536 0.511474 0.485029 0.500418 0.495536 0.511474 0.485029 0.500418 0
0.523062 0.538766 0.511596 0.526725 0.523062 0.538766 0.511596 0.526725 0
0.550096 0.565322 0.537627 0.552256 0.550096 0.565322 0.537627 0.552256 0
0.576171 0.590551 0.562665 0.57644 0.576171 0.590551 0.562665 0.57644 0
0.600679 0.613924 0.586128 0.598777 0.600679 0.613924 0.586128 0.598777 0
0.622864 0.633984 0.607291 0.617839 0.622864 0.633984 0.607291 0.617839 0
0.513965 0.530909 0.503298 0.519653 0.513965 0.530909 0.503298 0.519653 0
0.543253 0.560017 0.531554 0.547697 0.543253 0.560017 0.531554 0.547697 0
0.572138 0.58847 0.559354 0.575036 0.572138 0.58847 0.559354 0.575036 0
0.600136 0.615646 0.586222 0.601068 0.600136 0.615646 0.586222 0.601068 0
0.626597 0.640963 0.611535 0.625241 0.626597 0.640963 0.611535 0.625241 0
0.650702 0.662888 0.634509 0.646069 0.650702 0.662888 0.634509 0.646069 0
0.532665 0.550691 0.521842 0.539234 0.532665 0.550691 0.521842 0.539234 0
0.563851 0.581765 0.551916 0.569155 0.563851 0.581765 0.551916 0.569155 0
0.594748 0.612285 0.581632 0.598461 0.594748 0.612285 0.581632 0.598461 0
0.624846 0.6416 0.610496 0.626518 0.624846 0.6416 0.610496 0.626518 0
0.653459 0.669068 0.637842 0.652719 0.653459 0.669068 0.637842 0.652719 0
0.679695 0.693069 0.662822 0.675495 0.679695 0.693069 0.662822 0.675495 0
0.51866 0.537658 0.508788 0.527155 0.51866 0.537658 0.508788 0.527155 0
0.551639 0.570828 0.540656 0.559165 0.551639 0.570828 0.540656 0.559165 0
0.584871 0.604034 0.57269 0.59112 0.584871 0.604034 0.57269 0.59112 0
0.617957 0.636815 0.60449 0.622572 0.617957 0.636815 0.60449 0.622572 0
0.65036 0.668487 0.635538 0.652856 0.65036 0.668487 0.635538 0.652856 0
0.681354 0.698349 0.665129 0.681307 0.681354 0.698349 0.665129 0.681307 0
0.709972 0.724686 0.692341 0.706263 0.709972 0.724686 0.692341 0.706263 0
0.535866 0.556017 0.525922 0.545398 0.535866 0.556017 0.525922 0.545398 0
0.570879 0.591327 0.559744 0.579454 0.570879 0.591327 0.559744 0.579454 0
0.606329 0.626856 0.593892 0.613618 0.606329 0.626856 0.593892 0.613618 0
0.641809 0.66212 0.627965 0.647421 0.641809 0.66212 0.627965 0.647421 0
0.676755 0.696403 0.661414 0.680166 0.676755 0.696403 0.661414 0.680166 0
0.710396 0.728946 0.693494 0.711126 0.710396 0.728946 0.693494 0.711126 0
0.741693 0.757927 0.723208 0.738542 0.741693 0.757927 0.723208 0.738542 0
0.553189 0.574575 0.543178 0.56384 0.553189 0.574575 0.543178 0.56384 0
0.59039 0.612205 0.579097 0.60011 0.59039 0.612205 0.579097 0.60011 0
0.628254 0.650275 0.615543 0.636686 0.628254 0.650275 0.615543 0.636686 0
0.666364 0.688284 0.652106 0.673079 0.666364 0.688284 0.652106 0.673079 0
0.704129 0.725478 0.688209 0.708555 0.704129 0.725478 0.688209 0.708555 0
0.740733 0.761036 0.723064 0.742331 0.740733 0.761036 0.723064 0.742331 0
0.775059 0.79303 0.755598 0.772539 0.775059 0.79303 0.755598 0.772539 0
0.532307 0.554284 0.523437 0.544729 0.532307 0.554284 0.523437 0.544729 0
0.570642 0.593353 0.560553 0.582488 0.570642 0.593353 0.560553 0.582488 0
0.610197 0.633499 0.598728 0.621158 0.610197 0.633499 0.598728 0.621158 0
0.650693 0.674361 0.637679 0.660377 0.650693 0.674361 0.637679 0.660377 0
0.691708 0.715421 0.676982 0.699638 0.691708 0.715421 0.676982 0.699638 0
0.732622 0.755886 0.716038 0.73817 0.732622 0.755886 0.716038 0.73817 0
0.77257 0.794867 0.754008 0.775124 0.77257 0.794867 0.754008 0.775124 0
0.81035 0.830325 0.789741 0.808526 0.81035 0.830325 0.789741 0.808526 0
0.547728 0.570942 0.538819 0.561311 0.547728 0.570942 0.538819 0.561311 0
0.588272 0.612405 0.578073 0.601373 0.588272 0.612405 0.578073 0.601373 0
0.63036 0.65528 0.618677 0.642647 0.63036 0.65528 0.618677 0.642647 0
0.673732 0.69922 0.660359 0.684775 0.673732 0.69922 0.660359 0.684775 0
0.717968 0.743694 0.702697 0.727233 0.717968 0.743694 0.702697 0.727233 0
0.762426 0.787867 0.745059 0.769211 0.762426 0.787867 0.745059 0.769211 0
0.806186 0.830776 0.78656 0.809789 0.806186 0.830776 0.78656 0.809789 0
0.847953 0.870266 0.825959 0.84688 0.847953 0.870266 0.825959 0.84688 0
0.563306 0.587847 0.554291 0.578054 0.563306 0.587847 0.554291 0.578054 0
0.606223 0.631882 0.595818 0.620583 0.606223 0.631882 0.595818 0.620583 0
0.651034 0.677697 0.639034 0.664676 0.651034 0.677697 0.639034 0.664676 0
0.697517 0.724999 0.683693 0.710003 0.697517 0.724999 0.683693 0.710003 0
0.745304 0.773289 0.72939 0.756041 0.745304 0.773289 0.72939 0.756041 0
0.793766 0.821715 0.775484 0.801944 0.793766 0.821715 0.775484 0.801944 0
0.841932 0.869205 0.821032 0.846706 0.841932 0.869205 0.821032 0.846706 0
0.888376 0.913459 0.864688 0.888116 0.888376 0.913459 0.864688 0.888116 0
0 0 0 0 0 0 0 0 0
0 0 0 0 0 0 0 0 0
0 0 0 0 0 0 0 0 0
0 0 0 0 0 0 0 0 0
0 0 0 0 0 0 0 0 0
0 0 0 0 0 0 0 0 0
0 0 0 0 0 0 0 0 0
0 0 0 0 0 0 0 0 0
0 0 0 0 0 0 0 0 0
0 0 0 0 0 0 0 0 0
0 0 0 0 0 0 0 0 0
0 0 0 0 0 0 0 0 0
0 0 0 0 0 0 0 0 0
0 0 0 0 0 0 0 0 0
0 0 0 0 0 0 0 0 0
0 0 0 0 0 0 0 0 0
0 0 0 0 0 0 0 0 0
0 0 0 0 0 0 0 0 0
0 0 0 0 0 0 0 0 0
0 0 0 0 0 0 0 0 0
0 0 0 0 0 0 0 0 0
0 0 0 0 0 0 0 0 0
0 0 0 0 0 0 0 0 0
0 0 0 0 0 0 0 0 0
0 0 0 0 0 0 0 0 0
0 0 0 0 0 0 0 0 0
0 0 0 0 0 0 0 0 0
0 0 0 0 0 0 0 0 0
0 0 0 0 0 0 0 0 0
0 0 0 0 0 0 0 0 0
0 0 0 0 0 0 0 0 0
0 0 0 0 0 0 0 0 0
0 0 0 0 0 0 0 0 0
0 0 0 0 0 0 0 0 0
0 0 0 0 0 0 0 0 0
0 0 0 0 0 0 0 0 0
0 0 0 0 0 0 0 0 0
0 0 0 0 0 0 0 0 0
0 0 0 0 0 0 0 0 0
0 0 0 0 0 0 0 0 0
0 0 0 0 0 0 0 0 0
0 0 0 0 0 0 0 0 0
0 0 0 0 0 0 0 0 0
0 0 0 0 0 0 0 0 0
0 0 0 0 0 0 0 0 0
0 0 0 0 0 0 0 0 0
0 0 0 0 0 0 0 0 0
0 0 0 0 0 0 0 0 0
0 0 0 0 0 0 0 0 0
0 0 0 0 0 0 0 0 0
0 0 0 0 0 0 0 0 0
0 0 0 0 0 0 0 0 0
0 0 0 0 0 0 0 0 0
0 0 0 0 0 0 0 0 0
0 0 0 0 0 0 0 0 0
0 0 0 0 0 0 0 0 0
0 0 0 0 0 0 0 0 0
0 0 0 0 0 0 0 0 0
0 0 0 0 0 0 0 0 0
0 0 0 0 0 0 0 0 0
0 0 0 0 0 0 0 0 0
0 0 0 0 0 0 0 0 0
0 0 0 0 0 0 0 0 0
0 0 0 0 0 0 0 0 0
0 0 0 0 0 0 0 0 0
0 0 0 0 0 0 0 0 0
0 0 0 0 0 0 0 0 0
0 0 0 0 0 0 0 0 0
0 0 0 0 0 0 0 0 0
0 0 0 0 0 0 0 0 0
0 0 0 0 0 0 0 0 0
0 0 0 0 0 0 0 0 0
0 0 0 0 0 0 0 0 0
0 0 0 0 0 0 0 0 0
0 0 0 0 0 0 0 0 0
0 0 0 0 0 0 0 0 0
0 0 0 0 0 0 0 0 0
0.476765 0.489133 0.465632 0.477557 0.476765 0.489133 0.465632 0.477557 0
0.49792 0.509534 0.48602 0.497191 0.49792 0.509534 0.48602 0.497191 0
0.517713 0.528409 0.505048 0.51531 0.517713 0.528409 0.505048 0.51531 0
0.535603 0.544517 0.522198 0.530712 0.535603 0.544517 0.522198 0.530712 0
0.472966 0.486599 0.462381 0.475546 0.472966 0.486599 0.462381 0.475546 0
0.496424 0.509615 0.485023 0.49773 0.496424 0.509615 0.485023 0.49773 0
0.519006 0.531447 0.506765 0.518721 0.519006 0.531447 0.506765 0.518721 0
0.540223 0.551726 0.527145 0.538175 0.540223 0.551726 0.527145 0.538175 0
0.559487 0.569147 0.545601 0.554824 0.559487 0.569147 0.545601 0.554824 0
0.491603 0.506102 0.480802 0.494793 0.491603 0.506102 0.480802 0.494793 0
0.516569 0.530649 0.504883 0.518443 0.516569 0.530649 0.504883 0.518443 0
0.540694 0.554035 0.528104 0.540917 0.540694 0.554035 0.528104 0.540917 0
0.563462 0.575847 0.549961 0.561828 0.563462 0.575847 0.549961 0.561828 0
0.584234 0.594726 0.569846 0.579847 0.584234 0.594726 0.569846 0.579847 0
0.483661 0.499264 0.473542 0.488626 0.483661 0.499264 0.473542 0.488626 0
0.510627 0.526058 0.4996 0.514485 0.510627 0.526058 0.4996 0.514485 0
0.537217 0.552261 0.525239 0.539717 0.537217 0.552261 0.525239 0.539717 0
0.563016 0.577338 0.550055 0.563801 0.563016 0.577338 0.550055 0.563801 0
0.587477 0.600833 0.573521 0.586306 0.587477 0.600833 0.573521 0.586306 0
0.609916 0.621344 0.594978 0.605852 0.609916 0.621344 0.594978 0.605852 0
0.501412 0.517969 0.491134 0.507131 0.501412 0.517969 0.491134 0.507131 0
0.530048 0.546483 0.51879 0.534637 0.530048 0.546483 0.51879 0.534637 0
0.558392 0.574483 0.546107 0.561582 0.558392 0.574483 0.546107 0.561582 0
0.586013 0.601407 0.572657 0.587421 0.586013 0.601407 0.572657 0.587421 0
0.61233 0.626756 0.597883 0.611678 0.61233 0.626756 0.597883 0.611678 0
0.636606 0.649062 0.621077 0.632929 0.636606 0.649062 0.621077 0.632929 0
0.519436 0.537021 0.509 0.525983 0.519436 0.537021 0.509 0.525983 0
0.549874 0.567397 0.538382 0.555266 0.549874 0.567397 0.538382 0.555266 0
0.580122 0.597354 0.567512 0.584073 0.580122 0.597354 0.567512 0.584073 0
0.609732 0.626304 0.595952 0.611832 0.609732 0.626304 0.595952 0.611832 0
0.63809 0.653699 0.623109 0.638022 0.63809 0.653699 0.623109 0.638022 0
0.6644 0.677999 0.648221 0.661145 0.6644 0.677999 0.648221 0.661145 0
0.505657 0.524133 0.496117 0.513992 0.505657 0.524133 0.496117 0.513992 0
0.537738 0.556428 0.52714 0.545183 0.537738 0.556428 0.52714 0.545183 0
0.570119 0.588827 0.558382 0.576395 0.570119 0.588827 0.558382 0.576395 0
0.602442 0.620923 0.589487 0.607233 0.602442 0.620923 0.589487 0.607233 0
0.634233 0.652105 0.619994 0.637101 0.634233 0.652105 0.619994 0.637101 0
0.664847 0.681772 0.649279 0.665428 0.664847 0.681772 0.649279 0.665428 0
0.693423 0.708306 0.676518 0.690643 0.693423 0.708306 0.676518 0.690643 0
0.52229 0.541866 0.512673 0.531605 0.52229 0.541866 0.512673 0.531605 0
0.556312 0.576201 0.545557 0.564743 0.556312 0.576201 0.545557 0.564743 0
0.590804 0.610807 0.57881 0.598052 0.590804 0.610807 0.57881 0.598052 0
0.625399 0.645256 0.612069 0.631116 0.625399 0.645256 0.612069 0.631116 0
0.659596 0.678906 0.644849 0.663312 0.659596 0.678906 0.644849 0.663312 0
0.692714 0.711114 0.676491 0.69402 0.692714 0.711114 0.676491 0.69402 0
0.723835 0.740168 0.706108 0.721583 0.723835 0.740168 0.706108 0.721583 0
0.539049 0.559808 0.529359 0.549425 0.539049 0.559808 0.529359 0.549425 0
0.575163 0.596358 0.564247 0.584675 0.575163 0.596358 0.564247 0.584675 0
0.611958 0.633383 0.599689 0.620277 0.611958 0.633383 0.599689 0.620277 0
0.649053 0.670436 0.635312 0.655796 0.649053 0.670436 0.635312 0.655796 0
0.685921 0.706839 0.670605 0.690574 0.685921 0.706839 0.670605 0.690574 0
0.721841 0.7419 0.704871 0.723949 0.721841 0.7419 0.704871 0.723949 0
0.755831 0.773816 0.737164 0.75417 0.755831 0.773816 0.737164 0.75417 0
0.51877 0.540081 0.510169 0.530823 0.51877 0.540081 0.510169 0.530823 0
0.555944 0.577976 0.546174 0.567459 0.555944 0.577976 0.546174 0.567459 0
0.594319 0.616936 0.583222 0.605004 0.594319 0.616936 0.583222 0.605004 0
0.633632 0.656628 0.621056 0.643126 0.633632 0.656628 0.621056 0.643126 0
0.673496 0.696581 0.659288 0.681368 0.673496 0.696581 0.659288 0.681368 0
0.713352 0.736081 0.697379 0.719037 0.713352 0.736081 0.697379 0.719037 0
0.752435 0.774376 0.734591 0.755417 0.752435 0.774376 0.734591 0.755417 0
0.789691 0.809578 0.769911 0.788668 0.789691 0.809578 0.769911 0.788668 0
0.533723 0.556224 0.525081 0.546886 0.533723 0.556224 0.525081 0.546886 0
0.573024 0.596424 0.563139 0.585737 0.573024 0.596424 0.563139 0.585737 0
0.613835 0.638007 0.602522 0.62578 0.613835 0.638007 0.602522 0.62578 0
0.655908 0.680646 0.642973 0.666684 0.655908 0.680646 0.642973 0.666684 0
0.698853 0.723855 0.684099 0.707968 0.698853 0.723855 0.684099 0.707968 0
0.742082 0.766876 0.725333 0.748903 0.742082 0.766876 0.725333 0.748903 0
0.784776 0.808882 0.765886 0.788707 0.784776 0.808882 0.765886 0.788707 0
0.825798 0.847895 0.804671 0.825453 0.825798 0.847895 0.804671 0.825453 0
0.548852 0.572635 0.540091 0.563122 0.548852 0.572635 0.540091 0.563122 0
0.590443 0.615315 0.580339 0.604349 0.590443 0.615315 0.580339 0.604349 0
0.63388 0.65973 0.622237 0.647104 0.63388 0.65973 0.622237 0.647104 0
0.678946 0.705598 0.665548 0.691075 0.678946 0.705598 0.665548 0.691075 0
0.725296 0.752459 0.709893 0.735778 0.725296 0.752459 0.709893 0.735778 0
0.77235 0.799529 0.754683 0.780444 0.77235 0.799529 0.754683 0.780444 0
0.819232 0.845877 0.799074 0.824205 0.819232 0.845877 0.799074 0.824205 0
0.864679 0.889391 0.841881 0.865032 0.864679 0.889391 0.841881 0.865032 0
0 0 0 0 0 0 0 0 0
0 0 0 0 0 0 0 0 0
0 0 0 0 0 0 0 0 0
0 0 0 0 0 0 0 0 0
0 0 0 0 0 0 0 0 0
0 0 0 0 0 0 0 0 0
0 0 0 0 0 0 0 0 0
0 0 0 0 0 0 0 0 0
0 0 0 0 0 0 0 0 0
0 0 0 0 0 0 0 0 0
0 0 0 0 0 0 0 0 0
0 0 0 0 0 0 0 0 0
0 0 0 0 0 0 0 0 0
0 0 0 0 0 0 0 0 0
0 0 0 0 0 0 0 0 0
0 0 0 0 0 0 0 0 0
0 0 0 0 0 0 0 0 0
0 0 0 0 0 0 0 0 0
0 0 0 0 0 0 0 0 0
0 0 0 0 0 0 0 0 0
0 0 0 0 0 0 0 0 0
0 0 0 0 0 0 0 0 0
0 0 0 0 0 0 0 0 0
0 0 0 0 0 0 0 0 0
0 0 0 0 0 0 0 0 0
0 0 0 0 0 0 0 0 0
0 0 0 0 0 0 0 0 0
0 0 0 0 0 0 0 0 0
0 0 0 0 0 0 0 0 0
0 0 0 0 0 0 0 0 0
0 0 0 0 0 0 0 0 0
0 0 0 0 0 0 0 0 0
0 0 0 0 0 0 0 0 0
0 0 0 0 0 0 0 0 0
0 0 0 0 0 0 0 0 0
0 0 0 0 0 0 0 0 0
0 0 0 0 0 0 0 0 0
0 0 0 0 0 0 0 0 0
0 0 0 0 0 0 0 0 0
0 0 0 0 0 0 0 0 0
0 0 0 0 0 0 0 0 0
0 0 0 0 0 0 0 0 0
0 0 0 0 0 0 0 0 0
0 0 0 0 0 0 0 0 0
0 0 0 0 0 0 0 0 0
0 0 0 0 0 0 0 0 0
0 0 0 0 0 0 0 0 0
0 0 0 0 0 0 0 0 0
0 0 0 0 0 0 0 0 0
0 0 0 0 0 0 0 0 0
0 0 0 0 0 0 0 0 0
0 0 0 0 0 0 0 0 0
0 0 0 0 0 0 0 0 0
0 0 0 0 0 0 0 0 0
0 0 0 0 0 0 0 0 0
0 0 0 0 0 0 0 0 0
0 0 0 0 0 0 0 0 0
0 0 0 0 0 0 0 0 0
0 0 0 0 0 0 0 0 0
0 0 0 0 0 0 0 0 0
0 0 0 0 0 0 0 0 0
0 0 0 0 0 0 0 0 0
0 0 0 0 0 0 0 0 0
0 0 0 0 0 0 0 0 0
0 0 0 0 0 0 0 0 0
0 0 0 0 0 0 0 0 0
0 0 0 0 0 0 0 0 0
0 0 0 0 0 0 0 0 0
0 0 0 0 0 0 0 0 0
0 0 0 0 0 0 0 0 0
0 0 0 0 0 0 0 0 0
0 0 0 0 0 0 0 0 0
0 0 0 0 0 0 0 0 0
0 0 0 0 0 0 0 0 0
0 0 0 0 0 0 0 0 0
0 0 0 0 0 0 0 0 0
0 0 0 0 0 0 0 0 0
0 0 0 0 0 0 0 0 0
0 0 0 0 0 0 0 0 0
0 0 0 0 0 0 0 0 0
0 0 0 0 0 0 0 0 0
0 0 0 0 0 0 0 0 0
0 0 0 0 0 0 0 0 0
0 0 0 0 0 0 0 0 0
0 0 0 0 0 0 0 0 0
0 0 0 0 0 0 0 0 0
0 0 0 0 0 0 0 0 0
0 0 0 0 0 0 0 0 0
0 0 0 0 0 0 0 0 0
0 0 0 0 0 0 0 0 0
0 0 0 0 0 0 0 0 0
0 0 0 0 0 0 0 0 0
0 0 0 0 0 0 0 0 0
0 0 0 0 0 0 0 0 0
0 0 0 0 0 0 0 0 0
0 0 0 0 0 0 0 0 0
0 0 0 0 0 0 0 0 0
0 0 0 0 0 0 0 0 0
0 0 0 0 0 0 0 0 0
0 0 0 0 0 0 0 0 0
0 0 0 0 0 0 0 0 0
0 0 0 0 0 0 0 0 0
0 0 0 0 0 0 0 0 0
0 0 0 0 0 0 0 0 0
0 0 0 0 0 0 0 0 0
0 0 0 0 0 0 0 0 0
0 0 0 0 0 0 0 0 0
0 0 0 0 0 0 0 0 0
0 0 0 0 0 0 0 0 0
0 0 0 0 0 0 0 0 0
0 0 0 0 0 0 0 0 0
0 0 0 0 0 0 0 0 0
0 0 0 0 0 0 0 0 0
0 0 0 0 0 0 0 0 0
0 0 0 0 0 0 0 0 0
0 0 0 0 0 0 0 0 0
0 0 0 0 0 0 0 0 0
0 0 0 0 0 0 0 0 0
0 0 0 0 0 0 0 0 0
0 0 0 0 0 0 0 0 0
0 0 0 0 0 0 0 0 0
0 0 0 0 0 0 0 0 0
0 0 0 0 0 0 0 0 0
0 0 0 0 0 0 0 0 0
0 0 0 0 0 0 0 0 0
0 0 0 0 0 0 0 0 0
0 0 0 0 0 0 0 0 0
0 0 0 0 0 0 0 0 0
0 0 0 0 0 0 0 0 0
0 0 0 0 0 0 0 0 0
0 0 0 0 0 0 0 0 0
0 0 0 0 0 0 0 0 0
0 0 0 0 0 0 0 0 0
0 0 0 0 0 0 0 0 0
0 0 0 0 0 0 0 0 0
0 0 0 0 0 0 0 0 0
0 0 0 0 0 0 0 0 0
0 0 0 0 0 0 0 0 0
0 0 0 0 0 0 0 0 0
0 0 0 0 0 0 0 0 0
0 0 0 0 0 0 0 0 0
0 0 0 0 0 0 0 0 0
0 0 0 0 0 0 0 0 0
0 0 0 0 0 0 0 0 0
0 0 0 0 0 0 0 0 0
0 0 0 0 0 0 0 0 0
0 0 0 0 0 0 0 0 0
0 0 0 0 0 0 0 0 0
0 0 0 0 0 0 0 0 0
0 0 0 0 0 0 0 0 0
0 0 0 0 0 0 0 0 0
0 0 0 0 0 0 0 0 0
0 0 0 0 0 0 0 0 0
0 0 0 0 0 0 0 0 0
0 0 0 0 0 0 0 0 0
0 0 0 0 0 0 0 0 0
0 0 0 0 0 0 0 0 0
0 0 0 0 0 0 0 0 0
0 0 0 0 0 0 0 0 0
0 0 0 0 0 0 0 0 0
0 0 0 0 0 0 0 0 0
0 0 0 0 0 0 0 0 0
0 0 0 0 0 0 0 0 0
0 0 0 0 0 0 0 0 0
0 0 0 0 0 0 0 0 0
0 0 0 0 0 0 0 0 0
0 0 0 0 0 0 0 0 0
0 0 0 0 0 0 0 0 0
0 0 0 0 0 0 0 0 0
0 0 0 0 0 0 0 0 0
0 0 0 0 0 0 0 0 0
0 0 0 0 0 0 0 0 0
0 0 0 0 0 0 0 0 0
0 0 0 0 0 0 0 0 0
0 0 0 0 0 0 0 0 0
0 0 0 0 0 0 0 0 0
0 0 0 0 0 0 0 0 0
0 0 0 0 0 0 0 0 0
0 0 0 0 0 0 0 0 0
0 0 0 0 0 0 0 0 0
0 0 0 0 0 0 0 0 0
0 0 0 0 0 0 0 0 0
0 0 0 0 0 0 0 0 0
0 0 0 0 0 0 0 0 0
0 0 0 0 0 0 0 0 0
0 0 0 0 0 0 0 0 0
0 0 0 0 0 0 0 0 0
0 0 0 0 0 0 0 0 0
0 0 0 0 0 0 0 0 0
0 0 0 0 0 0 0 0 0
0 0 0 0 0 0 0 0 0
0 0 0 0 0 0 0 0 0
0 0 0 0 0 0 0 0 0
0 0 0 0 0 0 0 0 0
0 0 0 0 0 0 0 0 0
0 0 0 0 0 0 0 0 0
0 0 0 0 0 0 0 0 0
0 0 0 0 0 0 0 0 0
0 0 0 0 0 0 0 0 0
0 0 0 0 0 0 0 0 0
0 0 0 0 0 0 0 0 0
0 0 0 0 0 0 0 0 0
0 0 0 0 0 0 0 0 0
0 0 0 0 0 0 0 0 0
0 0 0 0 0 0 0 0 0
0 0 0 0 0 0 0 0 0
0 0 0 0 0 0 0 0 0
0 0 0 0 0 0 0 0 0
0 0 0 0 0 0 0 0 0
0 0 0 0 0 0 0 0 0
0 0 0 0 0 0 0 0 0
0 0 0 0 0 0 0 0 0
0 0 0 0 0 0 0 0 0
0 0 0 0 0 0 0 0 0
0 0 0 0 0 0 0 0 0
0 0 0 0 0 0 0 0 0
0 0 0 0 0 0 0 0 0
0 0 0 0 0 0 0 0 0
0 0 0 0 0 0 0 0 0
0 0 0 0 0 0 0 0 0
0 0 0 0 0 0 0 0 0
0 0 0 0 0 0 0 0 0
0 0 0 0 0 0 0 0 0
0 0 0 0 0 0 0 0 0
0 0 0 0 0 0 0 0 0
0 0 0 0 0 0 0 0 0
0 0 0 0 0 0 0 0 0
0 0 0 0 0 0 0 0 0
0 0 0 0 0 0 0 0 0
0 0 0 0 0 0 0 0 0
0 0 0 0 0 0 0 0 0
0 0 0 0 0 0 0 0 0
0 0 0 0 0 0 0 0 0
0 0 0 0 0 0 0 0 0
0 0 0 0 0 0 0 0 0
0 0 0 0 0 0 0 0 0
0 0 0 0 0 0 0 0 0
0 0 0 0 0 0 0 0 0
0 0 0 0 0 0 0 0 0
0 0 0 0 0 0 0 0 0
0 0 0 0 0 0 0 0 0
0 0 0 0 0 0 0 0 0
0 0 0 0 0 0 0 0 0
0 0 0 0 0 0 0 0 0
0 0 0 0 0 0 0 0 0
0 0 0 0 0 0 0 0 0
0 0 0 0 0 0 0 0 0
0 0 0 0 0 0 0 0 0
0 0 0 0 0 0 0 0 0
0 0 0 0 0 0 0 0 0
0 0 0 0 0 0 0 0 0
0 0 0 0 0 0 0 0 0
0 0 0 0 0 0 0 0 0
0 0 0 0 0 0 0 0 0
0 0 0 0 0 0 0 0 0
0 0 0 0 0 0 0 0 0
0 0 0 0 0 0 0 0 0
0 0 0 0 0 0 0 0 0
0 0 0 0 0 0 0 0 0
0 0 0 0 0 0 0 0 0
0 0 0 0 0 0 0 0 0
0 0 0 0 0 0 0 0 0
0 0 0 0 0 0 0 0 0
0 0 0 0 0 0 0 0 0
0 0 0 0 0 0 0 0 0
0 0 0 0 0 0 0 0 0
0 0 0 0 0 0 0 0 0
0 0 0 0 0 0 0 0 0
0 0 0 0 0 0 0 0 0
0 0 0 0 0 0 0 0 0
0 0 0 0 0 0 0 0 0
0 0 0 0 0 0 0 0 0
0 0 0 0 0 0 0 0 0
0 0 0 0 0 0 0 0 0
0 0 0 0 0 0 0 0 0
0 0 0 0 0 0 0 0 0
0 0 0 0 0 0 0 0 0
0 0 0 0 0 0 0 0 0
0 0 0 0 0 0 0 0 0
0 0 0 0 0 0 0 0 0
0 0 0 0 0 0 0 0 0
0 0 0 0 0 0 0 0 0
0 0 0 0 0 0 0 0 0
0 0 0 0 0 0 0 0 0
0 0 0 0 0 0 0 0 0
0 0 0 0 0 0 0 0 0
0 0 0 0 0 0 0 0 0
0 0 0 0 0 0 0 0 0
0 0 0 0 0 0 0 0 0
0 0 0 0 0 0 0 0 0
0 0 0 0 0 0 0 0 0
0 0 0 0 0 0 0 0 0
0 0 0 0 0 0 0 0 0
0 0 0 0 0 0 0 0 0
0 0 0 0 0 0 0 0 0
0 0 0 0 0 0 0 0 0
0 0 0 0 0 0 0 0 0
0 0 0 0 0 0 0 0 0
0 0 0 0 0 0 0 0 0
0 0 0 0 0 0 0 0 0
0 0 0 0 0 0 0 0 0
0 0 0 0 0 0 0 0 0
0 0 0 0 0 0 0 0 0
0 0 0 0 0 0 0 0 0
0 0 0 0 0 0 0 0 0
0 0 0 0 0 0 0 0 0
0 0 0 0 0 0 0 0 0
0 0 0 0 0 0 0 0 0
0 0 0 0 0 0 0 0 0
0 0 0 0 0 0 0 0 0
0 0 0 0 0 0 0 0 0
0 0 0 0 0 0 0 0 0
0 0 0 0 0 0 0 0 0
0 0 0 0 0 0 0 0 0
0 0 0 0 0 0 0 0 0
0 0 0 0 0 0 0 0 0
0 0 0 0 0 0 0 0 0
0 0 0 0 0 0 0 0 0
0 0 0 0 0 0 0 0 0
0 0 0 0 0 0 0 0 0
0 0 0 0 0 0 0 0 0
0 0 0 0 0 0 0 0 0
0 0 0 0 0 0 0 0 0
0 0 0 0 0 0 0 0 0
0 0 0 0 0 0 0 0 0
0 0 0 0 0 0 0 0 0
0 0 0 0 0 0 0 0 0
0 0 0 0 0 0 0 0 0
0 0 0 0 0 0 0 0 0
0 0 0 0 0 0 0 0 0
0 0 0 0 0 0 0 0 0
0 0 0 0 0 0 0 0 0
0 0 0 0 0 0 0 0 0
0 0 0 0 0 0 0 0 0
0 0 0 0 0 0 0 0 0
0 0 0 0 0 0 0 0 0
0 0 0 0 0 0 0 0 0
0 0 0 0 0 0 0 0 0
0 0 0 0 0 0 0 0 0
0 0 0 0 0 0 0 0 0
0 0 0 0 0 0 0 0 0
0 0 0 0 0 0 0 0 0
0 0 0 0 0 0 0 0 0
0 0 0 0 0 0 0 0 0
0 0 0 0 0 0 0 0 0
0 0 0 0 0 0 0 0 0
0 0 0 0 0 0 0 0 0
0 0 0 0 0 0 0 0 0
0 0 0 0 0 0 0 0 0
0 0 0 0 0 0 0 0 0
0 0 0 0 0 0 0 0 0
0 0 0 0 0 0 0 0 0
0 0 0 0 0 0 0 0 0
0 0 0 0 0 0 0 0 0
0 0 0 0 0 0 0 0 0
0 0 0 0 0 0 0 0 0
0 0 0 0 0 0 0 0 0
0 0 0 0 0 0 0 0 0
0 0 0 0 0 0 0 0 0
0 0 0 0 0 0 0 0 0
0 0 0 0 0 0 0 0 0
0 0 0 0 0 0 0 0 0
0 0 0 0 0 0 0 0 0
0 0 0 0 0 0 0 0 0
0 0 0 0 0 0 0 0 0
0 0 0 0 0 0 0 0 0
0 0 0 0 0 0 0 0 0
0 0 0 0 0 0 0 0 0
0 0 0 0 0 0 0 0 0
0 0 0 0 0 0 0 0 0
0 0 0 0 0 0 0 0 0
0 0 0 0 0 0 0 0 0
0 0 0 0 0 0 0 0 0
0 0 0 0 0 0 0 0 0
0 0 0 0 0 0 0 0 0
0 0 0 0 0 0 0 0 0
0 0 0 0 0 0 0 0 0
0 0 0 0 0 0 0 0 0
0 0 0 0 0 0 0 0 0
0 0 0 0 0 0 0 0 0
SCALARS tauT double 9
LOOKUP_TABLE default
0 0 0 0 0 0 0 0 0
0 0 0 0 0 0 0 0 0
0 0 0 0 0 0 0 0 0
0 0 0 0 0 0 0 0 0
0 0 0 0 0 0 0 0 0
0 0 0 0 0 0 0 0 0
0 0 0 0 0 0 0 0 0
0 0 0 0 0 0 0 0 0
0 0 0 0 0 0 0 0 0
0 0 0 0 0 0 0 0 0
0 0 0 0 0 0 0 0 0
0 0 0 0 0 0 0 0 0
0 0 0 0 0 0 0 0 0
0 0 0 0 0 0 0 0 0
0 0 0 0 0 0 0 0 0
0 0 0 0 0 0 0 0 0
0 0 0 0 0 0 0 0 0
0 0 0 0 0 0 0 0 0
0 0 0 0 0 0 0 0 0
0 0 0 0 0 0 0 0 0
0 0 0 0 0 0 0 0 0
0 0 0 0 0 0 0 0 0
0 0 0 0 0 0 0 0 0
0 0 0 0 0 0 0 0 0
0 0 0 0 0 0 0 0 0
0 0 0 0 0 0 0 0 0
0 0 0 0 0 0 0 0 0
0 0 0 0 0 0 0 0 0
0 0 0 0 0 0 0 0 0
0 0 0 0 0 0 0 0 0
0 0 0 0 0 0 0 0 0
0 0 0 0 0 0 0 0 0
0 0 0 0 0 0 0 0 0
0 0 0 0 0 0 0 0 0
0 0 0 0 0 0 0 0 0
0 0 0 0 0 0 0 0 0
0 0 0 0 0 0 0 0 0
0 0 0 0 0 0 0 0 0
0 0 0 0 0 0 0 0 0
0 0 0 0 0 0 0 0 0
0 0 0 0 0 0 0 0 0
0 0 0 0 0 0 0 0 0
0 0 0 0 0 0 0 0 0
0 0 0 0 0 0 0 0 0
0 0 0 0 0 0 0 0 0
0 0 0 0 0 0 0 0 0
0 0 0 0 0 0 0 0 0
0 0 0 0 0 0 0 0 0
0 0 0 0 0 0 0 0 0
0 0 0 0 0 0 0 0 0
0 0 0 0 0 0 0 0 0
0 0 0 0 0 0 0 0 0
0 0 0 0 0 0 0 0 0
0 0 0 0 0 0 0 0 0
0 0 0 0 0 0 0 0 0
0 0 0 0 0 0 0 0 0
0 0 0 0 0 0 0 0 0
0 0 0 0 0 0 0 0 0
0 0 0 0 0 0 0 0 0
0 0 0 0 0 0 0 0 0
0 0 0 0 0 0 0 0 0
0 0 0 0 0 0 0 0 0
0 0 0 0 0 0 0 0 0
0 0 0 0 0 0 0 0 0
0 0 0 0 0 0 0 0 0
0 0 0 0 0 0 0 0 0
0 0 0 0 0 0 0 0 0
0 0 0 0 0 0 0 0 0
0 0 0 0 0 0 0 0 0
0 0 0 0 0 0 0 0 0
0 0 0 0 0 0 0 0 0
0 0 0 0 0 0 0 0 0
0 0 0 0 0 0 0 0 0
0 0 0 0 0 0 0 0 0
0 0 0 0 0 0 0 0 0
0 0 0 0 0 0 0 0 0
0 0 0 0 0 0 0 0 0
0 0 0 0 0 0 0 0 0
0 0 0 0 0 0 0 0 0
0 0 0 0 0 0 0 0 0
0 0 0 0 0 0 0 0 0
0 0 0 0 0 0 0 0 0
0 0 0 0 0 0 0 0 0
0 0 0 0 0 0 0 0 0
0 0 0 0 0 0 0 0 0
0 0 0 0 0 0 0 0 0
0 0 0 0 0 0 0 0 0
0 0 0 0 0 0 0 0 0
0 0 0 0 0 0 0 0 0
0 0 0 0 0 0 0 0 0
0 0 0 0 0 0 0 0 0
0 0 0 0 0 0 0 0 0
0 0 0 0 0 0 0 0 0
0 0 0 0 0 0 0 0 0
0 0 0 0 0 0 0 0 0
0 0 0 0 0 0 0 0 0
0 0 0 0 0 0 0 0 0
0 0 0 0 0 0 0 0 0
0 0 0 0 0 0 0 0 0
0 0 0 0 0 0 0 0 0
0 0 0 0 0 0 0 0 0
0 0 0 0 0 0 0 0 0
0 0 0 0 0 0 0 0 0
0 0 0 0 0 0 0 0 0
0 0 0 0 0 0 0 0 0
0 0 0 0 0 0 0 0 0
0 0 0 0 0 0 0 0 0
0 0 0 0 0 0 0 0 0
0 0 0 0 0 0 0 0 0
0 0 0 0 0 0 0 0 0
0 0 0 0 0 0 0 0 0
0 0 0 0 0 0 0 0 0
0 0 0 0 0 0 0 0 0
0 0 0 0 0 0 0 0 0
0 0 0 0 0 0 0 0 0
0 0 0 0 0 0 0 0 0
0 0 0 0 0 0 0 0 0
0 0 0 0 0 0 0 0 0
0 0 0 0 0 0 0 0 0
0 0 0 0 0 0 0 0 0
0 0 0 0 0 0 0 0 0
0 0 0 0 0 0 0 0 0
0 0 0 0 0 0 0 0 0
0 0 0 0 0 0 0 0 0
0 0 0 0 0 0 0 0 0
0 0 0 0 0 0 0 0 0
0 0 0 0 0 0 0 0 0
0 0 0 0 0 0 0 0 0
0 0 0 0 0 0 0 0 0
0 0 0 0 0 0 0 0 0
0 0 0 0 0 0 0 0 0
0 0 0 0 0 0 0 0 0
0 0 0 0 0 0 0 0 0
0 0 0 0 0 0 0 0 0
0 0 0 0 0 0 0 0 0
0 0 0 0 0 0 0 0 0
0 0 0 0 0 0 0 0 0
0 0 0 0 0 0 0 0 0
0 0 0 0 0 0 0 0 0
0 0 0 0 0 0 0 0 0
0 0 0 0 0 0 0 0 0
0 0 0 0 0 0 0 0 0
0 0 0 0 0 0 0 0 0
0 0 0 0 0 0 0 0 0
0 0 0 0 0 0 0 0 0
0 0 0 0 0 0 0 0 0
0 0 0 0 0 0 0 0 0
0 0 0 0 0 0 0 0 0
0 0 0 0 0 0 0 0 0
0 0 0 0 0 0 0 0 0
0.349568 0.370234 0.356656 0.377061 0.349568 0.370234 0.356656 0.377061 0
0.386149 0.409019 0.39275 0.415266 0.386149 0.409019 0.39275 0.415266 0
0.426385 0.451029 0.432339 0.456537 0.426385 0.451029 0.432339 0.456537 0
0.302625 0.321823 0.310574 0.32959 0.302625 0.321823 0.310574 0.32959 0
0.33657 0.357707 0.34417 0.365032 0.33657 0.357707 0.34417 0.365032 0
0.374025 0.397529 0.381115 0.40425 0.374025 0.397529 0.381115 0.40425 0
0.415416 0.440855 0.421835 0.446811 0.415416 0.440855 0.421835 0.446811 0
0.288086 0.307599 0.296583 0.315913 0.288086 0.307599 0.296583 0.315913 0
0.322634 0.344241 0.330782 0.352119 0.322634 0.344241 0.330782 0.352119 0
0.360974 0.385137 0.368612 0.39239 0.360974 0.385137 0.368612 0.39239 0
0.403575 0.429856 0.410507 0.436295 0.403575 0.429856 0.410507 0.436295 0
0.241094 0.258797 0.250369 0.267992 0.241094 0.258797 0.250369 0.267992 0
0.27252 0.292344 0.281621 0.301266 0.27252 0.292344 0.281621 0.301266 0
0.307666 0.329746 0.316422 0.338228 0.307666 0.329746 0.316422 0.338228 0
0.346902 0.371748 0.355139 0.379588 0.346902 0.371748 0.355139 0.379588 0
0.390764 0.41794 0.398268 0.42492 0.390764 0.41794 0.398268 0.42492 0
0.440203 0.473937 0.44674 0.479784 0.440203 0.473937 0.44674 0.479784 0
0.224184 0.242008 0.23406 0.251816 0.224184 0.242008 0.23406 0.251816 0
0.255877 0.27598 0.265603 0.28555 0.255877 0.27598 0.265603 0.28555 0
0.291574 0.31412 0.300989 0.323267 0.291574 0.31412 0.300989 0.323267 0
0.331706 0.357257 0.340604 0.365745 0.331706 0.357257 0.340604 0.365745 0
0.376877 0.404996 0.385014 0.412583 0.376877 0.404996 0.385014 0.412583 0
0.428076 0.463099 0.435184 0.469447 0.428076 0.463099 0.435184 0.469447 0
0.206176 0.224079 0.216694 0.234556 0.206176 0.224079 0.216694 0.234556 0
0.238066 0.258408 0.248479 0.268687 0.238066 0.258408 0.248479 0.268687 0
0.274257 0.297254 0.284391 0.30713 0.274257 0.297254 0.284391 0.30713 0
0.315269 0.341542 0.324897 0.350751 0.315269 0.341542 0.324897 0.350751 0
0.361792 0.39091 0.370635 0.399169 0.361792 0.39091 0.370635 0.399169 0
0.414865 0.451279 0.422613 0.458211 0.414865 0.451279 0.422613 0.458211 0
0.158989 0.174686 0.170112 0.185876 0.158989 0.174686 0.170112 0.185876 0
0.186988 0.204925 0.198197 0.216119 0.186988 0.204925 0.198197 0.216119 0
0.218994 0.239528 0.230145 0.250574 0.218994 0.239528 0.230145 0.250574 0
0.255602 0.279022 0.266521 0.289701 0.255602 0.279022 0.266521 0.289701 0
0.297458 0.324459 0.307895 0.334475 0.297458 0.324459 0.307895 0.334475 0
0.345364 0.375543 0.355 0.384558 0.345364 0.375543 0.355 0.384558 0
0.400437 0.438351 0.408903 0.445937 0.400437 0.438351 0.408903 0.445937 0
0.138815 0.154352 0.150583 0.166219 0.138815 0.154352 0.150583 0.166219 0
0.166579 0.184473 0.178495 0.196424 0.166579 0.184473 0.178495 0.196424 0
0.198572 0.219232 0.210513 0.231108 0.198572 0.219232 0.210513 0.231108 0
0.235489 0.259285 0.247265 0.270849 0.235489 0.259285 0.247265 0.270849 0
0.278124 0.305847 0.289459 0.316765 0.278124 0.305847 0.289459 0.316765 0
0.327423 0.358713 0.337953 0.368595 0.327423 0.358713 0.337953 0.368595 0
0.384613 0.424164 0.393907 0.432495 0.384613 0.424164 0.393907 0.432495 0
0.117493 0.13279 0.129928 0.145374 0.117493 0.13279 0.129928 0.145374 0
0.144881 0.162643 0.157551 0.175398 0.144881 0.162643 0.157551 0.175398 0
0.176709 0.197408 0.189492 0.210179 0.176709 0.197408 0.189492 0.210179 0
0.213793 0.237894 0.226498 0.250431 0.213793 0.237894 0.226498 0.250431 0
0.257099 0.285515 0.26943 0.297449 0.257099 0.285515 0.26943 0.297449 0
0.30777 0.340217 0.319313 0.351085 0.30777 0.340217 0.319313 0.351085 0
0.367193 0.408523 0.377433 0.417718 0.367193 0.408523 0.377433 0.417718 0
0.0719566 0.0848048 0.0846895 0.0977729 0.0719566 0.0848048 0.0846895 0.0977729 0
0.0949804 0.109951 0.108107 0.123276 0.0949804 0.109951 0.108107 0.123276 0
0.121837 0.139363 0.135289 0.152964 0.121837 0.139363 0.135289 0.152964 0
0.153318 0.173947 0.166993 0.187676 0.153318 0.173947 0.166993 0.187676 0
0.19038 0.214685 0.204091 0.228291 0.19038 0.214685 0.204091 0.228291 0
0.234197 0.263247 0.247634 0.276325 0.234197 0.263247 0.247634 0.276325 0
0.286169 0.319803 0.298864 0.33181 0.286169 0.319803 0.298864 0.33181 0
0.347922 0.391185 0.359262 0.40139 0.347922 0.391185 0.359262 0.40139 0
0.0490597 0.061436 0.0623889 0.0750468 0.0490597 0.061436 0.0623889 0.0750468 0
0.0712784 0.0858103 0.0850901 0.099889 0.0712784 0.0858103 0.0850901 0.099889 0
0.0974053 0.114574 0.111663 0.129052 0.0974053 0.114574 0.111663 0.129052 0
0.128323 0.148744 0.142932 0.16349 0.128323 0.148744 0.142932 0.16349 0
0.165125 0.189493 0.179914 0.204263 0.165125 0.189493 0.179914 0.204263 0
0.209221 0.238794 0.223879 0.253164 0.209221 0.238794 0.223879 0.253164 0
0.262343 0.29716 0.276357 0.310492 0.262343 0.29716 0.276357 0.310492 0
0.326481 0.371842 0.339113 0.383242 0.326481 0.371842 0.339113 0.383242 0
0.0251384 0.0369236 0.0390573 0.0511989 0.0251384 0.0369236 0.0390573 0.0511989 0
0.0463513 0.0603413 0.0608758 0.07519 0.0463513 0.0603413 0.0608758 0.07519 0
0.071556 0.088227 0.0866349 0.10361 0.071556 0.088227 0.0866349 0.10361 0
0.101655 0.121698 0.117238 0.137519 0.101655 0.121698 0.117238 0.137519 0
0.137892 0.162128 0.153839 0.178176 0.137892 0.162128 0.153839 0.178176 0
0.181939 0.21187 0.197957 0.227702 0.181939 0.21187 0.197957 0.227702 0
0.235956 0.271882 0.25149 0.286786 0.235956 0.271882 0.25149 0.286786 0
0.302437 0.350054 0.316627 0.362922 0.302437 0.350054 0.316627 0.362922 0
0 0 0 0 0 0 0 0 0
0 0 0 0 0 0 0 0 0
0 0 0 0 0 0 0 0 0
0 0 0 0 0 0 0 0 0
0 0 0 0 0 0 0 0 0
0 0 0 0 0 0 0 0 0
0 0 0 0 0 0 0 0 0
0 0 0 0 0 0 0 0 0
0 0 0 0 0 0 0 0 0
0 0 0 0 0 0 0 0 0
0 0 0 0 0 0 0 0 0
0 0 0 0 0 0 0 0 0
0 0 0 0 0 0 0 0 0
0 0 0 0 0 0 0 0 0
0 0 0 0 0 0 0 0 0
0 0 0 0 0 0 0 0 0
0 0 0 0 0 0 0 0 0
0 0 0 0 0 0 0 0 0
0 0 0 0 0 0 0 0 0
0 0 0 0 0 0 0 0 0
0 0 0 0 0 0 0 0 0
0 0 0 0 0 0 0 0 0
0 0 0 0 0 0 0 0 0
0 0 0 0 0 0 0 0 0
0 0 0 0 0 0 0 0 0
0 0 0 0 0 0 0 0 0
0 0 0 0 0 0 0 0 0
0 0 0 0 0 0 0 0 0
0 0 0 0 0 0 0 0 0
0 0 0 0 0 0 0 0 0
0 0 0 0 0 0 0 0 0
0 0 0 0 0 0 0 0 0
0 0 0 0 0 0 0 0 0
0 0 0 0 0 0 0 0 0
0 0 0 0 0 0 0 0 0
0 0 0 0 0 0 0 0 0
0 0 0 0 0 0 0 0 0
0 0 0 0 0 0 0 0 0
0 0 0 0 0 0 0 0 0
0 0 0 0 0 0 0 0 0
0 0 0 0 0 0 0 0 0
0 0 0 0 0 0 0 0 0
0 0 0 0 0 0 0 0 0
0 0 0 0 0 0 0 0 0
0 0 0 0 0 0 0 0 0
0 0 0 0 0 0 0 0 0
0 0 0 0 0 0 0 0 0
0 0 0 0 0 0 0 0 0
0 0 0 0 0 0 0 0 0
0 0 0 0 0 0 0 0 0
0 0 0 0 0 0 0 0 0
0 0 0 0 0 0 0 0 0
0 0 0 0 0 0 0 0 0
0 0 0 0 0 0 0 0 0
0 0 0 0 0 0 0 0 0
0 0 0 0 0 0 0 0 0
0 0 0 0 0 0 0 0 0
0 0 0 0 0 0 0 0 0
0 0 0 0 0 0 0 0 0
0 0 0 0 0 0 0 0 0
0 0 0 0 0 0 0 0 0
0 0 0 0 0 0 0 0 0
0 0 0 0 0 0 0 0 0
0 0 0 0 0 0 0 0 0
0 0 0 0 0 0 0 0 0
0 0 0 0 0 0 0 0 0
0 0 0 0 0 0 0 0 0
0 0 0 0 0 0 0 0 0
0 0 0 0 0 0 0 0 0
0 0 0 0 0 0 0 0 0
0 0 0 0 0 0 0 0 0
0 0 0 0 0 0 0 0 0
0 0 0 0 0 0 0 0 0
0 0 0 0 0 0 0 0 0
0 0 0 0 0 0 0 0 0
0 0 0 0 0 0 0 0 0
0 0 0 0 0 0 0 0 0
0 0 0 0 0 0 0 0 0
0 0 0 0 0 0 0 0 0
0 0 0 0 0 0 0 0 0
0 0 0 0 0 0 0 0 0
0 0 0 0 0 0 0 0 0
0 0 0 0 0 0 0 0 0
0 0 0 0 0 0 0 0 0
0 0 0 0 0 0 0 0 0
0 0 0 0 0 0 0 0 0
0 0 0 0 0 0 0 0 0
0 0 0 0 0 0 0 0 0
0 0 0 0 0 0 0 0 0
0 0 0 0 0 0 0 0 0
0 0 0 0 0 0 0 0 0
0 0 0 0 0 0 0 0 0
0 0 0 0 0 0 0 0 0
0 0 0 0 0 0 0 0 0
0 0 0 0 0 0 0 0 0
0 0 0 0 0 0 0 0 0
0 0 0 0 0 0 0 0 0
0 0 0 0 0 0 0 0 0
0 0 0 0 0 0 0 0 0
0 0 0 0 0 0 0 0 0
0 0 0 0 0 0 0 0 0
0 0 0 0 0 0 0 0 0
0 0 0 0 0 0 0 0 0
0 0 0 0 0 0 0 0 0
0 0 0 0 0 0 0 0 0
0 0 0 0 0 0 0 0 0
0 0 0 0 0 0 0 0 0
0 0 0 0 0 0 0 0 0
0 0 0 0 0 0 0 0 0
0 0 0 0 0 0 0 0 0
0 0 0 0 0 0 0 0 0
0 0 0 0 0 0 0 0 0
0 0 0 0 0 0 0 0 0
0 0 0 0 0 0 0 0 0
0 0 0 0 0 0 0 0 0
0 0 0 0 0 0 0 0 0
0 0 0 0 0 0 0 0 0
0 0 0 0 0 0 0 0 0
0 0 0 0 0 0 0 0 0
0 0 0 0 0 0 0 0 0
0 0 0 0 0 0 0 0 0
0 0 0 0 0 0 0 0 0
0 0 0 0 0 0 0 0 0
0 0 0 0 0 0 0 0 0
0 0 0 0 0 0 0 0 0
0 0 0 0 0 0 0 0 0
0 0 0 0 0 0 0 0 0
0 0 0 0 0 0 0 0 0
0 0 0 0 0 0 0 0 0
0 0 0 0 0 0 0 0 0
0 0 0 0 0 0 0 0 0
0 0 0 0 0 0 0 0 0
0 0 0 0 0 0 0 0 0
0 0 0 0 0 0 0 0 0
0 0 0 0 0 0 0 0 0
0 0 0 0 0 0 0 0 0
0 0 0 0 0 0 0 0 0
0 0 0 0 0 0 0 0 0
0 0 0 0 0 0 0 0 0
0 0 0 0 0 0 0 0 0
0 0 0 0 0 0 0 0 0
0 0 0 0 0 0 0 0 0
0 0 0 0 0 0 0 0 0
0 0 0 0 0 0 0 0 0
0 0 0 0 0 0 0 0 0
0 0 0 0 0 0 0 0 0
0 0 0 0 0 0 0 0 0
0 0 0 0 0 0 0 0 0
0 0 0 0 0 0 0 0 0
0 0 0 0 0 0 0 0 0
0 0 0 0 0 0 0 0 0
0 0 0 0 0 0 0 0 0
0 0 0 0 0 0 0 0 0
0 0 0 0 0 0 0 0 0
0 0 0 0 0 0 0 0 0
0 0 0 0 0 0 0 0 0
0 0 0 0 0 0 0 0 0
0 0 0 0 0 0 0 0 0
0 0 0 0 0 0 0 0 0
0 0 0 0 0 0 0 0 0
0 0 0 0 0 0 0 0 0
0 0 0 0 0 0 0 0 0
0 0 0 0 0 0 0 0 0
0 0 0 0 0 0 0 0 0
0 0 0 0 0 0 0 0 0
0 0 0 0 0 0 0 0 0
0 0 0 0 0 0 0 0 0
0 0 0 0 0 0 0 0 0
0 0 0 0 0 0 0 0 0
0 0 0 0 0 0 0 0 0
0 0 0 0 0 0 0 0 0
0 0 0 0 0 0 0 0 0
0 0 0 0 0 0 0 0 0
0 0 0 0 0 0 0 0 0
0 0 0 0 0 0 0 0 0
0 0 0 0 0 0 0 0 0
0 0 0 0 0 0 0 0 0
0 0 0 0 0 0 0 0 0
0 0 0 0 0 0 0 0 0
0 0 0 0 0 0 0 0 0
0 0 0 0 0 0 0 0 0
0 0 0 0 0 0 0 0 0
0 0 0 0 0 0 0 0 0
0 0 0 0 0 0 0 0 0
0 0 0 0 0 0 0 0 0
0 0 0 0 0 0 0 0 0
0 0 0 0 0 0 0 0 0
0 0 0 0 0 0 0 0 0
0 0 0 0 0 0 0 0 0
0 0 0 0 0 0 0 0 0
0 0 0 0 0 0 0 0 0
0 0 0 0 0 0 0 0 0
0 0 0 0 0 0 0 0 0
0 0 0 0 0 0 0 0 0
0 0 0 0 0 0 0 0 0
0 0 0 0 0 0 0 0 0
0 0 0 0 0 0 0 0 0
0 0 0 0 0 0 0 0 0
0 0 0 0 0 0 0 0 0
0 0 0 0 0 0 0 0 0
0 0 0 0 0 0 0 0 0
0 0 0 0 0 0 0 0 0
0 0 0 0 0 0 0 0 0
0 0 0 0 0 0 0 0 0
0 0 0 0 0 0 0 0 0
0 0 0 0 0 0 0 0 0
0 0 0 0 0 0 0 0 0
0 0 0 0 0 0 0 0 0
0 0 0 0 0 0 0 0 0
0 0 0 0 0 0 0 0 0
0 0 0 0 0 0 0 0 0
0 0 0 0 0 0 0 0 0
0 0 0 0 0 0 0 0 0
0 0 0 0 0 0 0 0 0
0 0 0 0 0 0 0 0 0
0 0 0 0 0 0 0 0 0
0 0 0 0 0 0 0 0 0
0 0 0 0 0 0 0 0 0
0 0 0 0 0 0 0 0 0
0 0 0 0 0 0 0 0 0
0 0 0 0 0 0 0 0 0
0 0 0 0 0 0 0 0 0
0 0 0 0 0 0 0 0 0
0 0 0 0 0 0 0 0 0
0 0 0 0 0 0 0 0 0
0 0 0 0 0 0 0 0 0
0 0 0 0 0 0 0 0 0
0 0 0 0 0 0 0 0 0
0 0 0 0 0 0 0 0 0
0 0 0 0 0 0 0 0 0
0 0 0 0 0 0 0 0 0
0 0 0 0 0 0 0 0 0
0 0 0 0 0 0 0 0 0
0 0 0 0 0 0 0 0 0
0 0 0 0 0 0 0 0 0
0 0 0 0 0 0 0 0 0
0 0 0 0 0 0 0 0 0
0 0 0 0 0 0 0 0 0
0 0 0 0 0 0 0 0 0
0 0 0 0 0 0 0 0 0
0 0 0 0 0 0 0 0 0
0 0 0 0 0 0 0 0 0
0 0 0 0 0 0 0 0 0
0 0 0 0 0 0 0 0 0
0 0 0 0 0 0 0 0 0
0 0 0 0 0 0 0 0 0
0 0 0 0 0 0 0 0 0
0 0 0 0 0 0 0 0 0
0 0 0 0 0 0 0 0 0
0 0 0 0 0 0 0 0 0
0 0 0 0 0 0 0 0 0
0 0 0 0 0 0 0 0 0
0 0 0 0 0 0 0 0 0
0 0 0 0 0 0 0 0 0
0 0 0 0 0 0 0 0 0
0 0 0 0 0 0 0 0 0
0 0 0 0 0 0 0 0 0
0 0 0 0 0 0 0 0 0
0 0 0 0 0 0 0 0 0
0 0 0 0 0 0 0 0 0
0 0 0 0 0 0 0 0 0
0 0 0 0 0 0 0 0 0
0 0 0 0 0 0 0 0 0
0 0 0 0 0 0 0 0 0
0 0 0 0 0 0 0 0 0
0 0 0 0 0 0 0 0 0
0 0 0 0 0 0 0 0 0
0 0 0 0 0 0 0 0 0
0 0 0 0 0 0 0 0 0
0 0 0 0 0 0 0 0 0
0 0 0 0 0 0 0 0 0
0 0 0 0 0 0 0 0 0
0 0 0 0 0 0 0 0 0
0 0 0 0 0 0 0 0 0
0 0 0 0 0 0 0 0 0
0 0 0 0 0 0 0 0 0
0 0 0 0 0 0 0 0 0
0 0 0 0 0 0 0 0 0
0 0 0 0 0 0 0 0 0
0 0 0 0 0 0 0 0 0
0 0 0 0 0 0 0 0 0
0 0 0 0 0 0 0 0 0
0 0 0 0 0 0 0 0 0
0 0 0 0 0 0 0 0 0
0 0 0 0 0 0 0 0 0
0 0 0 0 0 0 0 0 0
0 0 0 0 0 0 0 0 0
0 0 0 0 0 0 0 0 0
0 0 0 0 0 0 0 0 0
0 0 0 0 0 0 0 0 0
0 0 0 0 0 0 0 0 0
0 0 0 0 0 0 0 0 0
0 0 0 0 0 0 0 0 0
0 0 0 0 0 0 0 0 0
0 0 0 0 0 0 0 0 0
0 0 0 0 0 0 0 0 0
0 0 0 0 0 0 0 0 0
0 0 0 0 0 0 0 0 0
0 0 0 0 0 0 0 0 0
0 0 0 0 0 0 0 0 0
0 0 0 0 0 0 0 0 0
0 0 0 0 0 0 0 0 0
0 0 0 0 0 0 0 0 0
0 0 0 0 0 0 0 0 0
0 0 0 0 0 0 0 0 0
0 0 0 0 0 0 0 0 0
0 0 0 0 0 0 0 0 0
0 0 0 0 0 0 0 0 0
0 0 0 0 0 0 0 0 0
0 0 0 0 0 0 0 0 0
0 0 0 0 0 0 0 0 0
0 0 0 0 0 0 0 0 0
0 0 0 0 0 0 0 0 0
0 0 0 0 0 0 0 0 0
0 0 0 0 0 0 0 0 0
0 0 0 0 0 0 0 0 0
0 0 0 0 0 0 0 0 0
0 0 0 0 0 0 0 0 0
0 0 0 0 0 0 0 0 0
0 0 0 0 0 0 0 0 0
0 0 0 0 0 0 0 0 0
0 0 0 0 0 0 0 0 0
0 0 0 0 0 0 0 0 0
0 0 0 0 0 0 0 0 0
0 0 0 0 0 0 0 0 0
0 0 0 0 0 0 0 0 0
0 0 0 0 0 0 0 0 0
0 0 0 0 0 0 0 0 0
0 0 0 0 0 0 0 0 0
0 0 0 0 0 0 0 0 0
0 0 0 0 0 0 0 0 0
0 0 0 0 0 0 0 0 0
0 0 0 0 0 0 0 0 0
0 0 0 0 0 0 0 0 0
0 0 0 0 0 0 0 0 0
0 0 0 0 0 0 0 0 0
0 0 0 0 0 0 0 0 0
0 0 0 0 0 0 0 0 0
0 0 0 0 0 0 0 0 0
0 0 0 0 0 0 0 0 0
0 0 0 0 0 0 0 0 0
0 0 0 0 0 0 0 0 0
0 0 0 0 0 0 0 0 0
0 0 0 0 0 0 0 0 0
0 0 0 0 0 0 0 0 0
0 0 0 0 0 0 0 0 0
0 0 0 0 0 0 0 0 0
0 0 0 0 0 0 0 0 0
0 0 0 0 0 0 0 0 0
0 0 0 0 0 0 0 0 0
0 0 0 0 0 0 0 0 0
0 0 0 0 0 0 0 0 0
0 0 0 0 0 0 0 0 0
0 0 0 0 0 0 0 0 0
0 0 0 0 0 0 0 0 0
0 0 0 0 0 0 0 0 0
0 0 0 0 0 0 0 0 0
0 0 0 0 0 0 0 0 0
0 0 0 0 0 0 0 0 0
0 0 0 0 0 0 0 0 0
0 0 0 0 0 0 0 0 0
0 0 0 0 0 0 0 0 0
0 0 0 0 0 0 0 0 0
0 0 0 0 0 0 0 0 0
0 0 0 0 0 0 0 0 0
0 0 0 0 0 0 0 0 0
0 0 0 0 0 0 0 0 0
0 0 0 0 0 0 0 0 0
0 0 0 0 0 0 0 0 0
0 0 0 0 0 0 0 0 0
0 0 0 0 0 0 0 0 0
0 0 0 0 0 0 0 0 0
0 0 0 0 0 0 0 0 0
0 0 0 0 0 0 0 0 0
0 0 0 0 0 0 0 0 0
0 0 0 0 0 0 0 0 0
0 0 0 0 0 0 0 0 0
0 0 0 0 0 0 0 0 0
0 0 0 0 0 0 0 0 0
0 0 0 0 0 0 0 0 0
0 0 0 0 0 0 0 0 0
0 0 0 0 0 0 0 0 0
0 0 0 0 0 0 0 0 0
0 0 0 0 0 0 0 0 0
0 0 0 0 0 0 0 0 0
0 0 0 0 0 0 0 0 0
0 0 0 0 0 0 0 0 0
0 0 0 0 0 0 0 0 0
0 0 0 0 0 0 0 0 0
0 0 0 0 0 0 0 0 0
0 0 0 0 0 0 0 0 0
0 0 0 0 0 0 0 0 0
0 0 0 0 0 0 0 0 0
0 0 0 0 0 0 0 0 0
0 0 0 0 0 0 0 0 0
0 0 0 0 0 0 0 0 0
0 0 0 0 0 0 0 0 0
0 0 0 0 0 0 0 0 0
0 0 0 0 0 0 0 0 0
0 0 0 0 0 0 0 0 0
0 0 0 0 0 0 0 0 0
0 0 0 0 0 0 0 0 0
0 0 0 0 0 0 0 0 0
0 0 0 0 0 0 0 0 0
0 0 0 0 0 0 0 0 0
0 0 0 0 0 0 0 0 0
0 0 0 0 0 0 0 0 0
0 0 0 0 0 0 0 0 0
0 0 0 0 0 0 0 0 0
0 0 0 0 0 0 0 0 0
0 0 0 0 0 0 0 0 0
0 0 0 0 0 0 0 0 0
0 0 0 0 0 0 0 0 0
0 0 0 0 0 0 0 0 0
0 0 0 0 0 0 0 0 0
0 0 0 0 0 0 0 0 0
0 0 0 0 0 0 0 0 0
0 0 0 0 0 0 0 0 0
0 0 0 0 0 0 0 0 0
0 0 0 0 0 0 0 0 0
0 0 0 0 0 0 0 0 0
0 0 0 0 0 0 0 0 0
0 0 0 0 0 0 0 0 0
0 0 0 0 0 0 0 0 0
0 0 0 0 0 0 0 0 0
0 0 0 0 0 0 0 0 0
0 0 0 0 0 0 0 0 0
0 0 0 0 0 0 0 0 0
0 0 0 0 0 0 0 0 0
0 0 0 0 0 0 0 0 0
0 0 0 0 0 0 0 0 0
0 0 0 0 0 0 0 0 0
0 0 0 0 0 0 0 0 0
0 0 0 0 0 0 0 0 0
0 0 0 0 0 0 0 0 0
0 0 0 0 0 0 0 0 0
0 0 0 0 0 0 0 0 0
0 0 0 0 0 0 0 0 0
0 0 0 0 0 0 0 0 0
0 0 0 0 0 0 0 0 0
0 0 0 0 0 0 0 0 0
0 0 0 0 0 0 0 0 0
0 0 0 0 0 0 0 0 0
0 0 0 0 0 0 0 0 0
0 0 0 0 0 0 0 0 0
0 0 0 0 0 0 0 0 0
0 0 0 0 0 0 0 0 0
0 0 0 0 0 0 0 0 0
0 0 0 0 0 0 0 0 0
0 0 0 0 0 0 0 0 0
0 0 0 0 0 0 0 0 0
0 0 0 0 0 0 0 0 0
0 0 0 0 0 0 0 0 0
0 0 0 0 0 0 0 0 0
0 0 0 0 0 0 0 0 0
0 0 0 0 0 0 0 0 0
0 0 0 0 0 0 0 0 0
0 0 0 0 0 0 0 0 0
0 0 0 0 0 0 0 0 0
0 0 0 0 0 0 0 0 0
0 0 0 0 0 0 0 0 0
0 0 0 0 0 0 0 0 0
0 0 0 0 0 0 0 0 0
0 0 0 0 0 0 0 0 0
0 0 0 0 0 0 0 0 0
0 0 0 0 0 0 0 0 0
0 0 0 0 0 0 0 0 0
0 0 0 0 0 0 0 0 0
0 0 0 0 0 0 0 0 0
0 0 0 0 0 0 0 0 0
0 0 0 0 0 0 0 0 0
0 0 0 0 0 0 0 0 0
0 0 0 0 0 0 0 0 0
0 0 0 0 0 0 0 0 0
0 0 0 0 0 0 0 0 0
0 0 0 0 0 0 0 0 0
0 0 0 0 0 0 0 0 0
0 0 0 0 0 0 0 0 0
0 0 0 0 0 0 0 0 0
0 0 0 0 0 0 0 0 0
0 0 0 0 0 0 0 0 0
0 0 0 0 0 0 0 0 0
0 0 0 0 0 0 0 0 0
0 0 0 0 0 0 0 0 0
0 0 0 0 0 0 0 0 0
0 0 0 0 0 0 0 0 0
0 0 0 0 0 0 0 0 0
0 0 0 0 0 0 0 0 0
0 0 0 0 0 0 0 0 0
0 0 0 0 0 0 0 0 0
0 0 0 0 0 0 0 0 0
0 0 0 0 0 0 0 0 0
0 0 0 0 0 0 0 0 0
0 0 0 0 0 0 0 0 0
0 0 0 0 0 0 0 0 0
0 0 0 0 0 0 0 0 0
0 0 0 0 0 0 0 0 0
0 0 0 0 0 0 0 0 0
0 0 0 0 0 0 0 0 0
0 0 0 0 0 0 0 0 0
0 0 0 0 0 0 0 0 0
0 0 0 0 0 0 0 0 0
0 0 0 0 0 0 0 0 0
0 0 0 0 0 0 0 0 0
0 0 0 0 0 0 0 0 0
0 0 0 0 0 0 0 0 0
0 0 0 0 0 0 0 0 0
0 0 0 0 0 0 0 0 0
0 0 0 0 0 0 0 0 0
0 0 0 0 0 0 0 0 0
0 0 0 0 0 0 0 0 0
0 0 0 0 0 0 0 0 0
0 0 0 0 0 0 0 0 0
0 0 0 0 0 0 0 0 0
0 0 0 0 0 0 0 0 0
0 0 0 0 0 0 0 0 0
0 0 0 0 0 0 0 0 0
0 0 0 0 0 0 0 0 0
0 0 0 0 0 0 0 0 0
0 0 0 0 0 0 0 0 0
0 0 0 0 0 0 0 0 0
0 0 0 0 0 0 0 0 0
0 0 0 0 0 0 0 0 0
0 0 0 0 0 0 0 0 0
0 0 0 0 0 0 0 0 0
0 0 0 0 0 0 0 0 0
0 0 0 0 0 0 0 0 0
0 0 0 0 0 0 0 0 0
0 0 0 0 0 0 0 0 0
0 0 0 0 0 0 0 0 0
0 0 0 0 0 0 0 0 0
0 0 0 0 0 0 0 0 0
0 0 0 0 0 0 0 0 0
0 0 0 0 0 0 0 0 0
0 0 0 0 0 0 0 0 0
0 0 0 0 0 0 0 0 0
0 0 0 0 0 0 0 0 0
0 0 0 0 0 0 0 0 0
0 0 0 0 0 0 0 0 0
0 0 0 0 0 0 0 0 0
0 0 0 0 0 0 0 0 0
0 0 0 0 0 0 0 0 0
0 0 0 0 0 0 0 0 0
0 0 0 0 0 0 0 0 0
0 0 0 0 0 0 0 0 0
0 0 0 0 0 0 0 0 0
0 0 0 0 0 0 0 0 0
0 0 0 0 0 0 0 0 0
0 0 0 0 0 0 0 0 0
0 0 0 0 0 0 0 0 0
0 0 0 0 0 0 0 0 0
0 0 0 0 0 0 0 0 0
0 0 0 0 0 0 0 0 0
0 0 0 0 0 0 0 0 0
0 0 0 0 0 0 0 0 0
0 0 0 0 0 0 0 0 0
0 0 0 0 0 0 0 0 0
0 0 0 0 0 0 0 0 0
0 0 0 0 0 0 0 0 0
0 0 0 0 0 0 0 0 0
0 0 0 0 0 0 0 0 0
0 0 0 0 0 0 0 0 0
0 0 0 0 0 0 0 0 0
0 0 0 0 0 0 0 0 0
0 0 0 0 0 0 0 0 0
0 0 0 0 0 0 0 0 0
0 0 0 0 0 0 0 0 0
0 0 0 0 0 0 0 0 0
0 0 0 0 0 0 0 0 0
0 0 0 0 0 0 0 0 0
0 0 0 0 0 0 0 0 0
0 0 0 0 0 0 0 0 0
0 0 0 0 0 0 0 0 0
0 0 0 0 0 0 0 0 0
0 0 0 0 0 0 0 0 0
0 0 0 0 0 0 0 0 0
0 0 0 0 0 0 0 0 0
0 0 0 0 0 0 0 0 0
0 0 0 0 0 0 0 0 0
0 0 0 0 0 0 0 0 0
0 0 0 0 0 0 0 0 0
0 0 0 0 0 0 0 0 0
0 0 0 0 0 0 0 0 0
0 0 0 0 0 0 0 0 0
0 0 0 0 0 0 0 0 0
0 0 0 0 0 0 0 0 0
0 0 0 0 0 0 0 0 0
0 0 0 0 0 0 0 0 0
0 0 0 0 0 0 0 0 0
0 0 0 0 0 0 0 0 0
0 0 0 0 0 0 0 0 0
0 0 0 0 0 0 0 0 0
0 0 0 0 0 0 0 0 0
0 0 0 0 0 0 0 0 0
0 0 0 0 0 0 0 0 0
0 0 0 0 0 0 0 0 0
0 0 0 0 0 0 0 0 0
0 0 0 0 0 0 0 0 0
0 0 0 0 0 0 0 0 0
0 0 0 0 0 0 0 0 0
0 0 0 0 0 0 0 0 0
0 0 0 0 0 0 0 0 0
0 0 0 0 0 0 0 0 0
0 0 0 0 0 0 0 0 0
0 0 0 0 0 0 0 0 0
0 0 0 0 0 0 0 0 0
0 0 0 0 0 0 0 0 0
0 0 0 0 0 0 0 0 0
0 0 0 0 0 0 0 0 0
0 0 0 0 0 0 0 0 0
0 0 0 0 0 0 0 0 0
0 0 0 0 0 0 0 0 0
0 0 0 0 0 0 0 0 0
0 0 0 0 0 0 0 0 0
0 0 0 0 0 0 0 0 0
0 0 0 0 0 0 0 0 0
0 0 0 0 0 0 0 0 0
0 0 0 0 0 0 0 0 0
0 0 0 0 0 0 0 0 0
0 0 0 0 0 0 0 0 0
0 0 0 0 0 0 0 0 0
0 0 0 0 0 0 0 0 0
0 0 0 0 0 0 0 0 0
0 0 0 0 0 0 0 0 0
0 0 0 0 0 0 0 0 0
0 0 0 0 0 0 0 0 0
0 0 0 0 0 0 0 0 0
0 0 0 0 0 0 0 0 0
0 0 0 0 0 0 0 0 0
0 0 0 0 0 0 0 0 0
0 0 0 0 0 0 0 0 0
0 0 0 0 0 0 0 0 0
0 0 0 0 0 0 0 0 0
0 0 0 0 0 0 0 0 0
0 0 0 0 0 0 0 0 0
0 0 0 0 0 0 0 0 0
0 0 0 0 0 0 0 0 0
0 0 0 0 0 0 0 0 0
0 0 0 0 0 0 0 0 0
0 0 0 0 0 0 0 0 0
0 0 0 0 0 0 0 0 0
0 0 0 0 0 0 0 0 0
0 0 0 0 0 0 0 0 0
0 0 0 0 0 0 0 0 0
0 0 0 0 0 0 0 0 0
0 0 0 0 0 0 0 0 0
0 0 0 0 0 0 0 0 0
0 0 0 0 0 0 0 0 0
0 0 0 0 0 0 0 0 0
0 0 0 0 0 0 0 0 0
0 0 0 0 0 0 0 0 0
0 0 0 0 0 0 0 0 0
0 0 0 0 0 0 0 0 0
0 0 0 0 0 0 0 0 0
0 0 0 0 0 0 0 0 0
0 0 0 0 0 0 0 0 0
0 0 0 0 0 0 0 0 0
0 0 0 0 0 0 0 0 0
0 0 0 0 0 0 0 0 0
0 0 0 0 0 0 0 0 0
0 0 0 0 0 0 0 0 0
0 0 0 0 0 0 0 0 0
0 0 0 0 0 0 0 0 0
0 0 0 0 0 0 0 0 0
0 0 0 0 0 0 0 0 0
0 0 0 0 0 0 0 0 0
0 0 0 0 0 0 0 0 0
0 0 0 0 0 0 0 0 0
0 0 0 0 0 0 0 0 0
0 0 0 0 0 0 0 0 0
0 0 0 0 0 0 0 0 0
0 0 0 0 0 0 0 0 0
0 0 0 0 0 0 0 0 0
0 0 0 0 0 0 0 0 0
0 0 0 0 0 0 0 0 0
0 0 0 0 0 0 0 0 0
0 0 0 0 0 0 0 0 0
0 0 0 0 0 0 0 0 0
0 0 0 0 0 0 0 0 0
0 0 0 0 0 0 0 0 0
0 0 0 0 0 0 0 0 0
0 0 0 0 0 0 0 0 0
0 0 0 0 0 0 0 0 0
0 0 0 0 0 0 0 0 0
0 0 0 0 0 0 0 0 0
0 0 0 0 0 0 0 0 0
0 0 0 0 0 0 0 0 0
0 0 0 0 0 0 0 0 0
0 0 0 0 0 0 0 0 0
0 0 0 0 0 0 0 0 0
0 0 0 0 0 0 0 0 0
0 0 0 0 0 0 0 0 0
0 0 0 0 0 0 0 0 0
0.604585 0.639419 0.617853 0.652137 0.604585 0.639419 0.617853 0.652137 0
0.665787 0.703092 0.678057 0.714688 0.665787 0.703092 0.678057 0.714688 0
0.730366 0.767704 0.741428 0.777974 0.730366 0.767704 0.741428 0.777974 0
0.796761 0.838968 0.806416 0.847727 0.796761 0.838968 0.806416 0.847727 0
0.521629 0.554931 0.536689 0.569563 0.521629 0.554931 0.536689 0.569563 0
0.580204 0.61603 0.594468 0.629714 0.580204 0.61603 0.594468 0.629714 0
0.643206 0.681729 0.656419 0.694231 0.643206 0.681729 0.656419 0.694231 0
0.709975 0.748751 0.72191 0.759844 0.709975 0.748751 0.72191 0.759844 0
0.778941 0.822805 0.789371 0.832261 0.778941 0.822805 0.789371 0.832261 0
0.494038 0.528097 0.51017 0.543789 0.494038 0.528097 0.51017 0.543789 0
0.554018 0.590858 0.569335 0.605586 0.554018 0.590858 0.569335 0.605586 0
0.618874 0.658678 0.633115 0.672171 0.618874 0.658678 0.633115 0.672171 0
0.687954 0.728261 0.700846 0.740257 0.687954 0.728261 0.700846 0.740257 0
0.759665 0.805313 0.770951 0.815554 0.759665 0.805313 0.770951 0.815554 0
0.408481 0.440134 0.42633 0.457706 0.408481 0.440134 0.42633 0.457706 0
0.464444 0.499271 0.481753 0.516135 0.464444 0.499271 0.481753 0.516135 0
0.525854 0.56373 0.542335 0.579609 0.525854 0.56373 0.542335 0.579609 0
0.592619 0.633766 0.60799 0.648353 0.592619 0.633766 0.60799 0.648353 0
0.664133 0.706077 0.678084 0.71907 0.664133 0.706077 0.678084 0.71907 0
0.738783 0.78635 0.751014 0.797455 0.738783 0.78635 0.751014 0.797455 0
0.375848 0.407958 0.394921 0.426769 0.375848 0.407958 0.394921 0.426769 0
0.432707 0.468274 0.451268 0.486411 0.432707 0.468274 0.451268 0.486411 0
0.495515 0.534447 0.513273 0.551593 0.495515 0.534447 0.513273 0.551593 0
0.564237 0.606791 0.58086 0.622593 0.564237 0.606791 0.58086 0.622593 0
0.638313 0.682002 0.653442 0.696109 0.638313 0.682002 0.653442 0.696109 0
0.716116 0.765782 0.729398 0.777829 0.716116 0.765782 0.729398 0.777829 0
0.340961 0.373472 0.361355 0.393641 0.340961 0.373472 0.361355 0.393641 0
0.398627 0.434898 0.418566 0.454434 0.398627 0.434898 0.418566 0.454434 0
0.462786 0.50278 0.48195 0.52133 0.462786 0.50278 0.48195 0.52133 0
0.533496 0.577515 0.551509 0.594674 0.533496 0.577515 0.551509 0.594674 0
0.610257 0.655811 0.626705 0.671167 0.610257 0.655811 0.626705 0.671167 0
0.691446 0.743398 0.705912 0.75652 0.691446 0.743398 0.705912 0.75652 0
0.251888 0.280982 0.273791 0.302875 0.251888 0.280982 0.273791 0.302875 0
0.303636 0.336478 0.325459 0.358118 0.303636 0.336478 0.325459 0.358118 0
0.361992 0.398913 0.38343 0.419982 0.361992 0.398913 0.38343 0.419982 0
0.427424 0.468469 0.448137 0.488576 0.427424 0.468469 0.448137 0.488576 0
0.500125 0.545659 0.519689 0.564341 0.500125 0.545659 0.519689 0.564341 0
0.579687 0.627236 0.59762 0.644 0.579687 0.627236 0.59762 0.644 0
0.664504 0.718924 0.680313 0.733286 0.664504 0.718924 0.680313 0.733286 0
0.212022 0.241038 0.235301 0.264375 0.212022 0.241038 0.235301 0.264375 0
0.263738 0.296787 0.28706 0.320005 0.263738 0.296787 0.28706 0.320005 0
0.322583 0.360068 0.345648 0.382818 0.322583 0.360068 0.345648 0.382818 0
0.389157 0.431218 0.41158 0.453058 0.389157 0.431218 0.41158 0.453058 0
0.463815 0.510899 0.485113 0.531297 0.463815 0.510899 0.485113 0.531297 0
0.54627 0.595937 0.565887 0.614316 0.54627 0.595937 0.565887 0.614316 0
0.634972 0.692093 0.652316 0.707845 0.634972 0.692093 0.652316 0.707845 0
0.169676 0.198457 0.1944 0.223336 0.169676 0.198457 0.1944 0.223336 0
0.221092 0.254192 0.246023 0.279111 0.221092 0.254192 0.246023 0.279111 0
0.280169 0.318094 0.304997 0.342682 0.280169 0.318094 0.304997 0.342682 0
0.34769 0.390694 0.371996 0.414464 0.34769 0.390694 0.371996 0.414464 0
0.424208 0.472852 0.447452 0.495194 0.424208 0.472852 0.447452 0.495194 0
0.509616 0.56152 0.53115 0.581747 0.509616 0.56152 0.53115 0.581747 0
0.602457 0.662532 0.62157 0.679908 0.602457 0.662532 0.62157 0.679908 0
0.0810595 0.105438 0.106672 0.131438 0.0810595 0.105438 0.106672 0.131438 0
0.124733 0.153104 0.15097 0.179598 0.124733 0.153104 0.15097 0.179598 0
0.175537 0.208495 0.202164 0.235228 0.175537 0.208495 0.202164 0.235228 0
0.234518 0.272709 0.261242 0.2993 0.234518 0.272709 0.261242 0.2993 0
0.302704 0.346528 0.32908 0.372445 0.302704 0.346528 0.32908 0.372445 0
0.380903 0.431075 0.406331 0.455625 0.380903 0.431075 0.406331 0.455625 0
0.469257 0.523505 0.492987 0.545868 0.469257 0.523505 0.492987 0.545868 0
0.566481 0.629777 0.587652 0.649054 0.566481 0.629777 0.587652 0.649054 0
0.0348832 0.0584333 0.0617859 0.0858369 0.0348832 0.0584333 0.0617859 0.0858369 0
0.0771849 0.104898 0.104923 0.133046 0.0771849 0.104898 0.104923 0.133046 0
0.126948 0.159518 0.15534 0.188164 0.126948 0.159518 0.15534 0.188164 0
0.18541 0.22363 0.214155 0.252387 0.18541 0.22363 0.214155 0.252387 0
0.253867 0.298319 0.282505 0.326618 0.253867 0.298319 0.282505 0.326618 0
0.33345 0.385056 0.361327 0.412117 0.33345 0.385056 0.361327 0.412117 0
0.424646 0.481304 0.450898 0.506156 0.424646 0.481304 0.450898 0.506156 0
0.526448 0.593253 0.550035 0.614777 0.526448 0.593253 0.550035 0.614777 0
-0.0135075 0.00896383 0.0146698 0.037795 -0.0135075 0.00896383 0.0146698 0.037795 0
0.026983 0.0537733 0.0562599 0.0836136 0.026983 0.0537733 0.0562599 0.0836136 0
0.075234 0.107115 0.10544 0.137755 0.075234 0.107115 0.10544 0.137755 0
0.132651 0.170584 0.163525 0.201663 0.132651 0.170584 0.163525 0.201663 0
0.200841 0.245631 0.231937 0.276569 0.200841 0.245631 0.231937 0.276569 0
0.281344 0.334195 0.311969 0.364125 0.281344 0.334195 0.311969 0.364125 0
0.37513 0.434206 0.404295 0.461974 0.37513 0.434206 0.404295 0.461974 0
0.481629 0.552235 0.50807 0.576445 0.481629 0.552235 0.50807 0.576445 0
0 0 0 0 0 0 0 0 0
0 0 0 0 0 0 0 0 0
0 0 0 0 0 0 0 0 0
0 0 0 0 0 0 0 0 0
0 0 0 0 0 0 0 0 0
0 0 0 0 0 0 0 0 0
0 0 0 0 0 0 0 0 0
0 0 0 0 0 0 0 0 0
0 0 0 0 0 0 0 0 0
0 0 0 0 0 0 0 0 0
0 0 0 0 0 0 0 0 0
0 0 0 0 0 0 0 0 0
0 0 0 0 0 0 0 0 0
0 0 0 0 0 0 0 0 0
0 0 0 0 0 0 0 0 0
0 0 0 0 0 0 0 0 0
0 0 0 0 0 0 0 0 0
0 0 0 0 0 0 0 0 0
0 0 0 0 0 0 0 0 0
0 0 0 0 0 0 0 0 0
0 0 0 0 0 0 0 0 0
0 0 0 0 0 0 0 0 0
0 0 0 0 0 0 0 0 0
0 0 0 0 0 0 0 0 0
0 0 0 0 0 0 0 0 0
0 0 0 0 0 0 0 0 0
0 0 0 0 0 0 0 0 0
0 0 0 0 0 0 0 0 0
0 0 0 0 0 0 0 0 0
0 0 0 0 0 0 0 0 0
0 0 0 0 0 0 0 0 0
0 0 0 0 0 0 0 0 0
0 0 0 0 0 0 0 0 0
0 0 0 0 0 0 0 0 0
0 0 0 0 0 0 0 0 0
0 0 0 0 0 0 0 0 0
0 0 0 0 0 0 0 0 0
0 0 0 0 0 0 0 0 0
0 0 0 0 0 0 0 0 0
0 0 0 0 0 0 0 0 0
0 0 0 0 0 0 0 0 0
0 0 0 0 0 0 0 0 0
0 0 0 0 0 0 0 0 0
0 0 0 0 0 0 0 0 0
0 0 0 0 0 0 0 0 0
0 0 0 0 0 0 0 0 0
0 0 0 0 0 0 0 0 0
0 0 0 0 0 0 0 0 0
0 0 0 0 0 0 0 0 0
0 0 0 0 0 0 0 0 0
0 0 0 0 0 0 0 0 0
0 0 0 0 0 0 0 0 0
0 0 0 0 0 0 0 0 0
0 0 0 0 0 0 0 0 0
0 0 0 0 0 0 0 0 0
0 0 0 0 0 0 0 0 0
0 0 0 0 0 0 0 0 0
0 0 0 0 0 0 0 0 0
0 0 0 0 0 0 0 0 0
0 0 0 0 0 0 0 0 0
0 0 0 0 0 0 0 0 0
0 0 0 0 0 0 0 0 0
0 0 0 0 0 0 0 0 0
0 0 0 0 0 0 0 0 0
0 0 0 0 0 0 0 0 0
0 0 0 0 0 0 0 0 0
0 0 0 0 0 0 0 0 0
0 0 0 0 0 0 0 0 0
0 0 0 0 0 0 0 0 0
0 0 0 0 0 0 0 0 0
0 0 0 0 0 0 0 0 0
0 0 0 0 0 0 0 0 0
0 0 0 0 0 0 0 0 0
0 0 0 0 0 0 0 0 0
0 0 0 0 0 0 0 0 0
0 0 0 0 0 0 0 0 0
0 0 0 0 0 0 0 0 0
0 0 0 0 0 0 0 0 0
0 0 0 0 0 0 0 0 0
0 0 0 0 0 0 0 0 0
0 0 0 0 0 0 0 0 0
0 0 0 0 0 0 0 0 0
0 0 0 0 0 0 0 0 0
0 0 0 0 0 0 0 0 0
0 0 0 0 0 0 0 0 0
0 0 0 0 0 0 0 0 0
0 0 0 0 0 0 0 0 0
0 0 0 0 0 0 0 0 0
0 0 0 0 0 0 0 0 0
0 0 0 0 0 0 0 0 0
0 0 0 0 0 0 0 0 0
0 0 0 0 0 0 0 0 0
0 0 0 0 0 0 0 0 0
0 0 0 0 0 0 0 0 0
0 0 0 0 0 0 0 0 0
0 0 0 0 0 0 0 0 0
0 0 0 0 0 0 0 0 0
0 0 0 0 0 0 0 0 0
0 0 0 0 0 0 0 0 0
0 0 0 0 0 0 0 0 0
0 0 0 0 0 0 0 0 0
0 0 0 0 0 0 0 0 0
0 0 0 0 0 0 0 0 0
0 0 0 0 0 0 0 0 0
0 0 0 0 0 0 0 0 0
0 0 0 0 0 0 0 0 0
0 0 0 0 0 0 0 0 0
0 0 0 0 0 0 0 0 0
0 0 0 0 0 0 0 0 0
0 0 0 0 0 0 0 0 0
0 0 0 0 0 0 0 0 0
0 0 0 0 0 0 0 0 0
0 0 0 0 0 0 0 0 0
0 0 0 0 0 0 0 0 0
0 0 0 0 0 0 0 0 0
0 0 0 0 0 0 0 0 0
0 0 0 0 0 0 0 0 0
0 0 0 0 0 0 0 0 0
0 0 0 0 0 0 0 0 0
0 0 0 0 0 0 0 0 0
0 0 0 0 0 0 0 0 0
0 0 0 0 0 0 0 0 0
0 0 0 0 0 0 0 0 0
0 0 0 0 0 0 0 0 0
0 0 0 0 0 0 0 0 0
0 0 0 0 0 0 0 0 0
0 0 0 0 0 0 0 0 0
0 0 0 0 0 0 0 0 0
0 0 0 0 0 0 0 0 0
0 0 0 0 0 0 0 0 0
0 0 0 0 0 0 0 0 0
0 0 0 0 0 0 0 0 0
0 0 0 0 0 0 0 0 0
0 0 0 0 0 0 0 0 0
0 0 0 0 0 0 0 0 0
0 0 0 0 0 0 0 0 0
0 0 0 0 0 0 0 0 0
0 0 0 0 0 0 0 0 0
0 0 0 0 0 0 0 0 0
0 0 0 0 0 0 0 0 0
0 0 0 0 0 0 0 0 0
0 0 0 0 0 0 0 0 0
0 0 0 0 0 0 0 0 0
0 0 0 0 0 0 0 0 0
0 0 0 0 0 0 0 0 0
0 0 0 0 0 0 0 0 0
0 0 0 0 0 0 0 0 0
0 0 0 0 0 0 0 0 0
0 0 0 0 0 0 0 0 0
0 0 0 0 0 0 0 0 0
0 0 0 0 0 0 0 0 0
0 0 0 0 0 0 0 0 0
0 0 0 0 0 0 0 0 0
0 0 0 0 0 0 0 0 0
0 0 0 0 0 0 0 0 0
0 0 0 0 0 0 0 0 0
0 0 0 0 0 0 0 0 0
0 0 0 0 0 0 0 0 0
0 0 0 0 0 0 0 0 0
0 0 0 0 0 0 0 0 0
0 0 0 0 0 0 0 0 0
0 0 0 0 0 0 0 0 0
0 0 0 0 0 0 0 0 0
0 0 0 0 0 0 0 0 0
0 0 0 0 0 0 0 0 0
0 0 0 0 0 0 0 0 0
0 0 0 0 0 0 0 0 0
0 0 0 0 0 0 0 0 0
0 0 0 0 0 0 0 0 0
0 0 0 0 0 0 0 0 0
0 0 0 0 0 0 0 0 0
0 0 0 0 0 0 0 0 0
0 0 0 0 0 0 0 0 0
0 0 0 0 0 0 0 0 0
0 0 0 0 0 0 0 0 0
0 0 0 0 0 0 0 0 0
0 0 0 0 0 0 0 0 0
0 0 0 0 0 0 0 0 0
0 0 0 0 0 0 0 0 0
0 0 0 0 0 0 0 0 0
0 0 0 0 0 0 0 0 0
0 0 0 0 0 0 0 0 0
0 0 0 0 0 0 0 0 0
0 0 0 0 0 0 0 0 0
0 0 0 0 0 0 0 0 0
0 0 0 0 0 0 0 0 0
0 0 0 0 0 0 0 0 0
0 0 0 0 0 0 0 0 0
0 0 0 0 0 0 0 0 0
0 0 0 0 0 0 0 0 0
0 0 0 0 0 0 0 0 0
0 0 0 0 0 0 0 0 0
0 0 0 0 0 0 0 0 0
0 0 0 0 0 0 0 0 0
0 0 0 0 0 0 0 0 0
0 0 0 0 0 0 0 0 0
0 0 0 0 0 0 0 0 0
0 0 0 0 0 0 0 0 0
0 0 0 0 0 0 0 0 0
0 0 0 0 0 0 0 0 0
0 0 0 0 0 0 0 0 0
0 0 0 0 0 0 0 0 0
0 0 0 0 0 0 0 0 0
0 0 0 0 0 0 0 0 0
0 0 0 0 0 0 0 0 0
0 0 0 0 0 0 0 0 0
0 0 0 0 0 0 0 0 0
0 0 0 0 0 0 0 0 0
0 0 0 0 0 0 0 0 0
0 0 0 0 0 0 0 0 0
0 0 0 0 0 0 0 0 0
0 0 0 0 0 0 0 0 0
0 0 0 0 0 0 0 0 0
0 0 0 0 0 0 0 0 0
0 0 0 0 0 0 0 0 0
0 0 0 0 0 0 0 0 0
0 0 0 0 0 0 0 0 0
0 0 0 0 0 0 0 0 0
0 0 0 0 0 0 0 0 0
0 0 0 0 0 0 0 0 0
0 0 0 0 0 0 0 0 0
0 0 0 0 0 0 0 0 0
0 0 0 0 0 0 0 0 0
0 0 0 0 0 0 0 0 0
0 0 0 0 0 0 0 0 0
0 0 0 0 0 0 0 0 0
0 0 0 0 0 0 0 0 0
0 0 0 0 0 0 0 0 0
0 0 0 0 0 0 0 0 0
0 0 0 0 0 0 0 0 0
0 0 0 0 0 0 0 0 0
0 0 0 0 0 0 0 0 0
0 0 0 0 0 0 0 0 0
0 0 0 0 0 0 0 0 0
0 0 0 0 0 0 0 0 0
0 0 0 0 0 0 0 0 0
0 0 0 0 0 0 0 0 0
0 0 0 0 0 0 0 0 0
0 0 0 0 0 0 0 0 0
0 0 0 0 0 0 0 0 0
0 0 0 0 0 0 0 0 0
0 0 0 0 0 0 0 0 0
0 0 0 0 0 0 0 0 0
0 0 0 0 0 0 0 0 0
0 0 0 0 0 0 0 0 0
0 0 0 0 0 0 0 0 0
0 0 0 0 0 0 0 0 0
0 0 0 0 0 0 0 0 0
0 0 0 0 0 0 0 0 0
0 0 0 0 0 0 0 0 0
0 0 0 0 0 0 0 0 0
0 0 0 0 0 0 0 0 0
0 0 0 0 0 0 0 0 0
0 0 0 0 0 0 0 0 0
0 0 0 0 0 0 0 0 0
0 0 0 0 0 0 0 0 0
0 0 0 0 0 0 0 0 0
0 0 0 0 0 0 0 0 0
0 0 0 0 0 0 0 0 0
0 0 0 0 0 0 0 0 0
0 0 0 0 0 0 0 0 0
0 0 0 0 0 0 0 0 0
0 0 0 0 0 0 0 0 0
0 0 0 0 0 0 0 0 0
0 0 0 0 0 0 0 0 0
0 0 0 0 0 0 0 0 0
0 0 0 0 0 0 0 0 0
0 0 0 0 0 0 0 0 0
0 0 0 0 0 0 0 0 0
0 0 0 0 0 0 0 0 0
0 0 0 0 0 0 0 0 0
0 0 0 0 0 0 0 0 0
0 0 0 0 0 0 0 0 0
0 0 0 0 0 0 0 0 0
0 0 0 0 0 0 0 0 0
0 0 0 0 0 0 0 0 0
0 0 0 0 0 0 0 0 0
0 0 0 0 0 0 0 0 0
0 0 0 0 0 0 0 0 0
0 0 0 0 0 0 0 0 0
0 0 0 0 0 0 0 0 0
0 0 0 0 0 0 0 0 0
0 0 0 0 0 0 0 0 0
0 0 0 0 0 0 0 0 0
0 0 0 0 0 0 0 0 0
0 0 0 0 0 0 0 0 0
0 0 0 0 0 0 0 0 0
0 0 0 0 0 0 0 0 0
0 0 0 0 0 0 0 0 0
0 0 0 0 0 0 0 0 0
0 0 0 0 0 0 0 0 0
0 0 0 0 0 0 0 0 0
0 0 0 0 0 0 0 0 0
0 0 0 0 0 0 0 0 0
0 0 0 0 0 0 0 0 0
0 0 0 0 0 0 0 0 0
0 0 0 0 0 0 0 0 0
0 0 0 0 0 0 0 0 0
0 0 0 0 0 0 0 0 0
0 0 0 0 0 0 0 0 0
0 0 0 0 0 0 0 0 0
0 0 0 0 0 0 0 0 0
0 0 0 0 0 0 0 0 0
0 0 0 0 0 0 0 0 0
0 0 0 0 0 0 0 0 0
0 0 0 0 0 0 0 0 0
0 0 0 0 0 0 0 0 0
0 0 0 0 0 0 0 0 0
0 0 0 0 0 0 0 0 0
0 0 0 0 0 0 0 0 0
0 0 0 0 0 0 0 0 0
0 0 0 0 0 0 0 0 0
0 0 0 0 0 0 0 0 0
0 0 0 0 0 0 0 0 0
0 0 0 0 0 0 0 0 0
0 0 0 0 0 0 0 0 0
0 0 0 0 0 0 0 0 0
0 0 0 0 0 0 0 0 0
0 0 0 0 0 0 0 0 0
0 0 0 0 0 0 0 0 0
0 0 0 0 0 0 0 0 0
0 0 0 0 0 0 0 0 0
0 0 0 0 0 0 0 0 0
0 0 0 0 0 0 0 0 0
0 0 0 0 0 0 0 0 0
0 0 0 0 0 0 0 0 0
0 0 0 0 0 0 0 0 0
0 0 0 0 0 0 0 0 0
0 0 0 0 0 0 0 0 0
0 0 0 0 0 0 0 0 0
0 0 0 0 0 0 0 0 0
0 0 0 0 0 0 0 0 0
0 0 0 0 0 0 0 0 0
0 0 0 0 0 0 0 0 0
0 0 0 0 0 0 0 0 0
0 0 0 0 0 0 0 0 0
0 0 0 0 0 0 0 0 0
0 0 0 0 0 0 0 0 0
0 0 0 0 0 0 0 0 0
0 0 0 0 0 0 0 0 0
0 0 0 0 0 0 0 0 0
0 0 0 0 0 0 0 0 0
0 0 0 0 0 0 0 0 0
0 0 0 0 0 0 0 0 0
0 0 0 0 0 0 0 0 0
0 0 0 0 0 0 0 0 0
0 0 0 0 0 0 0 0 0
0 0 0 0 0 0 0 0 0
0 0 0 0 0 0 0 0 0
0 0 0 0 0 0 0 0 0
0 0 0 0 0 0 0 0 0
0 0 0 0 0 0 0 0 0
0 0 0 0 0 0 0 0 0
0 0 0 0 0 0 0 0 0
0 0 0 0 0 0 0 0 0
0 0 0 0 0 0 0 0 0
0 0 0 0 0 0 0 0 0
0 0 0 0 0 0 0 0 0
0 0 0 0 0 0 0 0 0
0 0 0 0 0 0 0 0 0
0 0 0 0 0 0 0 0 0
0 0 0 0 0 0 0 0 0
0 0 0 0 0 0 0 0 0
0 0 0 0 0 0 0 0 0
0 0 0 0 0 0 0 0 0
0 0 0 0 0 0 0 0 0
0 0 0 0 0 0 0 0 0
0 0 0 0 0 0 0 0 0
0 0 0 0 0 0 0 0 0
0 0 0 0 0 0 0 0 0
0 0 0 0 0 0 0 0 0
0 0 0 0 0 0 0 0 0
0 0 0 0 0 0 0 0 0
0 0 0 0 0 0 0 0 0
0 0 0 0 0 0 0 0 0
0 0 0 0 0 0 0 0 0
0 0 0 0 0 0 0 0 0
0 0 0 0 0 0 0 0 0
0 0 0 0 0 0 0 0 0
0 0 0 0 0 0 0 0 0
0 0 0 0 0 0 0 0 0
0 0 0 0 0 0 0 0 0
0 0 0 0 0 0 0 0 0
0 0 0 0 0 0 0 0 0
0 0 0 0 0 0 0 0 0
0 0 0 0 0 0 0 0 0
0 0 0 0 0 0 0 0 0
0 0 0 0 0 0 0 0 0
0 0 0 0 0 0 0 0 0
0 0 0 0 0 0 0 0 0
0 0 0 0 0 0 0 0 0
0 0 0 0 0 0 0 0 0
0 0 0 0 0 0 0 0 0
0 0 0 0 0 0 0 0 0
0 0 0 0 0 0 0 0 0
0 0 0 0 0 0 0 0 0
0 0 0 0 0 0 0 0 0
0 0 0 0 0 0 0 0 0
0 0 0 0 0 0 0 0 0
0 0 0 0 0 0 0 0 0
0 0 0 0 0 0 0 0 0
0 0 0 0 0 0 0 0 0
0 0 0 0 0 0 0 0 0
0 0 0 0 0 0 0 0 0
0 0 0 0 0 0 0 0 0
0 0 0 0 0 0 0 0 0
0 0 0 0 0 0 0 0 0
0 0 0 0 0 0 0 0 0
0 0 0 0 0 0 0 0 0
0 0 0 0 0 0 0 0 0
0 0 0 0 0 0 0 0 0
0 0 0 0 0 0 0 0 0
0 0 0 0 0 0 0 0 0
0 0 0 0 0 0 0 0 0
0 0 0 0 0 0 0 0 0
0 0 0 0 0 0 0 0 0
0 0 0 0 0 0 0 0 0
0 0 0 0 0 0 0 0 0
0 0 0 0 0 0 0 0 0
0 0 0 0 0 0 0 0 0
0 0 0 0 0 0 0 0 0
0 0 0 0 0 0 0 0 0
0 0 0 0 0 0 0 0 0
0 0 0 0 0 0 0 0 0
0 0 0 0 0 0 0 0 0
0 0 0 0 0 0 0 0 0
0 0 0 0 0 0 0 0 0
0 0 0 0 0 0 0 0 0
0 0 0 0 0 0 0 0 0
0 0 0 0 0 0 0 0 0
0 0 0 0 0 0 0 0 0
0 0 0 0 0 0 0 0 0
0 0 0 0 0 0 0 0 0
0 0 0 0 0 0 0 0 0
0 0 0 0 0 0 0 0 0
0 0 0 0 0 0 0 0 0
0 0 0 0 0 0 0 0 0
0 0 0 0 0 0 0 0 0
0 0 0 0 0 0 0 0 0
0 0 0 0 0 0 0 0 0
0 0 0 0 0 0 0 0 0
0 0 0 0 0 0 0 0 0
0 0 0 0 0 0 0 0 0
0 0 0 0 0 0 0 0 0
0 0 0 0 0 0 0 0 0
0 0 0 0 0 0 0 0 0
0 0 0 0 0 0 0 0 0
0 0 0 0 0 0 0 0 0
0 0 0 0 0 0 0 0 0
0 0 0 0 0 0 0 0 0
0 0 0 0 0 0 0 0 0
0 0 0 0 0 0 0 0 0
0 0 0 0 0 0 0 0 0
0 0 0 0 0 0 0 0 0
0 0 0 0 0 0 0 0 0
0 0 0 0 0 0 0 0 0
0 0 0 0 0 0 0 0 0
0 0 0 0 0 0 0 0 0
0 0 0 0 0 0 0 0 0
0 0 0 0 0 0 0 0 0
0 0 0 0 0 0 0 0 0
0 0 0 0 0 0 0 0 0
0 0 0 0 0 0 0 0 0
0 0 0 0 0 0 0 0 0
0 0 0 0 0 0 0 0 0
0 0 0 0 0 0 0 0 0
0 0 0 0 0 0 0 0 0
0 0 0 0 0 0 0 0 0
0 0 0 0 0 0 0 0 0
0 0 0 0 0 0 0 0 0
0 0 0 0 0 0 0 0 0
0 0 0 0 0 0 0 0 0
0 0 0 0 0 0 0 0 0
0 0 0 0 0 0 0 0 0
0 0 0 0 0 0 0 0 0
0 0 0 0 0 0 0 0 0
0 0 0 0 0 0 0 0 0
0 0 0 0 0 0 0 0 0
0 0 0 0 0 0 0 0 0
0 0 0 0 0 0 0 0 0
0 0 0 0 0 0 0 0 0
0 0 0 0 0 0 0 0 0
0 0 0 0 0 0 0 0 0
0 0 0 0 0 0 0 0 0
0 0 0 0 0 0 0 0 0
0 0 0 0 0 0 0 0 0
0 0 0 0 0 0 0 0 0
0 0 0 0 0 0 0 0 0
0 0 0 0 0 0 0 0 0
0 0 0 0 0 0 0 0 0
0 0 0 0 0 0 0 0 0
0 0 0 0 0 0 0 0 0
0 0 0 0 0 0 0 0 0
0 0 0 0 0 0 0 0 0
0 0 0 0 0 0 0 0 0
0 0 0 0 0 0 0 0 0
0 0 0 0 0 0 0 0 0
0 0 0 0 0 0 0 0 0
0 0 0 0 0 0 0 0 0
0 0 0 0 0 0 0 0 0
0 0 0 0 0 0 0 0 0
0 0 0 0 0 0 0 0 0
0 0 0 0 0 0 0 0 0
0 0 0 0 0 0 0 0 0
0 0 0 0 0 0 0 0 0
0 0 0 0 0 0 0 0 0
0 0 0 0 0 0 0 0 0
0 0 0 0 0 0 0 0 0
0 0 0 0 0 0 0 0 0
0 0 0 0 0 0 0 0 0
0 0 0 0 0 0 0 0 0
0 0 0 0 0 0 0 0 0
0 0 0 0 0 0 0 0 0
0 0 0 0 0 0 0 0 0
0 0 0 0 0 0 0 0 0
0 0 0 0 0 0 0 0 0
0 0 0 0 0 0 0 0 0
0 0 0 0 0 0 0 0 0
0 0 0 0 0 0 0 0 0
0 0 0 0 0 0 0 0 0
0 0 0 0 0 0 0 0 0
0 0 0 0 0 0 0 0 0
0 0 0 0 0 0 0 0 0
0 0 0 0 0 0 0 0 0
0 0 0 0 0 0 0 0 0
0 0 0 0 0 0 0 0 0
0 0 0 0 0 0 0 0 0
0 0 0 0 0 0 0 0 0
0 0 0 0 0 0 0 0 0
0 0 0 0 0 0 0 0 0
0 0 0 0 0 0 0 0 0
0 0 0 0 0 0 0 0 0
0 0 0 0 0 0 0 0 0
0 0 0 0 0 0 0 0 0
0 0 0 0 0 0 0 0 0
0 0 0 0 0 0 0 0 0
0 0 0 0 0 0 0 0 0
0 0 0 0 0 0 0 0 0
0 0 0 0 0 0 0 0 0
0.344475 0.364524 0.351574 0.371401 0.344475 0.364524 0.351574 0.371401 0
0.380045 0.402455 0.386729 0.408834 0.380045 0.402455 0.386729 0.408834 0
0.419271 0.442874 0.425397 0.448609 0.419271 0.442874 0.425397 0.448609 0
0.46304 0.494617 0.468449 0.499523 0.46304 0.494617 0.468449 0.499523 0
0.298533 0.317155 0.306432 0.324916 0.298533 0.317155 0.306432 0.324916 0
0.331444 0.351903 0.339066 0.359283 0.331444 0.351903 0.339066 0.359283 0
0.367769 0.390711 0.374948 0.397582 0.367769 0.390711 0.374948 0.397582 0
0.407981 0.432288 0.414589 0.438484 0.407981 0.432288 0.414589 0.438484 0
0.453045 0.48553 0.458897 0.490852 0.453045 0.48553 0.458897 0.490852 0
0.284124 0.303002 0.292539 0.311266 0.284124 0.303002 0.292539 0.311266 0
0.317527 0.338374 0.325656 0.346283 0.317527 0.338374 0.325656 0.346283 0
0.354581 0.378065 0.362294 0.385464 0.354581 0.378065 0.362294 0.385464 0
0.3958 0.420839 0.40293 0.427543 0.3958 0.420839 0.40293 0.427543 0
0.442209 0.475637 0.448557 0.481437 0.442209 0.475637 0.448557 0.481437 0
0.238317 0.255471 0.247446 0.264537 0.238317 0.255471 0.247446 0.264537 0
0.268741 0.287878 0.27773 0.296717 0.268741 0.287878 0.27773 0.296717 0
0.302635 0.32386 0.31134 0.332348 0.302635 0.32386 0.31134 0.332348 0
0.340404 0.364434 0.348697 0.372412 0.340404 0.364434 0.348697 0.372412 0
0.382648 0.408446 0.390348 0.415704 0.382648 0.408446 0.390348 0.415704 0
0.43046 0.46489 0.437343 0.471185 0.43046 0.46489 0.437343 0.471185 0
0.221703 0.238961 0.231401 0.248599 0.221703 0.238961 0.231401 0.248599 0
0.252352 0.271713 0.261923 0.281159 0.252352 0.271713 0.261923 0.281159 0
0.286686 0.308274 0.29601 0.31739 0.286686 0.308274 0.29601 0.31739 0
0.325152 0.34973 0.334077 0.358337 0.325152 0.34973 0.334077 0.358337 0
0.368429 0.395006 0.376756 0.402881 0.368429 0.395006 0.376756 0.402881 0
0.417698 0.453196 0.425178 0.460051 0.417698 0.453196 0.425178 0.460051 0
0.204042 0.221378 0.214353 0.231647 0.204042 0.221378 0.214353 0.231647 0
0.234869 0.254422 0.245083 0.264528 0.234869 0.254422 0.245083 0.264528 0
0.269592 0.291525 0.279587 0.301323 0.269592 0.291525 0.279587 0.301323 0
0.308729 0.333848 0.31834 0.343147 0.308729 0.333848 0.31834 0.343147 0
0.353038 0.38041 0.362054 0.388965 0.353038 0.38041 0.362054 0.388965 0
0.4038 0.440409 0.41195 0.447914 0.4038 0.440409 0.41195 0.447914 0
0.157925 0.173274 0.168844 0.184242 0.157925 0.173274 0.168844 0.184242 0
0.185246 0.202632 0.196223 0.213583 0.185246 0.202632 0.196223 0.213583 0
0.2162 0.235915 0.227109 0.246734 0.2162 0.235915 0.227109 0.246734 0
0.251261 0.273512 0.261982 0.284052 0.251261 0.273512 0.261982 0.284052 0
0.291026 0.316673 0.301388 0.326733 0.291026 0.316673 0.301388 0.326733 0
0.336353 0.364537 0.34613 0.373843 0.336353 0.364537 0.34613 0.373843 0
0.38865 0.426425 0.397536 0.434631 0.38865 0.426425 0.397536 0.434631 0
0.138109 0.153343 0.149669 0.164974 0.138109 0.153343 0.149669 0.164974 0
0.165271 0.182649 0.176932 0.194322 0.165271 0.182649 0.176932 0.194322 0
0.196259 0.216093 0.207912 0.227683 0.196259 0.216093 0.207912 0.227683 0
0.231587 0.254121 0.243095 0.265469 0.231587 0.254121 0.243095 0.265469 0
0.271924 0.298077 0.283108 0.308972 0.271924 0.298077 0.283108 0.308972 0
0.318239 0.347233 0.328858 0.357384 0.318239 0.347233 0.328858 0.357384 0
0.372086 0.411071 0.381809 0.42009 0.372086 0.411071 0.381809 0.42009 0
0.117129 0.132187 0.129369 0.144536 0.117129 0.132187 0.129369 0.144536 0
0.144026 0.161337 0.156432 0.173789 0.144026 0.161337 0.156432 0.173789 0
0.174946 0.194845 0.187403 0.207271 0.174946 0.194845 0.187403 0.207271 0
0.210451 0.233224 0.222816 0.245457 0.210451 0.233224 0.222816 0.245457 0
0.251288 0.277913 0.263374 0.28973 0.251288 0.277913 0.263374 0.28973 0
0.298542 0.328333 0.310093 0.339425 0.298542 0.328333 0.310093 0.339425 0
0.353935 0.394164 0.364594 0.404101 0.353935 0.394164 0.364594 0.404101 0
0.0720006 0.0847831 0.0846379 0.0976371 0.0720006 0.0847831 0.0846379 0.0976371 0
0.094884 0.109716 0.107867 0.122835 0.094884 0.109716 0.107867 0.122835 0
0.121422 0.138594 0.134623 0.151883 0.121422 0.138594 0.134623 0.151883 0
0.152152 0.17205 0.165477 0.185383 0.152152 0.17205 0.165477 0.185383 0
0.187721 0.210675 0.201023 0.223879 0.187721 0.210675 0.201023 0.223879 0
0.228963 0.256016 0.242043 0.268854 0.228963 0.256016 0.242043 0.268854 0
0.277086 0.307653 0.289673 0.319794 0.277086 0.307653 0.289673 0.319794 0
0.334001 0.375489 0.345713 0.386473 0.334001 0.375489 0.345713 0.386473 0
0.0492047 0.0615596 0.0624854 0.0750944 0.0492047 0.0615596 0.0624854 0.0750944 0
0.0713808 0.0858757 0.0850853 0.0997896 0.0713808 0.0858757 0.0850853 0.0997896 0
0.0973741 0.114316 0.111417 0.128503 0.0973741 0.114316 0.111417 0.128503 0
0.127759 0.147571 0.142021 0.161892 0.127759 0.147571 0.142021 0.161892 0
0.163251 0.186312 0.177575 0.200583 0.163251 0.186312 0.177575 0.200583 0
0.204773 0.232191 0.21895 0.246165 0.204773 0.232191 0.21895 0.246165 0
0.253665 0.284969 0.267411 0.298295 0.253665 0.284969 0.267411 0.298295 0
0.312051 0.354803 0.324956 0.366977 0.312051 0.354803 0.324956 0.366977 0
0.025263 0.0370998 0.0392095 0.0513567 0.025263 0.0370998 0.0392095 0.0513567 0
0.0465644 0.0606034 0.0610362 0.075352 0.0465644 0.0606034 0.0610362 0.075352 0
0.0718061 0.0883958 0.086736 0.103544 0.0718061 0.0883958 0.086736 0.103544 0
0.101635 0.121244 0.116912 0.136652 0.101635 0.121244 0.116912 0.136652 0
0.136853 0.159924 0.152313 0.17539 0.136853 0.159924 0.152313 0.17539 0
0.178499 0.206216 0.193907 0.221459 0.178499 0.206216 0.193907 0.221459 0
0.228046 0.260021 0.24309 0.274686 0.228046 0.260021 0.24309 0.274686 0
0.287801 0.331787 0.302068 0.345346 0.287801 0.331787 0.302068 0.345346 0
0 0 0 0 0 0 0 0 0
0 0 0 0 0 0 0 0 0
0 0 0 0 0 0 0 0 0
0 0 0 0 0 0 0 0 0
0 0 0 0 0 0 0 0 0
0 0 0 0 0 0 0 0 0
0 0 0 0 0 0 0 0 0
0 0 0 0 0 0 0 0 0
0 0 0 0 0 0 0 0 0
0 0 0 0 0 0 0 0 0
0 0 0 0 0 0 0 0 0
0 0 0 0 0 0 0 0 0
0 0 0 0 0 0 0 0 0
0 0 0 0 0 0 0 0 0
0 0 0 0 0 0 0 0 0
0 0 0 0 0 0 0 0 0
0 0 0 0 0 0 0 0 0
0 0 0 0 0 0 0 0 0
0 0 0 0 0 0 0 0 0
0 0 0 0 0 0 0 0 0
0 0 0 0 0 0 0 0 0
0 0 0 0 0 0 0 0 0
0 0 0 0 0 0 0 0 0
0 0 0 0 0 0 0 0 0
0 0 0 0 0 0 0 0 0
0 0 0 0 0 0 0 0 0
0 0 0 0 0 0 0 0 0
0 0 0 0 0 0 0 0 0
0 0 0 0 0 0 0 0 0
0 0 0 0 0 0 0 0 0
0 0 0 0 0 0 0 0 0
0 0 0 0 0 0 0 0 0
0 0 0 0 0 0 0 0 0
0 0 0 0 0 0 0 0 0
0 0 0 0 0 0 0 0 0
0 0 0 0 0 0 0 0 0
0 0 0 0 0 0 0 0 0
0 0 0 0 0 0 0 0 0
0 0 0 0 0 0 0 0 0
0 0 0 0 0 0 0 0 0
0 0 0 0 0 0 0 0 0
0 0 0 0 0 0 0 0 0
0 0 0 0 0 0 0 0 0
0 0 0 0 0 0 0 0 0
0 0 0 0 0 0 0 0 0
0 0 0 0 0 0 0 0 0
0 0 0 0 0 0 0 0 0
0 0 0 0 0 0 0 0 0
0 0 0 0 0 0 0 0 0
0 0 0 0 0 0 0 0 0
0 0 0 0 0 0 0 0 0
0 0 0 0 0 0 0 0 0
0 0 0 0 0 0 0 0 0
0 0 0 0 0 0 0 0 0
0 0 0 0 0 0 0 0 0
0 0 0 0 0 0 0 0 0
0 0 0 0 0 0 0 0 0
0 0 0 0 0 0 0 0 0
0 0 0 0 0 0 0 0 0
0 0 0 0 0 0 0 0 0
0 0 0 0 0 0 0 0 0
0 0 0 0 0 0 0 0 0
0 0 0 0 0 0 0 0 0
0 0 0 0 0 0 0 0 0
0 0 0 0 0 0 0 0 0
0 0 0 0 0 0 0 0 0
0 0 0 0 0 0 0 0 0
0 0 0 0 0 0 0 0 0
0 0 0 0 0 0 0 0 0
0 0 0 0 0 0 0 0 0
0 0 0 0 0 0 0 0 0
0 0 0 0 0 0 0 0 0
0 0 0 0 0 0 0 0 0
0 0 0 0 0 0 0 0 0
0 0 0 0 0 0 0 0 0
0 0 0 0 0 0 0 0 0
0 0 0 0 0 0 0 0 0
0.200045 0.2097 0.205636 0.215 0.200045 0.2097 0.205636 0.215 0
0.216893 0.226944 0.221978 0.231732 0.216893 0.226944 0.221978 0.231732 0
0.23409 0.243627 0.238655 0.247881 0.23409 0.243627 0.238655 0.247881 0
0.252416 0.266974 0.256443 0.270693 0.252416 0.266974 0.256443 0.270693 0
0.172454 0.182404 0.178964 0.188636 0.172454 0.182404 0.178964 0.188636 0
0.189754 0.199926 0.195774 0.205645 0.189754 0.199926 0.195774 0.205645 0
0.207513 0.218124 0.213001 0.223282 0.207513 0.218124 0.213001 0.223282 0
0.225688 0.235812 0.2306 0.240378 0.225688 0.235812 0.2306 0.240378 0
0.245028 0.260165 0.249343 0.264138 0.245028 0.260165 0.249343 0.264138 0
0.160467 0.170913 0.167481 0.177638 0.160467 0.170913 0.167481 0.177638 0
0.17865 0.189383 0.185149 0.195551 0.17865 0.189383 0.185149 0.195551 0
0.1974 0.208622 0.203316 0.214179 0.1974 0.208622 0.203316 0.214179 0
0.216645 0.22741 0.221933 0.232321 0.216645 0.22741 0.221933 0.232321 0
0.237101 0.252895 0.241732 0.257136 0.237101 0.252895 0.241732 0.257136 0
0.129297 0.139715 0.137322 0.147491 0.129297 0.139715 0.137322 0.147491 0
0.147531 0.1585 0.155104 0.165767 0.147531 0.1585 0.155104 0.165767 0
0.16665 0.177992 0.173675 0.18466 0.16665 0.177992 0.173675 0.18466 0
0.186475 0.198364 0.19287 0.204367 0.186475 0.198364 0.19287 0.204367 0
0.20689 0.218362 0.212597 0.223652 0.20689 0.218362 0.212597 0.223652 0
0.228568 0.245063 0.233557 0.249643 0.228568 0.245063 0.233557 0.249643 0
0.114514 0.125366 0.123168 0.133768 0.114514 0.125366 0.123168 0.133768 0
0.133542 0.14506 0.141735 0.152933 0.133542 0.14506 0.141735 0.152933 0
0.15365 0.165643 0.161266 0.172877 0.15365 0.165643 0.161266 0.172877 0
0.174632 0.187252 0.18157 0.193759 0.174632 0.187252 0.18157 0.193759 0
0.196333 0.208588 0.202514 0.214307 0.196333 0.208588 0.202514 0.214307 0
0.219369 0.236648 0.224749 0.241563 0.219369 0.236648 0.224749 0.241563 0
0.0985475 0.109835 0.107898 0.118934 0.0985475 0.109835 0.107898 0.118934 0
0.118379 0.130465 0.127265 0.13902 0.118379 0.130465 0.127265 0.13902 0
0.139518 0.152208 0.147803 0.160084 0.139518 0.152208 0.147803 0.160084 0
0.161746 0.175166 0.169301 0.18225 0.161746 0.175166 0.169301 0.18225 0
0.18486 0.197987 0.191583 0.204195 0.18486 0.197987 0.191583 0.204195 0
0.209417 0.227597 0.215242 0.232887 0.209417 0.227597 0.215242 0.232887 0
0.0624011 0.0730973 0.0728064 0.0833501 0.0624011 0.0730973 0.0728064 0.0833501 0
0.0812875 0.0929915 0.0913977 0.102864 0.0812875 0.0929915 0.0913977 0.102864 0
0.1019 0.114566 0.111562 0.123891 0.1019 0.114566 0.111562 0.123891 0
0.124103 0.137533 0.133147 0.146144 0.124103 0.137533 0.133147 0.146144 0
0.147663 0.161957 0.155927 0.169707 0.147663 0.161957 0.155927 0.169707 0
0.17233 0.186437 0.17968 0.193208 0.17233 0.186437 0.17968 0.193208 0
0.19859 0.217763 0.204935 0.223524 0.19859 0.217763 0.204935 0.223524 0
0.0432861 0.0541964 0.0544716 0.0652653 0.0432861 0.0541964 0.0544716 0.0652653 0
0.0626054 0.0746924 0.0735523 0.0854219 0.0626054 0.0746924 0.0735523 0.0854219 0
0.0839525 0.0971942 0.0944811 0.107391 0.0839525 0.0971942 0.0944811 0.107391 0
0.107227 0.121433 0.117137 0.13089 0.107227 0.121433 0.117137 0.13089 0
0.132197 0.147447 0.141283 0.15597 0.132197 0.147447 0.141283 0.15597 0
0.158569 0.173768 0.166652 0.181206 0.158569 0.173768 0.166652 0.181206 0
0.186738 0.207052 0.193693 0.213328 0.186738 0.207052 0.193693 0.213328 0
0.0227419 0.0337928 0.0347639 0.0457424 0.0227419 0.0337928 0.0347639 0.0457424 0
0.0423724 0.0547839 0.0542296 0.066461 0.0423724 0.0547839 0.0542296 0.066461 0
0.0643645 0.0781562 0.0758607 0.089338 0.0643645 0.0781562 0.0758607 0.089338 0
0.0886829 0.103687 0.0995803 0.114121 0.0886829 0.103687 0.0995803 0.114121 0
0.115122 0.131406 0.125165 0.140841 0.115122 0.131406 0.125165 0.140841 0
0.143355 0.159777 0.152304 0.168002 0.143355 0.159777 0.152304 0.168002 0
0.173675 0.195297 0.181352 0.202198 0.173675 0.195297 0.181352 0.202198 0
-0.016551 -0.00689581 -0.00373527 0.00598428 -0.016551 -0.00689581 -0.00373527 0.00598428 0
0.000690362 0.0117789 0.0135909 0.0246706 0.000690362 0.0117789 0.0135909 0.0246706 0
0.0204587 0.0331062 0.0333014 0.0458236 0.0204587 0.0331062 0.0333014 0.0458236 0
0.0429538 0.0572383 0.0555241 0.0695313 0.0429538 0.0572383 0.0555241 0.0695313 0
0.0682367 0.0840355 0.0802608 0.0956013 0.0682367 0.0840355 0.0802608 0.0956013 0
0.0961652 0.113549 0.107328 0.124068 0.0961652 0.113549 0.107328 0.124068 0
0.126404 0.144196 0.136391 0.153373 0.126404 0.144196 0.136391 0.153373 0
0.159149 0.182282 0.167702 0.189937 0.159149 0.182282 0.167702 0.189937 0
-0.039875 -0.0304246 -0.026255 -0.0166728 -0.039875 -0.0304246 -0.026255 -0.0166728 0
-0.0229463 -0.0119477 -0.00912141 0.00194449 -0.0229463 -0.0119477 -0.00912141 0.00194449 0
-0.00325993 0.00949892 0.0106392 0.0233493 -0.00325993 0.00949892 0.0106392 0.0233493 0
0.0195311 0.0342079 0.0332856 0.0477486 0.0195311 0.0342079 0.0332856 0.0477486 0
0.0456247 0.0621729 0.0589313 0.0750528 0.0456247 0.0621729 0.0589313 0.0750528 0
0.074996 0.0935233 0.0874767 0.105339 0.074996 0.0935233 0.0874767 0.105339 0
0.107353 0.126662 0.118598 0.137012 0.107353 0.126662 0.118598 0.137012 0
0.142816 0.167705 0.152456 0.176299 0.142816 0.167705 0.152456 0.176299 0
-0.0646004 -0.0555151 -0.0501705 -0.0408542 -0.0646004 -0.0555151 -0.0501705 -0.0408542 0
-0.0482526 -0.0374787 -0.0334538 -0.0225344 -0.0482526 -0.0374787 -0.0334538 -0.0225344 0
-0.0288897 -0.0161766 -0.0138753 -0.00111655 -0.0288897 -0.0161766 -0.0138753 -0.00111655 0
-0.00607405 0.0088398 0.00895992 0.0237565 -0.00607405 0.0088398 0.00895992 0.0237565 0
0.0205755 0.0377566 0.0353214 0.0521527 0.0205755 0.0377566 0.0353214 0.0521527 0
0.0512248 0.0708798 0.0652559 0.0842626 0.0512248 0.0708798 0.0652559 0.0842626 0
0.0857368 0.106722 0.0985211 0.118519 0.0857368 0.106722 0.0985211 0.118519 0
0.124241 0.151182 0.135229 0.160948 0.124241 0.151182 0.135229 0.160948 0
0 0 0 0 0 0 0 0 0
0 0 0 0 0 0 0 0 0
0 0 0 0 0 0 0 0 0
0 0 0 0 0 0 0 0 0
0 0 0 0 0 0 0 0 0
0 0 0 0 0 0 0 0 0
0 0 0 0 0 0 0 0 0
0 0 0 0 0 0 0 0 0
0 0 0 0 0 0 0 0 0
0 0 0 0 0 0 0 0 0
0 0 0 0 0 0 0 0 0
0 0 0 0 0 0 0 0 0
0 0 0 0 0 0 0 0 0
0 0 0 0 0 0 0 0 0
0 0 0 0 0 0 0 0 0
0 0 0 0 0 0 0 0 0
0 0 0 0 0 0 0 0 0
0 0 0 0 0 0 0 0 0
0 0 0 0 0 0 0 0 0
0 0 0 0 0 0 0 0 0
0 0 0 0 0 0 0 0 0
0 0 0 0 0 0 0 0 0
0 0 0 0 0 0 0 0 0
0 0 0 0 0 0 0 0 0
0 0 0 0 0 0 0 0 0
0 0 0 0 0 0 0 0 0
0 0 0 0 0 0 0 0 0
0 0 0 0 0 0 0 0 0
0 0 0 0 0 0 0 0 0
0 0 0 0 0 0 0 0 0
0 0 0 0 0 0 0 0 0
0 0 0 0 0 0 0 0 0
0 0 0 0 0 0 0 0 0
0 0 0 0 0 0 0 0 0
0 0 0 0 0 0 0 0 0
0 0 0 0 0 0 0 0 0
0 0 0 0 0 0 0 0 0
0 0 0 0 0 0 0 0 0
0 0 0 0 0 0 0 0 0
0 0 0 0 0 0 0 0 0
0 0 0 0 0 0 0 0 0
0 0 0 0 0 0 0 0 0
0 0 0 0 0 0 0 0 0
0 0 0 0 0 0 0 0 0
0 0 0 0 0 0 0 0 0
0 0 0 0 0 0 0 0 0
0 0 0 0 0 0 0 0 0
0 0 0 0 0 0 0 0 0
0 0 0 0 0 0 0 0 0
0 0 0 0 0 0 0 0 0
0 0 0 0 0 0 0 0 0
0 0 0 0 0 0 0 0 0
0 0 0 0 0 0 0 0 0
0 0 0 0 0 0 0 0 0
0 0 0 0 0 0 0 0 0
0 0 0 0 0 0 0 0 0
0 0 0 0 0 0 0 0 0
0 0 0 0 0 0 0 0 0
0 0 0 0 0 0 0 0 0
0 0 0 0 0 0 0 0 0
0 0 0 0 0 0 0 0 0
0 0 0 0 0 0 0 0 0
0 0 0 0 0 0 0 0 0
0 0 0 0 0 0 0 0 0
0 0 0 0 0 0 0 0 0
0 0 0 0 0 0 0 0 0
0 0 0 0 0 0 0 0 0
0 0 0 0 0 0 0 0 0
0 0 0 0 0 0 0 0 0
0 0 0 0 0 0 0 0 0
0 0 0 0 0 0 0 0 0
0 0 0 0 0 0 0 0 0
0 0 0 0 0 0 0 0 0
0 0 0 0 0 0 0 0 0
0 0 0 0 0 0 0 0 0
0 0 0 0 0 0 0 0 0
0 0 0 0 0 0 0 0 0
0 0 0 0 0 0 0 0 0
0 0 0 0 0 0 0 0 0
0 0 0 0 0 0 0 0 0
0 0 0 0 0 0 0 0 0
0 0 0 0 0 0 0 0 0
0 0 0 0 0 0 0 0 0
0 0 0 0 0 0 0 0 0
0 0 0 0 0 0 0 0 0
0 0 0 0 0 0 0 0 0
0 0 0 0 0 0 0 0 0
0 0 0 0 0 0 0 0 0
0 0 0 0 0 0 0 0 0
0 0 0 0 0 0 0 0 0
0 0 0 0 0 0 0 0 0
0 0 0 0 0 0 0 0 0
0 0 0 0 0 0 0 0 0
0 0 0 0 0 0 0 0 0
0 0 0 0 0 0 0 0 0
0 0 0 0 0 0 0 0 0
0 0 0 0 0 0 0 0 0
0 0 0 0 0 0 0 0 0
0 0 0 0 0 0 0 0 0
0 0 0 0 0 0 0 0 0
0 0 0 0 0 0 0 0 0
0 0 0 0 0 0 0 0 0
0 0 0 0 0 0 0 0 0
0 0 0 0 0 0 0 0 0
0 0 0 0 0 0 0 0 0
0 0 0 0 0 0 0 0 0
0 0 0 0 0 0 0 0 0
0 0 0 0 0 0 0 0 0
0 0 0 0 0 0 0 0 0
0 0 0 0 0 0 0 0 0
0 0 0 0 0 0 0 0 0
0 0 0 0 0 0 0 0 0
0 0 0 0 0 0 0 0 0
0 0 0 0 0 0 0 0 0
0 0 0 0 0 0 0 0 0
0 0 0 0 0 0 0 0 0
0 0 0 0 0 0 0 0 0
0 0 0 0 0 0 0 0 0
0 0 0 0 0 0 0 0 0
0 0 0 0 0 0 0 0 0
0 0 0 0 0 0 0 0 0
0 0 0 0 0 0 0 0 0
0 0 0 0 0 0 0 0 0
0 0 0 0 0 0 0 0 0
0 0 0 0 0 0 0 0 0
0 0 0 0 0 0 0 0 0
0 0 0 0 0 0 0 0 0
0 0 0 0 0 0 0 0 0
0 0 0 0 0 0 0 0 0
0 0 0 0 0 0 0 0 0
0 0 0 0 0 0 0 0 0
0 0 0 0 0 0 0 0 0
0 0 0 0 0 0 0 0 0
0 0 0 0 0 0 0 0 0
0 0 0 0 0 0 0 0 0
0 0 0 0 0 0 0 0 0
0 0 0 0 0 0 0 0 0
0 0 0 0 0 0 0 0 0
0 0 0 0 0 0 0 0 0
0 0 0 0 0 0 0 0 0
0 0 0 0 0 0 0 0 0
0 0 0 0 0 0 0 0 0
0 0 0 0 0 0 0 0 0
0 0 0 0 0 0 0 0 0
0 0 0 0 0 0 0 0 0
0 0 0 0 0 0 0 0 0
0 0 0 0 0 0 0 0 0
0 0 0 0 0 0 0 0 0
0 0 0 0 0 0 0 0 0
0 0 0 0 0 0 0 0 0
0 0 0 0 0 0 0 0 0
0 0 0 0 0 0 0 0 0
0 0 0 0 0 0 0 0 0
0 0 0 0 0 0 0 0 0
0 0 0 0 0 0 0 0 0
0 0 0 0 0 0 0 0 0
0 0 0 0 0 0 0 0 0
0 0 0 0 0 0 0 0 0
0 0 0 0 0 0 0 0 0
0 0 0 0 0 0 0 0 0
0 0 0 0 0 0 0 0 0
0 0 0 0 0 0 0 0 0
0 0 0 0 0 0 0 0 0
0 0 0 0 0 0 0 0 0
0 0 0 0 0 0 0 0 0
0 0 0 0 0 0 0 0 0
0 0 0 0 0 0 0 0 0
0 0 0 0 0 0 0 0 0
0 0 0 0 0 0 0 0 0
0 0 0 0 0 0 0 0 0
0 0 0 0 0 0 0 0 0
0 0 0 0 0 0 0 0 0
0 0 0 0 0 0 0 0 0
0 0 0 0 0 0 0 0 0
0 0 0 0 0 0 0 0 0
0 0 0 0 0 0 0 0 0
0 0 0 0 0 0 0 0 0
0 0 0 0 0 0 0 0 0
0 0 0 0 0 0 0 0 0
0 0 0 0 0 0 0 0 0
0 0 0 0 0 0 0 0 0
0 0 0 0 0 0 0 0 0
0 0 0 0 0 0 0 0 0
0 0 0 0 0 0 0 0 0
0 0 0 0 0 0 0 0 0
0 0 0 0 0 0 0 0 0
0 0 0 0 0 0 0 0 0
0 0 0 0 0 0 0 0 0
0 0 0 0 0 0 0 0 0
0 0 0 0 0 0 0 0 0
0 0 0 0 0 0 0 0 0
0 0 0 0 0 0 0 0 0
0 0 0 0 0 0 0 0 0
0 0 0 0 0 0 0 0 0
0 0 0 0 0 0 0 0 0
0 0 0 0 0 0 0 0 0
0 0 0 0 0 0 0 0 0
0 0 0 0 0 0 0 0 0
0 0 0 0 0 0 0 0 0
0 0 0 0 0 0 0 0 0
0 0 0 0 0 0 0 0 0
0 0 0 0 0 0 0 0 0
0 0 0 0 0 0 0 0 0
0 0 0 0 0 0 0 0 0
0 0 0 0 0 0 0 0 0
0 0 0 0 0 0 0 0 0
0 0 0 0 0 0 0 0 0
0 0 0 0 0 0 0 0 0
0 0 0 0 0 0 0 0 0
0 0 0 0 0 0 0 0 0
0 0 0 0 0 0 0 0 0
0 0 0 0 0 0 0 0 0
0 0 0 0 0 0 0 0 0
0 0 0 0 0 0 0 0 0
0 0 0 0 0 0 0 0 0
0 0 0 0 0 0 0 0 0
0 0 0 0 0 0 0 0 0
0 0 0 0 0 0 0 0 0
0 0 0 0 0 0 0 0 0
0 0 0 0 0 0 0 0 0
0 0 0 0 0 0 0 0 0
0 0 0 0 0 0 0 0 0
0 0 0 0 0 0 0 0 0
0 0 0 0 0 0 0 0 0
0 0 0 0 0 0 0 0 0
0 0 0 0 0 0 0 0 0
0 0 0 0 0 0 0 0 0
0 0 0 0 0 0 0 0 0
0 0 0 0 0 0 0 0 0
0 0 0 0 0 0 0 0 0
0 0 0 0 0 0 0 0 0
0 0 0 0 0 0 0 0 0
0 0 0 0 0 0 0 0 0
0 0 0 0 0 0 0 0 0
0 0 0 0 0 0 0 0 0
0 0 0 0 0 0 0 0 0
0 0 0 0 0 0 0 0 0
0 0 0 0 0 0 0 0 0
0 0 0 0 0 0 0 0 0
0 0 0 0 0 0 0 0 0
0 0 0 0 0 0 0 0 0
0 0 0 0 0 0 0 0 0
0 0 0 0 0 0 0 0 0
0 0 0 0 0 0 0 0 0
0 0 0 0 0 0 0 0 0
0 0 0 0 0 0 0 0 0
0 0 0 0 0 0 0 0 0
0 0 0 0 0 0 0 0 0
0 0 0 0 0 0 0 0 0
0 0 0 0 0 0 0 0 0
0 0 0 0 0 0 0 0 0
0 0 0 0 0 0 0 0 0
0 0 0 0 0 0 0 0 0
0 0 0 0 0 0 0 0 0
0 0 0 0 0 0 0 0 0
0 0 0 0 0 0 0 0 0
0 0 0 0 0 0 0 0 0
0 0 0 0 0 0 0 0 0
0 0 0 0 0 0 0 0 0
0 0 0 0 0 0 0 0 0
0 0 0 0 0 0 0 0 0
0 0 0 0 0 0 0 0 0
0 0 0 0 0 0 0 0 0
0 0 0 0 0 0 0 0 0
0 0 0 0 0 0 0 0 0
0 0 0 0 0 0 0 0 0
0 0 0 0 0 0 0 0 0
0 0 0 0 0 0 0 0 0
0 0 0 0 0 0 0 0 0
0 0 0 0 0 0 0 0 0
0 0 0 0 0 0 0 0 0
0 0 0 0 0 0 0 0 0
0 0 0 0 0 0 0 0 0
0 0 0 0 0 0 0 0 0
0 0 0 0 0 0 0 0 0
0 0 0 0 0 0 0 0 0
0 0 0 0 0 0 0 0 0
0 0 0 0 0 0 0 0 0
0 0 0 0 0 0 0 0 0
0 0 0 0 0 0 0 0 0
0 0 0 0 0 0 0 0 0
0 0 0 0 0 0 0 0 0
0 0 0 0 0 0 0 0 0
0 0 0 0 0 0 0 0 0
0 0 0 0 0 0 0 0 0
0 0 0 0 0 0 0 0 0
0 0 0 0 0 0 0 0 0
0 0 0 0 0 0 0 0 0
0 0 0 0 0 0 0 0 0
0 0 0 0 0 0 0 0 0
0 0 0 0 0 0 0 0 0
0 0 0 0 0 0 0 0 0
0 0 0 0 0 0 0 0 0
0 0 0 0 0 0 0 0 0
0 0 0 0 0 0 0 0 0
0 0 0 0 0 0 0 0 0
0 0 0 0 0 0 0 0 0
0 0 0 0 0 0 0 0 0
0 0 0 0 0 0 0 0 0
0 0 0 0 0 0 0 0 0
0 0 0 0 0 0 0 0 0
0 0 0 0 0 0 0 0 0
0 0 0 0 0 0 0 0 0
0 0 0 0 0 0 0 0 0
0 0 0 0 0 0 0 0 0
0 0 0 0 0 0 0 0 0
0 0 0 0 0 0 0 0 0
0 0 0 0 0 0 0 0 0
0 0 0 0 0 0 0 0 0
0 0 0 0 0 0 0 0 0
0 0 0 0 0 0 0 0 0
0 0 0 0 0 0 0 0 0
0 0 0 0 0 0 0 0 0
0 0 0 0 0 0 0 0 0
0 0 0 0 0 0 0 0 0
0 0 0 0 0 0 0 0 0
0 0 0 0 0 0 0 0 0
0 0 0 0 0 0 0 0 0
0 0 0 0 0 0 0 0 0
0 0 0 0 0 0 0 0 0
0 0 0 0 0 0 0 0 0
0 0 0 0 0 0 0 0 0
0 0 0 0 0 0 0 0 0
0 0 0 0 0 0 0 0 0
0 0 0 0 0 0 0 0 0
0 0 0 0 0 0 0 0 0
0 0 0 0 0 0 0 0 0
0 0 0 0 0 0 0 0 0
0 0 0 0 0 0 0 0 0
0 0 0 0 0 0 0 0 0
0 0 0 0 0 0 0 0 0
0 0 0 0 0 0 0 0 0
0 0 0 0 0 0 0 0 0
0 0 0 0 0 0 0 0 0
0 0 0 0 0 0 0 0 0
0 0 0 0 0 0 0 0 0
0 0 0 0 0 0 0 0 0
0 0 0 0 0 0 0 0 0
0 0 0 0 0 0 0 0 0
0 0 0 0 0 0 0 0 0
0 0 0 0 0 0 0 0 0
0 0 0 0 0 0 0 0 0
0 0 0 0 0 0 0 0 0
0 0 0 0 0 0 0 0 0
0 0 0 0 0 0 0 0 0
0 0 0 0 0 0 0 0 0
0 0 0 0 0 0 0 0 0
0 0 0 0 0 0 0 0 0
0 0 0 0 0 0 0 0 0
0 0 0 0 0 0 0 0 0
0 0 0 0 0 0 0 0 0
0 0 0 0 0 0 0 0 0
0 0 0 0 0 0 0 0 0
0 0 0 0 0 0 0 0 0
0 0 0 0 0 0 0 0 0
0 0 0 0 0 0 0 0 0
0 0 0 0 0 0 0 0 0
0 0 0 0 0 0 0 0 0
0 0 0 0 0 0 0 0 0
0 0 0 0 0 0 0 0 0
0 0 0 0 0 0 0 0 0
0 0 0 0 0 0 0 0 0
0 0 0 0 0 0 0 0 0
0 0 0 0 0 0 0 0 0
0 0 0 0 0 0 0 0 0
0 0 0 0 0 0 0 0 0
0 0 0 0 0 0 0 0 0
0 0 0 0 0 0 0 0 0
0 0 0 0 0 0 0 0 0
0 0 0 0 0 0 0 0 0
0 0 0 0 0 0 0 0 0
0 0 0 0 0 0 0 0 0
0 0 0 0 0 0 0 0 0
0 0 0 0 0 0 0 0 0
0 0 0 0 0 0 0 0 0
0 0 0 0 0 0 0 0 0
0 0 0 0 0 0 0 0 0
0 0 0 0 0 0 0 0 0
0 0 0 0 0 0 0 0 0
0 0 0 0 0 0 0 0 0
SCALARS F_CZ double 9
LOOKUP_TABLE default
0 0 0 0 0 0 0 0 0
0 0 0 0 0 0 0 0 0
0 0 0 0 0 0 0 0 0
0 0 0 0 0 0 0 0 0
0 0 0 0 0 0 0 0 0
0 0 0 0 0 0 0 0 0
0 0 0 0 0 0 0 0 0
0 0 0 0 0 0 0 0 0
0 0 0 0 0 0 0 0 0
0 0 0 0 0 0 0 0 0
0 0 0 0 0 0 0 0 0
0 0 0 0 0 0 0 0 0
0 0 0 0 0 0 0 0 0
0 0 0 0 0 0 0 0 0
0 0 0 0 0 0 0 0 0
0 0 0 0 0 0 0 0 0
0 0 0 0 0 0 0 0 0
0 0 0 0 0 0 0 0 0
0 0 0 0 0 0 0 0 0
0 0 0 0 0 0 0 0 0
0 0 0 0 0 0 0 0 0
0 0 0 0 0 0 0 0 0
0 0 0 0 0 0 0 0 0
0 0 0 0 0 0 0 0 0
0 0 0 0 0 0 0 0 0
0 0 0 0 0 0 0 0 0
0 0 0 0 0 0 0 0 0
0 0 0 0 0 0 0 0 0
0 0 0 0 0 0 0 0 0
0 0 0 0 0 0 0 0 0
0 0 0 0 0 0 0 0 0
0 0 0 0 0 0 0 0 0
0 0 0 0 0 0 0 0 0
0 0 0 0 0 0 0 0 0
0 0 0 0 0 0 0 0 0
0 0 0 0 0 0 0 0 0
0 0 0 0 0 0 0 0 0
0 0 0 0 0 0 0 0 0
0 0 0 0 0 0 0 0 0
0 0 0 0 0 0 0 0 0
0 0 0 0 0 0 0 0 0
0 0 0 0 0 0 0 0 0
0 0 0 0 0 0 0 0 0
0 0 0 0 0 0 0 0 0
0 0 0 0 0 0 0 0 0
0 0 0 0 0 0 0 0 0
0 0 0 0 0 0 0 0 0
0 0 0 0 0 0 0 0 0
0 0 0 0 0 0 0 0 0
0 0 0 0 0 0 0 0 0
0 0 0 0 0 0 0 0 0
0 0 0 0 0 0 0 0 0
0 0 0 0 0 0 0 0 0
0 0 0 0 0 0 0 0 0
0 0 0 0 0 0 0 0 0
0 0 0 0 0 0 0 0 0
0 0 0 0 0 0 0 0 0
0 0 0 0 0 0 0 0 0
0 0 0 0 0 0 0 0 0
0 0 0 0 0 0 0 0 0
0 0 0 0 0 0 0 0 0
0 0 0 0 0 0 0 0 0
0 0 0 0 0 0 0 0 0
0 0 0 0 0 0 0 0 0
0 0 0 0 0 0 0 0 0
0 0 0 0 0 0 0 0 0
0 0 0 0 0 0 0 0 0
0 0 0 0 0 0 0 0 0
0 0 0 0 0 0 0 0 0
0 0 0 0 0 0 0 0 0
0 0 0 0 0 0 0 0 0
0 0 0 0 0 0 0 0 0
0 0 0 0 0 0 0 0 0
0 0 0 0 0 0 0 0 0
0 0 0 0 0 0 0 0 0
0 0 0 0 0 0 0 0 0
0 0 0 0 0 0 0 0 0
0 0 0 0 0 0 0 0 0
0 0 0 0 0 0 0 0 0
0 0 0 0 0 0 0 0 0
0 0 0 0 0 0 0 0 0
0 0 0 0 0 0 0 0 0
0 0 0 0 0 0 0 0 0
0 0 0 0 0 0 0 0 0
0 0 0 0 0 0 0 0 0
0 0 0 0 0 0 0 0 0
0 0 0 0 0 0 0 0 0
0 0 0 0 0 0 0 0 0
0 0 0 0 0 0 0 0 0
0 0 0 0 0 0 0 0 0
0 0 0 0 0 0 0 0 0
0 0 0 0 0 0 0 0 0
0 0 0 0 0 0 0 0 0
0 0 0 0 0 0 0 0 0
0 0 0 0 0 0 0 0 0
0 0 0 0 0 0 0 0 0
0 0 0 0 0 0 0 0 0
0 0 0 0 0 0 0 0 0
0 0 0 0 0 0 0 0 0
0 0 0 0 0 0 0 0 0
0 0 0 0 0 0 0 0 0
0 0 0 0 0 0 0 0 0
0 0 0 0 0 0 0 0 0
0 0 0 0 0 0 0 0 0
0 0 0 0 0 0 0 0 0
0 0 0 0 0 0 0 0 0
0 0 0 0 0 0 0 0 0
0 0 0 0 0 0 0 0 0
0 0 0 0 0 0 0 0 0
0 0 0 0 0 0 0 0 0
0 0 0 0 0 0 0 0 0
0 0 0 0 0 0 0 0 0
0 0 0 0 0 0 0 0 0
0 0 0 0 0 0 0 0 0
0 0 0 0 0 0 0 0 0
0 0 0 0 0 0 0 0 0
0 0 0 0 0 0 0 0 0
0 0 0 0 0 0 0 0 0
0 0 0 0 0 0 0 0 0
0 0 0 0 0 0 0 0 0
0 0 0 0 0 0 0 0 0
0 0 0 0 0 0 0 0 0
0 0 0 0 0 0 0 0 0
0 0 0 0 0 0 0 0 0
0 0 0 0 0 0 0 0 0
0 0 0 0 0 0 0 0 0
0 0 0 0 0 0 0 0 0
0 0 0 0 0 0 0 0 0
0 0 0 0 0 0 0 0 0
0 0 0 0 0 0 0 0 0
0 0 0 0 0 0 0 0 0
0 0 0 0 0 0 0 0 0
0 0 0 0 0 0 0 0 0
0 0 0 0 0 0 0 0 0
0 0 0 0 0 0 0 0 0
0 0 0 0 0 0 0 0 0
0 0 0 0 0 0 0 0 0
0 0 0 0 0 0 0 0 0
0 0 0 0 0 0 0 0 0
0 0 0 0 0 0 0 0 0
0 0 0 0 0 0 0 0 0
0 0 0 0 0 0 0 0 0
0 0 0 0 0 0 0 0 0
0 0 0 0 0 0 0 0 0
0 0 0 0 0 0 0 0 0
0 0 0 0 0 0 0 0 0
0 0 0 0 0 0 0 0 0
0 0 0 0 0 0 0 0 0
0 0 0 0 0 0 0 0 0
0 0 0 0 0 0 0 0 0
0.00657939 0.00680309 0.0064971 0.00671648 0.00657939 0.00680309 0.0064971 0.00671648 0
0.00696833 0.00719628 0.00687855 0.00710216 0.00696833 0.00719628 0.00687855 0.00710216 0
0.00736357 0.00759286 0.00726626 0.00749113 0.00736357 0.00759286 0.00726626 0.00749113 0
0.00633346 0.00656042 0.00625432 0.00647686 0.00633346 0.00656042 0.00625432 0.00647686 0
0.00672823 0.00695988 0.00664134 0.00686833 0.00672823 0.00695988 0.00664134 0.00686833 0
0.00713099 0.00736709 0.00703599 0.00726728 0.00713099 0.00736709 0.00703599 0.00726728 0
0.00754033 0.00777776 0.00743703 0.00766968 0.00754033 0.00777776 0.00743703 0.00766968 0
0.00647618 0.00671129 0.00639292 0.00662326 0.00647618 0.00671129 0.00639292 0.00662326 0
0.00688521 0.00712547 0.00679359 0.0070288 0.00688521 0.00712547 0.00679359 0.0070288 0
0.00730298 0.00754802 0.00720255 0.00744233 0.00730298 0.00754802 0.00720255 0.00744233 0
0.0077278 0.00797421 0.00761826 0.00785938 0.0077278 0.00797421 0.00761826 0.00785938 0
0.00621373 0.00645025 0.00613462 0.00636647 0.00621373 0.00645025 0.00613462 0.00636647 0
0.00662602 0.0068699 0.00653865 0.00677739 0.00662602 0.0068699 0.00653865 0.00677739 0
0.00705046 0.0073001 0.00695405 0.00719818 0.00705046 0.0073001 0.00695405 0.00719818 0
0.00748462 0.00773944 0.00737858 0.00762765 0.00748462 0.00773944 0.00737858 0.00762765 0
0.00792642 0.00818273 0.00781039 0.00806088 0.00792642 0.00818273 0.00781039 0.00806088 0
0.00837627 0.00865016 0.00825039 0.00851907 0.00837627 0.00865016 0.00825039 0.00851907 0
0.0063556 0.00660066 0.00627295 0.00651301 0.0063556 0.00660066 0.00627295 0.00651301 0
0.00678299 0.00703629 0.0066915 0.00693928 0.00678299 0.00703629 0.0066915 0.00693928 0
0.00722402 0.00748391 0.00712281 0.00737668 0.00722402 0.00748391 0.00712281 0.00737668 0
0.0076761 0.00794172 0.00756435 0.00782361 0.0076761 0.00794172 0.00756435 0.00782361 0
0.00813666 0.008404 0.00801385 0.00827469 0.00813666 0.008404 0.00801385 0.00827469 0
0.00860517 0.0088891 0.00847135 0.00874933 0.00860517 0.0088891 0.00847135 0.00874933 0
0.00650337 0.00675753 0.00641734 0.00666619 0.00650337 0.00675753 0.00641734 0.00666619 0
0.00694688 0.00721032 0.00685143 0.00710892 0.00694688 0.00721032 0.00685143 0.00710892 0
0.00740583 0.00767688 0.00729987 0.00756435 0.00740583 0.00767688 0.00729987 0.00756435 0
0.00787751 0.00815509 0.00776001 0.00803055 0.00787751 0.00815509 0.00776001 0.00803055 0
0.00835889 0.0086386 0.00822912 0.00850152 0.00835889 0.0086386 0.00822912 0.00850152 0
0.00884838 0.00914362 0.00870621 0.00899476 0.00884838 0.00914362 0.00870621 0.00899476 0
0.00621443 0.00646741 0.00613424 0.00638225 0.00621443 0.00646741 0.00613424 0.00638225 0
0.00665653 0.00692046 0.00656746 0.00682567 0.00665653 0.00692046 0.00656746 0.00682567 0
0.00711737 0.00739169 0.00701815 0.00728609 0.00711737 0.00739169 0.00701815 0.00728609 0
0.00759562 0.00787884 0.00748509 0.00776115 0.00759562 0.00787884 0.00748509 0.00776115 0
0.00808875 0.00837958 0.00796559 0.00824861 0.00808875 0.00837958 0.00796559 0.00824861 0
0.00859332 0.00888701 0.00845649 0.0087419 0.00859332 0.00888701 0.00845649 0.0087419 0
0.00910662 0.00941493 0.00895568 0.00925622 0.00910662 0.00941493 0.00895568 0.00925622 0
0.00635641 0.00661847 0.00627396 0.0065307 0.00635641 0.00661847 0.00627396 0.0065307 0
0.00681467 0.0070889 0.00672277 0.006991 0.00681467 0.0070889 0.00672277 0.006991 0
0.00729384 0.00757983 0.00719124 0.0074704 0.00729384 0.00757983 0.00719124 0.0074704 0
0.00779287 0.00808933 0.0076781 0.00796678 0.00779287 0.00808933 0.0076781 0.00796678 0
0.00830944 0.00861498 0.00818088 0.00847775 0.00830944 0.00861498 0.00818088 0.00847775 0
0.00883987 0.0091494 0.00869605 0.0089962 0.00883987 0.0091494 0.00869605 0.0089962 0
0.00938028 0.00970377 0.00922039 0.00953486 0.00938028 0.00970377 0.00922039 0.00953486 0
0.00650142 0.00677305 0.00641736 0.0066834 0.00650142 0.00677305 0.00641736 0.0066834 0
0.00697673 0.00726185 0.00688272 0.00716147 0.00697673 0.00726185 0.00688272 0.00716147 0
0.00747532 0.00777379 0.00736995 0.00766112 0.00747532 0.00777379 0.00736995 0.00766112 0
0.00799663 0.00830748 0.00787821 0.00818062 0.00799663 0.00830748 0.00787821 0.00818062 0
0.00853878 0.00886063 0.00840534 0.00871757 0.00853878 0.00886063 0.00840534 0.00871757 0
0.00909803 0.00942558 0.00894758 0.00926445 0.00909803 0.00942558 0.00894758 0.00926445 0
0.00966944 0.0100106 0.0095006 0.00983127 0.00966944 0.0100106 0.0095006 0.00983127 0
0.00617986 0.00644706 0.00610417 0.00636635 0.00617986 0.00644706 0.00610417 0.00636635 0
0.00664789 0.0069296 0.00656319 0.00683901 0.00664789 0.0069296 0.00656319 0.00683901 0
0.00714117 0.00743777 0.00704598 0.00733587 0.00714117 0.00743777 0.00704598 0.00733587 0
0.00766029 0.00797205 0.00755311 0.00785709 0.00766029 0.00797205 0.00755311 0.00785709 0
0.00820542 0.0085318 0.0080843 0.00840157 0.00820542 0.0085318 0.0080843 0.00840157 0
0.00877534 0.00911521 0.00863792 0.00896716 0.00877534 0.00911521 0.00863792 0.00896716 0
0.00936667 0.00971474 0.00921032 0.00954623 0.00936667 0.00971474 0.00921032 0.00954623 0
0.00997363 0.0103357 0.00979618 0.0101458 0.00997363 0.0103357 0.00979618 0.0101458 0
0.00630952 0.00658574 0.00623487 0.00650584 0.00630952 0.00658574 0.00623487 0.00650584 0
0.00679372 0.00708594 0.00670966 0.00699575 0.00679372 0.00708594 0.00670966 0.00699575 0
0.00730577 0.00761447 0.00721077 0.00751241 0.00730577 0.00761447 0.00721077 0.00751241 0
0.00784657 0.00817242 0.00773892 0.00805653 0.00784657 0.00817242 0.00773892 0.00805653 0
0.00841703 0.00876006 0.00829457 0.00862784 0.00841703 0.00876006 0.00829457 0.00862784 0
0.00901688 0.00937645 0.00887687 0.00922486 0.00901688 0.00937645 0.00887687 0.00922486 0
0.0096436 0.010015 0.00948275 0.00984033 0.0096436 0.010015 0.00948275 0.00984033 0
0.0102913 0.0106781 0.0101063 0.0104783 0.0102913 0.0106781 0.0101063 0.0104783 0
0.00643428 0.00671985 0.00636294 0.00664308 0.00643428 0.00671985 0.00636294 0.00664308 0
0.00693525 0.00723843 0.00685416 0.00715095 0.00693525 0.00723843 0.00685416 0.00715095 0
0.00746692 0.00778833 0.00737439 0.00768839 0.00746692 0.00778833 0.00737439 0.00768839 0
0.0080305 0.00837121 0.00792469 0.00825672 0.0080305 0.00837121 0.00792469 0.00825672 0
0.00862773 0.00898854 0.00850628 0.00885669 0.00862773 0.00898854 0.00850628 0.00885669 0
0.00925972 0.00964088 0.00911944 0.0094879 0.00925972 0.00964088 0.00911944 0.0094879 0
0.00992552 0.0103233 0.00976221 0.0101444 0.00992552 0.0103233 0.00976221 0.0101444 0
0.0106199 0.011036 0.0104289 0.0108276 0.0106199 0.011036 0.0104289 0.0108276 0
0 0 0 0 0 0 0 0 0
0 0 0 0 0 0 0 0 0
0 0 0 0 0 0 0 0 0
0 0 0 0 0 0 0 0 0
0 0 0 0 0 0 0 0 0
0 0 0 0 0 0 0 0 0
0 0 0 0 0 0 0 0 0
0 0 0 0 0 0 0 0 0
0 0 0 0 0 0 0 0 0
0 0 0 0 0 0 0 0 0
0 0 0 0 0 0 0 0 0
0 0 0 0 0 0 0 0 0
0 0 0 0 0 0 0 0 0
0 0 0 0 0 0 0 0 0
0 0 0 0 0 0 0 0 0
0 0 0 0 0 0 0 0 0
0 0 0 0 0 0 0 0 0
0 0 0 0 0 0 0 0 0
0 0 0 0 0 0 0 0 0
0 0 0 0 0 0 0 0 0
0 0 0 0 0 0 0 0 0
0 0 0 0 0 0 0 0 0
0 0 0 0 0 0 0 0 0
0 0 0 0 0 0 0 0 0
0 0 0 0 0 0 0 0 0
0 0 0 0 0 0 0 0 0
0 0 0 0 0 0 0 0 0
0 0 0 0 0 0 0 0 0
0 0 0 0 0 0 0 0 0
0 0 0 0 0 0 0 0 0
0 0 0 0 0 0 0 0 0
0 0 0 0 0 0 0 0 0
0 0 0 0 0 0 0 0 0
0 0 0 0 0 0 0 0 0
0 0 0 0 0 0 0 0 0
0 0 0 0 0 0 0 0 0
0 0 0 0 0 0 0 0 0
0 0 0 0 0 0 0 0 0
0 0 0 0 0 0 0 0 0
0 0 0 0 0 0 0 0 0
0 0 0 0 0 0 0 0 0
0 0 0 0 0 0 0 0 0
0 0 0 0 0 0 0 0 0
0 0 0 0 0 0 0 0 0
0 0 0 0 0 0 0 0 0
0 0 0 0 0 0 0 0 0
0 0 0 0 0 0 0 0 0
0 0 0 0 0 0 0 0 0
0 0 0 0 0 0 0 0 0
0 0 0 0 0 0 0 0 0
0 0 0 0 0 0 0 0 0
0 0 0 0 0 0 0 0 0
0 0 0 0 0 0 0 0 0
0 0 0 0 0 0 0 0 0
0 0 0 0 0 0 0 0 0
0 0 0 0 0 0 0 0 0
0 0 0 0 0 0 0 0 0
0 0 0 0 0 0 0 0 0
0 0 0 0 0 0 0 0 0
0 0 0 0 0 0 0 0 0
0 0 0 0 0 0 0 0 0
0 0 0 0 0 0 0 0 0
0 0 0 0 0 0 0 0 0
0 0 0 0 0 0 0 0 0
0 0 0 0 0 0 0 0 0
0 0 0 0 0 0 0 0 0
0 0 0 0 0 0 0 0 0
0 0 0 0 0 0 0 0 0
0 0 0 0 0 0 0 0 0
0 0 0 0 0 0 0 0 0
0 0 0 0 0 0 0 0 0
0 0 0 0 0 0 0 0 0
0 0 0 0 0 0 0 0 0
0 0 0 0 0 0 0 0 0
0 0 0 0 0 0 0 0 0
0 0 0 0 0 0 0 0 0
0 0 0 0 0 0 0 0 0
0 0 0 0 0 0 0 0 0
0 0 0 0 0 0 0 0 0
0 0 0 0 0 0 0 0 0
0 0 0 0 0 0 0 0 0
0 0 0 0 0 0 0 0 0
0 0 0 0 0 0 0 0 0
0 0 0 0 0 0 0 0 0
0 0 0 0 0 0 0 0 0
0 0 0 0 0 0 0 0 0
0 0 0 0 0 0 0 0 0
0 0 0 0 0 0 0 0 0
0 0 0 0 0 0 0 0 0
0 0 0 0 0 0 0 0 0
0 0 0 0 0 0 0 0 0
0 0 0 0 0 0 0 0 0
0 0 0 0 0 0 0 0 0
0 0 0 0 0 0 0 0 0
0 0 0 0 0 0 0 0 0
0 0 0 0 0 0 0 0 0
0 0 0 0 0 0 0 0 0
0 0 0 0 0 0 0 0 0
0 0 0 0 0 0 0 0 0
0 0 0 0 0 0 0 0 0
0 0 0 0 0 0 0 0 0
0 0 0 0 0 0 0 0 0
0 0 0 0 0 0 0 0 0
0 0 0 0 0 0 0 0 0
0 0 0 0 0 0 0 0 0
0 0 0 0 0 0 0 0 0
0 0 0 0 0 0 0 0 0
0 0 0 0 0 0 0 0 0
0 0 0 0 0 0 0 0 0
0 0 0 0 0 0 0 0 0
0 0 0 0 0 0 0 0 0
0 0 0 0 0 0 0 0 0
0 0 0 0 0 0 0 0 0
0 0 0 0 0 0 0 0 0
0 0 0 0 0 0 0 0 0
0 0 0 0 0 0 0 0 0
0 0 0 0 0 0 0 0 0
0 0 0 0 0 0 0 0 0
0 0 0 0 0 0 0 0 0
0 0 0 0 0 0 0 0 0
0 0 0 0 0 0 0 0 0
0 0 0 0 0 0 0 0 0
0 0 0 0 0 0 0 0 0
0 0 0 0 0 0 0 0 0
0 0 0 0 0 0 0 0 0
0 0 0 0 0 0 0 0 0
0 0 0 0 0 0 0 0 0
0 0 0 0 0 0 0 0 0
0 0 0 0 0 0 0 0 0
0 0 0 0 0 0 0 0 0
0 0 0 0 0 0 0 0 0
0 0 0 0 0 0 0 0 0
0 0 0 0 0 0 0 0 0
0 0 0 0 0 0 0 0 0
0 0 0 0 0 0 0 0 0
0 0 0 0 0 0 0 0 0
0 0 0 0 0 0 0 0 0
0 0 0 0 0 0 0 0 0
0 0 0 0 0 0 0 0 0
0 0 0 0 0 0 0 0 0
0 0 0 0 0 0 0 0 0
0 0 0 0 0 0 0 0 0
0 0 0 0 0 0 0 0 0
0 0 0 0 0 0 0 0 0
0 0 0 0 0 0 0 0 0
0 0 0 0 0 0 0 0 0
0 0 0 0 0 0 0 0 0
0 0 0 0 0 0 0 0 0
0 0 0 0 0 0 0 0 0
0 0 0 0 0 0 0 0 0
0 0 0 0 0 0 0 0 0
0 0 0 0 0 0 0 0 0
0 0 0 0 0 0 0 0 0
0 0 0 0 0 0 0 0 0
0 0 0 0 0 0 0 0 0
0 0 0 0 0 0 0 0 0
0 0 0 0 0 0 0 0 0
0 0 0 0 0 0 0 0 0
0 0 0 0 0 0 0 0 0
0 0 0 0 0 0 0 0 0
0 0 0 0 0 0 0 0 0
0 0 0 0 0 0 0 0 0
0 0 0 0 0 0 0 0 0
0 0 0 0 0 0 0 0 0
0 0 0 0 0 0 0 0 0
0 0 0 0 0 0 0 0 0
0 0 0 0 0 0 0 0 0
0 0 0 0 0 0 0 0 0
0 0 0 0 0 0 0 0 0
0 0 0 0 0 0 0 0 0
0 0 0 0 0 0 0 0 0
0 0 0 0 0 0 0 0 0
0 0 0 0 0 0 0 0 0
0 0 0 0 0 0 0 0 0
0 0 0 0 0 0 0 0 0
0 0 0 0 0 0 0 0 0
0 0 0 0 0 0 0 0 0
0 0 0 0 0 0 0 0 0
0 0 0 0 0 0 0 0 0
0 0 0 0 0 0 0 0 0
0 0 0 0 0 0 0 0 0
0 0 0 0 0 0 0 0 0
0 0 0 0 0 0 0 0 0
0 0 0 0 0 0 0 0 0
0 0 0 0 0 0 0 0 0
0 0 0 0 0 0 0 0 0
0 0 0 0 0 0 0 0 0
0 0 0 0 0 0 0 0 0
0 0 0 0 0 0 0 0 0
0 0 0 0 0 0 0 0 0
0 0 0 0 0 0 0 0 0
0 0 0 0 0 0 0 0 0
0 0 0 0 0 0 0 0 0
0 0 0 0 0 0 0 0 0
0 0 0 0 0 0 0 0 0
0 0 0 0 0 0 0 0 0
0 0 0 0 0 0 0 0 0
0 0 0 0 0 0 0 0 0
0 0 0 0 0 0 0 0 0
0 0 0 0 0 0 0 0 0
0 0 0 0 0 0 0 0 0
0 0 0 0 0 0 0 0 0
0 0 0 0 0 0 0 0 0
0 0 0 0 0 0 0 0 0
0 0 0 0 0 0 0 0 0
0 0 0 0 0 0 0 0 0
0 0 0 0 0 0 0 0 0
0 0 0 0 0 0 0 0 0
0 0 0 0 0 0 0 0 0
0 0 0 0 0 0 0 0 0
0 0 0 0 0 0 0 0 0
0 0 0 0 0 0 0 0 0
0 0 0 0 0 0 0 0 0
0 0 0 0 0 0 0 0 0
0 0 0 0 0 0 0 0 0
0 0 0 0 0 0 0 0 0
0 0 0 0 0 0 0 0 0
0 0 0 0 0 0 0 0 0
0 0 0 0 0 0 0 0 0
0 0 0 0 0 0 0 0 0
0 0 0 0 0 0 0 0 0
0 0 0 0 0 0 0 0 0
0 0 0 0 0 0 0 0 0
0 0 0 0 0 0 0 0 0
0 0 0 0 0 0 0 0 0
0 0 0 0 0 0 0 0 0
0 0 0 0 0 0 0 0 0
0 0 0 0 0 0 0 0 0
0 0 0 0 0 0 0 0 0
0 0 0 0 0 0 0 0 0
0 0 0 0 0 0 0 0 0
0 0 0 0 0 0 0 0 0
0 0 0 0 0 0 0 0 0
0 0 0 0 0 0 0 0 0
0 0 0 0 0 0 0 0 0
0 0 0 0 0 0 0 0 0
0 0 0 0 0 0 0 0 0
0 0 0 0 0 0 0 0 0
0 0 0 0 0 0 0 0 0
0 0 0 0 0 0 0 0 0
0 0 0 0 0 0 0 0 0
0 0 0 0 0 0 0 0 0
0 0 0 0 0 0 0 0 0
0 0 0 0 0 0 0 0 0
0 0 0 0 0 0 0 0 0
0 0 0 0 0 0 0 0 0
0 0 0 0 0 0 0 0 0
0 0 0 0 0 0 0 0 0
0 0 0 0 0 0 0 0 0
0 0 0 0 0 0 0 0 0
0 0 0 0 0 0 0 0 0
0 0 0 0 0 0 0 0 0
0 0 0 0 0 0 0 0 0
0 0 0 0 0 0 0 0 0
0 0 0 0 0 0 0 0 0
0 0 0 0 0 0 0 0 0
0 0 0 0 0 0 0 0 0
0 0 0 0 0 0 0 0 0
0 0 0 0 0 0 0 0 0
0 0 0 0 0 0 0 0 0
0 0 0 0 0 0 0 0 0
0 0 0 0 0 0 0 0 0
0 0 0 0 0 0 0 0 0
0 0 0 0 0 0 0 0 0
0 0 0 0 0 0 0 0 0
0 0 0 0 0 0 0 0 0
0 0 0 0 0 0 0 0 0
0 0 0 0 0 0 0 0 0
0 0 0 0 0 0 0 0 0
0 0 0 0 0 0 0 0 0
0 0 0 0 0 0 0 0 0
0 0 0 0 0 0 0 0 0
0 0 0 0 0 0 0 0 0
0 0 0 0 0 0 0 0 0
0 0 0 0 0 0 0 0 0
0 0 0 0 0 0 0 0 0
0 0 0 0 0 0 0 0 0
0 0 0 0 0 0 0 0 0
0 0 0 0 0 0 0 0 0
0 0 0 0 0 0 0 0 0
0 0 0 0 0 0 0 0 0
0 0 0 0 0 0 0 0 0
0 0 0 0 0 0 0 0 0
0 0 0 0 0 0 0 0 0
0 0 0 0 0 0 0 0 0
0 0 0 0 0 0 0 0 0
0 0 0 0 0 0 0 0 0
0 0 0 0 0 0 0 0 0
0 0 0 0 0 0 0 0 0
0 0 0 0 0 0 0 0 0
0 0 0 0 0 0 0 0 0
0 0 0 0 0 0 0 0 0
0 0 0 0 0 0 0 0 0
0 0 0 0 0 0 0 0 0
0 0 0 0 0 0 0 0 0
0 0 0 0 0 0 0 0 0
0 0 0 0 0 0 0 0 0
0 0 0 0 0 0 0 0 0
0 0 0 0 0 0 0 0 0
0 0 0 0 0 0 0 0 0
0 0 0 0 0 0 0 0 0
0 0 0 0 0 0 0 0 0
0 0 0 0 0 0 0 0 0
0 0 0 0 0 0 0 0 0
0 0 0 0 0 0 0 0 0
0 0 0 0 0 0 0 0 0
0 0 0 0 0 0 0 0 0
0 0 0 0 0 0 0 0 0
0 0 0 0 0 0 0 0 0
0 0 0 0 0 0 0 0 0
0 0 0 0 0 0 0 0 0
0 0 0 0 0 0 0 0 0
0 0 0 0 0 0 0 0 0
0 0 0 0 0 0 0 0 0
0 0 0 0 0 0 0 0 0
0 0 0 0 0 0 0 0 0
0 0 0 0 0 0 0 0 0
0 0 0 0 0 0 0 0 0
0 0 0 0 0 0 0 0 0
0 0 0 0 0 0 0 0 0
0 0 0 0 0 0 0 0 0
0 0 0 0 0 0 0 0 0
0 0 0 0 0 0 0 0 0
0 0 0 0 0 0 0 0 0
0 0 0 0 0 0 0 0 0
0 0 0 0 0 0 0 0 0
0 0 0 0 0 0 0 0 0
0 0 0 0 0 0 0 0 0
0 0 0 0 0 0 0 0 0
0 0 0 0 0 0 0 0 0
0 0 0 0 0 0 0 0 0
0 0 0 0 0 0 0 0 0
0 0 0 0 0 0 0 0 0
0 0 0 0 0 0 0 0 0
0 0 0 0 0 0 0 0 0
0 0 0 0 0 0 0 0 0
0 0 0 0 0 0 0 0 0
0 0 0 0 0 0 0 0 0
0 0 0 0 0 0 0 0 0
0 0 0 0 0 0 0 0 0
0 0 0 0 0 0 0 0 0
0 0 0 0 0 0 0 0 0
0 0 0 0 0 0 0 0 0
0 0 0 0 0 0 0 0 0
0 0 0 0 0 0 0 0 0
0 0 0 0 0 0 0 0 0
0 0 0 0 0 0 0 0 0
0 0 0 0 0 0 0 0 0
0 0 0 0 0 0 0 0 0
0 0 0 0 0 0 0 0 0
0 0 0 0 0 0 0 0 0
0 0 0 0 0 0 0 0 0
0 0 0 0 0 0 0 0 0
0 0 0 0 0 0 0 0 0
0 0 0 0 0 0 0 0 0
0 0 0 0 0 0 0 0 0
0 0 0 0 0 0 0 0 0
0 0 0 0 0 0 0 0 0
0 0 0 0 0 0 0 0 0
0 0 0 0 0 0 0 0 0
0 0 0 0 0 0 0 0 0
0 0 0 0 0 0 0 0 0
0 0 0 0 0 0 0 0 0
0 0 0 0 0 0 0 0 0
0 0 0 0 0 0 0 0 0
0 0 0 0 0 0 0 0 0
0 0 0 0 0 0 0 0 0
0 0 0 0 0 0 0 0 0
0 0 0 0 0 0 0 0 0
0 0 0 0 0 0 0 0 0
0 0 0 0 0 0 0 0 0
0 0 0 0 0 0 0 0 0
0 0 0 0 0 0 0 0 0
0 0 0 0 0 0 0 0 0
0 0 0 0 0 0 0 0 0
0 0 0 0 0 0 0 0 0
0 0 0 0 0 0 0 0 0
0 0 0 0 0 0 0 0 0
0 0 0 0 0 0 0 0 0
0 0 0 0 0 0 0 0 0
0 0 0 0 0 0 0 0 0
0 0 0 0 0 0 0 0 0
0 0 0 0 0 0 0 0 0
0 0 0 0 0 0 0 0 0
0 0 0 0 0 0 0 0 0
0 0 0 0 0 0 0 0 0
0 0 0 0 0 0 0 0 0
0 0 0 0 0 0 0 0 0
0 0 0 0 0 0 0 0 0
0 0 0 0 0 0 0 0 0
0 0 0 0 0 0 0 0 0
0 0 0 0 0 0 0 0 0
0 0 0 0 0 0 0 0 0
0 0 0 0 0 0 0 0 0
0 0 0 0 0 0 0 0 0
0 0 0 0 0 0 0 0 0
0 0 0 0 0 0 0 0 0
0 0 0 0 0 0 0 0 0
0 0 0 0 0 0 0 0 0
0 0 0 0 0 0 0 0 0
0 0 0 0 0 0 0 0 0
0 0 0 0 0 0 0 0 0
0 0 0 0 0 0 0 0 0
0 0 0 0 0 0 0 0 0
0 0 0 0 0 0 0 0 0
0 0 0 0 0 0 0 0 0
0 0 0 0 0 0 0 0 0
0 0 0 0 0 0 0 0 0
0 0 0 0 0 0 0 0 0
0 0 0 0 0 0 0 0 0
0 0 0 0 0 0 0 0 0
0 0 0 0 0 0 0 0 0
0 0 0 0 0 0 0 0 0
0 0 0 0 0 0 0 0 0
0 0 0 0 0 0 0 0 0
0 0 0 0 0 0 0 0 0
0 0 0 0 0 0 0 0 0
0 0 0 0 0 0 0 0 0
0 0 0 0 0 0 0 0 0
0 0 0 0 0 0 0 0 0
0 0 0 0 0 0 0 0 0
0 0 0 0 0 0 0 0 0
0 0 0 0 0 0 0 0 0
0 0 0 0 0 0 0 0 0
0 0 0 0 0 0 0 0 0
0 0 0 0 0 0 0 0 0
0 0 0 0 0 0 0 0 0
0 0 0 0 0 0 0 0 0
0 0 0 0 0 0 0 0 0
0 0 0 0 0 0 0 0 0
0 0 0 0 0 0 0 0 0
0 0 0 0 0 0 0 0 0
0 0 0 0 0 0 0 0 0
0 0 0 0 0 0 0 0 0
0 0 0 0 0 0 0 0 0
0 0 0 0 0 0 0 0 0
0 0 0 0 0 0 0 0 0
0 0 0 0 0 0 0 0 0
0 0 0 0 0 0 0 0 0
0 0 0 0 0 0 0 0 0
0 0 0 0 0 0 0 0 0
0 0 0 0 0 0 0 0 0
0 0 0 0 0 0 0 0 0
0 0 0 0 0 0 0 0 0
0 0 0 0 0 0 0 0 0
0 0 0 0 0 0 0 0 0
0 0 0 0 0 0 0 0 0
0 0 0 0 0 0 0 0 0
0 0 0 0 0 0 0 0 0
0 0 0 0 0 0 0 0 0
0 0 0 0 0 0 0 0 0
0 0 0 0 0 0 0 0 0
0 0 0 0 0 0 0 0 0
0 0 0 0 0 0 0 0 0
0 0 0 0 0 0 0 0 0
0 0 0 0 0 0 0 0 0
0 0 0 0 0 0 0 0 0
0 0 0 0 0 0 0 0 0
0 0 0 0 0 0 0 0 0
0 0 0 0 0 0 0 0 0
0 0 0 0 0 0 0 0 0
0 0 0 0 0 0 0 0 0
0 0 0 0 0 0 0 0 0
0 0 0 0 0 0 0 0 0
0 0 0 0 0 0 0 0 0
0 0 0 0 0 0 0 0 0
0 0 0 0 0 0 0 0 0
0 0 0 0 0 0 0 0 0
0 0 0 0 0 0 0 0 0
0 0 0 0 0 0 0 0 0
0 0 0 0 0 0 0 0 0
0 0 0 0 0 0 0 0 0
0 0 0 0 0 0 0 0 0
0 0 0 0 0 0 0 0 0
0 0 0 0 0 0 0 0 0
0 0 0 0 0 0 0 0 0
0 0 0 0 0 0 0 0 0
0 0 0 0 0 0 0 0 0
0 0 0 0 0 0 0 0 0
0 0 0 0 0 0 0 0 0
0 0 0 0 0 0 0 0 0
0 0 0 0 0 0 0 0 0
0 0 0 0 0 0 0 0 0
0 0 0 0 0 0 0 0 0
0 0 0 0 0 0 0 0 0
0 0 0 0 0 0 0 0 0
0 0 0 0 0 0 0 0 0
0 0 0 0 0 0 0 0 0
0 0 0 0 0 0 0 0 0
0 0 0 0 0 0 0 0 0
0 0 0 0 0 0 0 0 0
0 0 0 0 0 0 0 0 0
0 0 0 0 0 0 0 0 0
0 0 0 0 0 0 0 0 0
0 0 0 0 0 0 0 0 0
0 0 0 0 0 0 0 0 0
0 0 0 0 0 0 0 0 0
0 0 0 0 0 0 0 0 0
0 0 0 0 0 0 0 0 0
0 0 0 0 0 0 0 0 0
0 0 0 0 0 0 0 0 0
0 0 0 0 0 0 0 0 0
0 0 0 0 0 0 0 0 0
0 0 0 0 0 0 0 0 0
0 0 0 0 0 0 0 0 0
0 0 0 0 0 0 0 0 0
0 0 0 0 0 0 0 0 0
0 0 0 0 0 0 0 0 0
0 0 0 0 0 0 0 0 0
0 0 0 0 0 0 0 0 0
0 0 0 0 0 0 0 0 0
0 0 0 0 0 0 0 0 0
0 0 0 0 0 0 0 0 0
0 0 0 0 0 0 0 0 0
0 0 0 0 0 0 0 0 0
0 0 0 0 0 0 0 0 0
0 0 0 0 0 0 0 0 0
0 0 0 0 0 0 0 0 0
0 0 0 0 0 0 0 0 0
0 0 0 0 0 0 0 0 0
0 0 0 0 0 0 0 0 0
0 0 0 0 0 0 0 0 0
0 0 0 0 0 0 0 0 0
0 0 0 0 0 0 0 0 0
0 0 0 0 0 0 0 0 0
0 0 0 0 0 0 0 0 0
0 0 0 0 0 0 0 0 0
0 0 0 0 0 0 0 0 0
0 0 0 0 0 0 0 0 0
0 0 0 0 0 0 0 0 0
0 0 0 0 0 0 0 0 0
0 0 0 0 0 0 0 0 0
0 0 0 0 0 0 0 0 0
0 0 0 0 0 0 0 0 0
0 0 0 0 0 0 0 0 0
0 0 0 0 0 0 0 0 0
0 0 0 0 0 0 0 0 0
0 0 0 0 0 0 0 0 0
0 0 0 0 0 0 0 0 0
0 0 0 0 0 0 0 0 0
0 0 0 0 0 0 0 0 0
0 0 0 0 0 0 0 0 0
0 0 0 0 0 0 0 0 0
0 0 0 0 0 0 0 0 0
0 0 0 0 0 0 0 0 0
0 0 0 0 0 0 0 0 0
0 0 0 0 0 0 0 0 0
0 0 0 0 0 0 0 0 0
0 0 0 0 0 0 0 0 0
0 0 0 0 0 0 0 0 0
0 0 0 0 0 0 0 0 0
0 0 0 0 0 0 0 0 0
0 0 0 0 0 0 0 0 0
0 0 0 0 0 0 0 0 0
0 0 0 0 0 0 0 0 0
0 0 0 0 0 0 0 0 0
0 0 0 0 0 0 0 0 0
0 0 0 0 0 0 0 0 0
0 0 0 0 0 0 0 0 0
0 0 0 0 0 0 0 0 0
0 0 0 0 0 0 0 0 0
0 0 0 0 0 0 0 0 0
0 0 0 0 0 0 0 0 0
0 0 0 0 0 0 0 0 0
0 0 0 0 0 0 0 0 0
0 0 0 0 0 0 0 0 0
0 0 0 0 0 0 0 0 0
0 0 0 0 0 0 0 0 0
0 0 0 0 0 0 0 0 0
0 0 0 0 0 0 0 0 0
0 0 0 0 0 0 0 0 0
0 0 0 0 0 0 0 0 0
0 0 0 0 0 0 0 0 0
0 0 0 0 0 0 0 0 0
0 0 0 0 0 0 0 0 0
0 0 0 0 0 0 0 0 0
0 0 0 0 0 0 0 0 0
0 0 0 0 0 0 0 0 0
0 0 0 0 0 0 0 0 0
0 0 0 0 0 0 0 0 0
0 0 0 0 0 0 0 0 0
0 0 0 0 0 0 0 0 0
0 0 0 0 0 0 0 0 0
0 0 0 0 0 0 0 0 0
0 0 0 0 0 0 0 0 0
0 0 0 0 0 0 0 0 0
0 0 0 0 0 0 0 0 0
0 0 0 0 0 0 0 0 0
0 0 0 0 0 0 0 0 0
0 0 0 0 0 0 0 0 0
0 0 0 0 0 0 0 0 0
0 0 0 0 0 0 0 0 0
0 0 0 0 0 0 0 0 0
0 0 0 0 0 0 0 0 0
0 0 0 0 0 0 0 0 0
0 0 0 0 0 0 0 0 0
0 0 0 0 0 0 0 0 0
0 0 0 0 0 0 0 0 0
0 0 0 0 0 0 0 0 0
0 0 0 0 0 0 0 0 0
0 0 0 0 0 0 0 0 0
0 0 0 0 0 0 0 0 0
0 0 0 0 0 0 0 0 0
0 0 0 0 0 0 0 0 0
0 0 0 0 0 0 0 0 0
0 0 0 0 0 0 0 0 0
0 0 0 0 0 0 0 0 0
0 0 0 0 0 0 0 0 0
0 0 0 0 0 0 0 0 0
0 0 0 0 0 0 0 0 0
0 0 0 0 0 0 0 0 0
0 0 0 0 0 0 0 0 0
0 0 0 0 0 0 0 0 0
0 0 0 0 0 0 0 0 0
0 0 0 0 0 0 0 0 0
0 0 0 0 0 0 0 0 0
0 0 0 0 0 0 0 0 0
0 0 0 0 0 0 0 0 0
0 0 0 0 0 0 0 0 0
0 0 0 0 0 0 0 0 0
0 0 0 0 0 0 0 0 0
0 0 0 0 0 0 0 0 0
0 0 0 0 0 0 0 0 0
0 0 0 0 0 0 0 0 0
0 0 0 0 0 0 0 0 0
0 0 0 0 0 0 0 0 0
0 0 0 0 0 0 0 0 0
0 0 0 0 0 0 0 0 0
0 0 0 0 0 0 0 0 0
0 0 0 0 0 0 0 0 0
0 0 0 0 0 0 0 0 0
0 0 0 0 0 0 0 0 0
0 0 0 0 0 0 0 0 0
0 0 0 0 0 0 0 0 0
0 0 0 0 0 0 0 0 0
0 0 0 0 0 0 0 0 0
0 0 0 0 0 0 0 0 0
0 0 0 0 0 0 0 0 0
0 0 0 0 0 0 0 0 0
0 0 0 0 0 0 0 0 0
0 0 0 0 0 0 0 0 0
0 0 0 0 0 0 0 0 0
0 0 0 0 0 0 0 0 0
0 0 0 0 0 0 0 0 0
0 0 0 0 0 0 0 0 0
0 0 0 0 0 0 0 0 0
0 0 0 0 0 0 0 0 0
0 0 0 0 0 0 0 0 0
0 0 0 0 0 0 0 0 0
0 0 0 0 0 0 0 0 0
0 0 0 0 0 0 0 0 0
0 0 0 0 0 0 0 0 0
0 0 0 0 0 0 0 0 0
0 0 0 0 0 0 0 0 0
0 0 0 0 0 0 0 0 0
0 0 0 0 0 0 0 0 0
0 0 0 0 0 0 0 0 0
0 0 0 0 0 0 0 0 0
0 0 0 0 0 0 0 0 0
0 0 0 0 0 0 0 0 0
0 0 0 0 0 0 0 0 0
0 0 0 0 0 0 0 0 0
0 0 0 0 0 0 0 0 0
0 0 0 0 0 0 0 0 0
0 0 0 0 0 0 0 0 0
0 0 0 0 0 0 0 0 0
0 0 0 0 0 0 0 0 0
0 0 0 0 0 0 0 0 0
0 0 0 0 0 0 0 0 0
0 0 0 0 0 0 0 0 0
0 0 0 0 0 0 0 0 0
0 0 0 0 0 0 0 0 0
0 0 0 0 0 0 0 0 0
0 0 0 0 0 0 0 0 0
0 0 0 0 0 0 0 0 0
0 0 0 0 0 0 0 0 0
0 0 0 0 0 0 0 0 0
0 0 0 0 0 0 0 0 0
0 0 0 0 0 0 0 0 0
0 0 0 0 0 0 0 0 0
0 0 0 0 0 0 0 0 0
0 0 0 0 0 0 0 0 0
0 0 0 0 0 0 0 0 0
0 0 0 0 0 0 0 0 0
0 0 0 0 0 0 0 0 0
0 0 0 0 0 0 0 0 0
0 0 0 0 0 0 0 0 0
0 0 0 0 0 0 0 0 0
0 0 0 0 0 0 0 0 0
0 0 0 0 0 0 0 0 0
0 0 0 0 0 0 0 0 0
0 0 0 0 0 0 0 0 0
0 0 0 0 0 0 0 0 0
0.0118656 0.01226 0.0117166 0.0121026 0.0118656 0.01226 0.0117166 0.0121026 0
0.0125483 0.0129417 0.0123847 0.0127694 0.0125483 0.0129417 0.0123847 0.0127694 0
0.0132238 0.0136007 0.0130451 0.0134131 0.0132238 0.0136007 0.0130451 0.0134131 0
0.0138759 0.0142515 0.0136821 0.0140497 0.0138759 0.0142515 0.0136821 0.0140497 0
0.0114296 0.0118362 0.0112873 0.0116854 0.0114296 0.0118362 0.0112873 0.0116854 0
0.012135 0.0125449 0.0119777 0.0123786 0.012135 0.0125449 0.0119777 0.0123786 0
0.0128448 0.0132541 0.0126717 0.0130716 0.0128448 0.0132541 0.0126717 0.0130716 0
0.013548 0.0139413 0.0133585 0.0137422 0.013548 0.0139413 0.0133585 0.0137422 0
0.0142279 0.0146185 0.0140222 0.0144039 0.0142279 0.0146185 0.0140222 0.0144039 0
0.0116864 0.0121085 0.0115366 0.0119496 0.0116864 0.0121085 0.0115366 0.0119496 0
0.0124191 0.0128457 0.0122533 0.0126701 0.0124191 0.0128457 0.0122533 0.0126701 0
0.0131579 0.0135845 0.0129751 0.0133916 0.0131579 0.0135845 0.0129751 0.0133916 0
0.0138912 0.0143024 0.0136907 0.0140914 0.0138912 0.0143024 0.0136907 0.0140914 0
0.0146016 0.0150086 0.0143832 0.0147806 0.0146016 0.0150086 0.0143832 0.0147806 0
0.0112107 0.0116391 0.0110688 0.0114884 0.0112107 0.0116391 0.0110688 0.0114884 0
0.0119564 0.0123952 0.0117989 0.0122279 0.0119564 0.0123952 0.0117989 0.0122279 0
0.0127183 0.0131628 0.0125437 0.0129777 0.0127183 0.0131628 0.0125437 0.0129777 0
0.0134884 0.0139338 0.0132954 0.0137298 0.0134884 0.0139338 0.0132954 0.0137298 0
0.0142545 0.0146852 0.0140423 0.0144615 0.0142545 0.0146852 0.0140423 0.0144615 0
0.0149982 0.0154234 0.0147664 0.0151809 0.0149982 0.0154234 0.0147664 0.0151809 0
0.0114661 0.0119105 0.0113172 0.0117522 0.0114661 0.0119105 0.0113172 0.0117522 0
0.0122401 0.0126965 0.0120746 0.0125207 0.0122401 0.0126965 0.0120746 0.0125207 0
0.0130331 0.0134969 0.0128495 0.0133019 0.0130331 0.0134969 0.0128495 0.0133019 0
0.013837 0.0143029 0.0136335 0.0140874 0.013837 0.0143029 0.0136335 0.0140874 0
0.0146389 0.0150911 0.0144144 0.0148539 0.0146389 0.0150911 0.0144144 0.0148539 0
0.0154193 0.0158648 0.0151732 0.0156067 0.0154193 0.0158648 0.0151732 0.0156067 0
0.0117336 0.0121949 0.0115777 0.0120291 0.0117336 0.0121949 0.0115777 0.0120291 0
0.0125375 0.0130127 0.0123641 0.0128283 0.0125375 0.0130127 0.0123641 0.0128283 0
0.0133639 0.0138485 0.013171 0.0136433 0.0133639 0.0138485 0.013171 0.0136433 0
0.0142043 0.0146926 0.0139899 0.0144651 0.0142043 0.0146926 0.0139899 0.0144651 0
0.0150455 0.0155213 0.014808 0.0152699 0.0150455 0.0155213 0.014808 0.0152699 0
0.0158664 0.0163345 0.015605 0.0160598 0.0158664 0.0163345 0.015605 0.0160598 0
0.011209 0.0116694 0.0110623 0.0115137 0.011209 0.0116694 0.0110623 0.0115137 0
0.0120132 0.0124923 0.0118503 0.012319 0.0120132 0.0124923 0.0118503 0.012319 0
0.0128488 0.0133442 0.0126674 0.013151 0.0128488 0.0133442 0.0126674 0.013151 0
0.013711 0.014218 0.0135086 0.0140025 0.013711 0.014218 0.0135086 0.0140025 0
0.0145911 0.0151039 0.0143654 0.0148638 0.0145911 0.0151039 0.0143654 0.0148638 0
0.0154753 0.0159774 0.0152243 0.0157109 0.0154753 0.0159774 0.0152243 0.0157109 0
0.0163413 0.0168347 0.0160637 0.0165421 0.0163413 0.0168347 0.0160637 0.0165421 0
0.0114714 0.0119482 0.0113186 0.0117859 0.0114714 0.0119482 0.0113186 0.0117859 0
0.0123049 0.0128028 0.012135 0.0126219 0.0123049 0.0128028 0.012135 0.0126219 0
0.0131741 0.013691 0.0129846 0.0134889 0.0131741 0.013691 0.0129846 0.0134889 0
0.0140745 0.014606 0.0138626 0.0143798 0.0140745 0.014606 0.0138626 0.0143798 0
0.0149978 0.0155375 0.0147605 0.0152844 0.0149978 0.0155375 0.0147605 0.0152844 0
0.0159294 0.0164609 0.0156642 0.0161784 0.0159294 0.0164609 0.0156642 0.0161784 0
0.0168459 0.017368 0.0165509 0.017056 0.0168459 0.017368 0.0165509 0.017056 0
0.011744 0.012238 0.0115853 0.0120693 0.011744 0.012238 0.0115853 0.0120693 0
0.0126082 0.0131261 0.0124316 0.0129379 0.0126082 0.0131261 0.0124316 0.0129379 0
0.0135131 0.014053 0.0133157 0.0138421 0.0135131 0.014053 0.0133157 0.0138421 0
0.0144546 0.0150125 0.0142331 0.0147755 0.0144546 0.0150125 0.0142331 0.0147755 0
0.0154247 0.0159941 0.0151757 0.0157276 0.0154247 0.0159941 0.0151757 0.0157276 0
0.0164088 0.016973 0.0161289 0.0166738 0.0164088 0.016973 0.0161289 0.0166738 0
0.017382 0.0179369 0.0170686 0.0176041 0.017382 0.0179369 0.0170686 0.0176041 0
0.0111757 0.011661 0.0110278 0.0115042 0.0111757 0.011661 0.0110278 0.0115042 0
0.0120259 0.012538 0.011862 0.0123635 0.0120259 0.012538 0.011862 0.0123635 0
0.0129225 0.0134615 0.0127397 0.0132663 0.0129225 0.0134615 0.0127397 0.0132663 0
0.0138652 0.0144297 0.0136602 0.0142104 0.0138652 0.0144297 0.0136602 0.0142104 0
0.0148508 0.0154373 0.01462 0.0151897 0.0148508 0.0154373 0.01462 0.0151897 0
0.0158719 0.0164739 0.0156112 0.016194 0.0158719 0.0164739 0.0156112 0.016194 0
0.016914 0.017515 0.0166191 0.0171984 0.016914 0.017515 0.0166191 0.0171984 0
0.0179511 0.0185436 0.0176184 0.0181886 0.0179511 0.0185436 0.0176184 0.0181886 0
0.0114374 0.0119385 0.0112855 0.0117773 0.0114374 0.0119385 0.0112855 0.0117773 0
0.0123161 0.0128472 0.0121475 0.0126675 0.0123161 0.0128472 0.0121475 0.0126675 0
0.0132467 0.013808 0.0130583 0.0136066 0.0132467 0.013808 0.0130583 0.0136066 0
0.0142294 0.0148203 0.0140176 0.0145931 0.0142294 0.0148203 0.0140176 0.0145931 0
0.0152622 0.0158797 0.0150228 0.0156221 0.0152622 0.0158797 0.0150228 0.0156221 0
0.0163388 0.0169769 0.0160668 0.0166836 0.0163388 0.0169769 0.0160668 0.0166836 0
0.0174452 0.0180875 0.0171353 0.0177532 0.0174452 0.0180875 0.0171353 0.0177532 0
0.0185545 0.0191904 0.0182018 0.018812 0.0185545 0.0191904 0.0182018 0.018812 0
0.0117047 0.0122224 0.0115497 0.0120577 0.0117047 0.0122224 0.0115497 0.0120577 0
0.0126132 0.0131639 0.0124409 0.0129801 0.0126132 0.0131639 0.0124409 0.0129801 0
0.0135792 0.0141638 0.0133862 0.0139572 0.0135792 0.0141638 0.0133862 0.0139572 0
0.014604 0.0152228 0.0143864 0.0149889 0.014604 0.0152228 0.0143864 0.0149889 0
0.0156871 0.0163381 0.0154402 0.0160715 0.0156871 0.0163381 0.0154402 0.0160715 0
0.016824 0.0175018 0.0165417 0.017196 0.016824 0.0175018 0.0165417 0.017196 0
0.0180018 0.0186908 0.0176773 0.0183387 0.0180018 0.0186908 0.0176773 0.0183387 0
0.0191932 0.0198793 0.01882 0.0194763 0.0191932 0.0198793 0.01882 0.0194763 0
0 0 0 0 0 0 0 0 0
0 0 0 0 0 0 0 0 0
0 0 0 0 0 0 0 0 0
0 0 0 0 0 0 0 0 0
0 0 0 0 0 0 0 0 0
0 0 0 0 0 0 0 0 0
0 0 0 0 0 0 0 0 0
0 0 0 0 0 0 0 0 0
0 0 0 0 0 0 0 0 0
0 0 0 0 0 0 0 0 0
0 0 0 0 0 0 0 0 0
0 0 0 0 0 0 0 0 0
0 0 0 0 0 0 0 0 0
0 0 0 0 0 0 0 0 0
0 0 0 0 0 0 0 0 0
0 0 0 0 0 0 0 0 0
0 0 0 0 0 0 0 0 0
0 0 0 0 0 0 0 0 0
0 0 0 0 0 0 0 0 0
0 0 0 0 0 0 0 0 0
0 0 0 0 0 0 0 0 0
0 0 0 0 0 0 0 0 0
0 0 0 0 0 0 0 0 0
0 0 0 0 0 0 0 0 0
0 0 0 0 0 0 0 0 0
0 0 0 0 0 0 0 0 0
0 0 0 0 0 0 0 0 0
0 0 0 0 0 0 0 0 0
0 0 0 0 0 0 0 0 0
0 0 0 0 0 0 0 0 0
0 0 0 0 0 0 0 0 0
0 0 0 0 0 0 0 0 0
0 0 0 0 0 0 0 0 0
0 0 0 0 0 0 0 0 0
0 0 0 0 0 0 0 0 0
0 0 0 0 0 0 0 0 0
0 0 0 0 0 0 0 0 0
0 0 0 0 0 0 0 0 0
0 0 0 0 0 0 0 0 0
0 0 0 0 0 0 0 0 0
0 0 0 0 0 0 0 0 0
0 0 0 0 0 0 0 0 0
0 0 0 0 0 0 0 0 0
0 0 0 0 0 0 0 0 0
0 0 0 0 0 0 0 0 0
0 0 0 0 0 0 0 0 0
0 0 0 0 0 0 0 0 0
0 0 0 0 0 0 0 0 0
0 0 0 0 0 0 0 0 0
0 0 0 0 0 0 0 0 0
0 0 0 0 0 0 0 0 0
0 0 0 0 0 0 0 0 0
0 0 0 0 0 0 0 0 0
0 0 0 0 0 0 0 0 0
0 0 0 0 0 0 0 0 0
0 0 0 0 0 0 0 0 0
0 0 0 0 0 0 0 0 0
0 0 0 0 0 0 0 0 0
0 0 0 0 0 0 0 0 0
0 0 0 0 0 0 0 0 0
0 0 0 0 0 0 0 0 0
0 0 0 0 0 0 0 0 0
0 0 0 0 0 0 0 0 0
0 0 0 0 0 0 0 0 0
0 0 0 0 0 0 0 0 0
0 0 0 0 0 0 0 0 0
0 0 0 0 0 0 0 0 0
0 0 0 0 0 0 0 0 0
0 0 0 0 0 0 0 0 0
0 0 0 0 0 0 0 0 0
0 0 0 0 0 0 0 0 0
0 0 0 0 0 0 0 0 0
0 0 0 0 0 0 0 0 0
0 0 0 0 0 0 0 0 0
0 0 0 0 0 0 0 0 0
0 0 0 0 0 0 0 0 0
0 0 0 0 0 0 0 0 0
0 0 0 0 0 0 0 0 0
0 0 0 0 0 0 0 0 0
0 0 0 0 0 0 0 0 0
0 0 0 0 0 0 0 0 0
0 0 0 0 0 0 0 0 0
0 0 0 0 0 0 0 0 0
0 0 0 0 0 0 0 0 0
0 0 0 0 0 0 0 0 0
0 0 0 0 0 0 0 0 0
0 0 0 0 0 0 0 0 0
0 0 0 0 0 0 0 0 0
0 0 0 0 0 0 0 0 0
0 0 0 0 0 0 0 0 0
0 0 0 0 0 0 0 0 0
0 0 0 0 0 0 0 0 0
0 0 0 0 0 0 0 0 0
0 0 0 0 0 0 0 0 0
0 0 0 0 0 0 0 0 0
0 0 0 0 0 0 0 0 0
0 0 0 0 0 0 0 0 0
0 0 0 0 0 0 0 0 0
0 0 0 0 0 0 0 0 0
0 0 0 0 0 0 0 0 0
0 0 0 0 0 0 0 0 0
0 0 0 0 0 0 0 0 0
0 0 0 0 0 0 0 0 0
0 0 0 0 0 0 0 0 0
0 0 0 0 0 0 0 0 0
0 0 0 0 0 0 0 0 0
0 0 0 0 0 0 0 0 0
0 0 0 0 0 0 0 0 0
0 0 0 0 0 0 0 0 0
0 0 0 0 0 0 0 0 0
0 0 0 0 0 0 0 0 0
0 0 0 0 0 0 0 0 0
0 0 0 0 0 0 0 0 0
0 0 0 0 0 0 0 0 0
0 0 0 0 0 0 0 0 0
0 0 0 0 0 0 0 0 0
0 0 0 0 0 0 0 0 0
0 0 0 0 0 0 0 0 0
0 0 0 0 0 0 0 0 0
0 0 0 0 0 0 0 0 0
0 0 0 0 0 0 0 0 0
0 0 0 0 0 0 0 0 0
0 0 0 0 0 0 0 0 0
0 0 0 0 0 0 0 0 0
0 0 0 0 0 0 0 0 0
0 0 0 0 0 0 0 0 0
0 0 0 0 0 0 0 0 0
0 0 0 0 0 0 0 0 0
0 0 0 0 0 0 0 0 0
0 0 0 0 0 0 0 0 0
0 0 0 0 0 0 0 0 0
0 0 0 0 0 0 0 0 0
0 0 0 0 0 0 0 0 0
0 0 0 0 0 0 0 0 0
0 0 0 0 0 0 0 0 0
0 0 0 0 0 0 0 0 0
0 0 0 0 0 0 0 0 0
0 0 0 0 0 0 0 0 0
0 0 0 0 0 0 0 0 0
0 0 0 0 0 0 0 0 0
0 0 0 0 0 0 0 0 0
0 0 0 0 0 0 0 0 0
0 0 0 0 0 0 0 0 0
0 0 0 0 0 0 0 0 0
0 0 0 0 0 0 0 0 0
0 0 0 0 0 0 0 0 0
0 0 0 0 0 0 0 0 0
0 0 0 0 0 0 0 0 0
0 0 0 0 0 0 0 0 0
0 0 0 0 0 0 0 0 0
0 0 0 0 0 0 0 0 0
0 0 0 0 0 0 0 0 0
0 0 0 0 0 0 0 0 0
0 0 0 0 0 0 0 0 0
0 0 0 0 0 0 0 0 0
0 0 0 0 0 0 0 0 0
0 0 0 0 0 0 0 0 0
0 0 0 0 0 0 0 0 0
0 0 0 0 0 0 0 0 0
0 0 0 0 0 0 0 0 0
0 0 0 0 0 0 0 0 0
0 0 0 0 0 0 0 0 0
0 0 0 0 0 0 0 0 0
0 0 0 0 0 0 0 0 0
0 0 0 0 0 0 0 0 0
0 0 0 0 0 0 0 0 0
0 0 0 0 0 0 0 0 0
0 0 0 0 0 0 0 0 0
0 0 0 0 0 0 0 0 0
0 0 0 0 0 0 0 0 0
0 0 0 0 0 0 0 0 0
0 0 0 0 0 0 0 0 0
0 0 0 0 0 0 0 0 0
0 0 0 0 0 0 0 0 0
0 0 0 0 0 0 0 0 0
0 0 0 0 0 0 0 0 0
0 0 0 0 0 0 0 0 0
0 0 0 0 0 0 0 0 0
0 0 0 0 0 0 0 0 0
0 0 0 0 0 0 0 0 0
0 0 0 0 0 0 0 0 0
0 0 0 0 0 0 0 0 0
0 0 0 0 0 0 0 0 0
0 0 0 0 0 0 0 0 0
0 0 0 0 0 0 0 0 0
0 0 0 0 0 0 0 0 0
0 0 0 0 0 0 0 0 0
0 0 0 0 0 0 0 0 0
0 0 0 0 0 0 0 0 0
0 0 0 0 0 0 0 0 0
0 0 0 0 0 0 0 0 0
0 0 0 0 0 0 0 0 0
0 0 0 0 0 0 0 0 0
0 0 0 0 0 0 0 0 0
0 0 0 0 0 0 0 0 0
0 0 0 0 0 0 0 0 0
0 0 0 0 0 0 0 0 0
0 0 0 0 0 0 0 0 0
0 0 0 0 0 0 0 0 0
0 0 0 0 0 0 0 0 0
0 0 0 0 0 0 0 0 0
0 0 0 0 0 0 0 0 0
0 0 0 0 0 0 0 0 0
0 0 0 0 0 0 0 0 0
0 0 0 0 0 0 0 0 0
0 0 0 0 0 0 0 0 0
0 0 0 0 0 0 0 0 0
0 0 0 0 0 0 0 0 0
0 0 0 0 0 0 0 0 0
0 0 0 0 0 0 0 0 0
0 0 0 0 0 0 0 0 0
0 0 0 0 0 0 0 0 0
0 0 0 0 0 0 0 0 0
0 0 0 0 0 0 0 0 0
0 0 0 0 0 0 0 0 0
0 0 0 0 0 0 0 0 0
0 0 0 0 0 0 0 0 0
0 0 0 0 0 0 0 0 0
0 0 0 0 0 0 0 0 0
0 0 0 0 0 0 0 0 0
0 0 0 0 0 0 0 0 0
0 0 0 0 0 0 0 0 0
0 0 0 0 0 0 0 0 0
0 0 0 0 0 0 0 0 0
0 0 0 0 0 0 0 0 0
0 0 0 0 0 0 0 0 0
0 0 0 0 0 0 0 0 0
0 0 0 0 0 0 0 0 0
0 0 0 0 0 0 0 0 0
0 0 0 0 0 0 0 0 0
0 0 0 0 0 0 0 0 0
0 0 0 0 0 0 0 0 0
0 0 0 0 0 0 0 0 0
0 0 0 0 0 0 0 0 0
0 0 0 0 0 0 0 0 0
0 0 0 0 0 0 0 0 0
0 0 0 0 0 0 0 0 0
0 0 0 0 0 0 0 0 0
0 0 0 0 0 0 0 0 0
0 0 0 0 0 0 0 0 0
0 0 0 0 0 0 0 0 0
0 0 0 0 0 0 0 0 0
0 0 0 0 0 0 0 0 0
0 0 0 0 0 0 0 0 0
0 0 0 0 0 0 0 0 0
0 0 0 0 0 0 0 0 0
0 0 0 0 0 0 0 0 0
0 0 0 0 0 0 0 0 0
0 0 0 0 0 0 0 0 0
0 0 0 0 0 0 0 0 0
0 0 0 0 0 0 0 0 0
0 0 0 0 0 0 0 0 0
0 0 0 0 0 0 0 0 0
0 0 0 0 0 0 0 0 0
0 0 0 0 0 0 0 0 0
0 0 0 0 0 0 0 0 0
0 0 0 0 0 0 0 0 0
0 0 0 0 0 0 0 0 0
0 0 0 0 0 0 0 0 0
0 0 0 0 0 0 0 0 0
0 0 0 0 0 0 0 0 0
0 0 0 0 0 0 0 0 0
0 0 0 0 0 0 0 0 0
0 0 0 0 0 0 0 0 0
0 0 0 0 0 0 0 0 0
0 0 0 0 0 0 0 0 0
0 0 0 0 0 0 0 0 0
0 0 0 0 0 0 0 0 0
0 0 0 0 0 0 0 0 0
0 0 0 0 0 0 0 0 0
0 0 0 0 0 0 0 0 0
0 0 0 0 0 0 0 0 0
0 0 0 0 0 0 0 0 0
0 0 0 0 0 0 0 0 0
0 0 0 0 0 0 0 0 0
0 0 0 0 0 0 0 0 0
0 0 0 0 0 0 0 0 0
0 0 0 0 0 0 0 0 0
0 0 0 0 0 0 0 0 0
0 0 0 0 0 0 0 0 0
0 0 0 0 0 0 0 0 0
0 0 0 0 0 0 0 0 0
0 0 0 0 0 0 0 0 0
0 0 0 0 0 0 0 0 0
0 0 0 0 0 0 0 0 0
0 0 0 0 0 0 0 0 0
0 0 0 0 0 0 0 0 0
0 0 0 0 0 0 0 0 0
0 0 0 0 0 0 0 0 0
0 0 0 0 0 0 0 0 0
0 0 0 0 0 0 0 0 0
0 0 0 0 0 0 0 0 0
0 0 0 0 0 0 0 0 0
0 0 0 0 0 0 0 0 0
0 0 0 0 0 0 0 0 0
0 0 0 0 0 0 0 0 0
0 0 0 0 0 0 0 0 0
0 0 0 0 0 0 0 0 0
0 0 0 0 0 0 0 0 0
0 0 0 0 0 0 0 0 0
0 0 0 0 0 0 0 0 0
0 0 0 0 0 0 0 0 0
0 0 0 0 0 0 0 0 0
0 0 0 0 0 0 0 0 0
0 0 0 0 0 0 0 0 0
0 0 0 0 0 0 0 0 0
0 0 0 0 0 0 0 0 0
0 0 0 0 0 0 0 0 0
0 0 0 0 0 0 0 0 0
0 0 0 0 0 0 0 0 0
0 0 0 0 0 0 0 0 0
0 0 0 0 0 0 0 0 0
0 0 0 0 0 0 0 0 0
0 0 0 0 0 0 0 0 0
0 0 0 0 0 0 0 0 0
0 0 0 0 0 0 0 0 0
0 0 0 0 0 0 0 0 0
0 0 0 0 0 0 0 0 0
0 0 0 0 0 0 0 0 0
0 0 0 0 0 0 0 0 0
0 0 0 0 0 0 0 0 0
0 0 0 0 0 0 0 0 0
0 0 0 0 0 0 0 0 0
0 0 0 0 0 0 0 0 0
0 0 0 0 0 0 0 0 0
0 0 0 0 0 0 0 0 0
0 0 0 0 0 0 0 0 0
0 0 0 0 0 0 0 0 0
0 0 0 0 0 0 0 0 0
0 0 0 0 0 0 0 0 0
0 0 0 0 0 0 0 0 0
0 0 0 0 0 0 0 0 0
0 0 0 0 0 0 0 0 0
0 0 0 0 0 0 0 0 0
0 0 0 0 0 0 0 0 0
0 0 0 0 0 0 0 0 0
0 0 0 0 0 0 0 0 0
0 0 0 0 0 0 0 0 0
0 0 0 0 0 0 0 0 0
0 0 0 0 0 0 0 0 0
0 0 0 0 0 0 0 0 0
0 0 0 0 0 0 0 0 0
0 0 0 0 0 0 0 0 0
0 0 0 0 0 0 0 0 0
0 0 0 0 0 0 0 0 0
0 0 0 0 0 0 0 0 0
0 0 0 0 0 0 0 0 0
0 0 0 0 0 0 0 0 0
0 0 0 0 0 0 0 0 0
0 0 0 0 0 0 0 0 0
0 0 0 0 0 0 0 0 0
0 0 0 0 0 0 0 0 0
0 0 0 0 0 0 0 0 0
0 0 0 0 0 0 0 0 0
0 0 0 0 0 0 0 0 0
0 0 0 0 0 0 0 0 0
0 0 0 0 0 0 0 0 0
0 0 0 0 0 0 0 0 0
0 0 0 0 0 0 0 0 0
0 0 0 0 0 0 0 0 0
0 0 0 0 0 0 0 0 0
0 0 0 0 0 0 0 0 0
0 0 0 0 0 0 0 0 0
0 0 0 0 0 0 0 0 0
0 0 0 0 0 0 0 0 0
0 0 0 0 0 0 0 0 0
0 0 0 0 0 0 0 0 0
0 0 0 0 0 0 0 0 0
0 0 0 0 0 0 0 0 0
0 0 0 0 0 0 0 0 0
0 0 0 0 0 0 0 0 0
0 0 0 0 0 0 0 0 0
0 0 0 0 0 0 0 0 0
0 0 0 0 0 0 0 0 0
0 0 0 0 0 0 0 0 0
0 0 0 0 0 0 0 0 0
0 0 0 0 0 0 0 0 0
0 0 0 0 0 0 0 0 0
0 0 0 0 0 0 0 0 0
0 0 0 0 0 0 0 0 0
0 0 0 0 0 0 0 0 0
0 0 0 0 0 0 0 0 0
0 0 0 0 0 0 0 0 0
0 0 0 0 0 0 0 0 0
0 0 0 0 0 0 0 0 0
0 0 0 0 0 0 0 0 0
0 0 0 0 0 0 0 0 0
0 0 0 0 0 0 0 0 0
0 0 0 0 0 0 0 0 0
0 0 0 0 0 0 0 0 0
0 0 0 0 0 0 0 0 0
0 0 0 0 0 0 0 0 0
0 0 0 0 0 0 0 0 0
0 0 0 0 0 0 0 0 0
0 0 0 0 0 0 0 0 0
0 0 0 0 0 0 0 0 0
0 0 0 0 0 0 0 0 0
0 0 0 0 0 0 0 0 0
0 0 0 0 0 0 0 0 0
0 0 0 0 0 0 0 0 0
0 0 0 0 0 0 0 0 0
0 0 0 0 0 0 0 0 0
0 0 0 0 0 0 0 0 0
0 0 0 0 0 0 0 0 0
0 0 0 0 0 0 0 0 0
0 0 0 0 0 0 0 0 0
0 0 0 0 0 0 0 0 0
0 0 0 0 0 0 0 0 0
0 0 0 0 0 0 0 0 0
0 0 0 0 0 0 0 0 0
0 0 0 0 0 0 0 0 0
0 0 0 0 0 0 0 0 0
0 0 0 0 0 0 0 0 0
0 0 0 0 0 0 0 0 0
0 0 0 0 0 0 0 0 0
0 0 0 0 0 0 0 0 0
0 0 0 0 0 0 0 0 0
0 0 0 0 0 0 0 0 0
0 0 0 0 0 0 0 0 0
0 0 0 0 0 0 0 0 0
0 0 0 0 0 0 0 0 0
0 0 0 0 0 0 0 0 0
0 0 0 0 0 0 0 0 0
0 0 0 0 0 0 0 0 0
0 0 0 0 0 0 0 0 0
0 0 0 0 0 0 0 0 0
0 0 0 0 0 0 0 0 0
0 0 0 0 0 0 0 0 0
0 0 0 0 0 0 0 0 0
0 0 0 0 0 0 0 0 0
0 0 0 0 0 0 0 0 0
0 0 0 0 0 0 0 0 0
0 0 0 0 0 0 0 0 0
0 0 0 0 0 0 0 0 0
0 0 0 0 0 0 0 0 0
0 0 0 0 0 0 0 0 0
0 0 0 0 0 0 0 0 0
0 0 0 0 0 0 0 0 0
0 0 0 0 0 0 0 0 0
0 0 0 0 0 0 0 0 0
0 0 0 0 0 0 0 0 0
0 0 0 0 0 0 0 0 0
0 0 0 0 0 0 0 0 0
0 0 0 0 0 0 0 0 0
0 0 0 0 0 0 0 0 0
0 0 0 0 0 0 0 0 0
0 0 0 0 0 0 0 0 0
0 0 0 0 0 0 0 0 0
0 0 0 0 0 0 0 0 0
0 0 0 0 0 0 0 0 0
0 0 0 0 0 0 0 0 0
0 0 0 0 0 0 0 0 0
0 0 0 0 0 0 0 0 0
0 0 0 0 0 0 0 0 0
0 0 0 0 0 0 0 0 0
0 0 0 0 0 0 0 0 0
0 0 0 0 0 0 0 0 0
0 0 0 0 0 0 0 0 0
0 0 0 0 0 0 0 0 0
0 0 0 0 0 0 0 0 0
0 0 0 0 0 0 0 0 0
0 0 0 0 0 0 0 0 0
0 0 0 0 0 0 0 0 0
0 0 0 0 0 0 0 0 0
0 0 0 0 0 0 0 0 0
0 0 0 0 0 0 0 0 0
0 0 0 0 0 0 0 0 0
0 0 0 0 0 0 0 0 0
0 0 0 0 0 0 0 0 0
0 0 0 0 0 0 0 0 0
0 0 0 0 0 0 0 0 0
0 0 0 0 0 0 0 0 0
0 0 0 0 0 0 0 0 0
0 0 0 0 0 0 0 0 0
0 0 0 0 0 0 0 0 0
0 0 0 0 0 0 0 0 0
0 0 0 0 0 0 0 0 0
0 0 0 0 0 0 0 0 0
0 0 0 0 0 0 0 0 0
0 0 0 0 0 0 0 0 0
0 0 0 0 0 0 0 0 0
0 0 0 0 0 0 0 0 0
0 0 0 0 0 0 0 0 0
0 0 0 0 0 0 0 0 0
0 0 0 0 0 0 0 0 0
0 0 0 0 0 0 0 0 0
0 0 0 0 0 0 0 0 0
0 0 0 0 0 0 0 0 0
0 0 0 0 0 0 0 0 0
0 0 0 0 0 0 0 0 0
0 0 0 0 0 0 0 0 0
0 0 0 0 0 0 0 0 0
0 0 0 0 0 0 0 0 0
0 0 0 0 0 0 0 0 0
0 0 0 0 0 0 0 0 0
0 0 0 0 0 0 0 0 0
0 0 0 0 0 0 0 0 0
0 0 0 0 0 0 0 0 0
0 0 0 0 0 0 0 0 0
0 0 0 0 0 0 0 0 0
0 0 0 0 0 0 0 0 0
0 0 0 0 0 0 0 0 0
0 0 0 0 0 0 0 0 0
0 0 0 0 0 0 0 0 0
0 0 0 0 0 0 0 0 0
0 0 0 0 0 0 0 0 0
0 0 0 0 0 0 0 0 0
0 0 0 0 0 0 0 0 0
0 0 0 0 0 0 0 0 0
0 0 0 0 0 0 0 0 0
0 0 0 0 0 0 0 0 0
0 0 0 0 0 0 0 0 0
0 0 0 0 0 0 0 0 0
0 0 0 0 0 0 0 0 0
0 0 0 0 0 0 0 0 0
0 0 0 0 0 0 0 0 0
0 0 0 0 0 0 0 0 0
0 0 0 0 0 0 0 0 0
0 0 0 0 0 0 0 0 0
0 0 0 0 0 0 0 0 0
0 0 0 0 0 0 0 0 0
0 0 0 0 0 0 0 0 0
0 0 0 0 0 0 0 0 0
0 0 0 0 0 0 0 0 0
0 0 0 0 0 0 0 0 0
0 0 0 0 0 0 0 0 0
0 0 0 0 0 0 0 0 0
0 0 0 0 0 0 0 0 0
0 0 0 0 0 0 0 0 0
0 0 0 0 0 0 0 0 0
0 0 0 0 0 0 0 0 0
0 0 0 0 0 0 0 0 0
0 0 0 0 0 0 0 0 0
0 0 0 0 0 0 0 0 0
0 0 0 0 0 0 0 0 0
0 0 0 0 0 0 0 0 0
0 0 0 0 0 0 0 0 0
0 0 0 0 0 0 0 0 0
0 0 0 0 0 0 0 0 0
0.00652042 0.00674065 0.00643895 0.0066552 0.00652042 0.00674065 0.00643895 0.0066552 0
0.0069038 0.00712957 0.00681542 0.00703711 0.0069038 0.00712957 0.00681542 0.00703711 0
0.00729437 0.00751889 0.00719887 0.00741913 0.00729437 0.00751889 0.00719887 0.00741913 0
0.00769345 0.00794746 0.00759089 0.00784145 0.00769345 0.00794746 0.00759089 0.00784145 0
0.00628016 0.00650306 0.00620114 0.00642 0.00628016 0.00650306 0.00620114 0.00642 0
0.00666795 0.00689567 0.0065818 0.0068051 0.00666795 0.00689567 0.0065818 0.0068051 0
0.00706431 0.0072976 0.00697051 0.00719938 0.00706431 0.0072976 0.00697051 0.00719938 0
0.00746804 0.00770047 0.00736651 0.0075943 0.00746804 0.00770047 0.00736651 0.0075943 0
0.00788022 0.00814062 0.007771 0.00802764 0.00788022 0.00814062 0.007771 0.00802764 0
0.00642324 0.00665373 0.00633969 0.00656571 0.00642324 0.00665373 0.00633969 0.00656571 0
0.0068243 0.00705999 0.00673294 0.00696399 0.0068243 0.00705999 0.00673294 0.00696399 0
0.00723452 0.00747596 0.00713507 0.00737172 0.00723452 0.00747596 0.00713507 0.00737172 0
0.0076525 0.0078935 0.00754468 0.00778066 0.0076525 0.0078935 0.00754468 0.00778066 0
0.00807893 0.00834642 0.00796275 0.00822606 0.00807893 0.00834642 0.00796275 0.00822606 0
0.00617032 0.00640221 0.0060899 0.00631734 0.00617032 0.00640221 0.0060899 0.00631734 0
0.0065744 0.00681309 0.00648614 0.00672003 0.0065744 0.00681309 0.00648614 0.00672003 0
0.0069898 0.00723409 0.00689314 0.00713238 0.0069898 0.00723409 0.00689314 0.00713238 0
0.00741498 0.00766527 0.00730953 0.00755463 0.00741498 0.00766527 0.00730953 0.00755463 0
0.00784846 0.00809881 0.00773391 0.00797876 0.00784846 0.00809881 0.00773391 0.00797876 0
0.00829055 0.00856607 0.00816678 0.00843754 0.00829055 0.00856607 0.00816678 0.00843754 0
0.00631556 0.0065557 0.0062308 0.00646609 0.00631556 0.0065557 0.0062308 0.00646609 0
0.00673411 0.00698159 0.00664085 0.00688319 0.00673411 0.00698159 0.00664085 0.00688319 0
0.00716492 0.00741854 0.00706264 0.00731078 0.00716492 0.00741854 0.00706264 0.00731078 0
0.00760637 0.00786632 0.00749453 0.0077488 0.00760637 0.00786632 0.00749453 0.0077488 0
0.00805677 0.00831735 0.00793498 0.00818955 0.00805677 0.00831735 0.00793498 0.00818955 0
0.00851604 0.00880048 0.00838415 0.00866334 0.00851604 0.00880048 0.00838415 0.00866334 0
0.00646845 0.00671753 0.00637924 0.00662308 0.00646845 0.00671753 0.00637924 0.00662308 0
0.00690269 0.00715973 0.00680428 0.0070557 0.00690269 0.00715973 0.00680428 0.0070557 0
0.00735027 0.00761406 0.007242 0.00749981 0.00735027 0.00761406 0.007242 0.00749981 0
0.00780947 0.00808003 0.00769076 0.00795508 0.00780947 0.00808003 0.00769076 0.00795508 0
0.00827845 0.00855027 0.00814881 0.00841401 0.00827845 0.00855027 0.00814881 0.00841401 0
0.00875662 0.00905091 0.00861585 0.00890434 0.00875662 0.00905091 0.00861585 0.00890434 0
0.00619414 0.00644348 0.00610938 0.00635354 0.00619414 0.00644348 0.00610938 0.00635354 0
0.00662937 0.00688811 0.00653548 0.00678855 0.00662937 0.00688811 0.00653548 0.00678855 0
0.00708063 0.00734811 0.00697675 0.00723809 0.00708063 0.00734811 0.00697675 0.00723809 0
0.00754655 0.00782151 0.00743188 0.00770026 0.00754655 0.00782151 0.00743188 0.00770026 0
0.00802528 0.00830752 0.00789911 0.00817447 0.00802528 0.00830752 0.00789911 0.00817447 0
0.00851476 0.00879904 0.00837651 0.00865344 0.00851476 0.00879904 0.00837651 0.00865344 0
0.00901397 0.00931939 0.0088633 0.00916213 0.00901397 0.00931939 0.0088633 0.00916213 0
0.0063466 0.00660547 0.0062577 0.00651098 0.0063466 0.00660547 0.0062577 0.00651098 0
0.0067987 0.00706797 0.0066999 0.00696298 0.0067987 0.00706797 0.0066999 0.00696298 0
0.00726853 0.00754749 0.00715881 0.00743102 0.00726853 0.00754749 0.00715881 0.00743102 0
0.00775464 0.00804198 0.00763303 0.00791307 0.00775464 0.00804198 0.00763303 0.00791307 0
0.008255 0.00855024 0.00812064 0.00840821 0.008255 0.00855024 0.00812064 0.00840821 0
0.0087673 0.00906548 0.00861947 0.00890945 0.0087673 0.00906548 0.00861947 0.00890945 0
0.00929005 0.00960811 0.00912831 0.00943889 0.00929005 0.00960811 0.00912831 0.00943889 0
0.00650647 0.00677568 0.00641325 0.00667639 0.00650647 0.00677568 0.00641325 0.00667639 0
0.00697692 0.00725773 0.00687292 0.00714694 0.00697692 0.00725773 0.00687292 0.00714694 0
0.00746717 0.00775885 0.00735115 0.00763533 0.00746717 0.00775885 0.00735115 0.00763533 0
0.00797569 0.00827683 0.00784645 0.00813944 0.00797569 0.00827683 0.00784645 0.00813944 0
0.00850024 0.00881008 0.00835671 0.00865792 0.00850024 0.00881008 0.00835671 0.00865792 0
0.00903816 0.00935195 0.00887948 0.00918405 0.00903816 0.00935195 0.00887948 0.00918405 0
0.00958746 0.00991998 0.00941308 0.00973702 0.00958746 0.00991998 0.00941308 0.00973702 0
0.00620693 0.00647401 0.00611922 0.00638059 0.00620693 0.00647401 0.00611922 0.00638059 0
0.00667435 0.00695482 0.00657642 0.00685028 0.00667435 0.00695482 0.00657642 0.00685028 0
0.00716482 0.00745836 0.00705512 0.00734117 0.00716482 0.00745836 0.00705512 0.00734117 0
0.00767763 0.0079835 0.00755464 0.00785213 0.00767763 0.0079835 0.00755464 0.00785213 0
0.00821122 0.00852793 0.00807342 0.00838092 0.00821122 0.00852793 0.00807342 0.00838092 0
0.00876308 0.00908952 0.00860911 0.00892571 0.00876308 0.00908952 0.00860911 0.00892571 0
0.00933015 0.00966172 0.0091589 0.00947993 0.00933015 0.00966172 0.0091589 0.00947993 0
0.00990979 0.010259 0.00972054 0.0100598 0.00990979 0.010259 0.00972054 0.0100598 0
0.00636525 0.00664281 0.00627284 0.00654426 0.00636525 0.00664281 0.00627284 0.00654426 0
0.00685144 0.00714411 0.00674803 0.00703353 0.00685144 0.00714411 0.00674803 0.00703353 0
0.0073637 0.00767127 0.00724749 0.00754679 0.0073637 0.00767127 0.00724749 0.00754679 0
0.0079015 0.00822329 0.00777055 0.00808293 0.0079015 0.00822329 0.00777055 0.00808293 0
0.00846332 0.00879775 0.00831568 0.0086396 0.00846332 0.00879775 0.00831568 0.0086396 0
0.00904638 0.00939194 0.00888023 0.00921442 0.00904638 0.00939194 0.00888023 0.00921442 0
0.00964707 0.00999922 0.00946093 0.00980084 0.00964707 0.00999922 0.00946093 0.00980084 0
0.0102619 0.0106309 0.0100548 0.010412 0.0102619 0.0106309 0.0100548 0.010412 0
0.00653317 0.00682225 0.00643499 0.00671728 0.00653317 0.00682225 0.00643499 0.00671728 0
0.00703997 0.00734595 0.00692965 0.0072278 0.00703997 0.00734595 0.00692965 0.0072278 0
0.00757602 0.0078989 0.00745171 0.0077656 0.00757602 0.0078989 0.00745171 0.0077656 0
0.00814119 0.00848063 0.00800079 0.00832983 0.00814119 0.00848063 0.00800079 0.00832983 0
0.00873452 0.00908919 0.00857552 0.00891819 0.00873452 0.00908919 0.00857552 0.00891819 0
0.00935341 0.00972144 0.00917314 0.00952776 0.00935341 0.00972144 0.00917314 0.00952776 0
0.00999368 0.0103702 0.00978979 0.0101517 0.00999368 0.0103702 0.00978979 0.0101517 0
0.0106504 0.0110429 0.0104215 0.0107999 0.0106504 0.0110429 0.0104215 0.0107999 0
0 0 0 0 0 0 0 0 0
0 0 0 0 0 0 0 0 0
0 0 0 0 0 0 0 0 0
0 0 0 0 0 0 0 0 0
0 0 0 0 0 0 0 0 0
0 0 0 0 0 0 0 0 0
0 0 0 0 0 0 0 0 0
0 0 0 0 0 0 0 0 0
0 0 0 0 0 0 0 0 0
0 0 0 0 0 0 0 0 0
0 0 0 0 0 0 0 0 0
0 0 0 0 0 0 0 0 0
0 0 0 0 0 0 0 0 0
0 0 0 0 0 0 0 0 0
0 0 0 0 0 0 0 0 0
0 0 0 0 0 0 0 0 0
0 0 0 0 0 0 0 0 0
0 0 0 0 0 0 0 0 0
0 0 0 0 0 0 0 0 0
0 0 0 0 0 0 0 0 0
0 0 0 0 0 0 0 0 0
0 0 0 0 0 0 0 0 0
0 0 0 0 0 0 0 0 0
0 0 0 0 0 0 0 0 0
0 0 0 0 0 0 0 0 0
0 0 0 0 0 0 0 0 0
0 0 0 0 0 0 0 0 0
0 0 0 0 0 0 0 0 0
0 0 0 0 0 0 0 0 0
0 0 0 0 0 0 0 0 0
0 0 0 0 0 0 0 0 0
0 0 0 0 0 0 0 0 0
0 0 0 0 0 0 0 0 0
0 0 0 0 0 0 0 0 0
0 0 0 0 0 0 0 0 0
0 0 0 0 0 0 0 0 0
0 0 0 0 0 0 0 0 0
0 0 0 0 0 0 0 0 0
0 0 0 0 0 0 0 0 0
0 0 0 0 0 0 0 0 0
0 0 0 0 0 0 0 0 0
0 0 0 0 0 0 0 0 0
0 0 0 0 0 0 0 0 0
0 0 0 0 0 0 0 0 0
0 0 0 0 0 0 0 0 0
0 0 0 0 0 0 0 0 0
0 0 0 0 0 0 0 0 0
0 0 0 0 0 0 0 0 0
0 0 0 0 0 0 0 0 0
0 0 0 0 0 0 0 0 0
0 0 0 0 0 0 0 0 0
0 0 0 0 0 0 0 0 0
0 0 0 0 0 0 0 0 0
0 0 0 0 0 0 0 0 0
0 0 0 0 0 0 0 0 0
0 0 0 0 0 0 0 0 0
0 0 0 0 0 0 0 0 0
0 0 0 0 0 0 0 0 0
0 0 0 0 0 0 0 0 0
0 0 0 0 0 0 0 0 0
0 0 0 0 0 0 0 0 0
0 0 0 0 0 0 0 0 0
0 0 0 0 0 0 0 0 0
0 0 0 0 0 0 0 0 0
0 0 0 0 0 0 0 0 0
0 0 0 0 0 0 0 0 0
0 0 0 0 0 0 0 0 0
0 0 0 0 0 0 0 0 0
0 0 0 0 0 0 0 0 0
0 0 0 0 0 0 0 0 0
0 0 0 0 0 0 0 0 0
0 0 0 0 0 0 0 0 0
0 0 0 0 0 0 0 0 0
0 0 0 0 0 0 0 0 0
0 0 0 0 0 0 0 0 0
0 0 0 0 0 0 0 0 0
0 0 0 0 0 0 0 0 0
0.00584109 0.0060065 0.00573695 0.00589721 0.00584109 0.0060065 0.00573695 0.00589721 0
0.00612524 0.00628416 0.00601217 0.00616592 0.00612524 0.00628416 0.00601217 0.00616592 0
0.00639651 0.00654443 0.00627449 0.00641723 0.00639651 0.00654443 0.00627449 0.00641723 0
0.00665182 0.00679787 0.0065212 0.00666306 0.00665182 0.00679787 0.0065212 0.00666306 0
0.00571939 0.00589791 0.00562021 0.00579348 0.00571939 0.00589791 0.00562021 0.00579348 0
0.00602727 0.00620214 0.00591889 0.00608822 0.00602727 0.00620214 0.00591889 0.00608822 0
0.00632783 0.00649632 0.00620983 0.0063727 0.00632783 0.00649632 0.00620983 0.0063727 0
0.00661568 0.00677318 0.00648795 0.00663982 0.00661568 0.00677318 0.00648795 0.00663982 0
0.00688693 0.00704085 0.00674983 0.00689911 0.00688693 0.00704085 0.00674983 0.00689911 0
0.00589646 0.00608455 0.00579342 0.00597591 0.00589646 0.00608455 0.00579342 0.00597591 0
0.0062211 0.00640604 0.00610826 0.00628731 0.0062211 0.00640604 0.00610826 0.00628731 0
0.00653919 0.006718 0.00641609 0.00658886 0.00653919 0.006718 0.00641609 0.00658886 0
0.00684494 0.00701281 0.00671135 0.00687314 0.00684494 0.00701281 0.00671135 0.00687314 0
0.00713361 0.00729643 0.00698978 0.00714733 0.00713361 0.00729643 0.00698978 0.00714733 0
0.00573748 0.00593547 0.00563997 0.00583252 0.00573748 0.00593547 0.00563997 0.00583252 0
0.00608048 0.00627869 0.00597339 0.00616569 0.00608048 0.00627869 0.00597339 0.00616569 0
0.00642288 0.00661857 0.00630541 0.00649481 0.00642288 0.00661857 0.00630541 0.00649481 0
0.00675973 0.00694969 0.00663128 0.0068147 0.00675973 0.00694969 0.00663128 0.0068147 0
0.00708485 0.00726404 0.00694503 0.00711757 0.00708485 0.00726404 0.00694503 0.00711757 0
0.00739264 0.00756545 0.00724157 0.00740848 0.00739264 0.00756545 0.00724157 0.00740848 0
0.00591143 0.00611924 0.00581022 0.00601229 0.00591143 0.00611924 0.00581022 0.00601229 0
0.00627177 0.00648066 0.00616043 0.00636309 0.00627177 0.00648066 0.00616043 0.00636309 0
0.00663298 0.00684019 0.00651065 0.00671112 0.00663298 0.00684019 0.00651065 0.00671112 0
0.00698997 0.00719198 0.00685585 0.00705079 0.00698997 0.00719198 0.00685585 0.00705079 0
0.00733608 0.00752768 0.00718964 0.00737394 0.00733608 0.00752768 0.00718964 0.00737394 0
0.00766485 0.00784873 0.00750607 0.00768343 0.00766485 0.00784873 0.00750607 0.00768343 0
0.00609199 0.00631016 0.00598692 0.00619905 0.00609199 0.00631016 0.00598692 0.00619905 0
0.00647063 0.0066909 0.00635488 0.0065685 0.00647063 0.0066909 0.00635488 0.0065685 0
0.00685189 0.00707145 0.00672441 0.00693674 0.00685189 0.00707145 0.00672441 0.00693674 0
0.00723054 0.00744563 0.00709037 0.00729778 0.00723054 0.00744563 0.00709037 0.00729778 0
0.0075995 0.00780468 0.00744591 0.00764311 0.0075995 0.00780468 0.00744591 0.00764311 0
0.00795135 0.00814765 0.00778417 0.00797313 0.00795135 0.00814765 0.00778417 0.00797313 0
0.00589028 0.00611396 0.00579112 0.00600912 0.00589028 0.00611396 0.00579112 0.00600912 0
0.00627966 0.00650871 0.00617042 0.00639312 0.00627966 0.00650871 0.00617042 0.00639312 0
0.0066776 0.00690999 0.0065571 0.0067824 0.0066776 0.00690999 0.0065571 0.0067824 0
0.00708028 0.00731312 0.00694724 0.0071723 0.00708028 0.00731312 0.00694724 0.0071723 0
0.00748228 0.00771161 0.00733555 0.00755652 0.00748228 0.00771161 0.00733555 0.00755652 0
0.00787616 0.00809632 0.00771479 0.00792613 0.00787616 0.00809632 0.00771479 0.00792613 0
0.00825355 0.00846376 0.00807713 0.00827912 0.00825355 0.00846376 0.00807713 0.00827912 0
0.00606732 0.00630123 0.00596427 0.00619221 0.00606732 0.00630123 0.00596427 0.00619221 0
0.00647488 0.00671549 0.00636122 0.00659508 0.00647488 0.00671549 0.00636122 0.00659508 0
0.00689335 0.00713871 0.00676768 0.00700545 0.00689335 0.00713871 0.00676768 0.00700545 0
0.00731899 0.00756619 0.00717987 0.00741866 0.00731899 0.00756619 0.00717987 0.00741866 0
0.00774628 0.00799115 0.00759233 0.00782806 0.00774628 0.00799115 0.00759233 0.00782806 0
0.00816747 0.0084042 0.00799746 0.00822442 0.00816747 0.0084042 0.00799746 0.00822442 0
0.00857326 0.00879925 0.00838649 0.00860314 0.00857326 0.00879925 0.00838649 0.00860314 0
0.00625153 0.00649624 0.00614426 0.00638267 0.00625153 0.00649624 0.00614426 0.00638267 0
0.00667836 0.00693132 0.00655984 0.00680557 0.00667836 0.00693132 0.00655984 0.00680557 0
0.00711879 0.00737811 0.0069874 0.00723854 0.00711879 0.00737811 0.0069874 0.00723854 0
0.0075692 0.00783201 0.00742328 0.00767693 0.0075692 0.00783201 0.00742328 0.00767693 0
0.00802405 0.008286 0.00786195 0.00811385 0.00802405 0.008286 0.00786195 0.00811385 0
0.0084753 0.00873046 0.0082955 0.00853979 0.0084753 0.00873046 0.0082955 0.00853979 0
0.00891281 0.00915676 0.00871429 0.0089476 0.00891281 0.00915676 0.00871429 0.0089476 0
0.00601503 0.00626027 0.00591333 0.00615282 0.00601503 0.00626027 0.00591333 0.00615282 0
0.00644377 0.00669999 0.00633175 0.00658124 0.00644377 0.00669999 0.00633175 0.00658124 0
0.00689116 0.00715739 0.00676711 0.00702556 0.00689116 0.00715739 0.00676711 0.00702556 0
0.00735524 0.00762971 0.00721732 0.0074829 0.00735524 0.00762971 0.00721732 0.0074829 0
0.00783258 0.00811248 0.00767884 0.00794869 0.00783258 0.00811248 0.00767884 0.00794869 0
0.00831768 0.00859854 0.00814614 0.00841585 0.00831768 0.00859854 0.00814614 0.00841585 0
0.0088023 0.00907806 0.00861108 0.00887467 0.0088023 0.00907806 0.00861108 0.00887467 0
0.00927549 0.00954006 0.00906317 0.00931551 0.00927549 0.00954006 0.00906317 0.00931551 0
0.00619792 0.00645359 0.00609125 0.00634083 0.00619792 0.00645359 0.00609125 0.00634083 0
0.0066454 0.00691393 0.00652777 0.0067891 0.0066454 0.00691393 0.00652777 0.0067891 0
0.00711484 0.00739541 0.0069843 0.00725645 0.00711484 0.00739541 0.0069843 0.00725645 0
0.00760455 0.0078956 0.00745896 0.00774025 0.00760455 0.0078956 0.00745896 0.00774025 0
0.00811142 0.00841023 0.00794845 0.00823611 0.00811142 0.00841023 0.00794845 0.00823611 0
0.00863007 0.00893208 0.00844731 0.00873683 0.00863007 0.00893208 0.00844731 0.00873683 0
0.0091521 0.00945119 0.00894723 0.00923252 0.0091521 0.00945119 0.00894723 0.00923252 0
0.00966585 0.00995429 0.00943695 0.00971121 0.00966585 0.00995429 0.00943695 0.00971121 0
0.00639119 0.00665824 0.00627825 0.0065386 0.00639119 0.00665824 0.00627825 0.0065386 0
0.00685907 0.0071409 0.00673413 0.00700815 0.00685907 0.0071409 0.00673413 0.00700815 0
0.00735231 0.0076483 0.0072134 0.00750036 0.00735231 0.0076483 0.0072134 0.00750036 0
0.00786966 0.00817871 0.00771455 0.00801303 0.00786966 0.00817871 0.00771455 0.00801303 0
0.00840879 0.00872859 0.00823472 0.00854214 0.00840879 0.00872859 0.00823472 0.00854214 0
0.00896488 0.00929094 0.0087687 0.00908051 0.00896488 0.00929094 0.0087687 0.00908051 0
0.00952958 0.00985559 0.0093081 0.00961811 0.00952958 0.00985559 0.0093081 0.00961811 0
0.0100903 0.0104068 0.00984089 0.0101407 0.0100903 0.0104068 0.00984089 0.0101407 0
0 0 0 0 0 0 0 0 0
0 0 0 0 0 0 0 0 0
0 0 0 0 0 0 0 0 0
0 0 0 0 0 0 0 0 0
0 0 0 0 0 0 0 0 0
0 0 0 0 0 0 0 0 0
0 0 0 0 0 0 0 0 0
0 0 0 0 0 0 0 0 0
0 0 0 0 0 0 0 0 0
0 0 0 0 0 0 0 0 0
0 0 0 0 0 0 0 0 0
0 0 0 0 0 0 0 0 0
0 0 0 0 0 0 0 0 0
0 0 0 0 0 0 0 0 0
0 0 0 0 0 0 0 0 0
0 0 0 0 0 0 0 0 0
0 0 0 0 0 0 0 0 0
0 0 0 0 0 0 0 0 0
0 0 0 0 0 0 0 0 0
0 0 0 0 0 0 0 0 0
0 0 0 0 0 0 0 0 0
0 0 0 0 0 0 0 0 0
0 0 0 0 0 0 0 0 0
0 0 0 0 0 0 0 0 0
0 0 0 0 0 0 0 0 0
0 0 0 0 0 0 0 0 0
0 0 0 0 0 0 0 0 0
0 0 0 0 0 0 0 0 0
0 0 0 0 0 0 0 0 0
0 0 0 0 0 0 0 0 0
0 0 0 0 0 0 0 0 0
0 0 0 0 0 0 0 0 0
0 0 0 0 0 0 0 0 0
0 0 0 0 0 0 0 0 0
0 0 0 0 0 0 0 0 0
0 0 0 0 0 0 0 0 0
0 0 0 0 0 0 0 0 0
0 0 0 0 0 0 0 0 0
0 0 0 0 0 0 0 0 0
0 0 0 0 0 0 0 0 0
0 0 0 0 0 0 0 0 0
0 0 0 0 0 0 0 0 0
0 0 0 0 0 0 0 0 0
0 0 0 0 0 0 0 0 0
0 0 0 0 0 0 0 0 0
0 0 0 0 0 0 0 0 0
0 0 0 0 0 0 0 0 0
0 0 0 0 0 0 0 0 0
0 0 0 0 0 0 0 0 0
0 0 0 0 0 0 0 0 0
0 0 0 0 0 0 0 0 0
0 0 0 0 0 0 0 0 0
0 0 0 0 0 0 0 0 0
0 0 0 0 0 0 0 0 0
0 0 0 0 0 0 0 0 0
0 0 0 0 0 0 0 0 0
0 0 0 0 0 0 0 0 0
0 0 0 0 0 0 0 0 0
0 0 0 0 0 0 0 0 0
0 0 0 0 0 0 0 0 0
0 0 0 0 0 0 0 0 0
0 0 0 0 0 0 0 0 0
0 0 0 0 0 0 0 0 0
0 0 0 0 0 0 0 0 0
0 0 0 0 0 0 0 0 0
0 0 0 0 0 0 0 0 0
0 0 0 0 0 0 0 0 0
0 0 0 0 0 0 0 0 0
0 0 0 0 0 0 0 0 0
0 0 0 0 0 0 0 0 0
0 0 0 0 0 0 0 0 0
0 0 0 0 0 0 0 0 0
0 0 0 0 0 0 0 0 0
0 0 0 0 0 0 0 0 0
0 0 0 0 0 0 0 0 0
0 0 0 0 0 0 0 0 0
0 0 0 0 0 0 0 0 0
0 0 0 0 0 0 0 0 0
0 0 0 0 0 0 0 0 0
0 0 0 0 0 0 0 0 0
0 0 0 0 0 0 0 0 0
0 0 0 0 0 0 0 0 0
0 0 0 0 0 0 0 0 0
0 0 0 0 0 0 0 0 0
0 0 0 0 0 0 0 0 0
0 0 0 0 0 0 0 0 0
0 0 0 0 0 0 0 0 0
0 0 0 0 0 0 0 0 0
0 0 0 0 0 0 0 0 0
0 0 0 0 0 0 0 0 0
0 0 0 0 0 0 0 0 0
0 0 0 0 0 0 0 0 0
0 0 0 0 0 0 0 0 0
0 0 0 0 0 0 0 0 0
0 0 0 0 0 0 0 0 0
0 0 0 0 0 0 0 0 0
0 0 0 0 0 0 0 0 0
0 0 0 0 0 0 0 0 0
0 0 0 0 0 0 0 0 0
0 0 0 0 0 0 0 0 0
0 0 0 0 0 0 0 0 0
0 0 0 0 0 0 0 0 0
0 0 0 0 0 0 0 0 0
0 0 0 0 0 0 0 0 0
0 0 0 0 0 0 0 0 0
0 0 0 0 0 0 0 0 0
0 0 0 0 0 0 0 0 0
0 0 0 0 0 0 0 0 0
0 0 0 0 0 0 0 0 0
0 0 0 0 0 0 0 0 0
0 0 0 0 0 0 0 0 0
0 0 0 0 0 0 0 0 0
0 0 0 0 0 0 0 0 0
0 0 0 0 0 0 0 0 0
0 0 0 0 0 0 0 0 0
0 0 0 0 0 0 0 0 0
0 0 0 0 0 0 0 0 0
0 0 0 0 0 0 0 0 0
0 0 0 0 0 0 0 0 0
0 0 0 0 0 0 0 0 0
0 0 0 0 0 0 0 0 0
0 0 0 0 0 0 0 0 0
0 0 0 0 0 0 0 0 0
0 0 0 0 0 0 0 0 0
0 0 0 0 0 0 0 0 0
0 0 0 0 0 0 0 0 0
0 0 0 0 0 0 0 0 0
0 0 0 0 0 0 0 0 0
0 0 0 0 0 0 0 0 0
0 0 0 0 0 0 0 0 0
0 0 0 0 0 0 0 0 0
0 0 0 0 0 0 0 0 0
0 0 0 0 0 0 0 0 0
0 0 0 0 0 0 0 0 0
0 0 0 0 0 0 0 0 0
0 0 0 0 0 0 0 0 0
0 0 0 0 0 0 0 0 0
0 0 0 0 0 0 0 0 0
0 0 0 0 0 0 0 0 0
0 0 0 0 0 0 0 0 0
0 0 0 0 0 0 0 0 0
0 0 0 0 0 0 0 0 0
0 0 0 0 0 0 0 0 0
0 0 0 0 0 0 0 0 0
0 0 0 0 0 0 0 0 0
0 0 0 0 0 0 0 0 0
0 0 0 0 0 0 0 0 0
0 0 0 0 0 0 0 0 0
0 0 0 0 0 0 0 0 0
0 0 0 0 0 0 0 0 0
0 0 0 0 0 0 0 0 0
0 0 0 0 0 0 0 0 0
0 0 0 0 0 0 0 0 0
0 0 0 0 0 0 0 0 0
0 0 0 0 0 0 0 0 0
0 0 0 0 0 0 0 0 0
0 0 0 0 0 0 0 0 0
0 0 0 0 0 0 0 0 0
0 0 0 0 0 0 0 0 0
0 0 0 0 0 0 0 0 0
0 0 0 0 0 0 0 0 0
0 0 0 0 0 0 0 0 0
0 0 0 0 0 0 0 0 0
0 0 0 0 0 0 0 0 0
0 0 0 0 0 0 0 0 0
0 0 0 0 0 0 0 0 0
0 0 0 0 0 0 0 0 0
0 0 0 0 0 0 0 0 0
0 0 0 0 0 0 0 0 0
0 0 0 0 0 0 0 0 0
0 0 0 0 0 0 0 0 0
0 0 0 0 0 0 0 0 0
0 0 0 0 0 0 0 0 0
0 0 0 0 0 0 0 0 0
0 0 0 0 0 0 0 0 0
0 0 0 0 0 0 0 0 0
0 0 0 0 0 0 0 0 0
0 0 0 0 0 0 0 0 0
0 0 0 0 0 0 0 0 0
0 0 0 0 0 0 0 0 0
0 0 0 0 0 0 0 0 0
0 0 0 0 0 0 0 0 0
0 0 0 0 0 0 0 0 0
0 0 0 0 0 0 0 0 0
0 0 0 0 0 0 0 0 0
0 0 0 0 0 0 0 0 0
0 0 0 0 0 0 0 0 0
0 0 0 0 0 0 0 0 0
0 0 0 0 0 0 0 0 0
0 0 0 0 0 0 0 0 0
0 0 0 0 0 0 0 0 0
0 0 0 0 0 0 0 0 0
0 0 0 0 0 0 0 0 0
0 0 0 0 0 0 0 0 0
0 0 0 0 0 0 0 0 0
0 0 0 0 0 0 0 0 0
0 0 0 0 0 0 0 0 0
0 0 0 0 0 0 0 0 0
0 0 0 0 0 0 0 0 0
0 0 0 0 0 0 0 0 0
0 0 0 0 0 0 0 0 0
0 0 0 0 0 0 0 0 0
0 0 0 0 0 0 0 0 0
0 0 0 0 0 0 0 0 0
0 0 0 0 0 0 0 0 0
0 0 0 0 0 0 0 0 0
0 0 0 0 0 0 0 0 0
0 0 0 0 0 0 0 0 0
0 0 0 0 0 0 0 0 0
0 0 0 0 0 0 0 0 0
0 0 0 0 0 0 0 0 0
0 0 0 0 0 0 0 0 0
0 0 0 0 0 0 0 0 0
0 0 0 0 0 0 0 0 0
0 0 0 0 0 0 0 0 0
0 0 0 0 0 0 0 0 0
0 0 0 0 0 0 0 0 0
0 0 0 0 0 0 0 0 0
0 0 0 0 0 0 0 0 0
0 0 0 0 0 0 0 0 0
0 0 0 0 0 0 0 0 0
0 0 0 0 0 0 0 0 0
0 0 0 0 0 0 0 0 0
0 0 0 0 0 0 0 0 0
0 0 0 0 0 0 0 0 0
0 0 0 0 0 0 0 0 0
0 0 0 0 0 0 0 0 0
0 0 0 0 0 0 0 0 0
0 0 0 0 0 0 0 0 0
0 0 0 0 0 0 0 0 0
0 0 0 0 0 0 0 0 0
0 0 0 0 0 0 0 0 0
0 0 0 0 0 0 0 0 0
0 0 0 0 0 0 0 0 0
0 0 0 0 0 0 0 0 0
0 0 0 0 0 0 0 0 0
0 0 0 0 0 0 0 0 0
0 0 0 0 0 0 0 0 0
0 0 0 0 0 0 0 0 0
0 0 0 0 0 0 0 0 0
0 0 0 0 0 0 0 0 0
0 0 0 0 0 0 0 0 0
0 0 0 0 0 0 0 0 0
0 0 0 0 0 0 0 0 0
0 0 0 0 0 0 0 0 0
0 0 0 0 0 0 0 0 0
0 0 0 0 0 0 0 0 0
0 0 0 0 0 0 0 0 0
0 0 0 0 0 0 0 0 0
0 0 0 0 0 0 0 0 0
0 0 0 0 0 0 0 0 0
0 0 0 0 0 0 0 0 0
0 0 0 0 0 0 0 0 0
0 0 0 0 0 0 0 0 0
0 0 0 0 0 0 0 0 0
0 0 0 0 0 0 0 0 0
0 0 0 0 0 0 0 0 0
0 0 0 0 0 0 0 0 0
0 0 0 0 0 0 0 0 0
0 0 0 0 0 0 0 0 0
0 0 0 0 0 0 0 0 0
0 0 0 0 0 0 0 0 0
0 0 0 0 0 0 0 0 0
0 0 0 0 0 0 0 0 0
0 0 0 0 0 0 0 0 0
0 0 0 0 0 0 0 0 0
0 0 0 0 0 0 0 0 0
0 0 0 0 0 0 0 0 0
0 0 0 0 0 0 0 0 0
0 0 0 0 0 0 0 0 0
0 0 0 0 0 0 0 0 0
0 0 0 0 0 0 0 0 0
0 0 0 0 0 0 0 0 0
0 0 0 0 0 0 0 0 0
0 0 0 0 0 0 0 0 0
0 0 0 0 0 0 0 0 0
0 0 0 0 0 0 0 0 0
0 0 0 0 0 0 0 0 0
0 0 0 0 0 0 0 0 0
0 0 0 0 0 0 0 0 0
0 0 0 0 0 0 0 0 0
0 0 0 0 0 0 0 0 0
0 0 0 0 0 0 0 0 0
0 0 0 0 0 0 0 0 0
0 0 0 0 0 0 0 0 0
0 0 0 0 0 0 0 0 0
0 0 0 0 0 0 0 0 0
0 0 0 0 0 0 0 0 0
0 0 0 0 0 0 0 0 0
0 0 0 0 0 0 0 0 0
0 0 0 0 0 0 0 0 0
0 0 0 0 0 0 0 0 0
0 0 0 0 0 0 0 0 0
0 0 0 0 0 0 0 0 0
0 0 0 0 0 0 0 0 0
0 0 0 0 0 0 0 0 0
0 0 0 0 0 0 0 0 0
0 0 0 0 0 0 0 0 0
0 0 0 0 0 0 0 0 0
0 0 0 0 0 0 0 0 0
0 0 0 0 0 0 0 0 0
0 0 0 0 0 0 0 0 0
0 0 0 0 0 0 0 0 0
0 0 0 0 0 0 0 0 0
0 0 0 0 0 0 0 0 0
0 0 0 0 0 0 0 0 0
0 0 0 0 0 0 0 0 0
0 0 0 0 0 0 0 0 0
0 0 0 0 0 0 0 0 0
0 0 0 0 0 0 0 0 0
0 0 0 0 0 0 0 0 0
0 0 0 0 0 0 0 0 0
0 0 0 0 0 0 0 0 0
0 0 0 0 0 0 0 0 0
0 0 0 0 0 0 0 0 0
0 0 0 0 0 0 0 0 0
0 0 0 0 0 0 0 0 0
0 0 0 0 0 0 0 0 0
0 0 0 0 0 0 0 0 0
0 0 0 0 0 0 0 0 0
0 0 0 0 0 0 0 0 0
0 0 0 0 0 0 0 0 0
0 0 0 0 0 0 0 0 0
0 0 0 0 0 0 0 0 0
0 0 0 0 0 0 0 0 0
0 0 0 0 0 0 0 0 0
0 0 0 0 0 0 0 0 0
0 0 0 0 0 0 0 0 0
0 0 0 0 0 0 0 0 0
0 0 0 0 0 0 0 0 0
0 0 0 0 0 0 0 0 0
0 0 0 0 0 0 0 0 0
0 0 0 0 0 0 0 0 0
0 0 0 0 0 0 0 0 0
0 0 0 0 0 0 0 0 0
0 0 0 0 0 0 0 0 0
0 0 0 0 0 0 0 0 0
0 0 0 0 0 0 0 0 0
0 0 0 0 0 0 0 0 0
0 0 0 0 0 0 0 0 0
0 0 0 0 0 0 0 0 0
0 0 0 0 0 0 0 0 0
0 0 0 0 0 0 0 0 0
0 0 0 0 0 0 0 0 0
0 0 0 0 0 0 0 0 0
0 0 0 0 0 0 0 0 0
0 0 0 0 0 0 0 0 0
0 0 0 0 0 0 0 0 0
0 0 0 0 0 0 0 0 0
0 0 0 0 0 0 0 0 0
0 0 0 0 0 0 0 0 0
0 0 0 0 0 0 0 0 0
0 0 0 0 0 0 0 0 0
0 0 0 0 0 0 0 0 0
0 0 0 0 0 0 0 0 0
0 0 0 0 0 0 0 0 0
0 0 0 0 0 0 0 0 0
0 0 0 0 0 0 0 0 0
0 0 0 0 0 0 0 0 0
0 0 0 0 0 0 0 0 0
0 0 0 0 0 0 0 0 0
0 0 0 0 0 0 0 0 0
0 0 0 0 0 0 0 0 0
0 0 0 0 0 0 0 0 0
0 0 0 0 0 0 0 0 0
0 0 0 0 0 0 0 0 0
0 0 0 0 0 0 0 0 0
0 0 0 0 0 0 0 0 0
0 0 0 0 0 0 0 0 0
0 0 0 0 0 0 0 0 0
0 0 0 0 0 0 0 0 0
0 0 0 0 0 0 0 0 0
0 0 0 0 0 0 0 0 0
0 0 0 0 0 0 0 0 0
0 0 0 0 0 0 0 0 0
0 0 0 0 0 0 0 0 0
0 0 0 0 0 0 0 0 0
0 0 0 0 0 0 0 0 0
0 0 0 0 0 0 0 0 0
0 0 0 0 0 0 0 0 0
SCALARS F_MT double 1
LOOKUP_TABLE default
0
0
0
0
0
0
0
0
0
0
0
0
0
0
0
0
0
0
0
0
0
0
0
0
0
0
0
0
0
0
0
0
0
0
0
0
0
0
0
0
0
0
0
0
0
0
0
0
0
0
0
0
0
0
0
0
0
0
0
0
0
0
0
0
0
0
0
0
0
0
0
0
0
0
0
0
0
0
0
0
0
0
0
0
0
0
0
0
0
0
0
0
0
0
0
0
0
0
0
0
0
0
0
0
0
0
0
0
0
0
0
0
0
0
0
0
0
0
0
0
0
0
0
0
0
0
0
0
0
0
0
0
0
0
0
0
0
0
0
0
0
0
0
0
0
0
0
0
0
0
0
0
0
0
0
0
0
0
0
0
0
0
0
0
0
0
0
0
0
0
0
0
0
0
0
0
0
0
0
0
0
0
0
0
0
0
0
0
0
0
0
0
0
0
0
0
0
0
0
0
0
0
0
0
0
0
0
0
0
0
0
0
0
0
0
0
0
0
0
0
0
0
0
0
0
0
0
0
0
0
0
0
0
0
0
0
0
0
0
0
0
0
0
0
0
0
0
0
0
0
0
0
0
0
0
0
0
0
0
0
0
0
0
0
0
0
0
0
0
0
0
0
0
0
0
0
0
0
0
0
0
0
0
0
0
0
0
0
0
0
0
0
0
0
0
0
0
0
0
0
0
0
0
0
0
0
0
0
0
0
0
0
0
0
0
0
0
0
0
0
0
0
0
0
0
0
0
0
0
0
0
0
0
0
0
0
0
0
0
0
0
0
0
0
0
0
0
0
0
0
0
0
0
0
0
0
0
0
0
0
0
0
0
0
0
0
0
0
0
0
0
0
0
0
0
0
0
0
0
0
0
0
0
0
0
0
0
0
0
0
0
0
0
0
0
0
0
0
0
0
0
0
0
0
0
0
0
0
0
0
0
0
0
0
0
0
0
0
0
0
0
0
0
0
0
0
0
0
0
0
0
0
0
0
0
0
0
0
0
0
0
0
0
0
0
0
0
0
0
0
0
0
0
0
0
8.31683e-06
7.6373e-06
7.17124e-06
6.97117e-06
9.68823e-06
8.68258e-06
7.83097e-06
7.16717e-06
6.73838e-06
0
0
0
0
6.86884e-06
0
0
0
0
0
0
0
0
0
0
0
0
0
0
0
0
0
0
0
0
0
0
0
0
0
0
0
0
0
0
0
0
0
0
0
0
0
0
0
0
0
0
0
0
0
0
0
0
0
0
0
0
0
0
0
0
0
0
0
0
0
0
0
0
0
0
0
0
0
0
0
0
0
0
0
0
0
0
0
0
0
0
0
0
0
0
0
0
0
0
0
0
0
0
0
0
0
0
0
0
0
0
0
0
0
0
0
0
0
0
0
0
0
0
0
0
0
0
0
0
0
0
0
0
0
0
0
0
0
0
0
0
0
0
0
0
0
0
0
0
0
0
0
0
0
0
0
0
0
0
0
0
0
0
0
0
0
0
0
0
0
0
0
0
0
0
0
0
0
0
0
0
0
0
0
0
0
0
0
0
0
0
0
0
0
0
0
0
0
0
0
0
0
0
0
0
0
0
0
0
0
0
0
0
0
0
0
0
0
0
0
0
0
0
0
0
0
0
0
0
0
0
0
0
0
0
0
0
0
0
0
0
0
0
0
0
0
0
0
0
0
0
0
0
0
0
0
0
0
0
0
0
0
0
0
0
0
0
0
0
0
0
0
0
0
0
0
0
0
0
0
0
0
0
0
0
0
0
0
0
0
0
0
0
0
0
0
0
0
0
0
0
0
0
0
0
0
0
0
0
0
0
0
0
0
0
0
0
0
0
0
0
0
0
0
0
0
0
0
0
0
0
0
0
0
0
0
0
0
0
0
0
0
0
0
0
0
0
0
0
0
0
0
0
0
0
0
0
0
0
0
0
0
0
0
0
0
0
0
0
0
0
0
0
0
0
0
0
0
0
0
0
0
0
0
0
0
0
0
0
0
0
0
0
0
0
0
0
0
0
0
0
0
0
0
0
0
0
0
0
0
0
0
0
0
0
0
0
0
0
0
0
0
0
0
0
0
0
0
0
0
0
0
0
0
0
0
0
0
0
0
0
0
0
0
0
0
0
0
0
0
0
0
0
0
0
0
0
0
0
0
0
0
0
0
0
0
0
0
0
0
0
0
0
0
0
0
0
0
0
0
0
0
0
0
0
0
0
0
0
0
0
0
0
0
0
0
0
0
0
0
0
0
0
0
0
0
0
0
0
0
0
0
0
0
0
0
0
0
0
0
0
0
0
0
0
0
0
0
0
0
0
0
0
0
0
0
0
0
0
0
0
0
0
0
0
0
0
0
0
0
0
0
0
0
0
0
0
0
0
0
0
0
0
0
0
0
0
0
0
0
0
0
0
0
0
0
0
0
0
0
0
0
0
0
0
0
0
0
0
0
0
0
0
0
0
0
0
0
0
0
0
0
0
0
0
0
0
0
0
0
0
0
0
0
0
0
0
0
0
0
0
0
0
0
0
0
0
0
0
0
0
0
0
0
0
0
0
0
0
0
0
0
0
0
0
0
0
0
0
0
0
0
0
0
0
0
0
0
0
0
0
0
0
0
0
0
0
0
0
0
0
0
0
0
0
0
0
0
0
0
0
0
0
0
0
0
0
0
0
0
0
0
0
0
0
0
0
0
0
0
0
0
0
0
0
0
0
0
0
0
0
0
0
0
0
0
0
0
0
0
0
0
0
0
0
0
0
0
0
0
0
0
0
0
0
0
0
0
0
0
0
0
0
0
0
0
0
0
0
0
0
0
0
0
0
0
0
0
0
0
0
0
0
0
0
0
0
0
0
0
0
0
0
0
0
0
0
0
0
0
0
0
0
0
0
0
0
0
0
0
0
0
0
0
0
0
0
0
0
0
0
0
0
0
0
0
0
0
0
0
0
0
0
0
0
0
0
0
0
0
0
0
0
0
0
0
0
0
0
0
0
0
0
0
0
0
0
0
0
0
0
0
0
0
0
0
0
0
0
0
0
0
0
0
0
0
0
0
0
0
0
0
0
0
0
0
0
0
0
0
0
0
0
0
0
0
0
0
0
0
0
0
0
0
0
0
0
0
0
0
0
0
0
0
0
0
0
0
0
0
0
0
0
0
0
0
0
0
0
0
0
0
0
0
0
0
0
0
0
0
0
0
0
0
0
0
0
0
0
0
0
0
0
0
0
0
0
0
0
0
0
0
0
0
0
0
0
0
0
0
0
0
0
0
0
0
0
0
0
0
0
0
0
0
0
0
0
0
0
0
0
0
0
0
0
0
0
0
0
0
0
0
0
0
0
0
0
0
0
0
0
0
0
0
0
0
0
0
0
0
0
0
0
0
0
0
0
0
0
0
0
0
0
0
0
0
0
0
0
0
0
0
0
0
0
0
0
0
0
0
0
0
0
0
0
0
0
0
0
0
0
0
0
0
0
0
0
0
0
0
0
0
0
0
0
0
0
0
0
0
0
0
0
0
0
0
0
0
0
0
0
0
0
0
0
0
0
0
0
0
0
0
0
0
0
0
0
0
0
0
0
0
0
0
0
0
0
0
0
0
0
0
0
0
0
0
0
0
0
0
0
0
0
0
0
0
0
0
0
0
0
0
0
0
0
0
0
0
0
0
0
0
0
0
0
0
0
0
0
0
0
0
0
0
0
0
0
0
0
0
0
0
0
0
0
0
0
0
0
0
0
0
0
0
0
0
0
0
0
0
0
0
0
0
0
0
0
0
0
0
0
0
0
0
0
0
0
0
0
0
0
0
0
0
0
0
0
0
0
0
0
0
0
0
0
0
0
0
0
0
0
0
0
0
0
0
0
0
0
0
0
0
0
0
0
0
0
0
0
0
0
0
0
0
0
0
0
0
0
0
0
0
0
0
0
0
0
0
0
0
0
0
0
0
0
0
0
0
0
0
0
0
0
0
0
0
0
0
0
0
0
0
0
0
0
0
0
0
0
0
0
0
0
0
0
0
0
0
0
0
0
0
0
0
0
0
0
0
0
0
0
0
0
0
0
0
0
0
0
0
0
0
0
0
0
0
0
0
0
0
0
0
0
0
0
0
0
0
0
0
0
0
0
0
0
0
0
0
0
0
0
0
0
0
0
0
0
0
0
0
0
0
0
0
0
0
0
0
0
0
0
0
0
0
0
0
0
0
0
0
0
0
0
0
0
0
0
0
0
0
0
0
0
0
0
0
0
0
0
0
0
0
0
0
0
0
0
0
0
0
0
0
0
0
0
0
0
0
0
0
0
0
0
0
0
0
0
0
0
0
0
0
0
0
0
0
0
0
0
0
0
0
0
0
0
0
0
0
0
0
0
0
0
0
0
0
0
0
0
0
0
0
0
0
0
0
0
0
0
0
0
0
0
0
0
0
0
0
0
0
0
0
0
0
0
0
0
0
0
0
0
0
0
0
0
0
0
0
0
0
0
0
0
0
0
0
0
0
0
0
0
0
0
0
0
0
0
0
0
0
0
0
0
0
0
0
0
0
0
0
0
0
0
0
0
0
0
0
0
0
0
0
0
0
0
0
0
0
0
0
0
0
0
0
0
0
0
0
0
0
0
0
0
0
0
0
0
0
0
0
0
0
0
0
0
0
0
0
0
0
0
0
0
0
0
0
0
0
0
0
0
0
0
0
0
0
0
0
0
0
0
0
0
0
0
0
0
0
0
0
0
0
0
0
0
0
0
0
0
0
5.33493e-05
5.30405e-05
5.35874e-05
5.16456e-05
4.98947e-05
4.87187e-05
4.82946e-05
4.96336e-05
4.7157e-05
4.51542e-05
4.3817e-05
5.17373e-05
4.83578e-05
4.52196e-05
4.2461e-05
4.02671e-05
3.8871e-05
5.1807e-05
4.79246e-05
4.41919e-05
4.07552e-05
3.7789e-05
3.55167e-05
5.27157e-05
4.84158e-05
4.41839e-05
4.01615e-05
3.65155e-05
3.34494e-05
0
0
0
4.53133e-05
4.08138e-05
3.66002e-05
3.28571e-05
0
0
0
0
0
0
0
0
0
0
0
0
0
0
0
0
0
0
0
0
0
0
0
0
0
0
0
0
0
0
0
0
0
0
0
0
0
0
SCALARS F_MC double 1
LOOKUP_TABLE default
-0.000995692
-0.000875783
-0.000730058
-0.00128489
-0.0012002
-0.00109409
-0.000962245
-0.00148428
-0.00141386
-0.0013227
-0.00120537
-0.00173171
-0.00169281
-0.00163738
-0.00156166
-0.00145981
-0.00132461
-0.00193392
-0.00191004
-0.00187065
-0.00181118
-0.00172564
-0.00160603
-0.00214472
-0.00213662
-0.00211381
-0.00207146
-0.0020032
-0.00190069
-0.00234535
-0.00236407
-0.00237241
-0.00236695
-0.00234267
-0.00229278
-0.00220868
-0.00255743
-0.00259202
-0.00261747
-0.00263015
-0.00262496
-0.00259466
-0.00252965
-0.00277766
-0.00282872
-0.0028718
-0.00290341
-0.0029184
-0.00290906
-0.00286483
-0.00293352
-0.00300603
-0.00307408
-0.00313535
-0.00318669
-0.00322298
-0.00323613
-0.00321446
-0.00315394
-0.00324271
-0.003328
-0.003408
-0.00347982
-0.00353855
-0.00357585
-0.00357887
-0.00316694
-0.00327492
-0.00338201
-0.00348754
-0.0035904
-0.0036895
-0.00378253
-0.00386498
-0.00392849
-0.00395843
-0.0091292
-0.00890155
-0.00863737
-0.00949707
-0.00931296
-0.00909536
-0.00884045
-0.00967486
-0.00950179
-0.00929505
-0.00904997
-0.00998818
-0.00985715
-0.00969597
-0.00950065
-0.00926617
-0.00898685
-0.0101621
-0.0100437
-0.00989529
-0.00971216
-0.00948902
-0.00921944
-0.0103396
-0.0102346
-0.0100997
-0.00992959
-0.00971858
-0.0094598
-0.0105857
-0.0105203
-0.0104296
-0.010309
-0.0101529
-0.00995497
-0.00970798
-0.010755
-0.010704
-0.0106284
-0.0105231
-0.010382
-0.0101983
-0.00996366
-0.0109264
-0.0108905
-0.0108308
-0.0107417
-0.0106169
-0.0104485
-0.0102274
-0.0111013
-0.0110994
-0.0110793
-0.0110363
-0.0109646
-0.0108573
-0.0107057
-0.0104995
-0.0112606
-0.0112738
-0.01127
-0.0112444
-0.0111913
-0.0111029
-0.0109698
-0.0107801
-0.0114205
-0.0114492
-0.011462
-0.0114546
-0.0114211
-0.0113534
-0.0112409
-0.0110695
0
0
0
0
0
0
0
0
0
0
0
0
0
0
0
0
0
0
0
0
0
0
0
0
0
0
0
0
0
0
0
0
0
0
0
0
0
0
0
0
0
0
0
0
0
0
0
0
0
0
0
0
0
0
0
0
0
0
0
0
0
0
0
0
0
0
0
0
0
0
0
0
0
0
-0.00265471
-0.00258533
-0.00249583
-0.00238323
-0.00283669
-0.00279501
-0.00273617
-0.0026572
-0.00255438
-0.00297154
-0.00294085
-0.00289341
-0.00282549
-0.00273354
-0.00311748
-0.00311179
-0.00309265
-0.00305709
-0.0030009
-0.00292
-0.00325103
-0.00325699
-0.00325031
-0.0032273
-0.0031835
-0.00311433
-0.00338936
-0.00340759
-0.00341382
-0.00340412
-0.00337363
-0.00331743
-0.00349298
-0.00353236
-0.00356338
-0.00358319
-0.0035876
-0.00357136
-0.00352918
-0.00362817
-0.00367983
-0.00372429
-0.00375835
-0.00377775
-0.00377683
-0.00374936
-0.0037675
-0.00383193
-0.0038902
-0.0039392
-0.00397455
-0.00399012
-0.00397878
-0.0038303
-0.00391084
-0.00398841
-0.00406096
-0.00412559
-0.00417787
-0.00421126
-0.00421761
-0.00396534
-0.00405818
-0.00414909
-0.00423635
-0.00431727
-0.0043875
-0.00444019
-0.00446604
-0.00410417
-0.00420954
-0.0043139
-0.00441612
-0.00451395
-0.00460327
-0.00467706
-0.00472446
-0.00474239
-0.00460591
-0.00445544
-0.00429143
-0.00502926
-0.00491238
-0.00478217
-0.00463786
-0.0044795
-0.00519738
-0.00508707
-0.00496346
-0.0048256
-0.00467369
-0.00546091
-0.00537014
-0.0052667
-0.00514998
-0.00501894
-0.00487359
-0.00563071
-0.00554724
-0.00545122
-0.00534179
-0.00521796
-0.00507966
-0.00580466
-0.00572895
-0.00564066
-0.00553893
-0.00542276
-0.00529211
-0.00603832
-0.00598266
-0.00591517
-0.00583505
-0.00574146
-0.00563339
-0.00551095
-0.00621169
-0.00616466
-0.00610587
-0.0060344
-0.00594942
-0.00584996
-0.00573596
-0.00638848
-0.00635064
-0.00630103
-0.00623871
-0.00616286
-0.00607252
-0.0059676
-0.00658603
-0.00656857
-0.00654047
-0.00650059
-0.00644798
-0.00638182
-0.00630117
-0.00620594
-0.00675917
-0.00675183
-0.006734
-0.00670447
-0.0066622
-0.00660633
-0.00653598
-0.00645109
-0.00693472
-0.00693806
-0.00693098
-0.00691236
-0.00688114
-0.0068364
-0.00677723
-0.00670338
-0.0100146
-0.00988922
-0.00974347
-0.00957793
-0.0102532
-0.0101544
-0.0100357
-0.00989605
-0.00973568
-0.0103893
-0.0102979
-0.0101864
-0.0100532
-0.00989863
-0.0105933
-0.0105287
-0.0104454
-0.0103414
-0.0102151
-0.0100665
-0.0107272
-0.0106713
-0.0105966
-0.0105006
-0.0103817
-0.0102394
-0.0108637
-0.0108171
-0.0107515
-0.0106642
-0.0105532
-0.0104178
-0.0110228
-0.0110027
-0.010966
-0.0109101
-0.0108321
-0.0107296
-0.0106016
-0.0111537
-0.0111438
-0.0111177
-0.0110723
-0.0110043
-0.0109109
-0.0107908
-0.0112859
-0.0112869
-0.011272
-0.0112378
-0.0111807
-0.0110973
-0.0109857
-0.0113945
-0.0114193
-0.0114317
-0.0114286
-0.0114064
-0.0113612
-0.0112888
-0.0111865
-0.0115175
-0.0115535
-0.0115777
-0.0115872
-0.0115779
-0.0115455
-0.0114853
-0.0113934
-0.0116405
-0.011688
-0.0117246
-0.0117471
-0.0117518
-0.0117336
-0.011687
-0.0116068
0
0
0
0
0
0
0
0
0
-6.13958e-05
-4.8961e-05
-2.92319e-05
-4.34179e-07
0
-0.000161225
-0.000161506
-0.000156347
-0.000144487
-0.000123906
-9.21553e-05
-0.000256867
-0.000264303
-0.000266991
-0.000263391
-0.00025151
-0.000228543
-0.000355291
-0.000370145
-0.000380877
-0.000385945
-0.000383282
-0.000370012
-0.000431364
-0.000456461
-0.000478899
-0.000497982
-0.000512135
-0.000519245
-0.000516354
-0.000527812
-0.000560114
-0.000590541
-0.000618271
-0.000641933
-0.000659405
-0.000667341
-0.000626802
-0.00066654
-0.000705047
-0.000741703
-0.000775289
-0.000803741
-0.000823473
-0.000680688
-0.000728329
-0.000775624
-0.000822396
-0.00086823
-0.000912138
-0.000952201
-0.000984651
-0.000777474
-0.000832333
-0.000887378
-0.00094258
-0.000997811
-0.0010524
-0.0011047
-0.00115086
-0.000876989
-0.000939194
-0.00100189
-0.00106554
-0.00113037
-0.00119608
-0.00126135
-0.00132228
-0.0042577
-0.00423944
-0.00420689
-0.00415931
-0.00433158
-0.00433306
-0.00432219
-0.00429687
-0.00425588
-0.00440099
-0.00441021
-0.00440721
-0.00438956
-0.00435602
-0.00444486
-0.00447191
-0.00448919
-0.00449452
-0.00448507
-0.00445923
-0.00450863
-0.00454385
-0.00456987
-0.00458405
-0.00458338
-0.00456573
-0.0045732
-0.00461698
-0.00465211
-0.00467572
-0.00468449
-0.004676
-0.00457993
-0.0046384
-0.00469105
-0.00473577
-0.00476942
-0.00478837
-0.00478981
-0.0046369
-0.00470376
-0.00476583
-0.00482063
-0.004865
-0.00489495
-0.00490696
-0.00469391
-0.00476944
-0.00484109
-0.00490645
-0.00496225
-0.00500413
-0.00502786
-0.00466517
-0.00475075
-0.00483505
-0.00491655
-0.00499294
-0.00506089
-0.00511573
-0.00515242
-0.00471368
-0.00480717
-0.00490036
-0.00499191
-0.00507974
-0.00516058
-0.00522949
-0.00528059
-0.00476203
-0.00486335
-0.00496522
-0.00506686
-0.00516646
-0.00526094
-0.00534519
-0.00541238
-0.00516934
-0.00513062
-0.00508795
-0.0050425
-0.00529204
-0.00526065
-0.00522578
-0.00518719
-0.00514584
-0.00538242
-0.0053547
-0.00532372
-0.00528931
-0.00525259
-0.00549692
-0.00547575
-0.00545159
-0.00542458
-0.00539449
-0.00536232
-0.00558924
-0.00557167
-0.00555134
-0.00552839
-0.00550272
-0.00547532
-0.0056844
-0.00567047
-0.00565399
-0.00563518
-0.00561405
-0.00559178
-0.00579006
-0.00578245
-0.00577217
-0.0057596
-0.00574499
-0.00572851
-0.00571146
-0.00588702
-0.00588318
-0.00587682
-0.00586823
-0.00585789
-0.00584612
-0.0058343
-0.0059868
-0.00598692
-0.0059845
-0.00597997
-0.00597394
-0.00596694
-0.00596056
-0.00608274
-0.00608953
-0.00609364
-0.00609531
-0.00609493
-0.00609326
-0.00609106
-0.0060902
-0.00618382
-0.00619498
-0.00620343
-0.00620936
-0.00621325
-0.00621598
-0.00621858
-0.00622328
-0.00628784
-0.00630353
-0.00631635
-0.00632668
-0.00633501
-0.00634228
-0.00634974
-0.00636004
-0.010902
-0.0108805
-0.0108523
-0.0108182
-0.011009
-0.0109984
-0.0109806
-0.0109557
-0.0109245
-0.0111036
-0.0110973
-0.0110834
-0.011062
-0.011034
-0.0111949
-0.0112005
-0.0111986
-0.0111888
-0.0111712
-0.0111464
-0.0112888
-0.0112994
-0.0113023
-0.0112969
-0.0112833
-0.0112619
-0.0113843
-0.0114004
-0.0114084
-0.0114078
-0.0113984
-0.0113807
-0.0114524
-0.0114815
-0.0115033
-0.0115169
-0.0115214
-0.0115165
-0.0115028
-0.0115445
-0.0115799
-0.011608
-0.0116276
-0.0116377
-0.0116377
-0.0116281
-0.0116374
-0.0116796
-0.0117144
-0.0117405
-0.0117566
-0.0117621
-0.0117569
-0.0116759
-0.0117309
-0.0117801
-0.0118221
-0.0118553
-0.0118782
-0.0118896
-0.0118893
-0.011762
-0.0118244
-0.0118811
-0.0119308
-0.0119718
-0.0120021
-0.0120203
-0.0120255
-0.0118479
-0.0119177
-0.0119823
-0.0120403
-0.0120897
-0.0121283
-0.0121541
-0.0121656
-0.00094084
-0.000961536
-0.000976776
-0.000984405
-0.000924304
-0.000953235
-0.000978322
-0.000998291
-0.00101064
-0.000932099
-0.000964996
-0.000994507
-0.0010194
-0.00103719
-0.000901093
-0.000939261
-0.000975961
-0.00101007
-0.00104013
-0.0010634
-0.000903686
-0.000945221
-0.000986018
-0.00102486
-0.00106033
-0.00108937
-0.000905377
-0.000950188
-0.000995024
-0.00103872
-0.00107984
-0.00111532
-0.000859543
-0.000906127
-0.00095398
-0.00100283
-0.00105147
-0.00109847
-0.00114068
-0.000856495
-0.000905439
-0.000956497
-0.0010093
-0.00106292
-0.00111603
-0.00116519
-0.000852586
-0.000903718
-0.000957659
-0.00101429
-0.00107288
-0.00113227
-0.00118895
-0.000798216
-0.000847882
-0.000900819
-0.000957409
-0.00101767
-0.00108115
-0.00114694
-0.00121155
-0.000791179
-0.000842091
-0.000896781
-0.000955732
-0.00101934
-0.00108754
-0.00115977
-0.00123268
-0.000784137
-0.0008359
-0.000891744
-0.000952657
-0.00101929
-0.00109192
-0.00117046
-0.00125204
-0.00120985
-0.00124429
-0.00127392
-0.00129811
-0.00115929
-0.00120026
-0.0012384
-0.00127209
-0.00130041
-0.00114493
-0.0011891
-0.00123089
-0.00126881
-0.0013019
-0.00108133
-0.00112898
-0.0011761
-0.0012217
-0.00126402
-0.00130192
-0.00106077
-0.00111086
-0.00116116
-0.00121062
-0.00125754
-0.00130047
-0.00103837
-0.00109072
-0.00114408
-0.00119746
-0.00124914
-0.00129771
-0.00096207
-0.00101409
-0.00106837
-0.00112469
-0.001182
-0.0012386
-0.00129299
-0.000934202
-0.000987385
-0.00104369
-0.00110281
-0.00116399
-0.00122565
-0.00128603
-0.000904596
-0.000958662
-0.00101657
-0.00107826
-0.00114321
-0.00120999
-0.00127682
-0.000823099
-0.00087333
-0.00092777
-0.000986931
-0.00105089
-0.00111941
-0.00119131
-0.0012649
-0.000790096
-0.000840066
-0.00089475
-0.000954761
-0.00102058
-0.00109236
-0.00116929
-0.00124985
-0.000756347
-0.000805532
-0.000859751
-0.000920109
-0.000987332
-0.00106192
-0.00114355
-0.00123131
0
0
0
0
0
0
0
0
0
0
0
0
0
0
0
0
0
0
0
0
0
0
0
0
0
0
0
0
0
0
0
0
0
0
0
0
0
0
0
0
0
0
0
0
0
0
0
0
0
0
0
0
0
0
0
0
0
0
0
0
0
0
0
0
0
0
0
0
0
0
0
0
0
0
0
0
0
-0.0115575
-0.0116135
-0.0116717
-0.011733
-0.0115662
-0.0116219
-0.0116794
-0.011739
-0.0118016
-0.0116301
-0.0116879
-0.0117469
-0.011808
-0.0118719
-0.0116368
-0.0116956
-0.0117552
-0.011816
-0.0118785
-0.0119437
-0.0117009
-0.0117623
-0.011824
-0.0118867
-0.0119508
-0.0120173
-0.0117662
-0.0118302
-0.0118943
-0.011959
-0.0120247
-0.0120926
-0.0117651
-0.0118324
-0.0118993
-0.011966
-0.0120329
-0.0121004
-0.0121696
-0.0118284
-0.0118992
-0.0119694
-0.012039
-0.0121084
-0.0121778
-0.0122484
-0.011892
-0.0119667
-0.0120404
-0.0121133
-0.0121854
-0.0122571
-0.0123292
-0.0118765
-0.0119557
-0.0120343
-0.0121121
-0.0121886
-0.012264
-0.0123382
-0.0124121
-0.0119351
-0.0120189
-0.012102
-0.0121841
-0.0122648
-0.0123438
-0.0124211
-0.0124971
-0.0119931
-0.0120814
-0.0121691
-0.012256
-0.0123415
-0.0124249
-0.0125057
-0.0125845
-0.00570905
-0.00578957
-0.0058772
-0.0059715
-0.00563033
-0.005704
-0.00578537
-0.00587446
-0.00597077
-0.00562538
-0.00569917
-0.00578111
-0.00587155
-0.00597007
-0.00555614
-0.00562116
-0.00569451
-0.00577684
-0.00586844
-0.00596886
-0.00555312
-0.00561724
-0.00569009
-0.00577253
-0.00586507
-0.00596734
-0.00555114
-0.00561394
-0.00568592
-0.00576815
-0.00586136
-0.00596548
-0.00549774
-0.00555037
-0.00561133
-0.00568208
-0.00576373
-0.00585728
-0.00596284
-0.00549993
-0.00555048
-0.00560952
-0.00567864
-0.0057593
-0.00585278
-0.00595941
-0.00550391
-0.00555202
-0.0056087
-0.00567576
-0.00575492
-0.00584785
-0.00595527
-0.00547199
-0.00550999
-0.00555513
-0.00560907
-0.00567359
-0.00575072
-0.00584254
-0.00595023
-0.00548259
-0.00551787
-0.00556006
-0.0056109
-0.0056724
-0.0057469
-0.00583693
-0.00594426
-0.00549616
-0.00552835
-0.00556717
-0.00561456
-0.0056726
-0.00574382
-0.00583122
-0.0059375
-0.00699245
-0.00706097
-0.0071239
-0.00717998
-0.00688088
-0.00695608
-0.00702652
-0.00709104
-0.00714832
-0.00683748
-0.00691486
-0.00698714
-0.00705352
-0.00711241
-0.00670547
-0.00678856
-0.00686802
-0.00694254
-0.00701104
-0.00707174
-0.00664827
-0.00673351
-0.00681531
-0.0068923
-0.00696321
-0.00702596
-0.00658454
-0.00667193
-0.00675626
-0.00683599
-0.00690963
-0.00697492
-0.00642318
-0.00651389
-0.00660333
-0.00669033
-0.00677308
-0.00684983
-0.006918
-0.00634323
-0.00643544
-0.00652715
-0.00661695
-0.00670299
-0.00678326
-0.00685469
-0.00625551
-0.00634902
-0.00644278
-0.00653544
-0.00662504
-0.0067093
-0.00678467
-0.0060672
-0.00615959
-0.00625397
-0.00634959
-0.00644508
-0.00653845
-0.0066272
-0.0067072
-0.00596265
-0.00605482
-0.00614976
-0.00624688
-0.00634507
-0.00644237
-0.00653609
-0.00662155
-0.0058499
-0.0059411
-0.00603587
-0.00613405
-0.00623465
-0.00633584
-0.00643483
-0.00652674
-0.00227993
-0.00236973
-0.00245842
-0.002545
-0.00209326
-0.00218332
-0.00227418
-0.00236434
-0.00245274
-0.00199107
-0.00208139
-0.00217298
-0.00226468
-0.00235523
-0.00179662
-0.00188344
-0.00197352
-0.00206586
-0.00215908
-0.00225171
-0.00168408
-0.00176977
-0.00185953
-0.00195244
-0.00204714
-0.00214195
-0.0015659
-0.00164997
-0.00173907
-0.00183234
-0.00192843
-0.00202568
-0.00136657
-0.001442
-0.00152375
-0.00161177
-0.00170513
-0.00180248
-0.00190206
-0.00123971
-0.00131163
-0.00139083
-0.00147727
-0.00157033
-0.00166875
-0.00177056
-0.00110743
-0.00117512
-0.00125096
-0.0013352
-0.00142747
-0.00152668
-0.00163082
-0.000915621
-0.000969773
-0.00103223
-0.00110392
-0.0011852
-0.00127605
-0.00137563
-0.001482
-0.000778426
-0.000826276
-0.000882961
-0.00094957
-0.00102698
-0.00111559
-0.00121497
-0.00132333
-0.00063712
-0.000677609
-0.000727377
-0.000787955
-0.000860478
-0.000945762
-0.00104397
-0.00115401
-0.0124013
-0.0125594
-0.0127329
-0.0129236
-0.0122803
-0.0124234
-0.0125803
-0.0127526
-0.0129423
-0.0123038
-0.0124459
-0.0126014
-0.0127724
-0.0129609
-0.0121985
-0.0123278
-0.0124686
-0.0126227
-0.0127921
-0.0129792
-0.0122236
-0.0123522
-0.0124916
-0.0126441
-0.0128119
-0.0129975
-0.012249
-0.0123767
-0.0125149
-0.0126658
-0.0128318
-0.0130155
-0.0121565
-0.0122747
-0.0124015
-0.0125385
-0.0126878
-0.0128518
-0.0130334
-0.0121821
-0.0123002
-0.0124264
-0.0125623
-0.01271
-0.0128719
-0.0130511
-0.0122074
-0.0123256
-0.0124513
-0.0125862
-0.0127324
-0.0128923
-0.013069
-0.0121205
-0.0122323
-0.0123504
-0.0124759
-0.0126102
-0.0127551
-0.0129129
-0.0130869
-0.0121434
-0.0122559
-0.0123744
-0.0125
-0.0126339
-0.0127778
-0.0129338
-0.0131052
-0.0121649
-0.0122781
-0.0123972
-0.0125232
-0.0126571
-0.0128003
-0.0129548
-0.0131238
-0.00613381
-0.00630955
-0.00650151
-0.0067098
-0.00589479
-0.00605236
-0.00622664
-0.00641804
-0.00662671
-0.00581405
-0.00596898
-0.00614127
-0.00633181
-0.00654081
-0.00559795
-0.00573207
-0.00588349
-0.00605339
-0.00624266
-0.00645151
-0.00551872
-0.00564842
-0.00579596
-0.00596291
-0.00615042
-0.0063589
-0.00543885
-0.00556335
-0.00570636
-0.00586974
-0.00605493
-0.0062627
-0.00525732
-0.00535857
-0.00547694
-0.00561472
-0.00577382
-0.00595601
-0.00616235
-0.00518296
-0.00527746
-0.00538932
-0.00552108
-0.00567509
-0.00585352
-0.0060577
-0.00510919
-0.00519616
-0.00530064
-0.00542552
-0.00557353
-0.0057473
-0.00594869
-0.0049731
-0.0050364
-0.00511483
-0.00521113
-0.0053282
-0.00546918
-0.00563726
-0.00583489
-0.0049095
-0.00496425
-0.00503379
-0.00512106
-0.00522931
-0.00536213
-0.00552332
-0.00571604
-0.00484822
-0.00489358
-0.00495341
-0.00503088
-0.00512935
-0.00525273
-0.00540553
-0.00559205
-0.00855087
-0.00866706
-0.00878245
-0.00889742
-0.00833812
-0.00845405
-0.00856908
-0.00868289
-0.00879595
-0.00823356
-0.00834861
-0.0084622
-0.00857458
-0.00868587
-0.00800488
-0.00811948
-0.0082334
-0.00834587
-0.00845694
-0.00856656
-0.00788164
-0.00799519
-0.00810803
-0.00821951
-0.00832939
-0.00843753
-0.00774762
-0.00785993
-0.0079718
-0.00808239
-0.00819127
-0.0082981
-0.00749237
-0.0076022
-0.00771301
-0.00782391
-0.00793375
-0.00804181
-0.00814746
-0.00733657
-0.00744428
-0.00755359
-0.00766347
-0.00777266
-0.00788016
-0.00798487
-0.00716822
-0.00727332
-0.00738074
-0.00748947
-0.00759809
-0.00770529
-0.0078095
-0.00688873
-0.00698663
-0.00708838
-0.00719344
-0.00730076
-0.00740883
-0.007516
-0.00762017
-0.00669762
-0.00679081
-0.00688857
-0.0069906
-0.00709607
-0.00720345
-0.00731085
-0.00741553
-0.00649283
-0.00658009
-0.00667284
-0.00677109
-0.00687409
-0.00698039
-0.007088
-0.00719388
0
0
0
0
0
0
0
0
0
0
0
0
0
0
0
0
0
0
0
0
0
0
0
0
0
0
0
0
0
0
0
0
0
0
0
0
0
0
0
0
0
0
0
0
0
0
0
0
0
0
0
0
0
0
0
0
0
0
0
0
0
0
0
0
0
0
0
0
0
0
0
0
0
0
0
0
0
-0.00334907
-0.00349671
-0.00364675
-0.00379892
-0.00302512
-0.003167
-0.00331338
-0.00346266
-0.00361464
-0.00283636
-0.00297581
-0.00312035
-0.00326883
-0.00342072
-0.00250927
-0.00263833
-0.00277464
-0.00291719
-0.00306467
-0.00321629
-0.00230576
-0.00243036
-0.00256316
-0.00270335
-0.00284958
-0.00300098
-0.00209278
-0.00221211
-0.00234083
-0.0024782
-0.00262287
-0.00277395
-0.0017679
-0.00187012
-0.00198314
-0.00210706
-0.00224106
-0.0023838
-0.00253423
-0.00154266
-0.00163684
-0.00174298
-0.00186126
-0.00199118
-0.00213151
-0.00228099
-0.00130813
-0.00139311
-0.00149113
-0.00160273
-0.00172772
-0.00186502
-0.00201334
-0.0010029
-0.0010642
-0.00113849
-0.00122711
-0.0013308
-0.00144977
-0.00158322
-0.00172994
-0.000761248
-0.000810188
-0.000872711
-0.000950438
-0.00104472
-0.00115631
-0.00128486
-0.00142933
-0.000511387
-0.000546297
-0.000595386
-0.000660725
-0.000743979
-0.00084642
-0.000968475
-0.00110982
0
0
0
0
0
0
0
0
0
0
0
0
0
0
0
0
0
0
0
0
0
0
0
0
0
0
0
0
0
0
0
0
0
0
0
0
0
0
0
0
0
0
0
0
0
0
0
0
0
0
0
0
0
0
0
0
0
0
0
0
0
0
0
0
0
0
0
0
0
0
0
0
0
0
0
0
0
-0.0131882
-0.013446
-0.0137332
-0.0140561
-0.0129401
-0.0131678
-0.0134216
-0.013705
-0.0140245
-0.012923
-0.0131467
-0.0133959
-0.0136751
-0.0139909
-0.0127087
-0.0129057
-0.0131247
-0.0133691
-0.0136437
-0.0139553
-0.0126951
-0.0128879
-0.0131019
-0.0133412
-0.0136107
-0.0139178
-0.0126812
-0.0128694
-0.0130784
-0.0133123
-0.0135762
-0.0138781
-0.0125006
-0.0126669
-0.0128504
-0.0130541
-0.0132823
-0.0135402
-0.0138363
-0.0124895
-0.012652
-0.0128308
-0.0130292
-0.0132515
-0.0135029
-0.0137924
-0.0124778
-0.0126364
-0.0128105
-0.0130036
-0.0132197
-0.0134643
-0.0137467
-0.0123236
-0.0124652
-0.0126198
-0.0127894
-0.0129772
-0.013187
-0.0134245
-0.0136993
-0.0123125
-0.0124511
-0.0126019
-0.0127671
-0.0129497
-0.0131534
-0.0133836
-0.0136502
-0.0122997
-0.0124351
-0.0125822
-0.0127433
-0.0129209
-0.0131186
-0.0133415
-0.0135997
-0.00653962
-0.00681151
-0.00710889
-0.00743457
-0.00613932
-0.00638149
-0.00664977
-0.00694471
-0.00726933
-0.00598232
-0.0062191
-0.00648292
-0.00677495
-0.00709822
-0.00561814
-0.00582189
-0.00605216
-0.00631088
-0.00659933
-0.00692053
-0.00546186
-0.00565762
-0.00588067
-0.00613346
-0.00641758
-0.00673634
-0.00530301
-0.00548968
-0.00570456
-0.00595047
-0.00622938
-0.00654523
-0.00499177
-0.00514185
-0.00531812
-0.00552375
-0.00576172
-0.00603443
-0.00634621
-0.00483937
-0.00497791
-0.005143
-0.00533821
-0.00556702
-0.00583238
-0.00613903
-0.00468605
-0.00481182
-0.00496444
-0.00514791
-0.00536621
-0.00562288
-0.00592337
-0.00444395
-0.00453214
-0.00464373
-0.00478258
-0.00495285
-0.00515909
-0.00540555
-0.00569847
-0.00430392
-0.0043774
-0.00447391
-0.00459758
-0.00475306
-0.00494551
-0.00517997
-0.00546364
-0.00416497
-0.00422245
-0.00430255
-0.0044097
-0.00454877
-0.00472542
-0.00494569
-0.00521815
-0.0101298
-0.0102914
-0.0104562
-0.0106254
-0.00982128
-0.00997662
-0.0101342
-0.0102943
-0.0104584
-0.00965965
-0.00981119
-0.00996418
-0.0101196
-0.0102785
-0.00933878
-0.00948468
-0.00963211
-0.0097808
-0.00993158
-0.0100854
-0.00915366
-0.00929556
-0.00943881
-0.00958323
-0.00972936
-0.00987804
-0.00895362
-0.00909125
-0.00923036
-0.00937054
-0.00951207
-0.0096557
-0.00860753
-0.00873784
-0.00887081
-0.00900571
-0.0091417
-0.00927871
-0.00941716
-0.00837994
-0.00850489
-0.00863312
-0.00876366
-0.0088955
-0.00902816
-0.00916162
-0.00813502
-0.00825395
-0.00837689
-0.00850285
-0.00863054
-0.00875904
-0.00888779
-0.00776528
-0.00787172
-0.00798369
-0.0081007
-0.00822169
-0.00834517
-0.00846972
-0.00859415
-0.00749099
-0.00758869
-0.00769276
-0.00780293
-0.00791832
-0.00803738
-0.00815819
-0.00827878
-0.00719722
-0.00728462
-0.00737947
-0.00748174
-0.00759067
-0.00770471
-0.00782175
-0.00793918
-0.00432408
-0.00408741
-0.0038254
-0.00477854
-0.00457456
-0.00434657
-0.00409272
-0.00502618
-0.00483174
-0.00461308
-0.00436789
-0.00544151
-0.00528018
-0.00509595
-0.00488714
-0.00465128
-0.00438501
-0.0056905
-0.00554029
-0.00536711
-0.00516883
-0.00494301
-0.00468591
-0.00594498
-0.00580671
-0.00564522
-0.00545824
-0.00524316
-0.00499615
-0.00630871
-0.0062047
-0.00607927
-0.00593029
-0.00575544
-0.00555192
-0.00531599
-0.00656011
-0.00646969
-0.00635787
-0.00622229
-0.00606046
-0.00586943
-0.005645
-0.00681551
-0.00673964
-0.00664234
-0.00652113
-0.00637333
-0.0061958
-0.00598396
-0.00711604
-0.00707458
-0.00701426
-0.00693247
-0.00682667
-0.00669401
-0.00653112
-0.00633302
-0.00736252
-0.0073371
-0.00729314
-0.00722793
-0.0071387
-0.0070224
-0.00687542
-0.00669236
-0.00760328
-0.00761081
-0.00760224
-0.00757553
-0.00752793
-0.00745659
-0.00735821
-0.00722884
-0.00706223
0
0
0
0
0
0
0
0
0
0
0
0
0
0
0
0
0
0
0
0
0
0
0
0
0
0
0
0
0
4.47822e-05
4.26836e-05
4.71304e-05
0
0
0
0
-0.000151605
-0.00016558
-0.000173677
-0.000174675
-0.000166742
-0.000147128
-0.000111173
-0.000353989
-0.000380428
-0.000401538
-0.00041627
-0.0004229
-0.00041866
-0.000398501
-0.000518752
-0.000562302
-0.000601772
-0.000636443
-0.000665538
-0.000687521
-0.000699696
-0.000696656
-0.000720084
-0.000776626
-0.000829543
-0.000878344
-0.000922435
-0.000960566
-0.000990248
-0.00100581
-0.000926703
-0.000996811
-0.00106358
-0.00112696
-0.00118674
-0.00124203
-0.00129063
-0.00132633
SCALARS F_FT double 1
LOOKUP_TABLE default
0
0
0
0
0
0
0
0
0
0
0
0
0
0
0
0
0
0
0
0
0
0
0
0
0
0
0
0
0
0
0
0
0
0
0
0
0
0
0
0
0
0
0
0
0
0
0
0
0
0
0
0
0
0
0
0
0
0
0
0
0
0
0
0
0
0
0
0
0
0
0
0
0
0
0
0
0.000156782
0.000154591
0.000152746
0.000154405
0.000151362
0.000148531
0.000146017
0.000149575
0.00014591
0.000142418
0.000139236
0.000149023
0.000144714
0.000140433
0.000136285
0.000132424
0.000129037
0.000144754
0.000139871
0.000134963
0.000130162
0.000125628
0.000121568
0.000140495
0.000135049
0.00012953
0.000124079
0.000118871
0.000114123
0.000142035
0.000136268
0.000130281
0.000124166
0.000118074
0.000112195
0.00010676
0.000138338
0.000132108
0.000125598
0.000118908
0.000112188
0.000105646
9.95469e-05
0.000134687
0.00012803
0.000121035
0.000113796
0.000106468
9.92734e-05
9.25111e-05
0.000137712
0.000131107
0.000124065
0.000116628
0.000108878
0.000100969
9.31385e-05
8.57237e-05
0.000134512
0.000127615
0.000120243
0.000112418
0.000104205
9.57534e-05
8.73105e-05
7.92575e-05
0.000131354
0.000124223
0.000116587
0.000108439
9.98262e-05
9.08797e-05
8.18537e-05
7.31874e-05
0
0
0
0
0
0
0
0
0
0
0
0
0
0
0
0
0
0
0
0
0
0
0
0
0
0
0
0
0
0
0
0
0
0
0
0
0
0
0
0
0
0
0
0
0
0
0
0
0
0
0
0
0
0
0
0
0
0
0
0
0
0
0
0
0
0
0
0
0
0
0
0
0
0
0
0
0
0
0
0
0
0
0
0
0
0
0
0
0
0
0
0
0
0
0
0
0
0
0
0
0
0
0
0
0
0
0
0
0
0
0
0
0
0
0
0
0
0
0
0
0
0
0
0
0
0
0
0
0
0
0
0
0
0
0
0
0
0
0
0
0
0
0
0
0
0
0
0
0
0
0
0
0
0
0
0
0
0
0
0
0
0
0
0
0
0
0
0
0
0
0
0
0
0
0
0
0
0
0
0
0
0
0
0
0
0
0
0
0
0
0
0
0
0
0
0
0
0
0
0
0
0
0
0
0
0
0
0
0
0
0
0
0
0
0
0
0
0
0
0
0
0
0
0
0
0
0
0
8.61387e-05
8.53041e-05
8.47661e-05
8.45992e-05
8.52072e-05
8.38215e-05
8.26572e-05
8.17785e-05
8.12786e-05
8.32033e-05
8.14904e-05
7.99825e-05
7.87559e-05
7.7899e-05
8.33635e-05
8.11918e-05
7.91473e-05
7.72889e-05
7.57038e-05
7.44929e-05
8.16912e-05
7.91973e-05
7.68046e-05
7.45862e-05
7.26317e-05
7.10561e-05
8.00384e-05
7.72167e-05
7.44732e-05
7.18853e-05
6.95501e-05
6.75881e-05
8.15634e-05
7.84153e-05
7.52656e-05
7.21653e-05
6.91989e-05
6.64711e-05
6.41107e-05
8.02914e-05
7.68419e-05
7.33566e-05
6.9895e-05
6.65412e-05
6.34087e-05
6.06462e-05
7.90671e-05
7.53191e-05
7.15034e-05
6.7678e-05
6.39291e-05
6.0379e-05
5.71948e-05
8.18114e-05
7.79032e-05
7.38627e-05
6.97212e-05
6.55319e-05
6.13817e-05
5.74013e-05
5.37785e-05
8.0968e-05
7.68077e-05
7.24851e-05
6.80257e-05
6.34762e-05
5.89212e-05
5.44981e-05
5.04179e-05
8.0175e-05
7.57769e-05
7.11925e-05
6.64308e-05
6.1529e-05
5.65672e-05
5.16879e-05
4.71319e-05
0
0
0
0
0
0
0
0
0
0
0
0
0
0
0
0
0
0
0
0
0
0
0
0
0
0
0
0
0
0
0
0
0
0
0
0
0
0
0
0
0
0
0
0
0
0
0
0
0
0
0
0
0
0
0
0
0
0
0
0
0
0
0
0
0
0
0
0
0
0
0
0
0
0
0
0
0
0
0
0
0
0
0
0
0
0
0
0
0
0
0
0
0
0
0
0
0
0
0
0
0
0
0
0
0
0
0
0
0
0
0
0
0
0
0
0
0
0
0
0
0
0
0
0
0
0
0
0
0
0
0
0
0
0
0
0
0
0
0
0
0
0
0
0
0
0
0
0
0
0
0
0
0
0
0
0
0
0
0
0
0
0
0
0
0
0
0
0
0
0
0
0
0
0
0
0
0
0
0
0
0
0
0
0
0
0
0
0
0
0
0
0
0
0
0
0
0
0
0
0
0
0
0
0
0
0
0
0
0
0
0
0
0
0
0
0
0
0
0
0
0
0
0
0
0
0
0
0
0
0
0
4.41947e-05
4.37272e-05
4.3419e-05
4.3318e-05
4.49186e-05
4.42046e-05
4.36026e-05
4.31527e-05
4.29115e-05
4.50912e-05
4.42478e-05
4.35054e-05
4.29057e-05
4.25042e-05
4.63438e-05
4.53064e-05
4.43299e-05
4.34386e-05
4.2679e-05
4.21127e-05
4.67476e-05
4.55807e-05
4.4458e-05
4.34086e-05
4.2478e-05
4.17359e-05
4.72169e-05
4.59142e-05
4.46399e-05
4.34227e-05
4.2309e-05
4.13693e-05
4.92007e-05
4.77594e-05
4.63181e-05
4.48845e-05
4.34892e-05
4.2179e-05
4.10277e-05
4.99666e-05
4.8395e-05
4.68024e-05
4.52016e-05
4.36174e-05
4.20963e-05
4.07202e-05
5.08301e-05
4.91237e-05
4.73779e-05
4.56022e-05
4.38181e-05
4.20706e-05
4.04459e-05
5.35899e-05
5.18032e-05
4.996e-05
4.80563e-05
4.60984e-05
4.41034e-05
4.21133e-05
4.02169e-05
5.4811e-05
5.29019e-05
5.09158e-05
4.88501e-05
4.67038e-05
4.44874e-05
4.22379e-05
4.00447e-05
5.61535e-05
5.41237e-05
5.20017e-05
4.97736e-05
4.74333e-05
4.49858e-05
4.24601e-05
3.99428e-05
0
0
0
0
0
0
0
0
0
0
0
0
0
0
0
0
0
0
0
0
0
0
0
0
0
0
0
0
0
0
0
0
0
0
0
0
0
0
0
0
0
0
0
0
0
0
0
0
0
0
0
0
0
0
0
0
0
0
0
0
0
0
0
0
0
0
0
0
0
0
0
0
0
0
0
0
0
0
0
0
0
0
0
0
0
0
0
0
0
0
0
0
0
0
0
0
0
0
0
0
0
0
0
0
0
0
0
0
0
0
0
0
0
0
0
0
0
0
0
0
0
0
0
0
0
0
0
0
0
0
0
0
0
0
0
0
0
0
0
0
0
0
0
0
0
0
0
0
0
0
0
0
0
0
0
0
0
0
0
0
0
0
0
0
0
0
0
0
0
0
0
0
0
0
0
0
0
0
0
0
0
0
0
0
0
0
0
0
0
0
0
0
0
0
0
0
0
0
0
0
0
0
0
0
0
0
0
0
0
0
0
0
0
0
0
0
0
0
0
0
0
0
0
0
0
0
0
0
0
0
0
2.94778e-05
2.86576e-05
2.78559e-05
2.71195e-05
3.15122e-05
3.06616e-05
2.97835e-05
2.89121e-05
2.81e-05
3.28247e-05
3.19319e-05
3.09955e-05
3.00502e-05
2.91491e-05
3.50879e-05
3.42319e-05
3.33002e-05
3.23037e-05
3.12801e-05
3.02882e-05
3.66374e-05
3.57561e-05
3.47805e-05
3.37221e-05
3.26153e-05
3.15246e-05
3.83091e-05
3.7405e-05
3.63884e-05
3.52663e-05
3.40714e-05
3.28671e-05
4.09188e-05
4.01174e-05
3.91976e-05
3.81413e-05
3.69547e-05
3.56666e-05
3.43418e-05
4.28957e-05
4.20921e-05
4.11527e-05
4.00592e-05
3.88076e-05
3.74215e-05
3.59679e-05
4.50432e-05
4.42425e-05
4.32911e-05
4.21639e-05
4.08483e-05
3.93598e-05
3.77623e-05
4.80375e-05
4.73814e-05
4.65932e-05
4.56355e-05
4.44795e-05
4.31022e-05
4.15083e-05
3.97546e-05
5.05751e-05
4.99437e-05
4.9167e-05
4.821e-05
4.7032e-05
4.55976e-05
4.38971e-05
4.19752e-05
5.33327e-05
5.27365e-05
5.19876e-05
5.10402e-05
4.98479e-05
4.83646e-05
4.65608e-05
4.44591e-05
0
0
0
0
0
0
0
0
0
0
0
0
0
0
0
0
0
0
0
0
0
0
0
0
0
0
0
0
0
0
0
0
0
0
0
0
0
0
0
0
0
0
0
0
0
0
0
0
0
0
0
0
0
0
0
0
0
0
0
0
0
0
0
0
0
0
0
0
0
0
0
0
0
0
0
0
0
0
0
0
0
0
0
0
0
0
0
0
0
0
0
0
0
0
0
0
0
0
0
0
0
0
0
0
0
0
0
0
0
0
0
0
0
0
0
0
0
0
0
0
0
0
0
0
0
0
0
0
0
0
0
0
0
0
0
0
0
0
0
0
0
0
0
0
0
0
0
0
0
0
0
0
0
0
0
0
0
0
0
0
0
0
0
0
0
0
0
0
0
0
0
0
0
0
0
0
0
0
0
0
0
0
0
0
0
0
0
0
0
0
0
0
0
0
0
0
0
0
0
0
0
0
0
0
0
0
0
0
0
0
0
0
0
0
0
0
0
0
0
0
0
0
0
0
0
0
0
0
0
0
0
3.15045e-05
2.93442e-05
2.69543e-05
2.44113e-05
3.53622e-05
3.34492e-05
3.12368e-05
2.87681e-05
2.61283e-05
3.74918e-05
3.55703e-05
3.33147e-05
3.07745e-05
2.80374e-05
4.13287e-05
3.97995e-05
3.78901e-05
3.5608e-05
3.3006e-05
3.01814e-05
4.37992e-05
4.23283e-05
4.04444e-05
3.81525e-05
3.55007e-05
3.25913e-05
4.64907e-05
4.51038e-05
4.32714e-05
4.09898e-05
3.83024e-05
3.53118e-05
5.02677e-05
4.94371e-05
4.81687e-05
4.6415e-05
4.41675e-05
4.14623e-05
3.84032e-05
5.33634e-05
5.26959e-05
5.15686e-05
4.99253e-05
4.77405e-05
4.50392e-05
4.19248e-05
5.67703e-05
5.63021e-05
5.53551e-05
5.3859e-05
5.17712e-05
4.91008e-05
4.5943e-05
6.03487e-05
6.05352e-05
6.03115e-05
5.95858e-05
5.82797e-05
5.63303e-05
5.37249e-05
5.05438e-05
6.42675e-05
6.47321e-05
6.47824e-05
6.43243e-05
6.32582e-05
6.14967e-05
5.89993e-05
5.58224e-05
6.86101e-05
6.94e-05
6.9778e-05
6.96369e-05
6.8865e-05
6.73526e-05
6.50206e-05
6.1885e-05
0
0
0
0
0
0
0
0
0
0
0
0
0
0
0
0
0
0
0
0
0
0
0
0
0
0
0
0
0
0
0
0
0
0
0
0
0
0
0
0
0
0
0
0
0
0
0
0
0
0
0
0
0
0
0
0
0
0
0
0
0
0
0
0
0
0
0
0
0
0
0
0
0
0
0
0
0
0
0
0
0
0
0
0
0
0
0
0
0
0
0
0
0
0
0
0
0
0
0
0
0
0
0
0
0
0
0
0
0
0
0
0
0
0
0
0
0
0
0
0
0
0
0
0
0
0
0
0
0
0
0
0
0
0
0
0
0
0
0
0
0
0
0
0
0
0
0
0
0
0
0
0
0
0
0
0
0
0
0
0
0
0
0
0
0
0
0
0
0
0
0
0
0
0
0
0
0
0
0
0
0
0
0
0
0
0
0
0
0
0
0
0
0
0
0
0
0
0
0
0
0
0
0
0
0
0
0
0
0
0
0
0
0
0
0
0
0
0
0
0
0
0
0
0
0
0
0
0
0
0
0
0
0
0
0
0
0
0
0
0
0
0
0
0
0
0
0
0
0
0
0
0
0
0
0
0
0
0
0
0
0
0
0
0
0
0
0
0
0
0
0
0
0
0
0
0
0
0
0
0
0
0
0
0
0
0
0
0
0
0
0
0
0
0
0
0
0
0
0
0
0
0
0
0
0
0
0
0
0
0
0
0
0
0
0
0
0
0
0
0
0
0
0
0
0
0
0
0
0
0
0
0
0
0
0
0
0
0
0
0
0
0
0
0
0
0
0
0
0
0
0
0
0
0
0
0
0
0
0
0
0
0
0
0
0
0
0
0
0
0
0
0
0
0
0
0
0
0
0
0
0
0
0
0
0
6.03672e-05
5.57764e-05
5.05954e-05
4.49697e-05
6.62433e-05
6.21975e-05
5.74383e-05
5.20338e-05
4.61473e-05
6.84313e-05
6.43107e-05
5.94061e-05
5.38024e-05
4.76684e-05
7.41679e-05
7.08921e-05
6.67442e-05
6.17385e-05
5.59664e-05
4.96116e-05
7.68988e-05
7.3701e-05
6.95669e-05
6.4506e-05
5.86022e-05
5.20474e-05
7.99662e-05
7.69089e-05
7.28522e-05
6.77899e-05
6.17982e-05
5.50717e-05
8.52862e-05
8.34332e-05
8.05948e-05
7.66842e-05
7.16838e-05
6.56568e-05
5.87987e-05
8.89258e-05
8.73976e-05
8.48448e-05
8.11597e-05
7.6296e-05
7.02969e-05
6.33563e-05
9.30494e-05
9.19332e-05
8.97582e-05
8.63902e-05
8.17516e-05
7.5857e-05
6.88861e-05
9.74273e-05
9.77479e-05
9.7146e-05
9.54493e-05
9.25044e-05
8.81957e-05
8.24988e-05
7.55678e-05
0.000102236
0.000103156
0.000103155
0.000102051
9.96514e-05
9.57969e-05
9.04122e-05
8.36106e-05
0.000107747
0.000109376
0.0001101
0.000109712
0.000107994
0.000104743
9.98169e-05
9.32595e-05
0
0
0
0
0
0
0
0
0
0
0
0
0
0
0
0
0
0
0
0
0
0
0
0
0
0
0
0
0
0
0
0
0
0
0
0
0
0
0
0
0
0
0
0
0
0
0
0
0
0
0
0
0
0
0
0
0
0
0
0
0
0
0
0
0
0
0
0
0
0
0
0
0
0
0
0
0
0
0
0
0
0
0
0
0
0
0
0
0
0
0
0
0
0
0
0
0
0
0
0
0
0
0
0
0
0
0
0
0
0
0
0
0
0
0
0
0
0
0
0
0
0
0
0
0
0
0
0
0
0
0
0
0
0
0
0
0
0
0
0
0
0
0
0
0
0
0
0
0
0
0
0
0
0
0
0
0
0
0
0
0
0
0
0
0
0
0
0
0
0
0
0
0
0
0
0
0
0
0
0
0
0
0
0
0
0
0
0
0
0
0
0
0
0
0
0
0
0
0
0
0
0
0
0
0
0
0
0
0
0
0
0
0
0
0
0
0
0
0
0
0
0
0
0
0
0
0
0
0
0
0
0
0
0
0
0
0
0
0
0
0
0
0
0
0
0
0
0
0
0
0
0
0
0
0
0
0
0
0
0
0
0
0
0
0
0
0
0
0
0
0
0
0
0
0
0
0
0
0
0
0
0
0
0
0
0
0
0
0
0
0
0
0
0
0
0
0
0
0
0
0
0
0
SCALARS F_FC double 1
LOOKUP_TABLE default
0.000260695
0.00023218
0.000202908
0.000314073
0.000286111
0.000256764
0.000226366
0.000341761
0.000313327
0.000283218
0.000251755
0.000397762
0.000371218
0.000342438
0.000311665
0.000279206
0.000245371
0.000428965
0.000402515
0.000373527
0.000342209
0.000308858
0.000273752
0.000461879
0.000435711
0.000406681
0.000374962
0.000340822
0.000304523
0.00051895
0.000496525
0.000470864
0.000441987
0.000410033
0.000375241
0.000337867
0.000554364
0.000532955
0.000508024
0.000479525
0.000447538
0.000412257
0.000373903
0.00059126
0.000571151
0.00054723
0.000519373
0.00048759
0.00045202
0.000412836
0.00064429
0.000629599
0.000611104
0.000588503
0.000561596
0.000530301
0.000494683
0.000454853
0.000681938
0.000669334
0.00065277
0.000631845
0.000606244
0.000575774
0.0005404
0.000500158
0.00073037
0.000727011
0.000720476
0.000710311
0.000696025
0.00067716
0.000653286
0.000624069
0.00058932
0.00054895
0
0
0
0
0
0
0
0
0
0
0
0
0
0
0
0
0
0
0
0
0
0
0
0
0
0
0
0
0
0
0
0
0
0
0
0
0
0
0
0
0
0
0
0
0
0
0
0
0
0
0
0
0
0
0
0
0
0
0
0
0
0
0
0
0
0
0
0
0
0
0
0
0
0
0
0
0
0
0
0
0
0
0
0
0
0
0
0
0
0
0
0
0
0
0
0
0
0
0
0
0
0
0
0
0
0
0
0
0
0
0
0
0
0
0
0
0
0
0
0
0
0
0
0
0
0
0
0
0
0
0
0
0
0
0
0
0
0
0
0
0
0
0
0
0
0
0
0
0.00024896
0.000231277
0.000213002
0.000194391
0.000283725
0.000266696
0.000248774
0.000230145
0.000211063
0.000302638
0.000285516
0.000267386
0.000248439
0.000228937
0.000338532
0.000322641
0.000305481
0.00028719
0.000267961
0.000248062
0.000359509
0.000343775
0.000326644
0.000308247
0.000288785
0.000268539
0.00038158
0.000366092
0.000349062
0.000330622
0.000310979
0.000290431
0.000418155
0.000404776
0.000389637
0.000372795
0.000354382
0.000334618
0.000313832
0.000441922
0.000429143
0.000414458
0.000397902
0.0003796
0.000359784
0.0003388
0.000466733
0.000454699
0.0004406
0.000424447
0.000406353
0.000386559
0.000365443
0.000501616
0.000492601
0.00048147
0.000468108
0.000452494
0.00043472
0.000415037
0.000393859
0.00052737
0.000519529
0.000509469
0.000497022
0.00048211
0.000464792
0.00044532
0.000424156
0.000553965
0.000547482
0.000538678
0.000527338
0.000513327
0.000496648
0.000477525
0.000456458
5.76855e-05
5.62398e-05
5.39951e-05
5.09122e-05
6.21835e-05
6.18712e-05
6.08117e-05
5.88995e-05
5.6056e-05
6.62399e-05
6.6403e-05
6.58e-05
6.42791e-05
6.17442e-05
6.93016e-05
7.06151e-05
7.1315e-05
7.12316e-05
7.01722e-05
6.79984e-05
7.34057e-05
7.53086e-05
7.66259e-05
7.71393e-05
7.66224e-05
7.48822e-05
7.77946e-05
8.03542e-05
8.23585e-05
8.35565e-05
8.36766e-05
8.24773e-05
7.88909e-05
8.24773e-05
8.57597e-05
8.85346e-05
9.05171e-05
9.13849e-05
9.08386e-05
8.31536e-05
8.74528e-05
9.15374e-05
9.51744e-05
9.80545e-05
9.97992e-05
0.000100021
8.76714e-05
9.27435e-05
9.76972e-05
0.000102295
0.0001062
0.000108973
0.000110125
8.66862e-05
9.24474e-05
9.83483e-05
0.000104246
0.000109909
0.00011498
0.000118958
0.000121235
9.09669e-05
9.74902e-05
0.000104271
0.000111188
0.000118025
0.000124415
0.000129802
0.000133441
9.54975e-05
0.000102821
0.000110526
0.000118531
0.000126651
0.00013453
0.000141567
0.00014685
0
0
0
0
0
0
0
0
0
0
0
0
0
0
0
0
0
0
0
0
0
0
0
0
0
0
0
0
0
0
0
0
0
0
0
0
0
0
0
0
0
0
0
0
0
0
0
0
0
0
0
0
0
0
0
0
0
0
0
0
0
0
0
0
0
0
0
0
0
0
0
0
0
0
0
0
0
0.00145015
0.00142341
0.00139318
0.00136022
0.00150173
0.0014797
0.00145376
0.00142408
0.00139143
0.00153132
0.00151039
0.00148533
0.00145629
0.00142401
0.00157745
0.00156195
0.00154225
0.00151818
0.00148985
0.00145801
0.00160758
0.00159362
0.0015753
0.00155235
0.00152483
0.00149346
0.00163859
0.00162636
0.00160957
0.00158788
0.00156128
0.00153046
0.00167654
0.00167044
0.00166013
0.00164507
0.00162481
0.00159927
0.00156909
0.00170703
0.00170312
0.00169494
0.00168181
0.00166318
0.00163886
0.00160942
0.00173808
0.00173658
0.00173074
0.00171979
0.00170303
0.00168013
0.00165154
0.00176497
0.00176963
0.00177074
0.0017675
0.001759
0.0017444
0.00172318
0.0016956
0.0017942
0.00180158
0.00180552
0.00180512
0.0017994
0.0017873
0.00176807
0.00174173
0.00182358
0.00183382
0.00184078
0.00184352
0.00184092
0.00183173
0.00181489
0.00179009
0.000241105
0.000233714
0.000226251
0.000218908
0.000259053
0.000251915
0.000244584
0.000237184
0.000229909
0.000270396
0.000263326
0.000256058
0.000248732
0.00024156
0.000289077
0.000282382
0.00027538
0.000268183
0.000260939
0.000253871
0.00030161
0.000295028
0.000288114
0.000280994
0.000273841
0.000266901
0.000314837
0.000308385
0.000301568
0.000294532
0.000287477
0.000280683
0.000334588
0.000328799
0.000322494
0.000315788
0.000308842
0.000301889
0.000295249
0.000349076
0.00034353
0.000337406
0.000330828
0.000323978
0.000317125
0.000310637
0.000364338
0.000359082
0.000353176
0.000346747
0.000339998
0.000333241
0.000326906
0.000384573
0.000380422
0.000375505
0.000369864
0.000363615
0.000356976
0.000350304
0.000344109
0.000401011
0.00039735
0.000392853
0.000387538
0.00038151
0.000374996
0.000368397
0.000362316
0.000418264
0.000415175
0.00041117
0.000406254
0.00040051
0.000394154
0.000387623
0.000381622
0.000167971
0.000168049
0.000167018
0.000164818
0.000169917
0.0001715
0.000172086
0.00017152
0.000169708
0.000172943
0.0001751
0.000176244
0.000176193
0.000174834
0.000172414
0.000175987
0.00017876
0.000180518
0.000181041
0.000180181
0.000174805
0.000179019
0.00018247
0.000184904
0.000186066
0.000185758
0.000177135
0.000182033
0.000186215
0.000189392
0.000191269
0.000191605
0.00017334
0.000179382
0.000185005
0.000189974
0.000193969
0.000196648
0.000197718
0.000174792
0.000181507
0.000187908
0.000193724
0.000198618
0.000202199
0.000204091
0.000176091
0.000183505
0.000190711
0.000197434
0.000203316
0.000207911
0.000210756
0.000169167
0.00017721
0.000185338
0.000193379
0.000201069
0.000208031
0.00021377
0.000217718
0.000169488
0.000178127
0.000186974
0.000195875
0.000204585
0.000212722
0.000219747
0.00022498
0.000169621
0.000178841
0.00018839
0.000198161
0.000207933
0.000217338
0.000225805
0.000232537
0
0
0
0
0
0
0
0
0
0
0
0
0
0
0
0
0
0
0
0
0
0
0
0
0
0
0
0
0
0
0
0
0
0
0
0
0
0
0
0
0
0
0
0
0
0
0
0
0
0
0
0
0
0
0
0
0
0
0
0
0
0
0
0
0
0
0
0
0
0
0
0
0
0
0
0
0
0.0016233
0.00162255
0.00162123
0.00161961
0.00164814
0.00164877
0.00164853
0.0016476
0.00164629
0.00167388
0.00167523
0.00167553
0.00167504
0.00167404
0.0016972
0.00170057
0.00170268
0.00170361
0.00170357
0.00170291
0.00172382
0.00172822
0.00173118
0.00173279
0.00173326
0.00173296
0.0017513
0.00175683
0.00176075
0.00176313
0.00176416
0.00176422
0.00177115
0.00177962
0.00178641
0.00179143
0.00179468
0.00179633
0.00179679
0.00179873
0.00180875
0.00181698
0.00182324
0.00182748
0.00182985
0.00183073
0.00182692
0.00183867
0.00184851
0.00185619
0.00186159
0.00186478
0.00186614
0.0018404
0.00185568
0.00186933
0.00188098
0.00189029
0.00189705
0.00190123
0.00190315
0.0018675
0.0018849
0.00190064
0.00191434
0.00192555
0.00193391
0.00193928
0.00194187
0.0018948
0.00191446
0.00193252
0.00194851
0.0019619
0.00197219
0.00197901
0.00198249
0.00166834
0.00167454
0.00168101
0.00168783
0.00168611
0.00169274
0.00169935
0.00170615
0.00171322
0.00171085
0.00171809
0.00172514
0.00173228
0.0017396
0.0017282
0.00173653
0.0017444
0.00175195
0.00175945
0.00176705
0.00175392
0.00176315
0.00177172
0.00177983
0.00178773
0.00179559
0.0017805
0.0017907
0.00180009
0.00180882
0.00181716
0.00182529
0.00179562
0.00180792
0.00181922
0.00182954
0.00183898
0.0018478
0.00185622
0.00182245
0.00183615
0.00184871
0.00186009
0.00187036
0.00187974
0.00188846
0.0018499
0.00186517
0.00187916
0.00189177
0.00190301
0.00191305
0.00192211
0.00185982
0.00187792
0.00189492
0.00191054
0.00192459
0.00193699
0.00194782
0.00195728
0.00188634
0.00190642
0.00192533
0.00194281
0.00195855
0.00197233
0.00198415
0.00199412
0.00191307
0.00193526
0.00195631
0.00197589
0.0019936
0.00200908
0.00202213
0.00203279
0
0
0
0
0
0
0
0
0
0
0
0
0
0
0
0
0
0
0
0
0
0
0
0
0
0
0
0
0
0
0
0
0
0
0
0
0
0
0
0
0
0
0
0
0
0
0
0
0
0
0
0
0
0
0
0
0
0
0
0
0
0
0
0
0
0
0
0
0
0
0
0
0
0
0
0
0
0
0
0
0
0
0
0
0
0
0
0
0
0
0
0
0
0
0
0
0
0
0
0
0
0
0
0
0
0
0
0
0
0
0
0
0
0
0
0
0
0
0
0
0
0
0
0
0
0
0
0
0
0
0
0
0
0
0
0
0
0
0
0
0
0
0
0
0
0
0
0
0
0
0
0
0
0
0.000384385
0.000389359
0.000393136
0.000395506
0.000376619
0.000382947
0.00038824
0.00039227
0.000394813
0.000374306
0.000381019
0.000386643
0.00039097
0.000393736
0.000363428
0.000371406
0.000378524
0.000384539
0.000389209
0.000392246
0.000359479
0.00036788
0.000375438
0.000381891
0.000386956
0.000390297
0.000354836
0.000363677
0.000371716
0.000378657
0.000384175
0.000387894
0.000339676
0.000349459
0.000358754
0.000367307
0.000374789
0.000380828
0.000384994
0.000333132
0.000343287
0.000353058
0.000362157
0.000370234
0.000376869
0.000381555
0.000325785
0.0003363
0.000346538
0.000356207
0.000364933
0.000372246
0.000377555
0.000306801
0.000317606
0.00032845
0.00033914
0.000349393
0.000358819
0.000366899
0.000372949
0.000297611
0.000308578
0.000319702
0.000330814
0.00034165
0.000351816
0.000360755
0.000367684
0.000287649
0.000298702
0.000310033
0.000321517
0.000332913
0.000343841
0.000353712
0.000361681
0.000230592
0.000240496
0.000252036
0.0002652
0.00022203
0.000230285
0.000240122
0.000251683
0.000264966
0.000222092
0.000230192
0.000239934
0.000251491
0.000264889
0.000216054
0.000222453
0.00023034
0.00023995
0.000251468
0.000264938
0.000216957
0.000223096
0.000230751
0.000240187
0.000251627
0.000265151
0.000218239
0.000224076
0.000231452
0.000240666
0.000251981
0.000265529
0.000215739
0.000219943
0.000225425
0.000232477
0.000241415
0.000252548
0.000266056
0.000218227
0.000222081
0.000227189
0.000233868
0.00024247
0.000253355
0.000266758
0.000221253
0.000224726
0.000229421
0.000235675
0.000243876
0.000254435
0.000267666
0.000222764
0.000224883
0.000227934
0.000232184
0.000237964
0.000245693
0.000255839
0.000268802
0.000227363
0.000229134
0.000231774
0.000235552
0.000240812
0.000247996
0.00025763
0.000270212
0.0002327
0.00023411
0.000236327
0.000239617
0.000244319
0.000250888
0.000259903
0.000271977
0.00185291
0.00188862
0.00192881
0.00197366
0.00184098
0.00187273
0.00190835
0.00194841
0.00199315
0.00186158
0.0018934
0.00192891
0.00196881
0.00201338
0.00185417
0.00188308
0.00191492
0.00195033
0.00199005
0.0020344
0.00187625
0.00190545
0.00193735
0.00197268
0.00201219
0.00205629
0.00189918
0.00192871
0.00196074
0.00199601
0.0020353
0.00207908
0.00189482
0.00192295
0.00195289
0.00198514
0.0020204
0.00205946
0.00210286
0.00191862
0.00194753
0.00197802
0.00201059
0.00204591
0.00208476
0.00212773
0.00194307
0.00197289
0.0020041
0.00203713
0.00207261
0.0021113
0.00215382
0.00193831
0.00196812
0.00199899
0.00203109
0.00206478
0.00210058
0.0021392
0.00218126
0.00196245
0.00199365
0.00202575
0.00205896
0.00209353
0.00212986
0.00216857
0.00221025
0.00198681
0.00201951
0.00205306
0.00208762
0.00212334
0.00216049
0.00219952
0.00224096
0
0
0
0
0
0
0
0
0
0
0
0
0
0
0
0
0
0
0
0
0
0
0
0
0
0
0
0
0
0
0
0
0
0
0
0
0
0
0
0
0
0
0
0
0
0
0
0
0
0
0
0
0
0
0
0
0
0
0
0
0
0
0
0
0
0
0
0
0
0
0
0
0
0
0
0
0
0.000623156
0.000634301
0.000644583
0.000654031
0.000602797
0.000614688
0.000625724
0.00063578
0.000644892
0.000593235
0.000605124
0.000616035
0.000625903
0.000634709
0.000569705
0.00058244
0.000594333
0.000605189
0.00061491
0.000623454
0.000557589
0.000570377
0.000582293
0.00059314
0.000602762
0.000611078
0.00054412
0.000556964
0.000568951
0.000579836
0.000589414
0.000597558
0.000515797
0.000529252
0.000542158
0.000554246
0.000565222
0.000574821
0.000582852
0.000499493
0.000512926
0.000525902
0.000538115
0.000549234
0.00055893
0.000566925
0.000481743
0.000495118
0.000508139
0.000520492
0.000531807
0.000541681
0.000549741
0.000449281
0.000462536
0.000475791
0.00048882
0.000501312
0.000512866
0.000523007
0.000531249
0.00042895
0.000441881
0.000454931
0.000467906
0.000480512
0.000492332
0.000502828
0.000511391
0.000407307
0.000419793
0.000432532
0.000445375
0.000458042
0.000470123
0.000481036
0.000490077
0.000222648
0.000242321
0.000265447
0.000292428
0.0002002
0.000216293
0.000235469
0.000258176
0.000284842
0.000194639
0.000210158
0.000228797
0.000251043
0.000277366
0.000177194
0.000189392
0.000204272
0.000222322
0.000244054
0.00026997
0.000172893
0.000184437
0.00019865
0.000216058
0.000237219
0.00026269
0.000168978
0.000179819
0.000193315
0.000210024
0.000230549
0.000255515
0.000157549
0.000165482
0.000175567
0.000188295
0.000204242
0.000224058
0.000248432
0.00015518
0.000162403
0.000171713
0.000183623
0.00019874
0.000217767
0.000241456
0.000153325
0.000159802
0.000168298
0.000179337
0.000193553
0.000211703
0.00023462
0.000147895
0.000152031
0.000157721
0.000165369
0.000175485
0.000188727
0.000205902
0.000227933
0.000147857
0.000151301
0.00015621
0.000162981
0.000172126
0.000184319
0.000200414
0.000221428
0.000148489
0.00015122
0.00015533
0.000161203
0.000169339
0.000180411
0.000195314
0.000215169
0
0
0
0
0
0
0
0
0
0
0
0
0
0
0
0
0
0
0
0
0
0
0
0
0
0
0
0
0
0
0
0
0
0
0
0
0
0
0
0
0
0
0
0
0
0
0
0
0
0
0
0
0
0
0
0
0
0
0
0
0
0
0
0
0
0
0
0
0
0
0
0
0
0
0
0
0
0.00203462
0.00210198
0.00217982
0.00227017
0.00199128
0.0020491
0.00211561
0.00219257
0.00228215
0.00200721
0.00206433
0.0021299
0.0022059
0.00229457
0.00197448
0.00202401
0.00208031
0.00214491
0.00221986
0.0023075
0.00199264
0.00204167
0.00209714
0.00216072
0.00223451
0.00232103
0.00201168
0.0020602
0.00211489
0.00217741
0.00224995
0.00233518
0.00198824
0.00203161
0.00207968
0.00213362
0.00219508
0.00226628
0.00235004
0.00200903
0.00205241
0.00210014
0.0021534
0.00221381
0.00228362
0.00236575
0.00203054
0.00207405
0.0021216
0.0021743
0.00223371
0.0023021
0.00238249
0.00201205
0.00205272
0.00209651
0.00214405
0.00219636
0.00225489
0.00232187
0.00240041
0.00203407
0.00207547
0.00211971
0.00216746
0.00221959
0.00227743
0.0023431
0.00241973
0.00205637
0.00209861
0.00214354
0.00219174
0.00224398
0.0023014
0.00236594
0.00244072
0
0
0
0
0
0
0
0
0
0
0
0
0
0
0
0
0
0
0
0
0
0
0
0
0
0
0
0
0
0
0
0
0
0
0
0
0
0
0
0
0
0
0
0
0
0
0
0
0
0
0
0
0
0
0
0
0
0
0
0
0
0
0
0
0
0
0
0
0
0
0
0
0
0
0
0
0
0
0
0
0
0
0
0
0
0
0
0
0
0
0
0
0
0
0
0
0
0
0
0
0
0
0
0
0
0
0
0
0
0
0
0
0
0
0
0
0
0
0
0
0
0
0
0
0
0
0
0
0
0
0
0
0
0
0
0
0
0
0
0
0
0
0
0
0
0
0
0
0
0
0
0
0
0
0.000926197
0.000945135
0.000963764
0.000982679
0.000889579
0.000908367
0.000926524
0.000944163
0.000961905
0.000870501
0.000888698
0.000906039
0.000922723
0.000939302
0.0008309
0.000849409
0.000867023
0.000883636
0.000899406
0.000914866
0.000808237
0.000826281
0.000843331
0.000859273
0.000874182
0.000888545
0.000783429
0.000801017
0.00081757
0.000832904
0.000847022
0.000860348
0.000738558
0.000756433
0.000773578
0.000789682
0.000804483
0.000817893
0.000830236
0.000709828
0.000727196
0.000743911
0.00075961
0.000773957
0.000786759
0.000798231
0.000678883
0.0006957
0.000711966
0.000727291
0.000741267
0.00075358
0.000764302
0.000629437
0.000645734
0.000661921
0.000677699
0.000692664
0.000706344
0.000718297
0.000728427
0.000594995
0.000610415
0.000625866
0.000641081
0.000655667
0.000669106
0.000680835
0.00069056
0.000558566
0.000572948
0.000587534
0.000602094
0.000616244
0.000629453
0.00064107
0.000650611
0.000210437
0.00023951
0.00027438
0.00031604
0.000175286
0.000198248
0.000226117
0.000259805
0.000300354
0.000164722
0.000186463
0.000213074
0.000245519
0.000284899
0.000138142
0.000154644
0.00017511
0.000200408
0.000231541
0.000269669
0.000129733
0.000145039
0.000164207
0.000188138
0.000217887
0.000254685
0.000121857
0.000135943
0.000153776
0.000176286
0.000204575
0.000239971
0.000104576
0.000114537
0.000127373
0.00014384
0.000164875
0.000191628
0.000225508
9.88866e-05
0.000107757
0.000119351
0.000134424
0.000153932
0.00017907
0.00021132
9.37802e-05
0.000101557
0.0001119
0.000125556
0.000143488
0.00016693
0.00019745
8.44693e-05
8.92711e-05
9.59508e-05
0.000105043
0.000117265
0.000133576
0.00015524
0.000183911
8.14741e-05
8.53493e-05
9.09577e-05
9.88041e-05
0.000109579
0.00012423
0.00014404
0.000170734
7.90957e-05
8.20524e-05
8.66e-05
9.32119e-05
0.00010254
0.000115499
0.000133375
0.000157963
4.47361e-06
3.71785e-06
2.79562e-06
6.79594e-06
6.31568e-06
5.58597e-06
4.60051e-06
8.93356e-06
8.60663e-06
7.97851e-06
6.99839e-06
1.13412e-05
1.1514e-05
1.14151e-05
1.0967e-05
1.00787e-05
8.678e-06
1.40862e-05
1.4584e-05
1.48054e-05
1.46319e-05
1.39327e-05
1.25733e-05
1.7304e-05
1.8213e-05
1.88488e-05
1.90603e-05
1.8668e-05
1.74743e-05
1.95074e-05
2.10473e-05
2.24605e-05
2.36214e-05
2.43453e-05
2.43989e-05
2.3513e-05
2.32789e-05
2.53696e-05
2.73929e-05
2.9203e-05
3.0586e-05
3.12495e-05
3.0827e-05
2.76022e-05
3.0337e-05
3.30791e-05
3.56761e-05
3.7886e-05
3.93528e-05
3.95987e-05
2.92408e-05
3.25323e-05
3.60096e-05
3.95899e-05
4.31249e-05
4.63512e-05
4.88489e-05
5.0009e-05
3.41003e-05
3.81324e-05
4.24519e-05
4.6997e-05
5.16322e-05
5.60861e-05
5.98804e-05
6.22558e-05
3.51447e-05
3.96062e-05
4.44721e-05
4.97388e-05
5.53782e-05
6.12851e-05
6.72009e-05
7.26076e-05
7.65574e-05
0.00129412
0.00124474
0.001189
0.00136928
0.00132741
0.00127899
0.00122382
0.00140246
0.001362
0.0013147
0.00126022
0.00146891
0.00143677
0.00139794
0.00135192
0.00129828
0.00123697
0.00150233
0.00147222
0.00143523
0.00139068
0.00133805
0.00127714
0.00153664
0.00150882
0.00147389
0.00143103
0.00137958
0.00131924
0.0015907
0.00157181
0.00154653
0.00151391
0.00147299
0.00142295
0.00136337
0.00162387
0.00160779
0.00158531
0.0015553
0.00151661
0.00146823
0.00140956
0.00165752
0.00164452
0.00162511
0.00159802
0.0015619
0.00151549
0.00145795
0.00169612
0.00169157
0.00168188
0.00166584
0.00164202
0.00160886
0.00156481
0.00150867
0.00172716
0.00172592
0.00171976
0.00170739
0.00168724
0.00165749
0.00161624
0.00156189
0.00175822
0.00176045
0.00175802
0.00174962
0.00173355
0.00170773
0.00166987
0.00161774
SCALARS F_3 double 1
LOOKUP_TABLE default
0.00144583
0.00152765
0.00161021
0.00136813
0.00145291
0.00153811
0.00162419
0.00136994
0.00145856
0.00154766
0.00163764
0.00127876
0.00137024
0.00146286
0.00155617
0.00165032
0.00175231
0.00127309
0.00136864
0.00146562
0.00156349
0.00166237
0.00176892
0.00126511
0.00136496
0.0014666
0.00156943
0.00167339
0.00178492
0.00115413
0.00125481
0.00135889
0.00146556
0.00157378
0.00168329
0.00180005
0.00113624
0.00124113
0.00135006
0.00146213
0.00157624
0.00169187
0.00181473
0.00111514
0.00122413
0.00133803
0.0014559
0.00157647
0.00169886
0.00182847
0.000985092
0.00109071
0.00120321
0.00132223
0.00144631
0.00157394
0.00170387
0.00184103
0.000952452
0.00106115
0.00117773
0.00130196
0.00143259
0.00156797
0.00170636
0.001852
0.000721458
0.000814807
0.000916475
0.00102716
0.00114717
0.00127633
0.00141369
0.00155754
0.00170554
0.0018609
0.00394515
0.00414346
0.00433913
0.00382477
0.00403572
0.00424309
0.00444727
0.00390859
0.00413004
0.00434771
0.00456141
0.00376227
0.00399587
0.00422859
0.00445755
0.00468167
0.00490408
0.0038407
0.00408616
0.00433132
0.00457276
0.00480876
0.00504132
0.0039213
0.00417945
0.00443815
0.00469342
0.0049427
0.0051868
0.0037376
0.00400392
0.00427539
0.00454888
0.00481957
0.00508385
0.00534086
0.0038082
0.00408728
0.0043735
0.00466315
0.00495103
0.00523238
0.00550464
0.00387924
0.00417146
0.00447309
0.00478032
0.00508741
0.00538828
0.00567834
0.00365846
0.00395006
0.00425529
0.00457311
0.00489936
0.00522788
0.00555122
0.00586225
0.00371553
0.00401815
0.00433744
0.00467204
0.00501865
0.00537096
0.00572023
0.00605628
0.00377046
0.00408372
0.0044163
0.00476776
0.00513571
0.00551425
0.0058936
0.00625973
0
0
0
0
0
0
0
0
0
0
0
0
0
0
0
0
0
0
0
0
0
0
0
0
0
0
0
0
0
0
0
0
0
0
0
0
0
0
0
0
0
0
0
0
0
0
0
0
0
0
0
0
0
0
0
0
0
0
0
0
0
0
0
0
0
0
0
0
0
0
0
0
0
0
0.00638889
0.00678371
0.00718993
0.0076117
0.00608338
0.00647843
0.00688526
0.0073043
0.0077391
0.00616484
0.00657232
0.0069924
0.00742527
0.00787401
0.0058452
0.00625079
0.00667127
0.00710549
0.00755322
0.00801726
0.00592253
0.00634081
0.00677536
0.0072248
0.00768872
0.00816931
0.00600355
0.00643517
0.00688465
0.00735052
0.00783204
0.00833075
0.00566326
0.00608824
0.00653368
0.00699911
0.00748278
0.00798354
0.00850198
0.00573771
0.00617556
0.00663605
0.00711854
0.00762149
0.00814344
0.00868416
0.00581461
0.0062657
0.00674178
0.00724246
0.00776634
0.00831166
0.00887741
0.00545552
0.00589323
0.00635756
0.00684996
0.00737001
0.00791659
0.00848779
0.00908175
0.00552175
0.00597102
0.0064498
0.0069592
0.00749978
0.00807091
0.00867079
0.00929678
0.00558702
0.00604787
0.00654071
0.00706745
0.00762953
0.00822717
0.00885899
0.00952151
0.00743232
0.0078703
0.00831598
0.00877295
0.00709735
0.00753965
0.00799119
0.00845077
0.00892156
0.00719549
0.00765242
0.008119
0.00859364
0.00907921
0.00683884
0.00729901
0.00777142
0.00825415
0.00874512
0.00924694
0.00693147
0.00740744
0.00789675
0.00839702
0.00890579
0.00942524
0.00702822
0.00752103
0.00802855
0.00854797
0.00907625
0.0096149
0.0066374
0.00712894
0.00763952
0.00816681
0.00870725
0.00925707
0.0098166
0.00672391
0.00723242
0.00776252
0.00831132
0.00887494
0.00944873
0.0100319
0.0068125
0.00733865
0.00788933
0.00846153
0.00905084
0.00965151
0.0102613
0.00638694
0.00690221
0.00744629
0.00801882
0.00861646
0.00923429
0.00986536
0.0105056
0.00645986
0.00699042
0.00755375
0.0081493
0.00877444
0.00942398
0.0100897
0.0107649
0.00653123
0.0070769
0.00765914
0.0082784
0.00893291
0.00961765
0.0103232
0.0110395
0.00793888
0.00839748
0.00886286
0.00933443
0.00761993
0.00808522
0.00855842
0.00903853
0.00952454
0.00775878
0.00824012
0.00872967
0.00922593
0.0097275
0.00741903
0.00790612
0.00840457
0.00891181
0.00942574
0.00994461
0.00755662
0.00806147
0.00857876
0.00910539
0.00963876
0.0101766
0.00770125
0.00822518
0.00876292
0.00931089
0.00986578
0.0104246
0.00732696
0.00785276
0.00839702
0.00895711
0.00952869
0.0101076
0.0106895
0.00746432
0.00800993
0.00857662
0.0091612
0.00975902
0.0103649
0.0109733
0.00760627
0.00817273
0.0087633
0.0093747
0.0100018
0.0106382
0.0112769
0.00719238
0.00775176
0.0083398
0.00895595
0.00959669
0.0102565
0.0109277
0.0116013
0.00731957
0.0078982
0.00850958
0.00915299
0.00982568
0.010522
0.0112331
0.0119473
0.00744722
0.00804548
0.00868042
0.00935235
0.0100595
0.0107964
0.0115535
0.0123157
0.00850052
0.00901306
0.00953296
0.0100519
0.00813799
0.00865483
0.00918341
0.00972024
0.0102566
0.00828489
0.00881855
0.00936495
0.00992024
0.0104754
0.00790709
0.00844138
0.00899278
0.00955829
0.0101336
0.0107096
0.00805504
0.00860703
0.00917777
0.00976401
0.0103612
0.0109599
0.00821155
0.00878235
0.00937382
0.00998261
0.0106038
0.0112275
0.00781054
0.00837662
0.00896725
0.0095811
0.0102145
0.0108622
0.0115134
0.00796416
0.00854925
0.00916157
0.0097996
0.01046
0.0111371
0.0118193
0.00812463
0.00872968
0.0093649
0.0100291
0.010719
0.0114288
0.0121463
0.00769813
0.00829113
0.00891688
0.00957652
0.0102689
0.0109913
0.0117376
0.012495
0.00784947
0.00846141
0.00910973
0.00979534
0.0105182
0.0112761
0.0120633
0.0128663
0.00800413
0.00863579
0.00930713
0.01002
0.0107755
0.0115723
0.0124055
0.0132608
0.00921254
0.00977171
0.0103351
0.0108873
0.00879524
0.00935813
0.00993386
0.0105151
0.0110862
0.00893274
0.00951276
0.0101068
0.0107073
0.0112985
0.00850107
0.00907962
0.00967759
0.0102911
0.0109123
0.0115256
0.00863912
0.00923547
0.00985295
0.0104874
0.0111311
0.0117683
0.00878571
0.00940094
0.0100393
0.0106965
0.0113646
0.0120278
0.00833306
0.00894094
0.00957604
0.0102368
0.0109188
0.0116137
0.0123052
0.00847703
0.00910389
0.00976072
0.0104457
0.0111547
0.0118792
0.0126023
0.00862812
0.00927491
0.00995472
0.0106659
0.0114045
0.0121618
0.0129204
0.00815402
0.00878561
0.00945309
0.0101574
0.0108971
0.0116681
0.0124619
0.0132606
0.00829712
0.0089474
0.00963742
0.0103679
0.0111383
0.0119451
0.0127797
0.0136238
0.00844424
0.00911392
0.00982694
0.010585
0.0113884
0.0122346
0.0131153
0.0140114
0.00975588
0.0103258
0.0108966
0.0114532
0.00933892
0.00991483
0.0105012
0.0110894
0.0116642
0.00948987
0.0100835
0.0106883
0.0112952
0.0118894
0.00905431
0.00965072
0.0102632
0.0108876
0.0115149
0.0121303
0.00920509
0.00982103
0.0104542
0.0111001
0.0117495
0.0123878
0.00936447
0.0100014
0.010657
0.0113264
0.0120001
0.0126633
0.00889656
0.00953236
0.0101918
0.010872
0.0115673
0.0122678
0.0129581
0.00904965
0.00970767
0.0103921
0.0110992
0.0118234
0.0125539
0.0132746
0.00920887
0.00989051
0.0106017
0.0113387
0.012095
0.0128593
0.0136145
0.00870141
0.00937323
0.0100797
0.0108199
0.0115897
0.0123823
0.013185
0.0139795
0.00884623
0.00954041
0.0102738
0.0110454
0.0118515
0.0126847
0.0135315
0.0143714
0.00899325
0.00971051
0.0104716
0.0112764
0.0121221
0.0130013
0.0138991
0.0147923
0.00982578
0.0104084
0.0109937
0.0115619
0.00940449
0.00999283
0.0105926
0.0111959
0.0117832
0.00956376
0.0101704
0.0107893
0.0114122
0.0120199
0.00912513
0.00973378
0.0103599
0.0109992
0.0116434
0.0122735
0.00928539
0.00991411
0.0105616
0.0112232
0.0118906
0.012545
0.00945513
0.0101054
0.010776
0.0114621
0.012155
0.0128358
0.00898605
0.00963436
0.0103078
0.0110037
0.0117167
0.0124378
0.0131476
0.00915095
0.0098221
0.0105211
0.0112448
0.0119877
0.0127402
0.0134826
0.00932312
0.0100186
0.0107451
0.0114995
0.0122757
0.0130636
0.0138428
0.00881651
0.00950175
0.0102228
0.0109791
0.0117672
0.0125808
0.0134089
0.0142301
0.00897613
0.00968463
0.0104335
0.011222
0.0120473
0.0129029
0.0137768
0.0146464
0.00913933
0.00987194
0.0106494
0.0114721
0.012338
0.0132407
0.0141676
0.0150937
0.00982143
0.0104232
0.011028
0.0116142
0.00937684
0.00998368
0.0106037
0.0112283
0.0118356
0.00953057
0.0101563
0.0107967
0.0114426
0.0120724
0.00907057
0.00969523
0.0103408
0.0110027
0.0116716
0.0123262
0.00922617
0.00987043
0.0105375
0.0112226
0.0119165
0.0125979
0.00939201
0.010057
0.010747
0.0114572
0.0121783
0.0128889
0.00891101
0.00956838
0.0102553
0.0109699
0.0117073
0.0124581
0.0132005
0.00907631
0.00975463
0.0104654
0.0112067
0.0119738
0.0127572
0.0135351
0.00925104
0.00995145
0.0106876
0.0114577
0.0122573
0.0130768
0.0138943
0.00875033
0.00943486
0.0101583
0.0109216
0.0117231
0.0125583
0.013418
0.0142799
0.00892057
0.00962607
0.0103746
0.011167
0.0120024
0.012877
0.0137815
0.0146937
0.00909796
0.00982531
0.0105996
0.0114227
0.0122948
0.0132127
0.0141676
0.015137
0.00976952
0.0103695
0.0109701
0.0115512
0.00932131
0.00992923
0.0105483
0.0111694
0.0117719
0.00947241
0.0100997
0.0107397
0.0113829
0.0120084
0.00900797
0.00963504
0.0102824
0.0109445
0.0116115
0.0122623
0.00916252
0.00980888
0.0104779
0.0111637
0.0118563
0.0125345
0.00932839
0.00999493
0.0106867
0.011398
0.0121185
0.0128266
0.00884941
0.0095061
0.0101936
0.0109097
0.0116484
0.0123992
0.0131397
0.0090193
0.00969525
0.0104053
0.0111473
0.0119156
0.0126996
0.0134762
0.00920085
0.00989684
0.0106305
0.0114001
0.0122005
0.0130208
0.0138378
0.00871809
0.00939406
0.0101107
0.0108694
0.0116686
0.0125037
0.0133642
0.0142263
0.00890327
0.00959764
0.0103367
0.0111218
0.0119527
0.0128255
0.0137304
0.0146433
0.009099
0.00981259
0.0105745
0.0113872
0.0122518
0.0131658
0.0141199
0.0150903
0
0
0
0
0
0
0
0
0
0
0
0
0
0
0
0
0
0
0
0
0
0
0
0
0
0
0
0
0
0
0
0
0
0
0
0
0
0
0
0
0
0
0
0
0
0
0
0
0
0
0
0
0
0
0
0
0
0
0
0
0
0
0
0
0
0
0
0
0
0
0
0
0
0
0
0
0
0.00945528
0.0100611
0.0106684
0.0112598
0.00898497
0.00959796
0.0102238
0.010853
0.0114672
0.00911801
0.00975062
0.0103982
0.0110509
0.0116897
0.00863326
0.00926221
0.00991479
0.0105852
0.011263
0.0119288
0.00877028
0.00941734
0.010091
0.0107855
0.0114902
0.0121851
0.00891912
0.00958461
0.0102801
0.011
0.0117335
0.0124601
0.00843223
0.0090807
0.00976474
0.0104828
0.0112295
0.011994
0.0127549
0.00859077
0.00925512
0.00995863
0.0107001
0.011475
0.0122728
0.0130715
0.00876361
0.00944401
0.0101672
0.010933
0.0117376
0.0125712
0.0134115
0.00829913
0.00895149
0.00964803
0.0103915
0.0111825
0.0120184
0.0128904
0.0137765
0.00848755
0.00915393
0.0098679
0.0106324
0.0114495
0.0123183
0.0132315
0.0141679
0.00869158
0.00937275
0.0101043
0.0108905
0.0117347
0.0126381
0.0135956
0.0145873
0.00914059
0.00975282
0.0103684
0.0109714
0.00864539
0.00926221
0.00989477
0.010533
0.0111597
0.0087555
0.00939199
0.0100467
0.0107091
0.0113613
0.00824557
0.00887501
0.00953141
0.0102093
0.0108975
0.0115777
0.00835663
0.00900365
0.00968094
0.0103831
0.0110989
0.0118094
0.00847791
0.00914262
0.00984131
0.0105689
0.0113143
0.0120577
0.00796739
0.00861045
0.00929271
0.0100134
0.0107677
0.0115446
0.0123235
0.00809701
0.00875452
0.00945494
0.0101981
0.0109802
0.0117908
0.0126087
0.00824013
0.00891197
0.00963048
0.0103965
0.0112076
0.0120541
0.0129148
0.00775908
0.00839794
0.00908386
0.00982064
0.0106101
0.0114512
0.0123358
0.0132434
0.00791976
0.00857045
0.00927143
0.0100268
0.0108401
0.0117123
0.0126374
0.013596
0.00809697
0.00876003
0.00947592
0.0102501
0.0110878
0.0119922
0.0129599
0.013974
0.00888765
0.00946177
0.0100426
0.0106179
0.00844135
0.00901789
0.00960969
0.01021
0.0108056
0.00856242
0.00915672
0.00976804
0.0103892
0.0110066
0.00810382
0.00869309
0.00930563
0.00993746
0.010581
0.0112224
0.00822655
0.00883302
0.00946509
0.0101187
0.0107863
0.0114536
0.00835896
0.00898329
0.00963583
0.0103127
0.0110062
0.0117018
0.00789143
0.00850176
0.00914446
0.00981864
0.0105204
0.0112419
0.011968
0.00802775
0.00865482
0.00931729
0.0100144
0.0107428
0.0114948
0.0122547
0.00817511
0.00881953
0.00950259
0.0102241
0.0109811
0.0117663
0.0125638
0.00771228
0.00833415
0.00899639
0.00970121
0.0104487
0.0112367
0.0120582
0.0128973
0.00786659
0.00850436
0.00918604
0.00991392
0.0106892
0.0115107
0.0123722
0.0132579
0.00803317
0.00868764
0.00938917
0.0101412
0.0109461
0.011804
0.0127097
0.0136479
0.00840109
0.0089072
0.00941935
0.00993427
0.00804136
0.00855307
0.0090751
0.0096043
0.0101365
0.00818682
0.00871514
0.00925491
0.00980245
0.0103531
0.00781395
0.00834337
0.00888888
0.00944737
0.0100146
0.0105858
0.00796432
0.00851066
0.00907479
0.00965336
0.010242
0.0108353
0.00812566
0.00868981
0.00927367
0.00987386
0.0104856
0.0111031
0.00773971
0.00829863
0.00888139
0.00948641
0.01011
0.010747
0.0113907
0.00790633
0.00848303
0.00908618
0.00971398
0.0103629
0.0110277
0.0117006
0.00808469
0.00868017
0.00930496
0.00995742
0.0106341
0.0113295
0.0120353
0.00769239
0.00827525
0.00889045
0.00953855
0.0102178
0.0109251
0.0116545
0.0123972
0.00787627
0.00847733
0.00911434
0.00978766
0.0104963
0.0112373
0.0120049
0.0127894
0.00807227
0.00869275
0.00935247
0.0100527
0.0107933
0.0115719
0.0123827
0.0132153
0.00752605
0.00800371
0.00848639
0.0089757
0.00716372
0.00764858
0.00814307
0.00864403
0.00915161
0.00727774
0.00777942
0.00829243
0.00881293
0.00934011
0.00690016
0.00740143
0.00792006
0.00845234
0.0089937
0.00954255
0.0070179
0.0075345
0.00807098
0.00862351
0.00918717
0.00975944
0.00714618
0.00767822
0.008233
0.00880676
0.00939428
0.009992
0.00676627
0.00728609
0.00783346
0.00840706
0.00900309
0.00961612
0.0102412
0.00690522
0.007438
0.0080014
0.00859435
0.00921368
0.00985398
0.0105092
0.0070582
0.007604
0.00818351
0.00879636
0.00944005
0.0101095
0.0107979
0.00670314
0.00722668
0.00778547
0.00838151
0.00901493
0.00968414
0.0103847
0.0111095
0.00687629
0.00741118
0.00798423
0.0085975
0.00925235
0.00994837
0.0106822
0.0114468
0.00706775
0.00761489
0.00820253
0.00883373
0.00951102
0.0102354
0.0110049
0.0118133
0.00678053
0.00725649
0.00774108
0.00823715
0.00637117
0.0068502
0.00734323
0.00784683
0.00836238
0.00642824
0.00692371
0.00743539
0.00795926
0.0084957
0.00600117
0.00649047
0.00700228
0.00753324
0.00807865
0.0086381
0.00605431
0.00655745
0.00708618
0.00763718
0.00820547
0.00878971
0.00611365
0.00663029
0.00717599
0.0077477
0.00834023
0.00895128
0.00568463
0.00618041
0.00670981
0.00727244
0.00786543
0.0084836
0.00912332
0.00575004
0.00625509
0.00679719
0.00737657
0.00799127
0.00863638
0.00930738
0.00582651
0.00634003
0.00689404
0.00748981
0.00812645
0.00879973
0.00950468
0.00543592
0.00591623
0.00643719
0.00700247
0.00761417
0.0082728
0.00897533
0.00971683
0.0055353
0.00602062
0.00654926
0.00712528
0.00775244
0.00843297
0.00916563
0.00994628
0.00565378
0.00614417
0.0066798
0.00726605
0.00790817
0.0086104
0.00937392
0.0101964
0.00603697
0.00644317
0.00686088
0.0072932
0.0057054
0.00611109
0.00653022
0.00696238
0.00740963
0.00577038
0.00618907
0.00662262
0.00707018
0.00753336
0.00542685
0.00584034
0.00627212
0.00672066
0.00718466
0.00766544
0.00548913
0.0059147
0.00636044
0.00682478
0.00730634
0.00780606
0.00555645
0.00599434
0.0064545
0.00693552
0.00743587
0.00795602
0.00520415
0.0056295
0.00607973
0.00655491
0.00705353
0.00757401
0.00811602
0.00527199
0.00570818
0.00617161
0.00666246
0.00717968
0.00772176
0.00828783
0.00534692
0.00579406
0.00627095
0.00677817
0.0073151
0.00788041
0.00847296
0.00500279
0.00543014
0.00588818
0.00637905
0.00690349
0.00746141
0.0080518
0.00867341
0.00508553
0.00552221
0.0059922
0.00649773
0.00704041
0.00762083
0.00823848
0.00889221
0.00518032
0.00562679
0.00610879
0.00662949
0.00719146
0.00779615
0.00844377
0.0091334
0
0
0
0
0
0
0
0
0
0
0
0
0
0
0
0
0
0
0
0
0
0
0
0
0
0
0
0
0
0
0
0
0
0
0
0
0
0
0
0
0
0
0
0
0
0
0
0
0
0
0
0
0
0
0
0
0
0
0
0
0
0
0
0
0
0
0
0
0
0
0
0
0
0
0
0
0
0.00495368
0.00523163
0.00551103
0.00579111
0.00477797
0.00506396
0.00535207
0.00564231
0.00593297
0.00488337
0.00518041
0.00548022
0.00578215
0.00608414
0.00469354
0.00499602
0.00530439
0.00561646
0.00593101
0.0062458
0.00480149
0.00511533
0.00543611
0.00576133
0.00608958
0.00641827
0.00491645
0.00524223
0.0055761
0.0059155
0.00625865
0.00660255
0.00471188
0.00503897
0.00537713
0.00572503
0.00607975
0.00643917
0.00679947
0.0048297
0.00516882
0.00552071
0.00588373
0.00625509
0.00663236
0.00701113
0.00495556
0.00530741
0.00567385
0.00605327
0.00644284
0.00683984
0.00723935
0.00474228
0.00509029
0.00545548
0.00583771
0.00623509
0.00664477
0.00706375
0.00748663
0.00487341
0.00523406
0.00561439
0.0060139
0.00643114
0.00686329
0.00730708
0.00775662
0.0050158
0.00539024
0.00578648
0.00620467
0.00664386
0.0071014
0.00757369
0.00805421
0
0
0
0
0
0
0
0
0
0
0
0
0
0
0
0
0
0
0
0
0
0
0
0
0
0
0
0
0
0
0
0
0
0
0
0
0
0
0
0
0
0
0
0
0
0
0
0
0
0
0
0
0
0
0
0
0
0
0
0
0
0
0
0
0
0
0
0
0
0
0
0
0
0
0
0
0
0.00353472
0.00375255
0.00396477
0.00417001
0.00337347
0.00360422
0.00383336
0.004058
0.00427532
0.00343509
0.00367714
0.00391894
0.0041568
0.00438704
0.00325409
0.0035015
0.00375459
0.00400933
0.00426127
0.00450599
0.00331548
0.00357215
0.00383665
0.00410474
0.00437163
0.00463205
0.00338257
0.00364802
0.00392371
0.00420549
0.00448818
0.00476568
0.00319775
0.00345637
0.00372974
0.00401635
0.00431199
0.00461132
0.00490696
0.00327336
0.0035372
0.0038183
0.00411537
0.00442489
0.00474156
0.00505707
0.00335889
0.00362721
0.00391509
0.004222
0.0045452
0.00487974
0.00521677
0.00320485
0.00345615
0.00372801
0.00402197
0.00433802
0.00467447
0.00502719
0.00538721
0.00331273
0.00356623
0.003842
0.00414152
0.00446603
0.00481516
0.0051861
0.00557038
0.00343718
0.00369328
0.0039725
0.0042772
0.00460963
0.00497084
0.0053598
0.00576948
0.00235566
0.00255477
0.00274996
0.00294811
0.0021352
0.0023429
0.00255342
0.0027615
0.00297268
0.0021077
0.0023266
0.00254983
0.00277177
0.00299703
0.00185759
0.00207729
0.00230703
0.00254348
0.00278029
0.00302112
0.0018148
0.00204298
0.0022838
0.00253392
0.00278663
0.00304457
0.00176934
0.00200508
0.00225662
0.00252069
0.00279029
0.00306742
0.00150167
0.00172205
0.00196375
0.00222528
0.0025033
0.00279067
0.00308798
0.00145196
0.00167327
0.00191952
0.00218979
0.00248132
0.00278708
0.0031065
0.00140606
0.00162529
0.00187343
0.00215048
0.00245448
0.00277883
0.00312214
0.00118577
0.0013674
0.00158055
0.00182728
0.0021083
0.00242287
0.00276533
0.00313388
0.00117055
0.00133915
0.00154272
0.00178395
0.00206517
0.00238731
0.00274639
0.00314082
0.00117581
0.00132766
0.00151689
0.0017478
0.00202442
0.00234976
0.00272251
0.00314253
0.00112109
0.00121824
0.00131294
0.00140829
0.00101115
0.00111226
0.00121494
0.00131614
0.00141825
0.000993485
0.0011005
0.00120969
0.00131792
0.00142756
0.000865506
0.000973358
0.00108601
0.00120205
0.00131791
0.00143573
0.000836815
0.000949643
0.00106835
0.00119165
0.00131576
0.00144241
0.000804633
0.000922236
0.0010471
0.00117802
0.00131106
0.00144793
0.000656808
0.000768854
0.000890751
0.0010218
0.00116066
0.0013033
0.00145085
0.000613537
0.000728583
0.000854817
0.00099195
0.00113897
0.00129187
0.00145147
0.000566762
0.000684069
0.000814095
0.000957044
0.0011123
0.00127605
0.00144902
0.000412113
0.000516791
0.000635178
0.000768337
0.00091662
0.00107999
0.00125502
0.00144256
0.000359019
0.000463052
0.000582055
0.000717472
0.000870355
0.00104142
0.00122792
0.00143111
0.000305459
0.000407202
0.000525345
0.000661771
0.000818167
0.000996103
0.00119387
0.00141365
0.00298937
0.00315104
0.00331278
0.00284507
0.00301424
0.00318279
0.00335136
0.00286114
0.00303817
0.00321452
0.00339055
0.00269136
0.00287592
0.00306125
0.00324605
0.00343007
0.00362519
0.00269575
0.00288888
0.00308327
0.00327727
0.00347027
0.00367363
0.00269756
0.00289979
0.00310396
0.00330805
0.00351091
0.0037233
0.00249086
0.00269667
0.00290821
0.00312299
0.00333818
0.00355195
0.00377403
0.00247723
0.00269177
0.00291365
0.00313992
0.00336736
0.0035933
0.00382651
0.00245968
0.00268288
0.00291541
0.00315412
0.00339513
0.00363476
0.00388051
0.00222004
0.00243789
0.00266913
0.00291264
0.00316469
0.00342079
0.00367596
0.00393602
0.00218616
0.00240985
0.00264959
0.00290418
0.00317036
0.00344317
0.00371618
0.00399279
0.00193774
0.0021477
0.00237639
0.00262329
0.00288843
0.00316915
0.00346036
0.00375407
0.00405025
0.00505739
0.00534311
0.00563418
0.00487701
0.00516887
0.00546485
0.00576618
0.00498287
0.00528593
0.00559347
0.00590621
0.00478617
0.00509431
0.00540927
0.00572935
0.00605456
0.00638757
0.00489062
0.00521088
0.00553893
0.00587271
0.00621196
0.00655817
0.00499958
0.00533276
0.00567489
0.00602373
0.00637843
0.0067395
0.00477806
0.00511295
0.00545967
0.00581706
0.00618245
0.0065544
0.00693208
0.00488157
0.00522956
0.00559123
0.00596512
0.00634871
0.00674001
0.00713701
0.00498785
0.00534953
0.00572682
0.0061185
0.0065221
0.00693514
0.00735435
0.00473818
0.00509604
0.00547159
0.00586542
0.00627622
0.00670175
0.00713922
0.00758411
0.00483269
0.00520335
0.00559424
0.0060055
0.00643673
0.00688616
0.00735105
0.00782574
0.0049257
0.0053095
0.00571561
0.00614483
0.00659761
0.00707302
0.00756873
0.00807799
SCALARS DeltaMax double 9
LOOKUP_TABLE default
0 0 0 0 0 0 0 0 0
0 0 0 0 0 0 0 0 0
0 0 0 0 0 0 0 0 0
0 0 0 0 0 0 0 0 0
0 0 0 0 0 0 0 0 0
0 0 0 0 0 0 0 0 0
0 0 0 0 0 0 0 0 0
0 0 0 0 0 0 0 0 0
0 0 0 0 0 0 0 0 0
0 0 0 0 0 0 0 0 0
0 0 0 0 0 0 0 0 0
0 0 0 0 0 0 0 0 0
0 0 0 0 0 0 0 0 0
0 0 0 0 0 0 0 0 0
0 0 0 0 0 0 0 0 0
0 0 0 0 0 0 0 0 0
0 0 0 0 0 0 0 0 0
0 0 0 0 0 0 0 0 0
0 0 0 0 0 0 0 0 0
0 0 0 0 0 0 0 0 0
0 0 0 0 0 0 0 0 0
0 0 0 0 0 0 0 0 0
0 0 0 0 0 0 0 0 0
0 0 0 0 0 0 0 0 0
0 0 0 0 0 0 0 0 0
0 0 0 0 0 0 0 0 0
0 0 0 0 0 0 0 0 0
0 0 0 0 0 0 0 0 0
0 0 0 0 0 0 0 0 0
0 0 0 0 0 0 0 0 0
0 0 0 0 0 0 0 0 0
0 0 0 0 0 0 0 0 0
0 0 0 0 0 0 0 0 0
0 0 0 0 0 0 0 0 0
0 0 0 0 0 0 0 0 0
0 0 0 0 0 0 0 0 0
0 0 0 0 0 0 0 0 0
0 0 0 0 0 0 0 0 0
0 0 0 0 0 0 0 0 0
0 0 0 0 0 0 0 0 0
0 0 0 0 0 0 0 0 0
0 0 0 0 0 0 0 0 0
0 0 0 0 0 0 0 0 0
0 0 0 0 0 0 0 0 0
0 0 0 0 0 0 0 0 0
0 0 0 0 0 0 0 0 0
0 0 0 0 0 0 0 0 0
0 0 0 0 0 0 0 0 0
0 0 0 0 0 0 0 0 0
0 0 0 0 0 0 0 0 0
0 0 0 0 0 0 0 0 0
0 0 0 0 0 0 0 0 0
0 0 0 0 0 0 0 0 0
0 0 0 0 0 0 0 0 0
0 0 0 0 0 0 0 0 0
0 0 0 0 0 0 0 0 0
0 0 0 0 0 0 0 0 0
0 0 0 0 0 0 0 0 0
0 0 0 0 0 0 0 0 0
0 0 0 0 0 0 0 0 0
0 0 0 0 0 0 0 0 0
0 0 0 0 0 0 0 0 0
0 0 0 0 0 0 0 0 0
0 0 0 0 0 0 0 0 0
0 0 0 0 0 0 0 0 0
0 0 0 0 0 0 0 0 0
0 0 0 0 0 0 0 0 0
0 0 0 0 0 0 0 0 0
0 0 0 0 0 0 0 0 0
0 0 0 0 0 0 0 0 0
0 0 0 0 0 0 0 0 0
0 0 0 0 0 0 0 0 0
0 0 0 0 0 0 0 0 0
0 0 0 0 0 0 0 0 0
0 0 0 0 0 0 0 0 0
0 0 0 0 0 0 0 0 0
0 0 0 0 0 0 0 0 0
0 0 0 0 0 0 0 0 0
0 0 0 0 0 0 0 0 0
0 0 0 0 0 0 0 0 0
0 0 0 0 0 0 0 0 0
0 0 0 0 0 0 0 0 0
0 0 0 0 0 0 0 0 0
0 0 0 0 0 0 0 0 0
0 0 0 0 0 0 0 0 0
0 0 0 0 0 0 0 0 0
0 0 0 0 0 0 0 0 0
0 0 0 0 0 0 0 0 0
0 0 0 0 0 0 0 0 0
0 0 0 0 0 0 0 0 0
0 0 0 0 0 0 0 0 0
0 0 0 0 0 0 0 0 0
0 0 0 0 0 0 0 0 0
0 0 0 0 0 0 0 0 0
0 0 0 0 0 0 0 0 0
0 0 0 0 0 0 0 0 0
0 0 0 0 0 0 0 0 0
0 0 0 0 0 0 0 0 0
0 0 0 0 0 0 0 0 0
0 0 0 0 0 0 0 0 0
0 0 0 0 0 0 0 0 0
0 0 0 0 0 0 0 0 0
0 0 0 0 0 0 0 0 0
0 0 0 0 0 0 0 0 0
0 0 0 0 0 0 0 0 0
0 0 0 0 0 0 0 0 0
0 0 0 0 0 0 0 0 0
0 0 0 0 0 0 0 0 0
0 0 0 0 0 0 0 0 0
0 0 0 0 0 0 0 0 0
0 0 0 0 0 0 0 0 0
0 0 0 0 0 0 0 0 0
0 0 0 0 0 0 0 0 0
0 0 0 0 0 0 0 0 0
0 0 0 0 0 0 0 0 0
0 0 0 0 0 0 0 0 0
0 0 0 0 0 0 0 0 0
0 0 0 0 0 0 0 0 0
0 0 0 0 0 0 0 0 0
0 0 0 0 0 0 0 0 0
0 0 0 0 0 0 0 0 0
0 0 0 0 0 0 0 0 0
0 0 0 0 0 0 0 0 0
0 0 0 0 0 0 0 0 0
0 0 0 0 0 0 0 0 0
0 0 0 0 0 0 0 0 0
0 0 0 0 0 0 0 0 0
0 0 0 0 0 0 0 0 0
0 0 0 0 0 0 0 0 0
0 0 0 0 0 0 0 0 0
0 0 0 0 0 0 0 0 0
0 0 0 0 0 0 0 0 0
0 0 0 0 0 0 0 0 0
0 0 0 0 0 0 0 0 0
0 0 0 0 0 0 0 0 0
0 0 0 0 0 0 0 0 0
0 0 0 0 0 0 0 0 0
0 0 0 0 0 0 0 0 0
0 0 0 0 0 0 0 0 0
0 0 0 0 0 0 0 0 0
0 0 0 0 0 0 0 0 0
0 0 0 0 0 0 0 0 0
0 0 0 0 0 0 0 0 0
0 0 0 0 0 0 0 0 0
0 0 0 0 0 0 0 0 0
0 0 0 0 0 0 0 0 0
0 0 0 0 0 0 0 0 0
0 0 0 0 0 0 0 0 0
0 0 0 0 0 0 0 0 0
0 0 0 0 0 0 0 0 0
6.02583e-07 6.24792e-07 5.97302e-07 6.19155e-07 6.02583e-07 6.24792e-07 5.97302e-07 6.19155e-07 0
6.4135e-07 6.64414e-07 6.35447e-07 6.5814e-07 6.4135e-07 6.64414e-07 6.35447e-07 6.5814e-07 0
6.8149e-07 7.05114e-07 6.74937e-07 6.98165e-07 6.8149e-07 7.05114e-07 6.74937e-07 6.98165e-07 0
5.73786e-07 5.95839e-07 5.68721e-07 5.90427e-07 5.73786e-07 5.95839e-07 5.68721e-07 5.90427e-07 0
6.12266e-07 6.35123e-07 6.0659e-07 6.29068e-07 6.12266e-07 6.35123e-07 6.0659e-07 6.29068e-07 0
6.52167e-07 6.75918e-07 6.45827e-07 6.69175e-07 6.52167e-07 6.75918e-07 6.45827e-07 6.69175e-07 0
6.93508e-07 7.1785e-07 6.86463e-07 7.10386e-07 6.93508e-07 7.1785e-07 6.86463e-07 7.10386e-07 0
5.83069e-07 6.05753e-07 5.77627e-07 5.99942e-07 5.83069e-07 6.05753e-07 5.77627e-07 5.99942e-07 0
6.22662e-07 6.46208e-07 6.1657e-07 6.39712e-07 6.22662e-07 6.46208e-07 6.1657e-07 6.39712e-07 0
6.63774e-07 6.88268e-07 6.56973e-07 6.81031e-07 6.63774e-07 6.88268e-07 6.56973e-07 6.81031e-07 0
7.06413e-07 7.31536e-07 6.9885e-07 7.23515e-07 7.06413e-07 7.31536e-07 6.9885e-07 7.23515e-07 0
5.53952e-07 5.76298e-07 5.48739e-07 5.70741e-07 5.53952e-07 5.76298e-07 5.48739e-07 5.70741e-07 0
5.93028e-07 6.1638e-07 5.87189e-07 6.10152e-07 5.93028e-07 6.1638e-07 5.87189e-07 6.10152e-07 0
6.33796e-07 6.58082e-07 6.27274e-07 6.51127e-07 6.33796e-07 6.58082e-07 6.27274e-07 6.51127e-07 0
6.76211e-07 7.01506e-07 6.68926e-07 6.93751e-07 6.76211e-07 7.01506e-07 6.68926e-07 6.93751e-07 0
7.20252e-07 7.46223e-07 7.12144e-07 7.37618e-07 7.20252e-07 7.46223e-07 7.12144e-07 7.37618e-07 0
7.6622e-07 7.95064e-07 7.57265e-07 7.85638e-07 7.6622e-07 7.95064e-07 7.57265e-07 7.85638e-07 0
5.63478e-07 5.8648e-07 5.57898e-07 5.80524e-07 5.63478e-07 5.8648e-07 5.57898e-07 5.80524e-07 0
6.03702e-07 6.27754e-07 5.97461e-07 6.21098e-07 6.03702e-07 6.27754e-07 5.97461e-07 6.21098e-07 0
6.45718e-07 6.70783e-07 6.38739e-07 6.63343e-07 6.45718e-07 6.70783e-07 6.38739e-07 6.63343e-07 0
6.89511e-07 7.15676e-07 6.81723e-07 7.07377e-07 6.89511e-07 7.15676e-07 6.81723e-07 7.07377e-07 0
7.35081e-07 7.62001e-07 7.26394e-07 7.52746e-07 7.35081e-07 7.62001e-07 7.26394e-07 7.52746e-07 0
7.82677e-07 8.12443e-07 7.73028e-07 8.02269e-07 7.82677e-07 8.12443e-07 7.73028e-07 8.02269e-07 0
5.73644e-07 5.97326e-07 5.67693e-07 5.90979e-07 5.73644e-07 5.97326e-07 5.67693e-07 5.90979e-07 0
6.1506e-07 6.39862e-07 6.08414e-07 6.32778e-07 6.1506e-07 6.39862e-07 6.08414e-07 6.32778e-07 0
6.58412e-07 6.84335e-07 6.50985e-07 6.76406e-07 6.58412e-07 6.84335e-07 6.50985e-07 6.76406e-07 0
7.03724e-07 7.30838e-07 6.95407e-07 7.21961e-07 7.03724e-07 7.30838e-07 6.95407e-07 7.21961e-07 0
7.50971e-07 7.78927e-07 7.41668e-07 7.69013e-07 7.50971e-07 7.78927e-07 7.41668e-07 7.69013e-07 0
8.00333e-07 8.31079e-07 7.89989e-07 8.20159e-07 8.00333e-07 8.31079e-07 7.89989e-07 8.20159e-07 0
5.4403e-07 5.67158e-07 5.3833e-07 5.61069e-07 5.4403e-07 5.67158e-07 5.3833e-07 5.61069e-07 0
5.84517e-07 6.08846e-07 5.78154e-07 6.0211e-07 5.84517e-07 6.08846e-07 5.78154e-07 6.0211e-07 0
6.27105e-07 6.52701e-07 6.20064e-07 6.45196e-07 6.27105e-07 6.52701e-07 6.20064e-07 6.45196e-07 0
6.71878e-07 6.98723e-07 6.64006e-07 6.90311e-07 6.71878e-07 6.98723e-07 6.64006e-07 6.90311e-07 0
7.18828e-07 7.46985e-07 7.09995e-07 7.37539e-07 7.18828e-07 7.46985e-07 7.09995e-07 7.37539e-07 0
7.67917e-07 7.97024e-07 7.58e-07 7.86428e-07 7.67917e-07 7.97024e-07 7.58e-07 7.86428e-07 0
8.19248e-07 8.51103e-07 8.08168e-07 8.39367e-07 8.19248e-07 8.51103e-07 8.08168e-07 8.39367e-07 0
5.54327e-07 5.78086e-07 5.48316e-07 5.71714e-07 5.54327e-07 5.78086e-07 5.48316e-07 5.71714e-07 0
5.95937e-07 6.20982e-07 5.89279e-07 6.13899e-07 5.95937e-07 6.20982e-07 5.89279e-07 6.13899e-07 0
6.3981e-07 6.66249e-07 6.32392e-07 6.58338e-07 6.3981e-07 6.66249e-07 6.32392e-07 6.58338e-07 0
6.86095e-07 7.13932e-07 6.77792e-07 7.05048e-07 6.86095e-07 7.13932e-07 6.77792e-07 7.05048e-07 0
7.34814e-07 7.64114e-07 7.25473e-07 7.54101e-07 7.34814e-07 7.64114e-07 7.25473e-07 7.54101e-07 0
7.85931e-07 8.16323e-07 7.75396e-07 8.05029e-07 7.85931e-07 8.16323e-07 7.75396e-07 8.05029e-07 0
8.39473e-07 8.72602e-07 8.27631e-07 8.60004e-07 8.39473e-07 8.72602e-07 8.27631e-07 8.60004e-07 0
5.65119e-07 5.89522e-07 5.58826e-07 5.82854e-07 5.65119e-07 5.89522e-07 5.58826e-07 5.82854e-07 0
6.07887e-07 6.33692e-07 6.0092e-07 6.26282e-07 6.07887e-07 6.33692e-07 6.0092e-07 6.26282e-07 0
6.53124e-07 6.80456e-07 6.45361e-07 6.72171e-07 6.53124e-07 6.80456e-07 6.45361e-07 6.72171e-07 0
7.01016e-07 7.29916e-07 6.92313e-07 7.20591e-07 7.01016e-07 7.29916e-07 6.92313e-07 7.20591e-07 0
7.51642e-07 7.82195e-07 7.41821e-07 7.71637e-07 7.51642e-07 7.82195e-07 7.41821e-07 7.71637e-07 0
8.04995e-07 8.36835e-07 7.93857e-07 8.2484e-07 8.04995e-07 8.36835e-07 7.93857e-07 8.2484e-07 0
8.61036e-07 8.95623e-07 8.48419e-07 8.82141e-07 8.61036e-07 8.95623e-07 8.48419e-07 8.82141e-07 0
5.34833e-07 5.58489e-07 5.28958e-07 5.52252e-07 5.34833e-07 5.58489e-07 5.28958e-07 5.52252e-07 0
5.76311e-07 6.01376e-07 5.69801e-07 5.94481e-07 5.76311e-07 6.01376e-07 5.69801e-07 5.94481e-07 0
6.20275e-07 6.46882e-07 6.13069e-07 6.39208e-07 6.20275e-07 6.46882e-07 6.13069e-07 6.39208e-07 0
6.66951e-07 6.95227e-07 6.58905e-07 6.86629e-07 6.66951e-07 6.95227e-07 6.58905e-07 6.86629e-07 0
7.16545e-07 7.46582e-07 7.07503e-07 7.36875e-07 7.16545e-07 7.46582e-07 7.07503e-07 7.36875e-07 0
7.6922e-07 8.01142e-07 7.58978e-07 7.90095e-07 7.6922e-07 8.01142e-07 7.58978e-07 7.90095e-07 0
8.25035e-07 8.58507e-07 8.13343e-07 8.45849e-07 8.25035e-07 8.58507e-07 8.13343e-07 8.45849e-07 0
8.83912e-07 9.2019e-07 8.7054e-07 9.05813e-07 8.83912e-07 9.2019e-07 8.7054e-07 9.05813e-07 0
5.4513e-07 5.6939e-07 5.3916e-07 5.63078e-07 5.4513e-07 5.6939e-07 5.3916e-07 5.63078e-07 0
5.87698e-07 6.13476e-07 5.81103e-07 6.06462e-07 5.87698e-07 6.13476e-07 5.81103e-07 6.06462e-07 0
6.32945e-07 6.60398e-07 6.25597e-07 6.52556e-07 6.32945e-07 6.60398e-07 6.25597e-07 6.52556e-07 0
6.8114e-07 7.1041e-07 6.72904e-07 7.01594e-07 6.8114e-07 7.1041e-07 6.72904e-07 7.01594e-07 0
7.32529e-07 7.63768e-07 7.23245e-07 7.53782e-07 7.32529e-07 7.63768e-07 7.23245e-07 7.53782e-07 0
7.87389e-07 8.20806e-07 7.76827e-07 8.09365e-07 7.87389e-07 8.20806e-07 7.76827e-07 8.09365e-07 0
8.45911e-07 8.81221e-07 8.33754e-07 8.67978e-07 8.45911e-07 8.81221e-07 8.33754e-07 8.67978e-07 0
9.08005e-07 9.46261e-07 8.93943e-07 9.31021e-07 9.08005e-07 9.46261e-07 8.93943e-07 9.31021e-07 0
5.55472e-07 5.80409e-07 5.49484e-07 5.74031e-07 5.55472e-07 5.80409e-07 5.49484e-07 5.74031e-07 0
5.99234e-07 6.25762e-07 5.92554e-07 6.18644e-07 5.99234e-07 6.25762e-07 5.92554e-07 6.18644e-07 0
6.4583e-07 6.74173e-07 6.38362e-07 6.66186e-07 6.4583e-07 6.74173e-07 6.38362e-07 6.66186e-07 0
6.9562e-07 7.25934e-07 6.87222e-07 7.16926e-07 6.9562e-07 7.25934e-07 6.87222e-07 7.16926e-07 0
7.48886e-07 7.81364e-07 7.39394e-07 7.71153e-07 7.48886e-07 7.81364e-07 7.39394e-07 7.71153e-07 0
8.05988e-07 8.40925e-07 7.95196e-07 8.29256e-07 8.05988e-07 8.40925e-07 7.95196e-07 8.29256e-07 0
8.67293e-07 9.04563e-07 8.54891e-07 8.91017e-07 8.67293e-07 9.04563e-07 8.54891e-07 8.91017e-07 0
9.3294e-07 9.73642e-07 9.18447e-07 9.57674e-07 9.3294e-07 9.73642e-07 9.18447e-07 9.57674e-07 0
0 0 0 0 0 0 0 0 0
0 0 0 0 0 0 0 0 0
0 0 0 0 0 0 0 0 0
0 0 0 0 0 0 0 0 0
0 0 0 0 0 0 0 0 0
0 0 0 0 0 0 0 0 0
0 0 0 0 0 0 0 0 0
0 0 0 0 0 0 0 0 0
0 0 0 0 0 0 0 0 0
0 0 0 0 0 0 0 0 0
0 0 0 0 0 0 0 0 0
0 0 0 0 0 0 0 0 0
0 0 0 0 0 0 0 0 0
0 0 0 0 0 0 0 0 0
0 0 0 0 0 0 0 0 0
0 0 0 0 0 0 0 0 0
0 0 0 0 0 0 0 0 0
0 0 0 0 0 0 0 0 0
0 0 0 0 0 0 0 0 0
0 0 0 0 0 0 0 0 0
0 0 0 0 0 0 0 0 0
0 0 0 0 0 0 0 0 0
0 0 0 0 0 0 0 0 0
0 0 0 0 0 0 0 0 0
0 0 0 0 0 0 0 0 0
0 0 0 0 0 0 0 0 0
0 0 0 0 0 0 0 0 0
0 0 0 0 0 0 0 0 0
0 0 0 0 0 0 0 0 0
0 0 0 0 0 0 0 0 0
0 0 0 0 0 0 0 0 0
0 0 0 0 0 0 0 0 0
0 0 0 0 0 0 0 0 0
0 0 0 0 0 0 0 0 0
0 0 0 0 0 0 0 0 0
0 0 0 0 0 0 0 0 0
0 0 0 0 0 0 0 0 0
0 0 0 0 0 0 0 0 0
0 0 0 0 0 0 0 0 0
0 0 0 0 0 0 0 0 0
0 0 0 0 0 0 0 0 0
0 0 0 0 0 0 0 0 0
0 0 0 0 0 0 0 0 0
0 0 0 0 0 0 0 0 0
0 0 0 0 0 0 0 0 0
0 0 0 0 0 0 0 0 0
0 0 0 0 0 0 0 0 0
0 0 0 0 0 0 0 0 0
0 0 0 0 0 0 0 0 0
0 0 0 0 0 0 0 0 0
0 0 0 0 0 0 0 0 0
0 0 0 0 0 0 0 0 0
0 0 0 0 0 0 0 0 0
0 0 0 0 0 0 0 0 0
0 0 0 0 0 0 0 0 0
0 0 0 0 0 0 0 0 0
0 0 0 0 0 0 0 0 0
0 0 0 0 0 0 0 0 0
0 0 0 0 0 0 0 0 0
0 0 0 0 0 0 0 0 0
0 0 0 0 0 0 0 0 0
0 0 0 0 0 0 0 0 0
0 0 0 0 0 0 0 0 0
0 0 0 0 0 0 0 0 0
0 0 0 0 0 0 0 0 0
0 0 0 0 0 0 0 0 0
0 0 0 0 0 0 0 0 0
0 0 0 0 0 0 0 0 0
0 0 0 0 0 0 0 0 0
0 0 0 0 0 0 0 0 0
0 0 0 0 0 0 0 0 0
0 0 0 0 0 0 0 0 0
0 0 0 0 0 0 0 0 0
0 0 0 0 0 0 0 0 0
0 0 0 0 0 0 0 0 0
0 0 0 0 0 0 0 0 0
0 0 0 0 0 0 0 0 0
0 0 0 0 0 0 0 0 0
0 0 0 0 0 0 0 0 0
0 0 0 0 0 0 0 0 0
0 0 0 0 0 0 0 0 0
0 0 0 0 0 0 0 0 0
0 0 0 0 0 0 0 0 0
0 0 0 0 0 0 0 0 0
0 0 0 0 0 0 0 0 0
0 0 0 0 0 0 0 0 0
0 0 0 0 0 0 0 0 0
0 0 0 0 0 0 0 0 0
0 0 0 0 0 0 0 0 0
0 0 0 0 0 0 0 0 0
0 0 0 0 0 0 0 0 0
0 0 0 0 0 0 0 0 0
0 0 0 0 0 0 0 0 0
0 0 0 0 0 0 0 0 0
0 0 0 0 0 0 0 0 0
0 0 0 0 0 0 0 0 0
0 0 0 0 0 0 0 0 0
0 0 0 0 0 0 0 0 0
0 0 0 0 0 0 0 0 0
0 0 0 0 0 0 0 0 0
0 0 0 0 0 0 0 0 0
0 0 0 0 0 0 0 0 0
0 0 0 0 0 0 0 0 0
0 0 0 0 0 0 0 0 0
0 0 0 0 0 0 0 0 0
0 0 0 0 0 0 0 0 0
0 0 0 0 0 0 0 0 0
0 0 0 0 0 0 0 0 0
0 0 0 0 0 0 0 0 0
0 0 0 0 0 0 0 0 0
0 0 0 0 0 0 0 0 0
0 0 0 0 0 0 0 0 0
0 0 0 0 0 0 0 0 0
0 0 0 0 0 0 0 0 0
0 0 0 0 0 0 0 0 0
0 0 0 0 0 0 0 0 0
0 0 0 0 0 0 0 0 0
0 0 0 0 0 0 0 0 0
0 0 0 0 0 0 0 0 0
0 0 0 0 0 0 0 0 0
0 0 0 0 0 0 0 0 0
0 0 0 0 0 0 0 0 0
0 0 0 0 0 0 0 0 0
0 0 0 0 0 0 0 0 0
0 0 0 0 0 0 0 0 0
0 0 0 0 0 0 0 0 0
0 0 0 0 0 0 0 0 0
0 0 0 0 0 0 0 0 0
0 0 0 0 0 0 0 0 0
0 0 0 0 0 0 0 0 0
0 0 0 0 0 0 0 0 0
0 0 0 0 0 0 0 0 0
0 0 0 0 0 0 0 0 0
0 0 0 0 0 0 0 0 0
0 0 0 0 0 0 0 0 0
0 0 0 0 0 0 0 0 0
0 0 0 0 0 0 0 0 0
0 0 0 0 0 0 0 0 0
0 0 0 0 0 0 0 0 0
0 0 0 0 0 0 0 0 0
0 0 0 0 0 0 0 0 0
0 0 0 0 0 0 0 0 0
0 0 0 0 0 0 0 0 0
0 0 0 0 0 0 0 0 0
0 0 0 0 0 0 0 0 0
0 0 0 0 0 0 0 0 0
0 0 0 0 0 0 0 0 0
0 0 0 0 0 0 0 0 0
0 0 0 0 0 0 0 0 0
0 0 0 0 0 0 0 0 0
0 0 0 0 0 0 0 0 0
0 0 0 0 0 0 0 0 0
0 0 0 0 0 0 0 0 0
0 0 0 0 0 0 0 0 0
0 0 0 0 0 0 0 0 0
0 0 0 0 0 0 0 0 0
0 0 0 0 0 0 0 0 0
0 0 0 0 0 0 0 0 0
0 0 0 0 0 0 0 0 0
0 0 0 0 0 0 0 0 0
0 0 0 0 0 0 0 0 0
0 0 0 0 0 0 0 0 0
0 0 0 0 0 0 0 0 0
0 0 0 0 0 0 0 0 0
0 0 0 0 0 0 0 0 0
0 0 0 0 0 0 0 0 0
0 0 0 0 0 0 0 0 0
0 0 0 0 0 0 0 0 0
0 0 0 0 0 0 0 0 0
0 0 0 0 0 0 0 0 0
0 0 0 0 0 0 0 0 0
0 0 0 0 0 0 0 0 0
0 0 0 0 0 0 0 0 0
0 0 0 0 0 0 0 0 0
0 0 0 0 0 0 0 0 0
0 0 0 0 0 0 0 0 0
0 0 0 0 0 0 0 0 0
0 0 0 0 0 0 0 0 0
0 0 0 0 0 0 0 0 0
0 0 0 0 0 0 0 0 0
0 0 0 0 0 0 0 0 0
0 0 0 0 0 0 0 0 0
0 0 0 0 0 0 0 0 0
0 0 0 0 0 0 0 0 0
0 0 0 0 0 0 0 0 0
0 0 0 0 0 0 0 0 0
0 0 0 0 0 0 0 0 0
0 0 0 0 0 0 0 0 0
0 0 0 0 0 0 0 0 0
0 0 0 0 0 0 0 0 0
0 0 0 0 0 0 0 0 0
0 0 0 0 0 0 0 0 0
0 0 0 0 0 0 0 0 0
0 0 0 0 0 0 0 0 0
0 0 0 0 0 0 0 0 0
0 0 0 0 0 0 0 0 0
0 0 0 0 0 0 0 0 0
0 0 0 0 0 0 0 0 0
0 0 0 0 0 0 0 0 0
0 0 0 0 0 0 0 0 0
0 0 0 0 0 0 0 0 0
0 0 0 0 0 0 0 0 0
0 0 0 0 0 0 0 0 0
0 0 0 0 0 0 0 0 0
0 0 0 0 0 0 0 0 0
0 0 0 0 0 0 0 0 0
0 0 0 0 0 0 0 0 0
0 0 0 0 0 0 0 0 0
0 0 0 0 0 0 0 0 0
0 0 0 0 0 0 0 0 0
0 0 0 0 0 0 0 0 0
0 0 0 0 0 0 0 0 0
0 0 0 0 0 0 0 0 0
0 0 0 0 0 0 0 0 0
0 0 0 0 0 0 0 0 0
0 0 0 0 0 0 0 0 0
0 0 0 0 0 0 0 0 0
0 0 0 0 0 0 0 0 0
0 0 0 0 0 0 0 0 0
0 0 0 0 0 0 0 0 0
0 0 0 0 0 0 0 0 0
0 0 0 0 0 0 0 0 0
0 0 0 0 0 0 0 0 0
0 0 0 0 0 0 0 0 0
0 0 0 0 0 0 0 0 0
0 0 0 0 0 0 0 0 0
0 0 0 0 0 0 0 0 0
0 0 0 0 0 0 0 0 0
0 0 0 0 0 0 0 0 0
0 0 0 0 0 0 0 0 0
0 0 0 0 0 0 0 0 0
0 0 0 0 0 0 0 0 0
0 0 0 0 0 0 0 0 0
0 0 0 0 0 0 0 0 0
0 0 0 0 0 0 0 0 0
0 0 0 0 0 0 0 0 0
0 0 0 0 0 0 0 0 0
0 0 0 0 0 0 0 0 0
0 0 0 0 0 0 0 0 0
0 0 0 0 0 0 0 0 0
0 0 0 0 0 0 0 0 0
0 0 0 0 0 0 0 0 0
0 0 0 0 0 0 0 0 0
0 0 0 0 0 0 0 0 0
0 0 0 0 0 0 0 0 0
0 0 0 0 0 0 0 0 0
0 0 0 0 0 0 0 0 0
0 0 0 0 0 0 0 0 0
0 0 0 0 0 0 0 0 0
0 0 0 0 0 0 0 0 0
0 0 0 0 0 0 0 0 0
0 0 0 0 0 0 0 0 0
0 0 0 0 0 0 0 0 0
0 0 0 0 0 0 0 0 0
0 0 0 0 0 0 0 0 0
0 0 0 0 0 0 0 0 0
0 0 0 0 0 0 0 0 0
0 0 0 0 0 0 0 0 0
0 0 0 0 0 0 0 0 0
0 0 0 0 0 0 0 0 0
0 0 0 0 0 0 0 0 0
0 0 0 0 0 0 0 0 0
0 0 0 0 0 0 0 0 0
0 0 0 0 0 0 0 0 0
0 0 0 0 0 0 0 0 0
0 0 0 0 0 0 0 0 0
0 0 0 0 0 0 0 0 0
0 0 0 0 0 0 0 0 0
0 0 0 0 0 0 0 0 0
0 0 0 0 0 0 0 0 0
0 0 0 0 0 0 0 0 0
0 0 0 0 0 0 0 0 0
0 0 0 0 0 0 0 0 0
0 0 0 0 0 0 0 0 0
0 0 0 0 0 0 0 0 0
0 0 0 0 0 0 0 0 0
0 0 0 0 0 0 0 0 0
0 0 0 0 0 0 0 0 0
0 0 0 0 0 0 0 0 0
0 0 0 0 0 0 0 0 0
0 0 0 0 0 0 0 0 0
0 0 0 0 0 0 0 0 0
0 0 0 0 0 0 0 0 0
0 0 0 0 0 0 0 0 0
0 0 0 0 0 0 0 0 0
0 0 0 0 0 0 0 0 0
0 0 0 0 0 0 0 0 0
0 0 0 0 0 0 0 0 0
0 0 0 0 0 0 0 0 0
0 0 0 0 0 0 0 0 0
0 0 0 0 0 0 0 0 0
0 0 0 0 0 0 0 0 0
0 0 0 0 0 0 0 0 0
0 0 0 0 0 0 0 0 0
0 0 0 0 0 0 0 0 0
0 0 0 0 0 0 0 0 0
0 0 0 0 0 0 0 0 0
0 0 0 0 0 0 0 0 0
0 0 0 0 0 0 0 0 0
0 0 0 0 0 0 0 0 0
0 0 0 0 0 0 0 0 0
0 0 0 0 0 0 0 0 0
0 0 0 0 0 0 0 0 0
0 0 0 0 0 0 0 0 0
0 0 0 0 0 0 0 0 0
0 0 0 0 0 0 0 0 0
0 0 0 0 0 0 0 0 0
0 0 0 0 0 0 0 0 0
0 0 0 0 0 0 0 0 0
0 0 0 0 0 0 0 0 0
0 0 0 0 0 0 0 0 0
0 0 0 0 0 0 0 0 0
0 0 0 0 0 0 0 0 0
0 0 0 0 0 0 0 0 0
0 0 0 0 0 0 0 0 0
0 0 0 0 0 0 0 0 0
0 0 0 0 0 0 0 0 0
0 0 0 0 0 0 0 0 0
0 0 0 0 0 0 0 0 0
0 0 0 0 0 0 0 0 0
0 0 0 0 0 0 0 0 0
0 0 0 0 0 0 0 0 0
0 0 0 0 0 0 0 0 0
0 0 0 0 0 0 0 0 0
0 0 0 0 0 0 0 0 0
0 0 0 0 0 0 0 0 0
0 0 0 0 0 0 0 0 0
0 0 0 0 0 0 0 0 0
0 0 0 0 0 0 0 0 0
0 0 0 0 0 0 0 0 0
0 0 0 0 0 0 0 0 0
0 0 0 0 0 0 0 0 0
0 0 0 0 0 0 0 0 0
0 0 0 0 0 0 0 0 0
0 0 0 0 0 0 0 0 0
0 0 0 0 0 0 0 0 0
0 0 0 0 0 0 0 0 0
0 0 0 0 0 0 0 0 0
0 0 0 0 0 0 0 0 0
0 0 0 0 0 0 0 0 0
0 0 0 0 0 0 0 0 0
0 0 0 0 0 0 0 0 0
0 0 0 0 0 0 0 0 0
0 0 0 0 0 0 0 0 0
0 0 0 0 0 0 0 0 0
0 0 0 0 0 0 0 0 0
0 0 0 0 0 0 0 0 0
0 0 0 0 0 0 0 0 0
0 0 0 0 0 0 0 0 0
0 0 0 0 0 0 0 0 0
0 0 0 0 0 0 0 0 0
0 0 0 0 0 0 0 0 0
0 0 0 0 0 0 0 0 0
0 0 0 0 0 0 0 0 0
0 0 0 0 0 0 0 0 0
0 0 0 0 0 0 0 0 0
0 0 0 0 0 0 0 0 0
0 0 0 0 0 0 0 0 0
0 0 0 0 0 0 0 0 0
0 0 0 0 0 0 0 0 0
0 0 0 0 0 0 0 0 0
0 0 0 0 0 0 0 0 0
0 0 0 0 0 0 0 0 0
0 0 0 0 0 0 0 0 0
0 0 0 0 0 0 0 0 0
0 0 0 0 0 0 0 0 0
0 0 0 0 0 0 0 0 0
0 0 0 0 0 0 0 0 0
0 0 0 0 0 0 0 0 0
0 0 0 0 0 0 0 0 0
0 0 0 0 0 0 0 0 0
0 0 0 0 0 0 0 0 0
0 0 0 0 0 0 0 0 0
0 0 0 0 0 0 0 0 0
0 0 0 0 0 0 0 0 0
0 0 0 0 0 0 0 0 0
0 0 0 0 0 0 0 0 0
0 0 0 0 0 0 0 0 0
0 0 0 0 0 0 0 0 0
0 0 0 0 0 0 0 0 0
0 0 0 0 0 0 0 0 0
0 0 0 0 0 0 0 0 0
0 0 0 0 0 0 0 0 0
0 0 0 0 0 0 0 0 0
0 0 0 0 0 0 0 0 0
0 0 0 0 0 0 0 0 0
0 0 0 0 0 0 0 0 0
0 0 0 0 0 0 0 0 0
0 0 0 0 0 0 0 0 0
0 0 0 0 0 0 0 0 0
0 0 0 0 0 0 0 0 0
0 0 0 0 0 0 0 0 0
0 0 0 0 0 0 0 0 0
0 0 0 0 0 0 0 0 0
0 0 0 0 0 0 0 0 0
0 0 0 0 0 0 0 0 0
0 0 0 0 0 0 0 0 0
0 0 0 0 0 0 0 0 0
0 0 0 0 0 0 0 0 0
0 0 0 0 0 0 0 0 0
0 0 0 0 0 0 0 0 0
0 0 0 0 0 0 0 0 0
0 0 0 0 0 0 0 0 0
0 0 0 0 0 0 0 0 0
0 0 0 0 0 0 0 0 0
0 0 0 0 0 0 0 0 0
0 0 0 0 0 0 0 0 0
0 0 0 0 0 0 0 0 0
0 0 0 0 0 0 0 0 0
0 0 0 0 0 0 0 0 0
0 0 0 0 0 0 0 0 0
0 0 0 0 0 0 0 0 0
0 0 0 0 0 0 0 0 0
0 0 0 0 0 0 0 0 0
0 0 0 0 0 0 0 0 0
0 0 0 0 0 0 0 0 0
0 0 0 0 0 0 0 0 0
0 0 0 0 0 0 0 0 0
0 0 0 0 0 0 0 0 0
0 0 0 0 0 0 0 0 0
0 0 0 0 0 0 0 0 0
0 0 0 0 0 0 0 0 0
0 0 0 0 0 0 0 0 0
0 0 0 0 0 0 0 0 0
0 0 0 0 0 0 0 0 0
0 0 0 0 0 0 0 0 0
0 0 0 0 0 0 0 0 0
0 0 0 0 0 0 0 0 0
0 0 0 0 0 0 0 0 0
0 0 0 0 0 0 0 0 0
0 0 0 0 0 0 0 0 0
0 0 0 0 0 0 0 0 0
0 0 0 0 0 0 0 0 0
0 0 0 0 0 0 0 0 0
0 0 0 0 0 0 0 0 0
0 0 0 0 0 0 0 0 0
0 0 0 0 0 0 0 0 0
0 0 0 0 0 0 0 0 0
0 0 0 0 0 0 0 0 0
0 0 0 0 0 0 0 0 0
0 0 0 0 0 0 0 0 0
0 0 0 0 0 0 0 0 0
0 0 0 0 0 0 0 0 0
0 0 0 0 0 0 0 0 0
0 0 0 0 0 0 0 0 0
0 0 0 0 0 0 0 0 0
0 0 0 0 0 0 0 0 0
0 0 0 0 0 0 0 0 0
0 0 0 0 0 0 0 0 0
0 0 0 0 0 0 0 0 0
0 0 0 0 0 0 0 0 0
0 0 0 0 0 0 0 0 0
0 0 0 0 0 0 0 0 0
0 0 0 0 0 0 0 0 0
0 0 0 0 0 0 0 0 0
0 0 0 0 0 0 0 0 0
0 0 0 0 0 0 0 0 0
0 0 0 0 0 0 0 0 0
0 0 0 0 0 0 0 0 0
0 0 0 0 0 0 0 0 0
0 0 0 0 0 0 0 0 0
0 0 0 0 0 0 0 0 0
0 0 0 0 0 0 0 0 0
0 0 0 0 0 0 0 0 0
0 0 0 0 0 0 0 0 0
0 0 0 0 0 0 0 0 0
0 0 0 0 0 0 0 0 0
0 0 0 0 0 0 0 0 0
0 0 0 0 0 0 0 0 0
0 0 0 0 0 0 0 0 0
0 0 0 0 0 0 0 0 0
0 0 0 0 0 0 0 0 0
0 0 0 0 0 0 0 0 0
0 0 0 0 0 0 0 0 0
0 0 0 0 0 0 0 0 0
0 0 0 0 0 0 0 0 0
0 0 0 0 0 0 0 0 0
0 0 0 0 0 0 0 0 0
0 0 0 0 0 0 0 0 0
0 0 0 0 0 0 0 0 0
0 0 0 0 0 0 0 0 0
0 0 0 0 0 0 0 0 0
0 0 0 0 0 0 0 0 0
0 0 0 0 0 0 0 0 0
0 0 0 0 0 0 0 0 0
0 0 0 0 0 0 0 0 0
0 0 0 0 0 0 0 0 0
0 0 0 0 0 0 0 0 0
0 0 0 0 0 0 0 0 0
0 0 0 0 0 0 0 0 0
0 0 0 0 0 0 0 0 0
0 0 0 0 0 0 0 0 0
0 0 0 0 0 0 0 0 0
0 0 0 0 0 0 0 0 0
0 0 0 0 0 0 0 0 0
0 0 0 0 0 0 0 0 0
0 0 0 0 0 0 0 0 0
0 0 0 0 0 0 0 0 0
0 0 0 0 0 0 0 0 0
0 0 0 0 0 0 0 0 0
0 0 0 0 0 0 0 0 0
0 0 0 0 0 0 0 0 0
0 0 0 0 0 0 0 0 0
0 0 0 0 0 0 0 0 0
0 0 0 0 0 0 0 0 0
0 0 0 0 0 0 0 0 0
0 0 0 0 0 0 0 0 0
0 0 0 0 0 0 0 0 0
0 0 0 0 0 0 0 0 0
0 0 0 0 0 0 0 0 0
0 0 0 0 0 0 0 0 0
0 0 0 0 0 0 0 0 0
0 0 0 0 0 0 0 0 0
0 0 0 0 0 0 0 0 0
0 0 0 0 0 0 0 0 0
0 0 0 0 0 0 0 0 0
0 0 0 0 0 0 0 0 0
0 0 0 0 0 0 0 0 0
0 0 0 0 0 0 0 0 0
0 0 0 0 0 0 0 0 0
0 0 0 0 0 0 0 0 0
0 0 0 0 0 0 0 0 0
0 0 0 0 0 0 0 0 0
0 0 0 0 0 0 0 0 0
0 0 0 0 0 0 0 0 0
0 0 0 0 0 0 0 0 0
0 0 0 0 0 0 0 0 0
0 0 0 0 0 0 0 0 0
0 0 0 0 0 0 0 0 0
0 0 0 0 0 0 0 0 0
0 0 0 0 0 0 0 0 0
0 0 0 0 0 0 0 0 0
0 0 0 0 0 0 0 0 0
0 0 0 0 0 0 0 0 0
0 0 0 0 0 0 0 0 0
0 0 0 0 0 0 0 0 0
0 0 0 0 0 0 0 0 0
0 0 0 0 0 0 0 0 0
0 0 0 0 0 0 0 0 0
0 0 0 0 0 0 0 0 0
0 0 0 0 0 0 0 0 0
0 0 0 0 0 0 0 0 0
0 0 0 0 0 0 0 0 0
0 0 0 0 0 0 0 0 0
0 0 0 0 0 0 0 0 0
0 0 0 0 0 0 0 0 0
0 0 0 0 0 0 0 0 0
0 0 0 0 0 0 0 0 0
0 0 0 0 0 0 0 0 0
0 0 0 0 0 0 0 0 0
0 0 0 0 0 0 0 0 0
0 0 0 0 0 0 0 0 0
0 0 0 0 0 0 0 0 0
0 0 0 0 0 0 0 0 0
0 0 0 0 0 0 0 0 0
0 0 0 0 0 0 0 0 0
0 0 0 0 0 0 0 0 0
0 0 0 0 0 0 0 0 0
0 0 0 0 0 0 0 0 0
0 0 0 0 0 0 0 0 0
0 0 0 0 0 0 0 0 0
0 0 0 0 0 0 0 0 0
0 0 0 0 0 0 0 0 0
0 0 0 0 0 0 0 0 0
0 0 0 0 0 0 0 0 0
0 0 0 0 0 0 0 0 0
0 0 0 0 0 0 0 0 0
0 0 0 0 0 0 0 0 0
0 0 0 0 0 0 0 0 0
0 0 0 0 0 0 0 0 0
0 0 0 0 0 0 0 0 0
0 0 0 0 0 0 0 0 0
0 0 0 0 0 0 0 0 0
0 0 0 0 0 0 0 0 0
0 0 0 0 0 0 0 0 0
0 0 0 0 0 0 0 0 0
0 0 0 0 0 0 0 0 0
0 0 0 0 0 0 0 0 0
0 0 0 0 0 0 0 0 0
0 0 0 0 0 0 0 0 0
0 0 0 0 0 0 0 0 0
0 0 0 0 0 0 0 0 0
0 0 0 0 0 0 0 0 0
0 0 0 0 0 0 0 0 0
0 0 0 0 0 0 0 0 0
0 0 0 0 0 0 0 0 0
0 0 0 0 0 0 0 0 0
0 0 0 0 0 0 0 0 0
0 0 0 0 0 0 0 0 0
0 0 0 0 0 0 0 0 0
0 0 0 0 0 0 0 0 0
0 0 0 0 0 0 0 0 0
0 0 0 0 0 0 0 0 0
0 0 0 0 0 0 0 0 0
0 0 0 0 0 0 0 0 0
0 0 0 0 0 0 0 0 0
0 0 0 0 0 0 0 0 0
0 0 0 0 0 0 0 0 0
0 0 0 0 0 0 0 0 0
0 0 0 0 0 0 0 0 0
0 0 0 0 0 0 0 0 0
0 0 0 0 0 0 0 0 0
0 0 0 0 0 0 0 0 0
0 0 0 0 0 0 0 0 0
0 0 0 0 0 0 0 0 0
0 0 0 0 0 0 0 0 0
0 0 0 0 0 0 0 0 0
0 0 0 0 0 0 0 0 0
0 0 0 0 0 0 0 0 0
0 0 0 0 0 0 0 0 0
0 0 0 0 0 0 0 0 0
0 0 0 0 0 0 0 0 0
0 0 0 0 0 0 0 0 0
0 0 0 0 0 0 0 0 0
0 0 0 0 0 0 0 0 0
0 0 0 0 0 0 0 0 0
0 0 0 0 0 0 0 0 0
0 0 0 0 0 0 0 0 0
0 0 0 0 0 0 0 0 0
0 0 0 0 0 0 0 0 0
0 0 0 0 0 0 0 0 0
0 0 0 0 0 0 0 0 0
0 0 0 0 0 0 0 0 0
0 0 0 0 0 0 0 0 0
0 0 0 0 0 0 0 0 0
0 0 0 0 0 0 0 0 0
0 0 0 0 0 0 0 0 0
0 0 0 0 0 0 0 0 0
0 0 0 0 0 0 0 0 0
0 0 0 0 0 0 0 0 0
0 0 0 0 0 0 0 0 0
0 0 0 0 0 0 0 0 0
0 0 0 0 0 0 0 0 0
0 0 0 0 0 0 0 0 0
0 0 0 0 0 0 0 0 0
0 0 0 0 0 0 0 0 0
0 0 0 0 0 0 0 0 0
0 0 0 0 0 0 0 0 0
0 0 0 0 0 0 0 0 0
0 0 0 0 0 0 0 0 0
0 0 0 0 0 0 0 0 0
0 0 0 0 0 0 0 0 0
0 0 0 0 0 0 0 0 0
0 0 0 0 0 0 0 0 0
0 0 0 0 0 0 0 0 0
0 0 0 0 0 0 0 0 0
0 0 0 0 0 0 0 0 0
0 0 0 0 0 0 0 0 0
0 0 0 0 0 0 0 0 0
0 0 0 0 0 0 0 0 0
0 0 0 0 0 0 0 0 0
0 0 0 0 0 0 0 0 0
0 0 0 0 0 0 0 0 0
0 0 0 0 0 0 0 0 0
0 0 0 0 0 0 0 0 0
0 0 0 0 0 0 0 0 0
0 0 0 0 0 0 0 0 0
0 0 0 0 0 0 0 0 0
0 0 0 0 0 0 0 0 0
0 0 0 0 0 0 0 0 0
0 0 0 0 0 0 0 0 0
0 0 0 0 0 0 0 0 0
0 0 0 0 0 0 0 0 0
0 0 0 0 0 0 0 0 0
0 0 0 0 0 0 0 0 0
0 0 0 0 0 0 0 0 0
0 0 0 0 0 0 0 0 0
0 0 0 0 0 0 0 0 0
0 0 0 0 0 0 0 0 0
0 0 0 0 0 0 0 0 0
0 0 0 0 0 0 0 0 0
0 0 0 0 0 0 0 0 0
0 0 0 0 0 0 0 0 0
0 0 0 0 0 0 0 0 0
0 0 0 0 0 0 0 0 0
0 0 0 0 0 0 0 0 0
0 0 0 0 0 0 0 0 0
0 0 0 0 0 0 0 0 0
0 0 0 0 0 0 0 0 0
0 0 0 0 0 0 0 0 0
0 0 0 0 0 0 0 0 0
0 0 0 0 0 0 0 0 0
0 0 0 0 0 0 0 0 0
0 0 0 0 0 0 0 0 0
0 0 0 0 0 0 0 0 0
0 0 0 0 0 0 0 0 0
0 0 0 0 0 0 0 0 0
0 0 0 0 0 0 0 0 0
0 0 0 0 0 0 0 0 0
0 0 0 0 0 0 0 0 0
0 0 0 0 0 0 0 0 0
0 0 0 0 0 0 0 0 0
0 0 0 0 0 0 0 0 0
1.08181e-06 1.12055e-06 1.07218e-06 1.11021e-06 1.08181e-06 1.12055e-06 1.07218e-06 1.11021e-06 0
1.14908e-06 1.18832e-06 1.13821e-06 1.1767e-06 1.14908e-06 1.18832e-06 1.13821e-06 1.1767e-06 0
1.2166e-06 1.25463e-06 1.20441e-06 1.24163e-06 1.2166e-06 1.25463e-06 1.20441e-06 1.24163e-06 0
1.2828e-06 1.32185e-06 1.26925e-06 1.30756e-06 1.2828e-06 1.32185e-06 1.26925e-06 1.30756e-06 0
1.03125e-06 1.07046e-06 1.02212e-06 1.06064e-06 1.03125e-06 1.07046e-06 1.02212e-06 1.06064e-06 0
1.09945e-06 1.1395e-06 1.08911e-06 1.12839e-06 1.09945e-06 1.1395e-06 1.08911e-06 1.12839e-06 0
1.169e-06 1.20961e-06 1.15733e-06 1.19714e-06 1.169e-06 1.20961e-06 1.15733e-06 1.19714e-06 0
1.23892e-06 1.27842e-06 1.22585e-06 1.26451e-06 1.23892e-06 1.27842e-06 1.22585e-06 1.26451e-06 0
1.30762e-06 1.34803e-06 1.29311e-06 1.3327e-06 1.30762e-06 1.34803e-06 1.29311e-06 1.3327e-06 0
1.04799e-06 1.08846e-06 1.03817e-06 1.07791e-06 1.04799e-06 1.08846e-06 1.03817e-06 1.07791e-06 0
1.11842e-06 1.15982e-06 1.10732e-06 1.14791e-06 1.11842e-06 1.15982e-06 1.10732e-06 1.14791e-06 0
1.19035e-06 1.23242e-06 1.17784e-06 1.21906e-06 1.19035e-06 1.23242e-06 1.17784e-06 1.21906e-06 0
1.26284e-06 1.3039e-06 1.24883e-06 1.28897e-06 1.26284e-06 1.3039e-06 1.24883e-06 1.28897e-06 0
1.33422e-06 1.37613e-06 1.31863e-06 1.35967e-06 1.33422e-06 1.37613e-06 1.31863e-06 1.35967e-06 0
9.95687e-07 1.036e-06 9.86321e-07 1.02594e-06 9.95687e-07 1.036e-06 9.86321e-07 1.02594e-06 0
1.06603e-06 1.10779e-06 1.05544e-06 1.09646e-06 1.06603e-06 1.10779e-06 1.05544e-06 1.09646e-06 0
1.13874e-06 1.18158e-06 1.12684e-06 1.16883e-06 1.13874e-06 1.18158e-06 1.12684e-06 1.16883e-06 0
1.21322e-06 1.25685e-06 1.19982e-06 1.24254e-06 1.21322e-06 1.25685e-06 1.19982e-06 1.24254e-06 0
1.28847e-06 1.33124e-06 1.27346e-06 1.31522e-06 1.28847e-06 1.33124e-06 1.27346e-06 1.31522e-06 0
1.36277e-06 1.4063e-06 1.34604e-06 1.38861e-06 1.36277e-06 1.4063e-06 1.34604e-06 1.38861e-06 0
1.01289e-06 1.05442e-06 1.0028e-06 1.04363e-06 1.01289e-06 1.05442e-06 1.0028e-06 1.04363e-06 0
1.08539e-06 1.12849e-06 1.07405e-06 1.11637e-06 1.08539e-06 1.12849e-06 1.07405e-06 1.11637e-06 0
1.1605e-06 1.20487e-06 1.14775e-06 1.19123e-06 1.1605e-06 1.20487e-06 1.14775e-06 1.19123e-06 0
1.23768e-06 1.28301e-06 1.22335e-06 1.26769e-06 1.23768e-06 1.28301e-06 1.22335e-06 1.26769e-06 0
1.31593e-06 1.36055e-06 1.29985e-06 1.34338e-06 1.31593e-06 1.36055e-06 1.29985e-06 1.34338e-06 0
1.39341e-06 1.43871e-06 1.37546e-06 1.41972e-06 1.39341e-06 1.43871e-06 1.37546e-06 1.41972e-06 0
1.03142e-06 1.07418e-06 1.02055e-06 1.0626e-06 1.03142e-06 1.07418e-06 1.02055e-06 1.0626e-06 0
1.10611e-06 1.15064e-06 1.09397e-06 1.13767e-06 1.10611e-06 1.15064e-06 1.09397e-06 1.13767e-06 0
1.18376e-06 1.22977e-06 1.17013e-06 1.21519e-06 1.18376e-06 1.22977e-06 1.17013e-06 1.21519e-06 0
1.26384e-06 1.31099e-06 1.24852e-06 1.2946e-06 1.26384e-06 1.31099e-06 1.24852e-06 1.2946e-06 0
1.34531e-06 1.39196e-06 1.3281e-06 1.37356e-06 1.34531e-06 1.39196e-06 1.3281e-06 1.37356e-06 0
1.42628e-06 1.47354e-06 1.40702e-06 1.45313e-06 1.42628e-06 1.47354e-06 1.40702e-06 1.45313e-06 0
9.78026e-07 1.01993e-06 9.67503e-07 1.00874e-06 9.78026e-07 1.01993e-06 9.67503e-07 1.00874e-06 0
1.05136e-06 1.09535e-06 1.03966e-06 1.08295e-06 1.05136e-06 1.09535e-06 1.03966e-06 1.08295e-06 0
1.12828e-06 1.17429e-06 1.1153e-06 1.16044e-06 1.12828e-06 1.17429e-06 1.1153e-06 1.16044e-06 0
1.20859e-06 1.25634e-06 1.19405e-06 1.24078e-06 1.20859e-06 1.25634e-06 1.19405e-06 1.24078e-06 0
1.29176e-06 1.34088e-06 1.27541e-06 1.32338e-06 1.29176e-06 1.34088e-06 1.27541e-06 1.32338e-06 0
1.37673e-06 1.4256e-06 1.35833e-06 1.4059e-06 1.37673e-06 1.4256e-06 1.35833e-06 1.4059e-06 0
1.46155e-06 1.51107e-06 1.44088e-06 1.48906e-06 1.46155e-06 1.51107e-06 1.44088e-06 1.48906e-06 0
9.97337e-07 1.04036e-06 9.86012e-07 1.0284e-06 9.97337e-07 1.04036e-06 9.86012e-07 1.0284e-06 0
1.07267e-06 1.11798e-06 1.06019e-06 1.10473e-06 1.07267e-06 1.11798e-06 1.06019e-06 1.10473e-06 0
1.15195e-06 1.19953e-06 1.13809e-06 1.18476e-06 1.15195e-06 1.19953e-06 1.13809e-06 1.18476e-06 0
1.23507e-06 1.28467e-06 1.21957e-06 1.26809e-06 1.23507e-06 1.28467e-06 1.21957e-06 1.26809e-06 0
1.32155e-06 1.3728e-06 1.30411e-06 1.35411e-06 1.32155e-06 1.3728e-06 1.30411e-06 1.35411e-06 0
1.41032e-06 1.46161e-06 1.39065e-06 1.44052e-06 1.41032e-06 1.46161e-06 1.39065e-06 1.44052e-06 0
1.49934e-06 1.55133e-06 1.4772e-06 1.52775e-06 1.49934e-06 1.55133e-06 1.4772e-06 1.52775e-06 0
1.01805e-06 1.06221e-06 1.00591e-06 1.04941e-06 1.01805e-06 1.06221e-06 1.00591e-06 1.04941e-06 0
1.09543e-06 1.1421e-06 1.0821e-06 1.12798e-06 1.09543e-06 1.1421e-06 1.0821e-06 1.12798e-06 0
1.17717e-06 1.22639e-06 1.16241e-06 1.21067e-06 1.17717e-06 1.22639e-06 1.16241e-06 1.21067e-06 0
1.26325e-06 1.31484e-06 1.24676e-06 1.29718e-06 1.26325e-06 1.31484e-06 1.24676e-06 1.29718e-06 0
1.35327e-06 1.40683e-06 1.3347e-06 1.38691e-06 1.35327e-06 1.40683e-06 1.3347e-06 1.38691e-06 0
1.44617e-06 1.50016e-06 1.42518e-06 1.47758e-06 1.44617e-06 1.50016e-06 1.42518e-06 1.47758e-06 0
1.53987e-06 1.59458e-06 1.51612e-06 1.56922e-06 1.53987e-06 1.59458e-06 1.51612e-06 1.56922e-06 0
9.65391e-07 1.00805e-06 9.53486e-07 9.95521e-07 9.65391e-07 1.00805e-06 9.53486e-07 9.95521e-07 0
1.04023e-06 1.08552e-06 1.02723e-06 1.07188e-06 1.04023e-06 1.08552e-06 1.02723e-06 1.07188e-06 0
1.11968e-06 1.16776e-06 1.10549e-06 1.15275e-06 1.11968e-06 1.16776e-06 1.10549e-06 1.15275e-06 0
1.20398e-06 1.25496e-06 1.18829e-06 1.23824e-06 1.20398e-06 1.25496e-06 1.18829e-06 1.23824e-06 0
1.29324e-06 1.34693e-06 1.2757e-06 1.32816e-06 1.29324e-06 1.34693e-06 1.2757e-06 1.32816e-06 0
1.38704e-06 1.44307e-06 1.36729e-06 1.42186e-06 1.38704e-06 1.44307e-06 1.36729e-06 1.42186e-06 0
1.48441e-06 1.54137e-06 1.46203e-06 1.51724e-06 1.48441e-06 1.54137e-06 1.46203e-06 1.51724e-06 0
1.58329e-06 1.64112e-06 1.55785e-06 1.61384e-06 1.58329e-06 1.64112e-06 1.55785e-06 1.61384e-06 0
9.87035e-07 1.03075e-06 9.74373e-07 1.01748e-06 9.87035e-07 1.03075e-06 9.74373e-07 1.01748e-06 0
1.06375e-06 1.11026e-06 1.05e-06 1.0958e-06 1.06375e-06 1.11026e-06 1.05e-06 1.0958e-06 0
1.14539e-06 1.19496e-06 1.13036e-06 1.17906e-06 1.14539e-06 1.19496e-06 1.13036e-06 1.17906e-06 0
1.2324e-06 1.28523e-06 1.21578e-06 1.26753e-06 1.2324e-06 1.28523e-06 1.21578e-06 1.26753e-06 0
1.32499e-06 1.38093e-06 1.30643e-06 1.36105e-06 1.32499e-06 1.38093e-06 1.30643e-06 1.36105e-06 0
1.42285e-06 1.4816e-06 1.40191e-06 1.45907e-06 1.42285e-06 1.4816e-06 1.40191e-06 1.45907e-06 0
1.5251e-06 1.58537e-06 1.5013e-06 1.55962e-06 1.5251e-06 1.58537e-06 1.5013e-06 1.55962e-06 0
1.62978e-06 1.69113e-06 1.60255e-06 1.66182e-06 1.62978e-06 1.69113e-06 1.60255e-06 1.66182e-06 0
1.00994e-06 1.05475e-06 9.96554e-07 1.04072e-06 1.00994e-06 1.05475e-06 9.96554e-07 1.04072e-06 0
1.08862e-06 1.13645e-06 1.07409e-06 1.12114e-06 1.08862e-06 1.13645e-06 1.07409e-06 1.12114e-06 0
1.17265e-06 1.22382e-06 1.15672e-06 1.20694e-06 1.17265e-06 1.22382e-06 1.15672e-06 1.20694e-06 0
1.26253e-06 1.31723e-06 1.24489e-06 1.2985e-06 1.26253e-06 1.31723e-06 1.24489e-06 1.2985e-06 0
1.35853e-06 1.41681e-06 1.33892e-06 1.39586e-06 1.35853e-06 1.41681e-06 1.33892e-06 1.39586e-06 0
1.46068e-06 1.52239e-06 1.43858e-06 1.49855e-06 1.46068e-06 1.52239e-06 1.43858e-06 1.49855e-06 0
1.56828e-06 1.63211e-06 1.54303e-06 1.60478e-06 1.56828e-06 1.63211e-06 1.54303e-06 1.60478e-06 0
1.67931e-06 1.74478e-06 1.65033e-06 1.71335e-06 1.67931e-06 1.74478e-06 1.65033e-06 1.71335e-06 0
0 0 0 0 0 0 0 0 0
0 0 0 0 0 0 0 0 0
0 0 0 0 0 0 0 0 0
0 0 0 0 0 0 0 0 0
0 0 0 0 0 0 0 0 0
0 0 0 0 0 0 0 0 0
0 0 0 0 0 0 0 0 0
0 0 0 0 0 0 0 0 0
0 0 0 0 0 0 0 0 0
0 0 0 0 0 0 0 0 0
0 0 0 0 0 0 0 0 0
0 0 0 0 0 0 0 0 0
0 0 0 0 0 0 0 0 0
0 0 0 0 0 0 0 0 0
0 0 0 0 0 0 0 0 0
0 0 0 0 0 0 0 0 0
0 0 0 0 0 0 0 0 0
0 0 0 0 0 0 0 0 0
0 0 0 0 0 0 0 0 0
0 0 0 0 0 0 0 0 0
0 0 0 0 0 0 0 0 0
0 0 0 0 0 0 0 0 0
0 0 0 0 0 0 0 0 0
0 0 0 0 0 0 0 0 0
0 0 0 0 0 0 0 0 0
0 0 0 0 0 0 0 0 0
0 0 0 0 0 0 0 0 0
0 0 0 0 0 0 0 0 0
0 0 0 0 0 0 0 0 0
0 0 0 0 0 0 0 0 0
0 0 0 0 0 0 0 0 0
0 0 0 0 0 0 0 0 0
0 0 0 0 0 0 0 0 0
0 0 0 0 0 0 0 0 0
0 0 0 0 0 0 0 0 0
0 0 0 0 0 0 0 0 0
0 0 0 0 0 0 0 0 0
0 0 0 0 0 0 0 0 0
0 0 0 0 0 0 0 0 0
0 0 0 0 0 0 0 0 0
0 0 0 0 0 0 0 0 0
0 0 0 0 0 0 0 0 0
0 0 0 0 0 0 0 0 0
0 0 0 0 0 0 0 0 0
0 0 0 0 0 0 0 0 0
0 0 0 0 0 0 0 0 0
0 0 0 0 0 0 0 0 0
0 0 0 0 0 0 0 0 0
0 0 0 0 0 0 0 0 0
0 0 0 0 0 0 0 0 0
0 0 0 0 0 0 0 0 0
0 0 0 0 0 0 0 0 0
0 0 0 0 0 0 0 0 0
0 0 0 0 0 0 0 0 0
0 0 0 0 0 0 0 0 0
0 0 0 0 0 0 0 0 0
0 0 0 0 0 0 0 0 0
0 0 0 0 0 0 0 0 0
0 0 0 0 0 0 0 0 0
0 0 0 0 0 0 0 0 0
0 0 0 0 0 0 0 0 0
0 0 0 0 0 0 0 0 0
0 0 0 0 0 0 0 0 0
0 0 0 0 0 0 0 0 0
0 0 0 0 0 0 0 0 0
0 0 0 0 0 0 0 0 0
0 0 0 0 0 0 0 0 0
0 0 0 0 0 0 0 0 0
0 0 0 0 0 0 0 0 0
0 0 0 0 0 0 0 0 0
0 0 0 0 0 0 0 0 0
0 0 0 0 0 0 0 0 0
0 0 0 0 0 0 0 0 0
0 0 0 0 0 0 0 0 0
0 0 0 0 0 0 0 0 0
0 0 0 0 0 0 0 0 0
0 0 0 0 0 0 0 0 0
0 0 0 0 0 0 0 0 0
0 0 0 0 0 0 0 0 0
0 0 0 0 0 0 0 0 0
0 0 0 0 0 0 0 0 0
0 0 0 0 0 0 0 0 0
0 0 0 0 0 0 0 0 0
0 0 0 0 0 0 0 0 0
0 0 0 0 0 0 0 0 0
0 0 0 0 0 0 0 0 0
0 0 0 0 0 0 0 0 0
0 0 0 0 0 0 0 0 0
0 0 0 0 0 0 0 0 0
0 0 0 0 0 0 0 0 0
0 0 0 0 0 0 0 0 0
0 0 0 0 0 0 0 0 0
0 0 0 0 0 0 0 0 0
0 0 0 0 0 0 0 0 0
0 0 0 0 0 0 0 0 0
0 0 0 0 0 0 0 0 0
0 0 0 0 0 0 0 0 0
0 0 0 0 0 0 0 0 0
0 0 0 0 0 0 0 0 0
0 0 0 0 0 0 0 0 0
0 0 0 0 0 0 0 0 0
0 0 0 0 0 0 0 0 0
0 0 0 0 0 0 0 0 0
0 0 0 0 0 0 0 0 0
0 0 0 0 0 0 0 0 0
0 0 0 0 0 0 0 0 0
0 0 0 0 0 0 0 0 0
0 0 0 0 0 0 0 0 0
0 0 0 0 0 0 0 0 0
0 0 0 0 0 0 0 0 0
0 0 0 0 0 0 0 0 0
0 0 0 0 0 0 0 0 0
0 0 0 0 0 0 0 0 0
0 0 0 0 0 0 0 0 0
0 0 0 0 0 0 0 0 0
0 0 0 0 0 0 0 0 0
0 0 0 0 0 0 0 0 0
0 0 0 0 0 0 0 0 0
0 0 0 0 0 0 0 0 0
0 0 0 0 0 0 0 0 0
0 0 0 0 0 0 0 0 0
0 0 0 0 0 0 0 0 0
0 0 0 0 0 0 0 0 0
0 0 0 0 0 0 0 0 0
0 0 0 0 0 0 0 0 0
0 0 0 0 0 0 0 0 0
0 0 0 0 0 0 0 0 0
0 0 0 0 0 0 0 0 0
0 0 0 0 0 0 0 0 0
0 0 0 0 0 0 0 0 0
0 0 0 0 0 0 0 0 0
0 0 0 0 0 0 0 0 0
0 0 0 0 0 0 0 0 0
0 0 0 0 0 0 0 0 0
0 0 0 0 0 0 0 0 0
0 0 0 0 0 0 0 0 0
0 0 0 0 0 0 0 0 0
0 0 0 0 0 0 0 0 0
0 0 0 0 0 0 0 0 0
0 0 0 0 0 0 0 0 0
0 0 0 0 0 0 0 0 0
0 0 0 0 0 0 0 0 0
0 0 0 0 0 0 0 0 0
0 0 0 0 0 0 0 0 0
0 0 0 0 0 0 0 0 0
0 0 0 0 0 0 0 0 0
0 0 0 0 0 0 0 0 0
0 0 0 0 0 0 0 0 0
0 0 0 0 0 0 0 0 0
0 0 0 0 0 0 0 0 0
0 0 0 0 0 0 0 0 0
0 0 0 0 0 0 0 0 0
0 0 0 0 0 0 0 0 0
0 0 0 0 0 0 0 0 0
0 0 0 0 0 0 0 0 0
0 0 0 0 0 0 0 0 0
0 0 0 0 0 0 0 0 0
0 0 0 0 0 0 0 0 0
0 0 0 0 0 0 0 0 0
0 0 0 0 0 0 0 0 0
0 0 0 0 0 0 0 0 0
0 0 0 0 0 0 0 0 0
0 0 0 0 0 0 0 0 0
0 0 0 0 0 0 0 0 0
0 0 0 0 0 0 0 0 0
0 0 0 0 0 0 0 0 0
0 0 0 0 0 0 0 0 0
0 0 0 0 0 0 0 0 0
0 0 0 0 0 0 0 0 0
0 0 0 0 0 0 0 0 0
0 0 0 0 0 0 0 0 0
0 0 0 0 0 0 0 0 0
0 0 0 0 0 0 0 0 0
0 0 0 0 0 0 0 0 0
0 0 0 0 0 0 0 0 0
0 0 0 0 0 0 0 0 0
0 0 0 0 0 0 0 0 0
0 0 0 0 0 0 0 0 0
0 0 0 0 0 0 0 0 0
0 0 0 0 0 0 0 0 0
0 0 0 0 0 0 0 0 0
0 0 0 0 0 0 0 0 0
0 0 0 0 0 0 0 0 0
0 0 0 0 0 0 0 0 0
0 0 0 0 0 0 0 0 0
0 0 0 0 0 0 0 0 0
0 0 0 0 0 0 0 0 0
0 0 0 0 0 0 0 0 0
0 0 0 0 0 0 0 0 0
0 0 0 0 0 0 0 0 0
0 0 0 0 0 0 0 0 0
0 0 0 0 0 0 0 0 0
0 0 0 0 0 0 0 0 0
0 0 0 0 0 0 0 0 0
0 0 0 0 0 0 0 0 0
0 0 0 0 0 0 0 0 0
0 0 0 0 0 0 0 0 0
0 0 0 0 0 0 0 0 0
0 0 0 0 0 0 0 0 0
0 0 0 0 0 0 0 0 0
0 0 0 0 0 0 0 0 0
0 0 0 0 0 0 0 0 0
0 0 0 0 0 0 0 0 0
0 0 0 0 0 0 0 0 0
0 0 0 0 0 0 0 0 0
0 0 0 0 0 0 0 0 0
0 0 0 0 0 0 0 0 0
0 0 0 0 0 0 0 0 0
0 0 0 0 0 0 0 0 0
0 0 0 0 0 0 0 0 0
0 0 0 0 0 0 0 0 0
0 0 0 0 0 0 0 0 0
0 0 0 0 0 0 0 0 0
0 0 0 0 0 0 0 0 0
0 0 0 0 0 0 0 0 0
0 0 0 0 0 0 0 0 0
0 0 0 0 0 0 0 0 0
0 0 0 0 0 0 0 0 0
0 0 0 0 0 0 0 0 0
0 0 0 0 0 0 0 0 0
0 0 0 0 0 0 0 0 0
0 0 0 0 0 0 0 0 0
0 0 0 0 0 0 0 0 0
0 0 0 0 0 0 0 0 0
0 0 0 0 0 0 0 0 0
0 0 0 0 0 0 0 0 0
0 0 0 0 0 0 0 0 0
0 0 0 0 0 0 0 0 0
0 0 0 0 0 0 0 0 0
0 0 0 0 0 0 0 0 0
0 0 0 0 0 0 0 0 0
0 0 0 0 0 0 0 0 0
0 0 0 0 0 0 0 0 0
0 0 0 0 0 0 0 0 0
0 0 0 0 0 0 0 0 0
0 0 0 0 0 0 0 0 0
0 0 0 0 0 0 0 0 0
0 0 0 0 0 0 0 0 0
0 0 0 0 0 0 0 0 0
0 0 0 0 0 0 0 0 0
0 0 0 0 0 0 0 0 0
0 0 0 0 0 0 0 0 0
0 0 0 0 0 0 0 0 0
0 0 0 0 0 0 0 0 0
0 0 0 0 0 0 0 0 0
0 0 0 0 0 0 0 0 0
0 0 0 0 0 0 0 0 0
0 0 0 0 0 0 0 0 0
0 0 0 0 0 0 0 0 0
0 0 0 0 0 0 0 0 0
0 0 0 0 0 0 0 0 0
0 0 0 0 0 0 0 0 0
0 0 0 0 0 0 0 0 0
0 0 0 0 0 0 0 0 0
0 0 0 0 0 0 0 0 0
0 0 0 0 0 0 0 0 0
0 0 0 0 0 0 0 0 0
0 0 0 0 0 0 0 0 0
0 0 0 0 0 0 0 0 0
0 0 0 0 0 0 0 0 0
0 0 0 0 0 0 0 0 0
0 0 0 0 0 0 0 0 0
0 0 0 0 0 0 0 0 0
0 0 0 0 0 0 0 0 0
0 0 0 0 0 0 0 0 0
0 0 0 0 0 0 0 0 0
0 0 0 0 0 0 0 0 0
0 0 0 0 0 0 0 0 0
0 0 0 0 0 0 0 0 0
0 0 0 0 0 0 0 0 0
0 0 0 0 0 0 0 0 0
0 0 0 0 0 0 0 0 0
0 0 0 0 0 0 0 0 0
0 0 0 0 0 0 0 0 0
0 0 0 0 0 0 0 0 0
0 0 0 0 0 0 0 0 0
0 0 0 0 0 0 0 0 0
0 0 0 0 0 0 0 0 0
0 0 0 0 0 0 0 0 0
0 0 0 0 0 0 0 0 0
0 0 0 0 0 0 0 0 0
0 0 0 0 0 0 0 0 0
0 0 0 0 0 0 0 0 0
0 0 0 0 0 0 0 0 0
0 0 0 0 0 0 0 0 0
0 0 0 0 0 0 0 0 0
0 0 0 0 0 0 0 0 0
0 0 0 0 0 0 0 0 0
0 0 0 0 0 0 0 0 0
0 0 0 0 0 0 0 0 0
0 0 0 0 0 0 0 0 0
0 0 0 0 0 0 0 0 0
0 0 0 0 0 0 0 0 0
0 0 0 0 0 0 0 0 0
0 0 0 0 0 0 0 0 0
0 0 0 0 0 0 0 0 0
0 0 0 0 0 0 0 0 0
0 0 0 0 0 0 0 0 0
0 0 0 0 0 0 0 0 0
0 0 0 0 0 0 0 0 0
0 0 0 0 0 0 0 0 0
0 0 0 0 0 0 0 0 0
0 0 0 0 0 0 0 0 0
0 0 0 0 0 0 0 0 0
0 0 0 0 0 0 0 0 0
0 0 0 0 0 0 0 0 0
0 0 0 0 0 0 0 0 0
0 0 0 0 0 0 0 0 0
0 0 0 0 0 0 0 0 0
0 0 0 0 0 0 0 0 0
0 0 0 0 0 0 0 0 0
0 0 0 0 0 0 0 0 0
0 0 0 0 0 0 0 0 0
0 0 0 0 0 0 0 0 0
0 0 0 0 0 0 0 0 0
0 0 0 0 0 0 0 0 0
0 0 0 0 0 0 0 0 0
0 0 0 0 0 0 0 0 0
0 0 0 0 0 0 0 0 0
0 0 0 0 0 0 0 0 0
0 0 0 0 0 0 0 0 0
0 0 0 0 0 0 0 0 0
0 0 0 0 0 0 0 0 0
0 0 0 0 0 0 0 0 0
0 0 0 0 0 0 0 0 0
0 0 0 0 0 0 0 0 0
0 0 0 0 0 0 0 0 0
0 0 0 0 0 0 0 0 0
0 0 0 0 0 0 0 0 0
0 0 0 0 0 0 0 0 0
0 0 0 0 0 0 0 0 0
0 0 0 0 0 0 0 0 0
0 0 0 0 0 0 0 0 0
0 0 0 0 0 0 0 0 0
0 0 0 0 0 0 0 0 0
0 0 0 0 0 0 0 0 0
0 0 0 0 0 0 0 0 0
0 0 0 0 0 0 0 0 0
0 0 0 0 0 0 0 0 0
0 0 0 0 0 0 0 0 0
0 0 0 0 0 0 0 0 0
0 0 0 0 0 0 0 0 0
0 0 0 0 0 0 0 0 0
0 0 0 0 0 0 0 0 0
0 0 0 0 0 0 0 0 0
0 0 0 0 0 0 0 0 0
0 0 0 0 0 0 0 0 0
0 0 0 0 0 0 0 0 0
0 0 0 0 0 0 0 0 0
0 0 0 0 0 0 0 0 0
0 0 0 0 0 0 0 0 0
0 0 0 0 0 0 0 0 0
0 0 0 0 0 0 0 0 0
0 0 0 0 0 0 0 0 0
0 0 0 0 0 0 0 0 0
0 0 0 0 0 0 0 0 0
0 0 0 0 0 0 0 0 0
0 0 0 0 0 0 0 0 0
0 0 0 0 0 0 0 0 0
0 0 0 0 0 0 0 0 0
0 0 0 0 0 0 0 0 0
0 0 0 0 0 0 0 0 0
0 0 0 0 0 0 0 0 0
0 0 0 0 0 0 0 0 0
0 0 0 0 0 0 0 0 0
0 0 0 0 0 0 0 0 0
0 0 0 0 0 0 0 0 0
0 0 0 0 0 0 0 0 0
0 0 0 0 0 0 0 0 0
0 0 0 0 0 0 0 0 0
0 0 0 0 0 0 0 0 0
0 0 0 0 0 0 0 0 0
0 0 0 0 0 0 0 0 0
0 0 0 0 0 0 0 0 0
0 0 0 0 0 0 0 0 0
0 0 0 0 0 0 0 0 0
0 0 0 0 0 0 0 0 0
0 0 0 0 0 0 0 0 0
0 0 0 0 0 0 0 0 0
0 0 0 0 0 0 0 0 0
0 0 0 0 0 0 0 0 0
0 0 0 0 0 0 0 0 0
0 0 0 0 0 0 0 0 0
0 0 0 0 0 0 0 0 0
0 0 0 0 0 0 0 0 0
0 0 0 0 0 0 0 0 0
0 0 0 0 0 0 0 0 0
0 0 0 0 0 0 0 0 0
0 0 0 0 0 0 0 0 0
0 0 0 0 0 0 0 0 0
0 0 0 0 0 0 0 0 0
0 0 0 0 0 0 0 0 0
0 0 0 0 0 0 0 0 0
0 0 0 0 0 0 0 0 0
0 0 0 0 0 0 0 0 0
0 0 0 0 0 0 0 0 0
0 0 0 0 0 0 0 0 0
0 0 0 0 0 0 0 0 0
0 0 0 0 0 0 0 0 0
0 0 0 0 0 0 0 0 0
0 0 0 0 0 0 0 0 0
0 0 0 0 0 0 0 0 0
0 0 0 0 0 0 0 0 0
0 0 0 0 0 0 0 0 0
0 0 0 0 0 0 0 0 0
0 0 0 0 0 0 0 0 0
0 0 0 0 0 0 0 0 0
0 0 0 0 0 0 0 0 0
0 0 0 0 0 0 0 0 0
0 0 0 0 0 0 0 0 0
0 0 0 0 0 0 0 0 0
0 0 0 0 0 0 0 0 0
0 0 0 0 0 0 0 0 0
0 0 0 0 0 0 0 0 0
0 0 0 0 0 0 0 0 0
0 0 0 0 0 0 0 0 0
0 0 0 0 0 0 0 0 0
0 0 0 0 0 0 0 0 0
0 0 0 0 0 0 0 0 0
0 0 0 0 0 0 0 0 0
0 0 0 0 0 0 0 0 0
0 0 0 0 0 0 0 0 0
0 0 0 0 0 0 0 0 0
0 0 0 0 0 0 0 0 0
0 0 0 0 0 0 0 0 0
0 0 0 0 0 0 0 0 0
0 0 0 0 0 0 0 0 0
0 0 0 0 0 0 0 0 0
0 0 0 0 0 0 0 0 0
0 0 0 0 0 0 0 0 0
0 0 0 0 0 0 0 0 0
0 0 0 0 0 0 0 0 0
0 0 0 0 0 0 0 0 0
0 0 0 0 0 0 0 0 0
0 0 0 0 0 0 0 0 0
0 0 0 0 0 0 0 0 0
0 0 0 0 0 0 0 0 0
0 0 0 0 0 0 0 0 0
0 0 0 0 0 0 0 0 0
0 0 0 0 0 0 0 0 0
0 0 0 0 0 0 0 0 0
0 0 0 0 0 0 0 0 0
0 0 0 0 0 0 0 0 0
0 0 0 0 0 0 0 0 0
0 0 0 0 0 0 0 0 0
0 0 0 0 0 0 0 0 0
0 0 0 0 0 0 0 0 0
0 0 0 0 0 0 0 0 0
0 0 0 0 0 0 0 0 0
0 0 0 0 0 0 0 0 0
0 0 0 0 0 0 0 0 0
0 0 0 0 0 0 0 0 0
0 0 0 0 0 0 0 0 0
0 0 0 0 0 0 0 0 0
0 0 0 0 0 0 0 0 0
0 0 0 0 0 0 0 0 0
0 0 0 0 0 0 0 0 0
0 0 0 0 0 0 0 0 0
0 0 0 0 0 0 0 0 0
0 0 0 0 0 0 0 0 0
0 0 0 0 0 0 0 0 0
0 0 0 0 0 0 0 0 0
0 0 0 0 0 0 0 0 0
0 0 0 0 0 0 0 0 0
0 0 0 0 0 0 0 0 0
0 0 0 0 0 0 0 0 0
0 0 0 0 0 0 0 0 0
0 0 0 0 0 0 0 0 0
0 0 0 0 0 0 0 0 0
0 0 0 0 0 0 0 0 0
0 0 0 0 0 0 0 0 0
0 0 0 0 0 0 0 0 0
0 0 0 0 0 0 0 0 0
0 0 0 0 0 0 0 0 0
0 0 0 0 0 0 0 0 0
0 0 0 0 0 0 0 0 0
0 0 0 0 0 0 0 0 0
0 0 0 0 0 0 0 0 0
0 0 0 0 0 0 0 0 0
0 0 0 0 0 0 0 0 0
0 0 0 0 0 0 0 0 0
0 0 0 0 0 0 0 0 0
0 0 0 0 0 0 0 0 0
0 0 0 0 0 0 0 0 0
0 0 0 0 0 0 0 0 0
0 0 0 0 0 0 0 0 0
0 0 0 0 0 0 0 0 0
0 0 0 0 0 0 0 0 0
0 0 0 0 0 0 0 0 0
0 0 0 0 0 0 0 0 0
0 0 0 0 0 0 0 0 0
0 0 0 0 0 0 0 0 0
0 0 0 0 0 0 0 0 0
0 0 0 0 0 0 0 0 0
0 0 0 0 0 0 0 0 0
0 0 0 0 0 0 0 0 0
0 0 0 0 0 0 0 0 0
0 0 0 0 0 0 0 0 0
0 0 0 0 0 0 0 0 0
0 0 0 0 0 0 0 0 0
0 0 0 0 0 0 0 0 0
0 0 0 0 0 0 0 0 0
0 0 0 0 0 0 0 0 0
0 0 0 0 0 0 0 0 0
0 0 0 0 0 0 0 0 0
0 0 0 0 0 0 0 0 0
0 0 0 0 0 0 0 0 0
0 0 0 0 0 0 0 0 0
0 0 0 0 0 0 0 0 0
0 0 0 0 0 0 0 0 0
0 0 0 0 0 0 0 0 0
0 0 0 0 0 0 0 0 0
0 0 0 0 0 0 0 0 0
0 0 0 0 0 0 0 0 0
0 0 0 0 0 0 0 0 0
0 0 0 0 0 0 0 0 0
0 0 0 0 0 0 0 0 0
0 0 0 0 0 0 0 0 0
0 0 0 0 0 0 0 0 0
0 0 0 0 0 0 0 0 0
0 0 0 0 0 0 0 0 0
0 0 0 0 0 0 0 0 0
0 0 0 0 0 0 0 0 0
0 0 0 0 0 0 0 0 0
0 0 0 0 0 0 0 0 0
0 0 0 0 0 0 0 0 0
0 0 0 0 0 0 0 0 0
0 0 0 0 0 0 0 0 0
0 0 0 0 0 0 0 0 0
0 0 0 0 0 0 0 0 0
0 0 0 0 0 0 0 0 0
0 0 0 0 0 0 0 0 0
0 0 0 0 0 0 0 0 0
0 0 0 0 0 0 0 0 0
0 0 0 0 0 0 0 0 0
0 0 0 0 0 0 0 0 0
0 0 0 0 0 0 0 0 0
0 0 0 0 0 0 0 0 0
0 0 0 0 0 0 0 0 0
5.96804e-07 6.18693e-07 5.91605e-07 6.13147e-07 5.96804e-07 6.18693e-07 5.91605e-07 6.13147e-07 0
6.35016e-07 6.57728e-07 6.29195e-07 6.5156e-07 6.35016e-07 6.57728e-07 6.29195e-07 6.5156e-07 0
6.74437e-07 6.97444e-07 6.68051e-07 6.90683e-07 6.74437e-07 6.97444e-07 6.68051e-07 6.90683e-07 0
7.15754e-07 7.42959e-07 7.08744e-07 7.35635e-07 7.15754e-07 7.42959e-07 7.08744e-07 7.35635e-07 0
5.68686e-07 5.90318e-07 5.63612e-07 5.84913e-07 5.68686e-07 5.90318e-07 5.63612e-07 5.84913e-07 0
6.06468e-07 6.28904e-07 6.0077e-07 6.22913e-07 6.06468e-07 6.28904e-07 6.0077e-07 6.22913e-07 0
6.45653e-07 6.69017e-07 6.39423e-07 6.62412e-07 6.45653e-07 6.69017e-07 6.39423e-07 6.62412e-07 0
6.86208e-07 7.09862e-07 6.79315e-07 7.0258e-07 6.86208e-07 7.09862e-07 6.79315e-07 7.0258e-07 0
7.28626e-07 7.56403e-07 7.21078e-07 7.48521e-07 7.28626e-07 7.56403e-07 7.21078e-07 7.48521e-07 0
5.78038e-07 6.00272e-07 5.72549e-07 5.94448e-07 5.78038e-07 6.00272e-07 5.72549e-07 5.94448e-07 0
6.16852e-07 6.39888e-07 6.10777e-07 6.33449e-07 6.16852e-07 6.39888e-07 6.10777e-07 6.33449e-07 0
6.57101e-07 6.81141e-07 6.50387e-07 6.74033e-07 6.57101e-07 6.81141e-07 6.50387e-07 6.74033e-07 0
6.98854e-07 7.23237e-07 6.9144e-07 7.15389e-07 6.98854e-07 7.23237e-07 6.9144e-07 7.15389e-07 0
7.42484e-07 7.70907e-07 7.34355e-07 7.62385e-07 7.42484e-07 7.70907e-07 7.34355e-07 7.62385e-07 0
5.49924e-07 5.718e-07 5.44572e-07 5.66119e-07 5.49924e-07 5.718e-07 5.44572e-07 5.66119e-07 0
5.88164e-07 6.11003e-07 5.82213e-07 6.04705e-07 5.88164e-07 6.11003e-07 5.82213e-07 6.04705e-07 0
6.28025e-07 6.51724e-07 6.2147e-07 6.44781e-07 6.28025e-07 6.51724e-07 6.2147e-07 6.44781e-07 0
6.6944e-07 6.94195e-07 6.62203e-07 6.8654e-07 6.6944e-07 6.94195e-07 6.62203e-07 6.8654e-07 0
7.12463e-07 7.37649e-07 7.04483e-07 7.292e-07 7.12463e-07 7.37649e-07 7.04483e-07 7.292e-07 0
7.57421e-07 7.86493e-07 7.48667e-07 7.77364e-07 7.57421e-07 7.86493e-07 7.48667e-07 7.77364e-07 0
5.59786e-07 5.82275e-07 5.53997e-07 5.76139e-07 5.59786e-07 5.82275e-07 5.53997e-07 5.76139e-07 0
5.99095e-07 6.22568e-07 5.92692e-07 6.15786e-07 5.99095e-07 6.22568e-07 5.92692e-07 6.15786e-07 0
6.40081e-07 6.64488e-07 6.33009e-07 6.57e-07 6.40081e-07 6.64488e-07 6.33009e-07 6.57e-07 0
6.82741e-07 7.0826e-07 6.74939e-07 7.00011e-07 6.82741e-07 7.0826e-07 6.74939e-07 7.00011e-07 0
7.2712e-07 7.53168e-07 7.18524e-07 7.44067e-07 7.2712e-07 7.53168e-07 7.18524e-07 7.44067e-07 0
7.73508e-07 8.03296e-07 7.64073e-07 7.93437e-07 7.73508e-07 8.03296e-07 7.64073e-07 7.93437e-07 0
5.70437e-07 5.93569e-07 5.64188e-07 5.86942e-07 5.70437e-07 5.93569e-07 5.64188e-07 5.86942e-07 0
6.10873e-07 6.35041e-07 6.03963e-07 6.27724e-07 6.10873e-07 6.35041e-07 6.03963e-07 6.27724e-07 0
6.53087e-07 6.78258e-07 6.45457e-07 6.7018e-07 6.53087e-07 6.78258e-07 6.45457e-07 6.7018e-07 0
6.97089e-07 7.23429e-07 6.88672e-07 7.1453e-07 6.97089e-07 7.23429e-07 6.88672e-07 7.1453e-07 0
7.42928e-07 7.69906e-07 7.33655e-07 7.60087e-07 7.42928e-07 7.69906e-07 7.33655e-07 7.60087e-07 0
7.9088e-07 8.21488e-07 7.80687e-07 8.10807e-07 7.9088e-07 8.21488e-07 7.80687e-07 8.10807e-07 0
5.42208e-07 5.64934e-07 5.36106e-07 5.58451e-07 5.42208e-07 5.64934e-07 5.36106e-07 5.58451e-07 0
5.81955e-07 6.0576e-07 5.75191e-07 5.98608e-07 5.81955e-07 6.0576e-07 5.75191e-07 5.98608e-07 0
6.23582e-07 6.48509e-07 6.16126e-07 6.40605e-07 6.23582e-07 6.48509e-07 6.16126e-07 6.40605e-07 0
6.67133e-07 6.93129e-07 6.58888e-07 6.84402e-07 6.67133e-07 6.93129e-07 6.58888e-07 6.84402e-07 0
7.12586e-07 7.3982e-07 7.03493e-07 7.302e-07 7.12586e-07 7.3982e-07 7.03493e-07 7.302e-07 0
7.60009e-07 7.87984e-07 7.49984e-07 7.77376e-07 7.60009e-07 7.87984e-07 7.49984e-07 7.77376e-07 0
8.09663e-07 8.41219e-07 7.98639e-07 8.29631e-07 8.09663e-07 8.41219e-07 7.98639e-07 8.29631e-07 0
5.53414e-07 5.76821e-07 5.46842e-07 5.69852e-07 5.53414e-07 5.76821e-07 5.46842e-07 5.69852e-07 0
5.94362e-07 6.18907e-07 5.87088e-07 6.11195e-07 5.94362e-07 6.18907e-07 5.87088e-07 6.11195e-07 0
6.37319e-07 6.63082e-07 6.29258e-07 6.5453e-07 6.37319e-07 6.63082e-07 6.29258e-07 6.5453e-07 0
6.82345e-07 7.09255e-07 6.73417e-07 6.99788e-07 6.82345e-07 7.09255e-07 6.73417e-07 6.99788e-07 0
7.29395e-07 7.57587e-07 7.19523e-07 7.47149e-07 7.29395e-07 7.57587e-07 7.19523e-07 7.47149e-07 0
7.78519e-07 8.07588e-07 7.67649e-07 7.96074e-07 7.78519e-07 8.07588e-07 7.67649e-07 7.96074e-07 0
8.30024e-07 8.62579e-07 8.18067e-07 8.50042e-07 8.30024e-07 8.62579e-07 8.18067e-07 8.50042e-07 0
5.65502e-07 5.89641e-07 5.5841e-07 5.8212e-07 5.65502e-07 5.89641e-07 5.5841e-07 5.8212e-07 0
6.07745e-07 6.33114e-07 5.99893e-07 6.24778e-07 6.07745e-07 6.33114e-07 5.99893e-07 6.24778e-07 0
6.52166e-07 6.78853e-07 6.43453e-07 6.69595e-07 6.52166e-07 6.78853e-07 6.43453e-07 6.69595e-07 0
6.98825e-07 7.26753e-07 6.89148e-07 7.16475e-07 6.98825e-07 7.26753e-07 6.89148e-07 7.16475e-07 0
7.47661e-07 7.7694e-07 7.3693e-07 7.65566e-07 7.47661e-07 7.7694e-07 7.3693e-07 7.65566e-07 0
7.98696e-07 8.28946e-07 7.86829e-07 8.1639e-07 7.98696e-07 8.28946e-07 7.86829e-07 8.1639e-07 0
8.52219e-07 8.85871e-07 8.39168e-07 8.72173e-07 8.52219e-07 8.85871e-07 8.39168e-07 8.72173e-07 0
5.3722e-07 5.60853e-07 5.30287e-07 5.5348e-07 5.3722e-07 5.60853e-07 5.30287e-07 5.5348e-07 0
5.78608e-07 6.0351e-07 5.70911e-07 5.95368e-07 5.78608e-07 6.0351e-07 5.70911e-07 5.95368e-07 0
6.22218e-07 6.48484e-07 6.13722e-07 6.39461e-07 6.22218e-07 6.48484e-07 6.13722e-07 6.39461e-07 0
6.68249e-07 6.95969e-07 6.58806e-07 6.85916e-07 6.68249e-07 6.95969e-07 6.58806e-07 6.85916e-07 0
7.16738e-07 7.45812e-07 7.06213e-07 7.34608e-07 7.16738e-07 7.45812e-07 7.06213e-07 7.34608e-07 0
7.67589e-07 7.98099e-07 7.5587e-07 7.85651e-07 7.67589e-07 7.98099e-07 7.5587e-07 7.85651e-07 0
8.20801e-07 8.52389e-07 8.07792e-07 8.3858e-07 8.20801e-07 8.52389e-07 8.07792e-07 8.3858e-07 0
8.76588e-07 9.11479e-07 8.62238e-07 8.96396e-07 8.76588e-07 9.11479e-07 8.62238e-07 8.96396e-07 0
5.49985e-07 5.74411e-07 5.42494e-07 5.66457e-07 5.49985e-07 5.74411e-07 5.42494e-07 5.66457e-07 0
5.92774e-07 6.18544e-07 5.84462e-07 6.09716e-07 5.92774e-07 6.18544e-07 5.84462e-07 6.09716e-07 0
6.37929e-07 6.65176e-07 6.28699e-07 6.55369e-07 6.37929e-07 6.65176e-07 6.28699e-07 6.55369e-07 0
6.85739e-07 7.14625e-07 6.7546e-07 7.03656e-07 6.85739e-07 7.14625e-07 6.7546e-07 7.03656e-07 0
7.36298e-07 7.66684e-07 7.24793e-07 7.54401e-07 7.36298e-07 7.66684e-07 7.24793e-07 7.54401e-07 0
7.89458e-07 8.2139e-07 7.76582e-07 8.07669e-07 7.89458e-07 8.2139e-07 7.76582e-07 8.07669e-07 0
8.45181e-07 8.78334e-07 8.30812e-07 8.63035e-07 8.45181e-07 8.78334e-07 8.30812e-07 8.63035e-07 0
9.03606e-07 9.39901e-07 8.87656e-07 9.23124e-07 9.03606e-07 9.39901e-07 8.87656e-07 9.23124e-07 0
5.63872e-07 5.89052e-07 5.55691e-07 5.80461e-07 5.63872e-07 5.89052e-07 5.55691e-07 5.80461e-07 0
6.08081e-07 6.34851e-07 5.99099e-07 6.25275e-07 6.08081e-07 6.34851e-07 5.99099e-07 6.25275e-07 0
6.55031e-07 6.83438e-07 6.4498e-07 6.72692e-07 6.55031e-07 6.83438e-07 6.4498e-07 6.72692e-07 0
7.04883e-07 7.35067e-07 6.93617e-07 7.23035e-07 7.04883e-07 7.35067e-07 6.93617e-07 7.23035e-07 0
7.57765e-07 7.89656e-07 7.45126e-07 7.76124e-07 7.57765e-07 7.89656e-07 7.45126e-07 7.76124e-07 0
8.13594e-07 8.47207e-07 7.99368e-07 8.31976e-07 8.13594e-07 8.47207e-07 7.99368e-07 8.31976e-07 0
8.72287e-07 9.07291e-07 8.56286e-07 8.90183e-07 8.72287e-07 9.07291e-07 8.56286e-07 8.90183e-07 0
9.33871e-07 9.71915e-07 9.1598e-07 9.52977e-07 9.33871e-07 9.71915e-07 9.1598e-07 9.52977e-07 0
0 0 0 0 0 0 0 0 0
0 0 0 0 0 0 0 0 0
0 0 0 0 0 0 0 0 0
0 0 0 0 0 0 0 0 0
0 0 0 0 0 0 0 0 0
0 0 0 0 0 0 0 0 0
0 0 0 0 0 0 0 0 0
0 0 0 0 0 0 0 0 0
0 0 0 0 0 0 0 0 0
0 0 0 0 0 0 0 0 0
0 0 0 0 0 0 0 0 0
0 0 0 0 0 0 0 0 0
0 0 0 0 0 0 0 0 0
0 0 0 0 0 0 0 0 0
0 0 0 0 0 0 0 0 0
0 0 0 0 0 0 0 0 0
0 0 0 0 0 0 0 0 0
0 0 0 0 0 0 0 0 0
0 0 0 0 0 0 0 0 0
0 0 0 0 0 0 0 0 0
0 0 0 0 0 0 0 0 0
0 0 0 0 0 0 0 0 0
0 0 0 0 0 0 0 0 0
0 0 0 0 0 0 0 0 0
0 0 0 0 0 0 0 0 0
0 0 0 0 0 0 0 0 0
0 0 0 0 0 0 0 0 0
0 0 0 0 0 0 0 0 0
0 0 0 0 0 0 0 0 0
0 0 0 0 0 0 0 0 0
0 0 0 0 0 0 0 0 0
0 0 0 0 0 0 0 0 0
0 0 0 0 0 0 0 0 0
0 0 0 0 0 0 0 0 0
0 0 0 0 0 0 0 0 0
0 0 0 0 0 0 0 0 0
0 0 0 0 0 0 0 0 0
0 0 0 0 0 0 0 0 0
0 0 0 0 0 0 0 0 0
0 0 0 0 0 0 0 0 0
0 0 0 0 0 0 0 0 0
0 0 0 0 0 0 0 0 0
0 0 0 0 0 0 0 0 0
0 0 0 0 0 0 0 0 0
0 0 0 0 0 0 0 0 0
0 0 0 0 0 0 0 0 0
0 0 0 0 0 0 0 0 0
0 0 0 0 0 0 0 0 0
0 0 0 0 0 0 0 0 0
0 0 0 0 0 0 0 0 0
0 0 0 0 0 0 0 0 0
0 0 0 0 0 0 0 0 0
0 0 0 0 0 0 0 0 0
0 0 0 0 0 0 0 0 0
0 0 0 0 0 0 0 0 0
0 0 0 0 0 0 0 0 0
0 0 0 0 0 0 0 0 0
0 0 0 0 0 0 0 0 0
0 0 0 0 0 0 0 0 0
0 0 0 0 0 0 0 0 0
0 0 0 0 0 0 0 0 0
0 0 0 0 0 0 0 0 0
0 0 0 0 0 0 0 0 0
0 0 0 0 0 0 0 0 0
0 0 0 0 0 0 0 0 0
0 0 0 0 0 0 0 0 0
0 0 0 0 0 0 0 0 0
0 0 0 0 0 0 0 0 0
0 0 0 0 0 0 0 0 0
0 0 0 0 0 0 0 0 0
0 0 0 0 0 0 0 0 0
0 0 0 0 0 0 0 0 0
0 0 0 0 0 0 0 0 0
0 0 0 0 0 0 0 0 0
0 0 0 0 0 0 0 0 0
0 0 0 0 0 0 0 0 0
0 0 0 0 0 0 0 0 0
5.17079e-07 5.32289e-07 5.09094e-07 5.23812e-07 5.17079e-07 5.32289e-07 5.09094e-07 5.23812e-07 0
5.43238e-07 5.57946e-07 5.3441e-07 5.48651e-07 5.43238e-07 5.57946e-07 5.3441e-07 5.48651e-07 0
5.68358e-07 5.82095e-07 5.58722e-07 5.71993e-07 5.68358e-07 5.82095e-07 5.58722e-07 5.71993e-07 0
5.92328e-07 6.06627e-07 5.81933e-07 5.95898e-07 5.92328e-07 6.06627e-07 5.81933e-07 5.95898e-07 0
5.03448e-07 5.1971e-07 4.95834e-07 5.11627e-07 5.03448e-07 5.1971e-07 4.95834e-07 5.11627e-07 0
5.31526e-07 5.47538e-07 5.23088e-07 5.38646e-07 5.31526e-07 5.47538e-07 5.23088e-07 5.38646e-07 0
5.59086e-07 5.74628e-07 5.49849e-07 5.64905e-07 5.59086e-07 5.74628e-07 5.49849e-07 5.64905e-07 0
5.85647e-07 6.00209e-07 5.75572e-07 5.89655e-07 5.85647e-07 6.00209e-07 5.75572e-07 5.89655e-07 0
6.10995e-07 6.25986e-07 6.00114e-07 6.14688e-07 6.10995e-07 6.25986e-07 6.00114e-07 6.14688e-07 0
5.17146e-07 5.34239e-07 5.09155e-07 5.25771e-07 5.17146e-07 5.34239e-07 5.09155e-07 5.25771e-07 0
5.46667e-07 5.63532e-07 5.37842e-07 5.54205e-07 5.46667e-07 5.63532e-07 5.37842e-07 5.54205e-07 0
5.75716e-07 5.92145e-07 5.66015e-07 5.81925e-07 5.75716e-07 5.92145e-07 5.66015e-07 5.81925e-07 0
6.03822e-07 6.19292e-07 5.93216e-07 6.08149e-07 6.03822e-07 6.19292e-07 5.93216e-07 6.08149e-07 0
6.30668e-07 6.46367e-07 6.19181e-07 6.34474e-07 6.30668e-07 6.46367e-07 6.19181e-07 6.34474e-07 0
5.00667e-07 5.18466e-07 4.9308e-07 5.10415e-07 5.00667e-07 5.18466e-07 4.9308e-07 5.10415e-07 0
5.31541e-07 5.49466e-07 5.23143e-07 5.40586e-07 5.31541e-07 5.49466e-07 5.23143e-07 5.40586e-07 0
5.62535e-07 5.80315e-07 5.53282e-07 5.70526e-07 5.62535e-07 5.80315e-07 5.53282e-07 5.70526e-07 0
5.93184e-07 6.10571e-07 5.82995e-07 5.99819e-07 5.93184e-07 6.10571e-07 5.82995e-07 5.99819e-07 0
6.22961e-07 6.39422e-07 6.11791e-07 6.2767e-07 6.22961e-07 6.39422e-07 6.11791e-07 6.2767e-07 0
6.51453e-07 6.67956e-07 6.39314e-07 6.55338e-07 6.51453e-07 6.67956e-07 6.39314e-07 6.55338e-07 0
5.14331e-07 5.32939e-07 5.06358e-07 5.24499e-07 5.14331e-07 5.32939e-07 5.06358e-07 5.24499e-07 0
5.46632e-07 5.6544e-07 5.37832e-07 5.56123e-07 5.46632e-07 5.6544e-07 5.37832e-07 5.56123e-07 0
5.79187e-07 5.97939e-07 5.69473e-07 5.87658e-07 5.79187e-07 5.97939e-07 5.69473e-07 5.87658e-07 0
6.11542e-07 6.2996e-07 6.00832e-07 6.18645e-07 6.11542e-07 6.2996e-07 6.00832e-07 6.18645e-07 0
6.43126e-07 6.60673e-07 6.31355e-07 6.48264e-07 6.43126e-07 6.60673e-07 6.31355e-07 6.48264e-07 0
6.73434e-07 6.9088e-07 6.60594e-07 6.77487e-07 6.73434e-07 6.9088e-07 6.60594e-07 6.77487e-07 0
5.28709e-07 5.48145e-07 5.20316e-07 5.39272e-07 5.28709e-07 5.48145e-07 5.20316e-07 5.39272e-07 0
5.6248e-07 5.82214e-07 5.53233e-07 5.72428e-07 5.6248e-07 5.82214e-07 5.53233e-07 5.72428e-07 0
5.96678e-07 6.16463e-07 5.86473e-07 6.05655e-07 5.96678e-07 6.16463e-07 5.86473e-07 6.05655e-07 0
6.30851e-07 6.50382e-07 6.19583e-07 6.38462e-07 6.30851e-07 6.50382e-07 6.19583e-07 6.38462e-07 0
6.64391e-07 6.83128e-07 6.51976e-07 6.70013e-07 6.64391e-07 6.83128e-07 6.51976e-07 6.70013e-07 0
6.96709e-07 7.15197e-07 6.8311e-07 7.00983e-07 6.96709e-07 7.15197e-07 6.8311e-07 7.00983e-07 0
5.09515e-07 5.29222e-07 5.01454e-07 5.2072e-07 5.09515e-07 5.29222e-07 5.01454e-07 5.2072e-07 0
5.43857e-07 5.64145e-07 5.35013e-07 5.54806e-07 5.43857e-07 5.64145e-07 5.35013e-07 5.54806e-07 0
5.79154e-07 5.99869e-07 5.69419e-07 5.8956e-07 5.79154e-07 5.99869e-07 5.69419e-07 5.8956e-07 0
6.15093e-07 6.35974e-07 6.04338e-07 6.2458e-07 6.15093e-07 6.35974e-07 6.04338e-07 6.2458e-07 0
6.51199e-07 6.71927e-07 6.39317e-07 6.59347e-07 6.51199e-07 6.71927e-07 6.39317e-07 6.59347e-07 0
6.86851e-07 7.06881e-07 6.73734e-07 6.93004e-07 6.86851e-07 7.06881e-07 6.73734e-07 6.93004e-07 0
7.21396e-07 7.41131e-07 7.06966e-07 7.25944e-07 7.21396e-07 7.41131e-07 7.06966e-07 7.25944e-07 0
5.24106e-07 5.44591e-07 5.15581e-07 5.35615e-07 5.24106e-07 5.44591e-07 5.15581e-07 5.35615e-07 0
5.59833e-07 5.81022e-07 5.50504e-07 5.71167e-07 5.59833e-07 5.81022e-07 5.50504e-07 5.71167e-07 0
5.96739e-07 6.18491e-07 5.8647e-07 6.07618e-07 5.96739e-07 6.18491e-07 5.8647e-07 6.07618e-07 0
6.34524e-07 6.56583e-07 6.23177e-07 6.44547e-07 6.34524e-07 6.56583e-07 6.23177e-07 6.44547e-07 0
6.72713e-07 6.94735e-07 6.60147e-07 6.81406e-07 6.72713e-07 6.94735e-07 6.60147e-07 6.81406e-07 0
7.10636e-07 7.32082e-07 6.96733e-07 7.17349e-07 7.10636e-07 7.32082e-07 6.96733e-07 7.17349e-07 0
7.47614e-07 7.68709e-07 7.32286e-07 7.52588e-07 7.47614e-07 7.68709e-07 7.32286e-07 7.52588e-07 0
5.39568e-07 5.60862e-07 5.3053e-07 5.51351e-07 5.39568e-07 5.60862e-07 5.3053e-07 5.51351e-07 0
5.76739e-07 5.98869e-07 5.66858e-07 5.8844e-07 5.76739e-07 5.98869e-07 5.66858e-07 5.8844e-07 0
6.15334e-07 6.38187e-07 6.04468e-07 6.26678e-07 6.15334e-07 6.38187e-07 6.04468e-07 6.26678e-07 0
6.55084e-07 6.78406e-07 6.43069e-07 6.65651e-07 6.55084e-07 6.78406e-07 6.43069e-07 6.65651e-07 0
6.95515e-07 7.1895e-07 6.82186e-07 7.0479e-07 6.95515e-07 7.1895e-07 6.82186e-07 7.0479e-07 0
7.35939e-07 7.58921e-07 7.2114e-07 7.43218e-07 7.35939e-07 7.58921e-07 7.2114e-07 7.43218e-07 0
7.75582e-07 7.98192e-07 7.59213e-07 7.80926e-07 7.75582e-07 7.98192e-07 7.59213e-07 7.80926e-07 0
5.19099e-07 5.40236e-07 5.10232e-07 5.30918e-07 5.19099e-07 5.40236e-07 5.10232e-07 5.30918e-07 0
5.56059e-07 5.78174e-07 5.46404e-07 5.68044e-07 5.56059e-07 5.78174e-07 5.46404e-07 5.68044e-07 0
5.94709e-07 6.17824e-07 5.84196e-07 6.06737e-07 5.94709e-07 6.17824e-07 5.84196e-07 6.06737e-07 0
6.35087e-07 6.59118e-07 6.23533e-07 6.46874e-07 6.35087e-07 6.59118e-07 6.23533e-07 6.46874e-07 0
6.76944e-07 7.01631e-07 6.64155e-07 6.88042e-07 6.76944e-07 7.01631e-07 6.64155e-07 6.88042e-07 0
7.19804e-07 7.44788e-07 7.0559e-07 7.29662e-07 7.19804e-07 7.44788e-07 7.0559e-07 7.29662e-07 0
7.62979e-07 7.87688e-07 7.47145e-07 7.70833e-07 7.62979e-07 7.87688e-07 7.47145e-07 7.70833e-07 0
8.05601e-07 8.29916e-07 7.88008e-07 8.11316e-07 8.05601e-07 8.29916e-07 7.88008e-07 8.11316e-07 0
5.35275e-07 5.57225e-07 5.25806e-07 5.47281e-07 5.35275e-07 5.57225e-07 5.25806e-07 5.47281e-07 0
5.73671e-07 5.96681e-07 5.63361e-07 5.85842e-07 5.73671e-07 5.96681e-07 5.63361e-07 5.85842e-07 0
6.13923e-07 6.38077e-07 6.02669e-07 6.26216e-07 6.13923e-07 6.38077e-07 6.02669e-07 6.26216e-07 0
6.56199e-07 6.81505e-07 6.43834e-07 6.68391e-07 6.56199e-07 6.81505e-07 6.43834e-07 6.68391e-07 0
7.00341e-07 7.2652e-07 6.86633e-07 7.11935e-07 7.00341e-07 7.2652e-07 6.86633e-07 7.11935e-07 0
7.45862e-07 7.72557e-07 7.30589e-07 7.56275e-07 7.45862e-07 7.72557e-07 7.30589e-07 7.56275e-07 0
7.92085e-07 8.18739e-07 7.75014e-07 8.0052e-07 7.92085e-07 8.18739e-07 7.75014e-07 8.0052e-07 0
8.38057e-07 8.64331e-07 8.19007e-07 8.44118e-07 8.38057e-07 8.64331e-07 8.19007e-07 8.44118e-07 0
5.52641e-07 5.75373e-07 5.42448e-07 5.64749e-07 5.52641e-07 5.75373e-07 5.42448e-07 5.64749e-07 0
5.92495e-07 6.16517e-07 5.81474e-07 6.04896e-07 5.92495e-07 6.16517e-07 5.81474e-07 6.04896e-07 0
6.34571e-07 6.59928e-07 6.22467e-07 6.47104e-07 6.34571e-07 6.59928e-07 6.22467e-07 6.47104e-07 0
6.78974e-07 7.05654e-07 6.65608e-07 6.91483e-07 6.78974e-07 7.05654e-07 6.65608e-07 6.91483e-07 0
7.25588e-07 7.53406e-07 7.10771e-07 7.37624e-07 7.25588e-07 7.53406e-07 7.10771e-07 7.37624e-07 0
7.74047e-07 8.02665e-07 7.57499e-07 7.8498e-07 7.74047e-07 8.02665e-07 7.57499e-07 7.8498e-07 0
8.23706e-07 8.52583e-07 8.05124e-07 8.32683e-07 8.23706e-07 8.52583e-07 8.05124e-07 8.32683e-07 0
8.73559e-07 9.02149e-07 8.52673e-07 8.79878e-07 8.73559e-07 9.02149e-07 8.52673e-07 8.79878e-07 0
0 0 0 0 0 0 0 0 0
0 0 0 0 0 0 0 0 0
0 0 0 0 0 0 0 0 0
0 0 0 0 0 0 0 0 0
0 0 0 0 0 0 0 0 0
0 0 0 0 0 0 0 0 0
0 0 0 0 0 0 0 0 0
0 0 0 0 0 0 0 0 0
0 0 0 0 0 0 0 0 0
0 0 0 0 0 0 0 0 0
0 0 0 0 0 0 0 0 0
0 0 0 0 0 0 0 0 0
0 0 0 0 0 0 0 0 0
0 0 0 0 0 0 0 0 0
0 0 0 0 0 0 0 0 0
0 0 0 0 0 0 0 0 0
0 0 0 0 0 0 0 0 0
0 0 0 0 0 0 0 0 0
0 0 0 0 0 0 0 0 0
0 0 0 0 0 0 0 0 0
0 0 0 0 0 0 0 0 0
0 0 0 0 0 0 0 0 0
0 0 0 0 0 0 0 0 0
0 0 0 0 0 0 0 0 0
0 0 0 0 0 0 0 0 0
0 0 0 0 0 0 0 0 0
0 0 0 0 0 0 0 0 0
0 0 0 0 0 0 0 0 0
0 0 0 0 0 0 0 0 0
0 0 0 0 0 0 0 0 0
0 0 0 0 0 0 0 0 0
0 0 0 0 0 0 0 0 0
0 0 0 0 0 0 0 0 0
0 0 0 0 0 0 0 0 0
0 0 0 0 0 0 0 0 0
0 0 0 0 0 0 0 0 0
0 0 0 0 0 0 0 0 0
0 0 0 0 0 0 0 0 0
0 0 0 0 0 0 0 0 0
0 0 0 0 0 0 0 0 0
0 0 0 0 0 0 0 0 0
0 0 0 0 0 0 0 0 0
0 0 0 0 0 0 0 0 0
0 0 0 0 0 0 0 0 0
0 0 0 0 0 0 0 0 0
0 0 0 0 0 0 0 0 0
0 0 0 0 0 0 0 0 0
0 0 0 0 0 0 0 0 0
0 0 0 0 0 0 0 0 0
0 0 0 0 0 0 0 0 0
0 0 0 0 0 0 0 0 0
0 0 0 0 0 0 0 0 0
0 0 0 0 0 0 0 0 0
0 0 0 0 0 0 0 0 0
0 0 0 0 0 0 0 0 0
0 0 0 0 0 0 0 0 0
0 0 0 0 0 0 0 0 0
0 0 0 0 0 0 0 0 0
0 0 0 0 0 0 0 0 0
0 0 0 0 0 0 0 0 0
0 0 0 0 0 0 0 0 0
0 0 0 0 0 0 0 0 0
0 0 0 0 0 0 0 0 0
0 0 0 0 0 0 0 0 0
0 0 0 0 0 0 0 0 0
0 0 0 0 0 0 0 0 0
0 0 0 0 0 0 0 0 0
0 0 0 0 0 0 0 0 0
0 0 0 0 0 0 0 0 0
0 0 0 0 0 0 0 0 0
0 0 0 0 0 0 0 0 0
0 0 0 0 0 0 0 0 0
0 0 0 0 0 0 0 0 0
0 0 0 0 0 0 0 0 0
0 0 0 0 0 0 0 0 0
0 0 0 0 0 0 0 0 0
0 0 0 0 0 0 0 0 0
0 0 0 0 0 0 0 0 0
0 0 0 0 0 0 0 0 0
0 0 0 0 0 0 0 0 0
0 0 0 0 0 0 0 0 0
0 0 0 0 0 0 0 0 0
0 0 0 0 0 0 0 0 0
0 0 0 0 0 0 0 0 0
0 0 0 0 0 0 0 0 0
0 0 0 0 0 0 0 0 0
0 0 0 0 0 0 0 0 0
0 0 0 0 0 0 0 0 0
0 0 0 0 0 0 0 0 0
0 0 0 0 0 0 0 0 0
0 0 0 0 0 0 0 0 0
0 0 0 0 0 0 0 0 0
0 0 0 0 0 0 0 0 0
0 0 0 0 0 0 0 0 0
0 0 0 0 0 0 0 0 0
0 0 0 0 0 0 0 0 0
0 0 0 0 0 0 0 0 0
0 0 0 0 0 0 0 0 0
0 0 0 0 0 0 0 0 0
0 0 0 0 0 0 0 0 0
0 0 0 0 0 0 0 0 0
0 0 0 0 0 0 0 0 0
0 0 0 0 0 0 0 0 0
0 0 0 0 0 0 0 0 0
0 0 0 0 0 0 0 0 0
0 0 0 0 0 0 0 0 0
0 0 0 0 0 0 0 0 0
0 0 0 0 0 0 0 0 0
0 0 0 0 0 0 0 0 0
0 0 0 0 0 0 0 0 0
0 0 0 0 0 0 0 0 0
0 0 0 0 0 0 0 0 0
0 0 0 0 0 0 0 0 0
0 0 0 0 0 0 0 0 0
0 0 0 0 0 0 0 0 0
0 0 0 0 0 0 0 0 0
0 0 0 0 0 0 0 0 0
0 0 0 0 0 0 0 0 0
0 0 0 0 0 0 0 0 0
0 0 0 0 0 0 0 0 0
0 0 0 0 0 0 0 0 0
0 0 0 0 0 0 0 0 0
0 0 0 0 0 0 0 0 0
0 0 0 0 0 0 0 0 0
0 0 0 0 0 0 0 0 0
0 0 0 0 0 0 0 0 0
0 0 0 0 0 0 0 0 0
0 0 0 0 0 0 0 0 0
0 0 0 0 0 0 0 0 0
0 0 0 0 0 0 0 0 0
0 0 0 0 0 0 0 0 0
0 0 0 0 0 0 0 0 0
0 0 0 0 0 0 0 0 0
0 0 0 0 0 0 0 0 0
0 0 0 0 0 0 0 0 0
0 0 0 0 0 0 0 0 0
0 0 0 0 0 0 0 0 0
0 0 0 0 0 0 0 0 0
0 0 0 0 0 0 0 0 0
0 0 0 0 0 0 0 0 0
0 0 0 0 0 0 0 0 0
0 0 0 0 0 0 0 0 0
0 0 0 0 0 0 0 0 0
0 0 0 0 0 0 0 0 0
0 0 0 0 0 0 0 0 0
0 0 0 0 0 0 0 0 0
0 0 0 0 0 0 0 0 0
0 0 0 0 0 0 0 0 0
0 0 0 0 0 0 0 0 0
0 0 0 0 0 0 0 0 0
0 0 0 0 0 0 0 0 0
0 0 0 0 0 0 0 0 0
0 0 0 0 0 0 0 0 0
0 0 0 0 0 0 0 0 0
0 0 0 0 0 0 0 0 0
0 0 0 0 0 0 0 0 0
0 0 0 0 0 0 0 0 0
0 0 0 0 0 0 0 0 0
0 0 0 0 0 0 0 0 0
0 0 0 0 0 0 0 0 0
0 0 0 0 0 0 0 0 0
0 0 0 0 0 0 0 0 0
0 0 0 0 0 0 0 0 0
0 0 0 0 0 0 0 0 0
0 0 0 0 0 0 0 0 0
0 0 0 0 0 0 0 0 0
0 0 0 0 0 0 0 0 0
0 0 0 0 0 0 0 0 0
0 0 0 0 0 0 0 0 0
0 0 0 0 0 0 0 0 0
0 0 0 0 0 0 0 0 0
0 0 0 0 0 0 0 0 0
0 0 0 0 0 0 0 0 0
0 0 0 0 0 0 0 0 0
0 0 0 0 0 0 0 0 0
0 0 0 0 0 0 0 0 0
0 0 0 0 0 0 0 0 0
0 0 0 0 0 0 0 0 0
0 0 0 0 0 0 0 0 0
0 0 0 0 0 0 0 0 0
0 0 0 0 0 0 0 0 0
0 0 0 0 0 0 0 0 0
0 0 0 0 0 0 0 0 0
0 0 0 0 0 0 0 0 0
0 0 0 0 0 0 0 0 0
0 0 0 0 0 0 0 0 0
0 0 0 0 0 0 0 0 0
0 0 0 0 0 0 0 0 0
0 0 0 0 0 0 0 0 0
0 0 0 0 0 0 0 0 0
0 0 0 0 0 0 0 0 0
0 0 0 0 0 0 0 0 0
0 0 0 0 0 0 0 0 0
0 0 0 0 0 0 0 0 0
0 0 0 0 0 0 0 0 0
0 0 0 0 0 0 0 0 0
0 0 0 0 0 0 0 0 0
0 0 0 0 0 0 0 0 0
0 0 0 0 0 0 0 0 0
0 0 0 0 0 0 0 0 0
0 0 0 0 0 0 0 0 0
0 0 0 0 0 0 0 0 0
0 0 0 0 0 0 0 0 0
0 0 0 0 0 0 0 0 0
0 0 0 0 0 0 0 0 0
0 0 0 0 0 0 0 0 0
0 0 0 0 0 0 0 0 0
0 0 0 0 0 0 0 0 0
0 0 0 0 0 0 0 0 0
0 0 0 0 0 0 0 0 0
0 0 0 0 0 0 0 0 0
0 0 0 0 0 0 0 0 0
0 0 0 0 0 0 0 0 0
0 0 0 0 0 0 0 0 0
0 0 0 0 0 0 0 0 0
0 0 0 0 0 0 0 0 0
0 0 0 0 0 0 0 0 0
0 0 0 0 0 0 0 0 0
0 0 0 0 0 0 0 0 0
0 0 0 0 0 0 0 0 0
0 0 0 0 0 0 0 0 0
0 0 0 0 0 0 0 0 0
0 0 0 0 0 0 0 0 0
0 0 0 0 0 0 0 0 0
0 0 0 0 0 0 0 0 0
0 0 0 0 0 0 0 0 0
0 0 0 0 0 0 0 0 0
0 0 0 0 0 0 0 0 0
0 0 0 0 0 0 0 0 0
0 0 0 0 0 0 0 0 0
0 0 0 0 0 0 0 0 0
0 0 0 0 0 0 0 0 0
0 0 0 0 0 0 0 0 0
0 0 0 0 0 0 0 0 0
0 0 0 0 0 0 0 0 0
0 0 0 0 0 0 0 0 0
0 0 0 0 0 0 0 0 0
0 0 0 0 0 0 0 0 0
0 0 0 0 0 0 0 0 0
0 0 0 0 0 0 0 0 0
0 0 0 0 0 0 0 0 0
0 0 0 0 0 0 0 0 0
0 0 0 0 0 0 0 0 0
0 0 0 0 0 0 0 0 0
0 0 0 0 0 0 0 0 0
0 0 0 0 0 0 0 0 0
0 0 0 0 0 0 0 0 0
0 0 0 0 0 0 0 0 0
0 0 0 0 0 0 0 0 0
0 0 0 0 0 0 0 0 0
0 0 0 0 0 0 0 0 0
0 0 0 0 0 0 0 0 0
0 0 0 0 0 0 0 0 0
0 0 0 0 0 0 0 0 0
0 0 0 0 0 0 0 0 0
0 0 0 0 0 0 0 0 0
0 0 0 0 0 0 0 0 0
0 0 0 0 0 0 0 0 0
0 0 0 0 0 0 0 0 0
0 0 0 0 0 0 0 0 0
0 0 0 0 0 0 0 0 0
0 0 0 0 0 0 0 0 0
0 0 0 0 0 0 0 0 0
0 0 0 0 0 0 0 0 0
0 0 0 0 0 0 0 0 0
0 0 0 0 0 0 0 0 0
0 0 0 0 0 0 0 0 0
0 0 0 0 0 0 0 0 0
0 0 0 0 0 0 0 0 0
0 0 0 0 0 0 0 0 0
0 0 0 0 0 0 0 0 0
0 0 0 0 0 0 0 0 0
0 0 0 0 0 0 0 0 0
0 0 0 0 0 0 0 0 0
0 0 0 0 0 0 0 0 0
0 0 0 0 0 0 0 0 0
0 0 0 0 0 0 0 0 0
0 0 0 0 0 0 0 0 0
0 0 0 0 0 0 0 0 0
0 0 0 0 0 0 0 0 0
0 0 0 0 0 0 0 0 0
0 0 0 0 0 0 0 0 0
0 0 0 0 0 0 0 0 0
0 0 0 0 0 0 0 0 0
0 0 0 0 0 0 0 0 0
0 0 0 0 0 0 0 0 0
0 0 0 0 0 0 0 0 0
0 0 0 0 0 0 0 0 0
0 0 0 0 0 0 0 0 0
0 0 0 0 0 0 0 0 0
0 0 0 0 0 0 0 0 0
0 0 0 0 0 0 0 0 0
0 0 0 0 0 0 0 0 0
0 0 0 0 0 0 0 0 0
0 0 0 0 0 0 0 0 0
0 0 0 0 0 0 0 0 0
0 0 0 0 0 0 0 0 0
0 0 0 0 0 0 0 0 0
0 0 0 0 0 0 0 0 0
0 0 0 0 0 0 0 0 0
0 0 0 0 0 0 0 0 0
0 0 0 0 0 0 0 0 0
0 0 0 0 0 0 0 0 0
0 0 0 0 0 0 0 0 0
0 0 0 0 0 0 0 0 0
0 0 0 0 0 0 0 0 0
0 0 0 0 0 0 0 0 0
0 0 0 0 0 0 0 0 0
0 0 0 0 0 0 0 0 0
0 0 0 0 0 0 0 0 0
0 0 0 0 0 0 0 0 0
0 0 0 0 0 0 0 0 0
0 0 0 0 0 0 0 0 0
0 0 0 0 0 0 0 0 0
0 0 0 0 0 0 0 0 0
0 0 0 0 0 0 0 0 0
0 0 0 0 0 0 0 0 0
0 0 0 0 0 0 0 0 0
0 0 0 0 0 0 0 0 0
0 0 0 0 0 0 0 0 0
0 0 0 0 0 0 0 0 0
0 0 0 0 0 0 0 0 0
0 0 0 0 0 0 0 0 0
0 0 0 0 0 0 0 0 0
0 0 0 0 0 0 0 0 0
0 0 0 0 0 0 0 0 0
0 0 0 0 0 0 0 0 0
0 0 0 0 0 0 0 0 0
0 0 0 0 0 0 0 0 0
0 0 0 0 0 0 0 0 0
0 0 0 0 0 0 0 0 0
0 0 0 0 0 0 0 0 0
0 0 0 0 0 0 0 0 0
0 0 0 0 0 0 0 0 0
0 0 0 0 0 0 0 0 0
0 0 0 0 0 0 0 0 0
0 0 0 0 0 0 0 0 0
0 0 0 0 0 0 0 0 0
0 0 0 0 0 0 0 0 0
0 0 0 0 0 0 0 0 0
0 0 0 0 0 0 0 0 0
0 0 0 0 0 0 0 0 0
0 0 0 0 0 0 0 0 0
0 0 0 0 0 0 0 0 0
0 0 0 0 0 0 0 0 0
0 0 0 0 0 0 0 0 0
0 0 0 0 0 0 0 0 0
0 0 0 0 0 0 0 0 0
0 0 0 0 0 0 0 0 0
0 0 0 0 0 0 0 0 0
0 0 0 0 0 0 0 0 0
0 0 0 0 0 0 0 0 0
0 0 0 0 0 0 0 0 0
0 0 0 0 0 0 0 0 0
0 0 0 0 0 0 0 0 0
0 0 0 0 0 0 0 0 0
0 0 0 0 0 0 0 0 0
0 0 0 0 0 0 0 0 0
0 0 0 0 0 0 0 0 0
0 0 0 0 0 0 0 0 0
0 0 0 0 0 0 0 0 0
0 0 0 0 0 0 0 0 0
0 0 0 0 0 0 0 0 0
0 0 0 0 0 0 0 0 0
0 0 0 0 0 0 0 0 0
0 0 0 0 0 0 0 0 0
0 0 0 0 0 0 0 0 0
0 0 0 0 0 0 0 0 0
0 0 0 0 0 0 0 0 0
0 0 0 0 0 0 0 0 0
0 0 0 0 0 0 0 0 0
0 0 0 0 0 0 0 0 0
0 0 0 0 0 0 0 0 0
0 0 0 0 0 0 0 0 0
0 0 0 0 0 0 0 0 0
0 0 0 0 0 0 0 0 0
0 0 0 0 0 0 0 0 0
0 0 0 0 0 0 0 0 0
0 0 0 0 0 0 0 0 0
0 0 0 0 0 0 0 0 0
SCALARS Dshear double 9
LOOKUP_TABLE default
0 0 0 0 0 0 0 0 0
0 0 0 0 0 0 0 0 0
0 0 0 0 0 0 0 0 0
0 0 0 0 0 0 0 0 0
0 0 0 0 0 0 0 0 0
0 0 0 0 0 0 0 0 0
0 0 0 0 0 0 0 0 0
0 0 0 0 0 0 0 0 0
0 0 0 0 0 0 0 0 0
0 0 0 0 0 0 0 0 0
0 0 0 0 0 0 0 0 0
0 0 0 0 0 0 0 0 0
0 0 0 0 0 0 0 0 0
0 0 0 0 0 0 0 0 0
0 0 0 0 0 0 0 0 0
0 0 0 0 0 0 0 0 0
0 0 0 0 0 0 0 0 0
0 0 0 0 0 0 0 0 0
0 0 0 0 0 0 0 0 0
0 0 0 0 0 0 0 0 0
0 0 0 0 0 0 0 0 0
0 0 0 0 0 0 0 0 0
0 0 0 0 0 0 0 0 0
0 0 0 0 0 0 0 0 0
0 0 0 0 0 0 0 0 0
0 0 0 0 0 0 0 0 0
0 0 0 0 0 0 0 0 0
0 0 0 0 0 0 0 0 0
0 0 0 0 0 0 0 0 0
0 0 0 0 0 0 0 0 0
0 0 0 0 0 0 0 0 0
0 0 0 0 0 0 0 0 0
0 0 0 0 0 0 0 0 0
0 0 0 0 0 0 0 0 0
0 0 0 0 0 0 0 0 0
0 0 0 0 0 0 0 0 0
0 0 0 0 0 0 0 0 0
0 0 0 0 0 0 0 0 0
0 0 0 0 0 0 0 0 0
0 0 0 0 0 0 0 0 0
0 0 0 0 0 0 0 0 0
0 0 0 0 0 0 0 0 0
0 0 0 0 0 0 0 0 0
0 0 0 0 0 0 0 0 0
0 0 0 0 0 0 0 0 0
0 0 0 0 0 0 0 0 0
0 0 0 0 0 0 0 0 0
0 0 0 0 0 0 0 0 0
0 0 0 0 0 0 0 0 0
0 0 0 0 0 0 0 0 0
0 0 0 0 0 0 0 0 0
0 0 0 0 0 0 0 0 0
0 0 0 0 0 0 0 0 0
0 0 0 0 0 0 0 0 0
0 0 0 0 0 0 0 0 0
0 0 0 0 0 0 0 0 0
0 0 0 0 0 0 0 0 0
0 0 0 0 0 0 0 0 0
0 0 0 0 0 0 0 0 0
0 0 0 0 0 0 0 0 0
0 0 0 0 0 0 0 0 0
0 0 0 0 0 0 0 0 0
0 0 0 0 0 0 0 0 0
0 0 0 0 0 0 0 0 0
0 0 0 0 0 0 0 0 0
0 0 0 0 0 0 0 0 0
0 0 0 0 0 0 0 0 0
0 0 0 0 0 0 0 0 0
0 0 0 0 0 0 0 0 0
0 0 0 0 0 0 0 0 0
0 0 0 0 0 0 0 0 0
0 0 0 0 0 0 0 0 0
0 0 0 0 0 0 0 0 0
0 0 0 0 0 0 0 0 0
0 0 0 0 0 0 0 0 0
0 0 0 0 0 0 0 0 0
0 0 0 0 0 0 0 0 0
0 0 0 0 0 0 0 0 0
0 0 0 0 0 0 0 0 0
0 0 0 0 0 0 0 0 0
0 0 0 0 0 0 0 0 0
0 0 0 0 0 0 0 0 0
0 0 0 0 0 0 0 0 0
0 0 0 0 0 0 0 0 0
0 0 0 0 0 0 0 0 0
0 0 0 0 0 0 0 0 0
0 0 0 0 0 0 0 0 0
0 0 0 0 0 0 0 0 0
0 0 0 0 0 0 0 0 0
0 0 0 0 0 0 0 0 0
0 0 0 0 0 0 0 0 0
0 0 0 0 0 0 0 0 0
0 0 0 0 0 0 0 0 0
0 0 0 0 0 0 0 0 0
0 0 0 0 0 0 0 0 0
0 0 0 0 0 0 0 0 0
0 0 0 0 0 0 0 0 0
0 0 0 0 0 0 0 0 0
0 0 0 0 0 0 0 0 0
0 0 0 0 0 0 0 0 0
0 0 0 0 0 0 0 0 0
0 0 0 0 0 0 0 0 0
0 0 0 0 0 0 0 0 0
0 0 0 0 0 0 0 0 0
0 0 0 0 0 0 0 0 0
0 0 0 0 0 0 0 0 0
0 0 0 0 0 0 0 0 0
0 0 0 0 0 0 0 0 0
0 0 0 0 0 0 0 0 0
0 0 0 0 0 0 0 0 0
0 0 0 0 0 0 0 0 0
0 0 0 0 0 0 0 0 0
0 0 0 0 0 0 0 0 0
0 0 0 0 0 0 0 0 0
0 0 0 0 0 0 0 0 0
0 0 0 0 0 0 0 0 0
0 0 0 0 0 0 0 0 0
0 0 0 0 0 0 0 0 0
0 0 0 0 0 0 0 0 0
0 0 0 0 0 0 0 0 0
0 0 0 0 0 0 0 0 0
0 0 0 0 0 0 0 0 0
0 0 0 0 0 0 0 0 0
0 0 0 0 0 0 0 0 0
0 0 0 0 0 0 0 0 0
0 0 0 0 0 0 0 0 0
0 0 0 0 0 0 0 0 0
0 0 0 0 0 0 0 0 0
0 0 0 0 0 0 0 0 0
0 0 0 0 0 0 0 0 0
0 0 0 0 0 0 0 0 0
0 0 0 0 0 0 0 0 0
0 0 0 0 0 0 0 0 0
0 0 0 0 0 0 0 0 0
0 0 0 0 0 0 0 0 0
0 0 0 0 0 0 0 0 0
0 0 0 0 0 0 0 0 0
0 0 0 0 0 0 0 0 0
0 0 0 0 0 0 0 0 0
0 0 0 0 0 0 0 0 0
0 0 0 0 0 0 0 0 0
0 0 0 0 0 0 0 0 0
0 0 0 0 0 0 0 0 0
0 0 0 0 0 0 0 0 0
0 0 0 0 0 0 0 0 0
0 0 0 0 0 0 0 0 0
0 0 0 0 0 0 0 0 0
0 0 0 0 0 0 0 0 0
0 0 0 0 0 0 0 0 0
0 0 0 0 0 0 0 0 0
6.02396e-07 6.24588e-07 5.97103e-07 6.18939e-07 6.02396e-07 6.24588e-07 5.97103e-07 6.18939e-07 0
6.41131e-07 6.64173e-07 6.35218e-07 6.57887e-07 6.41131e-07 6.64173e-07 6.35218e-07 6.57887e-07 0
6.81226e-07 7.04807e-07 6.74661e-07 6.97845e-07 6.81226e-07 7.04807e-07 6.74661e-07 6.97845e-07 0
5.73642e-07 5.95682e-07 5.68567e-07 5.90259e-07 5.73642e-07 5.95682e-07 5.68567e-07 5.90259e-07 0
6.12099e-07 6.34939e-07 6.06412e-07 6.28872e-07 6.12099e-07 6.34939e-07 6.06412e-07 6.28872e-07 0
6.51969e-07 6.75699e-07 6.45618e-07 6.68943e-07 6.51969e-07 6.75699e-07 6.45618e-07 6.68943e-07 0
6.93266e-07 7.17567e-07 6.86209e-07 7.10089e-07 6.93266e-07 7.17567e-07 6.86209e-07 7.10089e-07 0
5.82943e-07 6.05615e-07 5.77491e-07 5.99793e-07 5.82943e-07 6.05615e-07 5.77491e-07 5.99793e-07 0
6.22514e-07 6.46044e-07 6.16411e-07 6.39537e-07 6.22514e-07 6.46044e-07 6.16411e-07 6.39537e-07 0
6.63598e-07 6.8807e-07 6.56784e-07 6.80821e-07 6.63598e-07 6.8807e-07 6.56784e-07 6.80821e-07 0
7.06194e-07 7.31276e-07 6.98618e-07 7.23242e-07 7.06194e-07 7.31276e-07 6.98618e-07 7.23242e-07 0
5.53859e-07 5.76196e-07 5.48637e-07 5.7063e-07 5.53859e-07 5.76196e-07 5.48637e-07 5.7063e-07 0
5.92907e-07 6.16251e-07 5.87071e-07 6.10021e-07 5.92907e-07 6.16251e-07 5.87071e-07 6.10021e-07 0
6.33667e-07 6.57938e-07 6.27135e-07 6.50972e-07 6.33667e-07 6.57938e-07 6.27135e-07 6.50972e-07 0
6.76055e-07 7.0133e-07 6.68758e-07 6.93563e-07 6.76055e-07 7.0133e-07 6.68758e-07 6.93563e-07 0
7.20055e-07 7.45986e-07 7.11935e-07 7.37368e-07 7.20055e-07 7.45986e-07 7.11935e-07 7.37368e-07 0
7.6595e-07 7.94733e-07 7.56982e-07 7.85298e-07 7.6595e-07 7.94733e-07 7.56982e-07 7.85298e-07 0
5.634e-07 5.86363e-07 5.57812e-07 5.80409e-07 5.634e-07 5.86363e-07 5.57812e-07 5.80409e-07 0
6.0356e-07 6.27615e-07 5.97322e-07 6.20962e-07 6.0356e-07 6.27615e-07 5.97322e-07 6.20962e-07 0
6.45581e-07 6.70649e-07 6.38606e-07 6.63208e-07 6.45581e-07 6.70649e-07 6.38606e-07 6.63208e-07 0
6.89374e-07 7.15521e-07 6.81576e-07 7.0721e-07 6.89374e-07 7.15521e-07 6.81576e-07 7.0721e-07 0
7.34904e-07 7.61764e-07 7.26206e-07 7.5252e-07 7.34904e-07 7.61764e-07 7.26206e-07 7.5252e-07 0
7.82385e-07 8.12056e-07 7.72754e-07 8.019e-07 7.82385e-07 8.12056e-07 7.72754e-07 8.019e-07 0
5.73576e-07 5.97196e-07 5.67621e-07 5.90857e-07 5.73576e-07 5.97196e-07 5.67621e-07 5.90857e-07 0
6.14909e-07 6.39717e-07 6.08269e-07 6.32637e-07 6.14909e-07 6.39717e-07 6.08269e-07 6.32637e-07 0
6.58271e-07 6.84197e-07 6.50847e-07 6.7627e-07 6.58271e-07 6.84197e-07 6.50847e-07 6.7627e-07 0
7.03581e-07 7.30679e-07 6.95267e-07 7.21806e-07 7.03581e-07 7.30679e-07 6.95267e-07 7.21806e-07 0
7.50783e-07 7.78673e-07 7.41485e-07 7.68768e-07 7.50783e-07 7.78673e-07 7.41485e-07 7.68768e-07 0
8.00022e-07 8.30676e-07 7.89688e-07 8.19763e-07 8.00022e-07 8.30676e-07 7.89688e-07 8.19763e-07 0
5.43968e-07 5.67034e-07 5.38282e-07 5.61002e-07 5.43968e-07 5.67034e-07 5.38282e-07 5.61002e-07 0
5.84368e-07 6.08688e-07 5.7806e-07 6.0197e-07 5.84368e-07 6.08688e-07 5.7806e-07 6.0197e-07 0
6.26949e-07 6.52555e-07 6.1991e-07 6.4505e-07 6.26949e-07 6.52555e-07 6.1991e-07 6.4505e-07 0
6.71737e-07 6.98586e-07 6.63864e-07 6.90172e-07 6.71737e-07 6.98586e-07 6.63864e-07 6.90172e-07 0
7.18686e-07 7.46824e-07 7.09852e-07 7.37379e-07 7.18686e-07 7.46824e-07 7.09852e-07 7.37379e-07 0
7.67726e-07 7.96764e-07 7.57811e-07 7.8617e-07 7.67726e-07 7.96764e-07 7.57811e-07 7.8617e-07 0
8.18933e-07 8.50703e-07 8.07854e-07 8.38962e-07 8.18933e-07 8.50703e-07 8.07854e-07 8.38962e-07 0
5.54247e-07 5.77943e-07 5.48243e-07 5.7157e-07 5.54247e-07 5.77943e-07 5.48243e-07 5.7157e-07 0
5.95773e-07 6.20822e-07 5.8911e-07 6.13736e-07 5.95773e-07 6.20822e-07 5.8911e-07 6.13736e-07 0
6.39657e-07 6.66108e-07 6.32236e-07 6.58193e-07 6.39657e-07 6.66108e-07 6.32236e-07 6.58193e-07 0
6.85961e-07 7.13801e-07 6.77653e-07 7.04913e-07 6.85961e-07 7.13801e-07 6.77653e-07 7.04913e-07 0
7.34678e-07 7.63958e-07 7.25333e-07 7.53942e-07 7.34678e-07 7.63958e-07 7.25333e-07 7.53942e-07 0
7.85744e-07 8.16066e-07 7.75206e-07 8.0477e-07 7.85744e-07 8.16066e-07 7.75206e-07 8.0477e-07 0
8.39163e-07 8.7221e-07 8.27318e-07 8.59607e-07 8.39163e-07 8.7221e-07 8.27318e-07 8.59607e-07 0
5.65024e-07 5.8938e-07 5.58741e-07 5.82712e-07 5.65024e-07 5.8938e-07 5.58741e-07 5.82712e-07 0
6.07729e-07 6.33541e-07 6.00758e-07 6.26125e-07 6.07729e-07 6.33541e-07 6.00758e-07 6.26125e-07 0
6.52981e-07 6.80327e-07 6.45211e-07 6.72035e-07 6.52981e-07 6.80327e-07 6.45211e-07 6.72035e-07 0
7.00893e-07 7.29797e-07 6.92183e-07 7.20464e-07 7.00893e-07 7.29797e-07 6.92183e-07 7.20464e-07 0
7.51516e-07 7.82044e-07 7.41689e-07 7.71483e-07 7.51516e-07 7.82044e-07 7.41689e-07 7.71483e-07 0
8.04811e-07 8.36578e-07 7.93671e-07 8.24584e-07 8.04811e-07 8.36578e-07 7.93671e-07 8.24584e-07 0
8.60731e-07 8.95249e-07 8.48111e-07 8.81756e-07 8.60731e-07 8.95249e-07 8.48111e-07 8.81756e-07 0
5.34813e-07 5.58401e-07 5.2893e-07 5.52178e-07 5.34813e-07 5.58401e-07 5.2893e-07 5.52178e-07 0
5.76193e-07 6.01243e-07 5.69697e-07 5.94342e-07 5.76193e-07 6.01243e-07 5.69697e-07 5.94342e-07 0
6.20138e-07 6.4675e-07 6.12919e-07 6.39064e-07 6.20138e-07 6.4675e-07 6.12919e-07 6.39064e-07 0
6.66826e-07 6.95116e-07 6.58768e-07 6.86507e-07 6.66826e-07 6.95116e-07 6.58768e-07 6.86507e-07 0
7.16439e-07 7.46478e-07 7.07387e-07 7.36762e-07 7.16439e-07 7.46478e-07 7.07387e-07 7.36762e-07 0
7.69106e-07 8.00998e-07 7.58857e-07 7.89947e-07 7.69106e-07 8.00998e-07 7.58857e-07 7.89947e-07 0
8.24853e-07 8.58249e-07 8.1316e-07 8.45593e-07 8.24853e-07 8.58249e-07 8.1316e-07 8.45593e-07 0
8.83609e-07 9.19839e-07 8.70237e-07 9.05448e-07 8.83609e-07 9.19839e-07 8.70237e-07 9.05448e-07 0
5.45123e-07 5.69324e-07 5.39149e-07 5.62992e-07 5.45123e-07 5.69324e-07 5.39149e-07 5.62992e-07 0
5.87605e-07 6.13377e-07 5.80988e-07 6.0634e-07 5.87605e-07 6.13377e-07 5.80988e-07 6.0634e-07 0
6.32844e-07 6.60295e-07 6.25473e-07 6.52435e-07 6.32844e-07 6.60295e-07 6.25473e-07 6.52435e-07 0
6.81041e-07 7.10323e-07 6.7279e-07 7.01492e-07 6.81041e-07 7.10323e-07 6.7279e-07 7.01492e-07 0
7.32448e-07 7.6369e-07 7.23149e-07 7.53687e-07 7.32448e-07 7.6369e-07 7.23149e-07 7.53687e-07 0
7.87293e-07 8.20656e-07 7.76719e-07 8.0922e-07 7.87293e-07 8.20656e-07 7.76719e-07 8.0922e-07 0
8.45711e-07 8.80934e-07 8.33568e-07 8.67711e-07 8.45711e-07 8.80934e-07 8.33568e-07 8.67711e-07 0
9.07685e-07 9.45929e-07 8.93637e-07 9.30679e-07 9.07685e-07 9.45929e-07 8.93637e-07 9.30679e-07 0
5.55342e-07 5.80182e-07 5.49459e-07 5.73927e-07 5.55342e-07 5.80182e-07 5.49459e-07 5.73927e-07 0
5.98973e-07 6.25503e-07 5.9242e-07 6.18508e-07 5.98973e-07 6.25503e-07 5.9242e-07 6.18508e-07 0
6.45569e-07 6.73903e-07 6.38224e-07 6.66044e-07 6.45569e-07 6.73903e-07 6.38224e-07 6.66044e-07 0
6.95351e-07 7.25674e-07 6.87082e-07 7.16798e-07 6.95351e-07 7.25674e-07 6.87082e-07 7.16798e-07 0
7.48643e-07 7.81156e-07 7.39274e-07 7.71044e-07 7.48643e-07 7.81156e-07 7.39274e-07 7.71044e-07 0
8.05801e-07 8.40756e-07 7.95078e-07 8.29098e-07 8.05801e-07 8.40756e-07 7.95078e-07 8.29098e-07 0
8.67134e-07 9.04401e-07 8.54697e-07 8.90757e-07 8.67134e-07 9.04401e-07 8.54697e-07 8.90757e-07 0
9.32743e-07 9.73347e-07 9.18155e-07 9.57354e-07 9.32743e-07 9.73347e-07 9.18155e-07 9.57354e-07 0
0 0 0 0 0 0 0 0 0
0 0 0 0 0 0 0 0 0
0 0 0 0 0 0 0 0 0
0 0 0 0 0 0 0 0 0
0 0 0 0 0 0 0 0 0
0 0 0 0 0 0 0 0 0
0 0 0 0 0 0 0 0 0
0 0 0 0 0 0 0 0 0
0 0 0 0 0 0 0 0 0
0 0 0 0 0 0 0 0 0
0 0 0 0 0 0 0 0 0
0 0 0 0 0 0 0 0 0
0 0 0 0 0 0 0 0 0
0 0 0 0 0 0 0 0 0
0 0 0 0 0 0 0 0 0
0 0 0 0 0 0 0 0 0
0 0 0 0 0 0 0 0 0
0 0 0 0 0 0 0 0 0
0 0 0 0 0 0 0 0 0
0 0 0 0 0 0 0 0 0
0 0 0 0 0 0 0 0 0
0 0 0 0 0 0 0 0 0
0 0 0 0 0 0 0 0 0
0 0 0 0 0 0 0 0 0
0 0 0 0 0 0 0 0 0
0 0 0 0 0 0 0 0 0
0 0 0 0 0 0 0 0 0
0 0 0 0 0 0 0 0 0
0 0 0 0 0 0 0 0 0
0 0 0 0 0 0 0 0 0
0 0 0 0 0 0 0 0 0
0 0 0 0 0 0 0 0 0
0 0 0 0 0 0 0 0 0
0 0 0 0 0 0 0 0 0
0 0 0 0 0 0 0 0 0
0 0 0 0 0 0 0 0 0
0 0 0 0 0 0 0 0 0
0 0 0 0 0 0 0 0 0
0 0 0 0 0 0 0 0 0
0 0 0 0 0 0 0 0 0
0 0 0 0 0 0 0 0 0
0 0 0 0 0 0 0 0 0
0 0 0 0 0 0 0 0 0
0 0 0 0 0 0 0 0 0
0 0 0 0 0 0 0 0 0
0 0 0 0 0 0 0 0 0
0 0 0 0 0 0 0 0 0
0 0 0 0 0 0 0 0 0
0 0 0 0 0 0 0 0 0
0 0 0 0 0 0 0 0 0
0 0 0 0 0 0 0 0 0
0 0 0 0 0 0 0 0 0
0 0 0 0 0 0 0 0 0
0 0 0 0 0 0 0 0 0
0 0 0 0 0 0 0 0 0
0 0 0 0 0 0 0 0 0
0 0 0 0 0 0 0 0 0
0 0 0 0 0 0 0 0 0
0 0 0 0 0 0 0 0 0
0 0 0 0 0 0 0 0 0
0 0 0 0 0 0 0 0 0
0 0 0 0 0 0 0 0 0
0 0 0 0 0 0 0 0 0
0 0 0 0 0 0 0 0 0
0 0 0 0 0 0 0 0 0
0 0 0 0 0 0 0 0 0
0 0 0 0 0 0 0 0 0
0 0 0 0 0 0 0 0 0
0 0 0 0 0 0 0 0 0
0 0 0 0 0 0 0 0 0
0 0 0 0 0 0 0 0 0
0 0 0 0 0 0 0 0 0
0 0 0 0 0 0 0 0 0
0 0 0 0 0 0 0 0 0
0 0 0 0 0 0 0 0 0
0 0 0 0 0 0 0 0 0
0 0 0 0 0 0 0 0 0
0 0 0 0 0 0 0 0 0
0 0 0 0 0 0 0 0 0
0 0 0 0 0 0 0 0 0
0 0 0 0 0 0 0 0 0
0 0 0 0 0 0 0 0 0
0 0 0 0 0 0 0 0 0
0 0 0 0 0 0 0 0 0
0 0 0 0 0 0 0 0 0
0 0 0 0 0 0 0 0 0
0 0 0 0 0 0 0 0 0
0 0 0 0 0 0 0 0 0
0 0 0 0 0 0 0 0 0
0 0 0 0 0 0 0 0 0
0 0 0 0 0 0 0 0 0
0 0 0 0 0 0 0 0 0
0 0 0 0 0 0 0 0 0
0 0 0 0 0 0 0 0 0
0 0 0 0 0 0 0 0 0
0 0 0 0 0 0 0 0 0
0 0 0 0 0 0 0 0 0
0 0 0 0 0 0 0 0 0
0 0 0 0 0 0 0 0 0
0 0 0 0 0 0 0 0 0
0 0 0 0 0 0 0 0 0
0 0 0 0 0 0 0 0 0
0 0 0 0 0 0 0 0 0
0 0 0 0 0 0 0 0 0
0 0 0 0 0 0 0 0 0
0 0 0 0 0 0 0 0 0
0 0 0 0 0 0 0 0 0
0 0 0 0 0 0 0 0 0
0 0 0 0 0 0 0 0 0
0 0 0 0 0 0 0 0 0
0 0 0 0 0 0 0 0 0
0 0 0 0 0 0 0 0 0
0 0 0 0 0 0 0 0 0
0 0 0 0 0 0 0 0 0
0 0 0 0 0 0 0 0 0
0 0 0 0 0 0 0 0 0
0 0 0 0 0 0 0 0 0
0 0 0 0 0 0 0 0 0
0 0 0 0 0 0 0 0 0
0 0 0 0 0 0 0 0 0
0 0 0 0 0 0 0 0 0
0 0 0 0 0 0 0 0 0
0 0 0 0 0 0 0 0 0
0 0 0 0 0 0 0 0 0
0 0 0 0 0 0 0 0 0
0 0 0 0 0 0 0 0 0
0 0 0 0 0 0 0 0 0
0 0 0 0 0 0 0 0 0
0 0 0 0 0 0 0 0 0
0 0 0 0 0 0 0 0 0
0 0 0 0 0 0 0 0 0
0 0 0 0 0 0 0 0 0
0 0 0 0 0 0 0 0 0
0 0 0 0 0 0 0 0 0
0 0 0 0 0 0 0 0 0
0 0 0 0 0 0 0 0 0
0 0 0 0 0 0 0 0 0
0 0 0 0 0 0 0 0 0
0 0 0 0 0 0 0 0 0
0 0 0 0 0 0 0 0 0
0 0 0 0 0 0 0 0 0
0 0 0 0 0 0 0 0 0
0 0 0 0 0 0 0 0 0
0 0 0 0 0 0 0 0 0
0 0 0 0 0 0 0 0 0
0 0 0 0 0 0 0 0 0
0 0 0 0 0 0 0 0 0
0 0 0 0 0 0 0 0 0
0 0 0 0 0 0 0 0 0
0 0 0 0 0 0 0 0 0
0 0 0 0 0 0 0 0 0
0 0 0 0 0 0 0 0 0
0 0 0 0 0 0 0 0 0
0 0 0 0 0 0 0 0 0
0 0 0 0 0 0 0 0 0
0 0 0 0 0 0 0 0 0
0 0 0 0 0 0 0 0 0
0 0 0 0 0 0 0 0 0
0 0 0 0 0 0 0 0 0
0 0 0 0 0 0 0 0 0
0 0 0 0 0 0 0 0 0
0 0 0 0 0 0 0 0 0
0 0 0 0 0 0 0 0 0
0 0 0 0 0 0 0 0 0
0 0 0 0 0 0 0 0 0
0 0 0 0 0 0 0 0 0
0 0 0 0 0 0 0 0 0
0 0 0 0 0 0 0 0 0
0 0 0 0 0 0 0 0 0
0 0 0 0 0 0 0 0 0
0 0 0 0 0 0 0 0 0
0 0 0 0 0 0 0 0 0
0 0 0 0 0 0 0 0 0
0 0 0 0 0 0 0 0 0
0 0 0 0 0 0 0 0 0
0 0 0 0 0 0 0 0 0
0 0 0 0 0 0 0 0 0
0 0 0 0 0 0 0 0 0
0 0 0 0 0 0 0 0 0
0 0 0 0 0 0 0 0 0
0 0 0 0 0 0 0 0 0
0 0 0 0 0 0 0 0 0
0 0 0 0 0 0 0 0 0
0 0 0 0 0 0 0 0 0
0 0 0 0 0 0 0 0 0
0 0 0 0 0 0 0 0 0
0 0 0 0 0 0 0 0 0
0 0 0 0 0 0 0 0 0
0 0 0 0 0 0 0 0 0
0 0 0 0 0 0 0 0 0
0 0 0 0 0 0 0 0 0
0 0 0 0 0 0 0 0 0
0 0 0 0 0 0 0 0 0
0 0 0 0 0 0 0 0 0
0 0 0 0 0 0 0 0 0
0 0 0 0 0 0 0 0 0
0 0 0 0 0 0 0 0 0
0 0 0 0 0 0 0 0 0
0 0 0 0 0 0 0 0 0
0 0 0 0 0 0 0 0 0
0 0 0 0 0 0 0 0 0
0 0 0 0 0 0 0 0 0
0 0 0 0 0 0 0 0 0
0 0 0 0 0 0 0 0 0
0 0 0 0 0 0 0 0 0
0 0 0 0 0 0 0 0 0
0 0 0 0 0 0 0 0 0
0 0 0 0 0 0 0 0 0
0 0 0 0 0 0 0 0 0
0 0 0 0 0 0 0 0 0
0 0 0 0 0 0 0 0 0
0 0 0 0 0 0 0 0 0
0 0 0 0 0 0 0 0 0
0 0 0 0 0 0 0 0 0
0 0 0 0 0 0 0 0 0
0 0 0 0 0 0 0 0 0
0 0 0 0 0 0 0 0 0
0 0 0 0 0 0 0 0 0
0 0 0 0 0 0 0 0 0
0 0 0 0 0 0 0 0 0
0 0 0 0 0 0 0 0 0
0 0 0 0 0 0 0 0 0
0 0 0 0 0 0 0 0 0
0 0 0 0 0 0 0 0 0
0 0 0 0 0 0 0 0 0
0 0 0 0 0 0 0 0 0
0 0 0 0 0 0 0 0 0
0 0 0 0 0 0 0 0 0
0 0 0 0 0 0 0 0 0
0 0 0 0 0 0 0 0 0
0 0 0 0 0 0 0 0 0
0 0 0 0 0 0 0 0 0
0 0 0 0 0 0 0 0 0
0 0 0 0 0 0 0 0 0
0 0 0 0 0 0 0 0 0
0 0 0 0 0 0 0 0 0
0 0 0 0 0 0 0 0 0
0 0 0 0 0 0 0 0 0
0 0 0 0 0 0 0 0 0
0 0 0 0 0 0 0 0 0
0 0 0 0 0 0 0 0 0
0 0 0 0 0 0 0 0 0
0 0 0 0 0 0 0 0 0
0 0 0 0 0 0 0 0 0
0 0 0 0 0 0 0 0 0
0 0 0 0 0 0 0 0 0
0 0 0 0 0 0 0 0 0
0 0 0 0 0 0 0 0 0
0 0 0 0 0 0 0 0 0
0 0 0 0 0 0 0 0 0
0 0 0 0 0 0 0 0 0
0 0 0 0 0 0 0 0 0
0 0 0 0 0 0 0 0 0
0 0 0 0 0 0 0 0 0
0 0 0 0 0 0 0 0 0
0 0 0 0 0 0 0 0 0
0 0 0 0 0 0 0 0 0
0 0 0 0 0 0 0 0 0
0 0 0 0 0 0 0 0 0
0 0 0 0 0 0 0 0 0
0 0 0 0 0 0 0 0 0
0 0 0 0 0 0 0 0 0
0 0 0 0 0 0 0 0 0
0 0 0 0 0 0 0 0 0
0 0 0 0 0 0 0 0 0
0 0 0 0 0 0 0 0 0
0 0 0 0 0 0 0 0 0
0 0 0 0 0 0 0 0 0
0 0 0 0 0 0 0 0 0
0 0 0 0 0 0 0 0 0
0 0 0 0 0 0 0 0 0
0 0 0 0 0 0 0 0 0
0 0 0 0 0 0 0 0 0
0 0 0 0 0 0 0 0 0
0 0 0 0 0 0 0 0 0
0 0 0 0 0 0 0 0 0
0 0 0 0 0 0 0 0 0
0 0 0 0 0 0 0 0 0
0 0 0 0 0 0 0 0 0
0 0 0 0 0 0 0 0 0
0 0 0 0 0 0 0 0 0
0 0 0 0 0 0 0 0 0
0 0 0 0 0 0 0 0 0
0 0 0 0 0 0 0 0 0
0 0 0 0 0 0 0 0 0
0 0 0 0 0 0 0 0 0
0 0 0 0 0 0 0 0 0
0 0 0 0 0 0 0 0 0
0 0 0 0 0 0 0 0 0
0 0 0 0 0 0 0 0 0
0 0 0 0 0 0 0 0 0
0 0 0 0 0 0 0 0 0
0 0 0 0 0 0 0 0 0
0 0 0 0 0 0 0 0 0
0 0 0 0 0 0 0 0 0
0 0 0 0 0 0 0 0 0
0 0 0 0 0 0 0 0 0
0 0 0 0 0 0 0 0 0
0 0 0 0 0 0 0 0 0
0 0 0 0 0 0 0 0 0
0 0 0 0 0 0 0 0 0
0 0 0 0 0 0 0 0 0
0 0 0 0 0 0 0 0 0
0 0 0 0 0 0 0 0 0
0 0 0 0 0 0 0 0 0
0 0 0 0 0 0 0 0 0
0 0 0 0 0 0 0 0 0
0 0 0 0 0 0 0 0 0
0 0 0 0 0 0 0 0 0
0 0 0 0 0 0 0 0 0
0 0 0 0 0 0 0 0 0
0 0 0 0 0 0 0 0 0
0 0 0 0 0 0 0 0 0
0 0 0 0 0 0 0 0 0
0 0 0 0 0 0 0 0 0
0 0 0 0 0 0 0 0 0
0 0 0 0 0 0 0 0 0
0 0 0 0 0 0 0 0 0
0 0 0 0 0 0 0 0 0
0 0 0 0 0 0 0 0 0
0 0 0 0 0 0 0 0 0
0 0 0 0 0 0 0 0 0
0 0 0 0 0 0 0 0 0
0 0 0 0 0 0 0 0 0
0 0 0 0 0 0 0 0 0
0 0 0 0 0 0 0 0 0
0 0 0 0 0 0 0 0 0
0 0 0 0 0 0 0 0 0
0 0 0 0 0 0 0 0 0
0 0 0 0 0 0 0 0 0
0 0 0 0 0 0 0 0 0
0 0 0 0 0 0 0 0 0
0 0 0 0 0 0 0 0 0
0 0 0 0 0 0 0 0 0
0 0 0 0 0 0 0 0 0
0 0 0 0 0 0 0 0 0
0 0 0 0 0 0 0 0 0
0 0 0 0 0 0 0 0 0
0 0 0 0 0 0 0 0 0
0 0 0 0 0 0 0 0 0
0 0 0 0 0 0 0 0 0
0 0 0 0 0 0 0 0 0
0 0 0 0 0 0 0 0 0
0 0 0 0 0 0 0 0 0
0 0 0 0 0 0 0 0 0
0 0 0 0 0 0 0 0 0
0 0 0 0 0 0 0 0 0
0 0 0 0 0 0 0 0 0
0 0 0 0 0 0 0 0 0
0 0 0 0 0 0 0 0 0
0 0 0 0 0 0 0 0 0
0 0 0 0 0 0 0 0 0
0 0 0 0 0 0 0 0 0
0 0 0 0 0 0 0 0 0
0 0 0 0 0 0 0 0 0
0 0 0 0 0 0 0 0 0
0 0 0 0 0 0 0 0 0
0 0 0 0 0 0 0 0 0
0 0 0 0 0 0 0 0 0
0 0 0 0 0 0 0 0 0
0 0 0 0 0 0 0 0 0
0 0 0 0 0 0 0 0 0
0 0 0 0 0 0 0 0 0
0 0 0 0 0 0 0 0 0
0 0 0 0 0 0 0 0 0
0 0 0 0 0 0 0 0 0
0 0 0 0 0 0 0 0 0
0 0 0 0 0 0 0 0 0
0 0 0 0 0 0 0 0 0
0 0 0 0 0 0 0 0 0
0 0 0 0 0 0 0 0 0
0 0 0 0 0 0 0 0 0
0 0 0 0 0 0 0 0 0
0 0 0 0 0 0 0 0 0
0 0 0 0 0 0 0 0 0
0 0 0 0 0 0 0 0 0
0 0 0 0 0 0 0 0 0
0 0 0 0 0 0 0 0 0
0 0 0 0 0 0 0 0 0
0 0 0 0 0 0 0 0 0
0 0 0 0 0 0 0 0 0
0 0 0 0 0 0 0 0 0
0 0 0 0 0 0 0 0 0
0 0 0 0 0 0 0 0 0
0 0 0 0 0 0 0 0 0
0 0 0 0 0 0 0 0 0
0 0 0 0 0 0 0 0 0
0 0 0 0 0 0 0 0 0
0 0 0 0 0 0 0 0 0
0 0 0 0 0 0 0 0 0
0 0 0 0 0 0 0 0 0
0 0 0 0 0 0 0 0 0
0 0 0 0 0 0 0 0 0
0 0 0 0 0 0 0 0 0
0 0 0 0 0 0 0 0 0
0 0 0 0 0 0 0 0 0
0 0 0 0 0 0 0 0 0
0 0 0 0 0 0 0 0 0
0 0 0 0 0 0 0 0 0
0 0 0 0 0 0 0 0 0
0 0 0 0 0 0 0 0 0
0 0 0 0 0 0 0 0 0
0 0 0 0 0 0 0 0 0
0 0 0 0 0 0 0 0 0
0 0 0 0 0 0 0 0 0
0 0 0 0 0 0 0 0 0
0 0 0 0 0 0 0 0 0
0 0 0 0 0 0 0 0 0
0 0 0 0 0 0 0 0 0
0 0 0 0 0 0 0 0 0
0 0 0 0 0 0 0 0 0
0 0 0 0 0 0 0 0 0
0 0 0 0 0 0 0 0 0
0 0 0 0 0 0 0 0 0
0 0 0 0 0 0 0 0 0
0 0 0 0 0 0 0 0 0
0 0 0 0 0 0 0 0 0
0 0 0 0 0 0 0 0 0
0 0 0 0 0 0 0 0 0
0 0 0 0 0 0 0 0 0
0 0 0 0 0 0 0 0 0
0 0 0 0 0 0 0 0 0
0 0 0 0 0 0 0 0 0
0 0 0 0 0 0 0 0 0
0 0 0 0 0 0 0 0 0
0 0 0 0 0 0 0 0 0
0 0 0 0 0 0 0 0 0
0 0 0 0 0 0 0 0 0
0 0 0 0 0 0 0 0 0
0 0 0 0 0 0 0 0 0
0 0 0 0 0 0 0 0 0
0 0 0 0 0 0 0 0 0
0 0 0 0 0 0 0 0 0
0 0 0 0 0 0 0 0 0
0 0 0 0 0 0 0 0 0
0 0 0 0 0 0 0 0 0
0 0 0 0 0 0 0 0 0
0 0 0 0 0 0 0 0 0
0 0 0 0 0 0 0 0 0
0 0 0 0 0 0 0 0 0
0 0 0 0 0 0 0 0 0
0 0 0 0 0 0 0 0 0
0 0 0 0 0 0 0 0 0
0 0 0 0 0 0 0 0 0
0 0 0 0 0 0 0 0 0
0 0 0 0 0 0 0 0 0
0 0 0 0 0 0 0 0 0
0 0 0 0 0 0 0 0 0
0 0 0 0 0 0 0 0 0
0 0 0 0 0 0 0 0 0
0 0 0 0 0 0 0 0 0
0 0 0 0 0 0 0 0 0
0 0 0 0 0 0 0 0 0
0 0 0 0 0 0 0 0 0
0 0 0 0 0 0 0 0 0
0 0 0 0 0 0 0 0 0
0 0 0 0 0 0 0 0 0
0 0 0 0 0 0 0 0 0
0 0 0 0 0 0 0 0 0
0 0 0 0 0 0 0 0 0
0 0 0 0 0 0 0 0 0
0 0 0 0 0 0 0 0 0
0 0 0 0 0 0 0 0 0
0 0 0 0 0 0 0 0 0
0 0 0 0 0 0 0 0 0
0 0 0 0 0 0 0 0 0
0 0 0 0 0 0 0 0 0
0 0 0 0 0 0 0 0 0
0 0 0 0 0 0 0 0 0
0 0 0 0 0 0 0 0 0
0 0 0 0 0 0 0 0 0
0 0 0 0 0 0 0 0 0
0 0 0 0 0 0 0 0 0
0 0 0 0 0 0 0 0 0
0 0 0 0 0 0 0 0 0
0 0 0 0 0 0 0 0 0
0 0 0 0 0 0 0 0 0
0 0 0 0 0 0 0 0 0
0 0 0 0 0 0 0 0 0
0 0 0 0 0 0 0 0 0
0 0 0 0 0 0 0 0 0
0 0 0 0 0 0 0 0 0
0 0 0 0 0 0 0 0 0
0 0 0 0 0 0 0 0 0
0 0 0 0 0 0 0 0 0
0 0 0 0 0 0 0 0 0
0 0 0 0 0 0 0 0 0
0 0 0 0 0 0 0 0 0
0 0 0 0 0 0 0 0 0
0 0 0 0 0 0 0 0 0
0 0 0 0 0 0 0 0 0
0 0 0 0 0 0 0 0 0
0 0 0 0 0 0 0 0 0
0 0 0 0 0 0 0 0 0
0 0 0 0 0 0 0 0 0
0 0 0 0 0 0 0 0 0
0 0 0 0 0 0 0 0 0
0 0 0 0 0 0 0 0 0
0 0 0 0 0 0 0 0 0
0 0 0 0 0 0 0 0 0
0 0 0 0 0 0 0 0 0
0 0 0 0 0 0 0 0 0
0 0 0 0 0 0 0 0 0
0 0 0 0 0 0 0 0 0
0 0 0 0 0 0 0 0 0
0 0 0 0 0 0 0 0 0
0 0 0 0 0 0 0 0 0
0 0 0 0 0 0 0 0 0
0 0 0 0 0 0 0 0 0
0 0 0 0 0 0 0 0 0
0 0 0 0 0 0 0 0 0
0 0 0 0 0 0 0 0 0
0 0 0 0 0 0 0 0 0
0 0 0 0 0 0 0 0 0
0 0 0 0 0 0 0 0 0
0 0 0 0 0 0 0 0 0
0 0 0 0 0 0 0 0 0
0 0 0 0 0 0 0 0 0
0 0 0 0 0 0 0 0 0
0 0 0 0 0 0 0 0 0
0 0 0 0 0 0 0 0 0
0 0 0 0 0 0 0 0 0
0 0 0 0 0 0 0 0 0
0 0 0 0 0 0 0 0 0
0 0 0 0 0 0 0 0 0
0 0 0 0 0 0 0 0 0
0 0 0 0 0 0 0 0 0
0 0 0 0 0 0 0 0 0
0 0 0 0 0 0 0 0 0
0 0 0 0 0 0 0 0 0
0 0 0 0 0 0 0 0 0
0 0 0 0 0 0 0 0 0
0 0 0 0 0 0 0 0 0
0 0 0 0 0 0 0 0 0
0 0 0 0 0 0 0 0 0
0 0 0 0 0 0 0 0 0
0 0 0 0 0 0 0 0 0
0 0 0 0 0 0 0 0 0
0 0 0 0 0 0 0 0 0
0 0 0 0 0 0 0 0 0
0 0 0 0 0 0 0 0 0
0 0 0 0 0 0 0 0 0
0 0 0 0 0 0 0 0 0
0 0 0 0 0 0 0 0 0
0 0 0 0 0 0 0 0 0
0 0 0 0 0 0 0 0 0
0 0 0 0 0 0 0 0 0
0 0 0 0 0 0 0 0 0
0 0 0 0 0 0 0 0 0
0 0 0 0 0 0 0 0 0
0 0 0 0 0 0 0 0 0
0 0 0 0 0 0 0 0 0
0 0 0 0 0 0 0 0 0
0 0 0 0 0 0 0 0 0
0 0 0 0 0 0 0 0 0
0 0 0 0 0 0 0 0 0
0 0 0 0 0 0 0 0 0
0 0 0 0 0 0 0 0 0
0 0 0 0 0 0 0 0 0
0 0 0 0 0 0 0 0 0
0 0 0 0 0 0 0 0 0
0 0 0 0 0 0 0 0 0
0 0 0 0 0 0 0 0 0
0 0 0 0 0 0 0 0 0
0 0 0 0 0 0 0 0 0
0 0 0 0 0 0 0 0 0
0 0 0 0 0 0 0 0 0
0 0 0 0 0 0 0 0 0
0 0 0 0 0 0 0 0 0
0 0 0 0 0 0 0 0 0
0 0 0 0 0 0 0 0 0
0 0 0 0 0 0 0 0 0
0 0 0 0 0 0 0 0 0
0 0 0 0 0 0 0 0 0
0 0 0 0 0 0 0 0 0
0 0 0 0 0 0 0 0 0
0 0 0 0 0 0 0 0 0
0 0 0 0 0 0 0 0 0
0 0 0 0 0 0 0 0 0
0 0 0 0 0 0 0 0 0
0 0 0 0 0 0 0 0 0
0 0 0 0 0 0 0 0 0
0 0 0 0 0 0 0 0 0
0 0 0 0 0 0 0 0 0
0 0 0 0 0 0 0 0 0
0 0 0 0 0 0 0 0 0
0 0 0 0 0 0 0 0 0
0 0 0 0 0 0 0 0 0
0 0 0 0 0 0 0 0 0
0 0 0 0 0 0 0 0 0
0 0 0 0 0 0 0 0 0
0 0 0 0 0 0 0 0 0
0 0 0 0 0 0 0 0 0
0 0 0 0 0 0 0 0 0
0 0 0 0 0 0 0 0 0
0 0 0 0 0 0 0 0 0
0 0 0 0 0 0 0 0 0
0 0 0 0 0 0 0 0 0
0 0 0 0 0 0 0 0 0
0 0 0 0 0 0 0 0 0
0 0 0 0 0 0 0 0 0
0 0 0 0 0 0 0 0 0
0 0 0 0 0 0 0 0 0
0 0 0 0 0 0 0 0 0
0 0 0 0 0 0 0 0 0
0 0 0 0 0 0 0 0 0
0 0 0 0 0 0 0 0 0
0 0 0 0 0 0 0 0 0
0 0 0 0 0 0 0 0 0
0 0 0 0 0 0 0 0 0
0 0 0 0 0 0 0 0 0
0 0 0 0 0 0 0 0 0
0 0 0 0 0 0 0 0 0
0 0 0 0 0 0 0 0 0
0 0 0 0 0 0 0 0 0
0 0 0 0 0 0 0 0 0
0 0 0 0 0 0 0 0 0
0 0 0 0 0 0 0 0 0
0 0 0 0 0 0 0 0 0
0 0 0 0 0 0 0 0 0
0 0 0 0 0 0 0 0 0
0 0 0 0 0 0 0 0 0
0 0 0 0 0 0 0 0 0
0 0 0 0 0 0 0 0 0
0 0 0 0 0 0 0 0 0
0 0 0 0 0 0 0 0 0
0 0 0 0 0 0 0 0 0
0 0 0 0 0 0 0 0 0
0 0 0 0 0 0 0 0 0
0 0 0 0 0 0 0 0 0
0 0 0 0 0 0 0 0 0
0 0 0 0 0 0 0 0 0
0 0 0 0 0 0 0 0 0
0 0 0 0 0 0 0 0 0
0 0 0 0 0 0 0 0 0
0 0 0 0 0 0 0 0 0
0 0 0 0 0 0 0 0 0
0 0 0 0 0 0 0 0 0
0 0 0 0 0 0 0 0 0
0 0 0 0 0 0 0 0 0
0 0 0 0 0 0 0 0 0
0 0 0 0 0 0 0 0 0
0 0 0 0 0 0 0 0 0
0 0 0 0 0 0 0 0 0
0 0 0 0 0 0 0 0 0
0 0 0 0 0 0 0 0 0
0 0 0 0 0 0 0 0 0
0 0 0 0 0 0 0 0 0
0 0 0 0 0 0 0 0 0
0 0 0 0 0 0 0 0 0
0 0 0 0 0 0 0 0 0
0 0 0 0 0 0 0 0 0
0 0 0 0 0 0 0 0 0
0 0 0 0 0 0 0 0 0
0 0 0 0 0 0 0 0 0
0 0 0 0 0 0 0 0 0
0 0 0 0 0 0 0 0 0
0 0 0 0 0 0 0 0 0
0 0 0 0 0 0 0 0 0
0 0 0 0 0 0 0 0 0
0 0 0 0 0 0 0 0 0
0 0 0 0 0 0 0 0 0
0 0 0 0 0 0 0 0 0
0 0 0 0 0 0 0 0 0
0 0 0 0 0 0 0 0 0
0 0 0 0 0 0 0 0 0
0 0 0 0 0 0 0 0 0
0 0 0 0 0 0 0 0 0
0 0 0 0 0 0 0 0 0
0 0 0 0 0 0 0 0 0
0 0 0 0 0 0 0 0 0
0 0 0 0 0 0 0 0 0
0 0 0 0 0 0 0 0 0
0 0 0 0 0 0 0 0 0
0 0 0 0 0 0 0 0 0
0 0 0 0 0 0 0 0 0
0 0 0 0 0 0 0 0 0
0 0 0 0 0 0 0 0 0
0 0 0 0 0 0 0 0 0
0 0 0 0 0 0 0 0 0
0 0 0 0 0 0 0 0 0
0 0 0 0 0 0 0 0 0
0 0 0 0 0 0 0 0 0
0 0 0 0 0 0 0 0 0
0 0 0 0 0 0 0 0 0
0 0 0 0 0 0 0 0 0
0 0 0 0 0 0 0 0 0
0 0 0 0 0 0 0 0 0
0 0 0 0 0 0 0 0 0
0 0 0 0 0 0 0 0 0
0 0 0 0 0 0 0 0 0
0 0 0 0 0 0 0 0 0
0 0 0 0 0 0 0 0 0
1.08153e-06 1.12024e-06 1.07188e-06 1.10987e-06 1.08153e-06 1.12024e-06 1.07188e-06 1.10987e-06 0
1.14874e-06 1.18794e-06 1.13784e-06 1.1763e-06 1.14874e-06 1.18794e-06 1.13784e-06 1.1763e-06 0
1.21618e-06 1.25415e-06 1.20397e-06 1.24114e-06 1.21618e-06 1.25415e-06 1.20397e-06 1.24114e-06 0
1.28231e-06 1.3214e-06 1.26874e-06 1.30708e-06 1.28231e-06 1.3214e-06 1.26874e-06 1.30708e-06 0
1.03106e-06 1.07024e-06 1.02191e-06 1.0604e-06 1.03106e-06 1.07024e-06 1.02191e-06 1.0604e-06 0
1.09921e-06 1.13921e-06 1.08885e-06 1.12809e-06 1.09921e-06 1.13921e-06 1.08885e-06 1.12809e-06 0
1.16869e-06 1.20926e-06 1.157e-06 1.19677e-06 1.16869e-06 1.20926e-06 1.157e-06 1.19677e-06 0
1.23854e-06 1.27797e-06 1.22544e-06 1.26401e-06 1.23854e-06 1.27797e-06 1.22544e-06 1.26401e-06 0
1.30717e-06 1.34761e-06 1.29261e-06 1.33225e-06 1.30717e-06 1.34761e-06 1.29261e-06 1.33225e-06 0
1.04784e-06 1.08826e-06 1.038e-06 1.0777e-06 1.04784e-06 1.08826e-06 1.038e-06 1.0777e-06 0
1.11819e-06 1.15956e-06 1.10707e-06 1.14764e-06 1.11819e-06 1.15956e-06 1.10707e-06 1.14764e-06 0
1.19007e-06 1.23211e-06 1.17755e-06 1.21873e-06 1.19007e-06 1.23211e-06 1.17755e-06 1.21873e-06 0
1.2625e-06 1.3035e-06 1.24847e-06 1.28855e-06 1.2625e-06 1.3035e-06 1.24847e-06 1.28855e-06 0
1.33381e-06 1.37574e-06 1.3182e-06 1.35926e-06 1.33381e-06 1.37574e-06 1.3182e-06 1.35926e-06 0
9.95597e-07 1.03587e-06 9.86214e-07 1.02582e-06 9.95597e-07 1.03587e-06 9.86214e-07 1.02582e-06 0
1.06587e-06 1.1076e-06 1.0553e-06 1.09627e-06 1.06587e-06 1.1076e-06 1.0553e-06 1.09627e-06 0
1.13853e-06 1.18135e-06 1.12661e-06 1.16859e-06 1.13853e-06 1.18135e-06 1.12661e-06 1.16859e-06 0
1.21297e-06 1.25658e-06 1.19956e-06 1.24225e-06 1.21297e-06 1.25658e-06 1.19956e-06 1.24225e-06 0
1.28816e-06 1.33086e-06 1.27313e-06 1.31484e-06 1.28816e-06 1.33086e-06 1.27313e-06 1.31484e-06 0
1.36238e-06 1.40593e-06 1.34565e-06 1.38824e-06 1.36238e-06 1.40593e-06 1.34565e-06 1.38824e-06 0
1.01283e-06 1.05429e-06 1.00272e-06 1.04349e-06 1.01283e-06 1.05429e-06 1.00272e-06 1.04349e-06 0
1.08522e-06 1.12831e-06 1.07388e-06 1.11618e-06 1.08522e-06 1.12831e-06 1.07388e-06 1.11618e-06 0
1.16031e-06 1.20467e-06 1.14755e-06 1.19101e-06 1.16031e-06 1.20467e-06 1.14755e-06 1.19101e-06 0
1.23746e-06 1.28276e-06 1.22312e-06 1.26742e-06 1.23746e-06 1.28276e-06 1.22312e-06 1.26742e-06 0
1.31564e-06 1.36018e-06 1.29954e-06 1.34301e-06 1.31564e-06 1.36018e-06 1.29954e-06 1.34301e-06 0
1.39302e-06 1.43835e-06 1.37507e-06 1.41935e-06 1.39302e-06 1.43835e-06 1.37507e-06 1.41935e-06 0
1.03136e-06 1.07406e-06 1.02049e-06 1.06247e-06 1.03136e-06 1.07406e-06 1.02049e-06 1.06247e-06 0
1.10596e-06 1.15048e-06 1.09381e-06 1.1375e-06 1.10596e-06 1.15048e-06 1.09381e-06 1.1375e-06 0
1.18359e-06 1.22959e-06 1.16996e-06 1.215e-06 1.18359e-06 1.22959e-06 1.16996e-06 1.215e-06 0
1.26365e-06 1.31076e-06 1.24832e-06 1.29436e-06 1.26365e-06 1.31076e-06 1.24832e-06 1.29436e-06 0
1.34504e-06 1.39159e-06 1.32782e-06 1.37319e-06 1.34504e-06 1.39159e-06 1.32782e-06 1.37319e-06 0
1.42588e-06 1.47317e-06 1.40663e-06 1.45276e-06 1.42588e-06 1.47317e-06 1.40663e-06 1.45276e-06 0
9.78009e-07 1.01985e-06 9.6748e-07 1.0087e-06 9.78009e-07 1.01985e-06 9.6748e-07 1.0087e-06 0
1.05125e-06 1.09523e-06 1.03959e-06 1.08283e-06 1.05125e-06 1.09523e-06 1.03959e-06 1.08283e-06 0
1.12815e-06 1.17417e-06 1.11516e-06 1.1603e-06 1.12815e-06 1.17417e-06 1.11516e-06 1.1603e-06 0
1.20847e-06 1.25621e-06 1.1939e-06 1.24063e-06 1.20847e-06 1.25621e-06 1.1939e-06 1.24063e-06 0
1.29161e-06 1.34069e-06 1.27524e-06 1.32317e-06 1.29161e-06 1.34069e-06 1.27524e-06 1.32317e-06 0
1.37649e-06 1.42525e-06 1.35807e-06 1.40553e-06 1.37649e-06 1.42525e-06 1.35807e-06 1.40553e-06 0
1.46113e-06 1.51059e-06 1.44048e-06 1.48866e-06 1.46113e-06 1.51059e-06 1.44048e-06 1.48866e-06 0
9.97317e-07 1.04027e-06 9.85996e-07 1.0283e-06 9.97317e-07 1.04027e-06 9.85996e-07 1.0283e-06 0
1.07256e-06 1.11787e-06 1.06007e-06 1.10461e-06 1.07256e-06 1.11787e-06 1.06007e-06 1.10461e-06 0
1.15185e-06 1.19944e-06 1.13797e-06 1.18465e-06 1.15185e-06 1.19944e-06 1.13797e-06 1.18465e-06 0
1.23499e-06 1.28458e-06 1.21946e-06 1.26797e-06 1.23499e-06 1.28458e-06 1.21946e-06 1.26797e-06 0
1.32144e-06 1.37265e-06 1.30398e-06 1.35394e-06 1.32144e-06 1.37265e-06 1.30398e-06 1.35394e-06 0
1.41011e-06 1.46129e-06 1.39042e-06 1.44018e-06 1.41011e-06 1.46129e-06 1.39042e-06 1.44018e-06 0
1.49895e-06 1.55085e-06 1.47679e-06 1.52724e-06 1.49895e-06 1.55085e-06 1.47679e-06 1.52724e-06 0
1.01802e-06 1.06212e-06 1.00589e-06 1.04932e-06 1.01802e-06 1.06212e-06 1.00589e-06 1.04932e-06 0
1.09532e-06 1.14202e-06 1.08199e-06 1.12788e-06 1.09532e-06 1.14202e-06 1.08199e-06 1.12788e-06 0
1.1771e-06 1.22636e-06 1.16232e-06 1.21061e-06 1.1771e-06 1.22636e-06 1.16232e-06 1.21061e-06 0
1.26323e-06 1.3148e-06 1.2467e-06 1.29712e-06 1.26323e-06 1.3148e-06 1.2467e-06 1.29712e-06 0
1.35322e-06 1.40673e-06 1.33463e-06 1.38678e-06 1.35322e-06 1.40673e-06 1.33463e-06 1.38678e-06 0
1.44601e-06 1.49987e-06 1.425e-06 1.47728e-06 1.44601e-06 1.49987e-06 1.425e-06 1.47728e-06 0
1.53951e-06 1.59416e-06 1.51574e-06 1.56877e-06 1.53951e-06 1.59416e-06 1.51574e-06 1.56877e-06 0
9.65391e-07 1.00796e-06 9.53486e-07 9.95495e-07 9.65391e-07 1.00796e-06 9.53486e-07 9.95495e-07 0
1.04011e-06 1.0854e-06 1.02718e-06 1.07178e-06 1.04011e-06 1.0854e-06 1.02718e-06 1.07178e-06 0
1.11957e-06 1.16771e-06 1.10538e-06 1.15268e-06 1.11957e-06 1.16771e-06 1.10538e-06 1.15268e-06 0
1.20395e-06 1.25495e-06 1.18825e-06 1.23822e-06 1.20395e-06 1.25495e-06 1.18825e-06 1.23822e-06 0
1.29322e-06 1.3469e-06 1.27568e-06 1.32813e-06 1.29322e-06 1.3469e-06 1.27568e-06 1.32813e-06 0
1.38701e-06 1.44303e-06 1.36724e-06 1.42179e-06 1.38701e-06 1.44303e-06 1.36724e-06 1.42179e-06 0
1.4843e-06 1.54113e-06 1.46189e-06 1.51697e-06 1.4843e-06 1.54113e-06 1.46189e-06 1.51697e-06 0
1.58298e-06 1.64075e-06 1.55751e-06 1.61343e-06 1.58298e-06 1.64075e-06 1.55751e-06 1.61343e-06 0
9.87035e-07 1.03062e-06 9.74373e-07 1.01737e-06 9.87035e-07 1.03062e-06 9.74373e-07 1.01737e-06 0
1.06358e-06 1.11012e-06 1.04985e-06 1.09567e-06 1.06358e-06 1.11012e-06 1.04985e-06 1.09567e-06 0
1.14529e-06 1.19493e-06 1.13026e-06 1.17902e-06 1.14529e-06 1.19493e-06 1.13026e-06 1.17902e-06 0
1.23239e-06 1.28522e-06 1.21577e-06 1.26753e-06 1.23239e-06 1.28522e-06 1.21577e-06 1.26753e-06 0
1.32499e-06 1.38092e-06 1.30642e-06 1.36104e-06 1.32499e-06 1.38092e-06 1.30642e-06 1.36104e-06 0
1.42284e-06 1.48157e-06 1.40189e-06 1.45903e-06 1.42284e-06 1.48157e-06 1.40189e-06 1.45903e-06 0
1.52504e-06 1.58515e-06 1.50121e-06 1.55938e-06 1.52504e-06 1.58515e-06 1.50121e-06 1.55938e-06 0
1.62949e-06 1.69082e-06 1.60225e-06 1.66147e-06 1.62949e-06 1.69082e-06 1.60225e-06 1.66147e-06 0
1.00991e-06 1.05457e-06 9.96551e-07 1.04058e-06 1.00991e-06 1.05457e-06 9.96551e-07 1.04058e-06 0
1.08839e-06 1.13622e-06 1.0739e-06 1.12098e-06 1.08839e-06 1.13622e-06 1.0739e-06 1.12098e-06 0
1.17244e-06 1.22364e-06 1.15658e-06 1.20687e-06 1.17244e-06 1.22364e-06 1.15658e-06 1.20687e-06 0
1.26238e-06 1.31713e-06 1.24487e-06 1.2985e-06 1.26238e-06 1.31713e-06 1.24487e-06 1.2985e-06 0
1.35847e-06 1.4168e-06 1.33892e-06 1.39585e-06 1.35847e-06 1.4168e-06 1.33892e-06 1.39585e-06 0
1.46067e-06 1.52237e-06 1.43857e-06 1.49853e-06 1.46067e-06 1.52237e-06 1.43857e-06 1.49853e-06 0
1.56826e-06 1.63204e-06 1.54299e-06 1.6046e-06 1.56826e-06 1.63204e-06 1.54299e-06 1.6046e-06 0
1.6792e-06 1.7446e-06 1.65009e-06 1.71308e-06 1.6792e-06 1.7446e-06 1.65009e-06 1.71308e-06 0
0 0 0 0 0 0 0 0 0
0 0 0 0 0 0 0 0 0
0 0 0 0 0 0 0 0 0
0 0 0 0 0 0 0 0 0
0 0 0 0 0 0 0 0 0
0 0 0 0 0 0 0 0 0
0 0 0 0 0 0 0 0 0
0 0 0 0 0 0 0 0 0
0 0 0 0 0 0 0 0 0
0 0 0 0 0 0 0 0 0
0 0 0 0 0 0 0 0 0
0 0 0 0 0 0 0 0 0
0 0 0 0 0 0 0 0 0
0 0 0 0 0 0 0 0 0
0 0 0 0 0 0 0 0 0
0 0 0 0 0 0 0 0 0
0 0 0 0 0 0 0 0 0
0 0 0 0 0 0 0 0 0
0 0 0 0 0 0 0 0 0
0 0 0 0 0 0 0 0 0
0 0 0 0 0 0 0 0 0
0 0 0 0 0 0 0 0 0
0 0 0 0 0 0 0 0 0
0 0 0 0 0 0 0 0 0
0 0 0 0 0 0 0 0 0
0 0 0 0 0 0 0 0 0
0 0 0 0 0 0 0 0 0
0 0 0 0 0 0 0 0 0
0 0 0 0 0 0 0 0 0
0 0 0 0 0 0 0 0 0
0 0 0 0 0 0 0 0 0
0 0 0 0 0 0 0 0 0
0 0 0 0 0 0 0 0 0
0 0 0 0 0 0 0 0 0
0 0 0 0 0 0 0 0 0
0 0 0 0 0 0 0 0 0
0 0 0 0 0 0 0 0 0
0 0 0 0 0 0 0 0 0
0 0 0 0 0 0 0 0 0
0 0 0 0 0 0 0 0 0
0 0 0 0 0 0 0 0 0
0 0 0 0 0 0 0 0 0
0 0 0 0 0 0 0 0 0
0 0 0 0 0 0 0 0 0
0 0 0 0 0 0 0 0 0
0 0 0 0 0 0 0 0 0
0 0 0 0 0 0 0 0 0
0 0 0 0 0 0 0 0 0
0 0 0 0 0 0 0 0 0
0 0 0 0 0 0 0 0 0
0 0 0 0 0 0 0 0 0
0 0 0 0 0 0 0 0 0
0 0 0 0 0 0 0 0 0
0 0 0 0 0 0 0 0 0
0 0 0 0 0 0 0 0 0
0 0 0 0 0 0 0 0 0
0 0 0 0 0 0 0 0 0
0 0 0 0 0 0 0 0 0
0 0 0 0 0 0 0 0 0
0 0 0 0 0 0 0 0 0
0 0 0 0 0 0 0 0 0
0 0 0 0 0 0 0 0 0
0 0 0 0 0 0 0 0 0
0 0 0 0 0 0 0 0 0
0 0 0 0 0 0 0 0 0
0 0 0 0 0 0 0 0 0
0 0 0 0 0 0 0 0 0
0 0 0 0 0 0 0 0 0
0 0 0 0 0 0 0 0 0
0 0 0 0 0 0 0 0 0
0 0 0 0 0 0 0 0 0
0 0 0 0 0 0 0 0 0
0 0 0 0 0 0 0 0 0
0 0 0 0 0 0 0 0 0
0 0 0 0 0 0 0 0 0
0 0 0 0 0 0 0 0 0
0 0 0 0 0 0 0 0 0
0 0 0 0 0 0 0 0 0
0 0 0 0 0 0 0 0 0
0 0 0 0 0 0 0 0 0
0 0 0 0 0 0 0 0 0
0 0 0 0 0 0 0 0 0
0 0 0 0 0 0 0 0 0
0 0 0 0 0 0 0 0 0
0 0 0 0 0 0 0 0 0
0 0 0 0 0 0 0 0 0
0 0 0 0 0 0 0 0 0
0 0 0 0 0 0 0 0 0
0 0 0 0 0 0 0 0 0
0 0 0 0 0 0 0 0 0
0 0 0 0 0 0 0 0 0
0 0 0 0 0 0 0 0 0
0 0 0 0 0 0 0 0 0
0 0 0 0 0 0 0 0 0
0 0 0 0 0 0 0 0 0
0 0 0 0 0 0 0 0 0
0 0 0 0 0 0 0 0 0
0 0 0 0 0 0 0 0 0
0 0 0 0 0 0 0 0 0
0 0 0 0 0 0 0 0 0
0 0 0 0 0 0 0 0 0
0 0 0 0 0 0 0 0 0
0 0 0 0 0 0 0 0 0
0 0 0 0 0 0 0 0 0
0 0 0 0 0 0 0 0 0
0 0 0 0 0 0 0 0 0
0 0 0 0 0 0 0 0 0
0 0 0 0 0 0 0 0 0
0 0 0 0 0 0 0 0 0
0 0 0 0 0 0 0 0 0
0 0 0 0 0 0 0 0 0
0 0 0 0 0 0 0 0 0
0 0 0 0 0 0 0 0 0
0 0 0 0 0 0 0 0 0
0 0 0 0 0 0 0 0 0
0 0 0 0 0 0 0 0 0
0 0 0 0 0 0 0 0 0
0 0 0 0 0 0 0 0 0
0 0 0 0 0 0 0 0 0
0 0 0 0 0 0 0 0 0
0 0 0 0 0 0 0 0 0
0 0 0 0 0 0 0 0 0
0 0 0 0 0 0 0 0 0
0 0 0 0 0 0 0 0 0
0 0 0 0 0 0 0 0 0
0 0 0 0 0 0 0 0 0
0 0 0 0 0 0 0 0 0
0 0 0 0 0 0 0 0 0
0 0 0 0 0 0 0 0 0
0 0 0 0 0 0 0 0 0
0 0 0 0 0 0 0 0 0
0 0 0 0 0 0 0 0 0
0 0 0 0 0 0 0 0 0
0 0 0 0 0 0 0 0 0
0 0 0 0 0 0 0 0 0
0 0 0 0 0 0 0 0 0
0 0 0 0 0 0 0 0 0
0 0 0 0 0 0 0 0 0
0 0 0 0 0 0 0 0 0
0 0 0 0 0 0 0 0 0
0 0 0 0 0 0 0 0 0
0 0 0 0 0 0 0 0 0
0 0 0 0 0 0 0 0 0
0 0 0 0 0 0 0 0 0
0 0 0 0 0 0 0 0 0
0 0 0 0 0 0 0 0 0
0 0 0 0 0 0 0 0 0
0 0 0 0 0 0 0 0 0
0 0 0 0 0 0 0 0 0
0 0 0 0 0 0 0 0 0
0 0 0 0 0 0 0 0 0
0 0 0 0 0 0 0 0 0
0 0 0 0 0 0 0 0 0
0 0 0 0 0 0 0 0 0
0 0 0 0 0 0 0 0 0
0 0 0 0 0 0 0 0 0
0 0 0 0 0 0 0 0 0
0 0 0 0 0 0 0 0 0
0 0 0 0 0 0 0 0 0
0 0 0 0 0 0 0 0 0
0 0 0 0 0 0 0 0 0
0 0 0 0 0 0 0 0 0
0 0 0 0 0 0 0 0 0
0 0 0 0 0 0 0 0 0
0 0 0 0 0 0 0 0 0
0 0 0 0 0 0 0 0 0
0 0 0 0 0 0 0 0 0
0 0 0 0 0 0 0 0 0
0 0 0 0 0 0 0 0 0
0 0 0 0 0 0 0 0 0
0 0 0 0 0 0 0 0 0
0 0 0 0 0 0 0 0 0
0 0 0 0 0 0 0 0 0
0 0 0 0 0 0 0 0 0
0 0 0 0 0 0 0 0 0
0 0 0 0 0 0 0 0 0
0 0 0 0 0 0 0 0 0
0 0 0 0 0 0 0 0 0
0 0 0 0 0 0 0 0 0
0 0 0 0 0 0 0 0 0
0 0 0 0 0 0 0 0 0
0 0 0 0 0 0 0 0 0
0 0 0 0 0 0 0 0 0
0 0 0 0 0 0 0 0 0
0 0 0 0 0 0 0 0 0
0 0 0 0 0 0 0 0 0
0 0 0 0 0 0 0 0 0
0 0 0 0 0 0 0 0 0
0 0 0 0 0 0 0 0 0
0 0 0 0 0 0 0 0 0
0 0 0 0 0 0 0 0 0
0 0 0 0 0 0 0 0 0
0 0 0 0 0 0 0 0 0
0 0 0 0 0 0 0 0 0
0 0 0 0 0 0 0 0 0
0 0 0 0 0 0 0 0 0
0 0 0 0 0 0 0 0 0
0 0 0 0 0 0 0 0 0
0 0 0 0 0 0 0 0 0
0 0 0 0 0 0 0 0 0
0 0 0 0 0 0 0 0 0
0 0 0 0 0 0 0 0 0
0 0 0 0 0 0 0 0 0
0 0 0 0 0 0 0 0 0
0 0 0 0 0 0 0 0 0
0 0 0 0 0 0 0 0 0
0 0 0 0 0 0 0 0 0
0 0 0 0 0 0 0 0 0
0 0 0 0 0 0 0 0 0
0 0 0 0 0 0 0 0 0
0 0 0 0 0 0 0 0 0
0 0 0 0 0 0 0 0 0
0 0 0 0 0 0 0 0 0
0 0 0 0 0 0 0 0 0
0 0 0 0 0 0 0 0 0
0 0 0 0 0 0 0 0 0
0 0 0 0 0 0 0 0 0
0 0 0 0 0 0 0 0 0
0 0 0 0 0 0 0 0 0
0 0 0 0 0 0 0 0 0
0 0 0 0 0 0 0 0 0
0 0 0 0 0 0 0 0 0
0 0 0 0 0 0 0 0 0
0 0 0 0 0 0 0 0 0
0 0 0 0 0 0 0 0 0
0 0 0 0 0 0 0 0 0
0 0 0 0 0 0 0 0 0
0 0 0 0 0 0 0 0 0
0 0 0 0 0 0 0 0 0
0 0 0 0 0 0 0 0 0
0 0 0 0 0 0 0 0 0
0 0 0 0 0 0 0 0 0
0 0 0 0 0 0 0 0 0
0 0 0 0 0 0 0 0 0
0 0 0 0 0 0 0 0 0
0 0 0 0 0 0 0 0 0
0 0 0 0 0 0 0 0 0
0 0 0 0 0 0 0 0 0
0 0 0 0 0 0 0 0 0
0 0 0 0 0 0 0 0 0
0 0 0 0 0 0 0 0 0
0 0 0 0 0 0 0 0 0
0 0 0 0 0 0 0 0 0
0 0 0 0 0 0 0 0 0
0 0 0 0 0 0 0 0 0
0 0 0 0 0 0 0 0 0
0 0 0 0 0 0 0 0 0
0 0 0 0 0 0 0 0 0
0 0 0 0 0 0 0 0 0
0 0 0 0 0 0 0 0 0
0 0 0 0 0 0 0 0 0
0 0 0 0 0 0 0 0 0
0 0 0 0 0 0 0 0 0
0 0 0 0 0 0 0 0 0
0 0 0 0 0 0 0 0 0
0 0 0 0 0 0 0 0 0
0 0 0 0 0 0 0 0 0
0 0 0 0 0 0 0 0 0
0 0 0 0 0 0 0 0 0
0 0 0 0 0 0 0 0 0
0 0 0 0 0 0 0 0 0
0 0 0 0 0 0 0 0 0
0 0 0 0 0 0 0 0 0
0 0 0 0 0 0 0 0 0
0 0 0 0 0 0 0 0 0
0 0 0 0 0 0 0 0 0
0 0 0 0 0 0 0 0 0
0 0 0 0 0 0 0 0 0
0 0 0 0 0 0 0 0 0
0 0 0 0 0 0 0 0 0
0 0 0 0 0 0 0 0 0
0 0 0 0 0 0 0 0 0
0 0 0 0 0 0 0 0 0
0 0 0 0 0 0 0 0 0
0 0 0 0 0 0 0 0 0
0 0 0 0 0 0 0 0 0
0 0 0 0 0 0 0 0 0
0 0 0 0 0 0 0 0 0
0 0 0 0 0 0 0 0 0
0 0 0 0 0 0 0 0 0
0 0 0 0 0 0 0 0 0
0 0 0 0 0 0 0 0 0
0 0 0 0 0 0 0 0 0
0 0 0 0 0 0 0 0 0
0 0 0 0 0 0 0 0 0
0 0 0 0 0 0 0 0 0
0 0 0 0 0 0 0 0 0
0 0 0 0 0 0 0 0 0
0 0 0 0 0 0 0 0 0
0 0 0 0 0 0 0 0 0
0 0 0 0 0 0 0 0 0
0 0 0 0 0 0 0 0 0
0 0 0 0 0 0 0 0 0
0 0 0 0 0 0 0 0 0
0 0 0 0 0 0 0 0 0
0 0 0 0 0 0 0 0 0
0 0 0 0 0 0 0 0 0
0 0 0 0 0 0 0 0 0
0 0 0 0 0 0 0 0 0
0 0 0 0 0 0 0 0 0
0 0 0 0 0 0 0 0 0
0 0 0 0 0 0 0 0 0
0 0 0 0 0 0 0 0 0
0 0 0 0 0 0 0 0 0
0 0 0 0 0 0 0 0 0
0 0 0 0 0 0 0 0 0
0 0 0 0 0 0 0 0 0
0 0 0 0 0 0 0 0 0
0 0 0 0 0 0 0 0 0
0 0 0 0 0 0 0 0 0
0 0 0 0 0 0 0 0 0
0 0 0 0 0 0 0 0 0
0 0 0 0 0 0 0 0 0
0 0 0 0 0 0 0 0 0
0 0 0 0 0 0 0 0 0
0 0 0 0 0 0 0 0 0
0 0 0 0 0 0 0 0 0
0 0 0 0 0 0 0 0 0
0 0 0 0 0 0 0 0 0
0 0 0 0 0 0 0 0 0
0 0 0 0 0 0 0 0 0
0 0 0 0 0 0 0 0 0
0 0 0 0 0 0 0 0 0
0 0 0 0 0 0 0 0 0
0 0 0 0 0 0 0 0 0
0 0 0 0 0 0 0 0 0
0 0 0 0 0 0 0 0 0
0 0 0 0 0 0 0 0 0
0 0 0 0 0 0 0 0 0
0 0 0 0 0 0 0 0 0
0 0 0 0 0 0 0 0 0
0 0 0 0 0 0 0 0 0
0 0 0 0 0 0 0 0 0
0 0 0 0 0 0 0 0 0
0 0 0 0 0 0 0 0 0
0 0 0 0 0 0 0 0 0
0 0 0 0 0 0 0 0 0
0 0 0 0 0 0 0 0 0
0 0 0 0 0 0 0 0 0
0 0 0 0 0 0 0 0 0
0 0 0 0 0 0 0 0 0
0 0 0 0 0 0 0 0 0
0 0 0 0 0 0 0 0 0
0 0 0 0 0 0 0 0 0
0 0 0 0 0 0 0 0 0
0 0 0 0 0 0 0 0 0
0 0 0 0 0 0 0 0 0
0 0 0 0 0 0 0 0 0
0 0 0 0 0 0 0 0 0
0 0 0 0 0 0 0 0 0
0 0 0 0 0 0 0 0 0
0 0 0 0 0 0 0 0 0
0 0 0 0 0 0 0 0 0
0 0 0 0 0 0 0 0 0
0 0 0 0 0 0 0 0 0
0 0 0 0 0 0 0 0 0
0 0 0 0 0 0 0 0 0
0 0 0 0 0 0 0 0 0
0 0 0 0 0 0 0 0 0
0 0 0 0 0 0 0 0 0
0 0 0 0 0 0 0 0 0
0 0 0 0 0 0 0 0 0
0 0 0 0 0 0 0 0 0
0 0 0 0 0 0 0 0 0
0 0 0 0 0 0 0 0 0
0 0 0 0 0 0 0 0 0
0 0 0 0 0 0 0 0 0
0 0 0 0 0 0 0 0 0
0 0 0 0 0 0 0 0 0
0 0 0 0 0 0 0 0 0
0 0 0 0 0 0 0 0 0
0 0 0 0 0 0 0 0 0
0 0 0 0 0 0 0 0 0
0 0 0 0 0 0 0 0 0
0 0 0 0 0 0 0 0 0
0 0 0 0 0 0 0 0 0
0 0 0 0 0 0 0 0 0
0 0 0 0 0 0 0 0 0
0 0 0 0 0 0 0 0 0
0 0 0 0 0 0 0 0 0
0 0 0 0 0 0 0 0 0
0 0 0 0 0 0 0 0 0
0 0 0 0 0 0 0 0 0
0 0 0 0 0 0 0 0 0
0 0 0 0 0 0 0 0 0
0 0 0 0 0 0 0 0 0
0 0 0 0 0 0 0 0 0
0 0 0 0 0 0 0 0 0
0 0 0 0 0 0 0 0 0
0 0 0 0 0 0 0 0 0
0 0 0 0 0 0 0 0 0
0 0 0 0 0 0 0 0 0
0 0 0 0 0 0 0 0 0
0 0 0 0 0 0 0 0 0
0 0 0 0 0 0 0 0 0
0 0 0 0 0 0 0 0 0
0 0 0 0 0 0 0 0 0
0 0 0 0 0 0 0 0 0
0 0 0 0 0 0 0 0 0
0 0 0 0 0 0 0 0 0
0 0 0 0 0 0 0 0 0
0 0 0 0 0 0 0 0 0
0 0 0 0 0 0 0 0 0
0 0 0 0 0 0 0 0 0
0 0 0 0 0 0 0 0 0
0 0 0 0 0 0 0 0 0
0 0 0 0 0 0 0 0 0
0 0 0 0 0 0 0 0 0
0 0 0 0 0 0 0 0 0
0 0 0 0 0 0 0 0 0
0 0 0 0 0 0 0 0 0
0 0 0 0 0 0 0 0 0
0 0 0 0 0 0 0 0 0
0 0 0 0 0 0 0 0 0
0 0 0 0 0 0 0 0 0
0 0 0 0 0 0 0 0 0
0 0 0 0 0 0 0 0 0
0 0 0 0 0 0 0 0 0
0 0 0 0 0 0 0 0 0
0 0 0 0 0 0 0 0 0
0 0 0 0 0 0 0 0 0
0 0 0 0 0 0 0 0 0
0 0 0 0 0 0 0 0 0
0 0 0 0 0 0 0 0 0
0 0 0 0 0 0 0 0 0
0 0 0 0 0 0 0 0 0
0 0 0 0 0 0 0 0 0
0 0 0 0 0 0 0 0 0
0 0 0 0 0 0 0 0 0
0 0 0 0 0 0 0 0 0
0 0 0 0 0 0 0 0 0
0 0 0 0 0 0 0 0 0
0 0 0 0 0 0 0 0 0
0 0 0 0 0 0 0 0 0
0 0 0 0 0 0 0 0 0
0 0 0 0 0 0 0 0 0
0 0 0 0 0 0 0 0 0
0 0 0 0 0 0 0 0 0
0 0 0 0 0 0 0 0 0
0 0 0 0 0 0 0 0 0
0 0 0 0 0 0 0 0 0
0 0 0 0 0 0 0 0 0
0 0 0 0 0 0 0 0 0
0 0 0 0 0 0 0 0 0
0 0 0 0 0 0 0 0 0
0 0 0 0 0 0 0 0 0
0 0 0 0 0 0 0 0 0
0 0 0 0 0 0 0 0 0
0 0 0 0 0 0 0 0 0
0 0 0 0 0 0 0 0 0
0 0 0 0 0 0 0 0 0
0 0 0 0 0 0 0 0 0
0 0 0 0 0 0 0 0 0
0 0 0 0 0 0 0 0 0
0 0 0 0 0 0 0 0 0
0 0 0 0 0 0 0 0 0
0 0 0 0 0 0 0 0 0
0 0 0 0 0 0 0 0 0
0 0 0 0 0 0 0 0 0
0 0 0 0 0 0 0 0 0
0 0 0 0 0 0 0 0 0
0 0 0 0 0 0 0 0 0
0 0 0 0 0 0 0 0 0
0 0 0 0 0 0 0 0 0
0 0 0 0 0 0 0 0 0
0 0 0 0 0 0 0 0 0
0 0 0 0 0 0 0 0 0
0 0 0 0 0 0 0 0 0
0 0 0 0 0 0 0 0 0
0 0 0 0 0 0 0 0 0
0 0 0 0 0 0 0 0 0
0 0 0 0 0 0 0 0 0
0 0 0 0 0 0 0 0 0
0 0 0 0 0 0 0 0 0
0 0 0 0 0 0 0 0 0
0 0 0 0 0 0 0 0 0
0 0 0 0 0 0 0 0 0
0 0 0 0 0 0 0 0 0
0 0 0 0 0 0 0 0 0
0 0 0 0 0 0 0 0 0
0 0 0 0 0 0 0 0 0
0 0 0 0 0 0 0 0 0
0 0 0 0 0 0 0 0 0
0 0 0 0 0 0 0 0 0
0 0 0 0 0 0 0 0 0
0 0 0 0 0 0 0 0 0
0 0 0 0 0 0 0 0 0
0 0 0 0 0 0 0 0 0
0 0 0 0 0 0 0 0 0
0 0 0 0 0 0 0 0 0
0 0 0 0 0 0 0 0 0
0 0 0 0 0 0 0 0 0
0 0 0 0 0 0 0 0 0
0 0 0 0 0 0 0 0 0
0 0 0 0 0 0 0 0 0
0 0 0 0 0 0 0 0 0
0 0 0 0 0 0 0 0 0
0 0 0 0 0 0 0 0 0
0 0 0 0 0 0 0 0 0
0 0 0 0 0 0 0 0 0
0 0 0 0 0 0 0 0 0
0 0 0 0 0 0 0 0 0
0 0 0 0 0 0 0 0 0
0 0 0 0 0 0 0 0 0
0 0 0 0 0 0 0 0 0
0 0 0 0 0 0 0 0 0
0 0 0 0 0 0 0 0 0
0 0 0 0 0 0 0 0 0
0 0 0 0 0 0 0 0 0
0 0 0 0 0 0 0 0 0
0 0 0 0 0 0 0 0 0
0 0 0 0 0 0 0 0 0
0 0 0 0 0 0 0 0 0
0 0 0 0 0 0 0 0 0
0 0 0 0 0 0 0 0 0
0 0 0 0 0 0 0 0 0
0 0 0 0 0 0 0 0 0
0 0 0 0 0 0 0 0 0
0 0 0 0 0 0 0 0 0
0 0 0 0 0 0 0 0 0
0 0 0 0 0 0 0 0 0
0 0 0 0 0 0 0 0 0
0 0 0 0 0 0 0 0 0
0 0 0 0 0 0 0 0 0
0 0 0 0 0 0 0 0 0
0 0 0 0 0 0 0 0 0
0 0 0 0 0 0 0 0 0
0 0 0 0 0 0 0 0 0
0 0 0 0 0 0 0 0 0
0 0 0 0 0 0 0 0 0
0 0 0 0 0 0 0 0 0
0 0 0 0 0 0 0 0 0
0 0 0 0 0 0 0 0 0
0 0 0 0 0 0 0 0 0
0 0 0 0 0 0 0 0 0
0 0 0 0 0 0 0 0 0
0 0 0 0 0 0 0 0 0
0 0 0 0 0 0 0 0 0
0 0 0 0 0 0 0 0 0
5.96621e-07 6.18394e-07 5.91382e-07 6.12834e-07 5.96621e-07 6.18394e-07 5.91382e-07 6.12834e-07 0
6.34677e-07 6.57429e-07 6.28877e-07 6.51288e-07 6.34677e-07 6.57429e-07 6.28877e-07 6.51288e-07 0
6.74162e-07 6.97145e-07 6.67761e-07 6.9037e-07 6.74162e-07 6.97145e-07 6.67761e-07 6.9037e-07 0
7.15434e-07 7.42601e-07 7.0841e-07 7.35264e-07 7.15434e-07 7.42601e-07 7.0841e-07 7.35264e-07 0
5.68562e-07 5.90152e-07 5.63475e-07 5.84757e-07 5.68562e-07 5.90152e-07 5.63475e-07 5.84757e-07 0
6.06236e-07 6.28612e-07 6.00598e-07 6.22619e-07 6.06236e-07 6.28612e-07 6.00598e-07 6.22619e-07 0
6.45342e-07 6.68712e-07 6.39087e-07 6.62095e-07 6.45342e-07 6.68712e-07 6.39087e-07 6.62095e-07 0
6.85921e-07 7.09589e-07 6.79026e-07 7.02292e-07 6.85921e-07 7.09589e-07 6.79026e-07 7.02292e-07 0
7.28331e-07 7.5607e-07 7.20769e-07 7.48174e-07 7.28331e-07 7.5607e-07 7.20769e-07 7.48174e-07 0
5.77937e-07 6.00107e-07 5.72435e-07 5.94263e-07 5.77937e-07 6.00107e-07 5.72435e-07 5.94263e-07 0
6.16632e-07 6.39635e-07 6.1053e-07 6.33169e-07 6.16632e-07 6.39635e-07 6.1053e-07 6.33169e-07 0
6.56833e-07 6.80863e-07 6.50094e-07 6.73738e-07 6.56833e-07 6.80863e-07 6.50094e-07 6.73738e-07 0
6.98578e-07 7.22974e-07 6.91158e-07 7.15128e-07 6.98578e-07 7.22974e-07 6.91158e-07 7.15128e-07 0
7.42201e-07 7.70552e-07 7.34071e-07 7.62063e-07 7.42201e-07 7.70552e-07 7.34071e-07 7.62063e-07 0
5.49864e-07 5.71726e-07 5.44502e-07 5.66037e-07 5.49864e-07 5.71726e-07 5.44502e-07 5.66037e-07 0
5.88061e-07 6.10854e-07 5.82121e-07 6.04549e-07 5.88061e-07 6.10854e-07 5.82121e-07 6.04549e-07 0
6.27849e-07 6.51517e-07 6.21269e-07 6.44548e-07 6.27849e-07 6.51517e-07 6.21269e-07 6.44548e-07 0
6.69214e-07 6.93947e-07 6.61953e-07 6.86275e-07 6.69214e-07 6.93947e-07 6.61953e-07 6.86275e-07 0
7.12204e-07 7.37381e-07 7.04214e-07 7.28934e-07 7.12204e-07 7.37381e-07 7.04214e-07 7.28934e-07 0
7.57137e-07 7.86167e-07 7.48378e-07 7.77007e-07 7.57137e-07 7.86167e-07 7.48378e-07 7.77007e-07 0
5.59743e-07 5.82208e-07 5.53945e-07 5.76056e-07 5.59743e-07 5.82208e-07 5.53945e-07 5.76056e-07 0
5.99004e-07 6.22452e-07 5.92582e-07 6.15648e-07 5.99004e-07 6.22452e-07 5.92582e-07 6.15648e-07 0
6.39946e-07 6.64326e-07 6.3285e-07 6.56813e-07 6.39946e-07 6.64326e-07 6.3285e-07 6.56813e-07 0
6.82559e-07 7.08047e-07 6.74732e-07 6.99778e-07 6.82559e-07 7.08047e-07 6.74732e-07 6.99778e-07 0
7.26886e-07 7.52903e-07 7.18276e-07 7.43801e-07 7.26886e-07 7.52903e-07 7.18276e-07 7.43801e-07 0
7.7323e-07 8.02999e-07 7.63792e-07 7.93128e-07 7.7323e-07 8.02999e-07 7.63792e-07 7.93128e-07 0
5.70407e-07 5.93522e-07 5.64151e-07 5.86885e-07 5.70407e-07 5.93522e-07 5.64151e-07 5.86885e-07 0
6.10812e-07 6.34965e-07 6.03885e-07 6.27625e-07 6.10812e-07 6.34965e-07 6.03885e-07 6.27625e-07 0
6.52997e-07 6.78144e-07 6.45341e-07 6.70038e-07 6.52997e-07 6.78144e-07 6.45341e-07 6.70038e-07 0
6.96955e-07 7.2326e-07 6.8851e-07 7.14335e-07 6.96955e-07 7.2326e-07 6.8851e-07 7.14335e-07 0
7.42728e-07 7.69652e-07 7.33434e-07 7.59826e-07 7.42728e-07 7.69652e-07 7.33434e-07 7.59826e-07 0
7.90594e-07 8.21161e-07 7.80407e-07 8.10506e-07 7.90594e-07 8.21161e-07 7.80407e-07 8.10506e-07 0
5.4217e-07 5.64889e-07 5.36072e-07 5.58424e-07 5.4217e-07 5.64889e-07 5.36072e-07 5.58424e-07 0
5.81912e-07 6.05726e-07 5.75163e-07 5.98567e-07 5.81912e-07 6.05726e-07 5.75163e-07 5.98567e-07 0
6.23551e-07 6.4847e-07 6.16078e-07 6.40547e-07 6.23551e-07 6.4847e-07 6.16078e-07 6.40547e-07 0
6.67085e-07 6.93067e-07 6.58819e-07 6.84311e-07 6.67085e-07 6.93067e-07 6.58819e-07 6.84311e-07 0
7.12506e-07 7.397e-07 7.0338e-07 7.30052e-07 7.12506e-07 7.397e-07 7.0338e-07 7.30052e-07 0
7.59853e-07 7.87768e-07 7.49802e-07 7.77134e-07 7.59853e-07 7.87768e-07 7.49802e-07 7.77134e-07 0
8.09388e-07 8.40838e-07 7.98355e-07 8.29283e-07 8.09388e-07 8.40838e-07 7.98355e-07 8.29283e-07 0
5.53377e-07 5.76774e-07 5.46804e-07 5.69803e-07 5.53377e-07 5.76774e-07 5.46804e-07 5.69803e-07 0
5.94321e-07 6.18893e-07 5.87042e-07 6.11169e-07 5.94321e-07 6.18893e-07 5.87042e-07 6.11169e-07 0
6.37301e-07 6.63057e-07 6.29234e-07 6.54497e-07 6.37301e-07 6.63057e-07 6.29234e-07 6.54497e-07 0
6.82313e-07 7.09211e-07 6.73376e-07 6.99735e-07 6.82313e-07 7.09211e-07 6.73376e-07 6.99735e-07 0
7.29342e-07 7.57514e-07 7.19458e-07 7.47054e-07 7.29342e-07 7.57514e-07 7.19458e-07 7.47054e-07 0
7.7842e-07 8.07424e-07 7.67516e-07 7.95879e-07 7.7842e-07 8.07424e-07 7.67516e-07 7.95879e-07 0
8.29793e-07 8.62225e-07 8.17807e-07 8.49659e-07 8.29793e-07 8.62225e-07 8.17807e-07 8.49659e-07 0
5.65453e-07 5.89585e-07 5.58371e-07 5.82071e-07 5.65453e-07 5.89585e-07 5.58371e-07 5.82071e-07 0
6.07704e-07 6.33107e-07 5.99854e-07 6.24767e-07 6.07704e-07 6.33107e-07 5.99854e-07 6.24767e-07 0
6.52157e-07 6.78839e-07 6.43439e-07 6.69574e-07 6.52157e-07 6.78839e-07 6.43439e-07 6.69574e-07 0
6.98806e-07 7.26725e-07 6.89122e-07 7.16438e-07 6.98806e-07 7.26725e-07 6.89122e-07 7.16438e-07 0
7.47625e-07 7.76887e-07 7.36884e-07 7.65502e-07 7.47625e-07 7.76887e-07 7.36884e-07 7.65502e-07 0
7.98632e-07 8.28842e-07 7.86752e-07 8.1625e-07 7.98632e-07 8.28842e-07 7.86752e-07 8.1625e-07 0
8.52048e-07 8.85586e-07 8.38962e-07 8.71846e-07 8.52048e-07 8.85586e-07 8.38962e-07 8.71846e-07 0
5.37155e-07 5.60731e-07 5.30235e-07 5.5341e-07 5.37155e-07 5.60731e-07 5.30235e-07 5.5341e-07 0
5.78476e-07 6.03411e-07 5.70837e-07 5.95299e-07 5.78476e-07 6.03411e-07 5.70837e-07 5.95299e-07 0
6.2216e-07 6.48482e-07 6.13677e-07 6.39457e-07 6.2216e-07 6.48482e-07 6.13677e-07 6.39457e-07 0
6.68245e-07 6.95963e-07 6.58799e-07 6.85905e-07 6.68245e-07 6.95963e-07 6.58799e-07 6.85905e-07 0
7.16728e-07 7.45796e-07 7.06198e-07 7.34585e-07 7.16728e-07 7.45796e-07 7.06198e-07 7.34585e-07 0
7.67567e-07 7.98065e-07 7.5584e-07 7.85606e-07 7.67567e-07 7.98065e-07 7.5584e-07 7.85606e-07 0
8.20756e-07 8.52328e-07 8.07737e-07 8.38502e-07 8.20756e-07 8.52328e-07 8.07737e-07 8.38502e-07 0
8.76484e-07 9.11281e-07 8.62095e-07 8.96145e-07 8.76484e-07 9.11281e-07 8.62095e-07 8.96145e-07 0
5.49933e-07 5.74251e-07 5.4243e-07 5.66312e-07 5.49933e-07 5.74251e-07 5.4243e-07 5.66312e-07 0
5.92587e-07 6.18397e-07 5.84301e-07 6.09596e-07 5.92587e-07 6.18397e-07 5.84301e-07 6.09596e-07 0
6.37837e-07 6.65176e-07 6.28629e-07 6.55368e-07 6.37837e-07 6.65176e-07 6.28629e-07 6.55368e-07 0
6.85738e-07 7.14623e-07 6.75459e-07 7.03652e-07 6.85738e-07 7.14623e-07 6.75459e-07 7.03652e-07 0
7.36294e-07 7.66676e-07 7.24786e-07 7.54388e-07 7.36294e-07 7.66676e-07 7.24786e-07 7.54388e-07 0
7.89447e-07 8.21369e-07 7.76565e-07 8.0764e-07 7.89447e-07 8.21369e-07 7.76565e-07 8.0764e-07 0
8.45152e-07 8.78292e-07 8.30774e-07 8.62982e-07 8.45152e-07 8.78292e-07 8.30774e-07 8.62982e-07 0
9.03549e-07 9.39812e-07 8.87583e-07 9.22972e-07 9.03549e-07 9.39812e-07 8.87583e-07 9.22972e-07 0
5.63872e-07 5.89017e-07 5.55676e-07 5.80331e-07 5.63872e-07 5.89017e-07 5.55676e-07 5.80331e-07 0
6.08008e-07 6.34781e-07 5.98936e-07 6.25141e-07 6.08008e-07 6.34781e-07 5.98936e-07 6.25141e-07 0
6.54982e-07 6.83438e-07 6.44893e-07 6.72692e-07 6.54982e-07 6.83438e-07 6.44893e-07 6.72692e-07 0
7.04883e-07 7.35067e-07 6.93617e-07 7.23034e-07 7.04883e-07 7.35067e-07 6.93617e-07 7.23034e-07 0
7.57764e-07 7.89653e-07 7.45124e-07 7.76118e-07 7.57764e-07 7.89653e-07 7.45124e-07 7.76118e-07 0
8.13588e-07 8.47195e-07 7.9936e-07 8.3196e-07 8.13588e-07 8.47195e-07 7.9936e-07 8.3196e-07 0
8.7227e-07 9.07264e-07 8.56263e-07 8.90148e-07 8.7227e-07 9.07264e-07 8.56263e-07 8.90148e-07 0
9.33832e-07 9.71849e-07 9.15931e-07 9.52898e-07 9.33832e-07 9.71849e-07 9.15931e-07 9.52898e-07 0
0 0 0 0 0 0 0 0 0
0 0 0 0 0 0 0 0 0
0 0 0 0 0 0 0 0 0
0 0 0 0 0 0 0 0 0
0 0 0 0 0 0 0 0 0
0 0 0 0 0 0 0 0 0
0 0 0 0 0 0 0 0 0
0 0 0 0 0 0 0 0 0
0 0 0 0 0 0 0 0 0
0 0 0 0 0 0 0 0 0
0 0 0 0 0 0 0 0 0
0 0 0 0 0 0 0 0 0
0 0 0 0 0 0 0 0 0
0 0 0 0 0 0 0 0 0
0 0 0 0 0 0 0 0 0
0 0 0 0 0 0 0 0 0
0 0 0 0 0 0 0 0 0
0 0 0 0 0 0 0 0 0
0 0 0 0 0 0 0 0 0
0 0 0 0 0 0 0 0 0
0 0 0 0 0 0 0 0 0
0 0 0 0 0 0 0 0 0
0 0 0 0 0 0 0 0 0
0 0 0 0 0 0 0 0 0
0 0 0 0 0 0 0 0 0
0 0 0 0 0 0 0 0 0
0 0 0 0 0 0 0 0 0
0 0 0 0 0 0 0 0 0
0 0 0 0 0 0 0 0 0
0 0 0 0 0 0 0 0 0
0 0 0 0 0 0 0 0 0
0 0 0 0 0 0 0 0 0
0 0 0 0 0 0 0 0 0
0 0 0 0 0 0 0 0 0
0 0 0 0 0 0 0 0 0
0 0 0 0 0 0 0 0 0
0 0 0 0 0 0 0 0 0
0 0 0 0 0 0 0 0 0
0 0 0 0 0 0 0 0 0
0 0 0 0 0 0 0 0 0
0 0 0 0 0 0 0 0 0
0 0 0 0 0 0 0 0 0
0 0 0 0 0 0 0 0 0
0 0 0 0 0 0 0 0 0
0 0 0 0 0 0 0 0 0
0 0 0 0 0 0 0 0 0
0 0 0 0 0 0 0 0 0
0 0 0 0 0 0 0 0 0
0 0 0 0 0 0 0 0 0
0 0 0 0 0 0 0 0 0
0 0 0 0 0 0 0 0 0
0 0 0 0 0 0 0 0 0
0 0 0 0 0 0 0 0 0
0 0 0 0 0 0 0 0 0
0 0 0 0 0 0 0 0 0
0 0 0 0 0 0 0 0 0
0 0 0 0 0 0 0 0 0
0 0 0 0 0 0 0 0 0
0 0 0 0 0 0 0 0 0
0 0 0 0 0 0 0 0 0
0 0 0 0 0 0 0 0 0
0 0 0 0 0 0 0 0 0
0 0 0 0 0 0 0 0 0
0 0 0 0 0 0 0 0 0
0 0 0 0 0 0 0 0 0
0 0 0 0 0 0 0 0 0
0 0 0 0 0 0 0 0 0
0 0 0 0 0 0 0 0 0
0 0 0 0 0 0 0 0 0
0 0 0 0 0 0 0 0 0
0 0 0 0 0 0 0 0 0
0 0 0 0 0 0 0 0 0
0 0 0 0 0 0 0 0 0
0 0 0 0 0 0 0 0 0
0 0 0 0 0 0 0 0 0
0 0 0 0 0 0 0 0 0
0 0 0 0 0 0 0 0 0
5.17033e-07 5.32189e-07 5.09018e-07 5.23723e-07 5.17033e-07 5.32189e-07 5.09018e-07 5.23723e-07 0
5.43108e-07 5.57789e-07 5.34312e-07 5.48542e-07 5.43108e-07 5.57789e-07 5.34312e-07 5.48542e-07 0
5.68176e-07 5.81868e-07 5.58596e-07 5.7183e-07 5.68176e-07 5.81868e-07 5.58596e-07 5.7183e-07 0
5.92101e-07 6.06444e-07 5.81768e-07 5.9576e-07 5.92101e-07 6.06444e-07 5.81768e-07 5.9576e-07 0
5.03426e-07 5.19663e-07 4.95807e-07 5.11593e-07 5.03426e-07 5.19663e-07 4.95807e-07 5.11593e-07 0
5.31454e-07 5.47428e-07 5.23043e-07 5.38539e-07 5.31454e-07 5.47428e-07 5.23043e-07 5.38539e-07 0
5.58953e-07 5.74468e-07 5.49709e-07 5.64735e-07 5.58953e-07 5.74468e-07 5.49709e-07 5.64735e-07 0
5.8547e-07 6.00008e-07 5.75376e-07 5.89418e-07 5.8547e-07 6.00008e-07 5.75376e-07 5.89418e-07 0
6.1079e-07 6.25791e-07 5.99877e-07 6.1449e-07 6.1079e-07 6.25791e-07 5.99877e-07 6.1449e-07 0
5.17129e-07 5.34182e-07 5.09137e-07 5.25714e-07 5.17129e-07 5.34182e-07 5.09137e-07 5.25714e-07 0
5.46588e-07 5.63431e-07 5.37761e-07 5.54097e-07 5.46588e-07 5.63431e-07 5.37761e-07 5.54097e-07 0
5.75601e-07 5.92012e-07 5.65889e-07 5.81776e-07 5.75601e-07 5.92012e-07 5.65889e-07 5.81776e-07 0
6.03676e-07 6.19125e-07 5.93052e-07 6.07967e-07 6.03676e-07 6.19125e-07 5.93052e-07 6.07967e-07 0
6.30513e-07 6.46262e-07 6.18998e-07 6.34304e-07 6.30513e-07 6.46262e-07 6.18998e-07 6.34304e-07 0
5.00645e-07 5.18444e-07 4.93051e-07 5.10401e-07 5.00645e-07 5.18444e-07 4.93051e-07 5.10401e-07 0
5.31512e-07 5.49417e-07 5.23123e-07 5.40531e-07 5.31512e-07 5.49417e-07 5.23123e-07 5.40531e-07 0
5.62472e-07 5.80236e-07 5.53208e-07 5.70433e-07 5.62472e-07 5.80236e-07 5.53208e-07 5.70433e-07 0
5.93094e-07 6.10465e-07 5.82889e-07 5.99698e-07 5.93094e-07 6.10465e-07 5.82889e-07 5.99698e-07 0
6.22843e-07 6.39283e-07 6.11657e-07 6.27515e-07 6.22843e-07 6.39283e-07 6.11657e-07 6.27515e-07 0
6.51338e-07 6.67925e-07 6.39177e-07 6.5527e-07 6.51338e-07 6.67925e-07 6.39177e-07 6.5527e-07 0
5.14323e-07 5.32925e-07 5.06342e-07 5.24477e-07 5.14323e-07 5.32925e-07 5.06342e-07 5.24477e-07 0
5.46612e-07 5.65408e-07 5.37803e-07 5.5608e-07 5.46612e-07 5.65408e-07 5.37803e-07 5.5608e-07 0
5.79146e-07 5.97886e-07 5.6942e-07 5.87589e-07 5.79146e-07 5.97886e-07 5.6942e-07 5.87589e-07 0
6.1148e-07 6.29884e-07 6.00753e-07 6.18551e-07 6.1148e-07 6.29884e-07 6.00753e-07 6.18551e-07 0
6.43035e-07 6.60554e-07 6.31249e-07 6.48134e-07 6.43035e-07 6.60554e-07 6.31249e-07 6.48134e-07 0
6.73342e-07 6.90857e-07 6.60491e-07 6.7746e-07 6.73342e-07 6.90857e-07 6.60491e-07 6.7746e-07 0
5.28702e-07 5.48138e-07 5.20311e-07 5.39262e-07 5.28702e-07 5.48138e-07 5.20311e-07 5.39262e-07 0
5.62472e-07 5.82203e-07 5.53219e-07 5.72405e-07 5.62472e-07 5.82203e-07 5.53219e-07 5.72405e-07 0
5.96663e-07 6.1644e-07 5.86443e-07 6.05614e-07 5.96663e-07 6.1644e-07 5.86443e-07 6.05614e-07 0
6.3082e-07 6.50338e-07 6.19534e-07 6.38399e-07 6.3082e-07 6.50338e-07 6.19534e-07 6.38399e-07 0
6.64328e-07 6.83024e-07 6.51897e-07 6.69901e-07 6.64328e-07 6.83024e-07 6.51897e-07 6.69901e-07 0
6.96622e-07 7.15181e-07 6.83022e-07 7.00963e-07 6.96622e-07 7.15181e-07 6.83022e-07 7.00963e-07 0
5.09493e-07 5.29206e-07 5.0143e-07 5.20706e-07 5.09493e-07 5.29206e-07 5.0143e-07 5.20706e-07 0
5.43847e-07 5.64145e-07 5.35005e-07 5.54802e-07 5.43847e-07 5.64145e-07 5.35005e-07 5.54802e-07 0
5.79154e-07 5.99869e-07 5.69418e-07 5.89559e-07 5.79154e-07 5.99869e-07 5.69418e-07 5.89559e-07 0
6.15092e-07 6.35973e-07 6.04337e-07 6.24572e-07 6.15092e-07 6.35973e-07 6.04337e-07 6.24572e-07 0
6.51196e-07 6.71916e-07 6.39301e-07 6.59316e-07 6.51196e-07 6.71916e-07 6.39301e-07 6.59316e-07 0
6.86818e-07 7.06804e-07 6.73683e-07 6.9291e-07 6.86818e-07 7.06804e-07 6.73683e-07 6.9291e-07 0
7.213e-07 7.41025e-07 7.06877e-07 7.25914e-07 7.213e-07 7.41025e-07 7.06877e-07 7.25914e-07 0
5.2408e-07 5.4457e-07 5.15558e-07 5.35596e-07 5.2408e-07 5.4457e-07 5.15558e-07 5.35596e-07 0
5.59824e-07 5.81022e-07 5.50493e-07 5.71167e-07 5.59824e-07 5.81022e-07 5.50493e-07 5.71167e-07 0
5.96739e-07 6.18491e-07 5.8647e-07 6.07618e-07 5.96739e-07 6.18491e-07 5.8647e-07 6.07618e-07 0
6.34524e-07 6.56583e-07 6.23177e-07 6.44546e-07 6.34524e-07 6.56583e-07 6.23177e-07 6.44546e-07 0
6.72713e-07 6.94733e-07 6.60145e-07 6.81402e-07 6.72713e-07 6.94733e-07 6.60145e-07 6.81402e-07 0
7.10631e-07 7.32037e-07 6.96716e-07 7.17286e-07 7.10631e-07 7.32037e-07 6.96716e-07 7.17286e-07 0
7.47534e-07 7.68583e-07 7.32192e-07 7.52457e-07 7.47534e-07 7.68583e-07 7.32192e-07 7.52457e-07 0
5.39529e-07 5.60827e-07 5.30499e-07 5.51326e-07 5.39529e-07 5.60827e-07 5.30499e-07 5.51326e-07 0
5.76722e-07 5.98869e-07 5.66847e-07 5.8844e-07 5.76722e-07 5.98869e-07 5.66847e-07 5.8844e-07 0
6.15334e-07 6.38187e-07 6.04468e-07 6.26678e-07 6.15334e-07 6.38187e-07 6.04468e-07 6.26678e-07 0
6.55084e-07 6.78406e-07 6.43069e-07 6.65651e-07 6.55084e-07 6.78406e-07 6.43069e-07 6.65651e-07 0
6.95515e-07 7.1895e-07 6.82186e-07 7.0479e-07 6.95515e-07 7.1895e-07 6.82186e-07 7.0479e-07 0
7.35939e-07 7.5891e-07 7.21138e-07 7.43187e-07 7.35939e-07 7.5891e-07 7.21138e-07 7.43187e-07 0
7.75528e-07 7.98081e-07 7.59143e-07 7.80805e-07 7.75528e-07 7.98081e-07 7.59143e-07 7.80805e-07 0
5.19034e-07 5.40125e-07 5.10182e-07 5.30857e-07 5.19034e-07 5.40125e-07 5.10182e-07 5.30857e-07 0
5.55945e-07 5.78096e-07 5.46343e-07 5.67995e-07 5.55945e-07 5.78096e-07 5.46343e-07 5.67995e-07 0
5.94671e-07 6.17824e-07 5.84172e-07 6.06737e-07 5.94671e-07 6.17824e-07 5.84172e-07 6.06737e-07 0
6.35087e-07 6.59118e-07 6.23533e-07 6.46874e-07 6.35087e-07 6.59118e-07 6.23533e-07 6.46874e-07 0
6.76944e-07 7.01631e-07 6.64155e-07 6.88042e-07 6.76944e-07 7.01631e-07 6.64155e-07 6.88042e-07 0
7.19804e-07 7.44788e-07 7.0559e-07 7.29662e-07 7.19804e-07 7.44788e-07 7.0559e-07 7.29662e-07 0
7.62979e-07 7.87687e-07 7.47145e-07 7.7083e-07 7.62979e-07 7.87687e-07 7.47145e-07 7.7083e-07 0
8.05569e-07 8.29845e-07 7.87964e-07 8.11218e-07 8.05569e-07 8.29845e-07 7.87964e-07 8.11218e-07 0
5.3521e-07 5.57056e-07 5.25737e-07 5.4714e-07 5.3521e-07 5.57056e-07 5.25737e-07 5.4714e-07 0
5.73483e-07 5.96543e-07 5.63213e-07 5.85741e-07 5.73483e-07 5.96543e-07 5.63213e-07 5.85741e-07 0
6.13844e-07 6.38077e-07 6.02616e-07 6.26216e-07 6.13844e-07 6.38077e-07 6.02616e-07 6.26216e-07 0
6.56199e-07 6.81505e-07 6.43834e-07 6.68391e-07 6.56199e-07 6.81505e-07 6.43834e-07 6.68391e-07 0
7.00341e-07 7.2652e-07 6.86633e-07 7.11935e-07 7.00341e-07 7.2652e-07 6.86633e-07 7.11935e-07 0
7.45862e-07 7.72557e-07 7.30589e-07 7.56275e-07 7.45862e-07 7.72557e-07 7.30589e-07 7.56275e-07 0
7.92085e-07 8.18739e-07 7.75014e-07 8.00519e-07 7.92085e-07 8.18739e-07 7.75014e-07 8.00519e-07 0
8.38057e-07 8.64321e-07 8.18986e-07 8.4407e-07 8.38057e-07 8.64321e-07 8.18986e-07 8.4407e-07 0
5.52641e-07 5.75319e-07 5.42416e-07 5.64602e-07 5.52641e-07 5.75319e-07 5.42416e-07 5.64602e-07 0
5.92411e-07 6.16456e-07 5.81303e-07 6.04769e-07 5.92411e-07 6.16456e-07 5.81303e-07 6.04769e-07 0
6.34538e-07 6.59928e-07 6.22392e-07 6.47104e-07 6.34538e-07 6.59928e-07 6.22392e-07 6.47104e-07 0
6.78974e-07 7.05654e-07 6.65608e-07 6.91483e-07 6.78974e-07 7.05654e-07 6.65608e-07 6.91483e-07 0
7.25588e-07 7.53406e-07 7.10771e-07 7.37624e-07 7.25588e-07 7.53406e-07 7.10771e-07 7.37624e-07 0
7.74047e-07 8.02665e-07 7.57499e-07 7.8498e-07 7.74047e-07 8.02665e-07 7.57499e-07 7.8498e-07 0
8.23706e-07 8.52583e-07 8.05124e-07 8.32683e-07 8.23706e-07 8.52583e-07 8.05124e-07 8.32683e-07 0
8.73559e-07 9.02149e-07 8.52673e-07 8.79878e-07 8.73559e-07 9.02149e-07 8.52673e-07 8.79878e-07 0
0 0 0 0 0 0 0 0 0
0 0 0 0 0 0 0 0 0
0 0 0 0 0 0 0 0 0
0 0 0 0 0 0 0 0 0
0 0 0 0 0 0 0 0 0
0 0 0 0 0 0 0 0 0
0 0 0 0 0 0 0 0 0
0 0 0 0 0 0 0 0 0
0 0 0 0 0 0 0 0 0
0 0 0 0 0 0 0 0 0
0 0 0 0 0 0 0 0 0
0 0 0 0 0 0 0 0 0
0 0 0 0 0 0 0 0 0
0 0 0 0 0 0 0 0 0
0 0 0 0 0 0 0 0 0
0 0 0 0 0 0 0 0 0
0 0 0 0 0 0 0 0 0
0 0 0 0 0 0 0 0 0
0 0 0 0 0 0 0 0 0
0 0 0 0 0 0 0 0 0
0 0 0 0 0 0 0 0 0
0 0 0 0 0 0 0 0 0
0 0 0 0 0 0 0 0 0
0 0 0 0 0 0 0 0 0
0 0 0 0 0 0 0 0 0
0 0 0 0 0 0 0 0 0
0 0 0 0 0 0 0 0 0
0 0 0 0 0 0 0 0 0
0 0 0 0 0 0 0 0 0
0 0 0 0 0 0 0 0 0
0 0 0 0 0 0 0 0 0
0 0 0 0 0 0 0 0 0
0 0 0 0 0 0 0 0 0
0 0 0 0 0 0 0 0 0
0 0 0 0 0 0 0 0 0
0 0 0 0 0 0 0 0 0
0 0 0 0 0 0 0 0 0
0 0 0 0 0 0 0 0 0
0 0 0 0 0 0 0 0 0
0 0 0 0 0 0 0 0 0
0 0 0 0 0 0 0 0 0
0 0 0 0 0 0 0 0 0
0 0 0 0 0 0 0 0 0
0 0 0 0 0 0 0 0 0
0 0 0 0 0 0 0 0 0
0 0 0 0 0 0 0 0 0
0 0 0 0 0 0 0 0 0
0 0 0 0 0 0 0 0 0
0 0 0 0 0 0 0 0 0
0 0 0 0 0 0 0 0 0
0 0 0 0 0 0 0 0 0
0 0 0 0 0 0 0 0 0
0 0 0 0 0 0 0 0 0
0 0 0 0 0 0 0 0 0
0 0 0 0 0 0 0 0 0
0 0 0 0 0 0 0 0 0
0 0 0 0 0 0 0 0 0
0 0 0 0 0 0 0 0 0
0 0 0 0 0 0 0 0 0
0 0 0 0 0 0 0 0 0
0 0 0 0 0 0 0 0 0
0 0 0 0 0 0 0 0 0
0 0 0 0 0 0 0 0 0
0 0 0 0 0 0 0 0 0
0 0 0 0 0 0 0 0 0
0 0 0 0 0 0 0 0 0
0 0 0 0 0 0 0 0 0
0 0 0 0 0 0 0 0 0
0 0 0 0 0 0 0 0 0
0 0 0 0 0 0 0 0 0
0 0 0 0 0 0 0 0 0
0 0 0 0 0 0 0 0 0
0 0 0 0 0 0 0 0 0
0 0 0 0 0 0 0 0 0
0 0 0 0 0 0 0 0 0
0 0 0 0 0 0 0 0 0
0 0 0 0 0 0 0 0 0
0 0 0 0 0 0 0 0 0
0 0 0 0 0 0 0 0 0
0 0 0 0 0 0 0 0 0
0 0 0 0 0 0 0 0 0
0 0 0 0 0 0 0 0 0
0 0 0 0 0 0 0 0 0
0 0 0 0 0 0 0 0 0
0 0 0 0 0 0 0 0 0
0 0 0 0 0 0 0 0 0
0 0 0 0 0 0 0 0 0
0 0 0 0 0 0 0 0 0
0 0 0 0 0 0 0 0 0
0 0 0 0 0 0 0 0 0
0 0 0 0 0 0 0 0 0
0 0 0 0 0 0 0 0 0
0 0 0 0 0 0 0 0 0
0 0 0 0 0 0 0 0 0
0 0 0 0 0 0 0 0 0
0 0 0 0 0 0 0 0 0
0 0 0 0 0 0 0 0 0
0 0 0 0 0 0 0 0 0
0 0 0 0 0 0 0 0 0
0 0 0 0 0 0 0 0 0
0 0 0 0 0 0 0 0 0
0 0 0 0 0 0 0 0 0
0 0 0 0 0 0 0 0 0
0 0 0 0 0 0 0 0 0
0 0 0 0 0 0 0 0 0
0 0 0 0 0 0 0 0 0
0 0 0 0 0 0 0 0 0
0 0 0 0 0 0 0 0 0
0 0 0 0 0 0 0 0 0
0 0 0 0 0 0 0 0 0
0 0 0 0 0 0 0 0 0
0 0 0 0 0 0 0 0 0
0 0 0 0 0 0 0 0 0
0 0 0 0 0 0 0 0 0
0 0 0 0 0 0 0 0 0
0 0 0 0 0 0 0 0 0
0 0 0 0 0 0 0 0 0
0 0 0 0 0 0 0 0 0
0 0 0 0 0 0 0 0 0
0 0 0 0 0 0 0 0 0
0 0 0 0 0 0 0 0 0
0 0 0 0 0 0 0 0 0
0 0 0 0 0 0 0 0 0
0 0 0 0 0 0 0 0 0
0 0 0 0 0 0 0 0 0
0 0 0 0 0 0 0 0 0
0 0 0 0 0 0 0 0 0
0 0 0 0 0 0 0 0 0
0 0 0 0 0 0 0 0 0
0 0 0 0 0 0 0 0 0
0 0 0 0 0 0 0 0 0
0 0 0 0 0 0 0 0 0
0 0 0 0 0 0 0 0 0
0 0 0 0 0 0 0 0 0
0 0 0 0 0 0 0 0 0
0 0 0 0 0 0 0 0 0
0 0 0 0 0 0 0 0 0
0 0 0 0 0 0 0 0 0
0 0 0 0 0 0 0 0 0
0 0 0 0 0 0 0 0 0
0 0 0 0 0 0 0 0 0
0 0 0 0 0 0 0 0 0
0 0 0 0 0 0 0 0 0
0 0 0 0 0 0 0 0 0
0 0 0 0 0 0 0 0 0
0 0 0 0 0 0 0 0 0
0 0 0 0 0 0 0 0 0
0 0 0 0 0 0 0 0 0
0 0 0 0 0 0 0 0 0
0 0 0 0 0 0 0 0 0
0 0 0 0 0 0 0 0 0
0 0 0 0 0 0 0 0 0
0 0 0 0 0 0 0 0 0
0 0 0 0 0 0 0 0 0
0 0 0 0 0 0 0 0 0
0 0 0 0 0 0 0 0 0
0 0 0 0 0 0 0 0 0
0 0 0 0 0 0 0 0 0
0 0 0 0 0 0 0 0 0
0 0 0 0 0 0 0 0 0
0 0 0 0 0 0 0 0 0
0 0 0 0 0 0 0 0 0
0 0 0 0 0 0 0 0 0
0 0 0 0 0 0 0 0 0
0 0 0 0 0 0 0 0 0
0 0 0 0 0 0 0 0 0
0 0 0 0 0 0 0 0 0
0 0 0 0 0 0 0 0 0
0 0 0 0 0 0 0 0 0
0 0 0 0 0 0 0 0 0
0 0 0 0 0 0 0 0 0
0 0 0 0 0 0 0 0 0
0 0 0 0 0 0 0 0 0
0 0 0 0 0 0 0 0 0
0 0 0 0 0 0 0 0 0
0 0 0 0 0 0 0 0 0
0 0 0 0 0 0 0 0 0
0 0 0 0 0 0 0 0 0
0 0 0 0 0 0 0 0 0
0 0 0 0 0 0 0 0 0
0 0 0 0 0 0 0 0 0
0 0 0 0 0 0 0 0 0
0 0 0 0 0 0 0 0 0
0 0 0 0 0 0 0 0 0
0 0 0 0 0 0 0 0 0
0 0 0 0 0 0 0 0 0
0 0 0 0 0 0 0 0 0
0 0 0 0 0 0 0 0 0
0 0 0 0 0 0 0 0 0
0 0 0 0 0 0 0 0 0
0 0 0 0 0 0 0 0 0
0 0 0 0 0 0 0 0 0
0 0 0 0 0 0 0 0 0
0 0 0 0 0 0 0 0 0
0 0 0 0 0 0 0 0 0
0 0 0 0 0 0 0 0 0
0 0 0 0 0 0 0 0 0
0 0 0 0 0 0 0 0 0
0 0 0 0 0 0 0 0 0
0 0 0 0 0 0 0 0 0
0 0 0 0 0 0 0 0 0
0 0 0 0 0 0 0 0 0
0 0 0 0 0 0 0 0 0
0 0 0 0 0 0 0 0 0
0 0 0 0 0 0 0 0 0
0 0 0 0 0 0 0 0 0
0 0 0 0 0 0 0 0 0
0 0 0 0 0 0 0 0 0
0 0 0 0 0 0 0 0 0
0 0 0 0 0 0 0 0 0
0 0 0 0 0 0 0 0 0
0 0 0 0 0 0 0 0 0
0 0 0 0 0 0 0 0 0
0 0 0 0 0 0 0 0 0
0 0 0 0 0 0 0 0 0
0 0 0 0 0 0 0 0 0
0 0 0 0 0 0 0 0 0
0 0 0 0 0 0 0 0 0
0 0 0 0 0 0 0 0 0
0 0 0 0 0 0 0 0 0
0 0 0 0 0 0 0 0 0
0 0 0 0 0 0 0 0 0
0 0 0 0 0 0 0 0 0
0 0 0 0 0 0 0 0 0
0 0 0 0 0 0 0 0 0
0 0 0 0 0 0 0 0 0
0 0 0 0 0 0 0 0 0
0 0 0 0 0 0 0 0 0
0 0 0 0 0 0 0 0 0
0 0 0 0 0 0 0 0 0
0 0 0 0 0 0 0 0 0
0 0 0 0 0 0 0 0 0
0 0 0 0 0 0 0 0 0
0 0 0 0 0 0 0 0 0
0 0 0 0 0 0 0 0 0
0 0 0 0 0 0 0 0 0
0 0 0 0 0 0 0 0 0
0 0 0 0 0 0 0 0 0
0 0 0 0 0 0 0 0 0
0 0 0 0 0 0 0 0 0
0 0 0 0 0 0 0 0 0
0 0 0 0 0 0 0 0 0
0 0 0 0 0 0 0 0 0
0 0 0 0 0 0 0 0 0
0 0 0 0 0 0 0 0 0
0 0 0 0 0 0 0 0 0
0 0 0 0 0 0 0 0 0
0 0 0 0 0 0 0 0 0
0 0 0 0 0 0 0 0 0
0 0 0 0 0 0 0 0 0
0 0 0 0 0 0 0 0 0
0 0 0 0 0 0 0 0 0
0 0 0 0 0 0 0 0 0
0 0 0 0 0 0 0 0 0
0 0 0 0 0 0 0 0 0
0 0 0 0 0 0 0 0 0
0 0 0 0 0 0 0 0 0
0 0 0 0 0 0 0 0 0
0 0 0 0 0 0 0 0 0
0 0 0 0 0 0 0 0 0
0 0 0 0 0 0 0 0 0
0 0 0 0 0 0 0 0 0
0 0 0 0 0 0 0 0 0
0 0 0 0 0 0 0 0 0
0 0 0 0 0 0 0 0 0
0 0 0 0 0 0 0 0 0
0 0 0 0 0 0 0 0 0
0 0 0 0 0 0 0 0 0
0 0 0 0 0 0 0 0 0
0 0 0 0 0 0 0 0 0
0 0 0 0 0 0 0 0 0
0 0 0 0 0 0 0 0 0
0 0 0 0 0 0 0 0 0
0 0 0 0 0 0 0 0 0
0 0 0 0 0 0 0 0 0
0 0 0 0 0 0 0 0 0
0 0 0 0 0 0 0 0 0
0 0 0 0 0 0 0 0 0
0 0 0 0 0 0 0 0 0
0 0 0 0 0 0 0 0 0
0 0 0 0 0 0 0 0 0
0 0 0 0 0 0 0 0 0
0 0 0 0 0 0 0 0 0
0 0 0 0 0 0 0 0 0
0 0 0 0 0 0 0 0 0
0 0 0 0 0 0 0 0 0
0 0 0 0 0 0 0 0 0
0 0 0 0 0 0 0 0 0
0 0 0 0 0 0 0 0 0
0 0 0 0 0 0 0 0 0
0 0 0 0 0 0 0 0 0
0 0 0 0 0 0 0 0 0
0 0 0 0 0 0 0 0 0
0 0 0 0 0 0 0 0 0
0 0 0 0 0 0 0 0 0
0 0 0 0 0 0 0 0 0
0 0 0 0 0 0 0 0 0
0 0 0 0 0 0 0 0 0
0 0 0 0 0 0 0 0 0
0 0 0 0 0 0 0 0 0
0 0 0 0 0 0 0 0 0
0 0 0 0 0 0 0 0 0
0 0 0 0 0 0 0 0 0
0 0 0 0 0 0 0 0 0
0 0 0 0 0 0 0 0 0
0 0 0 0 0 0 0 0 0
0 0 0 0 0 0 0 0 0
0 0 0 0 0 0 0 0 0
0 0 0 0 0 0 0 0 0
0 0 0 0 0 0 0 0 0
0 0 0 0 0 0 0 0 0
0 0 0 0 0 0 0 0 0
0 0 0 0 0 0 0 0 0
0 0 0 0 0 0 0 0 0
0 0 0 0 0 0 0 0 0
0 0 0 0 0 0 0 0 0
0 0 0 0 0 0 0 0 0
0 0 0 0 0 0 0 0 0
0 0 0 0 0 0 0 0 0
0 0 0 0 0 0 0 0 0
0 0 0 0 0 0 0 0 0
0 0 0 0 0 0 0 0 0
0 0 0 0 0 0 0 0 0
0 0 0 0 0 0 0 0 0
0 0 0 0 0 0 0 0 0
0 0 0 0 0 0 0 0 0
0 0 0 0 0 0 0 0 0
0 0 0 0 0 0 0 0 0
0 0 0 0 0 0 0 0 0
0 0 0 0 0 0 0 0 0
0 0 0 0 0 0 0 0 0
0 0 0 0 0 0 0 0 0
0 0 0 0 0 0 0 0 0
0 0 0 0 0 0 0 0 0
0 0 0 0 0 0 0 0 0
0 0 0 0 0 0 0 0 0
0 0 0 0 0 0 0 0 0
0 0 0 0 0 0 0 0 0
0 0 0 0 0 0 0 0 0
0 0 0 0 0 0 0 0 0
0 0 0 0 0 0 0 0 0
0 0 0 0 0 0 0 0 0
0 0 0 0 0 0 0 0 0
0 0 0 0 0 0 0 0 0
0 0 0 0 0 0 0 0 0
0 0 0 0 0 0 0 0 0
0 0 0 0 0 0 0 0 0
0 0 0 0 0 0 0 0 0
0 0 0 0 0 0 0 0 0
0 0 0 0 0 0 0 0 0
0 0 0 0 0 0 0 0 0
0 0 0 0 0 0 0 0 0
0 0 0 0 0 0 0 0 0
0 0 0 0 0 0 0 0 0
0 0 0 0 0 0 0 0 0
0 0 0 0 0 0 0 0 0
0 0 0 0 0 0 0 0 0
0 0 0 0 0 0 0 0 0
0 0 0 0 0 0 0 0 0
0 0 0 0 0 0 0 0 0
0 0 0 0 0 0 0 0 0
0 0 0 0 0 0 0 0 0
0 0 0 0 0 0 0 0 0
0 0 0 0 0 0 0 0 0
0 0 0 0 0 0 0 0 0
0 0 0 0 0 0 0 0 0
0 0 0 0 0 0 0 0 0
0 0 0 0 0 0 0 0 0
0 0 0 0 0 0 0 0 0
0 0 0 0 0 0 0 0 0
0 0 0 0 0 0 0 0 0
0 0 0 0 0 0 0 0 0
0 0 0 0 0 0 0 0 0
0 0 0 0 0 0 0 0 0
0 0 0 0 0 0 0 0 0
0 0 0 0 0 0 0 0 0
0 0 0 0 0 0 0 0 0
0 0 0 0 0 0 0 0 0
0 0 0 0 0 0 0 0 0
0 0 0 0 0 0 0 0 0
SCALARS DNormal double 9
LOOKUP_TABLE default
0 0 0 0 0 0 0 0 0
0 0 0 0 0 0 0 0 0
0 0 0 0 0 0 0 0 0
0 0 0 0 0 0 0 0 0
0 0 0 0 0 0 0 0 0
0 0 0 0 0 0 0 0 0
0 0 0 0 0 0 0 0 0
0 0 0 0 0 0 0 0 0
0 0 0 0 0 0 0 0 0
0 0 0 0 0 0 0 0 0
0 0 0 0 0 0 0 0 0
0 0 0 0 0 0 0 0 0
0 0 0 0 0 0 0 0 0
0 0 0 0 0 0 0 0 0
0 0 0 0 0 0 0 0 0
0 0 0 0 0 0 0 0 0
0 0 0 0 0 0 0 0 0
0 0 0 0 0 0 0 0 0
0 0 0 0 0 0 0 0 0
0 0 0 0 0 0 0 0 0
0 0 0 0 0 0 0 0 0
0 0 0 0 0 0 0 0 0
0 0 0 0 0 0 0 0 0
0 0 0 0 0 0 0 0 0
0 0 0 0 0 0 0 0 0
0 0 0 0 0 0 0 0 0
0 0 0 0 0 0 0 0 0
0 0 0 0 0 0 0 0 0
0 0 0 0 0 0 0 0 0
0 0 0 0 0 0 0 0 0
0 0 0 0 0 0 0 0 0
0 0 0 0 0 0 0 0 0
0 0 0 0 0 0 0 0 0
0 0 0 0 0 0 0 0 0
0 0 0 0 0 0 0 0 0
0 0 0 0 0 0 0 0 0
0 0 0 0 0 0 0 0 0
0 0 0 0 0 0 0 0 0
0 0 0 0 0 0 0 0 0
0 0 0 0 0 0 0 0 0
0 0 0 0 0 0 0 0 0
0 0 0 0 0 0 0 0 0
0 0 0 0 0 0 0 0 0
0 0 0 0 0 0 0 0 0
0 0 0 0 0 0 0 0 0
0 0 0 0 0 0 0 0 0
0 0 0 0 0 0 0 0 0
0 0 0 0 0 0 0 0 0
0 0 0 0 0 0 0 0 0
0 0 0 0 0 0 0 0 0
0 0 0 0 0 0 0 0 0
0 0 0 0 0 0 0 0 0
0 0 0 0 0 0 0 0 0
0 0 0 0 0 0 0 0 0
0 0 0 0 0 0 0 0 0
0 0 0 0 0 0 0 0 0
0 0 0 0 0 0 0 0 0
0 0 0 0 0 0 0 0 0
0 0 0 0 0 0 0 0 0
0 0 0 0 0 0 0 0 0
0 0 0 0 0 0 0 0 0
0 0 0 0 0 0 0 0 0
0 0 0 0 0 0 0 0 0
0 0 0 0 0 0 0 0 0
0 0 0 0 0 0 0 0 0
0 0 0 0 0 0 0 0 0
0 0 0 0 0 0 0 0 0
0 0 0 0 0 0 0 0 0
0 0 0 0 0 0 0 0 0
0 0 0 0 0 0 0 0 0
0 0 0 0 0 0 0 0 0
0 0 0 0 0 0 0 0 0
0 0 0 0 0 0 0 0 0
0 0 0 0 0 0 0 0 0
0 0 0 0 0 0 0 0 0
0 0 0 0 0 0 0 0 0
0 0 0 0 0 0 0 0 0
0 0 0 0 0 0 0 0 0
0 0 0 0 0 0 0 0 0
0 0 0 0 0 0 0 0 0
0 0 0 0 0 0 0 0 0
0 0 0 0 0 0 0 0 0
0 0 0 0 0 0 0 0 0
0 0 0 0 0 0 0 0 0
0 0 0 0 0 0 0 0 0
0 0 0 0 0 0 0 0 0
0 0 0 0 0 0 0 0 0
0 0 0 0 0 0 0 0 0
0 0 0 0 0 0 0 0 0
0 0 0 0 0 0 0 0 0
0 0 0 0 0 0 0 0 0
0 0 0 0 0 0 0 0 0
0 0 0 0 0 0 0 0 0
0 0 0 0 0 0 0 0 0
0 0 0 0 0 0 0 0 0
0 0 0 0 0 0 0 0 0
0 0 0 0 0 0 0 0 0
0 0 0 0 0 0 0 0 0
0 0 0 0 0 0 0 0 0
0 0 0 0 0 0 0 0 0
0 0 0 0 0 0 0 0 0
0 0 0 0 0 0 0 0 0
0 0 0 0 0 0 0 0 0
0 0 0 0 0 0 0 0 0
0 0 0 0 0 0 0 0 0
0 0 0 0 0 0 0 0 0
0 0 0 0 0 0 0 0 0
0 0 0 0 0 0 0 0 0
0 0 0 0 0 0 0 0 0
0 0 0 0 0 0 0 0 0
0 0 0 0 0 0 0 0 0
0 0 0 0 0 0 0 0 0
0 0 0 0 0 0 0 0 0
0 0 0 0 0 0 0 0 0
0 0 0 0 0 0 0 0 0
0 0 0 0 0 0 0 0 0
0 0 0 0 0 0 0 0 0
0 0 0 0 0 0 0 0 0
0 0 0 0 0 0 0 0 0
0 0 0 0 0 0 0 0 0
0 0 0 0 0 0 0 0 0
0 0 0 0 0 0 0 0 0
0 0 0 0 0 0 0 0 0
0 0 0 0 0 0 0 0 0
0 0 0 0 0 0 0 0 0
0 0 0 0 0 0 0 0 0
0 0 0 0 0 0 0 0 0
0 0 0 0 0 0 0 0 0
0 0 0 0 0 0 0 0 0
0 0 0 0 0 0 0 0 0
0 0 0 0 0 0 0 0 0
0 0 0 0 0 0 0 0 0
0 0 0 0 0 0 0 0 0
0 0 0 0 0 0 0 0 0
0 0 0 0 0 0 0 0 0
0 0 0 0 0 0 0 0 0
0 0 0 0 0 0 0 0 0
0 0 0 0 0 0 0 0 0
0 0 0 0 0 0 0 0 0
0 0 0 0 0 0 0 0 0
0 0 0 0 0 0 0 0 0
0 0 0 0 0 0 0 0 0
0 0 0 0 0 0 0 0 0
0 0 0 0 0 0 0 0 0
0 0 0 0 0 0 0 0 0
0 0 0 0 0 0 0 0 0
0 0 0 0 0 0 0 0 0
0 0 0 0 0 0 0 0 0
0 0 0 0 0 0 0 0 0
0 0 0 0 0 0 0 0 0
1.50152e-08 1.59835e-08 1.53875e-08 1.63502e-08 1.50152e-08 1.59835e-08 1.53875e-08 1.63502e-08 0
1.67298e-08 1.78924e-08 1.7091e-08 1.82419e-08 1.67298e-08 1.78924e-08 1.7091e-08 1.82419e-08 0
1.89582e-08 2.07972e-08 1.9299e-08 2.11234e-08 1.89582e-08 2.07972e-08 1.9299e-08 2.11234e-08 0
1.28638e-08 1.36866e-08 1.32607e-08 1.40862e-08 1.28638e-08 1.36866e-08 1.32607e-08 1.40862e-08 0
1.43096e-08 1.52883e-08 1.47088e-08 1.5681e-08 1.43096e-08 1.52883e-08 1.47088e-08 1.5681e-08 0
1.60424e-08 1.72221e-08 1.643e-08 1.75998e-08 1.60424e-08 1.72221e-08 1.643e-08 1.75998e-08 0
1.83027e-08 2.01712e-08 1.86711e-08 2.05215e-08 1.83027e-08 2.01712e-08 1.86711e-08 2.05215e-08 0
1.21262e-08 1.29444e-08 1.25444e-08 1.33647e-08 1.21262e-08 1.29444e-08 1.25444e-08 1.33647e-08 0
1.35655e-08 1.45496e-08 1.39866e-08 1.4968e-08 1.35655e-08 1.45496e-08 1.39866e-08 1.4968e-08 0
1.53089e-08 1.65039e-08 1.57239e-08 1.69099e-08 1.53089e-08 1.65039e-08 1.57239e-08 1.69099e-08 0
1.75996e-08 1.95004e-08 1.79962e-08 1.98778e-08 1.75996e-08 1.95004e-08 1.79962e-08 1.98778e-08 0
1.01394e-08 1.084e-08 1.0569e-08 1.12752e-08 1.01394e-08 1.084e-08 1.0569e-08 1.12752e-08 0
1.13528e-08 1.21639e-08 1.17924e-08 1.26077e-08 1.13528e-08 1.21639e-08 1.17924e-08 1.26077e-08 0
1.27803e-08 1.37651e-08 1.32265e-08 1.42111e-08 1.27803e-08 1.37651e-08 1.32265e-08 1.42111e-08 0
1.45268e-08 1.57349e-08 1.4971e-08 1.61715e-08 1.45268e-08 1.57349e-08 1.4971e-08 1.61715e-08 0
1.68464e-08 1.87843e-08 1.72731e-08 1.91886e-08 1.68464e-08 1.87843e-08 1.72731e-08 1.91886e-08 0
2.03338e-08 2.27344e-08 2.07203e-08 2.30916e-08 2.03338e-08 2.27344e-08 2.07203e-08 2.30916e-08 0
0 1.00437e-08 0 1.04975e-08 0 1.00437e-08 0 1.04975e-08 0
1.05451e-08 1.13448e-08 1.10052e-08 1.18117e-08 1.05451e-08 1.13448e-08 1.10052e-08 1.18117e-08 0
1.19529e-08 1.29335e-08 1.24244e-08 1.34076e-08 1.19529e-08 1.29335e-08 1.24244e-08 1.34076e-08 0
1.36945e-08 1.49119e-08 1.41688e-08 1.5381e-08 1.36945e-08 1.49119e-08 1.41688e-08 1.5381e-08 0
1.60355e-08 1.80045e-08 1.64975e-08 1.84494e-08 1.60355e-08 1.80045e-08 1.64975e-08 1.84494e-08 0
1.95832e-08 2.20395e-08 2.00107e-08 2.24336e-08 1.95832e-08 2.20395e-08 2.00107e-08 2.24336e-08 0
0 0 0 0 0 0 0 0 0
0 1.04905e-08 1.01853e-08 1.09783e-08 0 1.04905e-08 1.01853e-08 1.09783e-08 0
1.10862e-08 1.20561e-08 1.15811e-08 1.25576e-08 1.10862e-08 1.20561e-08 1.15811e-08 1.25576e-08 0
1.28118e-08 1.40325e-08 1.33163e-08 1.45356e-08 1.28118e-08 1.40325e-08 1.33163e-08 1.45356e-08 0
1.51647e-08 1.71612e-08 1.56625e-08 1.76431e-08 1.51647e-08 1.71612e-08 1.56625e-08 1.76431e-08 0
1.87696e-08 2.12872e-08 1.92336e-08 2.17148e-08 1.87696e-08 2.12872e-08 1.92336e-08 2.17148e-08 0
0 0 0 0 0 0 0 0 0
0 0 0 0 0 0 0 0 0
0 0 0 1.01122e-08 0 0 0 1.01122e-08 0
1.01855e-08 1.11372e-08 1.07005e-08 1.16634e-08 1.01855e-08 1.11372e-08 1.07005e-08 1.16634e-08 0
1.18816e-08 1.30974e-08 1.24144e-08 1.36338e-08 1.18816e-08 1.30974e-08 1.24144e-08 1.36338e-08 0
1.4233e-08 1.6252e-08 1.47674e-08 1.67738e-08 1.4233e-08 1.6252e-08 1.47674e-08 1.67738e-08 0
1.7888e-08 2.04664e-08 1.83937e-08 2.09369e-08 1.7888e-08 2.04664e-08 1.83937e-08 2.09369e-08 0
0 0 0 0 0 0 0 0 0
0 0 0 0 0 0 0 0 0
0 0 0 0 0 0 0 0 0
0 1.01858e-08 0 1.0731e-08 0 1.01858e-08 0 1.0731e-08 0
1.09118e-08 1.21117e-08 1.14679e-08 1.26781e-08 1.09118e-08 1.21117e-08 1.14679e-08 1.26781e-08 0
1.32433e-08 1.52754e-08 1.38124e-08 1.58378e-08 1.32433e-08 1.52754e-08 1.38124e-08 1.58378e-08 0
1.6935e-08 1.95729e-08 1.74837e-08 2.0087e-08 1.6935e-08 1.95729e-08 1.74837e-08 2.0087e-08 0
0 0 0 0 0 0 0 0 0
0 0 0 0 0 0 0 0 0
0 0 0 0 0 0 0 0 0
0 0 0 0 0 0 0 0 0
0 1.10876e-08 1.04875e-08 1.16763e-08 0 1.10876e-08 1.04875e-08 1.16763e-08 0
1.22052e-08 1.42374e-08 1.28026e-08 1.48362e-08 1.22052e-08 1.42374e-08 1.28026e-08 1.48362e-08 0
1.59141e-08 1.86076e-08 1.65032e-08 1.9165e-08 1.59141e-08 1.86076e-08 1.65032e-08 1.9165e-08 0
0 0 0 0 0 0 0 0 0
0 0 0 0 0 0 0 0 0
0 0 0 0 0 0 0 0 0
0 0 0 0 0 0 0 0 0
0 0 0 0 0 0 0 0 0
0 1.00525e-08 0 1.06459e-08 0 1.00525e-08 0 1.06459e-08 0
1.11426e-08 1.31547e-08 1.17529e-08 1.37791e-08 1.11426e-08 1.31547e-08 1.17529e-08 1.37791e-08 0
1.48387e-08 1.75813e-08 1.54596e-08 1.81744e-08 1.48387e-08 1.75813e-08 1.54596e-08 1.81744e-08 0
0 0 0 0 0 0 0 0 0
0 0 0 0 0 0 0 0 0
0 0 0 0 0 0 0 0 0
0 0 0 0 0 0 0 0 0
0 0 0 0 0 0 0 0 0
0 0 0 0 0 0 0 0 0
1.00947e-08 1.20599e-08 1.06938e-08 1.26894e-08 1.00947e-08 1.20599e-08 1.06938e-08 1.26894e-08 0
1.37352e-08 1.65111e-08 1.43712e-08 1.71299e-08 1.37352e-08 1.65111e-08 1.43712e-08 1.71299e-08 0
0 0 0 0 0 0 0 0 0
0 0 0 0 0 0 0 0 0
0 0 0 0 0 0 0 0 0
0 0 0 0 0 0 0 0 0
0 0 0 0 0 0 0 0 0
0 0 0 0 0 0 0 0 0
0 1.10311e-08 0 1.16143e-08 0 1.10311e-08 0 1.16143e-08 0
1.26726e-08 1.54444e-08 1.32781e-08 1.60574e-08 1.26726e-08 1.54444e-08 1.32781e-08 1.60574e-08 0
0 0 0 0 0 0 0 0 0
0 0 0 0 0 0 0 0 0
0 0 0 0 0 0 0 0 0
0 0 0 0 0 0 0 0 0
0 0 0 0 0 0 0 0 0
0 0 0 0 0 0 0 0 0
0 0 0 0 0 0 0 0 0
0 0 0 0 0 0 0 0 0
0 0 0 0 0 0 0 0 0
0 0 0 0 0 0 0 0 0
0 0 0 0 0 0 0 0 0
0 0 0 0 0 0 0 0 0
0 0 0 0 0 0 0 0 0
0 0 0 0 0 0 0 0 0
0 0 0 0 0 0 0 0 0
0 0 0 0 0 0 0 0 0
0 0 0 0 0 0 0 0 0
0 0 0 0 0 0 0 0 0
0 0 0 0 0 0 0 0 0
0 0 0 0 0 0 0 0 0
0 0 0 0 0 0 0 0 0
0 0 0 0 0 0 0 0 0
0 0 0 0 0 0 0 0 0
0 0 0 0 0 0 0 0 0
0 0 0 0 0 0 0 0 0
0 0 0 0 0 0 0 0 0
0 0 0 0 0 0 0 0 0
0 0 0 0 0 0 0 0 0
0 0 0 0 0 0 0 0 0
0 0 0 0 0 0 0 0 0
0 0 0 0 0 0 0 0 0
0 0 0 0 0 0 0 0 0
0 0 0 0 0 0 0 0 0
0 0 0 0 0 0 0 0 0
0 0 0 0 0 0 0 0 0
0 0 0 0 0 0 0 0 0
0 0 0 0 0 0 0 0 0
0 0 0 0 0 0 0 0 0
0 0 0 0 0 0 0 0 0
0 0 0 0 0 0 0 0 0
0 0 0 0 0 0 0 0 0
0 0 0 0 0 0 0 0 0
0 0 0 0 0 0 0 0 0
0 0 0 0 0 0 0 0 0
0 0 0 0 0 0 0 0 0
0 0 0 0 0 0 0 0 0
0 0 0 0 0 0 0 0 0
0 0 0 0 0 0 0 0 0
0 0 0 0 0 0 0 0 0
0 0 0 0 0 0 0 0 0
0 0 0 0 0 0 0 0 0
0 0 0 0 0 0 0 0 0
0 0 0 0 0 0 0 0 0
0 0 0 0 0 0 0 0 0
0 0 0 0 0 0 0 0 0
0 0 0 0 0 0 0 0 0
0 0 0 0 0 0 0 0 0
0 0 0 0 0 0 0 0 0
0 0 0 0 0 0 0 0 0
0 0 0 0 0 0 0 0 0
0 0 0 0 0 0 0 0 0
0 0 0 0 0 0 0 0 0
0 0 0 0 0 0 0 0 0
0 0 0 0 0 0 0 0 0
0 0 0 0 0 0 0 0 0
0 0 0 0 0 0 0 0 0
0 0 0 0 0 0 0 0 0
0 0 0 0 0 0 0 0 0
0 0 0 0 0 0 0 0 0
0 0 0 0 0 0 0 0 0
0 0 0 0 0 0 0 0 0
0 0 0 0 0 0 0 0 0
0 0 0 0 0 0 0 0 0
0 0 0 0 0 0 0 0 0
0 0 0 0 0 0 0 0 0
0 0 0 0 0 0 0 0 0
0 0 0 0 0 0 0 0 0
0 0 0 0 0 0 0 0 0
0 0 0 0 0 0 0 0 0
0 0 0 0 0 0 0 0 0
0 0 0 0 0 0 0 0 0
0 0 0 0 0 0 0 0 0
0 0 0 0 0 0 0 0 0
0 0 0 0 0 0 0 0 0
0 0 0 0 0 0 0 0 0
0 0 0 0 0 0 0 0 0
0 0 0 0 0 0 0 0 0
0 0 0 0 0 0 0 0 0
0 0 0 0 0 0 0 0 0
0 0 0 0 0 0 0 0 0
0 0 0 0 0 0 0 0 0
0 0 0 0 0 0 0 0 0
0 0 0 0 0 0 0 0 0
0 0 0 0 0 0 0 0 0
0 0 0 0 0 0 0 0 0
0 0 0 0 0 0 0 0 0
0 0 0 0 0 0 0 0 0
0 0 0 0 0 0 0 0 0
0 0 0 0 0 0 0 0 0
0 0 0 0 0 0 0 0 0
0 0 0 0 0 0 0 0 0
0 0 0 0 0 0 0 0 0
0 0 0 0 0 0 0 0 0
0 0 0 0 0 0 0 0 0
0 0 0 0 0 0 0 0 0
0 0 0 0 0 0 0 0 0
0 0 0 0 0 0 0 0 0
0 0 0 0 0 0 0 0 0
0 0 0 0 0 0 0 0 0
0 0 0 0 0 0 0 0 0
0 0 0 0 0 0 0 0 0
0 0 0 0 0 0 0 0 0
0 0 0 0 0 0 0 0 0
0 0 0 0 0 0 0 0 0
0 0 0 0 0 0 0 0 0
0 0 0 0 0 0 0 0 0
0 0 0 0 0 0 0 0 0
0 0 0 0 0 0 0 0 0
0 0 0 0 0 0 0 0 0
0 0 0 0 0 0 0 0 0
0 0 0 0 0 0 0 0 0
0 0 0 0 0 0 0 0 0
0 0 0 0 0 0 0 0 0
0 0 0 0 0 0 0 0 0
0 0 0 0 0 0 0 0 0
0 0 0 0 0 0 0 0 0
0 0 0 0 0 0 0 0 0
0 0 0 0 0 0 0 0 0
0 0 0 0 0 0 0 0 0
0 0 0 0 0 0 0 0 0
0 0 0 0 0 0 0 0 0
0 0 0 0 0 0 0 0 0
0 0 0 0 0 0 0 0 0
0 0 0 0 0 0 0 0 0
0 0 0 0 0 0 0 0 0
0 0 0 0 0 0 0 0 0
0 0 0 0 0 0 0 0 0
0 0 0 0 0 0 0 0 0
0 0 0 0 0 0 0 0 0
0 0 0 0 0 0 0 0 0
0 0 0 0 0 0 0 0 0
0 0 0 0 0 0 0 0 0
0 0 0 0 0 0 0 0 0
0 0 0 0 0 0 0 0 0
0 0 0 0 0 0 0 0 0
0 0 0 0 0 0 0 0 0
0 0 0 0 0 0 0 0 0
0 0 0 0 0 0 0 0 0
0 0 0 0 0 0 0 0 0
0 0 0 0 0 0 0 0 0
0 0 0 0 0 0 0 0 0
0 0 0 0 0 0 0 0 0
0 0 0 0 0 0 0 0 0
0 0 0 0 0 0 0 0 0
0 0 0 0 0 0 0 0 0
0 0 0 0 0 0 0 0 0
0 0 0 0 0 0 0 0 0
0 0 0 0 0 0 0 0 0
0 0 0 0 0 0 0 0 0
0 0 0 0 0 0 0 0 0
0 0 0 0 0 0 0 0 0
0 0 0 0 0 0 0 0 0
0 0 0 0 0 0 0 0 0
0 0 0 0 0 0 0 0 0
0 0 0 0 0 0 0 0 0
0 0 0 0 0 0 0 0 0
0 0 0 0 0 0 0 0 0
0 0 0 0 0 0 0 0 0
0 0 0 0 0 0 0 0 0
0 0 0 0 0 0 0 0 0
0 0 0 0 0 0 0 0 0
0 0 0 0 0 0 0 0 0
0 0 0 0 0 0 0 0 0
0 0 0 0 0 0 0 0 0
0 0 0 0 0 0 0 0 0
0 0 0 0 0 0 0 0 0
0 0 0 0 0 0 0 0 0
0 0 0 0 0 0 0 0 0
0 0 0 0 0 0 0 0 0
0 0 0 0 0 0 0 0 0
0 0 0 0 0 0 0 0 0
0 0 0 0 0 0 0 0 0
0 0 0 0 0 0 0 0 0
0 0 0 0 0 0 0 0 0
0 0 0 0 0 0 0 0 0
0 0 0 0 0 0 0 0 0
0 0 0 0 0 0 0 0 0
0 0 0 0 0 0 0 0 0
0 0 0 0 0 0 0 0 0
0 0 0 0 0 0 0 0 0
0 0 0 0 0 0 0 0 0
0 0 0 0 0 0 0 0 0
0 0 0 0 0 0 0 0 0
0 0 0 0 0 0 0 0 0
0 0 0 0 0 0 0 0 0
0 0 0 0 0 0 0 0 0
0 0 0 0 0 0 0 0 0
0 0 0 0 0 0 0 0 0
0 0 0 0 0 0 0 0 0
0 0 0 0 0 0 0 0 0
0 0 0 0 0 0 0 0 0
0 0 0 0 0 0 0 0 0
0 0 0 0 0 0 0 0 0
0 0 0 0 0 0 0 0 0
0 0 0 0 0 0 0 0 0
0 0 0 0 0 0 0 0 0
0 0 0 0 0 0 0 0 0
0 0 0 0 0 0 0 0 0
0 0 0 0 0 0 0 0 0
0 0 0 0 0 0 0 0 0
0 0 0 0 0 0 0 0 0
0 0 0 0 0 0 0 0 0
0 0 0 0 0 0 0 0 0
0 0 0 0 0 0 0 0 0
0 0 0 0 0 0 0 0 0
0 0 0 0 0 0 0 0 0
0 0 0 0 0 0 0 0 0
0 0 0 0 0 0 0 0 0
0 0 0 0 0 0 0 0 0
0 0 0 0 0 0 0 0 0
0 0 0 0 0 0 0 0 0
0 0 0 0 0 0 0 0 0
0 0 0 0 0 0 0 0 0
0 0 0 0 0 0 0 0 0
0 0 0 0 0 0 0 0 0
0 0 0 0 0 0 0 0 0
0 0 0 0 0 0 0 0 0
0 0 0 0 0 0 0 0 0
0 0 0 0 0 0 0 0 0
0 0 0 0 0 0 0 0 0
0 0 0 0 0 0 0 0 0
0 0 0 0 0 0 0 0 0
0 0 0 0 0 0 0 0 0
0 0 0 0 0 0 0 0 0
0 0 0 0 0 0 0 0 0
0 0 0 0 0 0 0 0 0
0 0 0 0 0 0 0 0 0
0 0 0 0 0 0 0 0 0
0 0 0 0 0 0 0 0 0
0 0 0 0 0 0 0 0 0
0 0 0 0 0 0 0 0 0
0 0 0 0 0 0 0 0 0
0 0 0 0 0 0 0 0 0
0 0 0 0 0 0 0 0 0
0 0 0 0 0 0 0 0 0
0 0 0 0 0 0 0 0 0
0 0 0 0 0 0 0 0 0
0 0 0 0 0 0 0 0 0
0 0 0 0 0 0 0 0 0
0 0 0 0 0 0 0 0 0
0 0 0 0 0 0 0 0 0
0 0 0 0 0 0 0 0 0
0 0 0 0 0 0 0 0 0
0 0 0 0 0 0 0 0 0
0 0 0 0 0 0 0 0 0
0 0 0 0 0 0 0 0 0
0 0 0 0 0 0 0 0 0
0 0 0 0 0 0 0 0 0
0 0 0 0 0 0 0 0 0
0 0 0 0 0 0 0 0 0
0 0 0 0 0 0 0 0 0
0 0 0 0 0 0 0 0 0
0 0 0 0 0 0 0 0 0
0 0 0 0 0 0 0 0 0
0 0 0 0 0 0 0 0 0
0 0 0 0 0 0 0 0 0
0 0 0 0 0 0 0 0 0
0 0 0 0 0 0 0 0 0
0 0 0 0 0 0 0 0 0
0 0 0 0 0 0 0 0 0
0 0 0 0 0 0 0 0 0
0 0 0 0 0 0 0 0 0
0 0 0 0 0 0 0 0 0
0 0 0 0 0 0 0 0 0
0 0 0 0 0 0 0 0 0
0 0 0 0 0 0 0 0 0
0 0 0 0 0 0 0 0 0
0 0 0 0 0 0 0 0 0
0 0 0 0 0 0 0 0 0
0 0 0 0 0 0 0 0 0
0 0 0 0 0 0 0 0 0
0 0 0 0 0 0 0 0 0
0 0 0 0 0 0 0 0 0
0 0 0 0 0 0 0 0 0
0 0 0 0 0 0 0 0 0
0 0 0 0 0 0 0 0 0
0 0 0 0 0 0 0 0 0
0 0 0 0 0 0 0 0 0
0 0 0 0 0 0 0 0 0
0 0 0 0 0 0 0 0 0
0 0 0 0 0 0 0 0 0
0 0 0 0 0 0 0 0 0
0 0 0 0 0 0 0 0 0
0 0 0 0 0 0 0 0 0
0 0 0 0 0 0 0 0 0
0 0 0 0 0 0 0 0 0
0 0 0 0 0 0 0 0 0
0 0 0 0 0 0 0 0 0
0 0 0 0 0 0 0 0 0
0 0 0 0 0 0 0 0 0
0 0 0 0 0 0 0 0 0
0 0 0 0 0 0 0 0 0
0 0 0 0 0 0 0 0 0
0 0 0 0 0 0 0 0 0
0 0 0 0 0 0 0 0 0
0 0 0 0 0 0 0 0 0
0 0 0 0 0 0 0 0 0
0 0 0 0 0 0 0 0 0
0 0 0 0 0 0 0 0 0
0 0 0 0 0 0 0 0 0
0 0 0 0 0 0 0 0 0
0 0 0 0 0 0 0 0 0
0 0 0 0 0 0 0 0 0
0 0 0 0 0 0 0 0 0
0 0 0 0 0 0 0 0 0
0 0 0 0 0 0 0 0 0
0 0 0 0 0 0 0 0 0
0 0 0 0 0 0 0 0 0
0 0 0 0 0 0 0 0 0
0 0 0 0 0 0 0 0 0
0 0 0 0 0 0 0 0 0
0 0 0 0 0 0 0 0 0
0 0 0 0 0 0 0 0 0
0 0 0 0 0 0 0 0 0
0 0 0 0 0 0 0 0 0
0 0 0 0 0 0 0 0 0
0 0 0 0 0 0 0 0 0
0 0 0 0 0 0 0 0 0
0 0 0 0 0 0 0 0 0
0 0 0 0 0 0 0 0 0
0 0 0 0 0 0 0 0 0
0 0 0 0 0 0 0 0 0
0 0 0 0 0 0 0 0 0
0 0 0 0 0 0 0 0 0
0 0 0 0 0 0 0 0 0
0 0 0 0 0 0 0 0 0
0 0 0 0 0 0 0 0 0
0 0 0 0 0 0 0 0 0
0 0 0 0 0 0 0 0 0
0 0 0 0 0 0 0 0 0
0 0 0 0 0 0 0 0 0
0 0 0 0 0 0 0 0 0
0 0 0 0 0 0 0 0 0
0 0 0 0 0 0 0 0 0
0 0 0 0 0 0 0 0 0
0 0 0 0 0 0 0 0 0
0 0 0 0 0 0 0 0 0
0 0 0 0 0 0 0 0 0
0 0 0 0 0 0 0 0 0
0 0 0 0 0 0 0 0 0
0 0 0 0 0 0 0 0 0
0 0 0 0 0 0 0 0 0
0 0 0 0 0 0 0 0 0
0 0 0 0 0 0 0 0 0
0 0 0 0 0 0 0 0 0
0 0 0 0 0 0 0 0 0
0 0 0 0 0 0 0 0 0
0 0 0 0 0 0 0 0 0
0 0 0 0 0 0 0 0 0
0 0 0 0 0 0 0 0 0
0 0 0 0 0 0 0 0 0
0 0 0 0 0 0 0 0 0
0 0 0 0 0 0 0 0 0
0 0 0 0 0 0 0 0 0
0 0 0 0 0 0 0 0 0
0 0 0 0 0 0 0 0 0
0 0 0 0 0 0 0 0 0
0 0 0 0 0 0 0 0 0
0 0 0 0 0 0 0 0 0
0 0 0 0 0 0 0 0 0
0 0 0 0 0 0 0 0 0
0 0 0 0 0 0 0 0 0
0 0 0 0 0 0 0 0 0
0 0 0 0 0 0 0 0 0
0 0 0 0 0 0 0 0 0
0 0 0 0 0 0 0 0 0
0 0 0 0 0 0 0 0 0
0 0 0 0 0 0 0 0 0
0 0 0 0 0 0 0 0 0
0 0 0 0 0 0 0 0 0
0 0 0 0 0 0 0 0 0
0 0 0 0 0 0 0 0 0
0 0 0 0 0 0 0 0 0
0 0 0 0 0 0 0 0 0
0 0 0 0 0 0 0 0 0
0 0 0 0 0 0 0 0 0
0 0 0 0 0 0 0 0 0
0 0 0 0 0 0 0 0 0
0 0 0 0 0 0 0 0 0
0 0 0 0 0 0 0 0 0
0 0 0 0 0 0 0 0 0
0 0 0 0 0 0 0 0 0
0 0 0 0 0 0 0 0 0
0 0 0 0 0 0 0 0 0
0 0 0 0 0 0 0 0 0
0 0 0 0 0 0 0 0 0
0 0 0 0 0 0 0 0 0
0 0 0 0 0 0 0 0 0
0 0 0 0 0 0 0 0 0
0 0 0 0 0 0 0 0 0
0 0 0 0 0 0 0 0 0
0 0 0 0 0 0 0 0 0
0 0 0 0 0 0 0 0 0
0 0 0 0 0 0 0 0 0
0 0 0 0 0 0 0 0 0
0 0 0 0 0 0 0 0 0
0 0 0 0 0 0 0 0 0
0 0 0 0 0 0 0 0 0
0 0 0 0 0 0 0 0 0
0 0 0 0 0 0 0 0 0
0 0 0 0 0 0 0 0 0
0 0 0 0 0 0 0 0 0
0 0 0 0 0 0 0 0 0
0 0 0 0 0 0 0 0 0
0 0 0 0 0 0 0 0 0
0 0 0 0 0 0 0 0 0
0 0 0 0 0 0 0 0 0
0 0 0 0 0 0 0 0 0
0 0 0 0 0 0 0 0 0
0 0 0 0 0 0 0 0 0
0 0 0 0 0 0 0 0 0
0 0 0 0 0 0 0 0 0
0 0 0 0 0 0 0 0 0
0 0 0 0 0 0 0 0 0
0 0 0 0 0 0 0 0 0
0 0 0 0 0 0 0 0 0
0 0 0 0 0 0 0 0 0
0 0 0 0 0 0 0 0 0
0 0 0 0 0 0 0 0 0
0 0 0 0 0 0 0 0 0
0 0 0 0 0 0 0 0 0
0 0 0 0 0 0 0 0 0
0 0 0 0 0 0 0 0 0
0 0 0 0 0 0 0 0 0
0 0 0 0 0 0 0 0 0
0 0 0 0 0 0 0 0 0
0 0 0 0 0 0 0 0 0
0 0 0 0 0 0 0 0 0
0 0 0 0 0 0 0 0 0
0 0 0 0 0 0 0 0 0
0 0 0 0 0 0 0 0 0
0 0 0 0 0 0 0 0 0
0 0 0 0 0 0 0 0 0
0 0 0 0 0 0 0 0 0
0 0 0 0 0 0 0 0 0
0 0 0 0 0 0 0 0 0
0 0 0 0 0 0 0 0 0
0 0 0 0 0 0 0 0 0
0 0 0 0 0 0 0 0 0
0 0 0 0 0 0 0 0 0
0 0 0 0 0 0 0 0 0
0 0 0 0 0 0 0 0 0
0 0 0 0 0 0 0 0 0
0 0 0 0 0 0 0 0 0
0 0 0 0 0 0 0 0 0
0 0 0 0 0 0 0 0 0
0 0 0 0 0 0 0 0 0
0 0 0 0 0 0 0 0 0
0 0 0 0 0 0 0 0 0
0 0 0 0 0 0 0 0 0
0 0 0 0 0 0 0 0 0
0 0 0 0 0 0 0 0 0
0 0 0 0 0 0 0 0 0
0 0 0 0 0 0 0 0 0
0 0 0 0 0 0 0 0 0
0 0 0 0 0 0 0 0 0
0 0 0 0 0 0 0 0 0
0 0 0 0 0 0 0 0 0
0 0 0 0 0 0 0 0 0
0 0 0 0 0 0 0 0 0
0 0 0 0 0 0 0 0 0
0 0 0 0 0 0 0 0 0
0 0 0 0 0 0 0 0 0
0 0 0 0 0 0 0 0 0
0 0 0 0 0 0 0 0 0
0 0 0 0 0 0 0 0 0
0 0 0 0 0 0 0 0 0
0 0 0 0 0 0 0 0 0
0 0 0 0 0 0 0 0 0
0 0 0 0 0 0 0 0 0
0 0 0 0 0 0 0 0 0
0 0 0 0 0 0 0 0 0
0 0 0 0 0 0 0 0 0
0 0 0 0 0 0 0 0 0
0 0 0 0 0 0 0 0 0
0 0 0 0 0 0 0 0 0
0 0 0 0 0 0 0 0 0
0 0 0 0 0 0 0 0 0
0 0 0 0 0 0 0 0 0
0 0 0 0 0 0 0 0 0
0 0 0 0 0 0 0 0 0
0 0 0 0 0 0 0 0 0
0 0 0 0 0 0 0 0 0
0 0 0 0 0 0 0 0 0
0 0 0 0 0 0 0 0 0
0 0 0 0 0 0 0 0 0
0 0 0 0 0 0 0 0 0
0 0 0 0 0 0 0 0 0
0 0 0 0 0 0 0 0 0
0 0 0 0 0 0 0 0 0
0 0 0 0 0 0 0 0 0
0 0 0 0 0 0 0 0 0
0 0 0 0 0 0 0 0 0
0 0 0 0 0 0 0 0 0
0 0 0 0 0 0 0 0 0
0 0 0 0 0 0 0 0 0
0 0 0 0 0 0 0 0 0
0 0 0 0 0 0 0 0 0
0 0 0 0 0 0 0 0 0
0 0 0 0 0 0 0 0 0
0 0 0 0 0 0 0 0 0
0 0 0 0 0 0 0 0 0
0 0 0 0 0 0 0 0 0
0 0 0 0 0 0 0 0 0
0 0 0 0 0 0 0 0 0
0 0 0 0 0 0 0 0 0
0 0 0 0 0 0 0 0 0
0 0 0 0 0 0 0 0 0
0 0 0 0 0 0 0 0 0
0 0 0 0 0 0 0 0 0
0 0 0 0 0 0 0 0 0
0 0 0 0 0 0 0 0 0
0 0 0 0 0 0 0 0 0
0 0 0 0 0 0 0 0 0
0 0 0 0 0 0 0 0 0
0 0 0 0 0 0 0 0 0
0 0 0 0 0 0 0 0 0
0 0 0 0 0 0 0 0 0
0 0 0 0 0 0 0 0 0
0 0 0 0 0 0 0 0 0
0 0 0 0 0 0 0 0 0
0 0 0 0 0 0 0 0 0
0 0 0 0 0 0 0 0 0
0 0 0 0 0 0 0 0 0
0 0 0 0 0 0 0 0 0
0 0 0 0 0 0 0 0 0
0 0 0 0 0 0 0 0 0
0 0 0 0 0 0 0 0 0
0 0 0 0 0 0 0 0 0
0 0 0 0 0 0 0 0 0
0 0 0 0 0 0 0 0 0
0 0 0 0 0 0 0 0 0
0 0 0 0 0 0 0 0 0
0 0 0 0 0 0 0 0 0
0 0 0 0 0 0 0 0 0
0 0 0 0 0 0 0 0 0
0 0 0 0 0 0 0 0 0
0 0 0 0 0 0 0 0 0
0 0 0 0 0 0 0 0 0
0 0 0 0 0 0 0 0 0
0 0 0 0 0 0 0 0 0
0 0 0 0 0 0 0 0 0
0 0 0 0 0 0 0 0 0
0 0 0 0 0 0 0 0 0
0 0 0 0 0 0 0 0 0
0 0 0 0 0 0 0 0 0
0 0 0 0 0 0 0 0 0
0 0 0 0 0 0 0 0 0
0 0 0 0 0 0 0 0 0
0 0 0 0 0 0 0 0 0
0 0 0 0 0 0 0 0 0
0 0 0 0 0 0 0 0 0
0 0 0 0 0 0 0 0 0
0 0 0 0 0 0 0 0 0
0 0 0 0 0 0 0 0 0
0 0 0 0 0 0 0 0 0
0 0 0 0 0 0 0 0 0
0 0 0 0 0 0 0 0 0
0 0 0 0 0 0 0 0 0
0 0 0 0 0 0 0 0 0
0 0 0 0 0 0 0 0 0
0 0 0 0 0 0 0 0 0
0 0 0 0 0 0 0 0 0
0 0 0 0 0 0 0 0 0
0 0 0 0 0 0 0 0 0
0 0 0 0 0 0 0 0 0
0 0 0 0 0 0 0 0 0
0 0 0 0 0 0 0 0 0
0 0 0 0 0 0 0 0 0
0 0 0 0 0 0 0 0 0
0 0 0 0 0 0 0 0 0
0 0 0 0 0 0 0 0 0
0 0 0 0 0 0 0 0 0
0 0 0 0 0 0 0 0 0
0 0 0 0 0 0 0 0 0
0 0 0 0 0 0 0 0 0
0 0 0 0 0 0 0 0 0
0 0 0 0 0 0 0 0 0
0 0 0 0 0 0 0 0 0
0 0 0 0 0 0 0 0 0
0 0 0 0 0 0 0 0 0
0 0 0 0 0 0 0 0 0
0 0 0 0 0 0 0 0 0
0 0 0 0 0 0 0 0 0
0 0 0 0 0 0 0 0 0
0 0 0 0 0 0 0 0 0
0 0 0 0 0 0 0 0 0
0 0 0 0 0 0 0 0 0
0 0 0 0 0 0 0 0 0
0 0 0 0 0 0 0 0 0
0 0 0 0 0 0 0 0 0
0 0 0 0 0 0 0 0 0
0 0 0 0 0 0 0 0 0
0 0 0 0 0 0 0 0 0
0 0 0 0 0 0 0 0 0
0 0 0 0 0 0 0 0 0
0 0 0 0 0 0 0 0 0
0 0 0 0 0 0 0 0 0
0 0 0 0 0 0 0 0 0
0 0 0 0 0 0 0 0 0
0 0 0 0 0 0 0 0 0
0 0 0 0 0 0 0 0 0
0 0 0 0 0 0 0 0 0
0 0 0 0 0 0 0 0 0
0 0 0 0 0 0 0 0 0
0 0 0 0 0 0 0 0 0
0 0 0 0 0 0 0 0 0
0 0 0 0 0 0 0 0 0
0 0 0 0 0 0 0 0 0
0 0 0 0 0 0 0 0 0
0 0 0 0 0 0 0 0 0
0 0 0 0 0 0 0 0 0
0 0 0 0 0 0 0 0 0
0 0 0 0 0 0 0 0 0
0 0 0 0 0 0 0 0 0
0 0 0 0 0 0 0 0 0
0 0 0 0 0 0 0 0 0
0 0 0 0 0 0 0 0 0
0 0 0 0 0 0 0 0 0
0 0 0 0 0 0 0 0 0
0 0 0 0 0 0 0 0 0
0 0 0 0 0 0 0 0 0
0 0 0 0 0 0 0 0 0
0 0 0 0 0 0 0 0 0
0 0 0 0 0 0 0 0 0
0 0 0 0 0 0 0 0 0
0 0 0 0 0 0 0 0 0
0 0 0 0 0 0 0 0 0
0 0 0 0 0 0 0 0 0
0 0 0 0 0 0 0 0 0
0 0 0 0 0 0 0 0 0
0 0 0 0 0 0 0 0 0
0 0 0 0 0 0 0 0 0
0 0 0 0 0 0 0 0 0
0 0 0 0 0 0 0 0 0
0 0 0 0 0 0 0 0 0
0 0 0 0 0 0 0 0 0
0 0 0 0 0 0 0 0 0
0 0 0 0 0 0 0 0 0
0 0 0 0 0 0 0 0 0
0 0 0 0 0 0 0 0 0
0 0 0 0 0 0 0 0 0
0 0 0 0 0 0 0 0 0
0 0 0 0 0 0 0 0 0
0 0 0 0 0 0 0 0 0
0 0 0 0 0 0 0 0 0
0 0 0 0 0 0 0 0 0
0 0 0 0 0 0 0 0 0
0 0 0 0 0 0 0 0 0
0 0 0 0 0 0 0 0 0
0 0 0 0 0 0 0 0 0
0 0 0 0 0 0 0 0 0
0 0 0 0 0 0 0 0 0
0 0 0 0 0 0 0 0 0
0 0 0 0 0 0 0 0 0
0 0 0 0 0 0 0 0 0
0 0 0 0 0 0 0 0 0
0 0 0 0 0 0 0 0 0
0 0 0 0 0 0 0 0 0
0 0 0 0 0 0 0 0 0
0 0 0 0 0 0 0 0 0
0 0 0 0 0 0 0 0 0
0 0 0 0 0 0 0 0 0
0 0 0 0 0 0 0 0 0
0 0 0 0 0 0 0 0 0
0 0 0 0 0 0 0 0 0
0 0 0 0 0 0 0 0 0
0 0 0 0 0 0 0 0 0
0 0 0 0 0 0 0 0 0
0 0 0 0 0 0 0 0 0
0 0 0 0 0 0 0 0 0
0 0 0 0 0 0 0 0 0
0 0 0 0 0 0 0 0 0
0 0 0 0 0 0 0 0 0
0 0 0 0 0 0 0 0 0
0 0 0 0 0 0 0 0 0
0 0 0 0 0 0 0 0 0
0 0 0 0 0 0 0 0 0
0 0 0 0 0 0 0 0 0
0 0 0 0 0 0 0 0 0
0 0 0 0 0 0 0 0 0
0 0 0 0 0 0 0 0 0
0 0 0 0 0 0 0 0 0
2.45731e-08 2.66112e-08 2.54663e-08 2.74735e-08 2.45731e-08 2.66112e-08 2.54663e-08 2.74735e-08 0
2.80495e-08 3.01162e-08 2.8886e-08 3.09088e-08 2.80495e-08 3.01162e-08 2.8886e-08 3.09088e-08 0
3.17749e-08 3.44122e-08 3.2529e-08 3.5101e-08 3.17749e-08 3.44122e-08 3.2529e-08 3.5101e-08 0
3.51767e-08 3.47953e-08 3.58163e-08 3.53614e-08 3.51767e-08 3.47953e-08 3.58163e-08 3.53614e-08 0
1.97741e-08 2.15549e-08 2.0747e-08 2.25192e-08 1.97741e-08 2.15549e-08 2.0747e-08 2.25192e-08 0
2.28972e-08 2.49705e-08 2.38533e-08 2.59082e-08 2.28972e-08 2.49705e-08 2.38533e-08 2.59082e-08 0
2.6445e-08 2.85864e-08 2.73615e-08 2.94592e-08 2.6445e-08 2.85864e-08 2.73615e-08 2.94592e-08 0
3.03121e-08 3.30692e-08 3.11446e-08 3.38307e-08 3.03121e-08 3.30692e-08 3.11446e-08 3.38307e-08 0
3.39257e-08 3.36871e-08 3.46316e-08 3.43075e-08 3.39257e-08 3.36871e-08 3.46316e-08 3.43075e-08 0
1.79688e-08 1.97513e-08 1.9002e-08 2.07847e-08 1.79688e-08 1.97513e-08 1.9002e-08 2.07847e-08 0
2.11009e-08 2.32037e-08 2.21296e-08 2.42149e-08 2.11009e-08 2.32037e-08 2.21296e-08 2.42149e-08 0
2.47108e-08 2.69238e-08 2.57021e-08 2.78736e-08 2.47108e-08 2.69238e-08 2.57021e-08 2.78736e-08 0
2.87171e-08 3.15995e-08 2.96267e-08 3.24356e-08 2.87171e-08 3.15995e-08 2.96267e-08 3.24356e-08 0
3.25555e-08 3.24752e-08 3.33323e-08 3.31583e-08 3.25555e-08 3.24752e-08 3.33323e-08 3.31583e-08 0
1.34395e-08 1.49408e-08 1.45035e-08 1.60222e-08 1.34395e-08 1.49408e-08 1.45035e-08 1.60222e-08 0
1.60635e-08 1.78358e-08 1.71554e-08 1.89343e-08 1.60635e-08 1.78358e-08 1.71554e-08 1.89343e-08 0
1.91852e-08 2.13093e-08 2.02835e-08 2.23959e-08 1.91852e-08 2.13093e-08 2.02835e-08 2.23959e-08 0
2.28437e-08 2.51222e-08 2.3914e-08 2.61548e-08 2.28437e-08 2.51222e-08 2.3914e-08 2.61548e-08 0
2.69816e-08 2.99914e-08 2.79751e-08 3.09105e-08 2.69816e-08 2.99914e-08 2.79751e-08 3.09105e-08 0
3.10534e-08 3.11474e-08 3.19094e-08 3.19002e-08 3.10534e-08 3.11474e-08 3.19094e-08 3.19002e-08 0
1.15154e-08 1.29763e-08 1.2617e-08 1.4102e-08 1.15154e-08 1.29763e-08 1.2617e-08 1.4102e-08 0
1.40707e-08 1.58173e-08 1.52128e-08 1.69757e-08 1.40707e-08 1.58173e-08 1.52128e-08 1.69757e-08 0
1.71556e-08 1.92869e-08 1.83207e-08 2.04491e-08 1.71556e-08 1.92869e-08 1.83207e-08 2.04491e-08 0
2.08398e-08 2.31741e-08 2.19912e-08 2.42939e-08 2.08398e-08 2.31741e-08 2.19912e-08 2.42939e-08 0
2.50958e-08 2.82327e-08 2.61789e-08 2.92419e-08 2.50958e-08 2.82327e-08 2.61789e-08 2.92419e-08 0
2.94049e-08 2.9686e-08 3.03489e-08 3.052e-08 2.94049e-08 2.9686e-08 3.03489e-08 3.052e-08 0
0 1.09489e-08 1.0672e-08 1.21111e-08 0 1.09489e-08 1.0672e-08 1.21111e-08 0
1.20034e-08 1.37073e-08 1.3189e-08 1.4919e-08 1.20034e-08 1.37073e-08 1.3189e-08 1.4919e-08 0
1.50214e-08 1.71418e-08 1.62475e-08 1.8376e-08 1.50214e-08 1.71418e-08 1.62475e-08 1.8376e-08 0
1.87012e-08 2.10771e-08 1.99319e-08 2.22851e-08 1.87012e-08 2.10771e-08 1.99319e-08 2.22851e-08 0
2.30539e-08 2.63134e-08 2.42298e-08 2.74185e-08 2.30539e-08 2.63134e-08 2.42298e-08 2.74185e-08 0
2.7598e-08 2.8077e-08 2.86369e-08 2.89998e-08 2.7598e-08 2.8077e-08 2.86369e-08 2.89998e-08 0
0 0 0 0 0 0 0 0 0
0 0 0 1.00657e-08 0 0 0 1.00657e-08 0
0 1.15277e-08 1.1099e-08 1.27788e-08 0 1.15277e-08 1.1099e-08 1.27788e-08 0
1.28027e-08 1.48898e-08 1.40771e-08 1.61858e-08 1.28027e-08 1.48898e-08 1.40771e-08 1.61858e-08 0
1.64397e-08 1.88366e-08 1.7742e-08 2.01288e-08 1.64397e-08 1.88366e-08 1.7742e-08 2.01288e-08 0
2.08576e-08 2.42307e-08 2.21246e-08 2.54327e-08 2.08576e-08 2.42307e-08 2.21246e-08 2.54327e-08 0
2.56267e-08 2.63104e-08 2.67634e-08 2.73277e-08 2.56267e-08 2.63104e-08 2.67634e-08 2.73277e-08 0
0 0 0 0 0 0 0 0 0
0 0 0 0 0 0 0 0 0
0 0 0 1.05832e-08 0 0 0 1.05832e-08 0
1.05348e-08 1.25623e-08 1.18356e-08 1.39003e-08 1.05348e-08 1.25623e-08 1.18356e-08 1.39003e-08 0
1.40829e-08 1.64731e-08 1.54391e-08 1.78362e-08 1.40829e-08 1.64731e-08 1.54391e-08 1.78362e-08 0
1.85215e-08 2.19906e-08 1.98698e-08 2.32854e-08 1.85215e-08 2.19906e-08 1.98698e-08 2.32854e-08 0
2.34947e-08 2.43927e-08 2.47263e-08 2.54989e-08 2.34947e-08 2.43927e-08 2.47263e-08 2.54989e-08 0
0 0 0 0 0 0 0 0 0
0 0 0 0 0 0 0 0 0
0 0 0 0 0 0 0 0 0
0 1.02136e-08 0 1.15596e-08 0 1.02136e-08 0 1.15596e-08 0
1.16811e-08 1.40294e-08 1.30597e-08 1.54363e-08 1.16811e-08 1.40294e-08 1.30597e-08 1.54363e-08 0
1.60815e-08 1.96185e-08 1.74881e-08 2.09891e-08 1.60815e-08 1.96185e-08 1.74881e-08 2.09891e-08 0
2.12191e-08 2.2329e-08 2.25345e-08 2.35223e-08 2.12191e-08 2.2329e-08 2.25345e-08 2.35223e-08 0
0 0 0 0 0 0 0 0 0
0 0 0 0 0 0 0 0 0
0 0 0 0 0 0 0 0 0
0 0 0 0 0 0 0 0 0
0 0 0 0 0 0 0 0 0
0 1.15792e-08 1.06662e-08 1.29837e-08 0 1.15792e-08 1.06662e-08 1.29837e-08 0
1.36039e-08 1.71665e-08 1.50271e-08 1.858e-08 1.36039e-08 1.71665e-08 1.50271e-08 1.858e-08 0
1.88428e-08 2.01506e-08 2.02143e-08 2.14094e-08 1.88428e-08 2.01506e-08 2.02143e-08 2.14094e-08 0
0 0 0 0 0 0 0 0 0
0 0 0 0 0 0 0 0 0
0 0 0 0 0 0 0 0 0
0 0 0 0 0 0 0 0 0
0 0 0 0 0 0 0 0 0
0 0 0 1.05674e-08 0 0 0 1.05674e-08 0
1.11915e-08 1.47218e-08 1.25678e-08 1.6124e-08 1.11915e-08 1.47218e-08 1.25678e-08 1.6124e-08 0
1.64396e-08 1.79105e-08 1.78212e-08 1.92024e-08 1.64396e-08 1.79105e-08 1.78212e-08 1.92024e-08 0
0 0 0 0 0 0 0 0 0
0 0 0 0 0 0 0 0 0
0 0 0 0 0 0 0 0 0
0 0 0 0 0 0 0 0 0
0 0 0 0 0 0 0 0 0
0 0 0 0 0 0 0 0 0
0 1.23769e-08 1.02206e-08 1.37154e-08 0 1.23769e-08 1.02206e-08 1.37154e-08 0
1.40883e-08 1.56671e-08 1.54355e-08 1.6959e-08 1.40883e-08 1.56671e-08 1.54355e-08 1.6959e-08 0
0 0 0 0 0 0 0 0 0
0 0 0 0 0 0 0 0 0
0 0 0 0 0 0 0 0 0
0 0 0 0 0 0 0 0 0
0 0 0 0 0 0 0 0 0
0 0 0 0 0 0 0 0 0
0 0 0 0 0 0 0 0 0
0 0 0 0 0 0 0 0 0
0 0 0 0 0 0 0 0 0
0 0 0 0 0 0 0 0 0
0 0 0 0 0 0 0 0 0
0 0 0 0 0 0 0 0 0
0 0 0 0 0 0 0 0 0
0 0 0 0 0 0 0 0 0
0 0 0 0 0 0 0 0 0
0 0 0 0 0 0 0 0 0
0 0 0 0 0 0 0 0 0
0 0 0 0 0 0 0 0 0
0 0 0 0 0 0 0 0 0
0 0 0 0 0 0 0 0 0
0 0 0 0 0 0 0 0 0
0 0 0 0 0 0 0 0 0
0 0 0 0 0 0 0 0 0
0 0 0 0 0 0 0 0 0
0 0 0 0 0 0 0 0 0
0 0 0 0 0 0 0 0 0
0 0 0 0 0 0 0 0 0
0 0 0 0 0 0 0 0 0
0 0 0 0 0 0 0 0 0
0 0 0 0 0 0 0 0 0
0 0 0 0 0 0 0 0 0
0 0 0 0 0 0 0 0 0
0 0 0 0 0 0 0 0 0
0 0 0 0 0 0 0 0 0
0 0 0 0 0 0 0 0 0
0 0 0 0 0 0 0 0 0
0 0 0 0 0 0 0 0 0
0 0 0 0 0 0 0 0 0
0 0 0 0 0 0 0 0 0
0 0 0 0 0 0 0 0 0
0 0 0 0 0 0 0 0 0
0 0 0 0 0 0 0 0 0
0 0 0 0 0 0 0 0 0
0 0 0 0 0 0 0 0 0
0 0 0 0 0 0 0 0 0
0 0 0 0 0 0 0 0 0
0 0 0 0 0 0 0 0 0
0 0 0 0 0 0 0 0 0
0 0 0 0 0 0 0 0 0
0 0 0 0 0 0 0 0 0
0 0 0 0 0 0 0 0 0
0 0 0 0 0 0 0 0 0
0 0 0 0 0 0 0 0 0
0 0 0 0 0 0 0 0 0
0 0 0 0 0 0 0 0 0
0 0 0 0 0 0 0 0 0
0 0 0 0 0 0 0 0 0
0 0 0 0 0 0 0 0 0
0 0 0 0 0 0 0 0 0
0 0 0 0 0 0 0 0 0
0 0 0 0 0 0 0 0 0
0 0 0 0 0 0 0 0 0
0 0 0 0 0 0 0 0 0
0 0 0 0 0 0 0 0 0
0 0 0 0 0 0 0 0 0
0 0 0 0 0 0 0 0 0
0 0 0 0 0 0 0 0 0
0 0 0 0 0 0 0 0 0
0 0 0 0 0 0 0 0 0
0 0 0 0 0 0 0 0 0
0 0 0 0 0 0 0 0 0
0 0 0 0 0 0 0 0 0
0 0 0 0 0 0 0 0 0
0 0 0 0 0 0 0 0 0
0 0 0 0 0 0 0 0 0
0 0 0 0 0 0 0 0 0
0 0 0 0 0 0 0 0 0
0 0 0 0 0 0 0 0 0
0 0 0 0 0 0 0 0 0
0 0 0 0 0 0 0 0 0
0 0 0 0 0 0 0 0 0
0 0 0 0 0 0 0 0 0
0 0 0 0 0 0 0 0 0
0 0 0 0 0 0 0 0 0
0 0 0 0 0 0 0 0 0
0 0 0 0 0 0 0 0 0
0 0 0 0 0 0 0 0 0
0 0 0 0 0 0 0 0 0
0 0 0 0 0 0 0 0 0
0 0 0 0 0 0 0 0 0
0 0 0 0 0 0 0 0 0
0 0 0 0 0 0 0 0 0
0 0 0 0 0 0 0 0 0
0 0 0 0 0 0 0 0 0
0 0 0 0 0 0 0 0 0
0 0 0 0 0 0 0 0 0
0 0 0 0 0 0 0 0 0
0 0 0 0 0 0 0 0 0
0 0 0 0 0 0 0 0 0
0 0 0 0 0 0 0 0 0
0 0 0 0 0 0 0 0 0
0 0 0 0 0 0 0 0 0
0 0 0 0 0 0 0 0 0
0 0 0 0 0 0 0 0 0
0 0 0 0 0 0 0 0 0
0 0 0 0 0 0 0 0 0
0 0 0 0 0 0 0 0 0
0 0 0 0 0 0 0 0 0
0 0 0 0 0 0 0 0 0
0 0 0 0 0 0 0 0 0
0 0 0 0 0 0 0 0 0
0 0 0 0 0 0 0 0 0
0 0 0 0 0 0 0 0 0
0 0 0 0 0 0 0 0 0
0 0 0 0 0 0 0 0 0
0 0 0 0 0 0 0 0 0
0 0 0 0 0 0 0 0 0
0 0 0 0 0 0 0 0 0
0 0 0 0 0 0 0 0 0
0 0 0 0 0 0 0 0 0
0 0 0 0 0 0 0 0 0
0 0 0 0 0 0 0 0 0
0 0 0 0 0 0 0 0 0
0 0 0 0 0 0 0 0 0
0 0 0 0 0 0 0 0 0
0 0 0 0 0 0 0 0 0
0 0 0 0 0 0 0 0 0
0 0 0 0 0 0 0 0 0
0 0 0 0 0 0 0 0 0
0 0 0 0 0 0 0 0 0
0 0 0 0 0 0 0 0 0
0 0 0 0 0 0 0 0 0
0 0 0 0 0 0 0 0 0
0 0 0 0 0 0 0 0 0
0 0 0 0 0 0 0 0 0
0 0 0 0 0 0 0 0 0
0 0 0 0 0 0 0 0 0
0 0 0 0 0 0 0 0 0
0 0 0 0 0 0 0 0 0
0 0 0 0 0 0 0 0 0
0 0 0 0 0 0 0 0 0
0 0 0 0 0 0 0 0 0
0 0 0 0 0 0 0 0 0
0 0 0 0 0 0 0 0 0
0 0 0 0 0 0 0 0 0
0 0 0 0 0 0 0 0 0
0 0 0 0 0 0 0 0 0
0 0 0 0 0 0 0 0 0
0 0 0 0 0 0 0 0 0
0 0 0 0 0 0 0 0 0
0 0 0 0 0 0 0 0 0
0 0 0 0 0 0 0 0 0
0 0 0 0 0 0 0 0 0
0 0 0 0 0 0 0 0 0
0 0 0 0 0 0 0 0 0
0 0 0 0 0 0 0 0 0
0 0 0 0 0 0 0 0 0
0 0 0 0 0 0 0 0 0
0 0 0 0 0 0 0 0 0
0 0 0 0 0 0 0 0 0
0 0 0 0 0 0 0 0 0
0 0 0 0 0 0 0 0 0
0 0 0 0 0 0 0 0 0
0 0 0 0 0 0 0 0 0
0 0 0 0 0 0 0 0 0
0 0 0 0 0 0 0 0 0
0 0 0 0 0 0 0 0 0
0 0 0 0 0 0 0 0 0
0 0 0 0 0 0 0 0 0
0 0 0 0 0 0 0 0 0
0 0 0 0 0 0 0 0 0
0 0 0 0 0 0 0 0 0
0 0 0 0 0 0 0 0 0
0 0 0 0 0 0 0 0 0
0 0 0 0 0 0 0 0 0
0 0 0 0 0 0 0 0 0
0 0 0 0 0 0 0 0 0
0 0 0 0 0 0 0 0 0
0 0 0 0 0 0 0 0 0
0 0 0 0 0 0 0 0 0
0 0 0 0 0 0 0 0 0
0 0 0 0 0 0 0 0 0
0 0 0 0 0 0 0 0 0
0 0 0 0 0 0 0 0 0
0 0 0 0 0 0 0 0 0
0 0 0 0 0 0 0 0 0
0 0 0 0 0 0 0 0 0
0 0 0 0 0 0 0 0 0
0 0 0 0 0 0 0 0 0
0 0 0 0 0 0 0 0 0
0 0 0 0 0 0 0 0 0
0 0 0 0 0 0 0 0 0
0 0 0 0 0 0 0 0 0
0 0 0 0 0 0 0 0 0
0 0 0 0 0 0 0 0 0
0 0 0 0 0 0 0 0 0
0 0 0 0 0 0 0 0 0
0 0 0 0 0 0 0 0 0
0 0 0 0 0 0 0 0 0
0 0 0 0 0 0 0 0 0
0 0 0 0 0 0 0 0 0
0 0 0 0 0 0 0 0 0
0 0 0 0 0 0 0 0 0
0 0 0 0 0 0 0 0 0
0 0 0 0 0 0 0 0 0
0 0 0 0 0 0 0 0 0
0 0 0 0 0 0 0 0 0
0 0 0 0 0 0 0 0 0
0 0 0 0 0 0 0 0 0
0 0 0 0 0 0 0 0 0
0 0 0 0 0 0 0 0 0
0 0 0 0 0 0 0 0 0
0 0 0 0 0 0 0 0 0
0 0 0 0 0 0 0 0 0
0 0 0 0 0 0 0 0 0
0 0 0 0 0 0 0 0 0
0 0 0 0 0 0 0 0 0
0 0 0 0 0 0 0 0 0
0 0 0 0 0 0 0 0 0
0 0 0 0 0 0 0 0 0
0 0 0 0 0 0 0 0 0
0 0 0 0 0 0 0 0 0
0 0 0 0 0 0 0 0 0
0 0 0 0 0 0 0 0 0
0 0 0 0 0 0 0 0 0
0 0 0 0 0 0 0 0 0
0 0 0 0 0 0 0 0 0
0 0 0 0 0 0 0 0 0
0 0 0 0 0 0 0 0 0
0 0 0 0 0 0 0 0 0
0 0 0 0 0 0 0 0 0
0 0 0 0 0 0 0 0 0
0 0 0 0 0 0 0 0 0
0 0 0 0 0 0 0 0 0
0 0 0 0 0 0 0 0 0
0 0 0 0 0 0 0 0 0
0 0 0 0 0 0 0 0 0
0 0 0 0 0 0 0 0 0
0 0 0 0 0 0 0 0 0
0 0 0 0 0 0 0 0 0
0 0 0 0 0 0 0 0 0
0 0 0 0 0 0 0 0 0
0 0 0 0 0 0 0 0 0
0 0 0 0 0 0 0 0 0
0 0 0 0 0 0 0 0 0
0 0 0 0 0 0 0 0 0
0 0 0 0 0 0 0 0 0
0 0 0 0 0 0 0 0 0
0 0 0 0 0 0 0 0 0
0 0 0 0 0 0 0 0 0
0 0 0 0 0 0 0 0 0
0 0 0 0 0 0 0 0 0
0 0 0 0 0 0 0 0 0
0 0 0 0 0 0 0 0 0
0 0 0 0 0 0 0 0 0
0 0 0 0 0 0 0 0 0
0 0 0 0 0 0 0 0 0
0 0 0 0 0 0 0 0 0
0 0 0 0 0 0 0 0 0
0 0 0 0 0 0 0 0 0
0 0 0 0 0 0 0 0 0
0 0 0 0 0 0 0 0 0
0 0 0 0 0 0 0 0 0
0 0 0 0 0 0 0 0 0
0 0 0 0 0 0 0 0 0
0 0 0 0 0 0 0 0 0
0 0 0 0 0 0 0 0 0
0 0 0 0 0 0 0 0 0
0 0 0 0 0 0 0 0 0
0 0 0 0 0 0 0 0 0
0 0 0 0 0 0 0 0 0
0 0 0 0 0 0 0 0 0
0 0 0 0 0 0 0 0 0
0 0 0 0 0 0 0 0 0
0 0 0 0 0 0 0 0 0
0 0 0 0 0 0 0 0 0
0 0 0 0 0 0 0 0 0
0 0 0 0 0 0 0 0 0
0 0 0 0 0 0 0 0 0
0 0 0 0 0 0 0 0 0
0 0 0 0 0 0 0 0 0
0 0 0 0 0 0 0 0 0
0 0 0 0 0 0 0 0 0
0 0 0 0 0 0 0 0 0
0 0 0 0 0 0 0 0 0
0 0 0 0 0 0 0 0 0
0 0 0 0 0 0 0 0 0
0 0 0 0 0 0 0 0 0
0 0 0 0 0 0 0 0 0
0 0 0 0 0 0 0 0 0
0 0 0 0 0 0 0 0 0
0 0 0 0 0 0 0 0 0
0 0 0 0 0 0 0 0 0
0 0 0 0 0 0 0 0 0
0 0 0 0 0 0 0 0 0
0 0 0 0 0 0 0 0 0
0 0 0 0 0 0 0 0 0
0 0 0 0 0 0 0 0 0
0 0 0 0 0 0 0 0 0
0 0 0 0 0 0 0 0 0
0 0 0 0 0 0 0 0 0
0 0 0 0 0 0 0 0 0
0 0 0 0 0 0 0 0 0
0 0 0 0 0 0 0 0 0
0 0 0 0 0 0 0 0 0
0 0 0 0 0 0 0 0 0
0 0 0 0 0 0 0 0 0
0 0 0 0 0 0 0 0 0
0 0 0 0 0 0 0 0 0
0 0 0 0 0 0 0 0 0
0 0 0 0 0 0 0 0 0
0 0 0 0 0 0 0 0 0
0 0 0 0 0 0 0 0 0
0 0 0 0 0 0 0 0 0
0 0 0 0 0 0 0 0 0
0 0 0 0 0 0 0 0 0
0 0 0 0 0 0 0 0 0
0 0 0 0 0 0 0 0 0
0 0 0 0 0 0 0 0 0
0 0 0 0 0 0 0 0 0
0 0 0 0 0 0 0 0 0
0 0 0 0 0 0 0 0 0
0 0 0 0 0 0 0 0 0
0 0 0 0 0 0 0 0 0
0 0 0 0 0 0 0 0 0
0 0 0 0 0 0 0 0 0
0 0 0 0 0 0 0 0 0
0 0 0 0 0 0 0 0 0
0 0 0 0 0 0 0 0 0
0 0 0 0 0 0 0 0 0
0 0 0 0 0 0 0 0 0
0 0 0 0 0 0 0 0 0
0 0 0 0 0 0 0 0 0
0 0 0 0 0 0 0 0 0
0 0 0 0 0 0 0 0 0
0 0 0 0 0 0 0 0 0
0 0 0 0 0 0 0 0 0
0 0 0 0 0 0 0 0 0
0 0 0 0 0 0 0 0 0
0 0 0 0 0 0 0 0 0
0 0 0 0 0 0 0 0 0
0 0 0 0 0 0 0 0 0
0 0 0 0 0 0 0 0 0
0 0 0 0 0 0 0 0 0
0 0 0 0 0 0 0 0 0
0 0 0 0 0 0 0 0 0
0 0 0 0 0 0 0 0 0
0 0 0 0 0 0 0 0 0
0 0 0 0 0 0 0 0 0
0 0 0 0 0 0 0 0 0
0 0 0 0 0 0 0 0 0
0 0 0 0 0 0 0 0 0
0 0 0 0 0 0 0 0 0
0 0 0 0 0 0 0 0 0
0 0 0 0 0 0 0 0 0
0 0 0 0 0 0 0 0 0
0 0 0 0 0 0 0 0 0
0 0 0 0 0 0 0 0 0
0 0 0 0 0 0 0 0 0
0 0 0 0 0 0 0 0 0
0 0 0 0 0 0 0 0 0
0 0 0 0 0 0 0 0 0
0 0 0 0 0 0 0 0 0
0 0 0 0 0 0 0 0 0
0 0 0 0 0 0 0 0 0
0 0 0 0 0 0 0 0 0
0 0 0 0 0 0 0 0 0
0 0 0 0 0 0 0 0 0
0 0 0 0 0 0 0 0 0
0 0 0 0 0 0 0 0 0
0 0 0 0 0 0 0 0 0
0 0 0 0 0 0 0 0 0
0 0 0 0 0 0 0 0 0
0 0 0 0 0 0 0 0 0
0 0 0 0 0 0 0 0 0
0 0 0 0 0 0 0 0 0
0 0 0 0 0 0 0 0 0
0 0 0 0 0 0 0 0 0
0 0 0 0 0 0 0 0 0
0 0 0 0 0 0 0 0 0
0 0 0 0 0 0 0 0 0
0 0 0 0 0 0 0 0 0
0 0 0 0 0 0 0 0 0
0 0 0 0 0 0 0 0 0
0 0 0 0 0 0 0 0 0
0 0 0 0 0 0 0 0 0
0 0 0 0 0 0 0 0 0
0 0 0 0 0 0 0 0 0
0 0 0 0 0 0 0 0 0
0 0 0 0 0 0 0 0 0
0 0 0 0 0 0 0 0 0
0 0 0 0 0 0 0 0 0
0 0 0 0 0 0 0 0 0
0 0 0 0 0 0 0 0 0
0 0 0 0 0 0 0 0 0
0 0 0 0 0 0 0 0 0
0 0 0 0 0 0 0 0 0
0 0 0 0 0 0 0 0 0
0 0 0 0 0 0 0 0 0
0 0 0 0 0 0 0 0 0
0 0 0 0 0 0 0 0 0
0 0 0 0 0 0 0 0 0
0 0 0 0 0 0 0 0 0
0 0 0 0 0 0 0 0 0
0 0 0 0 0 0 0 0 0
0 0 0 0 0 0 0 0 0
0 0 0 0 0 0 0 0 0
0 0 0 0 0 0 0 0 0
0 0 0 0 0 0 0 0 0
0 0 0 0 0 0 0 0 0
0 0 0 0 0 0 0 0 0
0 0 0 0 0 0 0 0 0
0 0 0 0 0 0 0 0 0
0 0 0 0 0 0 0 0 0
0 0 0 0 0 0 0 0 0
0 0 0 0 0 0 0 0 0
0 0 0 0 0 0 0 0 0
0 0 0 0 0 0 0 0 0
0 0 0 0 0 0 0 0 0
0 0 0 0 0 0 0 0 0
0 0 0 0 0 0 0 0 0
0 0 0 0 0 0 0 0 0
0 0 0 0 0 0 0 0 0
0 0 0 0 0 0 0 0 0
0 0 0 0 0 0 0 0 0
0 0 0 0 0 0 0 0 0
0 0 0 0 0 0 0 0 0
0 0 0 0 0 0 0 0 0
0 0 0 0 0 0 0 0 0
0 0 0 0 0 0 0 0 0
0 0 0 0 0 0 0 0 0
0 0 0 0 0 0 0 0 0
0 0 0 0 0 0 0 0 0
0 0 0 0 0 0 0 0 0
0 0 0 0 0 0 0 0 0
0 0 0 0 0 0 0 0 0
0 0 0 0 0 0 0 0 0
0 0 0 0 0 0 0 0 0
0 0 0 0 0 0 0 0 0
0 0 0 0 0 0 0 0 0
0 0 0 0 0 0 0 0 0
0 0 0 0 0 0 0 0 0
0 0 0 0 0 0 0 0 0
0 0 0 0 0 0 0 0 0
0 0 0 0 0 0 0 0 0
0 0 0 0 0 0 0 0 0
0 0 0 0 0 0 0 0 0
0 0 0 0 0 0 0 0 0
0 0 0 0 0 0 0 0 0
0 0 0 0 0 0 0 0 0
0 0 0 0 0 0 0 0 0
0 0 0 0 0 0 0 0 0
0 0 0 0 0 0 0 0 0
0 0 0 0 0 0 0 0 0
0 0 0 0 0 0 0 0 0
0 0 0 0 0 0 0 0 0
0 0 0 0 0 0 0 0 0
0 0 0 0 0 0 0 0 0
0 0 0 0 0 0 0 0 0
0 0 0 0 0 0 0 0 0
0 0 0 0 0 0 0 0 0
0 0 0 0 0 0 0 0 0
0 0 0 0 0 0 0 0 0
0 0 0 0 0 0 0 0 0
0 0 0 0 0 0 0 0 0
0 0 0 0 0 0 0 0 0
0 0 0 0 0 0 0 0 0
0 0 0 0 0 0 0 0 0
0 0 0 0 0 0 0 0 0
0 0 0 0 0 0 0 0 0
0 0 0 0 0 0 0 0 0
0 0 0 0 0 0 0 0 0
0 0 0 0 0 0 0 0 0
0 0 0 0 0 0 0 0 0
0 0 0 0 0 0 0 0 0
0 0 0 0 0 0 0 0 0
0 0 0 0 0 0 0 0 0
0 0 0 0 0 0 0 0 0
0 0 0 0 0 0 0 0 0
0 0 0 0 0 0 0 0 0
0 0 0 0 0 0 0 0 0
0 0 0 0 0 0 0 0 0
0 0 0 0 0 0 0 0 0
0 0 0 0 0 0 0 0 0
0 0 0 0 0 0 0 0 0
0 0 0 0 0 0 0 0 0
0 0 0 0 0 0 0 0 0
0 0 0 0 0 0 0 0 0
0 0 0 0 0 0 0 0 0
0 0 0 0 0 0 0 0 0
0 0 0 0 0 0 0 0 0
0 0 0 0 0 0 0 0 0
0 0 0 0 0 0 0 0 0
0 0 0 0 0 0 0 0 0
0 0 0 0 0 0 0 0 0
0 0 0 0 0 0 0 0 0
0 0 0 0 0 0 0 0 0
0 0 0 0 0 0 0 0 0
0 0 0 0 0 0 0 0 0
0 0 0 0 0 0 0 0 0
0 0 0 0 0 0 0 0 0
0 0 0 0 0 0 0 0 0
0 0 0 0 0 0 0 0 0
0 0 0 0 0 0 0 0 0
0 0 0 0 0 0 0 0 0
0 0 0 0 0 0 0 0 0
0 0 0 0 0 0 0 0 0
0 0 0 0 0 0 0 0 0
0 0 0 0 0 0 0 0 0
0 0 0 0 0 0 0 0 0
0 0 0 0 0 0 0 0 0
0 0 0 0 0 0 0 0 0
0 0 0 0 0 0 0 0 0
0 0 0 0 0 0 0 0 0
0 0 0 0 0 0 0 0 0
0 0 0 0 0 0 0 0 0
0 0 0 0 0 0 0 0 0
0 0 0 0 0 0 0 0 0
0 0 0 0 0 0 0 0 0
0 0 0 0 0 0 0 0 0
0 0 0 0 0 0 0 0 0
0 0 0 0 0 0 0 0 0
0 0 0 0 0 0 0 0 0
0 0 0 0 0 0 0 0 0
0 0 0 0 0 0 0 0 0
0 0 0 0 0 0 0 0 0
0 0 0 0 0 0 0 0 0
0 0 0 0 0 0 0 0 0
0 0 0 0 0 0 0 0 0
0 0 0 0 0 0 0 0 0
0 0 0 0 0 0 0 0 0
0 0 0 0 0 0 0 0 0
0 0 0 0 0 0 0 0 0
0 0 0 0 0 0 0 0 0
0 0 0 0 0 0 0 0 0
0 0 0 0 0 0 0 0 0
0 0 0 0 0 0 0 0 0
0 0 0 0 0 0 0 0 0
0 0 0 0 0 0 0 0 0
1.47699e-08 1.60058e-08 1.52745e-08 1.64904e-08 1.47699e-08 1.60058e-08 1.52745e-08 1.64904e-08 0
1.69426e-08 1.83636e-08 1.74099e-08 1.88012e-08 1.69426e-08 1.83636e-08 1.74099e-08 1.88012e-08 0
1.92691e-08 2.04184e-08 1.9683e-08 2.07949e-08 1.92691e-08 2.04184e-08 1.9683e-08 2.07949e-08 0
2.14074e-08 2.30543e-08 2.17541e-08 2.33544e-08 2.14074e-08 2.30543e-08 2.17541e-08 2.33544e-08 0
1.1858e-08 1.29871e-08 1.24099e-08 1.35334e-08 1.1858e-08 1.29871e-08 1.24099e-08 1.35334e-08 0
1.38244e-08 1.5086e-08 1.43644e-08 1.56121e-08 1.38244e-08 1.5086e-08 1.43644e-08 1.56121e-08 0
1.60479e-08 1.75177e-08 1.65594e-08 1.8001e-08 1.60479e-08 1.75177e-08 1.65594e-08 1.8001e-08 0
1.84627e-08 1.96776e-08 1.89226e-08 2.00991e-08 1.84627e-08 1.96776e-08 1.89226e-08 2.00991e-08 0
2.07211e-08 2.24577e-08 2.11099e-08 2.27929e-08 2.07211e-08 2.24577e-08 2.11099e-08 2.27929e-08 0
1.08255e-08 1.19601e-08 1.14185e-08 1.25502e-08 1.08255e-08 1.19601e-08 1.14185e-08 1.25502e-08 0
1.28051e-08 1.40885e-08 1.33904e-08 1.46611e-08 1.28051e-08 1.40885e-08 1.33904e-08 1.46611e-08 0
1.50731e-08 1.65898e-08 1.56321e-08 1.71216e-08 1.50731e-08 1.65898e-08 1.56321e-08 1.71216e-08 0
1.75749e-08 1.88591e-08 1.80828e-08 1.93261e-08 1.75749e-08 1.88591e-08 1.80828e-08 1.93261e-08 0
1.99618e-08 2.17972e-08 2.03934e-08 2.21704e-08 1.99618e-08 2.17972e-08 2.03934e-08 2.21704e-08 0
0 0 0 0 0 0 0 0 0
0 1.08621e-08 1.03592e-08 1.14933e-08 0 1.08621e-08 1.03592e-08 1.14933e-08 0
1.17096e-08 1.30096e-08 1.23394e-08 1.36302e-08 1.17096e-08 1.30096e-08 1.23394e-08 1.36302e-08 0
1.4014e-08 1.55745e-08 1.46229e-08 1.61581e-08 1.4014e-08 1.55745e-08 1.46229e-08 1.61581e-08 0
1.65992e-08 1.79541e-08 1.71594e-08 1.84731e-08 1.65992e-08 1.79541e-08 1.71594e-08 1.84731e-08 0
1.91195e-08 2.10617e-08 1.96013e-08 2.14805e-08 1.91195e-08 2.10617e-08 1.96013e-08 2.14805e-08 0
0 0 0 0 0 0 0 0 0
0 0 0 1.03663e-08 0 0 0 1.03663e-08 0
1.05373e-08 1.18457e-08 1.12124e-08 1.25167e-08 1.05373e-08 1.18457e-08 1.12124e-08 1.25167e-08 0
1.28647e-08 1.44638e-08 1.35273e-08 1.51045e-08 1.28647e-08 1.44638e-08 1.35273e-08 1.51045e-08 0
1.5526e-08 1.69519e-08 1.61446e-08 1.75293e-08 1.5526e-08 1.69519e-08 1.61446e-08 1.75293e-08 0
1.81817e-08 2.0236e-08 1.8721e-08 2.07097e-08 1.81817e-08 2.0236e-08 1.8721e-08 2.07097e-08 0
0 0 0 0 0 0 0 0 0
0 0 0 0 0 0 0 0 0
0 1.05945e-08 1.00085e-08 1.13172e-08 0 1.05945e-08 1.00085e-08 1.13172e-08 0
1.16217e-08 1.32519e-08 1.23398e-08 1.39527e-08 1.16217e-08 1.32519e-08 1.23398e-08 1.39527e-08 0
1.43472e-08 1.58398e-08 1.50289e-08 1.64833e-08 1.43472e-08 1.58398e-08 1.50289e-08 1.64833e-08 0
1.71357e-08 1.93116e-08 1.77401e-08 1.98442e-08 1.71357e-08 1.93116e-08 1.77401e-08 1.98442e-08 0
0 0 0 0 0 0 0 0 0
0 0 0 0 0 0 0 0 0
0 0 0 0 0 0 0 0 0
0 0 0 1.00308e-08 0 0 0 1.00308e-08 0
1.02844e-08 1.19343e-08 1.10582e-08 1.26979e-08 1.02844e-08 1.19343e-08 1.10582e-08 1.26979e-08 0
1.30569e-08 1.46117e-08 1.38048e-08 1.53239e-08 1.30569e-08 1.46117e-08 1.38048e-08 1.53239e-08 0
1.59738e-08 1.82762e-08 1.66472e-08 1.88758e-08 1.59738e-08 1.82762e-08 1.66472e-08 1.88758e-08 0
0 0 0 0 0 0 0 0 0
0 0 0 0 0 0 0 0 0
0 0 0 0 0 0 0 0 0
0 0 0 0 0 0 0 0 0
0 1.05128e-08 0 1.13375e-08 0 1.05128e-08 0 1.13375e-08 0
1.16535e-08 1.32621e-08 1.24683e-08 1.40467e-08 1.16535e-08 1.32621e-08 1.24683e-08 1.40467e-08 0
1.46881e-08 1.71192e-08 1.54355e-08 1.77918e-08 1.46881e-08 1.71192e-08 1.54355e-08 1.77918e-08 0
0 0 0 0 0 0 0 0 0
0 0 0 0 0 0 0 0 0
0 0 0 0 0 0 0 0 0
0 0 0 0 0 0 0 0 0
0 0 0 0 0 0 0 0 0
1.01456e-08 1.1792e-08 1.10211e-08 1.26476e-08 1.01456e-08 1.1792e-08 1.10211e-08 1.26476e-08 0
1.32757e-08 1.58356e-08 1.40982e-08 1.65835e-08 1.32757e-08 1.58356e-08 1.40982e-08 1.65835e-08 0
0 0 0 0 0 0 0 0 0
0 0 0 0 0 0 0 0 0
0 0 0 0 0 0 0 0 0
0 0 0 0 0 0 0 0 0
0 0 0 0 0 0 0 0 0
0 0 0 0 0 0 0 0 0
0 1.0217e-08 0 1.11329e-08 0 1.0217e-08 0 1.11329e-08 0
1.17464e-08 1.44289e-08 1.26369e-08 1.52494e-08 1.17464e-08 1.44289e-08 1.26369e-08 1.52494e-08 0
0 0 0 0 0 0 0 0 0
0 0 0 0 0 0 0 0 0
0 0 0 0 0 0 0 0 0
0 0 0 0 0 0 0 0 0
0 0 0 0 0 0 0 0 0
0 0 0 0 0 0 0 0 0
0 0 0 0 0 0 0 0 0
1.01445e-08 1.29245e-08 1.10729e-08 1.38e-08 1.01445e-08 1.29245e-08 1.10729e-08 1.38e-08 0
0 0 0 0 0 0 0 0 0
0 0 0 0 0 0 0 0 0
0 0 0 0 0 0 0 0 0
0 0 0 0 0 0 0 0 0
0 0 0 0 0 0 0 0 0
0 0 0 0 0 0 0 0 0
0 0 0 0 0 0 0 0 0
0 1.13879e-08 0 1.22758e-08 0 1.13879e-08 0 1.22758e-08 0
0 0 0 0 0 0 0 0 0
0 0 0 0 0 0 0 0 0
0 0 0 0 0 0 0 0 0
0 0 0 0 0 0 0 0 0
0 0 0 0 0 0 0 0 0
0 0 0 0 0 0 0 0 0
0 0 0 0 0 0 0 0 0
0 0 0 0 0 0 0 0 0
0 0 0 0 0 0 0 0 0
0 0 0 0 0 0 0 0 0
0 0 0 0 0 0 0 0 0
0 0 0 0 0 0 0 0 0
0 0 0 0 0 0 0 0 0
0 0 0 0 0 0 0 0 0
0 0 0 0 0 0 0 0 0
0 0 0 0 0 0 0 0 0
0 0 0 0 0 0 0 0 0
0 0 0 0 0 0 0 0 0
0 0 0 0 0 0 0 0 0
0 0 0 0 0 0 0 0 0
0 0 0 0 0 0 0 0 0
0 0 0 0 0 0 0 0 0
0 0 0 0 0 0 0 0 0
0 0 0 0 0 0 0 0 0
0 0 0 0 0 0 0 0 0
0 0 0 0 0 0 0 0 0
0 0 0 0 0 0 0 0 0
0 0 0 0 0 0 0 0 0
0 0 0 0 0 0 0 0 0
0 0 0 0 0 0 0 0 0
0 0 0 0 0 0 0 0 0
0 0 0 0 0 0 0 0 0
0 0 0 0 0 0 0 0 0
0 0 0 0 0 0 0 0 0
0 0 0 0 0 0 0 0 0
0 0 0 0 0 0 0 0 0
0 0 0 0 0 0 0 0 0
0 0 0 0 0 0 0 0 0
0 0 0 0 0 0 0 0 0
0 0 0 0 0 0 0 0 0
0 0 0 0 0 0 0 0 0
0 0 0 0 0 0 0 0 0
0 0 0 0 0 0 0 0 0
0 0 0 0 0 0 0 0 0
0 0 0 0 0 0 0 0 0
0 0 0 0 0 0 0 0 0
0 0 0 0 0 0 0 0 0
0 0 0 0 0 0 0 0 0
0 0 0 0 0 0 0 0 0
0 0 0 0 0 0 0 0 0
0 0 0 0 0 0 0 0 0
0 0 0 0 0 0 0 0 0
0 0 0 0 0 0 0 0 0
0 0 0 0 0 0 0 0 0
0 0 0 0 0 0 0 0 0
0 0 0 0 0 0 0 0 0
0 0 0 0 0 0 0 0 0
0 0 0 0 0 0 0 0 0
0 0 0 0 0 0 0 0 0
0 0 0 0 0 0 0 0 0
0 0 0 0 0 0 0 0 0
0 0 0 0 0 0 0 0 0
0 0 0 0 0 0 0 0 0
0 0 0 0 0 0 0 0 0
0 0 0 0 0 0 0 0 0
0 0 0 0 0 0 0 0 0
0 0 0 0 0 0 0 0 0
0 0 0 0 0 0 0 0 0
0 0 0 0 0 0 0 0 0
0 0 0 0 0 0 0 0 0
0 0 0 0 0 0 0 0 0
0 0 0 0 0 0 0 0 0
0 0 0 0 0 0 0 0 0
0 0 0 0 0 0 0 0 0
0 0 0 0 0 0 0 0 0
0 0 0 0 0 0 0 0 0
0 0 0 0 0 0 0 0 0
0 0 0 0 0 0 0 0 0
0 0 0 0 0 0 0 0 0
0 1.05666e-08 0 1.08876e-08 0 1.05666e-08 0 1.08876e-08 0
1.02509e-08 0 1.05495e-08 0 1.02509e-08 0 1.05495e-08 0 0
0 0 0 0 0 0 0 0 0
0 0 0 0 0 0 0 0 0
0 0 0 0 0 0 0 0 0
0 0 0 1.02905e-08 0 0 0 1.02905e-08 0
0 0 0 0 0 0 0 0 0
0 0 0 0 0 0 0 0 0
0 0 0 0 0 0 0 0 0
0 0 0 0 0 0 0 0 0
0 0 0 0 0 0 0 0 0
0 0 0 0 0 0 0 0 0
0 0 0 0 0 0 0 0 0
0 0 0 0 0 0 0 0 0
0 0 0 0 0 0 0 0 0
0 0 0 0 0 0 0 0 0
0 0 0 0 0 0 0 0 0
0 0 0 0 0 0 0 0 0
0 0 0 0 0 0 0 0 0
0 0 0 0 0 0 0 0 0
0 0 0 0 0 0 0 0 0
0 0 0 0 0 0 0 0 0
0 0 0 0 0 0 0 0 0
0 0 0 0 0 0 0 0 0
0 0 0 0 0 0 0 0 0
0 0 0 0 0 0 0 0 0
0 0 0 0 0 0 0 0 0
0 0 0 0 0 0 0 0 0
0 0 0 0 0 0 0 0 0
0 0 0 0 0 0 0 0 0
0 0 0 0 0 0 0 0 0
0 0 0 0 0 0 0 0 0
0 0 0 0 0 0 0 0 0
0 0 0 0 0 0 0 0 0
0 0 0 0 0 0 0 0 0
0 0 0 0 0 0 0 0 0
0 0 0 0 0 0 0 0 0
0 0 0 0 0 0 0 0 0
0 0 0 0 0 0 0 0 0
0 0 0 0 0 0 0 0 0
0 0 0 0 0 0 0 0 0
0 0 0 0 0 0 0 0 0
0 0 0 0 0 0 0 0 0
0 0 0 0 0 0 0 0 0
0 0 0 0 0 0 0 0 0
0 0 0 0 0 0 0 0 0
0 0 0 0 0 0 0 0 0
0 0 0 0 0 0 0 0 0
0 0 0 0 0 0 0 0 0
0 0 0 0 0 0 0 0 0
0 0 0 0 0 0 0 0 0
0 0 0 0 0 0 0 0 0
0 0 0 0 0 0 0 0 0
0 0 0 0 0 0 0 0 0
0 0 0 0 0 0 0 0 0
0 0 0 0 0 0 0 0 0
0 0 0 0 0 0 0 0 0
0 0 0 0 0 0 0 0 0
0 0 0 0 0 0 0 0 0
0 0 0 0 0 0 0 0 0
0 0 0 0 0 0 0 0 0
0 0 0 0 0 0 0 0 0
0 0 0 0 0 0 0 0 0
0 0 0 0 0 0 0 0 0
0 0 0 0 0 0 0 0 0
0 0 0 0 0 0 0 0 0
0 0 0 0 0 0 0 0 0
0 0 0 0 0 0 0 0 0
0 0 0 0 0 0 0 0 0
0 0 0 0 0 0 0 0 0
0 0 0 0 0 0 0 0 0
0 0 0 0 0 0 0 0 0
0 0 0 0 0 0 0 0 0
0 0 0 0 0 0 0 0 0
0 0 0 0 0 0 0 0 0
0 0 0 0 0 0 0 0 0
0 0 0 0 0 0 0 0 0
0 0 0 0 0 0 0 0 0
0 0 0 0 0 0 0 0 0
0 0 0 0 0 0 0 0 0
0 0 0 0 0 0 0 0 0
0 0 0 0 0 0 0 0 0
0 0 0 0 0 0 0 0 0
0 0 0 0 0 0 0 0 0
0 0 0 0 0 0 0 0 0
0 0 0 0 0 0 0 0 0
0 0 0 0 0 0 0 0 0
0 0 0 0 0 0 0 0 0
0 0 0 0 0 0 0 0 0
0 0 0 0 0 0 0 0 0
0 0 0 0 0 0 0 0 0
0 0 0 0 0 0 0 0 0
0 0 0 0 0 0 0 0 0
0 0 0 0 0 0 0 0 0
0 0 0 0 0 0 0 0 0
0 0 0 0 0 0 0 0 0
0 0 0 0 0 0 0 0 0
0 0 0 0 0 0 0 0 0
0 0 0 0 0 0 0 0 0
0 0 0 0 0 0 0 0 0
0 0 0 0 0 0 0 0 0
0 0 0 0 0 0 0 0 0
0 0 0 0 0 0 0 0 0
0 0 0 0 0 0 0 0 0
0 0 0 0 0 0 0 0 0
0 0 0 0 0 0 0 0 0
0 0 0 0 0 0 0 0 0
0 0 0 0 0 0 0 0 0
0 0 0 0 0 0 0 0 0
0 0 0 0 0 0 0 0 0
0 0 0 0 0 0 0 0 0
0 0 0 0 0 0 0 0 0
0 0 0 0 0 0 0 0 0
0 0 0 0 0 0 0 0 0
0 0 0 0 0 0 0 0 0
0 0 0 0 0 0 0 0 0
0 0 0 0 0 0 0 0 0
0 0 0 0 0 0 0 0 0
0 0 0 0 0 0 0 0 0
0 0 0 0 0 0 0 0 0
0 0 0 0 0 0 0 0 0
0 0 0 0 0 0 0 0 0
0 0 0 0 0 0 0 0 0
0 0 0 0 0 0 0 0 0
0 0 0 0 0 0 0 0 0
0 0 0 0 0 0 0 0 0
0 0 0 0 0 0 0 0 0
0 0 0 0 0 0 0 0 0
0 0 0 0 0 0 0 0 0
0 0 0 0 0 0 0 0 0
0 0 0 0 0 0 0 0 0
0 0 0 0 0 0 0 0 0
0 0 0 0 0 0 0 0 0
0 0 0 0 0 0 0 0 0
0 0 0 0 0 0 0 0 0
0 0 0 0 0 0 0 0 0
0 0 0 0 0 0 0 0 0
0 0 0 0 0 0 0 0 0
0 0 0 0 0 0 0 0 0
0 0 0 0 0 0 0 0 0
0 0 0 0 0 0 0 0 0
0 0 0 0 0 0 0 0 0
0 0 0 0 0 0 0 0 0
0 0 0 0 0 0 0 0 0
0 0 0 0 0 0 0 0 0
0 0 0 0 0 0 0 0 0
0 0 0 0 0 0 0 0 0
0 0 0 0 0 0 0 0 0
0 0 0 0 0 0 0 0 0
0 0 0 0 0 0 0 0 0
0 0 0 0 0 0 0 0 0
0 0 0 0 0 0 0 0 0
0 0 0 0 0 0 0 0 0
0 0 0 0 0 0 0 0 0
0 0 0 0 0 0 0 0 0
0 0 0 0 0 0 0 0 0
0 0 0 0 0 0 0 0 0
0 0 0 0 0 0 0 0 0
0 0 0 0 0 0 0 0 0
0 0 0 0 0 0 0 0 0
0 0 0 0 0 0 0 0 0
0 0 0 0 0 0 0 0 0
0 0 0 0 0 0 0 0 0
0 0 0 0 0 0 0 0 0
0 0 0 0 0 0 0 0 0
0 0 0 0 0 0 0 0 0
0 0 0 0 0 0 0 0 0
0 0 0 0 0 0 0 0 0
0 0 0 0 0 0 0 0 0
0 0 0 0 0 0 0 0 0
0 0 0 0 0 0 0 0 0
0 0 0 0 0 0 0 0 0
0 0 0 0 0 0 0 0 0
0 0 0 0 0 0 0 0 0
0 0 0 0 0 0 0 0 0
0 0 0 0 0 0 0 0 0
0 0 0 0 0 0 0 0 0
0 0 0 0 0 0 0 0 0
0 0 0 0 0 0 0 0 0
0 0 0 0 0 0 0 0 0
0 0 0 0 0 0 0 0 0
0 0 0 0 0 0 0 0 0
0 0 0 0 0 0 0 0 0
0 0 0 0 0 0 0 0 0
0 0 0 0 0 0 0 0 0
0 0 0 0 0 0 0 0 0
0 0 0 0 0 0 0 0 0
0 0 0 0 0 0 0 0 0
0 0 0 0 0 0 0 0 0
0 0 0 0 0 0 0 0 0
0 0 0 0 0 0 0 0 0
0 0 0 0 0 0 0 0 0
0 0 0 0 0 0 0 0 0
0 0 0 0 0 0 0 0 0
0 0 0 0 0 0 0 0 0
0 0 0 0 0 0 0 0 0
0 0 0 0 0 0 0 0 0
0 0 0 0 0 0 0 0 0
0 0 0 0 0 0 0 0 0
0 0 0 0 0 0 0 0 0
0 0 0 0 0 0 0 0 0
0 0 0 0 0 0 0 0 0
0 0 0 0 0 0 0 0 0
0 0 0 0 0 0 0 0 0
0 0 0 0 0 0 0 0 0
0 0 0 0 0 0 0 0 0
0 0 0 0 0 0 0 0 0
0 0 0 0 0 0 0 0 0
0 0 0 0 0 0 0 0 0
0 0 0 0 0 0 0 0 0
0 0 0 0 0 0 0 0 0
0 0 0 0 0 0 0 0 0
0 0 0 0 0 0 0 0 0
0 0 0 0 0 0 0 0 0
0 0 0 0 0 0 0 0 0
0 0 0 0 0 0 0 0 0
0 0 0 0 0 0 0 0 0
0 0 0 0 0 0 0 0 0
0 0 0 0 0 0 0 0 0
0 0 0 0 0 0 0 0 0
0 0 0 0 0 0 0 0 0
0 0 0 0 0 0 0 0 0
0 0 0 0 0 0 0 0 0
0 0 0 0 0 0 0 0 0
0 0 0 0 0 0 0 0 0
0 0 0 0 0 0 0 0 0
0 0 0 0 0 0 0 0 0
0 0 0 0 0 0 0 0 0
0 0 0 0 0 0 0 0 0
0 0 0 0 0 0 0 0 0
0 0 0 0 0 0 0 0 0
0 0 0 0 0 0 0 0 0
0 0 0 0 0 0 0 0 0
0 0 0 0 0 0 0 0 0
0 0 0 0 0 0 0 0 0
0 0 0 0 0 0 0 0 0
0 0 0 0 0 0 0 0 0
0 0 0 0 0 0 0 0 0
0 0 0 0 0 0 0 0 0
0 0 0 0 0 0 0 0 0
0 0 0 0 0 0 0 0 0
0 0 0 0 0 0 0 0 0
0 0 0 0 0 0 0 0 0
0 0 0 0 0 0 0 0 0
0 0 0 0 0 0 0 0 0
0 0 0 0 0 0 0 0 0
0 0 0 0 0 0 0 0 0
0 0 0 0 0 0 0 0 0
0 0 0 0 0 0 0 0 0
0 0 0 0 0 0 0 0 0
0 0 0 0 0 0 0 0 0
0 0 0 0 0 0 0 0 0
0 0 0 0 0 0 0 0 0
0 0 0 0 0 0 0 0 0
0 0 0 0 0 0 0 0 0
0 0 0 0 0 0 0 0 0
0 0 0 0 0 0 0 0 0
0 0 0 0 0 0 0 0 0
0 0 0 0 0 0 0 0 0
0 0 0 0 0 0 0 0 0
0 0 0 0 0 0 0 0 0
0 0 0 0 0 0 0 0 0
0 0 0 0 0 0 0 0 0
0 0 0 0 0 0 0 0 0
0 0 0 0 0 0 0 0 0
0 0 0 0 0 0 0 0 0
0 0 0 0 0 0 0 0 0
0 0 0 0 0 0 0 0 0
0 0 0 0 0 0 0 0 0
0 0 0 0 0 0 0 0 0
0 0 0 0 0 0 0 0 0
0 0 0 0 0 0 0 0 0
0 0 0 0 0 0 0 0 0
0 0 0 0 0 0 0 0 0
0 0 0 0 0 0 0 0 0
0 0 0 0 0 0 0 0 0
0 0 0 0 0 0 0 0 0
0 0 0 0 0 0 0 0 0
0 0 0 0 0 0 0 0 0
0 0 0 0 0 0 0 0 0
0 0 0 0 0 0 0 0 0
0 0 0 0 0 0 0 0 0
0 0 0 0 0 0 0 0 0
0 0 0 0 0 0 0 0 0
0 0 0 0 0 0 0 0 0
0 0 0 0 0 0 0 0 0
0 0 0 0 0 0 0 0 0
0 0 0 0 0 0 0 0 0
0 0 0 0 0 0 0 0 0
0 0 0 0 0 0 0 0 0
0 0 0 0 0 0 0 0 0
0 0 0 0 0 0 0 0 0
0 0 0 0 0 0 0 0 0
0 0 0 0 0 0 0 0 0
0 0 0 0 0 0 0 0 0
0 0 0 0 0 0 0 0 0
0 0 0 0 0 0 0 0 0
0 0 0 0 0 0 0 0 0
0 0 0 0 0 0 0 0 0
0 0 0 0 0 0 0 0 0
0 0 0 0 0 0 0 0 0
0 0 0 0 0 0 0 0 0
0 0 0 0 0 0 0 0 0
0 0 0 0 0 0 0 0 0
0 0 0 0 0 0 0 0 0
0 0 0 0 0 0 0 0 0
0 0 0 0 0 0 0 0 0
0 0 0 0 0 0 0 0 0
0 0 0 0 0 0 0 0 0
0 0 0 0 0 0 0 0 0
0 0 0 0 0 0 0 0 0
0 0 0 0 0 0 0 0 0
0 0 0 0 0 0 0 0 0
0 0 0 0 0 0 0 0 0
0 0 0 0 0 0 0 0 0
0 0 0 0 0 0 0 0 0
0 0 0 0 0 0 0 0 0
0 0 0 0 0 0 0 0 0
0 0 0 0 0 0 0 0 0
0 0 0 0 0 0 0 0 0
0 0 0 0 0 0 0 0 0
0 0 0 0 0 0 0 0 0
0 0 0 0 0 0 0 0 0
0 0 0 0 0 0 0 0 0
0 0 0 0 0 0 0 0 0
0 0 0 0 0 0 0 0 0
0 0 0 0 0 0 0 0 0
0 0 0 0 0 0 0 0 0
0 0 0 0 0 0 0 0 0
0 0 0 0 0 0 0 0 0
0 0 0 0 0 0 0 0 0
0 0 0 0 0 0 0 0 0
0 0 0 0 0 0 0 0 0
0 0 0 0 0 0 0 0 0
0 0 0 0 0 0 0 0 0
0 0 0 0 0 0 0 0 0
0 0 0 0 0 0 0 0 0
0 0 0 0 0 0 0 0 0
0 0 0 0 0 0 0 0 0
0 0 0 0 0 0 0 0 0
0 0 0 0 0 0 0 0 0
0 0 0 0 0 0 0 0 0
0 0 0 0 0 0 0 0 0
0 0 0 0 0 0 0 0 0
0 0 0 0 0 0 0 0 0
0 0 0 0 0 0 0 0 0
0 0 0 0 0 0 0 0 0
0 0 0 0 0 0 0 0 0
0 0 0 0 0 0 0 0 0
0 0 0 0 0 0 0 0 0
0 0 0 0 0 0 0 0 0
0 0 0 0 0 0 0 0 0
0 0 0 0 0 0 0 0 0
0 0 0 0 0 0 0 0 0
0 0 0 0 0 0 0 0 0
0 0 0 0 0 0 0 0 0
0 0 0 0 0 0 0 0 0
0 0 0 0 0 0 0 0 0
0 0 0 0 0 0 0 0 0
0 0 0 0 0 0 0 0 0
0 0 0 0 0 0 0 0 0
0 0 0 0 0 0 0 0 0
0 0 0 0 0 0 0 0 0
0 0 0 0 0 0 0 0 0
0 0 0 0 0 0 0 0 0
0 0 0 0 0 0 0 0 0
0 0 0 0 0 0 0 0 0
0 0 0 0 0 0 0 0 0
0 0 0 0 0 0 0 0 0
0 0 0 0 0 0 0 0 0
0 0 0 0 0 0 0 0 0
0 0 0 0 0 0 0 0 0
0 0 0 0 0 0 0 0 0
0 0 0 0 0 0 0 0 0
0 0 0 0 0 0 0 0 0
0 0 0 0 0 0 0 0 0
0 0 0 0 0 0 0 0 0
0 0 0 0 0 0 0 0 0
0 0 0 0 0 0 0 0 0
0 0 0 0 0 0 0 0 0
0 0 0 0 0 0 0 0 0
0 0 0 0 0 0 0 0 0
0 0 0 0 0 0 0 0 0
0 0 0 0 0 0 0 0 0
0 0 0 0 0 0 0 0 0
0 0 0 0 0 0 0 0 0
0 0 0 0 0 0 0 0 0
0 0 0 0 0 0 0 0 0
0 0 0 0 0 0 0 0 0
0 0 0 0 0 0 0 0 0
0 0 0 0 0 0 0 0 0
0 0 0 0 0 0 0 0 0
0 0 0 0 0 0 0 0 0
0 0 0 0 0 0 0 0 0
0 0 0 0 0 0 0 0 0
0 0 0 0 0 0 0 0 0
0 0 0 0 0 0 0 0 0
0 0 0 0 0 0 0 0 0
0 0 0 0 0 0 0 0 0
0 0 0 0 0 0 0 0 0
0 0 0 0 0 0 0 0 0
0 0 0 0 0 0 0 0 0
0 0 0 0 0 0 0 0 0
0 0 0 0 0 0 0 0 0
0 0 0 0 0 0 0 0 0
0 0 0 0 0 0 0 0 0
0 0 0 0 0 0 0 0 0
0 0 0 0 0 0 0 0 0
0 0 0 0 0 0 0 0 0
0 0 0 0 0 0 0 0 0
0 0 0 0 0 0 0 0 0
0 0 0 0 0 0 0 0 0
0 0 0 0 0 0 0 0 0
0 0 0 0 0 0 0 0 0
0 0 0 0 0 0 0 0 0
0 0 0 0 0 0 0 0 0
0 0 0 0 0 0 0 0 0
0 0 0 0 0 0 0 0 0
0 0 0 0 0 0 0 0 0
0 0 0 0 0 0 0 0 0
0 0 0 0 0 0 0 0 0
0 0 0 0 0 0 0 0 0
0 0 0 0 0 0 0 0 0
0 0 0 0 0 0 0 0 0
0 0 0 0 0 0 0 0 0
0 0 0 0 0 0 0 0 0
0 0 0 0 0 0 0 0 0
0 0 0 0 0 0 0 0 0
0 0 0 0 0 0 0 0 0
0 0 0 0 0 0 0 0 0
0 0 0 0 0 0 0 0 0
0 0 0 0 0 0 0 0 0
0 0 0 0 0 0 0 0 0
0 0 0 0 0 0 0 0 0
0 0 0 0 0 0 0 0 0
0 0 0 0 0 0 0 0 0
0 0 0 0 0 0 0 0 0
0 0 0 0 0 0 0 0 0
0 0 0 0 0 0 0 0 0
0 0 0 0 0 0 0 0 0
0 0 0 0 0 0 0 0 0
0 0 0 0 0 0 0 0 0
0 0 0 0 0 0 0 0 0
0 0 0 0 0 0 0 0 0
0 0 0 0 0 0 0 0 0
0 0 0 0 0 0 0 0 0
0 0 0 0 0 0 0 0 0
0 0 0 0 0 0 0 0 0
0 0 0 0 0 0 0 0 0
0 0 0 0 0 0 0 0 0
0 0 0 0 0 0 0 0 0
0 0 0 0 0 0 0 0 0
0 0 0 0 0 0 0 0 0
0 0 0 0 0 0 0 0 0
0 0 0 0 0 0 0 0 0
