# vtk DataFile Version 3.0
Generated by Jean Bénézech
ASCII
DATASET UNSTRUCTURED_GRID
POINTS 4598 double
55.69 131.564 322
55.79 131.651 320
55.89 131.739 318
55.99 131.826 316
56.09 131.913 314
56.19 132 312
56.29 132.087 310
56.39 132.174 308
56.49 132.261 306
55.59 130.288 324
56.59 131.141 304
55.59 129.099 324
56.59 129.934 304
55.59 127.91 324
56.59 128.727 304
55.49 126.641 326
56.59 127.519 304
55.49 125.454 326
56.29 126.078 310
56.39 126.156 308
56.49 126.234 306
55.49 124.267 326
56.29 124.876 310
55.39 123.006 328
56.19 123.6 312
55.39 121.82 328
56.19 122.4 312
55.39 120.635 328
56.19 121.2 312
55.29 119.381 330
56.19 120 312
55.29 118.197 330
56.19 118.8 312
55.19 116.949 332
56.29 117.665 310
55.19 115.767 332
56.29 116.463 310
55.29 114.647 330
55.39 114.708 328
55.49 114.77 326
55.59 114.831 324
55.69 114.893 322
55.79 114.954 320
55.89 115.016 318
56.29 115.261 310
55.99 113.881 316
56.09 113.94 314
56.19 114 312
55.44 131.564 322
55.54 131.651 320
55.64 131.739 318
55.74 131.826 316
55.84 131.913 314
55.94 132 312
56.04 132.087 310
56.14 132.174 308
56.24 132.261 306
55.34 130.288 324
56.34 131.141 304
55.34 129.099 324
56.34 129.934 304
55.34 127.91 324
56.34 128.727 304
55.24 126.641 326
56.34 127.519 304
55.24 125.454 326
56.04 126.078 310
56.14 126.156 308
56.24 126.234 306
55.24 124.267 326
56.04 124.876 310
55.14 123.006 328
55.94 123.6 312
55.14 121.82 328
55.94 122.4 312
55.14 120.635 328
55.94 121.2 312
55.04 119.381 330
55.94 120 312
55.04 118.197 330
55.94 118.8 312
54.94 116.949 332
56.04 117.665 310
54.94 115.767 332
56.04 116.463 310
55.04 114.647 330
55.14 114.708 328
55.24 114.77 326
55.34 114.831 324
55.44 114.893 322
55.54 114.954 320
55.64 115.016 318
56.04 115.261 310
55.74 113.881 316
55.84 113.94 314
55.94 114 312
55.19 131.564 322
55.29 131.651 320
55.39 131.739 318
55.49 131.826 316
55.59 131.913 314
55.69 132 312
55.79 132.087 310
55.89 132.174 308
55.99 132.261 306
55.09 130.288 324
56.09 131.141 304
55.09 129.099 324
56.09 129.934 304
55.09 127.91 324
56.09 128.727 304
54.99 126.641 326
56.09 127.519 304
54.99 125.454 326
55.79 126.078 310
55.89 126.156 308
55.99 126.234 306
54.99 124.267 326
55.79 124.876 310
54.89 123.006 328
55.69 123.6 312
54.89 121.82 328
55.69 122.4 312
54.89 120.635 328
55.69 121.2 312
54.79 119.381 330
55.69 120 312
54.79 118.197 330
55.69 118.8 312
54.69 116.949 332
55.79 117.665 310
54.69 115.767 332
55.79 116.463 310
54.79 114.647 330
54.89 114.708 328
54.99 114.77 326
55.09 114.831 324
55.19 114.893 322
55.29 114.954 320
55.39 115.016 318
55.79 115.261 310
55.49 113.881 316
55.59 113.94 314
55.69 114 312
55.18 131.564 322
55.28 131.651 320
55.38 131.739 318
55.48 131.826 316
55.58 131.913 314
55.68 132 312
55.78 132.087 310
55.88 132.174 308
55.98 132.261 306
55.08 130.288 324
56.08 131.141 304
55.08 129.099 324
56.08 129.934 304
55.08 127.91 324
56.08 128.727 304
54.98 126.641 326
56.08 127.519 304
54.98 125.454 326
55.78 126.078 310
55.88 126.156 308
55.98 126.234 306
54.98 124.267 326
55.78 124.876 310
54.88 123.006 328
55.68 123.6 312
54.88 121.82 328
55.68 122.4 312
54.88 120.635 328
55.68 121.2 312
54.78 119.381 330
55.68 120 312
54.78 118.197 330
55.68 118.8 312
54.68 116.949 332
55.78 117.665 310
54.68 115.767 332
55.78 116.463 310
54.78 114.647 330
54.88 114.708 328
54.98 114.77 326
55.08 114.831 324
55.18 114.893 322
55.28 114.954 320
55.38 115.016 318
55.78 115.261 310
55.48 113.881 316
55.58 113.94 314
55.68 114 312
54.93 131.564 322
55.03 131.651 320
55.13 131.739 318
55.23 131.826 316
55.33 131.913 314
55.43 132 312
55.53 132.087 310
55.63 132.174 308
55.73 132.261 306
54.83 130.288 324
55.83 131.141 304
54.83 129.099 324
55.83 129.934 304
54.83 127.91 324
55.83 128.727 304
54.73 126.641 326
55.83 127.519 304
54.73 125.454 326
55.53 126.078 310
55.63 126.156 308
55.73 126.234 306
54.73 124.267 326
55.53 124.876 310
54.63 123.006 328
55.43 123.6 312
54.63 121.82 328
55.43 122.4 312
54.63 120.635 328
55.43 121.2 312
54.53 119.381 330
55.43 120 312
54.53 118.197 330
55.43 118.8 312
54.43 116.949 332
55.53 117.665 310
54.43 115.767 332
55.53 116.463 310
54.53 114.647 330
54.63 114.708 328
54.73 114.77 326
54.83 114.831 324
54.93 114.893 322
55.03 114.954 320
55.13 115.016 318
55.53 115.261 310
55.23 113.881 316
55.33 113.94 314
55.43 114 312
54.92 131.564 322
55.02 131.651 320
55.12 131.739 318
55.22 131.826 316
55.32 131.913 314
55.42 132 312
55.52 132.087 310
55.62 132.174 308
55.72 132.261 306
54.82 130.288 324
55.82 131.141 304
54.82 129.099 324
55.82 129.934 304
54.82 127.91 324
55.82 128.727 304
54.72 126.641 326
55.82 127.519 304
54.72 125.454 326
55.52 126.078 310
55.62 126.156 308
55.72 126.234 306
54.72 124.267 326
55.52 124.876 310
54.62 123.006 328
55.42 123.6 312
54.62 121.82 328
55.42 122.4 312
54.62 120.635 328
55.42 121.2 312
54.52 119.381 330
55.42 120 312
54.52 118.197 330
55.42 118.8 312
54.42 116.949 332
55.52 117.665 310
54.42 115.767 332
55.52 116.463 310
54.52 114.647 330
54.62 114.708 328
54.72 114.77 326
54.82 114.831 324
54.92 114.893 322
55.02 114.954 320
55.12 115.016 318
55.52 115.261 310
55.22 113.881 316
55.32 113.94 314
55.42 114 312
54.67 131.564 322
54.77 131.651 320
54.87 131.739 318
54.97 131.826 316
55.07 131.913 314
55.17 132 312
55.27 132.087 310
55.37 132.174 308
55.47 132.261 306
54.57 130.288 324
55.57 131.141 304
54.57 129.099 324
55.57 129.934 304
54.57 127.91 324
55.57 128.727 304
54.47 126.641 326
55.57 127.519 304
54.47 125.454 326
55.27 126.078 310
55.37 126.156 308
55.47 126.234 306
54.47 124.267 326
55.27 124.876 310
54.37 123.006 328
55.17 123.6 312
54.37 121.82 328
55.17 122.4 312
54.37 120.635 328
55.17 121.2 312
54.27 119.381 330
55.17 120 312
54.27 118.197 330
55.17 118.8 312
54.17 116.949 332
55.27 117.665 310
54.17 115.767 332
55.27 116.463 310
54.27 114.647 330
54.37 114.708 328
54.47 114.77 326
54.57 114.831 324
54.67 114.893 322
54.77 114.954 320
54.87 115.016 318
55.27 115.261 310
54.97 113.881 316
55.07 113.94 314
55.17 114 312
54.42 131.564 322
54.52 131.651 320
54.62 131.739 318
54.72 131.826 316
54.82 131.913 314
54.92 132 312
55.02 132.087 310
55.12 132.174 308
55.22 132.261 306
54.32 130.288 324
55.32 131.141 304
54.32 129.099 324
55.32 129.934 304
54.32 127.91 324
55.32 128.727 304
54.22 126.641 326
55.32 127.519 304
54.22 125.454 326
55.02 126.078 310
55.12 126.156 308
55.22 126.234 306
54.22 124.267 326
55.02 124.876 310
54.12 123.006 328
54.92 123.6 312
54.12 121.82 328
54.92 122.4 312
54.12 120.635 328
54.92 121.2 312
54.02 119.381 330
54.92 120 312
54.02 118.197 330
54.92 118.8 312
53.92 116.949 332
55.02 117.665 310
53.92 115.767 332
55.02 116.463 310
54.02 114.647 330
54.12 114.708 328
54.22 114.77 326
54.32 114.831 324
54.42 114.893 322
54.52 114.954 320
54.62 115.016 318
55.02 115.261 310
54.72 113.881 316
54.82 113.94 314
54.92 114 312
54.17 131.564 322
54.27 131.651 320
54.37 131.739 318
54.47 131.826 316
54.57 131.913 314
54.67 132 312
54.77 132.087 310
54.87 132.174 308
54.97 132.261 306
54.07 130.288 324
55.07 131.141 304
54.07 129.099 324
55.07 129.934 304
54.07 127.91 324
55.07 128.727 304
53.97 126.641 326
55.07 127.519 304
53.97 125.454 326
54.77 126.078 310
54.87 126.156 308
54.97 126.234 306
53.97 124.267 326
54.77 124.876 310
53.87 123.006 328
54.67 123.6 312
53.87 121.82 328
54.67 122.4 312
53.87 120.635 328
54.67 121.2 312
53.77 119.381 330
54.67 120 312
53.77 118.197 330
54.67 118.8 312
53.67 116.949 332
54.77 117.665 310
53.67 115.767 332
54.77 116.463 310
53.77 114.647 330
53.87 114.708 328
53.97 114.77 326
54.07 114.831 324
54.17 114.893 322
54.27 114.954 320
54.37 115.016 318
54.77 115.261 310
54.47 113.881 316
54.57 113.94 314
54.67 114 312
53.92 131.564 322
54.02 131.651 320
54.12 131.739 318
54.22 131.826 316
54.32 131.913 314
54.42 132 312
54.52 132.087 310
54.62 132.174 308
54.72 132.261 306
53.82 130.288 324
54.82 131.141 304
53.82 129.099 324
54.82 129.934 304
53.82 127.91 324
54.82 128.727 304
53.72 126.641 326
54.82 127.519 304
53.72 125.454 326
54.52 126.078 310
54.62 126.156 308
54.72 126.234 306
53.72 124.267 326
54.52 124.876 310
53.62 123.006 328
54.42 123.6 312
53.62 121.82 328
54.42 122.4 312
53.62 120.635 328
54.42 121.2 312
53.52 119.381 330
54.42 120 312
53.52 118.197 330
54.42 118.8 312
53.42 116.949 332
54.52 117.665 310
53.42 115.767 332
54.52 116.463 310
53.52 114.647 330
53.62 114.708 328
53.72 114.77 326
53.82 114.831 324
53.92 114.893 322
54.02 114.954 320
54.12 115.016 318
54.52 115.261 310
54.22 113.881 316
54.32 113.94 314
54.42 114 312
53.67 131.564 322
53.77 131.651 320
53.87 131.739 318
53.97 131.826 316
54.07 131.913 314
54.17 132 312
54.27 132.087 310
54.37 132.174 308
54.47 132.261 306
53.57 130.288 324
54.57 131.141 304
53.57 129.099 324
54.57 129.934 304
53.57 127.91 324
54.57 128.727 304
53.47 126.641 326
54.57 127.519 304
53.47 125.454 326
54.27 126.078 310
54.37 126.156 308
54.47 126.234 306
53.47 124.267 326
54.27 124.876 310
53.37 123.006 328
54.17 123.6 312
53.37 121.82 328
54.17 122.4 312
53.37 120.635 328
54.17 121.2 312
53.27 119.381 330
54.17 120 312
53.27 118.197 330
54.17 118.8 312
53.17 116.949 332
54.27 117.665 310
53.17 115.767 332
54.27 116.463 310
53.27 114.647 330
53.37 114.708 328
53.47 114.77 326
53.57 114.831 324
53.67 114.893 322
53.77 114.954 320
53.87 115.016 318
54.27 115.261 310
53.97 113.881 316
54.07 113.94 314
54.17 114 312
53.42 131.564 322
53.52 131.651 320
53.62 131.739 318
53.72 131.826 316
53.82 131.913 314
53.92 132 312
54.02 132.087 310
54.12 132.174 308
54.22 132.261 306
53.32 130.288 324
54.32 131.141 304
53.32 129.099 324
54.32 129.934 304
53.32 127.91 324
54.32 128.727 304
53.22 126.641 326
54.32 127.519 304
53.22 125.454 326
54.02 126.078 310
54.12 126.156 308
54.22 126.234 306
53.22 124.267 326
54.02 124.876 310
53.12 123.006 328
53.92 123.6 312
53.12 121.82 328
53.92 122.4 312
53.12 120.635 328
53.92 121.2 312
53.02 119.381 330
53.92 120 312
53.02 118.197 330
53.92 118.8 312
52.92 116.949 332
54.02 117.665 310
52.92 115.767 332
54.02 116.463 310
53.02 114.647 330
53.12 114.708 328
53.22 114.77 326
53.32 114.831 324
53.42 114.893 322
53.52 114.954 320
53.62 115.016 318
54.02 115.261 310
53.72 113.881 316
53.82 113.94 314
53.92 114 312
53.17 131.564 322
53.27 131.651 320
53.37 131.739 318
53.47 131.826 316
53.57 131.913 314
53.67 132 312
53.77 132.087 310
53.87 132.174 308
53.97 132.261 306
53.07 130.288 324
54.07 131.141 304
53.07 129.099 324
54.07 129.934 304
53.07 127.91 324
54.07 128.727 304
52.97 126.641 326
54.07 127.519 304
52.97 125.454 326
53.77 126.078 310
53.87 126.156 308
53.97 126.234 306
52.97 124.267 326
53.77 124.876 310
52.87 123.006 328
53.67 123.6 312
52.87 121.82 328
53.67 122.4 312
52.87 120.635 328
53.67 121.2 312
52.77 119.381 330
53.67 120 312
52.77 118.197 330
53.67 118.8 312
52.67 116.949 332
53.77 117.665 310
52.67 115.767 332
53.77 116.463 310
52.77 114.647 330
52.87 114.708 328
52.97 114.77 326
53.07 114.831 324
53.17 114.893 322
53.27 114.954 320
53.37 115.016 318
53.77 115.261 310
53.47 113.881 316
53.57 113.94 314
53.67 114 312
53.16 131.564 322
53.26 131.651 320
53.36 131.739 318
53.46 131.826 316
53.56 131.913 314
53.66 132 312
53.76 132.087 310
53.86 132.174 308
53.96 132.261 306
53.06 130.288 324
54.06 131.141 304
53.06 129.099 324
54.06 129.934 304
53.06 127.91 324
54.06 128.727 304
52.96 126.641 326
54.06 127.519 304
52.96 125.454 326
53.76 126.078 310
53.86 126.156 308
53.96 126.234 306
52.96 124.267 326
53.76 124.876 310
52.86 123.006 328
53.66 123.6 312
52.86 121.82 328
53.66 122.4 312
52.86 120.635 328
53.66 121.2 312
52.76 119.381 330
53.66 120 312
52.76 118.197 330
53.66 118.8 312
52.66 116.949 332
53.76 117.665 310
52.66 115.767 332
53.76 116.463 310
52.76 114.647 330
52.86 114.708 328
52.96 114.77 326
53.06 114.831 324
53.16 114.893 322
53.26 114.954 320
53.36 115.016 318
53.76 115.261 310
53.46 113.881 316
53.56 113.94 314
53.66 114 312
52.91 131.564 322
53.01 131.651 320
53.11 131.739 318
53.21 131.826 316
53.31 131.913 314
53.41 132 312
53.51 132.087 310
53.61 132.174 308
53.71 132.261 306
52.81 130.288 324
53.81 131.141 304
52.81 129.099 324
53.81 129.934 304
52.81 127.91 324
53.81 128.727 304
52.71 126.641 326
53.81 127.519 304
52.71 125.454 326
53.51 126.078 310
53.61 126.156 308
53.71 126.234 306
52.71 124.267 326
53.51 124.876 310
52.61 123.006 328
53.41 123.6 312
52.61 121.82 328
53.41 122.4 312
52.61 120.635 328
53.41 121.2 312
52.51 119.381 330
53.41 120 312
52.51 118.197 330
53.41 118.8 312
52.41 116.949 332
53.51 117.665 310
52.41 115.767 332
53.51 116.463 310
52.51 114.647 330
52.61 114.708 328
52.71 114.77 326
52.81 114.831 324
52.91 114.893 322
53.01 114.954 320
53.11 115.016 318
53.51 115.261 310
53.21 113.881 316
53.31 113.94 314
53.41 114 312
52.66 131.564 322
52.76 131.651 320
52.86 131.739 318
52.96 131.826 316
53.06 131.913 314
53.16 132 312
53.26 132.087 310
53.36 132.174 308
53.46 132.261 306
52.56 130.288 324
53.56 131.141 304
52.56 129.099 324
53.56 129.934 304
52.56 127.91 324
53.56 128.727 304
52.46 126.641 326
53.56 127.519 304
52.46 125.454 326
53.26 126.078 310
53.36 126.156 308
53.46 126.234 306
52.46 124.267 326
53.26 124.876 310
52.36 123.006 328
53.16 123.6 312
52.36 121.82 328
53.16 122.4 312
52.36 120.635 328
53.16 121.2 312
52.26 119.381 330
53.16 120 312
52.26 118.197 330
53.16 118.8 312
52.16 116.949 332
53.26 117.665 310
52.16 115.767 332
53.26 116.463 310
52.26 114.647 330
52.36 114.708 328
52.46 114.77 326
52.56 114.831 324
52.66 114.893 322
52.76 114.954 320
52.86 115.016 318
53.26 115.261 310
52.96 113.881 316
53.06 113.94 314
53.16 114 312
52.41 131.564 322
52.51 131.651 320
52.61 131.739 318
52.71 131.826 316
52.81 131.913 314
52.91 132 312
53.01 132.087 310
53.11 132.174 308
53.21 132.261 306
52.31 130.288 324
53.31 131.141 304
52.31 129.099 324
53.31 129.934 304
52.31 127.91 324
53.31 128.727 304
52.21 126.641 326
53.31 127.519 304
52.21 125.454 326
53.01 126.078 310
53.11 126.156 308
53.21 126.234 306
52.21 124.267 326
53.01 124.876 310
52.11 123.006 328
52.91 123.6 312
52.11 121.82 328
52.91 122.4 312
52.11 120.635 328
52.91 121.2 312
52.01 119.381 330
52.91 120 312
52.01 118.197 330
52.91 118.8 312
51.91 116.949 332
53.01 117.665 310
51.91 115.767 332
53.01 116.463 310
52.01 114.647 330
52.11 114.708 328
52.21 114.77 326
52.31 114.831 324
52.41 114.893 322
52.51 114.954 320
52.61 115.016 318
53.01 115.261 310
52.71 113.881 316
52.81 113.94 314
52.91 114 312
52.16 131.564 322
52.26 131.651 320
52.36 131.739 318
52.46 131.826 316
52.56 131.913 314
52.66 132 312
52.76 132.087 310
52.86 132.174 308
52.96 132.261 306
52.06 130.288 324
53.06 131.141 304
52.06 129.099 324
53.06 129.934 304
52.06 127.91 324
53.06 128.727 304
51.96 126.641 326
53.06 127.519 304
51.96 125.454 326
52.76 126.078 310
52.86 126.156 308
52.96 126.234 306
51.96 124.267 326
52.76 124.876 310
51.86 123.006 328
52.66 123.6 312
51.86 121.82 328
52.66 122.4 312
51.86 120.635 328
52.66 121.2 312
51.76 119.381 330
52.66 120 312
51.76 118.197 330
52.66 118.8 312
51.66 116.949 332
52.76 117.665 310
51.66 115.767 332
52.76 116.463 310
51.76 114.647 330
51.86 114.708 328
51.96 114.77 326
52.06 114.831 324
52.16 114.893 322
52.26 114.954 320
52.36 115.016 318
52.76 115.261 310
52.46 113.881 316
52.56 113.94 314
52.66 114 312
51.91 131.564 322
52.01 131.651 320
52.11 131.739 318
52.21 131.826 316
52.31 131.913 314
52.41 132 312
52.51 132.087 310
52.61 132.174 308
52.71 132.261 306
51.81 130.288 324
52.81 131.141 304
51.81 129.099 324
52.81 129.934 304
51.81 127.91 324
52.81 128.727 304
51.71 126.641 326
52.81 127.519 304
51.71 125.454 326
52.51 126.078 310
52.61 126.156 308
52.71 126.234 306
51.71 124.267 326
52.51 124.876 310
51.61 123.006 328
52.41 123.6 312
51.61 121.82 328
52.41 122.4 312
51.61 120.635 328
52.41 121.2 312
51.51 119.381 330
52.41 120 312
51.51 118.197 330
52.41 118.8 312
51.41 116.949 332
52.51 117.665 310
51.41 115.767 332
52.51 116.463 310
51.51 114.647 330
51.61 114.708 328
51.71 114.77 326
51.81 114.831 324
51.91 114.893 322
52.01 114.954 320
52.11 115.016 318
52.51 115.261 310
52.21 113.881 316
52.31 113.94 314
52.41 114 312
51.66 131.564 322
51.76 131.651 320
51.86 131.739 318
51.96 131.826 316
52.06 131.913 314
52.16 132 312
52.26 132.087 310
52.36 132.174 308
52.46 132.261 306
51.56 130.288 324
52.56 131.141 304
51.56 129.099 324
52.56 129.934 304
51.56 127.91 324
52.56 128.727 304
51.46 126.641 326
52.56 127.519 304
51.46 125.454 326
52.26 126.078 310
52.36 126.156 308
52.46 126.234 306
51.46 124.267 326
52.26 124.876 310
51.36 123.006 328
52.16 123.6 312
51.36 121.82 328
52.16 122.4 312
51.36 120.635 328
52.16 121.2 312
51.26 119.381 330
52.16 120 312
51.26 118.197 330
52.16 118.8 312
51.16 116.949 332
52.26 117.665 310
51.16 115.767 332
52.26 116.463 310
51.26 114.647 330
51.36 114.708 328
51.46 114.77 326
51.56 114.831 324
51.66 114.893 322
51.76 114.954 320
51.86 115.016 318
52.26 115.261 310
51.96 113.881 316
52.06 113.94 314
52.16 114 312
51.41 131.564 322
51.51 131.651 320
51.61 131.739 318
51.71 131.826 316
51.81 131.913 314
51.91 132 312
52.01 132.087 310
52.11 132.174 308
52.21 132.261 306
51.31 130.288 324
52.31 131.141 304
51.31 129.099 324
52.31 129.934 304
51.31 127.91 324
52.31 128.727 304
51.21 126.641 326
52.31 127.519 304
51.21 125.454 326
52.01 126.078 310
52.11 126.156 308
52.21 126.234 306
51.21 124.267 326
52.01 124.876 310
51.11 123.006 328
51.91 123.6 312
51.11 121.82 328
51.91 122.4 312
51.11 120.635 328
51.91 121.2 312
51.01 119.381 330
51.91 120 312
51.01 118.197 330
51.91 118.8 312
50.91 116.949 332
52.01 117.665 310
50.91 115.767 332
52.01 116.463 310
51.01 114.647 330
51.11 114.708 328
51.21 114.77 326
51.31 114.831 324
51.41 114.893 322
51.51 114.954 320
51.61 115.016 318
52.01 115.261 310
51.71 113.881 316
51.81 113.94 314
51.91 114 312
51.16 131.564 322
51.26 131.651 320
51.36 131.739 318
51.46 131.826 316
51.56 131.913 314
51.66 132 312
51.76 132.087 310
51.86 132.174 308
51.96 132.261 306
51.06 130.288 324
52.06 131.141 304
51.06 129.099 324
52.06 129.934 304
51.06 127.91 324
52.06 128.727 304
50.96 126.641 326
52.06 127.519 304
50.96 125.454 326
51.76 126.078 310
51.86 126.156 308
51.96 126.234 306
50.96 124.267 326
51.76 124.876 310
50.86 123.006 328
51.66 123.6 312
50.86 121.82 328
51.66 122.4 312
50.86 120.635 328
51.66 121.2 312
50.76 119.381 330
51.66 120 312
50.76 118.197 330
51.66 118.8 312
50.66 116.949 332
51.76 117.665 310
50.66 115.767 332
51.76 116.463 310
50.76 114.647 330
50.86 114.708 328
50.96 114.77 326
51.06 114.831 324
51.16 114.893 322
51.26 114.954 320
51.36 115.016 318
51.76 115.261 310
51.46 113.881 316
51.56 113.94 314
51.66 114 312
50.9 131.564 322
50.91 131.564 322
51 131.651 320
51.01 131.651 320
51.1 131.739 318
51.11 131.739 318
51.2 131.826 316
51.21 131.826 316
51.3 131.913 314
51.31 131.913 314
51.4 132 312
51.41 132 312
51.5 132.087 310
51.51 132.087 310
51.6 132.174 308
51.61 132.174 308
51.7 132.261 306
51.71 132.261 306
50.8 130.288 324
50.81 130.288 324
51.8 131.141 304
51.81 131.141 304
50.8 129.099 324
50.81 129.099 324
51.8 129.934 304
51.81 129.934 304
50.8 127.91 324
50.81 127.91 324
51.8 128.727 304
51.81 128.727 304
50.7 126.641 326
50.71 126.641 326
51.8 127.519 304
51.81 127.519 304
50.7 125.454 326
50.71 125.454 326
51.5 126.078 310
51.51 126.078 310
51.6 126.156 308
51.61 126.156 308
51.7 126.234 306
51.71 126.234 306
50.7 124.267 326
50.71 124.267 326
51.5 124.876 310
51.51 124.876 310
50.6 123.006 328
50.61 123.006 328
51.4 123.6 312
51.41 123.6 312
50.6 121.82 328
50.61 121.82 328
51.4 122.4 312
51.41 122.4 312
50.6 120.635 328
50.61 120.635 328
51.4 121.2 312
51.41 121.2 312
50.5 119.381 330
50.51 119.381 330
51.4 120 312
51.41 120 312
50.5 118.197 330
50.51 118.197 330
51.4 118.8 312
51.41 118.8 312
50.4 116.949 332
50.41 116.949 332
51.5 117.665 310
51.51 117.665 310
50.4 115.767 332
50.41 115.767 332
51.5 116.463 310
51.51 116.463 310
50.5 114.647 330
50.51 114.647 330
50.6 114.708 328
50.61 114.708 328
50.7 114.77 326
50.71 114.77 326
50.8 114.831 324
50.81 114.831 324
50.9 114.893 322
50.91 114.893 322
51 114.954 320
51.01 114.954 320
51.1 115.016 318
51.11 115.016 318
51.5 115.261 310
51.51 115.261 310
51.2 113.881 316
51.21 113.881 316
51.3 113.94 314
51.31 113.94 314
51.4 114 312
51.41 114 312
50.4 131.564 322
50.65 131.564 322
50.5 131.651 320
50.75 131.651 320
50.6 131.739 318
50.85 131.739 318
50.7 131.826 316
50.95 131.826 316
50.8 131.913 314
51.05 131.913 314
50.9 132 312
51.15 132 312
51 132.087 310
51.25 132.087 310
51.1 132.174 308
51.35 132.174 308
51.2 132.261 306
51.45 132.261 306
50.3 130.288 324
50.55 130.288 324
51.3 131.141 304
51.55 131.141 304
50.3 129.099 324
50.55 129.099 324
51.3 129.934 304
51.55 129.934 304
50.3 127.91 324
50.55 127.91 324
51.3 128.727 304
51.55 128.727 304
50.2 126.641 326
50.45 126.641 326
51.3 127.519 304
51.55 127.519 304
50.2 125.454 326
50.45 125.454 326
51 126.078 310
51.25 126.078 310
51.1 126.156 308
51.35 126.156 308
51.2 126.234 306
51.45 126.234 306
50.2 124.267 326
50.45 124.267 326
51 124.876 310
51.25 124.876 310
50.1 123.006 328
50.35 123.006 328
50.9 123.6 312
51.15 123.6 312
50.1 121.82 328
50.35 121.82 328
50.9 122.4 312
51.15 122.4 312
50.1 120.635 328
50.35 120.635 328
50.9 121.2 312
51.15 121.2 312
50 119.381 330
50.25 119.381 330
50.9 120 312
51.15 120 312
50 118.197 330
50.25 118.197 330
50.9 118.8 312
51.15 118.8 312
49.9 116.949 332
50.15 116.949 332
51 117.665 310
51.25 117.665 310
49.9 115.767 332
50.15 115.767 332
51 116.463 310
51.25 116.463 310
50 114.647 330
50.25 114.647 330
50.1 114.708 328
50.35 114.708 328
50.2 114.77 326
50.45 114.77 326
50.3 114.831 324
50.55 114.831 324
50.4 114.893 322
50.65 114.893 322
50.5 114.954 320
50.75 114.954 320
50.6 115.016 318
50.85 115.016 318
51 115.261 310
51.25 115.261 310
50.7 113.881 316
50.95 113.881 316
50.8 113.94 314
51.05 113.94 314
50.9 114 312
51.15 114 312
50.25 131.651 320
50.35 131.739 318
50.45 131.826 316
50.55 131.913 314
50.65 132 312
50.15 130.373 322
50.75 130.885 310
50.85 130.971 308
50.95 131.056 306
50.05 129.099 324
51.05 129.934 304
50.05 127.91 324
51.05 128.727 304
49.95 126.641 326
51.05 127.519 304
49.95 125.454 326
50.75 126.078 310
50.85 126.156 308
50.95 126.234 306
49.95 124.267 326
50.75 124.876 310
49.85 123.006 328
50.65 123.6 312
49.85 121.82 328
50.65 122.4 312
49.85 120.635 328
50.65 121.2 312
49.75 119.381 330
50.65 120 312
49.75 118.197 330
50.65 118.8 312
49.65 116.949 332
50.75 117.665 310
49.65 115.767 332
50.75 116.463 310
49.75 114.647 330
49.85 114.708 328
49.95 114.77 326
50.05 114.831 324
50.15 114.893 322
50.25 114.954 320
50.35 115.016 318
50.75 115.261 310
50.45 113.881 316
50.55 113.94 314
50.65 114 312
55.94 131.564 322
56.04 131.651 320
56.14 131.739 318
56.24 131.826 316
56.34 131.913 314
56.44 132 312
56.54 132.087 310
56.64 132.174 308
56.74 132.261 306
55.84 130.288 324
56.84 131.141 304
55.84 129.099 324
56.84 129.934 304
55.84 127.91 324
56.84 128.727 304
55.74 126.641 326
56.84 127.519 304
55.74 125.454 326
56.54 126.078 310
56.64 126.156 308
56.74 126.234 306
55.74 124.267 326
56.54 124.876 310
55.64 123.006 328
56.44 123.6 312
55.64 121.82 328
56.44 122.4 312
55.64 120.635 328
56.44 121.2 312
55.54 119.381 330
56.44 120 312
55.54 118.197 330
56.44 118.8 312
55.44 116.949 332
56.54 117.665 310
55.44 115.767 332
56.54 116.463 310
55.54 114.647 330
55.64 114.708 328
55.74 114.77 326
55.84 114.831 324
55.94 114.893 322
56.04 114.954 320
56.14 115.016 318
56.54 115.261 310
56.24 113.881 316
56.34 113.94 314
56.44 114 312
50.1 131.739 318
50.2 131.826 316
50.3 131.913 314
50.4 132 312
49.9 130.373 322
50 130.459 320
50.5 130.885 310
50.6 130.971 308
50.7 131.056 306
49.8 129.099 324
50.8 129.934 304
49.8 127.91 324
50.8 128.727 304
49.7 126.641 326
50.8 127.519 304
49.7 125.454 326
50.5 126.078 310
50.6 126.156 308
50.7 126.234 306
49.7 124.267 326
50.5 124.876 310
49.6 123.006 328
50.4 123.6 312
49.6 121.82 328
50.4 122.4 312
49.6 120.635 328
50.4 121.2 312
49.5 119.381 330
50.4 120 312
49.5 118.197 330
50.4 118.8 312
49.4 116.949 332
50.5 117.665 310
49.4 115.767 332
50.5 116.463 310
49.5 114.647 330
49.6 114.708 328
49.7 114.77 326
49.8 114.831 324
49.9 114.893 322
50 114.954 320
50.1 115.016 318
50.5 115.261 310
50.2 113.881 316
50.3 113.94 314
50.4 114 312
50.3 116.337 314
50.2 117.47 316
50.1 117.405 318
50 117.339 320
49.9 117.274 322
49.8 117.209 324
49.7 117.144 326
50.2 118.666 316
50.1 118.599 318
50 118.532 320
49.9 118.465 322
49.8 118.398 324
49.7 118.331 326
50.2 119.862 316
50.1 119.794 318
50 119.725 320
49.9 119.656 322
49.8 119.587 324
50.2 121.059 316
50.1 120.988 318
50 120.917 320
49.9 120.847 322
49.8 120.776 324
50.2 122.255 316
50.1 122.183 318
50 122.11 320
49.9 122.038 322
49.8 121.965 324
50.2 123.451 316
50.1 123.377 318
50 123.303 320
49.9 123.228 322
50.2 124.648 316
50.1 124.572 318
50 124.495 320
49.9 124.419 322
50.3 125.922 314
50.2 125.844 316
50.1 125.766 318
50 125.688 320
49.9 125.61 322
50.3 127.12 314
50.2 127.04 316
50.1 126.961 318
50 126.881 320
50.7 128.645 306
50.6 128.563 308
50.5 128.482 310
50.4 128.4 312
50.3 128.318 314
50.2 128.237 316
50.1 128.155 318
50 128.073 320
50.7 129.85 306
50.6 129.767 308
50.5 129.683 310
50.4 129.6 312
50.3 129.517 314
50.2 129.433 316
50.4 130.8 312
50.3 130.715 314
50.2 130.629 316
56.34 116.337 314
56.24 117.47 316
56.14 117.405 318
56.04 117.339 320
55.94 117.274 322
55.84 117.209 324
55.74 117.144 326
56.24 118.666 316
56.14 118.599 318
56.04 118.532 320
55.94 118.465 322
55.84 118.398 324
55.74 118.331 326
56.24 119.862 316
56.14 119.794 318
56.04 119.725 320
55.94 119.656 322
55.84 119.587 324
56.24 121.059 316
56.14 120.988 318
56.04 120.917 320
55.94 120.847 322
55.84 120.776 324
56.24 122.255 316
56.14 122.183 318
56.04 122.11 320
55.94 122.038 322
55.84 121.965 324
56.24 123.451 316
56.14 123.377 318
56.04 123.303 320
55.94 123.228 322
56.24 124.648 316
56.14 124.572 318
56.04 124.495 320
55.94 124.419 322
56.34 125.922 314
56.24 125.844 316
56.14 125.766 318
56.04 125.688 320
55.94 125.61 322
56.34 127.12 314
56.24 127.04 316
56.14 126.961 318
56.04 126.881 320
56.74 128.645 306
56.64 128.563 308
56.54 128.482 310
56.44 128.4 312
56.34 128.318 314
56.24 128.237 316
56.14 128.155 318
56.04 128.073 320
56.74 129.85 306
56.64 129.767 308
56.54 129.683 310
56.44 129.6 312
56.34 129.517 314
56.24 129.433 316
56.14 129.35 318
56.04 129.266 320
56.74 131.056 306
56.64 130.971 308
56.54 130.885 310
56.44 130.8 312
56.34 130.715 314
56.24 130.629 316
56.14 130.544 318
56.04 130.459 320
50.55 116.337 314
50.45 117.47 316
50.35 117.405 318
50.25 117.339 320
50.15 117.274 322
50.05 117.209 324
49.95 117.144 326
50.45 118.666 316
50.35 118.599 318
50.25 118.532 320
50.15 118.465 322
50.05 118.398 324
49.95 118.331 326
50.45 119.862 316
50.35 119.794 318
50.25 119.725 320
50.15 119.656 322
50.05 119.587 324
50.45 121.059 316
50.35 120.988 318
50.25 120.917 320
50.15 120.847 322
50.05 120.776 324
50.45 122.255 316
50.35 122.183 318
50.25 122.11 320
50.15 122.038 322
50.05 121.965 324
50.45 123.451 316
50.35 123.377 318
50.25 123.303 320
50.15 123.228 322
50.45 124.648 316
50.35 124.572 318
50.25 124.495 320
50.15 124.419 322
50.55 125.922 314
50.45 125.844 316
50.35 125.766 318
50.25 125.688 320
50.15 125.61 322
50.55 127.12 314
50.45 127.04 316
50.35 126.961 318
50.25 126.881 320
50.95 128.645 306
50.85 128.563 308
50.75 128.482 310
50.65 128.4 312
50.55 128.318 314
50.45 128.237 316
50.35 128.155 318
50.25 128.073 320
50.95 129.85 306
50.85 129.767 308
50.75 129.683 310
50.65 129.6 312
50.55 129.517 314
50.45 129.433 316
50.65 130.8 312
50.55 130.715 314
50.45 130.629 316
51.05 116.337 314
50.8 116.337 314
50.95 117.47 316
50.7 117.47 316
50.85 117.405 318
50.6 117.405 318
50.75 117.339 320
50.5 117.339 320
50.65 117.274 322
50.4 117.274 322
50.55 117.209 324
50.3 117.209 324
50.45 117.144 326
50.2 117.144 326
50.95 118.666 316
50.7 118.666 316
50.85 118.599 318
50.6 118.599 318
50.75 118.532 320
50.5 118.532 320
50.65 118.465 322
50.4 118.465 322
50.55 118.398 324
50.3 118.398 324
50.45 118.331 326
50.2 118.331 326
50.95 119.862 316
50.7 119.862 316
50.85 119.794 318
50.6 119.794 318
50.75 119.725 320
50.5 119.725 320
50.65 119.656 322
50.4 119.656 322
50.55 119.587 324
50.3 119.587 324
50.95 121.059 316
50.7 121.059 316
50.85 120.988 318
50.6 120.988 318
50.75 120.917 320
50.5 120.917 320
50.65 120.847 322
50.4 120.847 322
50.55 120.776 324
50.3 120.776 324
50.95 122.255 316
50.7 122.255 316
50.85 122.183 318
50.6 122.183 318
50.75 122.11 320
50.5 122.11 320
50.65 122.038 322
50.4 122.038 322
50.55 121.965 324
50.3 121.965 324
50.95 123.451 316
50.7 123.451 316
50.85 123.377 318
50.6 123.377 318
50.75 123.303 320
50.5 123.303 320
50.65 123.228 322
50.4 123.228 322
50.95 124.648 316
50.7 124.648 316
50.85 124.572 318
50.6 124.572 318
50.75 124.495 320
50.5 124.495 320
50.65 124.419 322
50.4 124.419 322
51.05 125.922 314
50.8 125.922 314
50.95 125.844 316
50.7 125.844 316
50.85 125.766 318
50.6 125.766 318
50.75 125.688 320
50.5 125.688 320
50.65 125.61 322
50.4 125.61 322
51.05 127.12 314
50.8 127.12 314
50.95 127.04 316
50.7 127.04 316
50.85 126.961 318
50.6 126.961 318
50.75 126.881 320
50.5 126.881 320
51.45 128.645 306
51.2 128.645 306
51.35 128.563 308
51.1 128.563 308
51.25 128.482 310
51 128.482 310
51.15 128.4 312
50.9 128.4 312
51.05 128.318 314
50.8 128.318 314
50.95 128.237 316
50.7 128.237 316
50.85 128.155 318
50.6 128.155 318
50.75 128.073 320
50.5 128.073 320
51.45 129.85 306
51.2 129.85 306
51.35 129.767 308
51.1 129.767 308
51.25 129.683 310
51 129.683 310
51.15 129.6 312
50.9 129.6 312
51.05 129.517 314
50.8 129.517 314
50.95 129.433 316
50.7 129.433 316
50.85 129.35 318
50.6 129.35 318
50.75 129.266 320
51.45 131.056 306
51.2 131.056 306
51.35 130.971 308
51.1 130.971 308
51.25 130.885 310
51 130.885 310
51.15 130.8 312
50.9 130.8 312
51.05 130.715 314
50.8 130.715 314
50.95 130.629 316
50.7 130.629 316
50.85 130.544 318
50.6 130.544 318
50.75 130.459 320
51.31 116.337 314
51.3 116.337 314
51.21 117.47 316
51.2 117.47 316
51.11 117.405 318
51.1 117.405 318
51.01 117.339 320
51 117.339 320
50.91 117.274 322
50.9 117.274 322
50.81 117.209 324
50.8 117.209 324
50.71 117.144 326
50.7 117.144 326
51.21 118.666 316
51.2 118.666 316
51.11 118.599 318
51.1 118.599 318
51.01 118.532 320
51 118.532 320
50.91 118.465 322
50.9 118.465 322
50.81 118.398 324
50.8 118.398 324
50.71 118.331 326
50.7 118.331 326
51.21 119.862 316
51.2 119.862 316
51.11 119.794 318
51.1 119.794 318
51.01 119.725 320
51 119.725 320
50.91 119.656 322
50.9 119.656 322
50.81 119.587 324
50.8 119.587 324
51.21 121.059 316
51.2 121.059 316
51.11 120.988 318
51.1 120.988 318
51.01 120.917 320
51 120.917 320
50.91 120.847 322
50.9 120.847 322
50.81 120.776 324
50.8 120.776 324
51.21 122.255 316
51.2 122.255 316
51.11 122.183 318
51.1 122.183 318
51.01 122.11 320
51 122.11 320
50.91 122.038 322
50.9 122.038 322
50.81 121.965 324
50.8 121.965 324
51.21 123.451 316
51.2 123.451 316
51.11 123.377 318
51.1 123.377 318
51.01 123.303 320
51 123.303 320
50.91 123.228 322
50.9 123.228 322
51.21 124.648 316
51.2 124.648 316
51.11 124.572 318
51.1 124.572 318
51.01 124.495 320
51 124.495 320
50.91 124.419 322
50.9 124.419 322
51.31 125.922 314
51.3 125.922 314
51.21 125.844 316
51.2 125.844 316
51.11 125.766 318
51.1 125.766 318
51.01 125.688 320
51 125.688 320
50.91 125.61 322
50.9 125.61 322
51.31 127.12 314
51.3 127.12 314
51.21 127.04 316
51.2 127.04 316
51.11 126.961 318
51.1 126.961 318
51.01 126.881 320
51 126.881 320
51.71 128.645 306
51.7 128.645 306
51.61 128.563 308
51.6 128.563 308
51.51 128.482 310
51.5 128.482 310
51.41 128.4 312
51.4 128.4 312
51.31 128.318 314
51.3 128.318 314
51.21 128.237 316
51.2 128.237 316
51.11 128.155 318
51.1 128.155 318
51.01 128.073 320
51 128.073 320
51.71 129.85 306
51.7 129.85 306
51.61 129.767 308
51.6 129.767 308
51.51 129.683 310
51.5 129.683 310
51.41 129.6 312
51.4 129.6 312
51.31 129.517 314
51.3 129.517 314
51.21 129.433 316
51.2 129.433 316
51.11 129.35 318
51.1 129.35 318
51.01 129.266 320
51 129.266 320
51.71 131.056 306
51.7 131.056 306
51.61 130.971 308
51.6 130.971 308
51.51 130.885 310
51.5 130.885 310
51.41 130.8 312
51.4 130.8 312
51.31 130.715 314
51.3 130.715 314
51.21 130.629 316
51.2 130.629 316
51.11 130.544 318
51.1 130.544 318
51.01 130.459 320
51 130.459 320
51.56 116.337 314
51.46 117.47 316
51.36 117.405 318
51.26 117.339 320
51.16 117.274 322
51.06 117.209 324
50.96 117.144 326
51.46 118.666 316
51.36 118.599 318
51.26 118.532 320
51.16 118.465 322
51.06 118.398 324
50.96 118.331 326
51.46 119.862 316
51.36 119.794 318
51.26 119.725 320
51.16 119.656 322
51.06 119.587 324
51.46 121.059 316
51.36 120.988 318
51.26 120.917 320
51.16 120.847 322
51.06 120.776 324
51.46 122.255 316
51.36 122.183 318
51.26 122.11 320
51.16 122.038 322
51.06 121.965 324
51.46 123.451 316
51.36 123.377 318
51.26 123.303 320
51.16 123.228 322
51.46 124.648 316
51.36 124.572 318
51.26 124.495 320
51.16 124.419 322
51.56 125.922 314
51.46 125.844 316
51.36 125.766 318
51.26 125.688 320
51.16 125.61 322
51.56 127.12 314
51.46 127.04 316
51.36 126.961 318
51.26 126.881 320
51.96 128.645 306
51.86 128.563 308
51.76 128.482 310
51.66 128.4 312
51.56 128.318 314
51.46 128.237 316
51.36 128.155 318
51.26 128.073 320
51.96 129.85 306
51.86 129.767 308
51.76 129.683 310
51.66 129.6 312
51.56 129.517 314
51.46 129.433 316
51.36 129.35 318
51.26 129.266 320
51.96 131.056 306
51.86 130.971 308
51.76 130.885 310
51.66 130.8 312
51.56 130.715 314
51.46 130.629 316
51.36 130.544 318
51.26 130.459 320
51.81 116.337 314
51.71 117.47 316
51.61 117.405 318
51.51 117.339 320
51.41 117.274 322
51.31 117.209 324
51.21 117.144 326
51.71 118.666 316
51.61 118.599 318
51.51 118.532 320
51.41 118.465 322
51.31 118.398 324
51.21 118.331 326
51.71 119.862 316
51.61 119.794 318
51.51 119.725 320
51.41 119.656 322
51.31 119.587 324
51.71 121.059 316
51.61 120.988 318
51.51 120.917 320
51.41 120.847 322
51.31 120.776 324
51.71 122.255 316
51.61 122.183 318
51.51 122.11 320
51.41 122.038 322
51.31 121.965 324
51.71 123.451 316
51.61 123.377 318
51.51 123.303 320
51.41 123.228 322
51.71 124.648 316
51.61 124.572 318
51.51 124.495 320
51.41 124.419 322
51.81 125.922 314
51.71 125.844 316
51.61 125.766 318
51.51 125.688 320
51.41 125.61 322
51.81 127.12 314
51.71 127.04 316
51.61 126.961 318
51.51 126.881 320
52.21 128.645 306
52.11 128.563 308
52.01 128.482 310
51.91 128.4 312
51.81 128.318 314
51.71 128.237 316
51.61 128.155 318
51.51 128.073 320
52.21 129.85 306
52.11 129.767 308
52.01 129.683 310
51.91 129.6 312
51.81 129.517 314
51.71 129.433 316
51.61 129.35 318
51.51 129.266 320
52.21 131.056 306
52.11 130.971 308
52.01 130.885 310
51.91 130.8 312
51.81 130.715 314
51.71 130.629 316
51.61 130.544 318
51.51 130.459 320
52.06 116.337 314
51.96 117.47 316
51.86 117.405 318
51.76 117.339 320
51.66 117.274 322
51.56 117.209 324
51.46 117.144 326
51.96 118.666 316
51.86 118.599 318
51.76 118.532 320
51.66 118.465 322
51.56 118.398 324
51.46 118.331 326
51.96 119.862 316
51.86 119.794 318
51.76 119.725 320
51.66 119.656 322
51.56 119.587 324
51.96 121.059 316
51.86 120.988 318
51.76 120.917 320
51.66 120.847 322
51.56 120.776 324
51.96 122.255 316
51.86 122.183 318
51.76 122.11 320
51.66 122.038 322
51.56 121.965 324
51.96 123.451 316
51.86 123.377 318
51.76 123.303 320
51.66 123.228 322
51.96 124.648 316
51.86 124.572 318
51.76 124.495 320
51.66 124.419 322
52.06 125.922 314
51.96 125.844 316
51.86 125.766 318
51.76 125.688 320
51.66 125.61 322
52.06 127.12 314
51.96 127.04 316
51.86 126.961 318
51.76 126.881 320
52.46 128.645 306
52.36 128.563 308
52.26 128.482 310
52.16 128.4 312
52.06 128.318 314
51.96 128.237 316
51.86 128.155 318
51.76 128.073 320
52.46 129.85 306
52.36 129.767 308
52.26 129.683 310
52.16 129.6 312
52.06 129.517 314
51.96 129.433 316
51.86 129.35 318
51.76 129.266 320
52.46 131.056 306
52.36 130.971 308
52.26 130.885 310
52.16 130.8 312
52.06 130.715 314
51.96 130.629 316
51.86 130.544 318
51.76 130.459 320
52.31 116.337 314
52.21 117.47 316
52.11 117.405 318
52.01 117.339 320
51.91 117.274 322
51.81 117.209 324
51.71 117.144 326
52.21 118.666 316
52.11 118.599 318
52.01 118.532 320
51.91 118.465 322
51.81 118.398 324
51.71 118.331 326
52.21 119.862 316
52.11 119.794 318
52.01 119.725 320
51.91 119.656 322
51.81 119.587 324
52.21 121.059 316
52.11 120.988 318
52.01 120.917 320
51.91 120.847 322
51.81 120.776 324
52.21 122.255 316
52.11 122.183 318
52.01 122.11 320
51.91 122.038 322
51.81 121.965 324
52.21 123.451 316
52.11 123.377 318
52.01 123.303 320
51.91 123.228 322
52.21 124.648 316
52.11 124.572 318
52.01 124.495 320
51.91 124.419 322
52.31 125.922 314
52.21 125.844 316
52.11 125.766 318
52.01 125.688 320
51.91 125.61 322
52.31 127.12 314
52.21 127.04 316
52.11 126.961 318
52.01 126.881 320
52.71 128.645 306
52.61 128.563 308
52.51 128.482 310
52.41 128.4 312
52.31 128.318 314
52.21 128.237 316
52.11 128.155 318
52.01 128.073 320
52.71 129.85 306
52.61 129.767 308
52.51 129.683 310
52.41 129.6 312
52.31 129.517 314
52.21 129.433 316
52.11 129.35 318
52.01 129.266 320
52.71 131.056 306
52.61 130.971 308
52.51 130.885 310
52.41 130.8 312
52.31 130.715 314
52.21 130.629 316
52.11 130.544 318
52.01 130.459 320
52.56 116.337 314
52.46 117.47 316
52.36 117.405 318
52.26 117.339 320
52.16 117.274 322
52.06 117.209 324
51.96 117.144 326
52.46 118.666 316
52.36 118.599 318
52.26 118.532 320
52.16 118.465 322
52.06 118.398 324
51.96 118.331 326
52.46 119.862 316
52.36 119.794 318
52.26 119.725 320
52.16 119.656 322
52.06 119.587 324
52.46 121.059 316
52.36 120.988 318
52.26 120.917 320
52.16 120.847 322
52.06 120.776 324
52.46 122.255 316
52.36 122.183 318
52.26 122.11 320
52.16 122.038 322
52.06 121.965 324
52.46 123.451 316
52.36 123.377 318
52.26 123.303 320
52.16 123.228 322
52.46 124.648 316
52.36 124.572 318
52.26 124.495 320
52.16 124.419 322
52.56 125.922 314
52.46 125.844 316
52.36 125.766 318
52.26 125.688 320
52.16 125.61 322
52.56 127.12 314
52.46 127.04 316
52.36 126.961 318
52.26 126.881 320
52.96 128.645 306
52.86 128.563 308
52.76 128.482 310
52.66 128.4 312
52.56 128.318 314
52.46 128.237 316
52.36 128.155 318
52.26 128.073 320
52.96 129.85 306
52.86 129.767 308
52.76 129.683 310
52.66 129.6 312
52.56 129.517 314
52.46 129.433 316
52.36 129.35 318
52.26 129.266 320
52.96 131.056 306
52.86 130.971 308
52.76 130.885 310
52.66 130.8 312
52.56 130.715 314
52.46 130.629 316
52.36 130.544 318
52.26 130.459 320
52.81 116.337 314
52.71 117.47 316
52.61 117.405 318
52.51 117.339 320
52.41 117.274 322
52.31 117.209 324
52.21 117.144 326
52.71 118.666 316
52.61 118.599 318
52.51 118.532 320
52.41 118.465 322
52.31 118.398 324
52.21 118.331 326
52.71 119.862 316
52.61 119.794 318
52.51 119.725 320
52.41 119.656 322
52.31 119.587 324
52.71 121.059 316
52.61 120.988 318
52.51 120.917 320
52.41 120.847 322
52.31 120.776 324
52.71 122.255 316
52.61 122.183 318
52.51 122.11 320
52.41 122.038 322
52.31 121.965 324
52.71 123.451 316
52.61 123.377 318
52.51 123.303 320
52.41 123.228 322
52.71 124.648 316
52.61 124.572 318
52.51 124.495 320
52.41 124.419 322
52.81 125.922 314
52.71 125.844 316
52.61 125.766 318
52.51 125.688 320
52.41 125.61 322
52.81 127.12 314
52.71 127.04 316
52.61 126.961 318
52.51 126.881 320
53.21 128.645 306
53.11 128.563 308
53.01 128.482 310
52.91 128.4 312
52.81 128.318 314
52.71 128.237 316
52.61 128.155 318
52.51 128.073 320
53.21 129.85 306
53.11 129.767 308
53.01 129.683 310
52.91 129.6 312
52.81 129.517 314
52.71 129.433 316
52.61 129.35 318
52.51 129.266 320
53.21 131.056 306
53.11 130.971 308
53.01 130.885 310
52.91 130.8 312
52.81 130.715 314
52.71 130.629 316
52.61 130.544 318
52.51 130.459 320
53.06 116.337 314
52.96 117.47 316
52.86 117.405 318
52.76 117.339 320
52.66 117.274 322
52.56 117.209 324
52.46 117.144 326
52.96 118.666 316
52.86 118.599 318
52.76 118.532 320
52.66 118.465 322
52.56 118.398 324
52.46 118.331 326
52.96 119.862 316
52.86 119.794 318
52.76 119.725 320
52.66 119.656 322
52.56 119.587 324
52.96 121.059 316
52.86 120.988 318
52.76 120.917 320
52.66 120.847 322
52.56 120.776 324
52.96 122.255 316
52.86 122.183 318
52.76 122.11 320
52.66 122.038 322
52.56 121.965 324
52.96 123.451 316
52.86 123.377 318
52.76 123.303 320
52.66 123.228 322
52.96 124.648 316
52.86 124.572 318
52.76 124.495 320
52.66 124.419 322
53.06 125.922 314
52.96 125.844 316
52.86 125.766 318
52.76 125.688 320
52.66 125.61 322
53.06 127.12 314
52.96 127.04 316
52.86 126.961 318
52.76 126.881 320
53.46 128.645 306
53.36 128.563 308
53.26 128.482 310
53.16 128.4 312
53.06 128.318 314
52.96 128.237 316
52.86 128.155 318
52.76 128.073 320
53.46 129.85 306
53.36 129.767 308
53.26 129.683 310
53.16 129.6 312
53.06 129.517 314
52.96 129.433 316
52.86 129.35 318
52.76 129.266 320
53.46 131.056 306
53.36 130.971 308
53.26 130.885 310
53.16 130.8 312
53.06 130.715 314
52.96 130.629 316
52.86 130.544 318
52.76 130.459 320
53.31 116.337 314
53.21 117.47 316
53.11 117.405 318
53.01 117.339 320
52.91 117.274 322
52.81 117.209 324
52.71 117.144 326
53.21 118.666 316
53.11 118.599 318
53.01 118.532 320
52.91 118.465 322
52.81 118.398 324
52.71 118.331 326
53.21 119.862 316
53.11 119.794 318
53.01 119.725 320
52.91 119.656 322
52.81 119.587 324
53.21 121.059 316
53.11 120.988 318
53.01 120.917 320
52.91 120.847 322
52.81 120.776 324
53.21 122.255 316
53.11 122.183 318
53.01 122.11 320
52.91 122.038 322
52.81 121.965 324
53.21 123.451 316
53.11 123.377 318
53.01 123.303 320
52.91 123.228 322
53.21 124.648 316
53.11 124.572 318
53.01 124.495 320
52.91 124.419 322
53.31 125.922 314
53.21 125.844 316
53.11 125.766 318
53.01 125.688 320
52.91 125.61 322
53.31 127.12 314
53.21 127.04 316
53.11 126.961 318
53.01 126.881 320
53.71 128.645 306
53.61 128.563 308
53.51 128.482 310
53.41 128.4 312
53.31 128.318 314
53.21 128.237 316
53.11 128.155 318
53.01 128.073 320
53.71 129.85 306
53.61 129.767 308
53.51 129.683 310
53.41 129.6 312
53.31 129.517 314
53.21 129.433 316
53.11 129.35 318
53.01 129.266 320
53.71 131.056 306
53.61 130.971 308
53.51 130.885 310
53.41 130.8 312
53.31 130.715 314
53.21 130.629 316
53.11 130.544 318
53.01 130.459 320
53.56 116.337 314
53.46 117.47 316
53.36 117.405 318
53.26 117.339 320
53.16 117.274 322
53.06 117.209 324
52.96 117.144 326
53.46 118.666 316
53.36 118.599 318
53.26 118.532 320
53.16 118.465 322
53.06 118.398 324
52.96 118.331 326
53.46 119.862 316
53.36 119.794 318
53.26 119.725 320
53.16 119.656 322
53.06 119.587 324
53.46 121.059 316
53.36 120.988 318
53.26 120.917 320
53.16 120.847 322
53.06 120.776 324
53.46 122.255 316
53.36 122.183 318
53.26 122.11 320
53.16 122.038 322
53.06 121.965 324
53.46 123.451 316
53.36 123.377 318
53.26 123.303 320
53.16 123.228 322
53.46 124.648 316
53.36 124.572 318
53.26 124.495 320
53.16 124.419 322
53.56 125.922 314
53.46 125.844 316
53.36 125.766 318
53.26 125.688 320
53.16 125.61 322
53.56 127.12 314
53.46 127.04 316
53.36 126.961 318
53.26 126.881 320
53.96 128.645 306
53.86 128.563 308
53.76 128.482 310
53.66 128.4 312
53.56 128.318 314
53.46 128.237 316
53.36 128.155 318
53.26 128.073 320
53.96 129.85 306
53.86 129.767 308
53.76 129.683 310
53.66 129.6 312
53.56 129.517 314
53.46 129.433 316
53.36 129.35 318
53.26 129.266 320
53.96 131.056 306
53.86 130.971 308
53.76 130.885 310
53.66 130.8 312
53.56 130.715 314
53.46 130.629 316
53.36 130.544 318
53.26 130.459 320
53.57 116.337 314
53.47 117.47 316
53.37 117.405 318
53.27 117.339 320
53.17 117.274 322
53.07 117.209 324
52.97 117.144 326
53.47 118.666 316
53.37 118.599 318
53.27 118.532 320
53.17 118.465 322
53.07 118.398 324
52.97 118.331 326
53.47 119.862 316
53.37 119.794 318
53.27 119.725 320
53.17 119.656 322
53.07 119.587 324
53.47 121.059 316
53.37 120.988 318
53.27 120.917 320
53.17 120.847 322
53.07 120.776 324
53.47 122.255 316
53.37 122.183 318
53.27 122.11 320
53.17 122.038 322
53.07 121.965 324
53.47 123.451 316
53.37 123.377 318
53.27 123.303 320
53.17 123.228 322
53.47 124.648 316
53.37 124.572 318
53.27 124.495 320
53.17 124.419 322
53.57 125.922 314
53.47 125.844 316
53.37 125.766 318
53.27 125.688 320
53.17 125.61 322
53.57 127.12 314
53.47 127.04 316
53.37 126.961 318
53.27 126.881 320
53.97 128.645 306
53.87 128.563 308
53.77 128.482 310
53.67 128.4 312
53.57 128.318 314
53.47 128.237 316
53.37 128.155 318
53.27 128.073 320
53.97 129.85 306
53.87 129.767 308
53.77 129.683 310
53.67 129.6 312
53.57 129.517 314
53.47 129.433 316
53.37 129.35 318
53.27 129.266 320
53.97 131.056 306
53.87 130.971 308
53.77 130.885 310
53.67 130.8 312
53.57 130.715 314
53.47 130.629 316
53.37 130.544 318
53.27 130.459 320
53.82 116.337 314
53.72 117.47 316
53.62 117.405 318
53.52 117.339 320
53.42 117.274 322
53.32 117.209 324
53.22 117.144 326
53.72 118.666 316
53.62 118.599 318
53.52 118.532 320
53.42 118.465 322
53.32 118.398 324
53.22 118.331 326
53.72 119.862 316
53.62 119.794 318
53.52 119.725 320
53.42 119.656 322
53.32 119.587 324
53.72 121.059 316
53.62 120.988 318
53.52 120.917 320
53.42 120.847 322
53.32 120.776 324
53.72 122.255 316
53.62 122.183 318
53.52 122.11 320
53.42 122.038 322
53.32 121.965 324
53.72 123.451 316
53.62 123.377 318
53.52 123.303 320
53.42 123.228 322
53.72 124.648 316
53.62 124.572 318
53.52 124.495 320
53.42 124.419 322
53.82 125.922 314
53.72 125.844 316
53.62 125.766 318
53.52 125.688 320
53.42 125.61 322
53.82 127.12 314
53.72 127.04 316
53.62 126.961 318
53.52 126.881 320
54.22 128.645 306
54.12 128.563 308
54.02 128.482 310
53.92 128.4 312
53.82 128.318 314
53.72 128.237 316
53.62 128.155 318
53.52 128.073 320
54.22 129.85 306
54.12 129.767 308
54.02 129.683 310
53.92 129.6 312
53.82 129.517 314
53.72 129.433 316
53.62 129.35 318
53.52 129.266 320
54.22 131.056 306
54.12 130.971 308
54.02 130.885 310
53.92 130.8 312
53.82 130.715 314
53.72 130.629 316
53.62 130.544 318
53.52 130.459 320
54.07 116.337 314
53.97 117.47 316
53.87 117.405 318
53.77 117.339 320
53.67 117.274 322
53.57 117.209 324
53.47 117.144 326
53.97 118.666 316
53.87 118.599 318
53.77 118.532 320
53.67 118.465 322
53.57 118.398 324
53.47 118.331 326
53.97 119.862 316
53.87 119.794 318
53.77 119.725 320
53.67 119.656 322
53.57 119.587 324
53.97 121.059 316
53.87 120.988 318
53.77 120.917 320
53.67 120.847 322
53.57 120.776 324
53.97 122.255 316
53.87 122.183 318
53.77 122.11 320
53.67 122.038 322
53.57 121.965 324
53.97 123.451 316
53.87 123.377 318
53.77 123.303 320
53.67 123.228 322
53.97 124.648 316
53.87 124.572 318
53.77 124.495 320
53.67 124.419 322
54.07 125.922 314
53.97 125.844 316
53.87 125.766 318
53.77 125.688 320
53.67 125.61 322
54.07 127.12 314
53.97 127.04 316
53.87 126.961 318
53.77 126.881 320
54.47 128.645 306
54.37 128.563 308
54.27 128.482 310
54.17 128.4 312
54.07 128.318 314
53.97 128.237 316
53.87 128.155 318
53.77 128.073 320
54.47 129.85 306
54.37 129.767 308
54.27 129.683 310
54.17 129.6 312
54.07 129.517 314
53.97 129.433 316
53.87 129.35 318
53.77 129.266 320
54.47 131.056 306
54.37 130.971 308
54.27 130.885 310
54.17 130.8 312
54.07 130.715 314
53.97 130.629 316
53.87 130.544 318
53.77 130.459 320
54.32 116.337 314
54.22 117.47 316
54.12 117.405 318
54.02 117.339 320
53.92 117.274 322
53.82 117.209 324
53.72 117.144 326
54.22 118.666 316
54.12 118.599 318
54.02 118.532 320
53.92 118.465 322
53.82 118.398 324
53.72 118.331 326
54.22 119.862 316
54.12 119.794 318
54.02 119.725 320
53.92 119.656 322
53.82 119.587 324
54.22 121.059 316
54.12 120.988 318
54.02 120.917 320
53.92 120.847 322
53.82 120.776 324
54.22 122.255 316
54.12 122.183 318
54.02 122.11 320
53.92 122.038 322
53.82 121.965 324
54.22 123.451 316
54.12 123.377 318
54.02 123.303 320
53.92 123.228 322
54.22 124.648 316
54.12 124.572 318
54.02 124.495 320
53.92 124.419 322
54.32 125.922 314
54.22 125.844 316
54.12 125.766 318
54.02 125.688 320
53.92 125.61 322
54.32 127.12 314
54.22 127.04 316
54.12 126.961 318
54.02 126.881 320
54.72 128.645 306
54.62 128.563 308
54.52 128.482 310
54.42 128.4 312
54.32 128.318 314
54.22 128.237 316
54.12 128.155 318
54.02 128.073 320
54.72 129.85 306
54.62 129.767 308
54.52 129.683 310
54.42 129.6 312
54.32 129.517 314
54.22 129.433 316
54.12 129.35 318
54.02 129.266 320
54.72 131.056 306
54.62 130.971 308
54.52 130.885 310
54.42 130.8 312
54.32 130.715 314
54.22 130.629 316
54.12 130.544 318
54.02 130.459 320
54.57 116.337 314
54.47 117.47 316
54.37 117.405 318
54.27 117.339 320
54.17 117.274 322
54.07 117.209 324
53.97 117.144 326
54.47 118.666 316
54.37 118.599 318
54.27 118.532 320
54.17 118.465 322
54.07 118.398 324
53.97 118.331 326
54.47 119.862 316
54.37 119.794 318
54.27 119.725 320
54.17 119.656 322
54.07 119.587 324
54.47 121.059 316
54.37 120.988 318
54.27 120.917 320
54.17 120.847 322
54.07 120.776 324
54.47 122.255 316
54.37 122.183 318
54.27 122.11 320
54.17 122.038 322
54.07 121.965 324
54.47 123.451 316
54.37 123.377 318
54.27 123.303 320
54.17 123.228 322
54.47 124.648 316
54.37 124.572 318
54.27 124.495 320
54.17 124.419 322
54.57 125.922 314
54.47 125.844 316
54.37 125.766 318
54.27 125.688 320
54.17 125.61 322
54.57 127.12 314
54.47 127.04 316
54.37 126.961 318
54.27 126.881 320
54.97 128.645 306
54.87 128.563 308
54.77 128.482 310
54.67 128.4 312
54.57 128.318 314
54.47 128.237 316
54.37 128.155 318
54.27 128.073 320
54.97 129.85 306
54.87 129.767 308
54.77 129.683 310
54.67 129.6 312
54.57 129.517 314
54.47 129.433 316
54.37 129.35 318
54.27 129.266 320
54.97 131.056 306
54.87 130.971 308
54.77 130.885 310
54.67 130.8 312
54.57 130.715 314
54.47 130.629 316
54.37 130.544 318
54.27 130.459 320
54.82 116.337 314
54.72 117.47 316
54.62 117.405 318
54.52 117.339 320
54.42 117.274 322
54.32 117.209 324
54.22 117.144 326
54.72 118.666 316
54.62 118.599 318
54.52 118.532 320
54.42 118.465 322
54.32 118.398 324
54.22 118.331 326
54.72 119.862 316
54.62 119.794 318
54.52 119.725 320
54.42 119.656 322
54.32 119.587 324
54.72 121.059 316
54.62 120.988 318
54.52 120.917 320
54.42 120.847 322
54.32 120.776 324
54.72 122.255 316
54.62 122.183 318
54.52 122.11 320
54.42 122.038 322
54.32 121.965 324
54.72 123.451 316
54.62 123.377 318
54.52 123.303 320
54.42 123.228 322
54.72 124.648 316
54.62 124.572 318
54.52 124.495 320
54.42 124.419 322
54.82 125.922 314
54.72 125.844 316
54.62 125.766 318
54.52 125.688 320
54.42 125.61 322
54.82 127.12 314
54.72 127.04 316
54.62 126.961 318
54.52 126.881 320
55.22 128.645 306
55.12 128.563 308
55.02 128.482 310
54.92 128.4 312
54.82 128.318 314
54.72 128.237 316
54.62 128.155 318
54.52 128.073 320
55.22 129.85 306
55.12 129.767 308
55.02 129.683 310
54.92 129.6 312
54.82 129.517 314
54.72 129.433 316
54.62 129.35 318
54.52 129.266 320
55.22 131.056 306
55.12 130.971 308
55.02 130.885 310
54.92 130.8 312
54.82 130.715 314
54.72 130.629 316
54.62 130.544 318
54.52 130.459 320
55.07 116.337 314
54.97 117.47 316
54.87 117.405 318
54.77 117.339 320
54.67 117.274 322
54.57 117.209 324
54.47 117.144 326
54.97 118.666 316
54.87 118.599 318
54.77 118.532 320
54.67 118.465 322
54.57 118.398 324
54.47 118.331 326
54.97 119.862 316
54.87 119.794 318
54.77 119.725 320
54.67 119.656 322
54.57 119.587 324
54.97 121.059 316
54.87 120.988 318
54.77 120.917 320
54.67 120.847 322
54.57 120.776 324
54.97 122.255 316
54.87 122.183 318
54.77 122.11 320
54.67 122.038 322
54.57 121.965 324
54.97 123.451 316
54.87 123.377 318
54.77 123.303 320
54.67 123.228 322
54.97 124.648 316
54.87 124.572 318
54.77 124.495 320
54.67 124.419 322
55.07 125.922 314
54.97 125.844 316
54.87 125.766 318
54.77 125.688 320
54.67 125.61 322
55.07 127.12 314
54.97 127.04 316
54.87 126.961 318
54.77 126.881 320
55.47 128.645 306
55.37 128.563 308
55.27 128.482 310
55.17 128.4 312
55.07 128.318 314
54.97 128.237 316
54.87 128.155 318
54.77 128.073 320
55.47 129.85 306
55.37 129.767 308
55.27 129.683 310
55.17 129.6 312
55.07 129.517 314
54.97 129.433 316
54.87 129.35 318
54.77 129.266 320
55.47 131.056 306
55.37 130.971 308
55.27 130.885 310
55.17 130.8 312
55.07 130.715 314
54.97 130.629 316
54.87 130.544 318
54.77 130.459 320
55.32 116.337 314
55.22 117.47 316
55.12 117.405 318
55.02 117.339 320
54.92 117.274 322
54.82 117.209 324
54.72 117.144 326
55.22 118.666 316
55.12 118.599 318
55.02 118.532 320
54.92 118.465 322
54.82 118.398 324
54.72 118.331 326
55.22 119.862 316
55.12 119.794 318
55.02 119.725 320
54.92 119.656 322
54.82 119.587 324
55.22 121.059 316
55.12 120.988 318
55.02 120.917 320
54.92 120.847 322
54.82 120.776 324
55.22 122.255 316
55.12 122.183 318
55.02 122.11 320
54.92 122.038 322
54.82 121.965 324
55.22 123.451 316
55.12 123.377 318
55.02 123.303 320
54.92 123.228 322
55.22 124.648 316
55.12 124.572 318
55.02 124.495 320
54.92 124.419 322
55.32 125.922 314
55.22 125.844 316
55.12 125.766 318
55.02 125.688 320
54.92 125.61 322
55.32 127.12 314
55.22 127.04 316
55.12 126.961 318
55.02 126.881 320
55.72 128.645 306
55.62 128.563 308
55.52 128.482 310
55.42 128.4 312
55.32 128.318 314
55.22 128.237 316
55.12 128.155 318
55.02 128.073 320
55.72 129.85 306
55.62 129.767 308
55.52 129.683 310
55.42 129.6 312
55.32 129.517 314
55.22 129.433 316
55.12 129.35 318
55.02 129.266 320
55.72 131.056 306
55.62 130.971 308
55.52 130.885 310
55.42 130.8 312
55.32 130.715 314
55.22 130.629 316
55.12 130.544 318
55.02 130.459 320
55.33 116.337 314
55.23 117.47 316
55.13 117.405 318
55.03 117.339 320
54.93 117.274 322
54.83 117.209 324
54.73 117.144 326
55.23 118.666 316
55.13 118.599 318
55.03 118.532 320
54.93 118.465 322
54.83 118.398 324
54.73 118.331 326
55.23 119.862 316
55.13 119.794 318
55.03 119.725 320
54.93 119.656 322
54.83 119.587 324
55.23 121.059 316
55.13 120.988 318
55.03 120.917 320
54.93 120.847 322
54.83 120.776 324
55.23 122.255 316
55.13 122.183 318
55.03 122.11 320
54.93 122.038 322
54.83 121.965 324
55.23 123.451 316
55.13 123.377 318
55.03 123.303 320
54.93 123.228 322
55.23 124.648 316
55.13 124.572 318
55.03 124.495 320
54.93 124.419 322
55.33 125.922 314
55.23 125.844 316
55.13 125.766 318
55.03 125.688 320
54.93 125.61 322
55.33 127.12 314
55.23 127.04 316
55.13 126.961 318
55.03 126.881 320
55.73 128.645 306
55.63 128.563 308
55.53 128.482 310
55.43 128.4 312
55.33 128.318 314
55.23 128.237 316
55.13 128.155 318
55.03 128.073 320
55.73 129.85 306
55.63 129.767 308
55.53 129.683 310
55.43 129.6 312
55.33 129.517 314
55.23 129.433 316
55.13 129.35 318
55.03 129.266 320
55.73 131.056 306
55.63 130.971 308
55.53 130.885 310
55.43 130.8 312
55.33 130.715 314
55.23 130.629 316
55.13 130.544 318
55.03 130.459 320
55.58 116.337 314
55.48 117.47 316
55.38 117.405 318
55.28 117.339 320
55.18 117.274 322
55.08 117.209 324
54.98 117.144 326
55.48 118.666 316
55.38 118.599 318
55.28 118.532 320
55.18 118.465 322
55.08 118.398 324
54.98 118.331 326
55.48 119.862 316
55.38 119.794 318
55.28 119.725 320
55.18 119.656 322
55.08 119.587 324
55.48 121.059 316
55.38 120.988 318
55.28 120.917 320
55.18 120.847 322
55.08 120.776 324
55.48 122.255 316
55.38 122.183 318
55.28 122.11 320
55.18 122.038 322
55.08 121.965 324
55.48 123.451 316
55.38 123.377 318
55.28 123.303 320
55.18 123.228 322
55.48 124.648 316
55.38 124.572 318
55.28 124.495 320
55.18 124.419 322
55.58 125.922 314
55.48 125.844 316
55.38 125.766 318
55.28 125.688 320
55.18 125.61 322
55.58 127.12 314
55.48 127.04 316
55.38 126.961 318
55.28 126.881 320
55.98 128.645 306
55.88 128.563 308
55.78 128.482 310
55.68 128.4 312
55.58 128.318 314
55.48 128.237 316
55.38 128.155 318
55.28 128.073 320
55.98 129.85 306
55.88 129.767 308
55.78 129.683 310
55.68 129.6 312
55.58 129.517 314
55.48 129.433 316
55.38 129.35 318
55.28 129.266 320
55.98 131.056 306
55.88 130.971 308
55.78 130.885 310
55.68 130.8 312
55.58 130.715 314
55.48 130.629 316
55.38 130.544 318
55.28 130.459 320
55.59 116.337 314
55.49 117.47 316
55.39 117.405 318
55.29 117.339 320
55.19 117.274 322
55.09 117.209 324
54.99 117.144 326
55.49 118.666 316
55.39 118.599 318
55.29 118.532 320
55.19 118.465 322
55.09 118.398 324
54.99 118.331 326
55.49 119.862 316
55.39 119.794 318
55.29 119.725 320
55.19 119.656 322
55.09 119.587 324
55.49 121.059 316
55.39 120.988 318
55.29 120.917 320
55.19 120.847 322
55.09 120.776 324
55.49 122.255 316
55.39 122.183 318
55.29 122.11 320
55.19 122.038 322
55.09 121.965 324
55.49 123.451 316
55.39 123.377 318
55.29 123.303 320
55.19 123.228 322
55.49 124.648 316
55.39 124.572 318
55.29 124.495 320
55.19 124.419 322
55.59 125.922 314
55.49 125.844 316
55.39 125.766 318
55.29 125.688 320
55.19 125.61 322
55.59 127.12 314
55.49 127.04 316
55.39 126.961 318
55.29 126.881 320
55.99 128.645 306
55.89 128.563 308
55.79 128.482 310
55.69 128.4 312
55.59 128.318 314
55.49 128.237 316
55.39 128.155 318
55.29 128.073 320
55.99 129.85 306
55.89 129.767 308
55.79 129.683 310
55.69 129.6 312
55.59 129.517 314
55.49 129.433 316
55.39 129.35 318
55.29 129.266 320
55.99 131.056 306
55.89 130.971 308
55.79 130.885 310
55.69 130.8 312
55.59 130.715 314
55.49 130.629 316
55.39 130.544 318
55.29 130.459 320
55.84 116.337 314
55.74 117.47 316
55.64 117.405 318
55.54 117.339 320
55.44 117.274 322
55.34 117.209 324
55.24 117.144 326
55.74 118.666 316
55.64 118.599 318
55.54 118.532 320
55.44 118.465 322
55.34 118.398 324
55.24 118.331 326
55.74 119.862 316
55.64 119.794 318
55.54 119.725 320
55.44 119.656 322
55.34 119.587 324
55.74 121.059 316
55.64 120.988 318
55.54 120.917 320
55.44 120.847 322
55.34 120.776 324
55.74 122.255 316
55.64 122.183 318
55.54 122.11 320
55.44 122.038 322
55.34 121.965 324
55.74 123.451 316
55.64 123.377 318
55.54 123.303 320
55.44 123.228 322
55.74 124.648 316
55.64 124.572 318
55.54 124.495 320
55.44 124.419 322
55.84 125.922 314
55.74 125.844 316
55.64 125.766 318
55.54 125.688 320
55.44 125.61 322
55.84 127.12 314
55.74 127.04 316
55.64 126.961 318
55.54 126.881 320
56.24 128.645 306
56.14 128.563 308
56.04 128.482 310
55.94 128.4 312
55.84 128.318 314
55.74 128.237 316
55.64 128.155 318
55.54 128.073 320
56.24 129.85 306
56.14 129.767 308
56.04 129.683 310
55.94 129.6 312
55.84 129.517 314
55.74 129.433 316
55.64 129.35 318
55.54 129.266 320
56.24 131.056 306
56.14 130.971 308
56.04 130.885 310
55.94 130.8 312
55.84 130.715 314
55.74 130.629 316
55.64 130.544 318
55.54 130.459 320
56.09 116.337 314
55.99 117.47 316
55.89 117.405 318
55.79 117.339 320
55.69 117.274 322
55.59 117.209 324
55.49 117.144 326
55.99 118.666 316
55.89 118.599 318
55.79 118.532 320
55.69 118.465 322
55.59 118.398 324
55.49 118.331 326
55.99 119.862 316
55.89 119.794 318
55.79 119.725 320
55.69 119.656 322
55.59 119.587 324
55.99 121.059 316
55.89 120.988 318
55.79 120.917 320
55.69 120.847 322
55.59 120.776 324
55.99 122.255 316
55.89 122.183 318
55.79 122.11 320
55.69 122.038 322
55.59 121.965 324
55.99 123.451 316
55.89 123.377 318
55.79 123.303 320
55.69 123.228 322
55.99 124.648 316
55.89 124.572 318
55.79 124.495 320
55.69 124.419 322
56.09 125.922 314
55.99 125.844 316
55.89 125.766 318
55.79 125.688 320
55.69 125.61 322
56.09 127.12 314
55.99 127.04 316
55.89 126.961 318
55.79 126.881 320
56.49 128.645 306
56.39 128.563 308
56.29 128.482 310
56.19 128.4 312
56.09 128.318 314
55.99 128.237 316
55.89 128.155 318
55.79 128.073 320
56.49 129.85 306
56.39 129.767 308
56.29 129.683 310
56.19 129.6 312
56.09 129.517 314
55.99 129.433 316
55.89 129.35 318
55.79 129.266 320
56.49 131.056 306
56.39 130.971 308
56.29 130.885 310
56.19 130.8 312
56.09 130.715 314
55.99 130.629 316
55.89 130.544 318
55.79 130.459 320
50.4 115.2 312
50.3 115.139 314
50.2 115.077 316
50.4 116.4 312
50.2 116.273 316
50.1 116.21 318
50 116.147 320
49.9 116.083 322
49.8 116.02 324
49.7 115.957 326
49.6 115.894 328
49.5 115.83 330
50.4 117.6 312
50.3 117.535 314
49.6 117.079 328
49.5 117.014 330
50.3 118.733 314
49.6 118.264 328
50.3 119.931 314
49.7 119.518 326
49.6 119.45 328
50.3 121.129 314
49.7 120.706 326
50.3 122.328 314
49.7 121.893 326
50.3 123.526 314
49.8 123.154 324
49.7 123.08 326
50.4 124.8 312
50.3 124.724 314
49.8 124.343 324
50.4 126 312
49.8 125.532 324
50.7 127.439 306
50.6 127.36 308
50.5 127.28 310
50.4 127.2 312
49.9 126.801 322
49.8 126.721 324
49.9 127.992 322
50.1 129.35 318
50 129.266 320
49.9 129.183 322
50.1 130.544 318
56.44 115.2 312
56.34 115.139 314
56.24 115.077 316
56.44 116.4 312
56.24 116.273 316
56.14 116.21 318
56.04 116.147 320
55.94 116.083 322
55.84 116.02 324
55.74 115.957 326
55.64 115.894 328
55.54 115.83 330
56.44 117.6 312
56.34 117.535 314
55.64 117.079 328
55.54 117.014 330
56.34 118.733 314
55.64 118.264 328
56.34 119.931 314
55.74 119.518 326
55.64 119.45 328
56.34 121.129 314
55.74 120.706 326
56.34 122.328 314
55.74 121.893 326
56.34 123.526 314
55.84 123.154 324
55.74 123.08 326
56.44 124.8 312
56.34 124.724 314
55.84 124.343 324
56.44 126 312
55.84 125.532 324
56.74 127.439 306
56.64 127.36 308
56.54 127.28 310
56.44 127.2 312
55.94 126.801 322
55.84 126.721 324
55.94 127.992 322
55.94 129.183 322
55.94 130.373 322
50.65 115.2 312
50.55 115.139 314
50.45 115.077 316
50.65 116.4 312
50.45 116.273 316
50.35 116.21 318
50.25 116.147 320
50.15 116.083 322
50.05 116.02 324
49.95 115.957 326
49.85 115.894 328
49.75 115.83 330
50.65 117.6 312
50.55 117.535 314
49.85 117.079 328
49.75 117.014 330
50.55 118.733 314
49.85 118.264 328
50.55 119.931 314
49.95 119.518 326
49.85 119.45 328
50.55 121.129 314
49.95 120.706 326
50.55 122.328 314
49.95 121.893 326
50.55 123.526 314
50.05 123.154 324
49.95 123.08 326
50.65 124.8 312
50.55 124.724 314
50.05 124.343 324
50.65 126 312
50.05 125.532 324
50.95 127.439 306
50.85 127.36 308
50.75 127.28 310
50.65 127.2 312
50.15 126.801 322
50.05 126.721 324
50.15 127.992 322
50.35 129.35 318
50.25 129.266 320
50.15 129.183 322
50.35 130.544 318
50.25 130.459 320
51.15 115.2 312
50.9 115.2 312
51.05 115.139 314
50.8 115.139 314
50.95 115.077 316
50.7 115.077 316
51.15 116.4 312
50.9 116.4 312
50.95 116.273 316
50.7 116.273 316
50.85 116.21 318
50.6 116.21 318
50.75 116.147 320
50.5 116.147 320
50.65 116.083 322
50.4 116.083 322
50.55 116.02 324
50.3 116.02 324
50.45 115.957 326
50.2 115.957 326
50.35 115.894 328
50.1 115.894 328
50.25 115.83 330
50 115.83 330
51.15 117.6 312
50.9 117.6 312
51.05 117.535 314
50.8 117.535 314
50.35 117.079 328
50.1 117.079 328
50.25 117.014 330
50 117.014 330
51.05 118.733 314
50.8 118.733 314
50.35 118.264 328
50.1 118.264 328
51.05 119.931 314
50.8 119.931 314
50.45 119.518 326
50.2 119.518 326
50.35 119.45 328
50.1 119.45 328
51.05 121.129 314
50.8 121.129 314
50.45 120.706 326
50.2 120.706 326
51.05 122.328 314
50.8 122.328 314
50.45 121.893 326
50.2 121.893 326
51.05 123.526 314
50.8 123.526 314
50.55 123.154 324
50.3 123.154 324
50.45 123.08 326
50.2 123.08 326
51.15 124.8 312
50.9 124.8 312
51.05 124.724 314
50.8 124.724 314
50.55 124.343 324
50.3 124.343 324
51.15 126 312
50.9 126 312
50.55 125.532 324
50.3 125.532 324
51.45 127.439 306
51.2 127.439 306
51.35 127.36 308
51.1 127.36 308
51.25 127.28 310
51 127.28 310
51.15 127.2 312
50.9 127.2 312
50.65 126.801 322
50.4 126.801 322
50.55 126.721 324
50.3 126.721 324
50.65 127.992 322
50.4 127.992 322
50.5 129.266 320
50.65 129.183 322
50.4 129.183 322
50.5 130.459 320
50.65 130.373 322
50.4 130.373 322
51.41 115.2 312
51.4 115.2 312
51.31 115.139 314
51.3 115.139 314
51.21 115.077 316
51.2 115.077 316
51.41 116.4 312
51.4 116.4 312
51.21 116.273 316
51.2 116.273 316
51.11 116.21 318
51.1 116.21 318
51.01 116.147 320
51 116.147 320
50.91 116.083 322
50.9 116.083 322
50.81 116.02 324
50.8 116.02 324
50.71 115.957 326
50.7 115.957 326
50.61 115.894 328
50.6 115.894 328
50.51 115.83 330
50.5 115.83 330
51.41 117.6 312
51.4 117.6 312
51.31 117.535 314
51.3 117.535 314
50.61 117.079 328
50.6 117.079 328
50.51 117.014 330
50.5 117.014 330
51.31 118.733 314
51.3 118.733 314
50.61 118.264 328
50.6 118.264 328
51.31 119.931 314
51.3 119.931 314
50.71 119.518 326
50.7 119.518 326
50.61 119.45 328
50.6 119.45 328
51.31 121.129 314
51.3 121.129 314
50.71 120.706 326
50.7 120.706 326
51.31 122.328 314
51.3 122.328 314
50.71 121.893 326
50.7 121.893 326
51.31 123.526 314
51.3 123.526 314
50.81 123.154 324
50.8 123.154 324
50.71 123.08 326
50.7 123.08 326
51.41 124.8 312
51.4 124.8 312
51.31 124.724 314
51.3 124.724 314
50.81 124.343 324
50.8 124.343 324
51.41 126 312
51.4 126 312
50.81 125.532 324
50.8 125.532 324
51.71 127.439 306
51.7 127.439 306
51.61 127.36 308
51.6 127.36 308
51.51 127.28 310
51.5 127.28 310
51.41 127.2 312
51.4 127.2 312
50.91 126.801 322
50.9 126.801 322
50.81 126.721 324
50.8 126.721 324
50.91 127.992 322
50.9 127.992 322
50.91 129.183 322
50.9 129.183 322
50.91 130.373 322
50.9 130.373 322
51.66 115.2 312
51.56 115.139 314
51.46 115.077 316
51.66 116.4 312
51.46 116.273 316
51.36 116.21 318
51.26 116.147 320
51.16 116.083 322
51.06 116.02 324
50.96 115.957 326
50.86 115.894 328
50.76 115.83 330
51.66 117.6 312
51.56 117.535 314
50.86 117.079 328
50.76 117.014 330
51.56 118.733 314
50.86 118.264 328
51.56 119.931 314
50.96 119.518 326
50.86 119.45 328
51.56 121.129 314
50.96 120.706 326
51.56 122.328 314
50.96 121.893 326
51.56 123.526 314
51.06 123.154 324
50.96 123.08 326
51.66 124.8 312
51.56 124.724 314
51.06 124.343 324
51.66 126 312
51.06 125.532 324
51.96 127.439 306
51.86 127.36 308
51.76 127.28 310
51.66 127.2 312
51.16 126.801 322
51.06 126.721 324
51.16 127.992 322
51.16 129.183 322
51.16 130.373 322
51.91 115.2 312
51.81 115.139 314
51.71 115.077 316
51.91 116.4 312
51.71 116.273 316
51.61 116.21 318
51.51 116.147 320
51.41 116.083 322
51.31 116.02 324
51.21 115.957 326
51.11 115.894 328
51.01 115.83 330
51.91 117.6 312
51.81 117.535 314
51.11 117.079 328
51.01 117.014 330
51.81 118.733 314
51.11 118.264 328
51.81 119.931 314
51.21 119.518 326
51.11 119.45 328
51.81 121.129 314
51.21 120.706 326
51.81 122.328 314
51.21 121.893 326
51.81 123.526 314
51.31 123.154 324
51.21 123.08 326
51.91 124.8 312
51.81 124.724 314
51.31 124.343 324
51.91 126 312
51.31 125.532 324
52.21 127.439 306
52.11 127.36 308
52.01 127.28 310
51.91 127.2 312
51.41 126.801 322
51.31 126.721 324
51.41 127.992 322
51.41 129.183 322
51.41 130.373 322
52.16 115.2 312
52.06 115.139 314
51.96 115.077 316
52.16 116.4 312
51.96 116.273 316
51.86 116.21 318
51.76 116.147 320
51.66 116.083 322
51.56 116.02 324
51.46 115.957 326
51.36 115.894 328
51.26 115.83 330
52.16 117.6 312
52.06 117.535 314
51.36 117.079 328
51.26 117.014 330
52.06 118.733 314
51.36 118.264 328
52.06 119.931 314
51.46 119.518 326
51.36 119.45 328
52.06 121.129 314
51.46 120.706 326
52.06 122.328 314
51.46 121.893 326
52.06 123.526 314
51.56 123.154 324
51.46 123.08 326
52.16 124.8 312
52.06 124.724 314
51.56 124.343 324
52.16 126 312
51.56 125.532 324
52.46 127.439 306
52.36 127.36 308
52.26 127.28 310
52.16 127.2 312
51.66 126.801 322
51.56 126.721 324
51.66 127.992 322
51.66 129.183 322
51.66 130.373 322
52.41 115.2 312
52.31 115.139 314
52.21 115.077 316
52.41 116.4 312
52.21 116.273 316
52.11 116.21 318
52.01 116.147 320
51.91 116.083 322
51.81 116.02 324
51.71 115.957 326
51.61 115.894 328
51.51 115.83 330
52.41 117.6 312
52.31 117.535 314
51.61 117.079 328
51.51 117.014 330
52.31 118.733 314
51.61 118.264 328
52.31 119.931 314
51.71 119.518 326
51.61 119.45 328
52.31 121.129 314
51.71 120.706 326
52.31 122.328 314
51.71 121.893 326
52.31 123.526 314
51.81 123.154 324
51.71 123.08 326
52.41 124.8 312
52.31 124.724 314
51.81 124.343 324
52.41 126 312
51.81 125.532 324
52.71 127.439 306
52.61 127.36 308
52.51 127.28 310
52.41 127.2 312
51.91 126.801 322
51.81 126.721 324
51.91 127.992 322
51.91 129.183 322
51.91 130.373 322
52.66 115.2 312
52.56 115.139 314
52.46 115.077 316
52.66 116.4 312
52.46 116.273 316
52.36 116.21 318
52.26 116.147 320
52.16 116.083 322
52.06 116.02 324
51.96 115.957 326
51.86 115.894 328
51.76 115.83 330
52.66 117.6 312
52.56 117.535 314
51.86 117.079 328
51.76 117.014 330
52.56 118.733 314
51.86 118.264 328
52.56 119.931 314
51.96 119.518 326
51.86 119.45 328
52.56 121.129 314
51.96 120.706 326
52.56 122.328 314
51.96 121.893 326
52.56 123.526 314
52.06 123.154 324
51.96 123.08 326
52.66 124.8 312
52.56 124.724 314
52.06 124.343 324
52.66 126 312
52.06 125.532 324
52.96 127.439 306
52.86 127.36 308
52.76 127.28 310
52.66 127.2 312
52.16 126.801 322
52.06 126.721 324
52.16 127.992 322
52.16 129.183 322
52.16 130.373 322
52.91 115.2 312
52.81 115.139 314
52.71 115.077 316
52.91 116.4 312
52.71 116.273 316
52.61 116.21 318
52.51 116.147 320
52.41 116.083 322
52.31 116.02 324
52.21 115.957 326
52.11 115.894 328
52.01 115.83 330
52.91 117.6 312
52.81 117.535 314
52.11 117.079 328
52.01 117.014 330
52.81 118.733 314
52.11 118.264 328
52.81 119.931 314
52.21 119.518 326
52.11 119.45 328
52.81 121.129 314
52.21 120.706 326
52.81 122.328 314
52.21 121.893 326
52.81 123.526 314
52.31 123.154 324
52.21 123.08 326
52.91 124.8 312
52.81 124.724 314
52.31 124.343 324
52.91 126 312
52.31 125.532 324
53.21 127.439 306
53.11 127.36 308
53.01 127.28 310
52.91 127.2 312
52.41 126.801 322
52.31 126.721 324
52.41 127.992 322
52.41 129.183 322
52.41 130.373 322
53.16 115.2 312
53.06 115.139 314
52.96 115.077 316
53.16 116.4 312
52.96 116.273 316
52.86 116.21 318
52.76 116.147 320
52.66 116.083 322
52.56 116.02 324
52.46 115.957 326
52.36 115.894 328
52.26 115.83 330
53.16 117.6 312
53.06 117.535 314
52.36 117.079 328
52.26 117.014 330
53.06 118.733 314
52.36 118.264 328
53.06 119.931 314
52.46 119.518 326
52.36 119.45 328
53.06 121.129 314
52.46 120.706 326
53.06 122.328 314
52.46 121.893 326
53.06 123.526 314
52.56 123.154 324
52.46 123.08 326
53.16 124.8 312
53.06 124.724 314
52.56 124.343 324
53.16 126 312
52.56 125.532 324
53.46 127.439 306
53.36 127.36 308
53.26 127.28 310
53.16 127.2 312
52.66 126.801 322
52.56 126.721 324
52.66 127.992 322
52.66 129.183 322
52.66 130.373 322
53.41 115.2 312
53.31 115.139 314
53.21 115.077 316
53.41 116.4 312
53.21 116.273 316
53.11 116.21 318
53.01 116.147 320
52.91 116.083 322
52.81 116.02 324
52.71 115.957 326
52.61 115.894 328
52.51 115.83 330
53.41 117.6 312
53.31 117.535 314
52.61 117.079 328
52.51 117.014 330
53.31 118.733 314
52.61 118.264 328
53.31 119.931 314
52.71 119.518 326
52.61 119.45 328
53.31 121.129 314
52.71 120.706 326
53.31 122.328 314
52.71 121.893 326
53.31 123.526 314
52.81 123.154 324
52.71 123.08 326
53.41 124.8 312
53.31 124.724 314
52.81 124.343 324
53.41 126 312
52.81 125.532 324
53.71 127.439 306
53.61 127.36 308
53.51 127.28 310
53.41 127.2 312
52.91 126.801 322
52.81 126.721 324
52.91 127.992 322
52.91 129.183 322
52.91 130.373 322
53.66 115.2 312
53.56 115.139 314
53.46 115.077 316
53.66 116.4 312
53.46 116.273 316
53.36 116.21 318
53.26 116.147 320
53.16 116.083 322
53.06 116.02 324
52.96 115.957 326
52.86 115.894 328
52.76 115.83 330
53.66 117.6 312
53.56 117.535 314
52.86 117.079 328
52.76 117.014 330
53.56 118.733 314
52.86 118.264 328
53.56 119.931 314
52.96 119.518 326
52.86 119.45 328
53.56 121.129 314
52.96 120.706 326
53.56 122.328 314
52.96 121.893 326
53.56 123.526 314
53.06 123.154 324
52.96 123.08 326
53.66 124.8 312
53.56 124.724 314
53.06 124.343 324
53.66 126 312
53.06 125.532 324
53.96 127.439 306
53.86 127.36 308
53.76 127.28 310
53.66 127.2 312
53.16 126.801 322
53.06 126.721 324
53.16 127.992 322
53.16 129.183 322
53.16 130.373 322
53.67 115.2 312
53.57 115.139 314
53.47 115.077 316
53.67 116.4 312
53.47 116.273 316
53.37 116.21 318
53.27 116.147 320
53.17 116.083 322
53.07 116.02 324
52.97 115.957 326
52.87 115.894 328
52.77 115.83 330
53.67 117.6 312
53.57 117.535 314
52.87 117.079 328
52.77 117.014 330
53.57 118.733 314
52.87 118.264 328
53.57 119.931 314
52.97 119.518 326
52.87 119.45 328
53.57 121.129 314
52.97 120.706 326
53.57 122.328 314
52.97 121.893 326
53.57 123.526 314
53.07 123.154 324
52.97 123.08 326
53.67 124.8 312
53.57 124.724 314
53.07 124.343 324
53.67 126 312
53.07 125.532 324
53.97 127.439 306
53.87 127.36 308
53.77 127.28 310
53.67 127.2 312
53.17 126.801 322
53.07 126.721 324
53.17 127.992 322
53.17 129.183 322
53.17 130.373 322
53.92 115.2 312
53.82 115.139 314
53.72 115.077 316
53.92 116.4 312
53.72 116.273 316
53.62 116.21 318
53.52 116.147 320
53.42 116.083 322
53.32 116.02 324
53.22 115.957 326
53.12 115.894 328
53.02 115.83 330
53.92 117.6 312
53.82 117.535 314
53.12 117.079 328
53.02 117.014 330
53.82 118.733 314
53.12 118.264 328
53.82 119.931 314
53.22 119.518 326
53.12 119.45 328
53.82 121.129 314
53.22 120.706 326
53.82 122.328 314
53.22 121.893 326
53.82 123.526 314
53.32 123.154 324
53.22 123.08 326
53.92 124.8 312
53.82 124.724 314
53.32 124.343 324
53.92 126 312
53.32 125.532 324
54.22 127.439 306
54.12 127.36 308
54.02 127.28 310
53.92 127.2 312
53.42 126.801 322
53.32 126.721 324
53.42 127.992 322
53.42 129.183 322
53.42 130.373 322
54.17 115.2 312
54.07 115.139 314
53.97 115.077 316
54.17 116.4 312
53.97 116.273 316
53.87 116.21 318
53.77 116.147 320
53.67 116.083 322
53.57 116.02 324
53.47 115.957 326
53.37 115.894 328
53.27 115.83 330
54.17 117.6 312
54.07 117.535 314
53.37 117.079 328
53.27 117.014 330
54.07 118.733 314
53.37 118.264 328
54.07 119.931 314
53.47 119.518 326
53.37 119.45 328
54.07 121.129 314
53.47 120.706 326
54.07 122.328 314
53.47 121.893 326
54.07 123.526 314
53.57 123.154 324
53.47 123.08 326
54.17 124.8 312
54.07 124.724 314
53.57 124.343 324
54.17 126 312
53.57 125.532 324
54.47 127.439 306
54.37 127.36 308
54.27 127.28 310
54.17 127.2 312
53.67 126.801 322
53.57 126.721 324
53.67 127.992 322
53.67 129.183 322
53.67 130.373 322
54.42 115.2 312
54.32 115.139 314
54.22 115.077 316
54.42 116.4 312
54.22 116.273 316
54.12 116.21 318
54.02 116.147 320
53.92 116.083 322
53.82 116.02 324
53.72 115.957 326
53.62 115.894 328
53.52 115.83 330
54.42 117.6 312
54.32 117.535 314
53.62 117.079 328
53.52 117.014 330
54.32 118.733 314
53.62 118.264 328
54.32 119.931 314
53.72 119.518 326
53.62 119.45 328
54.32 121.129 314
53.72 120.706 326
54.32 122.328 314
53.72 121.893 326
54.32 123.526 314
53.82 123.154 324
53.72 123.08 326
54.42 124.8 312
54.32 124.724 314
53.82 124.343 324
54.42 126 312
53.82 125.532 324
54.72 127.439 306
54.62 127.36 308
54.52 127.28 310
54.42 127.2 312
53.92 126.801 322
53.82 126.721 324
53.92 127.992 322
53.92 129.183 322
53.92 130.373 322
54.67 115.2 312
54.57 115.139 314
54.47 115.077 316
54.67 116.4 312
54.47 116.273 316
54.37 116.21 318
54.27 116.147 320
54.17 116.083 322
54.07 116.02 324
53.97 115.957 326
53.87 115.894 328
53.77 115.83 330
54.67 117.6 312
54.57 117.535 314
53.87 117.079 328
53.77 117.014 330
54.57 118.733 314
53.87 118.264 328
54.57 119.931 314
53.97 119.518 326
53.87 119.45 328
54.57 121.129 314
53.97 120.706 326
54.57 122.328 314
53.97 121.893 326
54.57 123.526 314
54.07 123.154 324
53.97 123.08 326
54.67 124.8 312
54.57 124.724 314
54.07 124.343 324
54.67 126 312
54.07 125.532 324
54.97 127.439 306
54.87 127.36 308
54.77 127.28 310
54.67 127.2 312
54.17 126.801 322
54.07 126.721 324
54.17 127.992 322
54.17 129.183 322
54.17 130.373 322
54.92 115.2 312
54.82 115.139 314
54.72 115.077 316
54.92 116.4 312
54.72 116.273 316
54.62 116.21 318
54.52 116.147 320
54.42 116.083 322
54.32 116.02 324
54.22 115.957 326
54.12 115.894 328
54.02 115.83 330
54.92 117.6 312
54.82 117.535 314
54.12 117.079 328
54.02 117.014 330
54.82 118.733 314
54.12 118.264 328
54.82 119.931 314
54.22 119.518 326
54.12 119.45 328
54.82 121.129 314
54.22 120.706 326
54.82 122.328 314
54.22 121.893 326
54.82 123.526 314
54.32 123.154 324
54.22 123.08 326
54.92 124.8 312
54.82 124.724 314
54.32 124.343 324
54.92 126 312
54.32 125.532 324
55.22 127.439 306
55.12 127.36 308
55.02 127.28 310
54.92 127.2 312
54.42 126.801 322
54.32 126.721 324
54.42 127.992 322
54.42 129.183 322
54.42 130.373 322
55.17 115.2 312
55.07 115.139 314
54.97 115.077 316
55.17 116.4 312
54.97 116.273 316
54.87 116.21 318
54.77 116.147 320
54.67 116.083 322
54.57 116.02 324
54.47 115.957 326
54.37 115.894 328
54.27 115.83 330
55.17 117.6 312
55.07 117.535 314
54.37 117.079 328
54.27 117.014 330
55.07 118.733 314
54.37 118.264 328
55.07 119.931 314
54.47 119.518 326
54.37 119.45 328
55.07 121.129 314
54.47 120.706 326
55.07 122.328 314
54.47 121.893 326
55.07 123.526 314
54.57 123.154 324
54.47 123.08 326
55.17 124.8 312
55.07 124.724 314
54.57 124.343 324
55.17 126 312
54.57 125.532 324
55.47 127.439 306
55.37 127.36 308
55.27 127.28 310
55.17 127.2 312
54.67 126.801 322
54.57 126.721 324
54.67 127.992 322
54.67 129.183 322
54.67 130.373 322
55.42 115.2 312
55.32 115.139 314
55.22 115.077 316
55.42 116.4 312
55.22 116.273 316
55.12 116.21 318
55.02 116.147 320
54.92 116.083 322
54.82 116.02 324
54.72 115.957 326
54.62 115.894 328
54.52 115.83 330
55.42 117.6 312
55.32 117.535 314
54.62 117.079 328
54.52 117.014 330
55.32 118.733 314
54.62 118.264 328
55.32 119.931 314
54.72 119.518 326
54.62 119.45 328
55.32 121.129 314
54.72 120.706 326
55.32 122.328 314
54.72 121.893 326
55.32 123.526 314
54.82 123.154 324
54.72 123.08 326
55.42 124.8 312
55.32 124.724 314
54.82 124.343 324
55.42 126 312
54.82 125.532 324
55.72 127.439 306
55.62 127.36 308
55.52 127.28 310
55.42 127.2 312
54.92 126.801 322
54.82 126.721 324
54.92 127.992 322
54.92 129.183 322
54.92 130.373 322
55.43 115.2 312
55.33 115.139 314
55.23 115.077 316
55.43 116.4 312
55.23 116.273 316
55.13 116.21 318
55.03 116.147 320
54.93 116.083 322
54.83 116.02 324
54.73 115.957 326
54.63 115.894 328
54.53 115.83 330
55.43 117.6 312
55.33 117.535 314
54.63 117.079 328
54.53 117.014 330
55.33 118.733 314
54.63 118.264 328
55.33 119.931 314
54.73 119.518 326
54.63 119.45 328
55.33 121.129 314
54.73 120.706 326
55.33 122.328 314
54.73 121.893 326
55.33 123.526 314
54.83 123.154 324
54.73 123.08 326
55.43 124.8 312
55.33 124.724 314
54.83 124.343 324
55.43 126 312
54.83 125.532 324
55.73 127.439 306
55.63 127.36 308
55.53 127.28 310
55.43 127.2 312
54.93 126.801 322
54.83 126.721 324
54.93 127.992 322
54.93 129.183 322
54.93 130.373 322
55.68 115.2 312
55.58 115.139 314
55.48 115.077 316
55.68 116.4 312
55.48 116.273 316
55.38 116.21 318
55.28 116.147 320
55.18 116.083 322
55.08 116.02 324
54.98 115.957 326
54.88 115.894 328
54.78 115.83 330
55.68 117.6 312
55.58 117.535 314
54.88 117.079 328
54.78 117.014 330
55.58 118.733 314
54.88 118.264 328
55.58 119.931 314
54.98 119.518 326
54.88 119.45 328
55.58 121.129 314
54.98 120.706 326
55.58 122.328 314
54.98 121.893 326
55.58 123.526 314
55.08 123.154 324
54.98 123.08 326
55.68 124.8 312
55.58 124.724 314
55.08 124.343 324
55.68 126 312
55.08 125.532 324
55.98 127.439 306
55.88 127.36 308
55.78 127.28 310
55.68 127.2 312
55.18 126.801 322
55.08 126.721 324
55.18 127.992 322
55.18 129.183 322
55.18 130.373 322
55.69 115.2 312
55.59 115.139 314
55.49 115.077 316
55.69 116.4 312
55.49 116.273 316
55.39 116.21 318
55.29 116.147 320
55.19 116.083 322
55.09 116.02 324
54.99 115.957 326
54.89 115.894 328
54.79 115.83 330
55.69 117.6 312
55.59 117.535 314
54.89 117.079 328
54.79 117.014 330
55.59 118.733 314
54.89 118.264 328
55.59 119.931 314
54.99 119.518 326
54.89 119.45 328
55.59 121.129 314
54.99 120.706 326
55.59 122.328 314
54.99 121.893 326
55.59 123.526 314
55.09 123.154 324
54.99 123.08 326
55.69 124.8 312
55.59 124.724 314
55.09 124.343 324
55.69 126 312
55.09 125.532 324
55.99 127.439 306
55.89 127.36 308
55.79 127.28 310
55.69 127.2 312
55.19 126.801 322
55.09 126.721 324
55.19 127.992 322
55.19 129.183 322
55.19 130.373 322
55.94 115.2 312
55.84 115.139 314
55.74 115.077 316
55.94 116.4 312
55.74 116.273 316
55.64 116.21 318
55.54 116.147 320
55.44 116.083 322
55.34 116.02 324
55.24 115.957 326
55.14 115.894 328
55.04 115.83 330
55.94 117.6 312
55.84 117.535 314
55.14 117.079 328
55.04 117.014 330
55.84 118.733 314
55.14 118.264 328
55.84 119.931 314
55.24 119.518 326
55.14 119.45 328
55.84 121.129 314
55.24 120.706 326
55.84 122.328 314
55.24 121.893 326
55.84 123.526 314
55.34 123.154 324
55.24 123.08 326
55.94 124.8 312
55.84 124.724 314
55.34 124.343 324
55.94 126 312
55.34 125.532 324
56.24 127.439 306
56.14 127.36 308
56.04 127.28 310
55.94 127.2 312
55.44 126.801 322
55.34 126.721 324
55.44 127.992 322
55.44 129.183 322
55.44 130.373 322
56.19 115.2 312
56.09 115.139 314
55.99 115.077 316
56.19 116.4 312
55.99 116.273 316
55.89 116.21 318
55.79 116.147 320
55.69 116.083 322
55.59 116.02 324
55.49 115.957 326
55.39 115.894 328
55.29 115.83 330
56.19 117.6 312
56.09 117.535 314
55.39 117.079 328
55.29 117.014 330
56.09 118.733 314
55.39 118.264 328
56.09 119.931 314
55.49 119.518 326
55.39 119.45 328
56.09 121.129 314
55.49 120.706 326
56.09 122.328 314
55.49 121.893 326
56.09 123.526 314
55.59 123.154 324
55.49 123.08 326
56.19 124.8 312
56.09 124.724 314
55.59 124.343 324
56.19 126 312
55.59 125.532 324
56.49 127.439 306
56.39 127.36 308
56.29 127.28 310
56.19 127.2 312
55.69 126.801 322
55.59 126.721 324
55.69 127.992 322
55.69 129.183 322
55.69 130.373 322
CELLS 2343 21087
8 3462 3376 3373 3459 1519 1388 3374 3460
8 1519 1388 3374 3460 3463 3377 3375 3461
8 3471 3385 3376 3462 3472 3386 1388 1519
8 3472 3386 1388 1519 1520 1389 3377 3463
8 1520 1389 3377 3463 1521 1390 3378 3464
8 1521 1390 3378 3464 1522 1391 3379 3465
8 1522 1391 3379 3465 1523 1392 3380 3466
8 1523 1392 3380 3466 1524 1393 3381 3467
8 1524 1393 3381 3467 1525 1394 3382 3468
8 1525 1394 3382 3468 3473 3387 3383 3469
8 3473 3387 3383 3469 3474 3388 3384 3470
8 3475 3389 3386 3472 1526 1395 1389 1520
8 1526 1395 1389 1520 1527 1396 1390 1521
8 1527 1396 1390 1521 1528 1397 1391 1522
8 1528 1397 1391 1522 1529 1398 1392 1523
8 1529 1398 1392 1523 1530 1399 1393 1524
8 1530 1399 1393 1524 1531 1400 1394 1525
8 1531 1400 1394 1525 3476 3390 3387 3473
8 3477 3391 3389 3475 1532 1401 1395 1526
8 1532 1401 1395 1526 1533 1402 1396 1527
8 1533 1402 1396 1527 1534 1403 1397 1528
8 1534 1403 1397 1528 1535 1404 1398 1529
8 1535 1404 1398 1529 1536 1405 1399 1530
8 1536 1405 1399 1530 3478 3392 1400 1531
8 3478 3392 1400 1531 3479 3393 3390 3476
8 3480 3394 3391 3477 1537 1406 1401 1532
8 1537 1406 1401 1532 1538 1407 1402 1533
8 1538 1407 1402 1533 1539 1408 1403 1534
8 1539 1408 1403 1534 1540 1409 1404 1535
8 1540 1409 1404 1535 1541 1410 1405 1536
8 1541 1410 1405 1536 3481 3395 3392 3478
8 3482 3396 3394 3480 1542 1411 1406 1537
8 1542 1411 1406 1537 1543 1412 1407 1538
8 1543 1412 1407 1538 1544 1413 1408 1539
8 1544 1413 1408 1539 1545 1414 1409 1540
8 1545 1414 1409 1540 1546 1415 1410 1541
8 1546 1415 1410 1541 3483 3397 3395 3481
8 3484 3398 3396 3482 1547 1416 1411 1542
8 1547 1416 1411 1542 1548 1417 1412 1543
8 1548 1417 1412 1543 1549 1418 1413 1544
8 1549 1418 1413 1544 1550 1419 1414 1545
8 1550 1419 1414 1545 3485 3399 1415 1546
8 3485 3399 1415 1546 3486 3400 3397 3483
8 3488 3402 3398 3484 1551 1420 1416 1547
8 1551 1420 1416 1547 1552 1421 1417 1548
8 1552 1421 1417 1548 1553 1422 1418 1549
8 1553 1422 1418 1549 1554 1423 1419 1550
8 1554 1423 1419 1550 3489 3403 3399 3485
8 3490 3404 3401 3487 1555 1424 3402 3488
8 1555 1424 3402 3488 1556 1425 1420 1551
8 1556 1425 1420 1551 1557 1426 1421 1552
8 1557 1426 1421 1552 1558 1427 1422 1553
8 1558 1427 1422 1553 1559 1428 1423 1554
8 1559 1428 1423 1554 3491 3405 3403 3489
8 3495 3409 3404 3490 1560 1429 1424 1555
8 1560 1429 1424 1555 1561 1430 1425 1556
8 1561 1430 1425 1556 1562 1431 1426 1557
8 1562 1431 1426 1557 1563 1432 1427 1558
8 1563 1432 1427 1558 3496 3410 1428 1559
8 3496 3410 1428 1559 3497 3411 3405 3491
8 1564 1433 3406 3492 1565 1434 3407 3493
8 1565 1434 3407 3493 1566 1435 3408 3494
8 1566 1435 3408 3494 1567 1436 3409 3495
8 1567 1436 3409 3495 1568 1437 1429 1560
8 1568 1437 1429 1560 1569 1438 1430 1561
8 1569 1438 1430 1561 1570 1439 1431 1562
8 1570 1439 1431 1562 1571 1440 1432 1563
8 1571 1440 1432 1563 3498 3412 3410 3496
8 1572 1441 1433 1564 1573 1442 1434 1565
8 1573 1442 1434 1565 1574 1443 1435 1566
8 1574 1443 1435 1566 1575 1444 1436 1567
8 1575 1444 1436 1567 1576 1445 1437 1568
8 1576 1445 1437 1568 1577 1446 1438 1569
8 1577 1446 1438 1569 3499 3413 1439 1570
8 3499 3413 1439 1570 3500 3414 1440 1571
8 3500 3414 1440 1571 3501 3415 3412 3498
8 1578 1447 1444 1575 1579 1448 1445 1576
8 1579 1448 1445 1576 1580 1449 1446 1577
8 1580 1449 1446 1577 3502 3416 3413 3499
8 3510 3511 3505 3504 1581 1582 3507 3506
8 1581 1582 3507 3506 3512 3513 3509 3508
8 3528 3529 3511 3510 3530 3531 1582 1581
8 3530 3531 1582 1581 1583 1584 3513 3512
8 1583 1584 3513 3512 1585 1586 3515 3514
8 1585 1586 3515 3514 1587 1588 3517 3516
8 1587 1588 3517 3516 1589 1590 3519 3518
8 1589 1590 3519 3518 1591 1592 3521 3520
8 1591 1592 3521 3520 1593 1594 3523 3522
8 1593 1594 3523 3522 3532 3533 3525 3524
8 3532 3533 3525 3524 3534 3535 3527 3526
8 3536 3537 3531 3530 1595 1596 1584 1583
8 1595 1596 1584 1583 1597 1598 1586 1585
8 1597 1598 1586 1585 1599 1600 1588 1587
8 1599 1600 1588 1587 1601 1602 1590 1589
8 1601 1602 1590 1589 1603 1604 1592 1591
8 1603 1604 1592 1591 1605 1606 1594 1593
8 1605 1606 1594 1593 3538 3539 3533 3532
8 3540 3541 3537 3536 1607 1608 1596 1595
8 1607 1608 1596 1595 1609 1610 1598 1597
8 1609 1610 1598 1597 1611 1612 1600 1599
8 1611 1612 1600 1599 1613 1614 1602 1601
8 1613 1614 1602 1601 1615 1616 1604 1603
8 1615 1616 1604 1603 3542 3543 1606 1605
8 3542 3543 1606 1605 3544 3545 3539 3538
8 3546 3547 3541 3540 1617 1618 1608 1607
8 1617 1618 1608 1607 1619 1620 1610 1609
8 1619 1620 1610 1609 1621 1622 1612 1611
8 1621 1622 1612 1611 1623 1624 1614 1613
8 1623 1624 1614 1613 1625 1626 1616 1615
8 1625 1626 1616 1615 3548 3549 3543 3542
8 3550 3551 3547 3546 1627 1628 1618 1617
8 1627 1628 1618 1617 1629 1630 1620 1619
8 1629 1630 1620 1619 1631 1632 1622 1621
8 1631 1632 1622 1621 1633 1634 1624 1623
8 1633 1634 1624 1623 1635 1636 1626 1625
8 1635 1636 1626 1625 3552 3553 3549 3548
8 3554 3555 3551 3550 1637 1638 1628 1627
8 1637 1638 1628 1627 1639 1640 1630 1629
8 1639 1640 1630 1629 1641 1642 1632 1631
8 1641 1642 1632 1631 1643 1644 1634 1633
8 1643 1644 1634 1633 3556 3557 1636 1635
8 3556 3557 1636 1635 3558 3559 3553 3552
8 3562 3563 3555 3554 1645 1646 1638 1637
8 1645 1646 1638 1637 1647 1648 1640 1639
8 1647 1648 1640 1639 1649 1650 1642 1641
8 1649 1650 1642 1641 1651 1652 1644 1643
8 1651 1652 1644 1643 3564 3565 3557 3556
8 3566 3567 3561 3560 1653 1654 3563 3562
8 1653 1654 3563 3562 1655 1656 1646 1645
8 1655 1656 1646 1645 1657 1658 1648 1647
8 1657 1658 1648 1647 1659 1660 1650 1649
8 1659 1660 1650 1649 1661 1662 1652 1651
8 1661 1662 1652 1651 3568 3569 3565 3564
8 3576 3577 3567 3566 1663 1664 1654 1653
8 1663 1664 1654 1653 1665 1666 1656 1655
8 1665 1666 1656 1655 1667 1668 1658 1657
8 1667 1668 1658 1657 1669 1670 1660 1659
8 1669 1670 1660 1659 3578 3579 1662 1661
8 3578 3579 1662 1661 3580 3581 3569 3568
8 1671 1672 3571 3570 1673 1674 3573 3572
8 1673 1674 3573 3572 1675 1676 3575 3574
8 1675 1676 3575 3574 1677 1678 3577 3576
8 1677 1678 3577 3576 1679 1680 1664 1663
8 1679 1680 1664 1663 1681 1682 1666 1665
8 1681 1682 1666 1665 1683 1684 1668 1667
8 1683 1684 1668 1667 1685 1686 1670 1669
8 1685 1686 1670 1669 3582 3583 3579 3578
8 1687 1688 1672 1671 1689 1690 1674 1673
8 1689 1690 1674 1673 1691 1692 1676 1675
8 1691 1692 1676 1675 1693 1694 1678 1677
8 1693 1694 1678 1677 1695 1696 1680 1679
8 1695 1696 1680 1679 1697 1698 1682 1681
8 1697 1698 1682 1681 1699 1700 1684 1683
8 1699 1700 1684 1683 1701 3584 1686 1685
8 1701 3584 1686 1685 3585 3586 3583 3582
8 1702 1703 1688 1687 1704 1705 1690 1689
8 1704 1705 1690 1689 1706 1707 1692 1691
8 1706 1707 1692 1691 1708 1709 1694 1693
8 1708 1709 1694 1693 1710 1711 1696 1695
8 1710 1711 1696 1695 1712 1713 1698 1697
8 1712 1713 1698 1697 1714 1715 1700 1699
8 1714 1715 1700 1699 1716 3587 3584 1701
8 1716 3587 3584 1701 3588 3589 3586 3585
8 3596 3597 3591 3590 1717 1718 3593 3592
8 1717 1718 3593 3592 3598 3599 3595 3594
8 3614 3615 3597 3596 3616 3617 1718 1717
8 3616 3617 1718 1717 1719 1720 3599 3598
8 1719 1720 3599 3598 1721 1722 3601 3600
8 1721 1722 3601 3600 1723 1724 3603 3602
8 1723 1724 3603 3602 1725 1726 3605 3604
8 1725 1726 3605 3604 1727 1728 3607 3606
8 1727 1728 3607 3606 1729 1730 3609 3608
8 1729 1730 3609 3608 3618 3619 3611 3610
8 3618 3619 3611 3610 3620 3621 3613 3612
8 3622 3623 3617 3616 1731 1732 1720 1719
8 1731 1732 1720 1719 1733 1734 1722 1721
8 1733 1734 1722 1721 1735 1736 1724 1723
8 1735 1736 1724 1723 1737 1738 1726 1725
8 1737 1738 1726 1725 1739 1740 1728 1727
8 1739 1740 1728 1727 1741 1742 1730 1729
8 1741 1742 1730 1729 3624 3625 3619 3618
8 3626 3627 3623 3622 1743 1744 1732 1731
8 1743 1744 1732 1731 1745 1746 1734 1733
8 1745 1746 1734 1733 1747 1748 1736 1735
8 1747 1748 1736 1735 1749 1750 1738 1737
8 1749 1750 1738 1737 1751 1752 1740 1739
8 1751 1752 1740 1739 3628 3629 1742 1741
8 3628 3629 1742 1741 3630 3631 3625 3624
8 3632 3633 3627 3626 1753 1754 1744 1743
8 1753 1754 1744 1743 1755 1756 1746 1745
8 1755 1756 1746 1745 1757 1758 1748 1747
8 1757 1758 1748 1747 1759 1760 1750 1749
8 1759 1760 1750 1749 1761 1762 1752 1751
8 1761 1762 1752 1751 3634 3635 3629 3628
8 3636 3637 3633 3632 1763 1764 1754 1753
8 1763 1764 1754 1753 1765 1766 1756 1755
8 1765 1766 1756 1755 1767 1768 1758 1757
8 1767 1768 1758 1757 1769 1770 1760 1759
8 1769 1770 1760 1759 1771 1772 1762 1761
8 1771 1772 1762 1761 3638 3639 3635 3634
8 3640 3641 3637 3636 1773 1774 1764 1763
8 1773 1774 1764 1763 1775 1776 1766 1765
8 1775 1776 1766 1765 1777 1778 1768 1767
8 1777 1778 1768 1767 1779 1780 1770 1769
8 1779 1780 1770 1769 3642 3643 1772 1771
8 3642 3643 1772 1771 3644 3645 3639 3638
8 3648 3649 3641 3640 1781 1782 1774 1773
8 1781 1782 1774 1773 1783 1784 1776 1775
8 1783 1784 1776 1775 1785 1786 1778 1777
8 1785 1786 1778 1777 1787 1788 1780 1779
8 1787 1788 1780 1779 3650 3651 3643 3642
8 3652 3653 3647 3646 1789 1790 3649 3648
8 1789 1790 3649 3648 1791 1792 1782 1781
8 1791 1792 1782 1781 1793 1794 1784 1783
8 1793 1794 1784 1783 1795 1796 1786 1785
8 1795 1796 1786 1785 1797 1798 1788 1787
8 1797 1798 1788 1787 3654 3655 3651 3650
8 3662 3663 3653 3652 1799 1800 1790 1789
8 1799 1800 1790 1789 1801 1802 1792 1791
8 1801 1802 1792 1791 1803 1804 1794 1793
8 1803 1804 1794 1793 1805 1806 1796 1795
8 1805 1806 1796 1795 3664 3665 1798 1797
8 3664 3665 1798 1797 3666 3667 3655 3654
8 1807 1808 3657 3656 1809 1810 3659 3658
8 1809 1810 3659 3658 1811 1812 3661 3660
8 1811 1812 3661 3660 1813 1814 3663 3662
8 1813 1814 3663 3662 1815 1816 1800 1799
8 1815 1816 1800 1799 1817 1818 1802 1801
8 1817 1818 1802 1801 1819 1820 1804 1803
8 1819 1820 1804 1803 1821 1822 1806 1805
8 1821 1822 1806 1805 3668 3669 3665 3664
8 1823 1824 1808 1807 1825 1826 1810 1809
8 1825 1826 1810 1809 1827 1828 1812 1811
8 1827 1828 1812 1811 1829 1830 1814 1813
8 1829 1830 1814 1813 1831 1832 1816 1815
8 1831 1832 1816 1815 1833 1834 1818 1817
8 1833 1834 1818 1817 1835 1836 1820 1819
8 1835 1836 1820 1819 1837 1838 1822 1821
8 1837 1838 1822 1821 3670 3671 3669 3668
8 1839 1840 1824 1823 1841 1842 1826 1825
8 1841 1842 1826 1825 1843 1844 1828 1827
8 1843 1844 1828 1827 1845 1846 1830 1829
8 1845 1846 1830 1829 1847 1848 1832 1831
8 1847 1848 1832 1831 1849 1850 1834 1833
8 1849 1850 1834 1833 1851 1852 1836 1835
8 1851 1852 1836 1835 1853 1854 1838 1837
8 1853 1854 1838 1837 3672 3673 3671 3670
8 3677 3596 3590 3674 1855 1717 3592 3675
8 1855 1717 3592 3675 3678 3598 3594 3676
8 3686 3614 3596 3677 3687 3616 1717 1855
8 3687 3616 1717 1855 1856 1719 3598 3678
8 1856 1719 3598 3678 1857 1721 3600 3679
8 1857 1721 3600 3679 1858 1723 3602 3680
8 1858 1723 3602 3680 1859 1725 3604 3681
8 1859 1725 3604 3681 1860 1727 3606 3682
8 1860 1727 3606 3682 1861 1729 3608 3683
8 1861 1729 3608 3683 3688 3618 3610 3684
8 3688 3618 3610 3684 3689 3620 3612 3685
8 3690 3622 3616 3687 1862 1731 1719 1856
8 1862 1731 1719 1856 1863 1733 1721 1857
8 1863 1733 1721 1857 1864 1735 1723 1858
8 1864 1735 1723 1858 1865 1737 1725 1859
8 1865 1737 1725 1859 1866 1739 1727 1860
8 1866 1739 1727 1860 1867 1741 1729 1861
8 1867 1741 1729 1861 3691 3624 3618 3688
8 3692 3626 3622 3690 1868 1743 1731 1862
8 1868 1743 1731 1862 1869 1745 1733 1863
8 1869 1745 1733 1863 1870 1747 1735 1864
8 1870 1747 1735 1864 1871 1749 1737 1865
8 1871 1749 1737 1865 1872 1751 1739 1866
8 1872 1751 1739 1866 3693 3628 1741 1867
8 3693 3628 1741 1867 3694 3630 3624 3691
8 3695 3632 3626 3692 1873 1753 1743 1868
8 1873 1753 1743 1868 1874 1755 1745 1869
8 1874 1755 1745 1869 1875 1757 1747 1870
8 1875 1757 1747 1870 1876 1759 1749 1871
8 1876 1759 1749 1871 1877 1761 1751 1872
8 1877 1761 1751 1872 3696 3634 3628 3693
8 3697 3636 3632 3695 1878 1763 1753 1873
8 1878 1763 1753 1873 1879 1765 1755 1874
8 1879 1765 1755 1874 1880 1767 1757 1875
8 1880 1767 1757 1875 1881 1769 1759 1876
8 1881 1769 1759 1876 1882 1771 1761 1877
8 1882 1771 1761 1877 3698 3638 3634 3696
8 3699 3640 3636 3697 1883 1773 1763 1878
8 1883 1773 1763 1878 1884 1775 1765 1879
8 1884 1775 1765 1879 1885 1777 1767 1880
8 1885 1777 1767 1880 1886 1779 1769 1881
8 1886 1779 1769 1881 3700 3642 1771 1882
8 3700 3642 1771 1882 3701 3644 3638 3698
8 3703 3648 3640 3699 1887 1781 1773 1883
8 1887 1781 1773 1883 1888 1783 1775 1884
8 1888 1783 1775 1884 1889 1785 1777 1885
8 1889 1785 1777 1885 1890 1787 1779 1886
8 1890 1787 1779 1886 3704 3650 3642 3700
8 3705 3652 3646 3702 1891 1789 3648 3703
8 1891 1789 3648 3703 1892 1791 1781 1887
8 1892 1791 1781 1887 1893 1793 1783 1888
8 1893 1793 1783 1888 1894 1795 1785 1889
8 1894 1795 1785 1889 1895 1797 1787 1890
8 1895 1797 1787 1890 3706 3654 3650 3704
8 3710 3662 3652 3705 1896 1799 1789 1891
8 1896 1799 1789 1891 1897 1801 1791 1892
8 1897 1801 1791 1892 1898 1803 1793 1893
8 1898 1803 1793 1893 1899 1805 1795 1894
8 1899 1805 1795 1894 3711 3664 1797 1895
8 3711 3664 1797 1895 3712 3666 3654 3706
8 1900 1807 3656 3707 1901 1809 3658 3708
8 1901 1809 3658 3708 1902 1811 3660 3709
8 1902 1811 3660 3709 1903 1813 3662 3710
8 1903 1813 3662 3710 1904 1815 1799 1896
8 1904 1815 1799 1896 1905 1817 1801 1897
8 1905 1817 1801 1897 1906 1819 1803 1898
8 1906 1819 1803 1898 1907 1821 1805 1899
8 1907 1821 1805 1899 3713 3668 3664 3711
8 1908 1823 1807 1900 1909 1825 1809 1901
8 1909 1825 1809 1901 1910 1827 1811 1902
8 1910 1827 1811 1902 1911 1829 1813 1903
8 1911 1829 1813 1903 1912 1831 1815 1904
8 1912 1831 1815 1904 1913 1833 1817 1905
8 1913 1833 1817 1905 1914 1835 1819 1906
8 1914 1835 1819 1906 1915 1837 1821 1907
8 1915 1837 1821 1907 3714 3670 3668 3713
8 1916 1839 1823 1908 1917 1841 1825 1909
8 1917 1841 1825 1909 1918 1843 1827 1910
8 1918 1843 1827 1910 1919 1845 1829 1911
8 1919 1845 1829 1911 1920 1847 1831 1912
8 1920 1847 1831 1912 1921 1849 1833 1913
8 1921 1849 1833 1913 1922 1851 1835 1914
8 1922 1851 1835 1914 1923 1853 1837 1915
8 1923 1853 1837 1915 3715 3672 3670 3714
8 3719 3677 3674 3716 1924 1855 3675 3717
8 1924 1855 3675 3717 3720 3678 3676 3718
8 3728 3686 3677 3719 3729 3687 1855 1924
8 3729 3687 1855 1924 1925 1856 3678 3720
8 1925 1856 3678 3720 1926 1857 3679 3721
8 1926 1857 3679 3721 1927 1858 3680 3722
8 1927 1858 3680 3722 1928 1859 3681 3723
8 1928 1859 3681 3723 1929 1860 3682 3724
8 1929 1860 3682 3724 1930 1861 3683 3725
8 1930 1861 3683 3725 3730 3688 3684 3726
8 3730 3688 3684 3726 3731 3689 3685 3727
8 3732 3690 3687 3729 1931 1862 1856 1925
8 1931 1862 1856 1925 1932 1863 1857 1926
8 1932 1863 1857 1926 1933 1864 1858 1927
8 1933 1864 1858 1927 1934 1865 1859 1928
8 1934 1865 1859 1928 1935 1866 1860 1929
8 1935 1866 1860 1929 1936 1867 1861 1930
8 1936 1867 1861 1930 3733 3691 3688 3730
8 3734 3692 3690 3732 1937 1868 1862 1931
8 1937 1868 1862 1931 1938 1869 1863 1932
8 1938 1869 1863 1932 1939 1870 1864 1933
8 1939 1870 1864 1933 1940 1871 1865 1934
8 1940 1871 1865 1934 1941 1872 1866 1935
8 1941 1872 1866 1935 3735 3693 1867 1936
8 3735 3693 1867 1936 3736 3694 3691 3733
8 3737 3695 3692 3734 1942 1873 1868 1937
8 1942 1873 1868 1937 1943 1874 1869 1938
8 1943 1874 1869 1938 1944 1875 1870 1939
8 1944 1875 1870 1939 1945 1876 1871 1940
8 1945 1876 1871 1940 1946 1877 1872 1941
8 1946 1877 1872 1941 3738 3696 3693 3735
8 3739 3697 3695 3737 1947 1878 1873 1942
8 1947 1878 1873 1942 1948 1879 1874 1943
8 1948 1879 1874 1943 1949 1880 1875 1944
8 1949 1880 1875 1944 1950 1881 1876 1945
8 1950 1881 1876 1945 1951 1882 1877 1946
8 1951 1882 1877 1946 3740 3698 3696 3738
8 3741 3699 3697 3739 1952 1883 1878 1947
8 1952 1883 1878 1947 1953 1884 1879 1948
8 1953 1884 1879 1948 1954 1885 1880 1949
8 1954 1885 1880 1949 1955 1886 1881 1950
8 1955 1886 1881 1950 3742 3700 1882 1951
8 3742 3700 1882 1951 3743 3701 3698 3740
8 3745 3703 3699 3741 1956 1887 1883 1952
8 1956 1887 1883 1952 1957 1888 1884 1953
8 1957 1888 1884 1953 1958 1889 1885 1954
8 1958 1889 1885 1954 1959 1890 1886 1955
8 1959 1890 1886 1955 3746 3704 3700 3742
8 3747 3705 3702 3744 1960 1891 3703 3745
8 1960 1891 3703 3745 1961 1892 1887 1956
8 1961 1892 1887 1956 1962 1893 1888 1957
8 1962 1893 1888 1957 1963 1894 1889 1958
8 1963 1894 1889 1958 1964 1895 1890 1959
8 1964 1895 1890 1959 3748 3706 3704 3746
8 3752 3710 3705 3747 1965 1896 1891 1960
8 1965 1896 1891 1960 1966 1897 1892 1961
8 1966 1897 1892 1961 1967 1898 1893 1962
8 1967 1898 1893 1962 1968 1899 1894 1963
8 1968 1899 1894 1963 3753 3711 1895 1964
8 3753 3711 1895 1964 3754 3712 3706 3748
8 1969 1900 3707 3749 1970 1901 3708 3750
8 1970 1901 3708 3750 1971 1902 3709 3751
8 1971 1902 3709 3751 1972 1903 3710 3752
8 1972 1903 3710 3752 1973 1904 1896 1965
8 1973 1904 1896 1965 1974 1905 1897 1966
8 1974 1905 1897 1966 1975 1906 1898 1967
8 1975 1906 1898 1967 1976 1907 1899 1968
8 1976 1907 1899 1968 3755 3713 3711 3753
8 1977 1908 1900 1969 1978 1909 1901 1970
8 1978 1909 1901 1970 1979 1910 1902 1971
8 1979 1910 1902 1971 1980 1911 1903 1972
8 1980 1911 1903 1972 1981 1912 1904 1973
8 1981 1912 1904 1973 1982 1913 1905 1974
8 1982 1913 1905 1974 1983 1914 1906 1975
8 1983 1914 1906 1975 1984 1915 1907 1976
8 1984 1915 1907 1976 3756 3714 3713 3755
8 1985 1916 1908 1977 1986 1917 1909 1978
8 1986 1917 1909 1978 1987 1918 1910 1979
8 1987 1918 1910 1979 1988 1919 1911 1980
8 1988 1919 1911 1980 1989 1920 1912 1981
8 1989 1920 1912 1981 1990 1921 1913 1982
8 1990 1921 1913 1982 1991 1922 1914 1983
8 1991 1922 1914 1983 1992 1923 1915 1984
8 1992 1923 1915 1984 3757 3715 3714 3756
8 3761 3719 3716 3758 1993 1924 3717 3759
8 1993 1924 3717 3759 3762 3720 3718 3760
8 3770 3728 3719 3761 3771 3729 1924 1993
8 3771 3729 1924 1993 1994 1925 3720 3762
8 1994 1925 3720 3762 1995 1926 3721 3763
8 1995 1926 3721 3763 1996 1927 3722 3764
8 1996 1927 3722 3764 1997 1928 3723 3765
8 1997 1928 3723 3765 1998 1929 3724 3766
8 1998 1929 3724 3766 1999 1930 3725 3767
8 1999 1930 3725 3767 3772 3730 3726 3768
8 3772 3730 3726 3768 3773 3731 3727 3769
8 3774 3732 3729 3771 2000 1931 1925 1994
8 2000 1931 1925 1994 2001 1932 1926 1995
8 2001 1932 1926 1995 2002 1933 1927 1996
8 2002 1933 1927 1996 2003 1934 1928 1997
8 2003 1934 1928 1997 2004 1935 1929 1998
8 2004 1935 1929 1998 2005 1936 1930 1999
8 2005 1936 1930 1999 3775 3733 3730 3772
8 3776 3734 3732 3774 2006 1937 1931 2000
8 2006 1937 1931 2000 2007 1938 1932 2001
8 2007 1938 1932 2001 2008 1939 1933 2002
8 2008 1939 1933 2002 2009 1940 1934 2003
8 2009 1940 1934 2003 2010 1941 1935 2004
8 2010 1941 1935 2004 3777 3735 1936 2005
8 3777 3735 1936 2005 3778 3736 3733 3775
8 3779 3737 3734 3776 2011 1942 1937 2006
8 2011 1942 1937 2006 2012 1943 1938 2007
8 2012 1943 1938 2007 2013 1944 1939 2008
8 2013 1944 1939 2008 2014 1945 1940 2009
8 2014 1945 1940 2009 2015 1946 1941 2010
8 2015 1946 1941 2010 3780 3738 3735 3777
8 3781 3739 3737 3779 2016 1947 1942 2011
8 2016 1947 1942 2011 2017 1948 1943 2012
8 2017 1948 1943 2012 2018 1949 1944 2013
8 2018 1949 1944 2013 2019 1950 1945 2014
8 2019 1950 1945 2014 2020 1951 1946 2015
8 2020 1951 1946 2015 3782 3740 3738 3780
8 3783 3741 3739 3781 2021 1952 1947 2016
8 2021 1952 1947 2016 2022 1953 1948 2017
8 2022 1953 1948 2017 2023 1954 1949 2018
8 2023 1954 1949 2018 2024 1955 1950 2019
8 2024 1955 1950 2019 3784 3742 1951 2020
8 3784 3742 1951 2020 3785 3743 3740 3782
8 3787 3745 3741 3783 2025 1956 1952 2021
8 2025 1956 1952 2021 2026 1957 1953 2022
8 2026 1957 1953 2022 2027 1958 1954 2023
8 2027 1958 1954 2023 2028 1959 1955 2024
8 2028 1959 1955 2024 3788 3746 3742 3784
8 3789 3747 3744 3786 2029 1960 3745 3787
8 2029 1960 3745 3787 2030 1961 1956 2025
8 2030 1961 1956 2025 2031 1962 1957 2026
8 2031 1962 1957 2026 2032 1963 1958 2027
8 2032 1963 1958 2027 2033 1964 1959 2028
8 2033 1964 1959 2028 3790 3748 3746 3788
8 3794 3752 3747 3789 2034 1965 1960 2029
8 2034 1965 1960 2029 2035 1966 1961 2030
8 2035 1966 1961 2030 2036 1967 1962 2031
8 2036 1967 1962 2031 2037 1968 1963 2032
8 2037 1968 1963 2032 3795 3753 1964 2033
8 3795 3753 1964 2033 3796 3754 3748 3790
8 2038 1969 3749 3791 2039 1970 3750 3792
8 2039 1970 3750 3792 2040 1971 3751 3793
8 2040 1971 3751 3793 2041 1972 3752 3794
8 2041 1972 3752 3794 2042 1973 1965 2034
8 2042 1973 1965 2034 2043 1974 1966 2035
8 2043 1974 1966 2035 2044 1975 1967 2036
8 2044 1975 1967 2036 2045 1976 1968 2037
8 2045 1976 1968 2037 3797 3755 3753 3795
8 2046 1977 1969 2038 2047 1978 1970 2039
8 2047 1978 1970 2039 2048 1979 1971 2040
8 2048 1979 1971 2040 2049 1980 1972 2041
8 2049 1980 1972 2041 2050 1981 1973 2042
8 2050 1981 1973 2042 2051 1982 1974 2043
8 2051 1982 1974 2043 2052 1983 1975 2044
8 2052 1983 1975 2044 2053 1984 1976 2045
8 2053 1984 1976 2045 3798 3756 3755 3797
8 2054 1985 1977 2046 2055 1986 1978 2047
8 2055 1986 1978 2047 2056 1987 1979 2048
8 2056 1987 1979 2048 2057 1988 1980 2049
8 2057 1988 1980 2049 2058 1989 1981 2050
8 2058 1989 1981 2050 2059 1990 1982 2051
8 2059 1990 1982 2051 2060 1991 1983 2052
8 2060 1991 1983 2052 2061 1992 1984 2053
8 2061 1992 1984 2053 3799 3757 3756 3798
8 3803 3761 3758 3800 2062 1993 3759 3801
8 2062 1993 3759 3801 3804 3762 3760 3802
8 3812 3770 3761 3803 3813 3771 1993 2062
8 3813 3771 1993 2062 2063 1994 3762 3804
8 2063 1994 3762 3804 2064 1995 3763 3805
8 2064 1995 3763 3805 2065 1996 3764 3806
8 2065 1996 3764 3806 2066 1997 3765 3807
8 2066 1997 3765 3807 2067 1998 3766 3808
8 2067 1998 3766 3808 2068 1999 3767 3809
8 2068 1999 3767 3809 3814 3772 3768 3810
8 3814 3772 3768 3810 3815 3773 3769 3811
8 3816 3774 3771 3813 2069 2000 1994 2063
8 2069 2000 1994 2063 2070 2001 1995 2064
8 2070 2001 1995 2064 2071 2002 1996 2065
8 2071 2002 1996 2065 2072 2003 1997 2066
8 2072 2003 1997 2066 2073 2004 1998 2067
8 2073 2004 1998 2067 2074 2005 1999 2068
8 2074 2005 1999 2068 3817 3775 3772 3814
8 3818 3776 3774 3816 2075 2006 2000 2069
8 2075 2006 2000 2069 2076 2007 2001 2070
8 2076 2007 2001 2070 2077 2008 2002 2071
8 2077 2008 2002 2071 2078 2009 2003 2072
8 2078 2009 2003 2072 2079 2010 2004 2073
8 2079 2010 2004 2073 3819 3777 2005 2074
8 3819 3777 2005 2074 3820 3778 3775 3817
8 3821 3779 3776 3818 2080 2011 2006 2075
8 2080 2011 2006 2075 2081 2012 2007 2076
8 2081 2012 2007 2076 2082 2013 2008 2077
8 2082 2013 2008 2077 2083 2014 2009 2078
8 2083 2014 2009 2078 2084 2015 2010 2079
8 2084 2015 2010 2079 3822 3780 3777 3819
8 3823 3781 3779 3821 2085 2016 2011 2080
8 2085 2016 2011 2080 2086 2017 2012 2081
8 2086 2017 2012 2081 2087 2018 2013 2082
8 2087 2018 2013 2082 2088 2019 2014 2083
8 2088 2019 2014 2083 2089 2020 2015 2084
8 2089 2020 2015 2084 3824 3782 3780 3822
8 3825 3783 3781 3823 2090 2021 2016 2085
8 2090 2021 2016 2085 2091 2022 2017 2086
8 2091 2022 2017 2086 2092 2023 2018 2087
8 2092 2023 2018 2087 2093 2024 2019 2088
8 2093 2024 2019 2088 3826 3784 2020 2089
8 3826 3784 2020 2089 3827 3785 3782 3824
8 3829 3787 3783 3825 2094 2025 2021 2090
8 2094 2025 2021 2090 2095 2026 2022 2091
8 2095 2026 2022 2091 2096 2027 2023 2092
8 2096 2027 2023 2092 2097 2028 2024 2093
8 2097 2028 2024 2093 3830 3788 3784 3826
8 3831 3789 3786 3828 2098 2029 3787 3829
8 2098 2029 3787 3829 2099 2030 2025 2094
8 2099 2030 2025 2094 2100 2031 2026 2095
8 2100 2031 2026 2095 2101 2032 2027 2096
8 2101 2032 2027 2096 2102 2033 2028 2097
8 2102 2033 2028 2097 3832 3790 3788 3830
8 3836 3794 3789 3831 2103 2034 2029 2098
8 2103 2034 2029 2098 2104 2035 2030 2099
8 2104 2035 2030 2099 2105 2036 2031 2100
8 2105 2036 2031 2100 2106 2037 2032 2101
8 2106 2037 2032 2101 3837 3795 2033 2102
8 3837 3795 2033 2102 3838 3796 3790 3832
8 2107 2038 3791 3833 2108 2039 3792 3834
8 2108 2039 3792 3834 2109 2040 3793 3835
8 2109 2040 3793 3835 2110 2041 3794 3836
8 2110 2041 3794 3836 2111 2042 2034 2103
8 2111 2042 2034 2103 2112 2043 2035 2104
8 2112 2043 2035 2104 2113 2044 2036 2105
8 2113 2044 2036 2105 2114 2045 2037 2106
8 2114 2045 2037 2106 3839 3797 3795 3837
8 2115 2046 2038 2107 2116 2047 2039 2108
8 2116 2047 2039 2108 2117 2048 2040 2109
8 2117 2048 2040 2109 2118 2049 2041 2110
8 2118 2049 2041 2110 2119 2050 2042 2111
8 2119 2050 2042 2111 2120 2051 2043 2112
8 2120 2051 2043 2112 2121 2052 2044 2113
8 2121 2052 2044 2113 2122 2053 2045 2114
8 2122 2053 2045 2114 3840 3798 3797 3839
8 2123 2054 2046 2115 2124 2055 2047 2116
8 2124 2055 2047 2116 2125 2056 2048 2117
8 2125 2056 2048 2117 2126 2057 2049 2118
8 2126 2057 2049 2118 2127 2058 2050 2119
8 2127 2058 2050 2119 2128 2059 2051 2120
8 2128 2059 2051 2120 2129 2060 2052 2121
8 2129 2060 2052 2121 2130 2061 2053 2122
8 2130 2061 2053 2122 3841 3799 3798 3840
8 3845 3803 3800 3842 2131 2062 3801 3843
8 2131 2062 3801 3843 3846 3804 3802 3844
8 3854 3812 3803 3845 3855 3813 2062 2131
8 3855 3813 2062 2131 2132 2063 3804 3846
8 2132 2063 3804 3846 2133 2064 3805 3847
8 2133 2064 3805 3847 2134 2065 3806 3848
8 2134 2065 3806 3848 2135 2066 3807 3849
8 2135 2066 3807 3849 2136 2067 3808 3850
8 2136 2067 3808 3850 2137 2068 3809 3851
8 2137 2068 3809 3851 3856 3814 3810 3852
8 3856 3814 3810 3852 3857 3815 3811 3853
8 3858 3816 3813 3855 2138 2069 2063 2132
8 2138 2069 2063 2132 2139 2070 2064 2133
8 2139 2070 2064 2133 2140 2071 2065 2134
8 2140 2071 2065 2134 2141 2072 2066 2135
8 2141 2072 2066 2135 2142 2073 2067 2136
8 2142 2073 2067 2136 2143 2074 2068 2137
8 2143 2074 2068 2137 3859 3817 3814 3856
8 3860 3818 3816 3858 2144 2075 2069 2138
8 2144 2075 2069 2138 2145 2076 2070 2139
8 2145 2076 2070 2139 2146 2077 2071 2140
8 2146 2077 2071 2140 2147 2078 2072 2141
8 2147 2078 2072 2141 2148 2079 2073 2142
8 2148 2079 2073 2142 3861 3819 2074 2143
8 3861 3819 2074 2143 3862 3820 3817 3859
8 3863 3821 3818 3860 2149 2080 2075 2144
8 2149 2080 2075 2144 2150 2081 2076 2145
8 2150 2081 2076 2145 2151 2082 2077 2146
8 2151 2082 2077 2146 2152 2083 2078 2147
8 2152 2083 2078 2147 2153 2084 2079 2148
8 2153 2084 2079 2148 3864 3822 3819 3861
8 3865 3823 3821 3863 2154 2085 2080 2149
8 2154 2085 2080 2149 2155 2086 2081 2150
8 2155 2086 2081 2150 2156 2087 2082 2151
8 2156 2087 2082 2151 2157 2088 2083 2152
8 2157 2088 2083 2152 2158 2089 2084 2153
8 2158 2089 2084 2153 3866 3824 3822 3864
8 3867 3825 3823 3865 2159 2090 2085 2154
8 2159 2090 2085 2154 2160 2091 2086 2155
8 2160 2091 2086 2155 2161 2092 2087 2156
8 2161 2092 2087 2156 2162 2093 2088 2157
8 2162 2093 2088 2157 3868 3826 2089 2158
8 3868 3826 2089 2158 3869 3827 3824 3866
8 3871 3829 3825 3867 2163 2094 2090 2159
8 2163 2094 2090 2159 2164 2095 2091 2160
8 2164 2095 2091 2160 2165 2096 2092 2161
8 2165 2096 2092 2161 2166 2097 2093 2162
8 2166 2097 2093 2162 3872 3830 3826 3868
8 3873 3831 3828 3870 2167 2098 3829 3871
8 2167 2098 3829 3871 2168 2099 2094 2163
8 2168 2099 2094 2163 2169 2100 2095 2164
8 2169 2100 2095 2164 2170 2101 2096 2165
8 2170 2101 2096 2165 2171 2102 2097 2166
8 2171 2102 2097 2166 3874 3832 3830 3872
8 3878 3836 3831 3873 2172 2103 2098 2167
8 2172 2103 2098 2167 2173 2104 2099 2168
8 2173 2104 2099 2168 2174 2105 2100 2169
8 2174 2105 2100 2169 2175 2106 2101 2170
8 2175 2106 2101 2170 3879 3837 2102 2171
8 3879 3837 2102 2171 3880 3838 3832 3874
8 2176 2107 3833 3875 2177 2108 3834 3876
8 2177 2108 3834 3876 2178 2109 3835 3877
8 2178 2109 3835 3877 2179 2110 3836 3878
8 2179 2110 3836 3878 2180 2111 2103 2172
8 2180 2111 2103 2172 2181 2112 2104 2173
8 2181 2112 2104 2173 2182 2113 2105 2174
8 2182 2113 2105 2174 2183 2114 2106 2175
8 2183 2114 2106 2175 3881 3839 3837 3879
8 2184 2115 2107 2176 2185 2116 2108 2177
8 2185 2116 2108 2177 2186 2117 2109 2178
8 2186 2117 2109 2178 2187 2118 2110 2179
8 2187 2118 2110 2179 2188 2119 2111 2180
8 2188 2119 2111 2180 2189 2120 2112 2181
8 2189 2120 2112 2181 2190 2121 2113 2182
8 2190 2121 2113 2182 2191 2122 2114 2183
8 2191 2122 2114 2183 3882 3840 3839 3881
8 2192 2123 2115 2184 2193 2124 2116 2185
8 2193 2124 2116 2185 2194 2125 2117 2186
8 2194 2125 2117 2186 2195 2126 2118 2187
8 2195 2126 2118 2187 2196 2127 2119 2188
8 2196 2127 2119 2188 2197 2128 2120 2189
8 2197 2128 2120 2189 2198 2129 2121 2190
8 2198 2129 2121 2190 2199 2130 2122 2191
8 2199 2130 2122 2191 3883 3841 3840 3882
8 3887 3845 3842 3884 2200 2131 3843 3885
8 2200 2131 3843 3885 3888 3846 3844 3886
8 3896 3854 3845 3887 3897 3855 2131 2200
8 3897 3855 2131 2200 2201 2132 3846 3888
8 2201 2132 3846 3888 2202 2133 3847 3889
8 2202 2133 3847 3889 2203 2134 3848 3890
8 2203 2134 3848 3890 2204 2135 3849 3891
8 2204 2135 3849 3891 2205 2136 3850 3892
8 2205 2136 3850 3892 2206 2137 3851 3893
8 2206 2137 3851 3893 3898 3856 3852 3894
8 3898 3856 3852 3894 3899 3857 3853 3895
8 3900 3858 3855 3897 2207 2138 2132 2201
8 2207 2138 2132 2201 2208 2139 2133 2202
8 2208 2139 2133 2202 2209 2140 2134 2203
8 2209 2140 2134 2203 2210 2141 2135 2204
8 2210 2141 2135 2204 2211 2142 2136 2205
8 2211 2142 2136 2205 2212 2143 2137 2206
8 2212 2143 2137 2206 3901 3859 3856 3898
8 3902 3860 3858 3900 2213 2144 2138 2207
8 2213 2144 2138 2207 2214 2145 2139 2208
8 2214 2145 2139 2208 2215 2146 2140 2209
8 2215 2146 2140 2209 2216 2147 2141 2210
8 2216 2147 2141 2210 2217 2148 2142 2211
8 2217 2148 2142 2211 3903 3861 2143 2212
8 3903 3861 2143 2212 3904 3862 3859 3901
8 3905 3863 3860 3902 2218 2149 2144 2213
8 2218 2149 2144 2213 2219 2150 2145 2214
8 2219 2150 2145 2214 2220 2151 2146 2215
8 2220 2151 2146 2215 2221 2152 2147 2216
8 2221 2152 2147 2216 2222 2153 2148 2217
8 2222 2153 2148 2217 3906 3864 3861 3903
8 3907 3865 3863 3905 2223 2154 2149 2218
8 2223 2154 2149 2218 2224 2155 2150 2219
8 2224 2155 2150 2219 2225 2156 2151 2220
8 2225 2156 2151 2220 2226 2157 2152 2221
8 2226 2157 2152 2221 2227 2158 2153 2222
8 2227 2158 2153 2222 3908 3866 3864 3906
8 3909 3867 3865 3907 2228 2159 2154 2223
8 2228 2159 2154 2223 2229 2160 2155 2224
8 2229 2160 2155 2224 2230 2161 2156 2225
8 2230 2161 2156 2225 2231 2162 2157 2226
8 2231 2162 2157 2226 3910 3868 2158 2227
8 3910 3868 2158 2227 3911 3869 3866 3908
8 3913 3871 3867 3909 2232 2163 2159 2228
8 2232 2163 2159 2228 2233 2164 2160 2229
8 2233 2164 2160 2229 2234 2165 2161 2230
8 2234 2165 2161 2230 2235 2166 2162 2231
8 2235 2166 2162 2231 3914 3872 3868 3910
8 3915 3873 3870 3912 2236 2167 3871 3913
8 2236 2167 3871 3913 2237 2168 2163 2232
8 2237 2168 2163 2232 2238 2169 2164 2233
8 2238 2169 2164 2233 2239 2170 2165 2234
8 2239 2170 2165 2234 2240 2171 2166 2235
8 2240 2171 2166 2235 3916 3874 3872 3914
8 3920 3878 3873 3915 2241 2172 2167 2236
8 2241 2172 2167 2236 2242 2173 2168 2237
8 2242 2173 2168 2237 2243 2174 2169 2238
8 2243 2174 2169 2238 2244 2175 2170 2239
8 2244 2175 2170 2239 3921 3879 2171 2240
8 3921 3879 2171 2240 3922 3880 3874 3916
8 2245 2176 3875 3917 2246 2177 3876 3918
8 2246 2177 3876 3918 2247 2178 3877 3919
8 2247 2178 3877 3919 2248 2179 3878 3920
8 2248 2179 3878 3920 2249 2180 2172 2241
8 2249 2180 2172 2241 2250 2181 2173 2242
8 2250 2181 2173 2242 2251 2182 2174 2243
8 2251 2182 2174 2243 2252 2183 2175 2244
8 2252 2183 2175 2244 3923 3881 3879 3921
8 2253 2184 2176 2245 2254 2185 2177 2246
8 2254 2185 2177 2246 2255 2186 2178 2247
8 2255 2186 2178 2247 2256 2187 2179 2248
8 2256 2187 2179 2248 2257 2188 2180 2249
8 2257 2188 2180 2249 2258 2189 2181 2250
8 2258 2189 2181 2250 2259 2190 2182 2251
8 2259 2190 2182 2251 2260 2191 2183 2252
8 2260 2191 2183 2252 3924 3882 3881 3923
8 2261 2192 2184 2253 2262 2193 2185 2254
8 2262 2193 2185 2254 2263 2194 2186 2255
8 2263 2194 2186 2255 2264 2195 2187 2256
8 2264 2195 2187 2256 2265 2196 2188 2257
8 2265 2196 2188 2257 2266 2197 2189 2258
8 2266 2197 2189 2258 2267 2198 2190 2259
8 2267 2198 2190 2259 2268 2199 2191 2260
8 2268 2199 2191 2260 3925 3883 3882 3924
8 3929 3887 3884 3926 2269 2200 3885 3927
8 2269 2200 3885 3927 3930 3888 3886 3928
8 3938 3896 3887 3929 3939 3897 2200 2269
8 3939 3897 2200 2269 2270 2201 3888 3930
8 2270 2201 3888 3930 2271 2202 3889 3931
8 2271 2202 3889 3931 2272 2203 3890 3932
8 2272 2203 3890 3932 2273 2204 3891 3933
8 2273 2204 3891 3933 2274 2205 3892 3934
8 2274 2205 3892 3934 2275 2206 3893 3935
8 2275 2206 3893 3935 3940 3898 3894 3936
8 3940 3898 3894 3936 3941 3899 3895 3937
8 3942 3900 3897 3939 2276 2207 2201 2270
8 2276 2207 2201 2270 2277 2208 2202 2271
8 2277 2208 2202 2271 2278 2209 2203 2272
8 2278 2209 2203 2272 2279 2210 2204 2273
8 2279 2210 2204 2273 2280 2211 2205 2274
8 2280 2211 2205 2274 2281 2212 2206 2275
8 2281 2212 2206 2275 3943 3901 3898 3940
8 3944 3902 3900 3942 2282 2213 2207 2276
8 2282 2213 2207 2276 2283 2214 2208 2277
8 2283 2214 2208 2277 2284 2215 2209 2278
8 2284 2215 2209 2278 2285 2216 2210 2279
8 2285 2216 2210 2279 2286 2217 2211 2280
8 2286 2217 2211 2280 3945 3903 2212 2281
8 3945 3903 2212 2281 3946 3904 3901 3943
8 3947 3905 3902 3944 2287 2218 2213 2282
8 2287 2218 2213 2282 2288 2219 2214 2283
8 2288 2219 2214 2283 2289 2220 2215 2284
8 2289 2220 2215 2284 2290 2221 2216 2285
8 2290 2221 2216 2285 2291 2222 2217 2286
8 2291 2222 2217 2286 3948 3906 3903 3945
8 3949 3907 3905 3947 2292 2223 2218 2287
8 2292 2223 2218 2287 2293 2224 2219 2288
8 2293 2224 2219 2288 2294 2225 2220 2289
8 2294 2225 2220 2289 2295 2226 2221 2290
8 2295 2226 2221 2290 2296 2227 2222 2291
8 2296 2227 2222 2291 3950 3908 3906 3948
8 3951 3909 3907 3949 2297 2228 2223 2292
8 2297 2228 2223 2292 2298 2229 2224 2293
8 2298 2229 2224 2293 2299 2230 2225 2294
8 2299 2230 2225 2294 2300 2231 2226 2295
8 2300 2231 2226 2295 3952 3910 2227 2296
8 3952 3910 2227 2296 3953 3911 3908 3950
8 3955 3913 3909 3951 2301 2232 2228 2297
8 2301 2232 2228 2297 2302 2233 2229 2298
8 2302 2233 2229 2298 2303 2234 2230 2299
8 2303 2234 2230 2299 2304 2235 2231 2300
8 2304 2235 2231 2300 3956 3914 3910 3952
8 3957 3915 3912 3954 2305 2236 3913 3955
8 2305 2236 3913 3955 2306 2237 2232 2301
8 2306 2237 2232 2301 2307 2238 2233 2302
8 2307 2238 2233 2302 2308 2239 2234 2303
8 2308 2239 2234 2303 2309 2240 2235 2304
8 2309 2240 2235 2304 3958 3916 3914 3956
8 3962 3920 3915 3957 2310 2241 2236 2305
8 2310 2241 2236 2305 2311 2242 2237 2306
8 2311 2242 2237 2306 2312 2243 2238 2307
8 2312 2243 2238 2307 2313 2244 2239 2308
8 2313 2244 2239 2308 3963 3921 2240 2309
8 3963 3921 2240 2309 3964 3922 3916 3958
8 2314 2245 3917 3959 2315 2246 3918 3960
8 2315 2246 3918 3960 2316 2247 3919 3961
8 2316 2247 3919 3961 2317 2248 3920 3962
8 2317 2248 3920 3962 2318 2249 2241 2310
8 2318 2249 2241 2310 2319 2250 2242 2311
8 2319 2250 2242 2311 2320 2251 2243 2312
8 2320 2251 2243 2312 2321 2252 2244 2313
8 2321 2252 2244 2313 3965 3923 3921 3963
8 2322 2253 2245 2314 2323 2254 2246 2315
8 2323 2254 2246 2315 2324 2255 2247 2316
8 2324 2255 2247 2316 2325 2256 2248 2317
8 2325 2256 2248 2317 2326 2257 2249 2318
8 2326 2257 2249 2318 2327 2258 2250 2319
8 2327 2258 2250 2319 2328 2259 2251 2320
8 2328 2259 2251 2320 2329 2260 2252 2321
8 2329 2260 2252 2321 3966 3924 3923 3965
8 2330 2261 2253 2322 2331 2262 2254 2323
8 2331 2262 2254 2323 2332 2263 2255 2324
8 2332 2263 2255 2324 2333 2264 2256 2325
8 2333 2264 2256 2325 2334 2265 2257 2326
8 2334 2265 2257 2326 2335 2266 2258 2327
8 2335 2266 2258 2327 2336 2267 2259 2328
8 2336 2267 2259 2328 2337 2268 2260 2329
8 2337 2268 2260 2329 3967 3925 3924 3966
8 3971 3929 3926 3968 2338 2269 3927 3969
8 2338 2269 3927 3969 3972 3930 3928 3970
8 3980 3938 3929 3971 3981 3939 2269 2338
8 3981 3939 2269 2338 2339 2270 3930 3972
8 2339 2270 3930 3972 2340 2271 3931 3973
8 2340 2271 3931 3973 2341 2272 3932 3974
8 2341 2272 3932 3974 2342 2273 3933 3975
8 2342 2273 3933 3975 2343 2274 3934 3976
8 2343 2274 3934 3976 2344 2275 3935 3977
8 2344 2275 3935 3977 3982 3940 3936 3978
8 3982 3940 3936 3978 3983 3941 3937 3979
8 3984 3942 3939 3981 2345 2276 2270 2339
8 2345 2276 2270 2339 2346 2277 2271 2340
8 2346 2277 2271 2340 2347 2278 2272 2341
8 2347 2278 2272 2341 2348 2279 2273 2342
8 2348 2279 2273 2342 2349 2280 2274 2343
8 2349 2280 2274 2343 2350 2281 2275 2344
8 2350 2281 2275 2344 3985 3943 3940 3982
8 3986 3944 3942 3984 2351 2282 2276 2345
8 2351 2282 2276 2345 2352 2283 2277 2346
8 2352 2283 2277 2346 2353 2284 2278 2347
8 2353 2284 2278 2347 2354 2285 2279 2348
8 2354 2285 2279 2348 2355 2286 2280 2349
8 2355 2286 2280 2349 3987 3945 2281 2350
8 3987 3945 2281 2350 3988 3946 3943 3985
8 3989 3947 3944 3986 2356 2287 2282 2351
8 2356 2287 2282 2351 2357 2288 2283 2352
8 2357 2288 2283 2352 2358 2289 2284 2353
8 2358 2289 2284 2353 2359 2290 2285 2354
8 2359 2290 2285 2354 2360 2291 2286 2355
8 2360 2291 2286 2355 3990 3948 3945 3987
8 3991 3949 3947 3989 2361 2292 2287 2356
8 2361 2292 2287 2356 2362 2293 2288 2357
8 2362 2293 2288 2357 2363 2294 2289 2358
8 2363 2294 2289 2358 2364 2295 2290 2359
8 2364 2295 2290 2359 2365 2296 2291 2360
8 2365 2296 2291 2360 3992 3950 3948 3990
8 3993 3951 3949 3991 2366 2297 2292 2361
8 2366 2297 2292 2361 2367 2298 2293 2362
8 2367 2298 2293 2362 2368 2299 2294 2363
8 2368 2299 2294 2363 2369 2300 2295 2364
8 2369 2300 2295 2364 3994 3952 2296 2365
8 3994 3952 2296 2365 3995 3953 3950 3992
8 3997 3955 3951 3993 2370 2301 2297 2366
8 2370 2301 2297 2366 2371 2302 2298 2367
8 2371 2302 2298 2367 2372 2303 2299 2368
8 2372 2303 2299 2368 2373 2304 2300 2369
8 2373 2304 2300 2369 3998 3956 3952 3994
8 3999 3957 3954 3996 2374 2305 3955 3997
8 2374 2305 3955 3997 2375 2306 2301 2370
8 2375 2306 2301 2370 2376 2307 2302 2371
8 2376 2307 2302 2371 2377 2308 2303 2372
8 2377 2308 2303 2372 2378 2309 2304 2373
8 2378 2309 2304 2373 4000 3958 3956 3998
8 4004 3962 3957 3999 2379 2310 2305 2374
8 2379 2310 2305 2374 2380 2311 2306 2375
8 2380 2311 2306 2375 2381 2312 2307 2376
8 2381 2312 2307 2376 2382 2313 2308 2377
8 2382 2313 2308 2377 4005 3963 2309 2378
8 4005 3963 2309 2378 4006 3964 3958 4000
8 2383 2314 3959 4001 2384 2315 3960 4002
8 2384 2315 3960 4002 2385 2316 3961 4003
8 2385 2316 3961 4003 2386 2317 3962 4004
8 2386 2317 3962 4004 2387 2318 2310 2379
8 2387 2318 2310 2379 2388 2319 2311 2380
8 2388 2319 2311 2380 2389 2320 2312 2381
8 2389 2320 2312 2381 2390 2321 2313 2382
8 2390 2321 2313 2382 4007 3965 3963 4005
8 2391 2322 2314 2383 2392 2323 2315 2384
8 2392 2323 2315 2384 2393 2324 2316 2385
8 2393 2324 2316 2385 2394 2325 2317 2386
8 2394 2325 2317 2386 2395 2326 2318 2387
8 2395 2326 2318 2387 2396 2327 2319 2388
8 2396 2327 2319 2388 2397 2328 2320 2389
8 2397 2328 2320 2389 2398 2329 2321 2390
8 2398 2329 2321 2390 4008 3966 3965 4007
8 2399 2330 2322 2391 2400 2331 2323 2392
8 2400 2331 2323 2392 2401 2332 2324 2393
8 2401 2332 2324 2393 2402 2333 2325 2394
8 2402 2333 2325 2394 2403 2334 2326 2395
8 2403 2334 2326 2395 2404 2335 2327 2396
8 2404 2335 2327 2396 2405 2336 2328 2397
8 2405 2336 2328 2397 2406 2337 2329 2398
8 2406 2337 2329 2398 4009 3967 3966 4008
8 4013 3971 3968 4010 2407 2338 3969 4011
8 2407 2338 3969 4011 4014 3972 3970 4012
8 4022 3980 3971 4013 4023 3981 2338 2407
8 4023 3981 2338 2407 2408 2339 3972 4014
8 2408 2339 3972 4014 2409 2340 3973 4015
8 2409 2340 3973 4015 2410 2341 3974 4016
8 2410 2341 3974 4016 2411 2342 3975 4017
8 2411 2342 3975 4017 2412 2343 3976 4018
8 2412 2343 3976 4018 2413 2344 3977 4019
8 2413 2344 3977 4019 4024 3982 3978 4020
8 4024 3982 3978 4020 4025 3983 3979 4021
8 4026 3984 3981 4023 2414 2345 2339 2408
8 2414 2345 2339 2408 2415 2346 2340 2409
8 2415 2346 2340 2409 2416 2347 2341 2410
8 2416 2347 2341 2410 2417 2348 2342 2411
8 2417 2348 2342 2411 2418 2349 2343 2412
8 2418 2349 2343 2412 2419 2350 2344 2413
8 2419 2350 2344 2413 4027 3985 3982 4024
8 4028 3986 3984 4026 2420 2351 2345 2414
8 2420 2351 2345 2414 2421 2352 2346 2415
8 2421 2352 2346 2415 2422 2353 2347 2416
8 2422 2353 2347 2416 2423 2354 2348 2417
8 2423 2354 2348 2417 2424 2355 2349 2418
8 2424 2355 2349 2418 4029 3987 2350 2419
8 4029 3987 2350 2419 4030 3988 3985 4027
8 4031 3989 3986 4028 2425 2356 2351 2420
8 2425 2356 2351 2420 2426 2357 2352 2421
8 2426 2357 2352 2421 2427 2358 2353 2422
8 2427 2358 2353 2422 2428 2359 2354 2423
8 2428 2359 2354 2423 2429 2360 2355 2424
8 2429 2360 2355 2424 4032 3990 3987 4029
8 4033 3991 3989 4031 2430 2361 2356 2425
8 2430 2361 2356 2425 2431 2362 2357 2426
8 2431 2362 2357 2426 2432 2363 2358 2427
8 2432 2363 2358 2427 2433 2364 2359 2428
8 2433 2364 2359 2428 2434 2365 2360 2429
8 2434 2365 2360 2429 4034 3992 3990 4032
8 4035 3993 3991 4033 2435 2366 2361 2430
8 2435 2366 2361 2430 2436 2367 2362 2431
8 2436 2367 2362 2431 2437 2368 2363 2432
8 2437 2368 2363 2432 2438 2369 2364 2433
8 2438 2369 2364 2433 4036 3994 2365 2434
8 4036 3994 2365 2434 4037 3995 3992 4034
8 4039 3997 3993 4035 2439 2370 2366 2435
8 2439 2370 2366 2435 2440 2371 2367 2436
8 2440 2371 2367 2436 2441 2372 2368 2437
8 2441 2372 2368 2437 2442 2373 2369 2438
8 2442 2373 2369 2438 4040 3998 3994 4036
8 4041 3999 3996 4038 2443 2374 3997 4039
8 2443 2374 3997 4039 2444 2375 2370 2439
8 2444 2375 2370 2439 2445 2376 2371 2440
8 2445 2376 2371 2440 2446 2377 2372 2441
8 2446 2377 2372 2441 2447 2378 2373 2442
8 2447 2378 2373 2442 4042 4000 3998 4040
8 4046 4004 3999 4041 2448 2379 2374 2443
8 2448 2379 2374 2443 2449 2380 2375 2444
8 2449 2380 2375 2444 2450 2381 2376 2445
8 2450 2381 2376 2445 2451 2382 2377 2446
8 2451 2382 2377 2446 4047 4005 2378 2447
8 4047 4005 2378 2447 4048 4006 4000 4042
8 2452 2383 4001 4043 2453 2384 4002 4044
8 2453 2384 4002 4044 2454 2385 4003 4045
8 2454 2385 4003 4045 2455 2386 4004 4046
8 2455 2386 4004 4046 2456 2387 2379 2448
8 2456 2387 2379 2448 2457 2388 2380 2449
8 2457 2388 2380 2449 2458 2389 2381 2450
8 2458 2389 2381 2450 2459 2390 2382 2451
8 2459 2390 2382 2451 4049 4007 4005 4047
8 2460 2391 2383 2452 2461 2392 2384 2453
8 2461 2392 2384 2453 2462 2393 2385 2454
8 2462 2393 2385 2454 2463 2394 2386 2455
8 2463 2394 2386 2455 2464 2395 2387 2456
8 2464 2395 2387 2456 2465 2396 2388 2457
8 2465 2396 2388 2457 2466 2397 2389 2458
8 2466 2397 2389 2458 2467 2398 2390 2459
8 2467 2398 2390 2459 4050 4008 4007 4049
8 2468 2399 2391 2460 2469 2400 2392 2461
8 2469 2400 2392 2461 2470 2401 2393 2462
8 2470 2401 2393 2462 2471 2402 2394 2463
8 2471 2402 2394 2463 2472 2403 2395 2464
8 2472 2403 2395 2464 2473 2404 2396 2465
8 2473 2404 2396 2465 2474 2405 2397 2466
8 2474 2405 2397 2466 2475 2406 2398 2467
8 2475 2406 2398 2467 4051 4009 4008 4050
8 4055 4013 4010 4052 2476 2407 4011 4053
8 2476 2407 4011 4053 4056 4014 4012 4054
8 4064 4022 4013 4055 4065 4023 2407 2476
8 4065 4023 2407 2476 2477 2408 4014 4056
8 2477 2408 4014 4056 2478 2409 4015 4057
8 2478 2409 4015 4057 2479 2410 4016 4058
8 2479 2410 4016 4058 2480 2411 4017 4059
8 2480 2411 4017 4059 2481 2412 4018 4060
8 2481 2412 4018 4060 2482 2413 4019 4061
8 2482 2413 4019 4061 4066 4024 4020 4062
8 4066 4024 4020 4062 4067 4025 4021 4063
8 4068 4026 4023 4065 2483 2414 2408 2477
8 2483 2414 2408 2477 2484 2415 2409 2478
8 2484 2415 2409 2478 2485 2416 2410 2479
8 2485 2416 2410 2479 2486 2417 2411 2480
8 2486 2417 2411 2480 2487 2418 2412 2481
8 2487 2418 2412 2481 2488 2419 2413 2482
8 2488 2419 2413 2482 4069 4027 4024 4066
8 4070 4028 4026 4068 2489 2420 2414 2483
8 2489 2420 2414 2483 2490 2421 2415 2484
8 2490 2421 2415 2484 2491 2422 2416 2485
8 2491 2422 2416 2485 2492 2423 2417 2486
8 2492 2423 2417 2486 2493 2424 2418 2487
8 2493 2424 2418 2487 4071 4029 2419 2488
8 4071 4029 2419 2488 4072 4030 4027 4069
8 4073 4031 4028 4070 2494 2425 2420 2489
8 2494 2425 2420 2489 2495 2426 2421 2490
8 2495 2426 2421 2490 2496 2427 2422 2491
8 2496 2427 2422 2491 2497 2428 2423 2492
8 2497 2428 2423 2492 2498 2429 2424 2493
8 2498 2429 2424 2493 4074 4032 4029 4071
8 4075 4033 4031 4073 2499 2430 2425 2494
8 2499 2430 2425 2494 2500 2431 2426 2495
8 2500 2431 2426 2495 2501 2432 2427 2496
8 2501 2432 2427 2496 2502 2433 2428 2497
8 2502 2433 2428 2497 2503 2434 2429 2498
8 2503 2434 2429 2498 4076 4034 4032 4074
8 4077 4035 4033 4075 2504 2435 2430 2499
8 2504 2435 2430 2499 2505 2436 2431 2500
8 2505 2436 2431 2500 2506 2437 2432 2501
8 2506 2437 2432 2501 2507 2438 2433 2502
8 2507 2438 2433 2502 4078 4036 2434 2503
8 4078 4036 2434 2503 4079 4037 4034 4076
8 4081 4039 4035 4077 2508 2439 2435 2504
8 2508 2439 2435 2504 2509 2440 2436 2505
8 2509 2440 2436 2505 2510 2441 2437 2506
8 2510 2441 2437 2506 2511 2442 2438 2507
8 2511 2442 2438 2507 4082 4040 4036 4078
8 4083 4041 4038 4080 2512 2443 4039 4081
8 2512 2443 4039 4081 2513 2444 2439 2508
8 2513 2444 2439 2508 2514 2445 2440 2509
8 2514 2445 2440 2509 2515 2446 2441 2510
8 2515 2446 2441 2510 2516 2447 2442 2511
8 2516 2447 2442 2511 4084 4042 4040 4082
8 4088 4046 4041 4083 2517 2448 2443 2512
8 2517 2448 2443 2512 2518 2449 2444 2513
8 2518 2449 2444 2513 2519 2450 2445 2514
8 2519 2450 2445 2514 2520 2451 2446 2515
8 2520 2451 2446 2515 4089 4047 2447 2516
8 4089 4047 2447 2516 4090 4048 4042 4084
8 2521 2452 4043 4085 2522 2453 4044 4086
8 2522 2453 4044 4086 2523 2454 4045 4087
8 2523 2454 4045 4087 2524 2455 4046 4088
8 2524 2455 4046 4088 2525 2456 2448 2517
8 2525 2456 2448 2517 2526 2457 2449 2518
8 2526 2457 2449 2518 2527 2458 2450 2519
8 2527 2458 2450 2519 2528 2459 2451 2520
8 2528 2459 2451 2520 4091 4049 4047 4089
8 2529 2460 2452 2521 2530 2461 2453 2522
8 2530 2461 2453 2522 2531 2462 2454 2523
8 2531 2462 2454 2523 2532 2463 2455 2524
8 2532 2463 2455 2524 2533 2464 2456 2525
8 2533 2464 2456 2525 2534 2465 2457 2526
8 2534 2465 2457 2526 2535 2466 2458 2527
8 2535 2466 2458 2527 2536 2467 2459 2528
8 2536 2467 2459 2528 4092 4050 4049 4091
8 2537 2468 2460 2529 2538 2469 2461 2530
8 2538 2469 2461 2530 2539 2470 2462 2531
8 2539 2470 2462 2531 2540 2471 2463 2532
8 2540 2471 2463 2532 2541 2472 2464 2533
8 2541 2472 2464 2533 2542 2473 2465 2534
8 2542 2473 2465 2534 2543 2474 2466 2535
8 2543 2474 2466 2535 2544 2475 2467 2536
8 2544 2475 2467 2536 4093 4051 4050 4092
8 4097 4055 4052 4094 2545 2476 4053 4095
8 2545 2476 4053 4095 4098 4056 4054 4096
8 4106 4064 4055 4097 4107 4065 2476 2545
8 4107 4065 2476 2545 2546 2477 4056 4098
8 2546 2477 4056 4098 2547 2478 4057 4099
8 2547 2478 4057 4099 2548 2479 4058 4100
8 2548 2479 4058 4100 2549 2480 4059 4101
8 2549 2480 4059 4101 2550 2481 4060 4102
8 2550 2481 4060 4102 2551 2482 4061 4103
8 2551 2482 4061 4103 4108 4066 4062 4104
8 4108 4066 4062 4104 4109 4067 4063 4105
8 4110 4068 4065 4107 2552 2483 2477 2546
8 2552 2483 2477 2546 2553 2484 2478 2547
8 2553 2484 2478 2547 2554 2485 2479 2548
8 2554 2485 2479 2548 2555 2486 2480 2549
8 2555 2486 2480 2549 2556 2487 2481 2550
8 2556 2487 2481 2550 2557 2488 2482 2551
8 2557 2488 2482 2551 4111 4069 4066 4108
8 4112 4070 4068 4110 2558 2489 2483 2552
8 2558 2489 2483 2552 2559 2490 2484 2553
8 2559 2490 2484 2553 2560 2491 2485 2554
8 2560 2491 2485 2554 2561 2492 2486 2555
8 2561 2492 2486 2555 2562 2493 2487 2556
8 2562 2493 2487 2556 4113 4071 2488 2557
8 4113 4071 2488 2557 4114 4072 4069 4111
8 4115 4073 4070 4112 2563 2494 2489 2558
8 2563 2494 2489 2558 2564 2495 2490 2559
8 2564 2495 2490 2559 2565 2496 2491 2560
8 2565 2496 2491 2560 2566 2497 2492 2561
8 2566 2497 2492 2561 2567 2498 2493 2562
8 2567 2498 2493 2562 4116 4074 4071 4113
8 4117 4075 4073 4115 2568 2499 2494 2563
8 2568 2499 2494 2563 2569 2500 2495 2564
8 2569 2500 2495 2564 2570 2501 2496 2565
8 2570 2501 2496 2565 2571 2502 2497 2566
8 2571 2502 2497 2566 2572 2503 2498 2567
8 2572 2503 2498 2567 4118 4076 4074 4116
8 4119 4077 4075 4117 2573 2504 2499 2568
8 2573 2504 2499 2568 2574 2505 2500 2569
8 2574 2505 2500 2569 2575 2506 2501 2570
8 2575 2506 2501 2570 2576 2507 2502 2571
8 2576 2507 2502 2571 4120 4078 2503 2572
8 4120 4078 2503 2572 4121 4079 4076 4118
8 4123 4081 4077 4119 2577 2508 2504 2573
8 2577 2508 2504 2573 2578 2509 2505 2574
8 2578 2509 2505 2574 2579 2510 2506 2575
8 2579 2510 2506 2575 2580 2511 2507 2576
8 2580 2511 2507 2576 4124 4082 4078 4120
8 4125 4083 4080 4122 2581 2512 4081 4123
8 2581 2512 4081 4123 2582 2513 2508 2577
8 2582 2513 2508 2577 2583 2514 2509 2578
8 2583 2514 2509 2578 2584 2515 2510 2579
8 2584 2515 2510 2579 2585 2516 2511 2580
8 2585 2516 2511 2580 4126 4084 4082 4124
8 4130 4088 4083 4125 2586 2517 2512 2581
8 2586 2517 2512 2581 2587 2518 2513 2582
8 2587 2518 2513 2582 2588 2519 2514 2583
8 2588 2519 2514 2583 2589 2520 2515 2584
8 2589 2520 2515 2584 4131 4089 2516 2585
8 4131 4089 2516 2585 4132 4090 4084 4126
8 2590 2521 4085 4127 2591 2522 4086 4128
8 2591 2522 4086 4128 2592 2523 4087 4129
8 2592 2523 4087 4129 2593 2524 4088 4130
8 2593 2524 4088 4130 2594 2525 2517 2586
8 2594 2525 2517 2586 2595 2526 2518 2587
8 2595 2526 2518 2587 2596 2527 2519 2588
8 2596 2527 2519 2588 2597 2528 2520 2589
8 2597 2528 2520 2589 4133 4091 4089 4131
8 2598 2529 2521 2590 2599 2530 2522 2591
8 2599 2530 2522 2591 2600 2531 2523 2592
8 2600 2531 2523 2592 2601 2532 2524 2593
8 2601 2532 2524 2593 2602 2533 2525 2594
8 2602 2533 2525 2594 2603 2534 2526 2595
8 2603 2534 2526 2595 2604 2535 2527 2596
8 2604 2535 2527 2596 2605 2536 2528 2597
8 2605 2536 2528 2597 4134 4092 4091 4133
8 2606 2537 2529 2598 2607 2538 2530 2599
8 2607 2538 2530 2599 2608 2539 2531 2600
8 2608 2539 2531 2600 2609 2540 2532 2601
8 2609 2540 2532 2601 2610 2541 2533 2602
8 2610 2541 2533 2602 2611 2542 2534 2603
8 2611 2542 2534 2603 2612 2543 2535 2604
8 2612 2543 2535 2604 2613 2544 2536 2605
8 2613 2544 2536 2605 4135 4093 4092 4134
8 4139 4097 4094 4136 2614 2545 4095 4137
8 2614 2545 4095 4137 4140 4098 4096 4138
8 4148 4106 4097 4139 4149 4107 2545 2614
8 4149 4107 2545 2614 2615 2546 4098 4140
8 2615 2546 4098 4140 2616 2547 4099 4141
8 2616 2547 4099 4141 2617 2548 4100 4142
8 2617 2548 4100 4142 2618 2549 4101 4143
8 2618 2549 4101 4143 2619 2550 4102 4144
8 2619 2550 4102 4144 2620 2551 4103 4145
8 2620 2551 4103 4145 4150 4108 4104 4146
8 4150 4108 4104 4146 4151 4109 4105 4147
8 4152 4110 4107 4149 2621 2552 2546 2615
8 2621 2552 2546 2615 2622 2553 2547 2616
8 2622 2553 2547 2616 2623 2554 2548 2617
8 2623 2554 2548 2617 2624 2555 2549 2618
8 2624 2555 2549 2618 2625 2556 2550 2619
8 2625 2556 2550 2619 2626 2557 2551 2620
8 2626 2557 2551 2620 4153 4111 4108 4150
8 4154 4112 4110 4152 2627 2558 2552 2621
8 2627 2558 2552 2621 2628 2559 2553 2622
8 2628 2559 2553 2622 2629 2560 2554 2623
8 2629 2560 2554 2623 2630 2561 2555 2624
8 2630 2561 2555 2624 2631 2562 2556 2625
8 2631 2562 2556 2625 4155 4113 2557 2626
8 4155 4113 2557 2626 4156 4114 4111 4153
8 4157 4115 4112 4154 2632 2563 2558 2627
8 2632 2563 2558 2627 2633 2564 2559 2628
8 2633 2564 2559 2628 2634 2565 2560 2629
8 2634 2565 2560 2629 2635 2566 2561 2630
8 2635 2566 2561 2630 2636 2567 2562 2631
8 2636 2567 2562 2631 4158 4116 4113 4155
8 4159 4117 4115 4157 2637 2568 2563 2632
8 2637 2568 2563 2632 2638 2569 2564 2633
8 2638 2569 2564 2633 2639 2570 2565 2634
8 2639 2570 2565 2634 2640 2571 2566 2635
8 2640 2571 2566 2635 2641 2572 2567 2636
8 2641 2572 2567 2636 4160 4118 4116 4158
8 4161 4119 4117 4159 2642 2573 2568 2637
8 2642 2573 2568 2637 2643 2574 2569 2638
8 2643 2574 2569 2638 2644 2575 2570 2639
8 2644 2575 2570 2639 2645 2576 2571 2640
8 2645 2576 2571 2640 4162 4120 2572 2641
8 4162 4120 2572 2641 4163 4121 4118 4160
8 4165 4123 4119 4161 2646 2577 2573 2642
8 2646 2577 2573 2642 2647 2578 2574 2643
8 2647 2578 2574 2643 2648 2579 2575 2644
8 2648 2579 2575 2644 2649 2580 2576 2645
8 2649 2580 2576 2645 4166 4124 4120 4162
8 4167 4125 4122 4164 2650 2581 4123 4165
8 2650 2581 4123 4165 2651 2582 2577 2646
8 2651 2582 2577 2646 2652 2583 2578 2647
8 2652 2583 2578 2647 2653 2584 2579 2648
8 2653 2584 2579 2648 2654 2585 2580 2649
8 2654 2585 2580 2649 4168 4126 4124 4166
8 4172 4130 4125 4167 2655 2586 2581 2650
8 2655 2586 2581 2650 2656 2587 2582 2651
8 2656 2587 2582 2651 2657 2588 2583 2652
8 2657 2588 2583 2652 2658 2589 2584 2653
8 2658 2589 2584 2653 4173 4131 2585 2654
8 4173 4131 2585 2654 4174 4132 4126 4168
8 2659 2590 4127 4169 2660 2591 4128 4170
8 2660 2591 4128 4170 2661 2592 4129 4171
8 2661 2592 4129 4171 2662 2593 4130 4172
8 2662 2593 4130 4172 2663 2594 2586 2655
8 2663 2594 2586 2655 2664 2595 2587 2656
8 2664 2595 2587 2656 2665 2596 2588 2657
8 2665 2596 2588 2657 2666 2597 2589 2658
8 2666 2597 2589 2658 4175 4133 4131 4173
8 2667 2598 2590 2659 2668 2599 2591 2660
8 2668 2599 2591 2660 2669 2600 2592 2661
8 2669 2600 2592 2661 2670 2601 2593 2662
8 2670 2601 2593 2662 2671 2602 2594 2663
8 2671 2602 2594 2663 2672 2603 2595 2664
8 2672 2603 2595 2664 2673 2604 2596 2665
8 2673 2604 2596 2665 2674 2605 2597 2666
8 2674 2605 2597 2666 4176 4134 4133 4175
8 2675 2606 2598 2667 2676 2607 2599 2668
8 2676 2607 2599 2668 2677 2608 2600 2669
8 2677 2608 2600 2669 2678 2609 2601 2670
8 2678 2609 2601 2670 2679 2610 2602 2671
8 2679 2610 2602 2671 2680 2611 2603 2672
8 2680 2611 2603 2672 2681 2612 2604 2673
8 2681 2612 2604 2673 2682 2613 2605 2674
8 2682 2613 2605 2674 4177 4135 4134 4176
8 4181 4139 4136 4178 2683 2614 4137 4179
8 2683 2614 4137 4179 4182 4140 4138 4180
8 4190 4148 4139 4181 4191 4149 2614 2683
8 4191 4149 2614 2683 2684 2615 4140 4182
8 2684 2615 4140 4182 2685 2616 4141 4183
8 2685 2616 4141 4183 2686 2617 4142 4184
8 2686 2617 4142 4184 2687 2618 4143 4185
8 2687 2618 4143 4185 2688 2619 4144 4186
8 2688 2619 4144 4186 2689 2620 4145 4187
8 2689 2620 4145 4187 4192 4150 4146 4188
8 4192 4150 4146 4188 4193 4151 4147 4189
8 4194 4152 4149 4191 2690 2621 2615 2684
8 2690 2621 2615 2684 2691 2622 2616 2685
8 2691 2622 2616 2685 2692 2623 2617 2686
8 2692 2623 2617 2686 2693 2624 2618 2687
8 2693 2624 2618 2687 2694 2625 2619 2688
8 2694 2625 2619 2688 2695 2626 2620 2689
8 2695 2626 2620 2689 4195 4153 4150 4192
8 4196 4154 4152 4194 2696 2627 2621 2690
8 2696 2627 2621 2690 2697 2628 2622 2691
8 2697 2628 2622 2691 2698 2629 2623 2692
8 2698 2629 2623 2692 2699 2630 2624 2693
8 2699 2630 2624 2693 2700 2631 2625 2694
8 2700 2631 2625 2694 4197 4155 2626 2695
8 4197 4155 2626 2695 4198 4156 4153 4195
8 4199 4157 4154 4196 2701 2632 2627 2696
8 2701 2632 2627 2696 2702 2633 2628 2697
8 2702 2633 2628 2697 2703 2634 2629 2698
8 2703 2634 2629 2698 2704 2635 2630 2699
8 2704 2635 2630 2699 2705 2636 2631 2700
8 2705 2636 2631 2700 4200 4158 4155 4197
8 4201 4159 4157 4199 2706 2637 2632 2701
8 2706 2637 2632 2701 2707 2638 2633 2702
8 2707 2638 2633 2702 2708 2639 2634 2703
8 2708 2639 2634 2703 2709 2640 2635 2704
8 2709 2640 2635 2704 2710 2641 2636 2705
8 2710 2641 2636 2705 4202 4160 4158 4200
8 4203 4161 4159 4201 2711 2642 2637 2706
8 2711 2642 2637 2706 2712 2643 2638 2707
8 2712 2643 2638 2707 2713 2644 2639 2708
8 2713 2644 2639 2708 2714 2645 2640 2709
8 2714 2645 2640 2709 4204 4162 2641 2710
8 4204 4162 2641 2710 4205 4163 4160 4202
8 4207 4165 4161 4203 2715 2646 2642 2711
8 2715 2646 2642 2711 2716 2647 2643 2712
8 2716 2647 2643 2712 2717 2648 2644 2713
8 2717 2648 2644 2713 2718 2649 2645 2714
8 2718 2649 2645 2714 4208 4166 4162 4204
8 4209 4167 4164 4206 2719 2650 4165 4207
8 2719 2650 4165 4207 2720 2651 2646 2715
8 2720 2651 2646 2715 2721 2652 2647 2716
8 2721 2652 2647 2716 2722 2653 2648 2717
8 2722 2653 2648 2717 2723 2654 2649 2718
8 2723 2654 2649 2718 4210 4168 4166 4208
8 4214 4172 4167 4209 2724 2655 2650 2719
8 2724 2655 2650 2719 2725 2656 2651 2720
8 2725 2656 2651 2720 2726 2657 2652 2721
8 2726 2657 2652 2721 2727 2658 2653 2722
8 2727 2658 2653 2722 4215 4173 2654 2723
8 4215 4173 2654 2723 4216 4174 4168 4210
8 2728 2659 4169 4211 2729 2660 4170 4212
8 2729 2660 4170 4212 2730 2661 4171 4213
8 2730 2661 4171 4213 2731 2662 4172 4214
8 2731 2662 4172 4214 2732 2663 2655 2724
8 2732 2663 2655 2724 2733 2664 2656 2725
8 2733 2664 2656 2725 2734 2665 2657 2726
8 2734 2665 2657 2726 2735 2666 2658 2727
8 2735 2666 2658 2727 4217 4175 4173 4215
8 2736 2667 2659 2728 2737 2668 2660 2729
8 2737 2668 2660 2729 2738 2669 2661 2730
8 2738 2669 2661 2730 2739 2670 2662 2731
8 2739 2670 2662 2731 2740 2671 2663 2732
8 2740 2671 2663 2732 2741 2672 2664 2733
8 2741 2672 2664 2733 2742 2673 2665 2734
8 2742 2673 2665 2734 2743 2674 2666 2735
8 2743 2674 2666 2735 4218 4176 4175 4217
8 2744 2675 2667 2736 2745 2676 2668 2737
8 2745 2676 2668 2737 2746 2677 2669 2738
8 2746 2677 2669 2738 2747 2678 2670 2739
8 2747 2678 2670 2739 2748 2679 2671 2740
8 2748 2679 2671 2740 2749 2680 2672 2741
8 2749 2680 2672 2741 2750 2681 2673 2742
8 2750 2681 2673 2742 2751 2682 2674 2743
8 2751 2682 2674 2743 4219 4177 4176 4218
8 4223 4181 4178 4220 2752 2683 4179 4221
8 2752 2683 4179 4221 4224 4182 4180 4222
8 4232 4190 4181 4223 4233 4191 2683 2752
8 4233 4191 2683 2752 2753 2684 4182 4224
8 2753 2684 4182 4224 2754 2685 4183 4225
8 2754 2685 4183 4225 2755 2686 4184 4226
8 2755 2686 4184 4226 2756 2687 4185 4227
8 2756 2687 4185 4227 2757 2688 4186 4228
8 2757 2688 4186 4228 2758 2689 4187 4229
8 2758 2689 4187 4229 4234 4192 4188 4230
8 4234 4192 4188 4230 4235 4193 4189 4231
8 4236 4194 4191 4233 2759 2690 2684 2753
8 2759 2690 2684 2753 2760 2691 2685 2754
8 2760 2691 2685 2754 2761 2692 2686 2755
8 2761 2692 2686 2755 2762 2693 2687 2756
8 2762 2693 2687 2756 2763 2694 2688 2757
8 2763 2694 2688 2757 2764 2695 2689 2758
8 2764 2695 2689 2758 4237 4195 4192 4234
8 4238 4196 4194 4236 2765 2696 2690 2759
8 2765 2696 2690 2759 2766 2697 2691 2760
8 2766 2697 2691 2760 2767 2698 2692 2761
8 2767 2698 2692 2761 2768 2699 2693 2762
8 2768 2699 2693 2762 2769 2700 2694 2763
8 2769 2700 2694 2763 4239 4197 2695 2764
8 4239 4197 2695 2764 4240 4198 4195 4237
8 4241 4199 4196 4238 2770 2701 2696 2765
8 2770 2701 2696 2765 2771 2702 2697 2766
8 2771 2702 2697 2766 2772 2703 2698 2767
8 2772 2703 2698 2767 2773 2704 2699 2768
8 2773 2704 2699 2768 2774 2705 2700 2769
8 2774 2705 2700 2769 4242 4200 4197 4239
8 4243 4201 4199 4241 2775 2706 2701 2770
8 2775 2706 2701 2770 2776 2707 2702 2771
8 2776 2707 2702 2771 2777 2708 2703 2772
8 2777 2708 2703 2772 2778 2709 2704 2773
8 2778 2709 2704 2773 2779 2710 2705 2774
8 2779 2710 2705 2774 4244 4202 4200 4242
8 4245 4203 4201 4243 2780 2711 2706 2775
8 2780 2711 2706 2775 2781 2712 2707 2776
8 2781 2712 2707 2776 2782 2713 2708 2777
8 2782 2713 2708 2777 2783 2714 2709 2778
8 2783 2714 2709 2778 4246 4204 2710 2779
8 4246 4204 2710 2779 4247 4205 4202 4244
8 4249 4207 4203 4245 2784 2715 2711 2780
8 2784 2715 2711 2780 2785 2716 2712 2781
8 2785 2716 2712 2781 2786 2717 2713 2782
8 2786 2717 2713 2782 2787 2718 2714 2783
8 2787 2718 2714 2783 4250 4208 4204 4246
8 4251 4209 4206 4248 2788 2719 4207 4249
8 2788 2719 4207 4249 2789 2720 2715 2784
8 2789 2720 2715 2784 2790 2721 2716 2785
8 2790 2721 2716 2785 2791 2722 2717 2786
8 2791 2722 2717 2786 2792 2723 2718 2787
8 2792 2723 2718 2787 4252 4210 4208 4250
8 4256 4214 4209 4251 2793 2724 2719 2788
8 2793 2724 2719 2788 2794 2725 2720 2789
8 2794 2725 2720 2789 2795 2726 2721 2790
8 2795 2726 2721 2790 2796 2727 2722 2791
8 2796 2727 2722 2791 4257 4215 2723 2792
8 4257 4215 2723 2792 4258 4216 4210 4252
8 2797 2728 4211 4253 2798 2729 4212 4254
8 2798 2729 4212 4254 2799 2730 4213 4255
8 2799 2730 4213 4255 2800 2731 4214 4256
8 2800 2731 4214 4256 2801 2732 2724 2793
8 2801 2732 2724 2793 2802 2733 2725 2794
8 2802 2733 2725 2794 2803 2734 2726 2795
8 2803 2734 2726 2795 2804 2735 2727 2796
8 2804 2735 2727 2796 4259 4217 4215 4257
8 2805 2736 2728 2797 2806 2737 2729 2798
8 2806 2737 2729 2798 2807 2738 2730 2799
8 2807 2738 2730 2799 2808 2739 2731 2800
8 2808 2739 2731 2800 2809 2740 2732 2801
8 2809 2740 2732 2801 2810 2741 2733 2802
8 2810 2741 2733 2802 2811 2742 2734 2803
8 2811 2742 2734 2803 2812 2743 2735 2804
8 2812 2743 2735 2804 4260 4218 4217 4259
8 2813 2744 2736 2805 2814 2745 2737 2806
8 2814 2745 2737 2806 2815 2746 2738 2807
8 2815 2746 2738 2807 2816 2747 2739 2808
8 2816 2747 2739 2808 2817 2748 2740 2809
8 2817 2748 2740 2809 2818 2749 2741 2810
8 2818 2749 2741 2810 2819 2750 2742 2811
8 2819 2750 2742 2811 2820 2751 2743 2812
8 2820 2751 2743 2812 4261 4219 4218 4260
8 4265 4223 4220 4262 2821 2752 4221 4263
8 2821 2752 4221 4263 4266 4224 4222 4264
8 4274 4232 4223 4265 4275 4233 2752 2821
8 4275 4233 2752 2821 2822 2753 4224 4266
8 2822 2753 4224 4266 2823 2754 4225 4267
8 2823 2754 4225 4267 2824 2755 4226 4268
8 2824 2755 4226 4268 2825 2756 4227 4269
8 2825 2756 4227 4269 2826 2757 4228 4270
8 2826 2757 4228 4270 2827 2758 4229 4271
8 2827 2758 4229 4271 4276 4234 4230 4272
8 4276 4234 4230 4272 4277 4235 4231 4273
8 4278 4236 4233 4275 2828 2759 2753 2822
8 2828 2759 2753 2822 2829 2760 2754 2823
8 2829 2760 2754 2823 2830 2761 2755 2824
8 2830 2761 2755 2824 2831 2762 2756 2825
8 2831 2762 2756 2825 2832 2763 2757 2826
8 2832 2763 2757 2826 2833 2764 2758 2827
8 2833 2764 2758 2827 4279 4237 4234 4276
8 4280 4238 4236 4278 2834 2765 2759 2828
8 2834 2765 2759 2828 2835 2766 2760 2829
8 2835 2766 2760 2829 2836 2767 2761 2830
8 2836 2767 2761 2830 2837 2768 2762 2831
8 2837 2768 2762 2831 2838 2769 2763 2832
8 2838 2769 2763 2832 4281 4239 2764 2833
8 4281 4239 2764 2833 4282 4240 4237 4279
8 4283 4241 4238 4280 2839 2770 2765 2834
8 2839 2770 2765 2834 2840 2771 2766 2835
8 2840 2771 2766 2835 2841 2772 2767 2836
8 2841 2772 2767 2836 2842 2773 2768 2837
8 2842 2773 2768 2837 2843 2774 2769 2838
8 2843 2774 2769 2838 4284 4242 4239 4281
8 4285 4243 4241 4283 2844 2775 2770 2839
8 2844 2775 2770 2839 2845 2776 2771 2840
8 2845 2776 2771 2840 2846 2777 2772 2841
8 2846 2777 2772 2841 2847 2778 2773 2842
8 2847 2778 2773 2842 2848 2779 2774 2843
8 2848 2779 2774 2843 4286 4244 4242 4284
8 4287 4245 4243 4285 2849 2780 2775 2844
8 2849 2780 2775 2844 2850 2781 2776 2845
8 2850 2781 2776 2845 2851 2782 2777 2846
8 2851 2782 2777 2846 2852 2783 2778 2847
8 2852 2783 2778 2847 4288 4246 2779 2848
8 4288 4246 2779 2848 4289 4247 4244 4286
8 4291 4249 4245 4287 2853 2784 2780 2849
8 2853 2784 2780 2849 2854 2785 2781 2850
8 2854 2785 2781 2850 2855 2786 2782 2851
8 2855 2786 2782 2851 2856 2787 2783 2852
8 2856 2787 2783 2852 4292 4250 4246 4288
8 4293 4251 4248 4290 2857 2788 4249 4291
8 2857 2788 4249 4291 2858 2789 2784 2853
8 2858 2789 2784 2853 2859 2790 2785 2854
8 2859 2790 2785 2854 2860 2791 2786 2855
8 2860 2791 2786 2855 2861 2792 2787 2856
8 2861 2792 2787 2856 4294 4252 4250 4292
8 4298 4256 4251 4293 2862 2793 2788 2857
8 2862 2793 2788 2857 2863 2794 2789 2858
8 2863 2794 2789 2858 2864 2795 2790 2859
8 2864 2795 2790 2859 2865 2796 2791 2860
8 2865 2796 2791 2860 4299 4257 2792 2861
8 4299 4257 2792 2861 4300 4258 4252 4294
8 2866 2797 4253 4295 2867 2798 4254 4296
8 2867 2798 4254 4296 2868 2799 4255 4297
8 2868 2799 4255 4297 2869 2800 4256 4298
8 2869 2800 4256 4298 2870 2801 2793 2862
8 2870 2801 2793 2862 2871 2802 2794 2863
8 2871 2802 2794 2863 2872 2803 2795 2864
8 2872 2803 2795 2864 2873 2804 2796 2865
8 2873 2804 2796 2865 4301 4259 4257 4299
8 2874 2805 2797 2866 2875 2806 2798 2867
8 2875 2806 2798 2867 2876 2807 2799 2868
8 2876 2807 2799 2868 2877 2808 2800 2869
8 2877 2808 2800 2869 2878 2809 2801 2870
8 2878 2809 2801 2870 2879 2810 2802 2871
8 2879 2810 2802 2871 2880 2811 2803 2872
8 2880 2811 2803 2872 2881 2812 2804 2873
8 2881 2812 2804 2873 4302 4260 4259 4301
8 2882 2813 2805 2874 2883 2814 2806 2875
8 2883 2814 2806 2875 2884 2815 2807 2876
8 2884 2815 2807 2876 2885 2816 2808 2877
8 2885 2816 2808 2877 2886 2817 2809 2878
8 2886 2817 2809 2878 2887 2818 2810 2879
8 2887 2818 2810 2879 2888 2819 2811 2880
8 2888 2819 2811 2880 2889 2820 2812 2881
8 2889 2820 2812 2881 4303 4261 4260 4302
8 4307 4265 4262 4304 2890 2821 4263 4305
8 2890 2821 4263 4305 4308 4266 4264 4306
8 4316 4274 4265 4307 4317 4275 2821 2890
8 4317 4275 2821 2890 2891 2822 4266 4308
8 2891 2822 4266 4308 2892 2823 4267 4309
8 2892 2823 4267 4309 2893 2824 4268 4310
8 2893 2824 4268 4310 2894 2825 4269 4311
8 2894 2825 4269 4311 2895 2826 4270 4312
8 2895 2826 4270 4312 2896 2827 4271 4313
8 2896 2827 4271 4313 4318 4276 4272 4314
8 4318 4276 4272 4314 4319 4277 4273 4315
8 4320 4278 4275 4317 2897 2828 2822 2891
8 2897 2828 2822 2891 2898 2829 2823 2892
8 2898 2829 2823 2892 2899 2830 2824 2893
8 2899 2830 2824 2893 2900 2831 2825 2894
8 2900 2831 2825 2894 2901 2832 2826 2895
8 2901 2832 2826 2895 2902 2833 2827 2896
8 2902 2833 2827 2896 4321 4279 4276 4318
8 4322 4280 4278 4320 2903 2834 2828 2897
8 2903 2834 2828 2897 2904 2835 2829 2898
8 2904 2835 2829 2898 2905 2836 2830 2899
8 2905 2836 2830 2899 2906 2837 2831 2900
8 2906 2837 2831 2900 2907 2838 2832 2901
8 2907 2838 2832 2901 4323 4281 2833 2902
8 4323 4281 2833 2902 4324 4282 4279 4321
8 4325 4283 4280 4322 2908 2839 2834 2903
8 2908 2839 2834 2903 2909 2840 2835 2904
8 2909 2840 2835 2904 2910 2841 2836 2905
8 2910 2841 2836 2905 2911 2842 2837 2906
8 2911 2842 2837 2906 2912 2843 2838 2907
8 2912 2843 2838 2907 4326 4284 4281 4323
8 4327 4285 4283 4325 2913 2844 2839 2908
8 2913 2844 2839 2908 2914 2845 2840 2909
8 2914 2845 2840 2909 2915 2846 2841 2910
8 2915 2846 2841 2910 2916 2847 2842 2911
8 2916 2847 2842 2911 2917 2848 2843 2912
8 2917 2848 2843 2912 4328 4286 4284 4326
8 4329 4287 4285 4327 2918 2849 2844 2913
8 2918 2849 2844 2913 2919 2850 2845 2914
8 2919 2850 2845 2914 2920 2851 2846 2915
8 2920 2851 2846 2915 2921 2852 2847 2916
8 2921 2852 2847 2916 4330 4288 2848 2917
8 4330 4288 2848 2917 4331 4289 4286 4328
8 4333 4291 4287 4329 2922 2853 2849 2918
8 2922 2853 2849 2918 2923 2854 2850 2919
8 2923 2854 2850 2919 2924 2855 2851 2920
8 2924 2855 2851 2920 2925 2856 2852 2921
8 2925 2856 2852 2921 4334 4292 4288 4330
8 4335 4293 4290 4332 2926 2857 4291 4333
8 2926 2857 4291 4333 2927 2858 2853 2922
8 2927 2858 2853 2922 2928 2859 2854 2923
8 2928 2859 2854 2923 2929 2860 2855 2924
8 2929 2860 2855 2924 2930 2861 2856 2925
8 2930 2861 2856 2925 4336 4294 4292 4334
8 4340 4298 4293 4335 2931 2862 2857 2926
8 2931 2862 2857 2926 2932 2863 2858 2927
8 2932 2863 2858 2927 2933 2864 2859 2928
8 2933 2864 2859 2928 2934 2865 2860 2929
8 2934 2865 2860 2929 4341 4299 2861 2930
8 4341 4299 2861 2930 4342 4300 4294 4336
8 2935 2866 4295 4337 2936 2867 4296 4338
8 2936 2867 4296 4338 2937 2868 4297 4339
8 2937 2868 4297 4339 2938 2869 4298 4340
8 2938 2869 4298 4340 2939 2870 2862 2931
8 2939 2870 2862 2931 2940 2871 2863 2932
8 2940 2871 2863 2932 2941 2872 2864 2933
8 2941 2872 2864 2933 2942 2873 2865 2934
8 2942 2873 2865 2934 4343 4301 4299 4341
8 2943 2874 2866 2935 2944 2875 2867 2936
8 2944 2875 2867 2936 2945 2876 2868 2937
8 2945 2876 2868 2937 2946 2877 2869 2938
8 2946 2877 2869 2938 2947 2878 2870 2939
8 2947 2878 2870 2939 2948 2879 2871 2940
8 2948 2879 2871 2940 2949 2880 2872 2941
8 2949 2880 2872 2941 2950 2881 2873 2942
8 2950 2881 2873 2942 4344 4302 4301 4343
8 2951 2882 2874 2943 2952 2883 2875 2944
8 2952 2883 2875 2944 2953 2884 2876 2945
8 2953 2884 2876 2945 2954 2885 2877 2946
8 2954 2885 2877 2946 2955 2886 2878 2947
8 2955 2886 2878 2947 2956 2887 2879 2948
8 2956 2887 2879 2948 2957 2888 2880 2949
8 2957 2888 2880 2949 2958 2889 2881 2950
8 2958 2889 2881 2950 4345 4303 4302 4344
8 4349 4307 4304 4346 2959 2890 4305 4347
8 2959 2890 4305 4347 4350 4308 4306 4348
8 4358 4316 4307 4349 4359 4317 2890 2959
8 4359 4317 2890 2959 2960 2891 4308 4350
8 2960 2891 4308 4350 2961 2892 4309 4351
8 2961 2892 4309 4351 2962 2893 4310 4352
8 2962 2893 4310 4352 2963 2894 4311 4353
8 2963 2894 4311 4353 2964 2895 4312 4354
8 2964 2895 4312 4354 2965 2896 4313 4355
8 2965 2896 4313 4355 4360 4318 4314 4356
8 4360 4318 4314 4356 4361 4319 4315 4357
8 4362 4320 4317 4359 2966 2897 2891 2960
8 2966 2897 2891 2960 2967 2898 2892 2961
8 2967 2898 2892 2961 2968 2899 2893 2962
8 2968 2899 2893 2962 2969 2900 2894 2963
8 2969 2900 2894 2963 2970 2901 2895 2964
8 2970 2901 2895 2964 2971 2902 2896 2965
8 2971 2902 2896 2965 4363 4321 4318 4360
8 4364 4322 4320 4362 2972 2903 2897 2966
8 2972 2903 2897 2966 2973 2904 2898 2967
8 2973 2904 2898 2967 2974 2905 2899 2968
8 2974 2905 2899 2968 2975 2906 2900 2969
8 2975 2906 2900 2969 2976 2907 2901 2970
8 2976 2907 2901 2970 4365 4323 2902 2971
8 4365 4323 2902 2971 4366 4324 4321 4363
8 4367 4325 4322 4364 2977 2908 2903 2972
8 2977 2908 2903 2972 2978 2909 2904 2973
8 2978 2909 2904 2973 2979 2910 2905 2974
8 2979 2910 2905 2974 2980 2911 2906 2975
8 2980 2911 2906 2975 2981 2912 2907 2976
8 2981 2912 2907 2976 4368 4326 4323 4365
8 4369 4327 4325 4367 2982 2913 2908 2977
8 2982 2913 2908 2977 2983 2914 2909 2978
8 2983 2914 2909 2978 2984 2915 2910 2979
8 2984 2915 2910 2979 2985 2916 2911 2980
8 2985 2916 2911 2980 2986 2917 2912 2981
8 2986 2917 2912 2981 4370 4328 4326 4368
8 4371 4329 4327 4369 2987 2918 2913 2982
8 2987 2918 2913 2982 2988 2919 2914 2983
8 2988 2919 2914 2983 2989 2920 2915 2984
8 2989 2920 2915 2984 2990 2921 2916 2985
8 2990 2921 2916 2985 4372 4330 2917 2986
8 4372 4330 2917 2986 4373 4331 4328 4370
8 4375 4333 4329 4371 2991 2922 2918 2987
8 2991 2922 2918 2987 2992 2923 2919 2988
8 2992 2923 2919 2988 2993 2924 2920 2989
8 2993 2924 2920 2989 2994 2925 2921 2990
8 2994 2925 2921 2990 4376 4334 4330 4372
8 4377 4335 4332 4374 2995 2926 4333 4375
8 2995 2926 4333 4375 2996 2927 2922 2991
8 2996 2927 2922 2991 2997 2928 2923 2992
8 2997 2928 2923 2992 2998 2929 2924 2993
8 2998 2929 2924 2993 2999 2930 2925 2994
8 2999 2930 2925 2994 4378 4336 4334 4376
8 4382 4340 4335 4377 3000 2931 2926 2995
8 3000 2931 2926 2995 3001 2932 2927 2996
8 3001 2932 2927 2996 3002 2933 2928 2997
8 3002 2933 2928 2997 3003 2934 2929 2998
8 3003 2934 2929 2998 4383 4341 2930 2999
8 4383 4341 2930 2999 4384 4342 4336 4378
8 3004 2935 4337 4379 3005 2936 4338 4380
8 3005 2936 4338 4380 3006 2937 4339 4381
8 3006 2937 4339 4381 3007 2938 4340 4382
8 3007 2938 4340 4382 3008 2939 2931 3000
8 3008 2939 2931 3000 3009 2940 2932 3001
8 3009 2940 2932 3001 3010 2941 2933 3002
8 3010 2941 2933 3002 3011 2942 2934 3003
8 3011 2942 2934 3003 4385 4343 4341 4383
8 3012 2943 2935 3004 3013 2944 2936 3005
8 3013 2944 2936 3005 3014 2945 2937 3006
8 3014 2945 2937 3006 3015 2946 2938 3007
8 3015 2946 2938 3007 3016 2947 2939 3008
8 3016 2947 2939 3008 3017 2948 2940 3009
8 3017 2948 2940 3009 3018 2949 2941 3010
8 3018 2949 2941 3010 3019 2950 2942 3011
8 3019 2950 2942 3011 4386 4344 4343 4385
8 3020 2951 2943 3012 3021 2952 2944 3013
8 3021 2952 2944 3013 3022 2953 2945 3014
8 3022 2953 2945 3014 3023 2954 2946 3015
8 3023 2954 2946 3015 3024 2955 2947 3016
8 3024 2955 2947 3016 3025 2956 2948 3017
8 3025 2956 2948 3017 3026 2957 2949 3018
8 3026 2957 2949 3018 3027 2958 2950 3019
8 3027 2958 2950 3019 4387 4345 4344 4386
8 4391 4349 4346 4388 3028 2959 4347 4389
8 3028 2959 4347 4389 4392 4350 4348 4390
8 4400 4358 4349 4391 4401 4359 2959 3028
8 4401 4359 2959 3028 3029 2960 4350 4392
8 3029 2960 4350 4392 3030 2961 4351 4393
8 3030 2961 4351 4393 3031 2962 4352 4394
8 3031 2962 4352 4394 3032 2963 4353 4395
8 3032 2963 4353 4395 3033 2964 4354 4396
8 3033 2964 4354 4396 3034 2965 4355 4397
8 3034 2965 4355 4397 4402 4360 4356 4398
8 4402 4360 4356 4398 4403 4361 4357 4399
8 4404 4362 4359 4401 3035 2966 2960 3029
8 3035 2966 2960 3029 3036 2967 2961 3030
8 3036 2967 2961 3030 3037 2968 2962 3031
8 3037 2968 2962 3031 3038 2969 2963 3032
8 3038 2969 2963 3032 3039 2970 2964 3033
8 3039 2970 2964 3033 3040 2971 2965 3034
8 3040 2971 2965 3034 4405 4363 4360 4402
8 4406 4364 4362 4404 3041 2972 2966 3035
8 3041 2972 2966 3035 3042 2973 2967 3036
8 3042 2973 2967 3036 3043 2974 2968 3037
8 3043 2974 2968 3037 3044 2975 2969 3038
8 3044 2975 2969 3038 3045 2976 2970 3039
8 3045 2976 2970 3039 4407 4365 2971 3040
8 4407 4365 2971 3040 4408 4366 4363 4405
8 4409 4367 4364 4406 3046 2977 2972 3041
8 3046 2977 2972 3041 3047 2978 2973 3042
8 3047 2978 2973 3042 3048 2979 2974 3043
8 3048 2979 2974 3043 3049 2980 2975 3044
8 3049 2980 2975 3044 3050 2981 2976 3045
8 3050 2981 2976 3045 4410 4368 4365 4407
8 4411 4369 4367 4409 3051 2982 2977 3046
8 3051 2982 2977 3046 3052 2983 2978 3047
8 3052 2983 2978 3047 3053 2984 2979 3048
8 3053 2984 2979 3048 3054 2985 2980 3049
8 3054 2985 2980 3049 3055 2986 2981 3050
8 3055 2986 2981 3050 4412 4370 4368 4410
8 4413 4371 4369 4411 3056 2987 2982 3051
8 3056 2987 2982 3051 3057 2988 2983 3052
8 3057 2988 2983 3052 3058 2989 2984 3053
8 3058 2989 2984 3053 3059 2990 2985 3054
8 3059 2990 2985 3054 4414 4372 2986 3055
8 4414 4372 2986 3055 4415 4373 4370 4412
8 4417 4375 4371 4413 3060 2991 2987 3056
8 3060 2991 2987 3056 3061 2992 2988 3057
8 3061 2992 2988 3057 3062 2993 2989 3058
8 3062 2993 2989 3058 3063 2994 2990 3059
8 3063 2994 2990 3059 4418 4376 4372 4414
8 4419 4377 4374 4416 3064 2995 4375 4417
8 3064 2995 4375 4417 3065 2996 2991 3060
8 3065 2996 2991 3060 3066 2997 2992 3061
8 3066 2997 2992 3061 3067 2998 2993 3062
8 3067 2998 2993 3062 3068 2999 2994 3063
8 3068 2999 2994 3063 4420 4378 4376 4418
8 4424 4382 4377 4419 3069 3000 2995 3064
8 3069 3000 2995 3064 3070 3001 2996 3065
8 3070 3001 2996 3065 3071 3002 2997 3066
8 3071 3002 2997 3066 3072 3003 2998 3067
8 3072 3003 2998 3067 4425 4383 2999 3068
8 4425 4383 2999 3068 4426 4384 4378 4420
8 3073 3004 4379 4421 3074 3005 4380 4422
8 3074 3005 4380 4422 3075 3006 4381 4423
8 3075 3006 4381 4423 3076 3007 4382 4424
8 3076 3007 4382 4424 3077 3008 3000 3069
8 3077 3008 3000 3069 3078 3009 3001 3070
8 3078 3009 3001 3070 3079 3010 3002 3071
8 3079 3010 3002 3071 3080 3011 3003 3072
8 3080 3011 3003 3072 4427 4385 4383 4425
8 3081 3012 3004 3073 3082 3013 3005 3074
8 3082 3013 3005 3074 3083 3014 3006 3075
8 3083 3014 3006 3075 3084 3015 3007 3076
8 3084 3015 3007 3076 3085 3016 3008 3077
8 3085 3016 3008 3077 3086 3017 3009 3078
8 3086 3017 3009 3078 3087 3018 3010 3079
8 3087 3018 3010 3079 3088 3019 3011 3080
8 3088 3019 3011 3080 4428 4386 4385 4427
8 3089 3020 3012 3081 3090 3021 3013 3082
8 3090 3021 3013 3082 3091 3022 3014 3083
8 3091 3022 3014 3083 3092 3023 3015 3084
8 3092 3023 3015 3084 3093 3024 3016 3085
8 3093 3024 3016 3085 3094 3025 3017 3086
8 3094 3025 3017 3086 3095 3026 3018 3087
8 3095 3026 3018 3087 3096 3027 3019 3088
8 3096 3027 3019 3088 4429 4387 4386 4428
8 4433 4391 4388 4430 3097 3028 4389 4431
8 3097 3028 4389 4431 4434 4392 4390 4432
8 4442 4400 4391 4433 4443 4401 3028 3097
8 4443 4401 3028 3097 3098 3029 4392 4434
8 3098 3029 4392 4434 3099 3030 4393 4435
8 3099 3030 4393 4435 3100 3031 4394 4436
8 3100 3031 4394 4436 3101 3032 4395 4437
8 3101 3032 4395 4437 3102 3033 4396 4438
8 3102 3033 4396 4438 3103 3034 4397 4439
8 3103 3034 4397 4439 4444 4402 4398 4440
8 4444 4402 4398 4440 4445 4403 4399 4441
8 4446 4404 4401 4443 3104 3035 3029 3098
8 3104 3035 3029 3098 3105 3036 3030 3099
8 3105 3036 3030 3099 3106 3037 3031 3100
8 3106 3037 3031 3100 3107 3038 3032 3101
8 3107 3038 3032 3101 3108 3039 3033 3102
8 3108 3039 3033 3102 3109 3040 3034 3103
8 3109 3040 3034 3103 4447 4405 4402 4444
8 4448 4406 4404 4446 3110 3041 3035 3104
8 3110 3041 3035 3104 3111 3042 3036 3105
8 3111 3042 3036 3105 3112 3043 3037 3106
8 3112 3043 3037 3106 3113 3044 3038 3107
8 3113 3044 3038 3107 3114 3045 3039 3108
8 3114 3045 3039 3108 4449 4407 3040 3109
8 4449 4407 3040 3109 4450 4408 4405 4447
8 4451 4409 4406 4448 3115 3046 3041 3110
8 3115 3046 3041 3110 3116 3047 3042 3111
8 3116 3047 3042 3111 3117 3048 3043 3112
8 3117 3048 3043 3112 3118 3049 3044 3113
8 3118 3049 3044 3113 3119 3050 3045 3114
8 3119 3050 3045 3114 4452 4410 4407 4449
8 4453 4411 4409 4451 3120 3051 3046 3115
8 3120 3051 3046 3115 3121 3052 3047 3116
8 3121 3052 3047 3116 3122 3053 3048 3117
8 3122 3053 3048 3117 3123 3054 3049 3118
8 3123 3054 3049 3118 3124 3055 3050 3119
8 3124 3055 3050 3119 4454 4412 4410 4452
8 4455 4413 4411 4453 3125 3056 3051 3120
8 3125 3056 3051 3120 3126 3057 3052 3121
8 3126 3057 3052 3121 3127 3058 3053 3122
8 3127 3058 3053 3122 3128 3059 3054 3123
8 3128 3059 3054 3123 4456 4414 3055 3124
8 4456 4414 3055 3124 4457 4415 4412 4454
8 4459 4417 4413 4455 3129 3060 3056 3125
8 3129 3060 3056 3125 3130 3061 3057 3126
8 3130 3061 3057 3126 3131 3062 3058 3127
8 3131 3062 3058 3127 3132 3063 3059 3128
8 3132 3063 3059 3128 4460 4418 4414 4456
8 4461 4419 4416 4458 3133 3064 4417 4459
8 3133 3064 4417 4459 3134 3065 3060 3129
8 3134 3065 3060 3129 3135 3066 3061 3130
8 3135 3066 3061 3130 3136 3067 3062 3131
8 3136 3067 3062 3131 3137 3068 3063 3132
8 3137 3068 3063 3132 4462 4420 4418 4460
8 4466 4424 4419 4461 3138 3069 3064 3133
8 3138 3069 3064 3133 3139 3070 3065 3134
8 3139 3070 3065 3134 3140 3071 3066 3135
8 3140 3071 3066 3135 3141 3072 3067 3136
8 3141 3072 3067 3136 4467 4425 3068 3137
8 4467 4425 3068 3137 4468 4426 4420 4462
8 3142 3073 4421 4463 3143 3074 4422 4464
8 3143 3074 4422 4464 3144 3075 4423 4465
8 3144 3075 4423 4465 3145 3076 4424 4466
8 3145 3076 4424 4466 3146 3077 3069 3138
8 3146 3077 3069 3138 3147 3078 3070 3139
8 3147 3078 3070 3139 3148 3079 3071 3140
8 3148 3079 3071 3140 3149 3080 3072 3141
8 3149 3080 3072 3141 4469 4427 4425 4467
8 3150 3081 3073 3142 3151 3082 3074 3143
8 3151 3082 3074 3143 3152 3083 3075 3144
8 3152 3083 3075 3144 3153 3084 3076 3145
8 3153 3084 3076 3145 3154 3085 3077 3146
8 3154 3085 3077 3146 3155 3086 3078 3147
8 3155 3086 3078 3147 3156 3087 3079 3148
8 3156 3087 3079 3148 3157 3088 3080 3149
8 3157 3088 3080 3149 4470 4428 4427 4469
8 3158 3089 3081 3150 3159 3090 3082 3151
8 3159 3090 3082 3151 3160 3091 3083 3152
8 3160 3091 3083 3152 3161 3092 3084 3153
8 3161 3092 3084 3153 3162 3093 3085 3154
8 3162 3093 3085 3154 3163 3094 3086 3155
8 3163 3094 3086 3155 3164 3095 3087 3156
8 3164 3095 3087 3156 3165 3096 3088 3157
8 3165 3096 3088 3157 4471 4429 4428 4470
8 4475 4433 4430 4472 3166 3097 4431 4473
8 3166 3097 4431 4473 4476 4434 4432 4474
8 4484 4442 4433 4475 4485 4443 3097 3166
8 4485 4443 3097 3166 3167 3098 4434 4476
8 3167 3098 4434 4476 3168 3099 4435 4477
8 3168 3099 4435 4477 3169 3100 4436 4478
8 3169 3100 4436 4478 3170 3101 4437 4479
8 3170 3101 4437 4479 3171 3102 4438 4480
8 3171 3102 4438 4480 3172 3103 4439 4481
8 3172 3103 4439 4481 4486 4444 4440 4482
8 4486 4444 4440 4482 4487 4445 4441 4483
8 4488 4446 4443 4485 3173 3104 3098 3167
8 3173 3104 3098 3167 3174 3105 3099 3168
8 3174 3105 3099 3168 3175 3106 3100 3169
8 3175 3106 3100 3169 3176 3107 3101 3170
8 3176 3107 3101 3170 3177 3108 3102 3171
8 3177 3108 3102 3171 3178 3109 3103 3172
8 3178 3109 3103 3172 4489 4447 4444 4486
8 4490 4448 4446 4488 3179 3110 3104 3173
8 3179 3110 3104 3173 3180 3111 3105 3174
8 3180 3111 3105 3174 3181 3112 3106 3175
8 3181 3112 3106 3175 3182 3113 3107 3176
8 3182 3113 3107 3176 3183 3114 3108 3177
8 3183 3114 3108 3177 4491 4449 3109 3178
8 4491 4449 3109 3178 4492 4450 4447 4489
8 4493 4451 4448 4490 3184 3115 3110 3179
8 3184 3115 3110 3179 3185 3116 3111 3180
8 3185 3116 3111 3180 3186 3117 3112 3181
8 3186 3117 3112 3181 3187 3118 3113 3182
8 3187 3118 3113 3182 3188 3119 3114 3183
8 3188 3119 3114 3183 4494 4452 4449 4491
8 4495 4453 4451 4493 3189 3120 3115 3184
8 3189 3120 3115 3184 3190 3121 3116 3185
8 3190 3121 3116 3185 3191 3122 3117 3186
8 3191 3122 3117 3186 3192 3123 3118 3187
8 3192 3123 3118 3187 3193 3124 3119 3188
8 3193 3124 3119 3188 4496 4454 4452 4494
8 4497 4455 4453 4495 3194 3125 3120 3189
8 3194 3125 3120 3189 3195 3126 3121 3190
8 3195 3126 3121 3190 3196 3127 3122 3191
8 3196 3127 3122 3191 3197 3128 3123 3192
8 3197 3128 3123 3192 4498 4456 3124 3193
8 4498 4456 3124 3193 4499 4457 4454 4496
8 4501 4459 4455 4497 3198 3129 3125 3194
8 3198 3129 3125 3194 3199 3130 3126 3195
8 3199 3130 3126 3195 3200 3131 3127 3196
8 3200 3131 3127 3196 3201 3132 3128 3197
8 3201 3132 3128 3197 4502 4460 4456 4498
8 4503 4461 4458 4500 3202 3133 4459 4501
8 3202 3133 4459 4501 3203 3134 3129 3198
8 3203 3134 3129 3198 3204 3135 3130 3199
8 3204 3135 3130 3199 3205 3136 3131 3200
8 3205 3136 3131 3200 3206 3137 3132 3201
8 3206 3137 3132 3201 4504 4462 4460 4502
8 4508 4466 4461 4503 3207 3138 3133 3202
8 3207 3138 3133 3202 3208 3139 3134 3203
8 3208 3139 3134 3203 3209 3140 3135 3204
8 3209 3140 3135 3204 3210 3141 3136 3205
8 3210 3141 3136 3205 4509 4467 3137 3206
8 4509 4467 3137 3206 4510 4468 4462 4504
8 3211 3142 4463 4505 3212 3143 4464 4506
8 3212 3143 4464 4506 3213 3144 4465 4507
8 3213 3144 4465 4507 3214 3145 4466 4508
8 3214 3145 4466 4508 3215 3146 3138 3207
8 3215 3146 3138 3207 3216 3147 3139 3208
8 3216 3147 3139 3208 3217 3148 3140 3209
8 3217 3148 3140 3209 3218 3149 3141 3210
8 3218 3149 3141 3210 4511 4469 4467 4509
8 3219 3150 3142 3211 3220 3151 3143 3212
8 3220 3151 3143 3212 3221 3152 3144 3213
8 3221 3152 3144 3213 3222 3153 3145 3214
8 3222 3153 3145 3214 3223 3154 3146 3215
8 3223 3154 3146 3215 3224 3155 3147 3216
8 3224 3155 3147 3216 3225 3156 3148 3217
8 3225 3156 3148 3217 3226 3157 3149 3218
8 3226 3157 3149 3218 4512 4470 4469 4511
8 3227 3158 3150 3219 3228 3159 3151 3220
8 3228 3159 3151 3220 3229 3160 3152 3221
8 3229 3160 3152 3221 3230 3161 3153 3222
8 3230 3161 3153 3222 3231 3162 3154 3223
8 3231 3162 3154 3223 3232 3163 3155 3224
8 3232 3163 3155 3224 3233 3164 3156 3225
8 3233 3164 3156 3225 3234 3165 3157 3226
8 3234 3165 3157 3226 4513 4471 4470 4512
8 4517 4475 4472 4514 3235 3166 4473 4515
8 3235 3166 4473 4515 4518 4476 4474 4516
8 4526 4484 4475 4517 4527 4485 3166 3235
8 4527 4485 3166 3235 3236 3167 4476 4518
8 3236 3167 4476 4518 3237 3168 4477 4519
8 3237 3168 4477 4519 3238 3169 4478 4520
8 3238 3169 4478 4520 3239 3170 4479 4521
8 3239 3170 4479 4521 3240 3171 4480 4522
8 3240 3171 4480 4522 3241 3172 4481 4523
8 3241 3172 4481 4523 4528 4486 4482 4524
8 4528 4486 4482 4524 4529 4487 4483 4525
8 4530 4488 4485 4527 3242 3173 3167 3236
8 3242 3173 3167 3236 3243 3174 3168 3237
8 3243 3174 3168 3237 3244 3175 3169 3238
8 3244 3175 3169 3238 3245 3176 3170 3239
8 3245 3176 3170 3239 3246 3177 3171 3240
8 3246 3177 3171 3240 3247 3178 3172 3241
8 3247 3178 3172 3241 4531 4489 4486 4528
8 4532 4490 4488 4530 3248 3179 3173 3242
8 3248 3179 3173 3242 3249 3180 3174 3243
8 3249 3180 3174 3243 3250 3181 3175 3244
8 3250 3181 3175 3244 3251 3182 3176 3245
8 3251 3182 3176 3245 3252 3183 3177 3246
8 3252 3183 3177 3246 4533 4491 3178 3247
8 4533 4491 3178 3247 4534 4492 4489 4531
8 4535 4493 4490 4532 3253 3184 3179 3248
8 3253 3184 3179 3248 3254 3185 3180 3249
8 3254 3185 3180 3249 3255 3186 3181 3250
8 3255 3186 3181 3250 3256 3187 3182 3251
8 3256 3187 3182 3251 3257 3188 3183 3252
8 3257 3188 3183 3252 4536 4494 4491 4533
8 4537 4495 4493 4535 3258 3189 3184 3253
8 3258 3189 3184 3253 3259 3190 3185 3254
8 3259 3190 3185 3254 3260 3191 3186 3255
8 3260 3191 3186 3255 3261 3192 3187 3256
8 3261 3192 3187 3256 3262 3193 3188 3257
8 3262 3193 3188 3257 4538 4496 4494 4536
8 4539 4497 4495 4537 3263 3194 3189 3258
8 3263 3194 3189 3258 3264 3195 3190 3259
8 3264 3195 3190 3259 3265 3196 3191 3260
8 3265 3196 3191 3260 3266 3197 3192 3261
8 3266 3197 3192 3261 4540 4498 3193 3262
8 4540 4498 3193 3262 4541 4499 4496 4538
8 4543 4501 4497 4539 3267 3198 3194 3263
8 3267 3198 3194 3263 3268 3199 3195 3264
8 3268 3199 3195 3264 3269 3200 3196 3265
8 3269 3200 3196 3265 3270 3201 3197 3266
8 3270 3201 3197 3266 4544 4502 4498 4540
8 4545 4503 4500 4542 3271 3202 4501 4543
8 3271 3202 4501 4543 3272 3203 3198 3267
8 3272 3203 3198 3267 3273 3204 3199 3268
8 3273 3204 3199 3268 3274 3205 3200 3269
8 3274 3205 3200 3269 3275 3206 3201 3270
8 3275 3206 3201 3270 4546 4504 4502 4544
8 4550 4508 4503 4545 3276 3207 3202 3271
8 3276 3207 3202 3271 3277 3208 3203 3272
8 3277 3208 3203 3272 3278 3209 3204 3273
8 3278 3209 3204 3273 3279 3210 3205 3274
8 3279 3210 3205 3274 4551 4509 3206 3275
8 4551 4509 3206 3275 4552 4510 4504 4546
8 3280 3211 4505 4547 3281 3212 4506 4548
8 3281 3212 4506 4548 3282 3213 4507 4549
8 3282 3213 4507 4549 3283 3214 4508 4550
8 3283 3214 4508 4550 3284 3215 3207 3276
8 3284 3215 3207 3276 3285 3216 3208 3277
8 3285 3216 3208 3277 3286 3217 3209 3278
8 3286 3217 3209 3278 3287 3218 3210 3279
8 3287 3218 3210 3279 4553 4511 4509 4551
8 3288 3219 3211 3280 3289 3220 3212 3281
8 3289 3220 3212 3281 3290 3221 3213 3282
8 3290 3221 3213 3282 3291 3222 3214 3283
8 3291 3222 3214 3283 3292 3223 3215 3284
8 3292 3223 3215 3284 3293 3224 3216 3285
8 3293 3224 3216 3285 3294 3225 3217 3286
8 3294 3225 3217 3286 3295 3226 3218 3287
8 3295 3226 3218 3287 4554 4512 4511 4553
8 3296 3227 3219 3288 3297 3228 3220 3289
8 3297 3228 3220 3289 3298 3229 3221 3290
8 3298 3229 3221 3290 3299 3230 3222 3291
8 3299 3230 3222 3291 3300 3231 3223 3292
8 3300 3231 3223 3292 3301 3232 3224 3293
8 3301 3232 3224 3293 3302 3233 3225 3294
8 3302 3233 3225 3294 3303 3234 3226 3295
8 3303 3234 3226 3295 4555 4513 4512 4554
8 4559 4517 4514 4556 3304 3235 4515 4557
8 3304 3235 4515 4557 4560 4518 4516 4558
8 4568 4526 4517 4559 4569 4527 3235 3304
8 4569 4527 3235 3304 3305 3236 4518 4560
8 3305 3236 4518 4560 3306 3237 4519 4561
8 3306 3237 4519 4561 3307 3238 4520 4562
8 3307 3238 4520 4562 3308 3239 4521 4563
8 3308 3239 4521 4563 3309 3240 4522 4564
8 3309 3240 4522 4564 3310 3241 4523 4565
8 3310 3241 4523 4565 4570 4528 4524 4566
8 4570 4528 4524 4566 4571 4529 4525 4567
8 4572 4530 4527 4569 3311 3242 3236 3305
8 3311 3242 3236 3305 3312 3243 3237 3306
8 3312 3243 3237 3306 3313 3244 3238 3307
8 3313 3244 3238 3307 3314 3245 3239 3308
8 3314 3245 3239 3308 3315 3246 3240 3309
8 3315 3246 3240 3309 3316 3247 3241 3310
8 3316 3247 3241 3310 4573 4531 4528 4570
8 4574 4532 4530 4572 3317 3248 3242 3311
8 3317 3248 3242 3311 3318 3249 3243 3312
8 3318 3249 3243 3312 3319 3250 3244 3313
8 3319 3250 3244 3313 3320 3251 3245 3314
8 3320 3251 3245 3314 3321 3252 3246 3315
8 3321 3252 3246 3315 4575 4533 3247 3316
8 4575 4533 3247 3316 4576 4534 4531 4573
8 4577 4535 4532 4574 3322 3253 3248 3317
8 3322 3253 3248 3317 3323 3254 3249 3318
8 3323 3254 3249 3318 3324 3255 3250 3319
8 3324 3255 3250 3319 3325 3256 3251 3320
8 3325 3256 3251 3320 3326 3257 3252 3321
8 3326 3257 3252 3321 4578 4536 4533 4575
8 4579 4537 4535 4577 3327 3258 3253 3322
8 3327 3258 3253 3322 3328 3259 3254 3323
8 3328 3259 3254 3323 3329 3260 3255 3324
8 3329 3260 3255 3324 3330 3261 3256 3325
8 3330 3261 3256 3325 3331 3262 3257 3326
8 3331 3262 3257 3326 4580 4538 4536 4578
8 4581 4539 4537 4579 3332 3263 3258 3327
8 3332 3263 3258 3327 3333 3264 3259 3328
8 3333 3264 3259 3328 3334 3265 3260 3329
8 3334 3265 3260 3329 3335 3266 3261 3330
8 3335 3266 3261 3330 4582 4540 3262 3331
8 4582 4540 3262 3331 4583 4541 4538 4580
8 4585 4543 4539 4581 3336 3267 3263 3332
8 3336 3267 3263 3332 3337 3268 3264 3333
8 3337 3268 3264 3333 3338 3269 3265 3334
8 3338 3269 3265 3334 3339 3270 3266 3335
8 3339 3270 3266 3335 4586 4544 4540 4582
8 4587 4545 4542 4584 3340 3271 4543 4585
8 3340 3271 4543 4585 3341 3272 3267 3336
8 3341 3272 3267 3336 3342 3273 3268 3337
8 3342 3273 3268 3337 3343 3274 3269 3338
8 3343 3274 3269 3338 3344 3275 3270 3339
8 3344 3275 3270 3339 4588 4546 4544 4586
8 4592 4550 4545 4587 3345 3276 3271 3340
8 3345 3276 3271 3340 3346 3277 3272 3341
8 3346 3277 3272 3341 3347 3278 3273 3342
8 3347 3278 3273 3342 3348 3279 3274 3343
8 3348 3279 3274 3343 4593 4551 3275 3344
8 4593 4551 3275 3344 4594 4552 4546 4588
8 3349 3280 4547 4589 3350 3281 4548 4590
8 3350 3281 4548 4590 3351 3282 4549 4591
8 3351 3282 4549 4591 3352 3283 4550 4592
8 3352 3283 4550 4592 3353 3284 3276 3345
8 3353 3284 3276 3345 3354 3285 3277 3346
8 3354 3285 3277 3346 3355 3286 3278 3347
8 3355 3286 3278 3347 3356 3287 3279 3348
8 3356 3287 3279 3348 4595 4553 4551 4593
8 3357 3288 3280 3349 3358 3289 3281 3350
8 3358 3289 3281 3350 3359 3290 3282 3351
8 3359 3290 3282 3351 3360 3291 3283 3352
8 3360 3291 3283 3352 3361 3292 3284 3353
8 3361 3292 3284 3353 3362 3293 3285 3354
8 3362 3293 3285 3354 3363 3294 3286 3355
8 3363 3294 3286 3355 3364 3295 3287 3356
8 3364 3295 3287 3356 4596 4554 4553 4595
8 3365 3296 3288 3357 3366 3297 3289 3358
8 3366 3297 3289 3358 3367 3298 3290 3359
8 3367 3298 3290 3359 3368 3299 3291 3360
8 3368 3299 3291 3360 3369 3300 3292 3361
8 3369 3300 3292 3361 3370 3301 3293 3362
8 3370 3301 3293 3362 3371 3302 3294 3363
8 3371 3302 3294 3363 3372 3303 3295 3364
8 3372 3303 3295 3364 4597 4555 4554 4596
8 3420 4559 4556 3417 1450 3304 4557 3418
8 1450 3304 4557 3418 3421 4560 4558 3419
8 3429 4568 4559 3420 3430 4569 3304 1450
8 3430 4569 3304 1450 1451 3305 4560 3421
8 1451 3305 4560 3421 1452 3306 4561 3422
8 1452 3306 4561 3422 1453 3307 4562 3423
8 1453 3307 4562 3423 1454 3308 4563 3424
8 1454 3308 4563 3424 1455 3309 4564 3425
8 1455 3309 4564 3425 1456 3310 4565 3426
8 1456 3310 4565 3426 3431 4570 4566 3427
8 3431 4570 4566 3427 3432 4571 4567 3428
8 3433 4572 4569 3430 1457 3311 3305 1451
8 1457 3311 3305 1451 1458 3312 3306 1452
8 1458 3312 3306 1452 1459 3313 3307 1453
8 1459 3313 3307 1453 1460 3314 3308 1454
8 1460 3314 3308 1454 1461 3315 3309 1455
8 1461 3315 3309 1455 1462 3316 3310 1456
8 1462 3316 3310 1456 3434 4573 4570 3431
8 3435 4574 4572 3433 1463 3317 3311 1457
8 1463 3317 3311 1457 1464 3318 3312 1458
8 1464 3318 3312 1458 1465 3319 3313 1459
8 1465 3319 3313 1459 1466 3320 3314 1460
8 1466 3320 3314 1460 1467 3321 3315 1461
8 1467 3321 3315 1461 3436 4575 3316 1462
8 3436 4575 3316 1462 3437 4576 4573 3434
8 3438 4577 4574 3435 1468 3322 3317 1463
8 1468 3322 3317 1463 1469 3323 3318 1464
8 1469 3323 3318 1464 1470 3324 3319 1465
8 1470 3324 3319 1465 1471 3325 3320 1466
8 1471 3325 3320 1466 1472 3326 3321 1467
8 1472 3326 3321 1467 3439 4578 4575 3436
8 3440 4579 4577 3438 1473 3327 3322 1468
8 1473 3327 3322 1468 1474 3328 3323 1469
8 1474 3328 3323 1469 1475 3329 3324 1470
8 1475 3329 3324 1470 1476 3330 3325 1471
8 1476 3330 3325 1471 1477 3331 3326 1472
8 1477 3331 3326 1472 3441 4580 4578 3439
8 3442 4581 4579 3440 1478 3332 3327 1473
8 1478 3332 3327 1473 1479 3333 3328 1474
8 1479 3333 3328 1474 1480 3334 3329 1475
8 1480 3334 3329 1475 1481 3335 3330 1476
8 1481 3335 3330 1476 3443 4582 3331 1477
8 3443 4582 3331 1477 3444 4583 4580 3441
8 3446 4585 4581 3442 1482 3336 3332 1478
8 1482 3336 3332 1478 1483 3337 3333 1479
8 1483 3337 3333 1479 1484 3338 3334 1480
8 1484 3338 3334 1480 1485 3339 3335 1481
8 1485 3339 3335 1481 3447 4586 4582 3443
8 3448 4587 4584 3445 1486 3340 4585 3446
8 1486 3340 4585 3446 1487 3341 3336 1482
8 1487 3341 3336 1482 1488 3342 3337 1483
8 1488 3342 3337 1483 1489 3343 3338 1484
8 1489 3343 3338 1484 1490 3344 3339 1485
8 1490 3344 3339 1485 3449 4588 4586 3447
8 3453 4592 4587 3448 1491 3345 3340 1486
8 1491 3345 3340 1486 1492 3346 3341 1487
8 1492 3346 3341 1487 1493 3347 3342 1488
8 1493 3347 3342 1488 1494 3348 3343 1489
8 1494 3348 3343 1489 3454 4593 3344 1490
8 3454 4593 3344 1490 3455 4594 4588 3449
8 1495 3349 4589 3450 1496 3350 4590 3451
8 1496 3350 4590 3451 1497 3351 4591 3452
8 1497 3351 4591 3452 1498 3352 4592 3453
8 1498 3352 4592 3453 1499 3353 3345 1491
8 1499 3353 3345 1491 1500 3354 3346 1492
8 1500 3354 3346 1492 1501 3355 3347 1493
8 1501 3355 3347 1493 1502 3356 3348 1494
8 1502 3356 3348 1494 3456 4595 4593 3454
8 1503 3357 3349 1495 1504 3358 3350 1496
8 1504 3358 3350 1496 1505 3359 3351 1497
8 1505 3359 3351 1497 1506 3360 3352 1498
8 1506 3360 3352 1498 1507 3361 3353 1499
8 1507 3361 3353 1499 1508 3362 3354 1500
8 1508 3362 3354 1500 1509 3363 3355 1501
8 1509 3363 3355 1501 1510 3364 3356 1502
8 1510 3364 3356 1502 3457 4596 4595 3456
8 1511 3365 3357 1503 1512 3366 3358 1504
8 1512 3366 3358 1504 1513 3367 3359 1505
8 1513 3367 3359 1505 1514 3368 3360 1506
8 1514 3368 3360 1506 1515 3369 3361 1507
8 1515 3369 3361 1507 1516 3370 3362 1508
8 1516 3370 3362 1508 1517 3371 3363 1509
8 1517 3371 3363 1509 1518 3372 3364 1510
8 1518 3372 3364 1510 3458 4597 4596 3457
8 3511 3462 3459 3505 1582 1519 3460 3507
8 1582 1519 3460 3507 3513 3463 3461 3509
8 3529 3471 3462 3511 3531 3472 1519 1582
8 3531 3472 1519 1582 1584 1520 3463 3513
8 1584 1520 3463 3513 1586 1521 3464 3515
8 1586 1521 3464 3515 1588 1522 3465 3517
8 1588 1522 3465 3517 1590 1523 3466 3519
8 1590 1523 3466 3519 1592 1524 3467 3521
8 1592 1524 3467 3521 1594 1525 3468 3523
8 1594 1525 3468 3523 3533 3473 3469 3525
8 3533 3473 3469 3525 3535 3474 3470 3527
8 3537 3475 3472 3531 1596 1526 1520 1584
8 1596 1526 1520 1584 1598 1527 1521 1586
8 1598 1527 1521 1586 1600 1528 1522 1588
8 1600 1528 1522 1588 1602 1529 1523 1590
8 1602 1529 1523 1590 1604 1530 1524 1592
8 1604 1530 1524 1592 1606 1531 1525 1594
8 1606 1531 1525 1594 3539 3476 3473 3533
8 3541 3477 3475 3537 1608 1532 1526 1596
8 1608 1532 1526 1596 1610 1533 1527 1598
8 1610 1533 1527 1598 1612 1534 1528 1600
8 1612 1534 1528 1600 1614 1535 1529 1602
8 1614 1535 1529 1602 1616 1536 1530 1604
8 1616 1536 1530 1604 3543 3478 1531 1606
8 3543 3478 1531 1606 3545 3479 3476 3539
8 3547 3480 3477 3541 1618 1537 1532 1608
8 1618 1537 1532 1608 1620 1538 1533 1610
8 1620 1538 1533 1610 1622 1539 1534 1612
8 1622 1539 1534 1612 1624 1540 1535 1614
8 1624 1540 1535 1614 1626 1541 1536 1616
8 1626 1541 1536 1616 3549 3481 3478 3543
8 3551 3482 3480 3547 1628 1542 1537 1618
8 1628 1542 1537 1618 1630 1543 1538 1620
8 1630 1543 1538 1620 1632 1544 1539 1622
8 1632 1544 1539 1622 1634 1545 1540 1624
8 1634 1545 1540 1624 1636 1546 1541 1626
8 1636 1546 1541 1626 3553 3483 3481 3549
8 3555 3484 3482 3551 1638 1547 1542 1628
8 1638 1547 1542 1628 1640 1548 1543 1630
8 1640 1548 1543 1630 1642 1549 1544 1632
8 1642 1549 1544 1632 1644 1550 1545 1634
8 1644 1550 1545 1634 3557 3485 1546 1636
8 3557 3485 1546 1636 3559 3486 3483 3553
8 3563 3488 3484 3555 1646 1551 1547 1638
8 1646 1551 1547 1638 1648 1552 1548 1640
8 1648 1552 1548 1640 1650 1553 1549 1642
8 1650 1553 1549 1642 1652 1554 1550 1644
8 1652 1554 1550 1644 3565 3489 3485 3557
8 3567 3490 3487 3561 1654 1555 3488 3563
8 1654 1555 3488 3563 1656 1556 1551 1646
8 1656 1556 1551 1646 1658 1557 1552 1648
8 1658 1557 1552 1648 1660 1558 1553 1650
8 1660 1558 1553 1650 1662 1559 1554 1652
8 1662 1559 1554 1652 3569 3491 3489 3565
8 3577 3495 3490 3567 1664 1560 1555 1654
8 1664 1560 1555 1654 1666 1561 1556 1656
8 1666 1561 1556 1656 1668 1562 1557 1658
8 1668 1562 1557 1658 1670 1563 1558 1660
8 1670 1563 1558 1660 3579 3496 1559 1662
8 3579 3496 1559 1662 3581 3497 3491 3569
8 1672 1564 3492 3571 1674 1565 3493 3573
8 1674 1565 3493 3573 1676 1566 3494 3575
8 1676 1566 3494 3575 1678 1567 3495 3577
8 1678 1567 3495 3577 1680 1568 1560 1664
8 1680 1568 1560 1664 1682 1569 1561 1666
8 1682 1569 1561 1666 1684 1570 1562 1668
8 1684 1570 1562 1668 1686 1571 1563 1670
8 1686 1571 1563 1670 3583 3498 3496 3579
8 1688 1572 1564 1672 1690 1573 1565 1674
8 1690 1573 1565 1674 1692 1574 1566 1676
8 1692 1574 1566 1676 1694 1575 1567 1678
8 1694 1575 1567 1678 1696 1576 1568 1680
8 1696 1576 1568 1680 1698 1577 1569 1682
8 1698 1577 1569 1682 1700 3499 1570 1684
8 1700 3499 1570 1684 3584 3500 1571 1686
8 3584 3500 1571 1686 3586 3501 3498 3583
8 1709 1578 1575 1694 1711 1579 1576 1696
8 1711 1579 1576 1696 1713 1580 1577 1698
8 1713 1580 1577 1698 1715 3502 3499 1700
8 1715 3502 3499 1700 3587 3503 3500 3584
8 3597 3510 3504 3591 1718 1581 3506 3593
8 1718 1581 3506 3593 3599 3512 3508 3595
8 3615 3528 3510 3597 3617 3530 1581 1718
8 3617 3530 1581 1718 1720 1583 3512 3599
8 1720 1583 3512 3599 1722 1585 3514 3601
8 1722 1585 3514 3601 1724 1587 3516 3603
8 1724 1587 3516 3603 1726 1589 3518 3605
8 1726 1589 3518 3605 1728 1591 3520 3607
8 1728 1591 3520 3607 1730 1593 3522 3609
8 1730 1593 3522 3609 3619 3532 3524 3611
8 3619 3532 3524 3611 3621 3534 3526 3613
8 3623 3536 3530 3617 1732 1595 1583 1720
8 1732 1595 1583 1720 1734 1597 1585 1722
8 1734 1597 1585 1722 1736 1599 1587 1724
8 1736 1599 1587 1724 1738 1601 1589 1726
8 1738 1601 1589 1726 1740 1603 1591 1728
8 1740 1603 1591 1728 1742 1605 1593 1730
8 1742 1605 1593 1730 3625 3538 3532 3619
8 3627 3540 3536 3623 1744 1607 1595 1732
8 1744 1607 1595 1732 1746 1609 1597 1734
8 1746 1609 1597 1734 1748 1611 1599 1736
8 1748 1611 1599 1736 1750 1613 1601 1738
8 1750 1613 1601 1738 1752 1615 1603 1740
8 1752 1615 1603 1740 3629 3542 1605 1742
8 3629 3542 1605 1742 3631 3544 3538 3625
8 3633 3546 3540 3627 1754 1617 1607 1744
8 1754 1617 1607 1744 1756 1619 1609 1746
8 1756 1619 1609 1746 1758 1621 1611 1748
8 1758 1621 1611 1748 1760 1623 1613 1750
8 1760 1623 1613 1750 1762 1625 1615 1752
8 1762 1625 1615 1752 3635 3548 3542 3629
8 3637 3550 3546 3633 1764 1627 1617 1754
8 1764 1627 1617 1754 1766 1629 1619 1756
8 1766 1629 1619 1756 1768 1631 1621 1758
8 1768 1631 1621 1758 1770 1633 1623 1760
8 1770 1633 1623 1760 1772 1635 1625 1762
8 1772 1635 1625 1762 3639 3552 3548 3635
8 3641 3554 3550 3637 1774 1637 1627 1764
8 1774 1637 1627 1764 1776 1639 1629 1766
8 1776 1639 1629 1766 1778 1641 1631 1768
8 1778 1641 1631 1768 1780 1643 1633 1770
8 1780 1643 1633 1770 3643 3556 1635 1772
8 3643 3556 1635 1772 3645 3558 3552 3639
8 3649 3562 3554 3641 1782 1645 1637 1774
8 1782 1645 1637 1774 1784 1647 1639 1776
8 1784 1647 1639 1776 1786 1649 1641 1778
8 1786 1649 1641 1778 1788 1651 1643 1780
8 1788 1651 1643 1780 3651 3564 3556 3643
8 3653 3566 3560 3647 1790 1653 3562 3649
8 1790 1653 3562 3649 1792 1655 1645 1782
8 1792 1655 1645 1782 1794 1657 1647 1784
8 1794 1657 1647 1784 1796 1659 1649 1786
8 1796 1659 1649 1786 1798 1661 1651 1788
8 1798 1661 1651 1788 3655 3568 3564 3651
8 3663 3576 3566 3653 1800 1663 1653 1790
8 1800 1663 1653 1790 1802 1665 1655 1792
8 1802 1665 1655 1792 1804 1667 1657 1794
8 1804 1667 1657 1794 1806 1669 1659 1796
8 1806 1669 1659 1796 3665 3578 1661 1798
8 3665 3578 1661 1798 3667 3580 3568 3655
8 1808 1671 3570 3657 1810 1673 3572 3659
8 1810 1673 3572 3659 1812 1675 3574 3661
8 1812 1675 3574 3661 1814 1677 3576 3663
8 1814 1677 3576 3663 1816 1679 1663 1800
8 1816 1679 1663 1800 1818 1681 1665 1802
8 1818 1681 1665 1802 1820 1683 1667 1804
8 1820 1683 1667 1804 1822 1685 1669 1806
8 1822 1685 1669 1806 3669 3582 3578 3665
8 1824 1687 1671 1808 1826 1689 1673 1810
8 1826 1689 1673 1810 1828 1691 1675 1812
8 1828 1691 1675 1812 1830 1693 1677 1814
8 1830 1693 1677 1814 1832 1695 1679 1816
8 1832 1695 1679 1816 1834 1697 1681 1818
8 1834 1697 1681 1818 1836 1699 1683 1820
8 1836 1699 1683 1820 1838 1701 1685 1822
8 1838 1701 1685 1822 3671 3585 3582 3669
8 1840 1702 1687 1824 1842 1704 1689 1826
8 1842 1704 1689 1826 1844 1706 1691 1828
8 1844 1706 1691 1828 1846 1708 1693 1830
8 1846 1708 1693 1830 1848 1710 1695 1832
8 1848 1710 1695 1832 1850 1712 1697 1834
8 1850 1712 1697 1834 1852 1714 1699 1836
8 1852 1714 1699 1836 1854 1716 1701 1838
8 1854 1716 1701 1838 3673 3588 3585 3671
CELL_TYPES 2343
12
12
12
12
12
12
12
12
12
12
12
12
12
12
12
12
12
12
12
12
12
12
12
12
12
12
12
12
12
12
12
12
12
12
12
12
12
12
12
12
12
12
12
12
12
12
12
12
12
12
12
12
12
12
12
12
12
12
12
12
12
12
12
12
12
12
12
12
12
12
12
12
12
12
12
12
12
12
12
12
12
12
12
12
12
12
12
12
12
12
12
12
12
12
12
12
12
12
12
12
12
12
12
12
12
12
12
12
12
12
12
12
12
12
12
12
12
12
12
12
12
12
12
12
12
12
12
12
12
12
12
12
12
12
12
12
12
12
12
12
12
12
12
12
12
12
12
12
12
12
12
12
12
12
12
12
12
12
12
12
12
12
12
12
12
12
12
12
12
12
12
12
12
12
12
12
12
12
12
12
12
12
12
12
12
12
12
12
12
12
12
12
12
12
12
12
12
12
12
12
12
12
12
12
12
12
12
12
12
12
12
12
12
12
12
12
12
12
12
12
12
12
12
12
12
12
12
12
12
12
12
12
12
12
12
12
12
12
12
12
12
12
12
12
12
12
12
12
12
12
12
12
12
12
12
12
12
12
12
12
12
12
12
12
12
12
12
12
12
12
12
12
12
12
12
12
12
12
12
12
12
12
12
12
12
12
12
12
12
12
12
12
12
12
12
12
12
12
12
12
12
12
12
12
12
12
12
12
12
12
12
12
12
12
12
12
12
12
12
12
12
12
12
12
12
12
12
12
12
12
12
12
12
12
12
12
12
12
12
12
12
12
12
12
12
12
12
12
12
12
12
12
12
12
12
12
12
12
12
12
12
12
12
12
12
12
12
12
12
12
12
12
12
12
12
12
12
12
12
12
12
12
12
12
12
12
12
12
12
12
12
12
12
12
12
12
12
12
12
12
12
12
12
12
12
12
12
12
12
12
12
12
12
12
12
12
12
12
12
12
12
12
12
12
12
12
12
12
12
12
12
12
12
12
12
12
12
12
12
12
12
12
12
12
12
12
12
12
12
12
12
12
12
12
12
12
12
12
12
12
12
12
12
12
12
12
12
12
12
12
12
12
12
12
12
12
12
12
12
12
12
12
12
12
12
12
12
12
12
12
12
12
12
12
12
12
12
12
12
12
12
12
12
12
12
12
12
12
12
12
12
12
12
12
12
12
12
12
12
12
12
12
12
12
12
12
12
12
12
12
12
12
12
12
12
12
12
12
12
12
12
12
12
12
12
12
12
12
12
12
12
12
12
12
12
12
12
12
12
12
12
12
12
12
12
12
12
12
12
12
12
12
12
12
12
12
12
12
12
12
12
12
12
12
12
12
12
12
12
12
12
12
12
12
12
12
12
12
12
12
12
12
12
12
12
12
12
12
12
12
12
12
12
12
12
12
12
12
12
12
12
12
12
12
12
12
12
12
12
12
12
12
12
12
12
12
12
12
12
12
12
12
12
12
12
12
12
12
12
12
12
12
12
12
12
12
12
12
12
12
12
12
12
12
12
12
12
12
12
12
12
12
12
12
12
12
12
12
12
12
12
12
12
12
12
12
12
12
12
12
12
12
12
12
12
12
12
12
12
12
12
12
12
12
12
12
12
12
12
12
12
12
12
12
12
12
12
12
12
12
12
12
12
12
12
12
12
12
12
12
12
12
12
12
12
12
12
12
12
12
12
12
12
12
12
12
12
12
12
12
12
12
12
12
12
12
12
12
12
12
12
12
12
12
12
12
12
12
12
12
12
12
12
12
12
12
12
12
12
12
12
12
12
12
12
12
12
12
12
12
12
12
12
12
12
12
12
12
12
12
12
12
12
12
12
12
12
12
12
12
12
12
12
12
12
12
12
12
12
12
12
12
12
12
12
12
12
12
12
12
12
12
12
12
12
12
12
12
12
12
12
12
12
12
12
12
12
12
12
12
12
12
12
12
12
12
12
12
12
12
12
12
12
12
12
12
12
12
12
12
12
12
12
12
12
12
12
12
12
12
12
12
12
12
12
12
12
12
12
12
12
12
12
12
12
12
12
12
12
12
12
12
12
12
12
12
12
12
12
12
12
12
12
12
12
12
12
12
12
12
12
12
12
12
12
12
12
12
12
12
12
12
12
12
12
12
12
12
12
12
12
12
12
12
12
12
12
12
12
12
12
12
12
12
12
12
12
12
12
12
12
12
12
12
12
12
12
12
12
12
12
12
12
12
12
12
12
12
12
12
12
12
12
12
12
12
12
12
12
12
12
12
12
12
12
12
12
12
12
12
12
12
12
12
12
12
12
12
12
12
12
12
12
12
12
12
12
12
12
12
12
12
12
12
12
12
12
12
12
12
12
12
12
12
12
12
12
12
12
12
12
12
12
12
12
12
12
12
12
12
12
12
12
12
12
12
12
12
12
12
12
12
12
12
12
12
12
12
12
12
12
12
12
12
12
12
12
12
12
12
12
12
12
12
12
12
12
12
12
12
12
12
12
12
12
12
12
12
12
12
12
12
12
12
12
12
12
12
12
12
12
12
12
12
12
12
12
12
12
12
12
12
12
12
12
12
12
12
12
12
12
12
12
12
12
12
12
12
12
12
12
12
12
12
12
12
12
12
12
12
12
12
12
12
12
12
12
12
12
12
12
12
12
12
12
12
12
12
12
12
12
12
12
12
12
12
12
12
12
12
12
12
12
12
12
12
12
12
12
12
12
12
12
12
12
12
12
12
12
12
12
12
12
12
12
12
12
12
12
12
12
12
12
12
12
12
12
12
12
12
12
12
12
12
12
12
12
12
12
12
12
12
12
12
12
12
12
12
12
12
12
12
12
12
12
12
12
12
12
12
12
12
12
12
12
12
12
12
12
12
12
12
12
12
12
12
12
12
12
12
12
12
12
12
12
12
12
12
12
12
12
12
12
12
12
12
12
12
12
12
12
12
12
12
12
12
12
12
12
12
12
12
12
12
12
12
12
12
12
12
12
12
12
12
12
12
12
12
12
12
12
12
12
12
12
12
12
12
12
12
12
12
12
12
12
12
12
12
12
12
12
12
12
12
12
12
12
12
12
12
12
12
12
12
12
12
12
12
12
12
12
12
12
12
12
12
12
12
12
12
12
12
12
12
12
12
12
12
12
12
12
12
12
12
12
12
12
12
12
12
12
12
12
12
12
12
12
12
12
12
12
12
12
12
12
12
12
12
12
12
12
12
12
12
12
12
12
12
12
12
12
12
12
12
12
12
12
12
12
12
12
12
12
12
12
12
12
12
12
12
12
12
12
12
12
12
12
12
12
12
12
12
12
12
12
12
12
12
12
12
12
12
12
12
12
12
12
12
12
12
12
12
12
12
12
12
12
12
12
12
12
12
12
12
12
12
12
12
12
12
12
12
12
12
12
12
12
12
12
12
12
12
12
12
12
12
12
12
12
12
12
12
12
12
12
12
12
12
12
12
12
12
12
12
12
12
12
12
12
12
12
12
12
12
12
12
12
12
12
12
12
12
12
12
12
12
12
12
12
12
12
12
12
12
12
12
12
12
12
12
12
12
12
12
12
12
12
12
12
12
12
12
12
12
12
12
12
12
12
12
12
12
12
12
12
12
12
12
12
12
12
12
12
12
12
12
12
12
12
12
12
12
12
12
12
12
12
12
12
12
12
12
12
12
12
12
12
12
12
12
12
12
12
12
12
12
12
12
12
12
12
12
12
12
12
12
12
12
12
12
12
12
12
12
12
12
12
12
12
12
12
12
12
12
12
12
12
12
12
12
12
12
12
12
12
12
12
12
12
12
12
12
12
12
12
12
12
12
12
12
12
12
12
12
12
12
12
12
12
12
12
12
12
12
12
12
12
12
12
12
12
12
12
12
12
12
12
12
12
12
12
12
12
12
12
12
12
12
12
12
12
12
12
12
12
12
12
12
12
12
12
12
12
12
12
12
12
12
12
12
12
12
12
12
12
12
12
12
12
12
12
12
12
12
12
12
12
12
12
12
12
12
12
12
12
12
12
12
12
12
12
12
12
12
12
12
12
12
12
12
12
12
12
12
12
12
12
12
12
12
12
12
12
12
12
12
12
12
12
12
12
12
12
12
12
12
12
12
12
12
12
12
12
12
12
12
12
12
12
12
12
12
12
12
12
12
12
12
12
12
12
12
12
12
12
12
12
12
12
12
12
12
12
12
12
12
12
12
12
12
12
12
12
12
12
12
12
12
12
12
12
12
12
12
12
12
12
12
12
12
12
12
12
12
12
12
12
12
12
12
12
12
12
12
12
12
12
12
12
12
12
12
12
12
12
12
12
12
12
12
12
12
12
12
12
12
12
12
12
12
12
12
12
12
12
12
12
12
12
12
12
12
12
12
12
12
12
12
12
12
12
12
12
12
12
12
12
12
12
12
12
12
12
12
12
12
12
12
12
12
12
12
12
12
12
12
12
12
12
12
12
12
12
12
12
12
12
12
12
12
12
12
12
12
12
12
12
12
12
12
12
12
12
12
12
12
12
12
12
12
12
12
12
12
12
12
12
12
12
12
12
12
12
12
12
12
12
12
12
12
12
12
12
12
12
12
12
12
12
12
12
12
12
12
12
12
12
12
12
12
12
12
12
12
12
12
12
12
12
12
12
12
12
12
12
12
12
12
12
12
12
12
12
12
12
12
12
12
12
12
12
12
12
12
12
12
12
12
12
12
12
12
12
12
12
12
12
12
12
12
12
12
12
12
12
12
12
12
12
12
12
12
12
12
12
12
12
12
12
12
12
12
12
12
12
12
12
12
12
12
12
12
12
12
12
12
12
12
12
12
12
12
12
12
12
12
12
12
12
12
12
12
12
12
12
12
12
12
12
12
12
12
12
12
12
12
12
12
12
12
12
12
12
12
12
12
12
12
12
12
12
12
12
12
12
12
12
12
12
12
12
12
12
12
12
12
12
12
12
12
12
12
12
12
12
12
12
12
12
12
12
12
12
12
12
12
12
12
12
12
12
12
12
12
12
12
12
12
12
12
12
12
12
12
12
12
12
12
12
12
12
12
12
12
12
12
12
12
12
12
12
12
12
12
12
12
12
12
12
12
12
12
12
12
12
12
12
12
12
12
12
12
12
12
12
12
12
12
12
12
12
12
12
12
12
12
12
12
12
12
12
12
12
12
12
12
12
12
12
12
12
12
12
12
12
12
12
12
12
12
12
12
12
12
12
12
12
12
12
12
12
12
12
12
12
12
12
12
12
12
12
12
12
12
12
12
12
12
12
12
12
12
12
12
12
12
12
12
12
12
12
12
12
12
12
12
12
12
12
12
12
12
12
POINT_DATA 4598
SCALARS DISPLACEMENT double 3
LOOKUP_TABLE default
0 0 0
0 0 0
0 0 0
0 0 0
0 0 0
0 0 0
0 0 0
0 0 0
0 0 0
0 0 0
0 0 0
0 0 0
0 0 0
0 0 0
0 0 0
0 0 0
0 0 0
0 0 0
0 0 0
0 0 0
0 0 0
0 0 0
0 0 0
0 0 0
0 0 0
0 0 0
0 0 0
0 0 0
0 0 0
0 0 0
0 0 0
0 0 0
0 0 0
0 0 0
0 0 0
0 0 0
0 0 0
0 0 0
0 0 0
0 0 0
0 0 0
0 0 0
0 0 0
0 0 0
0 0 0
0 0 0
0 0 0
0 0 0
0 0 0
0 0 0
0 0 0
0 0 0
0 0 0
0 0 0
0 0 0
0 0 0
0 0 0
0 0 0
0 0 0
0 0 0
0 0 0
0 0 0
0 0 0
0 0 0
0 0 0
0 0 0
0 0 0
0 0 0
0 0 0
0 0 0
0 0 0
0 0 0
0 0 0
0 0 0
0 0 0
0 0 0
0 0 0
0 0 0
0 0 0
0 0 0
0 0 0
0 0 0
0 0 0
0 0 0
0 0 0
0 0 0
0 0 0
0 0 0
0 0 0
0 0 0
0 0 0
0 0 0
0 0 0
0 0 0
0 0 0
0 0 0
0 0 0
0 0 0
0 0 0
0 0 0
0 0 0
0 0 0
0 0 0
0 0 0
0 0 0
0 0 0
0 0 0
0 0 0
0 0 0
0 0 0
0 0 0
0 0 0
0 0 0
0 0 0
0 0 0
0 0 0
0 0 0
0 0 0
0 0 0
0 0 0
0 0 0
0 0 0
0 0 0
0 0 0
0 0 0
0 0 0
0 0 0
0 0 0
0 0 0
0 0 0
0 0 0
0 0 0
0 0 0
0 0 0
0 0 0
0 0 0
0 0 0
0 0 0
0 0 0
0 0 0
0 0 0
0 0 0
0 0 0
0 0 0
0 0 0
0 0 0
0 0 0
0 0 0
0 0 0
0 0 0
0 0 0
0 0 0
0 0 0
0 0 0
0 0 0
0 0 0
0 0 0
0 0 0
0 0 0
0 0 0
0 0 0
0 0 0
0 0 0
0 0 0
0 0 0
0 0 0
0 0 0
0 0 0
0 0 0
0 0 0
0 0 0
0 0 0
0 0 0
0 0 0
0 0 0
0 0 0
0 0 0
0 0 0
0 0 0
0 0 0
0 0 0
0 0 0
0 0 0
0 0 0
0 0 0
0 0 0
0 0 0
0 0 0
0 0 0
0 0 0
0 0 0
0 0 0
0 0 0
0 0 0
0 0 0
0 0 0
0 0 0
0 0 0
0 0 0
0 0 0
0 0 0
0 0 0
0 0 0
0 0 0
0 0 0
0 0 0
0 0 0
0 0 0
0 0 0
0 0 0
0 0 0
0 0 0
0 0 0
0 0 0
0 0 0
0 0 0
0 0 0
0 0 0
0 0 0
0 0 0
0 0 0
0 0 0
0 0 0
0 0 0
0 0 0
0 0 0
0 0 0
0 0 0
0 0 0
0 0 0
0 0 0
0 0 0
0 0 0
0 0 0
0 0 0
0 0 0
0 0 0
0 0 0
0 0 0
0 0 0
0 0 0
0 0 0
0 0 0
0 0 0
0 0 0
0 0 0
0 0 0
0 0 0
0 0 0
0 0 0
0 0 0
0 0 0
0 0 0
0 0 0
0 0 0
0 0 0
0 0 0
0 0 0
0 0 0
0 0 0
0 0 0
0 0 0
0 0 0
0 0 0
0 0 0
0 0 0
0 0 0
0 0 0
0 0 0
0 0 0
0 0 0
0 0 0
0 0 0
0 0 0
0 0 0
0 0 0
0 0 0
0 0 0
0 0 0
0 0 0
0 0 0
0 0 0
0 0 0
0 0 0
0 0 0
0 0 0
0 0 0
0 0 0
0 0 0
0 0 0
0 0 0
0 0 0
0 0 0
0 0 0
0 0 0
0 0 0
0 0 0
0 0 0
0 0 0
0 0 0
0 0 0
0 0 0
0 0 0
0 0 0
0 0 0
0 0 0
0 0 0
0 0 0
0 0 0
0 0 0
0 0 0
0 0 0
0 0 0
0 0 0
0 0 0
0 0 0
0 0 0
0 0 0
0 0 0
0 0 0
0 0 0
0 0 0
0 0 0
0 0 0
0 0 0
0 0 0
0 0 0
0 0 0
0 0 0
0 0 0
0 0 0
0 0 0
0 0 0
0 0 0
0 0 0
0 0 0
0 0 0
0 0 0
0 0 0
0 0 0
0 0 0
0 0 0
0 0 0
0 0 0
0 0 0
0 0 0
0 0 0
0 0 0
0 0 0
0 0 0
0 0 0
0 0 0
0 0 0
0 0 0
0 0 0
0 0 0
0 0 0
0 0 0
0 0 0
0 0 0
0 0 0
0 0 0
0 0 0
0 0 0
0 0 0
0 0 0
0 0 0
0 0 0
0 0 0
0 0 0
0 0 0
0 0 0
0 0 0
0 0 0
0 0 0
0 0 0
0 0 0
0 0 0
0 0 0
0 0 0
0 0 0
0 0 0
0 0 0
0 0 0
0 0 0
0 0 0
0 0 0
0 0 0
0 0 0
0 0 0
0 0 0
0 0 0
0 0 0
0 0 0
0 0 0
0 0 0
0 0 0
0 0 0
0 0 0
0 0 0
0 0 0
0 0 0
0 0 0
0 0 0
0 0 0
0 0 0
0 0 0
0 0 0
0 0 0
0 0 0
0 0 0
0 0 0
0 0 0
0 0 0
0 0 0
0 0 0
0 0 0
0 0 0
0 0 0
0 0 0
0 0 0
0 0 0
0 0 0
0 0 0
0 0 0
0 0 0
0 0 0
0 0 0
0 0 0
0 0 0
0 0 0
0 0 0
0 0 0
0 0 0
0 0 0
0 0 0
0 0 0
0 0 0
0 0 0
0 0 0
0 0 0
0 0 0
0 0 0
0 0 0
0 0 0
0 0 0
0 0 0
0 0 0
0 0 0
0 0 0
0 0 0
0 0 0
0 0 0
0 0 0
0 0 0
0 0 0
0 0 0
0 0 0
0 0 0
0 0 0
0 0 0
0 0 0
0 0 0
0 0 0
0 0 0
0 0 0
0 0 0
0 0 0
0 0 0
0 0 0
0 0 0
0 0 0
0 0 0
0 0 0
0 0 0
0 0 0
0 0 0
0 0 0
0 0 0
0 0 0
0 0 0
0 0 0
0 0 0
0 0 0
0 0 0
0 0 0
0 0 0
0 0 0
0 0 0
0 0 0
0 0 0
0 0 0
0 0 0
0 0 0
0 0 0
0 0 0
0 0 0
0 0 0
0 0 0
0 0 0
0 0 0
0 0 0
0 0 0
0 0 0
0 0 0
0 0 0
0 0 0
0 0 0
0 0 0
0 0 0
0 0 0
0 0 0
0 0 0
0 0 0
0 0 0
0 0 0
0 0 0
0 0 0
0 0 0
0 0 0
0 0 0
0 0 0
0 0 0
0 0 0
0 0 0
0 0 0
0 0 0
0 0 0
0 0 0
0 0 0
0 0 0
0 0 0
0 0 0
0 0 0
0 0 0
0 0 0
0 0 0
0 0 0
0 0 0
0 0 0
0 0 0
0 0 0
0 0 0
0 0 0
0 0 0
0 0 0
0 0 0
0 0 0
0 0 0
0 0 0
0 0 0
0 0 0
0 0 0
0 0 0
0 0 0
0 0 0
0 0 0
0 0 0
0 0 0
0 0 0
0 0 0
0 0 0
0 0 0
0 0 0
0 0 0
0 0 0
0 0 0
0 0 0
0 0 0
0 0 0
0 0 0
0 0 0
0 0 0
0 0 0
0 0 0
0 0 0
0 0 0
0 0 0
0 0 0
0 0 0
0 0 0
0 0 0
0 0 0
0 0 0
0 0 0
0 0 0
0 0 0
0 0 0
0 0 0
0 0 0
0 0 0
0 0 0
0 0 0
0 0 0
0 0 0
0 0 0
0 0 0
0 0 0
0 0 0
0 0 0
0 0 0
0 0 0
0 0 0
0 0 0
0 0 0
0 0 0
0 0 0
0 0 0
0 0 0
0 0 0
0 0 0
0 0 0
0 0 0
0 0 0
0 0 0
0 0 0
0 0 0
0 0 0
0 0 0
0 0 0
0 0 0
0 0 0
0 0 0
0 0 0
0 0 0
0 0 0
0 0 0
0 0 0
0 0 0
0 0 0
0 0 0
0 0 0
0 0 0
0 0 0
0 0 0
0 0 0
0 0 0
0 0 0
0 0 0
0 0 0
0 0 0
0 0 0
0 0 0
0 0 0
0 0 0
0 0 0
0 0 0
0 0 0
0 0 0
0 0 0
0 0 0
0 0 0
0 0 0
0 0 0
0 0 0
0 0 0
0 0 0
0 0 0
0 0 0
0 0 0
0 0 0
0 0 0
0 0 0
0 0 0
0 0 0
0 0 0
0 0 0
0 0 0
0 0 0
0 0 0
0 0 0
0 0 0
0 0 0
0 0 0
0 0 0
0 0 0
0 0 0
0 0 0
0 0 0
0 0 0
0 0 0
0 0 0
0 0 0
0 0 0
0 0 0
0 0 0
0 0 0
0 0 0
0 0 0
0 0 0
0 0 0
0 0 0
0 0 0
0 0 0
0 0 0
0 0 0
0 0 0
0 0 0
0 0 0
0 0 0
0 0 0
0 0 0
0 0 0
0 0 0
0 0 0
0 0 0
0 0 0
0 0 0
0 0 0
0 0 0
0 0 0
0 0 0
0 0 0
0 0 0
0 0 0
0 0 0
0 0 0
0 0 0
0 0 0
0 0 0
0 0 0
0 0 0
0 0 0
0 0 0
0 0 0
0 0 0
0 0 0
0 0 0
0 0 0
0 0 0
0 0 0
0 0 0
0 0 0
0 0 0
0 0 0
0 0 0
0 0 0
0 0 0
0 0 0
0 0 0
0 0 0
0 0 0
0 0 0
0 0 0
0 0 0
0 0 0
0 0 0
0 0 0
0 0 0
0 0 0
0 0 0
0 0 0
0 0 0
0 0 0
0 0 0
0 0 0
0 0 0
0 0 0
0 0 0
0 0 0
0 0 0
0 0 0
0 0 0
0 0 0
0 0 0
0 0 0
0 0 0
0 0 0
0 0 0
0 0 0
0 0 0
0 0 0
0 0 0
0 0 0
0 0 0
0 0 0
0 0 0
0 0 0
0 0 0
0 0 0
0 0 0
0 0 0
0 0 0
0 0 0
0 0 0
0 0 0
0 0 0
0 0 0
0 0 0
0 0 0
0 0 0
0 0 0
0 0 0
0 0 0
0 0 0
0 0 0
0 0 0
0 0 0
0 0 0
0 0 0
0 0 0
0 0 0
0 0 0
0 0 0
0 0 0
0 0 0
0 0 0
0 0 0
0 0 0
0 0 0
0 0 0
0 0 0
0 0 0
0 0 0
0 0 0
0 0 0
0 0 0
0 0 0
0 0 0
0 0 0
0 0 0
0 0 0
0 0 0
0 0 0
0 0 0
0 0 0
0 0 0
0 0 0
0 0 0
0 0 0
0 0 0
0 0 0
0 0 0
0 0 0
0 0 0
0 0 0
0 0 0
0 0 0
0 0 0
0 0 0
0 0 0
0 0 0
0 0 0
0 0 0
0 0 0
0 0 0
0 0 0
0 0 0
0 0 0
0 0 0
0 0 0
0 0 0
0 0 0
0 0 0
0 0 0
0 0 0
0 0 0
0 0 0
0 0 0
0 0 0
0 0 0
0 0 0
0 0 0
0 0 0
0 0 0
0 0 0
0 0 0
0 0 0
0 0 0
0 0 0
0 0 0
0 0 0
0 0 0
0 0 0
0 0 0
0 0 0
0 0 0
0 0 0
0 0 0
0 0 0
0 0 0
0 0 0
0 0 0
0 0 0
0 0 0
0 0 0
0 0 0
0 0 0
0 0 0
0 0 0
0 0 0
0 0 0
0 0 0
0 0 0
0 0 0
0 0 0
0 0 0
0 0 0
0 0 0
0 0 0
0 0 0
0 0 0
0 0 0
0 0 0
0 0 0
0 0 0
0 0 0
0 0 0
0 0 0
0 0 0
0 0 0
0 0 0
0 0 0
0 0 0
0 0 0
0 0 0
0 0 0
0 0 0
0 0 0
0 0 0
0 0 0
0 0 0
0 0 0
0 0 0
0 0 0
0 0 0
0 0 0
0 0 0
0 0 0
0 0 0
0 0 0
0 0 0
0 0 0
0 0 0
0 0 0
0 0 0
0 0 0
0 0 0
0 0 0
0 0 0
0 0 0
0 0 0
0 0 0
0 0 0
0 0 0
0 0 0
0 0 0
0 0 0
0 0 0
0 0 0
0 0 0
0 0 0
0 0 0
0 0 0
0 0 0
0 0 0
0 0 0
0 0 0
0 0 0
0 0 0
0 0 0
0 0 0
0 0 0
0 0 0
0 0 0
0 0 0
0 0 0
0 0 0
0 0 0
0 0 0
0 0 0
0 0 0
0 0 0
0 0 0
0 0 0
0 0 0
0 0 0
0 0 0
0 0 0
0 0 0
0 0 0
0 0 0
0 0 0
0 0 0
0 0 0
0 0 0
0 0 0
0 0 0
0 0 0
0 0 0
0 0 0
0 0 0
0 0 0
0 0 0
0 0 0
0 0 0
0 0 0
0 0 0
0 0 0
0 0 0
0 0 0
0 0 0
0 0 0
0 0 0
0 0 0
0 0 0
0 0 0
0 0 0
0 0 0
0 0 0
0 0 0
0 0 0
0 0 0
0 0 0
0 0 0
0 0 0
0 0 0
0 0 0
0 0 0
0 0 0
0 0 0
0 0 0
0 0 0
0 0 0
0 0 0
0 0 0
0 0 0
0 0 0
0 0 0
0 0 0
0 0 0
0 0 0
0 0 0
0 0 0
0 0 0
0 0 0
0 0 0
0 0 0
0 0 0
0 0 0
0 0 0
0 0 0
0 0 0
0 0 0
0 0 0
0 0 0
0 0 0
0 0 0
0 0 0
0 0 0
0 0 0
0 0 0
0 0 0
0 0 0
0 0 0
0 0 0
0 0 0
0 0 0
0 0 0
0 0 0
0 0 0
0 0 0
0 0 0
0 0 0
0 0 0
0 0 0
0 0 0
0 0 0
0 0 0
0 0 0
0 0 0
0 0 0
0 0 0
0 0 0
0 0 0
0 0 0
0 0 0
0 0 0
0 0 0
0 0 0
0 0 0
0 0 0
0 0 0
0 0 0
0 0 0
0 0 0
0 0 0
0 0 0
0 0 0
0 0 0
0 0 0
0 0 0
0 0 0
0 0 0
0 0 0
0 0 0
0 0 0
0 0 0
0 0 0
0 0 0
0 0 0
0 0 0
0 0 0
0 0 0
0 0 0
0 0 0
0 0 0
0 0 0
0 0 0
0 0 0
0 0 0
0 0 0
0 0 0
0 0 0
0 0 0
0 0 0
0 0 0
0 0 0
0 0 0
0 0 0
0 0 0
0 0 0
0 0 0
0 0 0
0 0 0
0 0 0
0 0 0
0 0 0
0 0 0
0 0 0
0 0 0
0 0 0
0 0 0
0 0 0
0 0 0
0 0 0
0 0 0
0 0 0
0 0 0
0 0 0
0 0 0
0 0 0
0 0 0
0 0 0
0 0 0
0 0 0
0 0 0
0 0 0
0 0 0
0 0 0
0 0 0
0 0 0
0 0 0
0 0 0
0 0 0
0 0 0
0 0 0
0 0 0
0 0 0
0 0 0
0 0 0
0 0 0
0 0 0
0 0 0
0 0 0
0 0 0
0 0 0
0 0 0
0 0 0
0 0 0
0 0 0
0 0 0
0 0 0
0 0 0
0 0 0
0 0 0
0 0 0
0 0 0
0 0 0
0 0 0
0 0 0
0 0 0
0 0 0
0 0 0
0 0 0
0 0 0
0 0 0
0 0 0
0 0 0
0 0 0
0 0 0
0 0 0
0 0 0
0 0 0
0 0 0
0 0 0
0 0 0
0 0 0
0 0 0
0 0 0
0 0 0
0 0 0
0 0 0
0 0 0
0 0 0
0 0 0
0 0 0
0 0 0
0 0 0
0 0 0
0 0 0
0 0 0
0 0 0
0 0 0
0 0 0
0 0 0
0 0 0
0 0 0
0 0 0
0 0 0
0 0 0
0 0 0
0 0 0
0 0 0
0 0 0
0 0 0
0 0 0
0 0 0
0 0 0
0 0 0
0 0 0
0 0 0
0 0 0
0 0 0
0 0 0
0 0 0
0 0 0
0 0 0
0 0 0
0 0 0
0 0 0
0 0 0
0 0 0
0 0 0
0 0 0
0 0 0
0 0 0
0 0 0
0 0 0
0 0 0
0 0 0
0 0 0
0 0 0
0 0 0
0 0 0
0 0 0
0 0 0
0 0 0
0 0 0
0 0 0
0 0 0
0 0 0
0 0 0
0 0 0
0 0 0
0 0 0
0 0 0
0 0 0
0 0 0
0 0 0
0 0 0
0 0 0
0 0 0
0 0 0
0 0 0
0 0 0
0 0 0
0 0 0
0 0 0
0 0 0
0 0 0
0 0 0
0 0 0
0 0 0
0 0 0
0 0 0
0 0 0
0 0 0
0 0 0
0 0 0
0 0 0
0 0 0
0 0 0
0 0 0
0 0 0
0 0 0
0 0 0
0 0 0
0 0 0
0 0 0
0 0 0
0 0 0
0 0 0
0 0 0
0 0 0
0 0 0
0 0 0
0 0 0
0 0 0
0 0 0
0 0 0
0 0 0
0 0 0
0 0 0
0 0 0
0 0 0
0 0 0
0 0 0
0 0 0
0 0 0
0 0 0
0 0 0
0 0 0
0 0 0
0 0 0
0 0 0
0 0 0
0 0 0
0 0 0
0 0 0
0 0 0
0 0 0
0 0 0
0 0 0
0 0 0
0 0 0
0 0 0
0 0 0
0 0 0
0 0 0
0 0 0
0 0 0
0 0 0
0 0 0
0 0 0
0 0 0
0 0 0
0 0 0
0 0 0
0 0 0
0 0 0
0 0 0
0 0 0
0 0 0
0 0 0
0 0 0
0 0 0
0 0 0
0 0 0
0 0 0
0 0 0
0 0 0
0 0 0
0 0 0
0 0 0
0 0 0
0 0 0
0 0 0
0 0 0
0 0 0
0 0 0
0 0 0
0 0 0
0 0 0
0 0 0
0 0 0
0 0 0
0 0 0
0 0 0
0 0 0
0 0 0
0 0 0
0 0 0
0 0 0
0 0 0
0 0 0
0 0 0
0 0 0
-0.323486 0.0217215 -0.151726
-0.32487 0.0226342 -0.153258
-0.331643 0.0230445 -0.155423
-0.338379 0.023459 -0.157573
-0.345065 0.0238778 -0.159701
-0.35169 0.0243009 -0.161806
-0.358238 0.0247286 -0.163881
-0.319157 0.0231295 -0.1526
-0.325724 0.0235426 -0.15477
-0.332256 0.0239601 -0.156926
-0.338742 0.024382 -0.159063
-0.34517 0.0248083 -0.161178
-0.351526 0.0252393 -0.163265
-0.313361 0.0236093 -0.151927
-0.319719 0.0240245 -0.154102
-0.326045 0.0244442 -0.156264
-0.332327 0.0248684 -0.158409
-0.338556 0.0252972 -0.160534
-0.30749 0.0240731 -0.151239
-0.313637 0.0244894 -0.153419
-0.319753 0.0249105 -0.155587
-0.325829 0.0253362 -0.157741
-0.331855 0.0257667 -0.159876
-0.301552 0.0245202 -0.150537
-0.307485 0.0249368 -0.152721
-0.31339 0.0253584 -0.154896
-0.319257 0.0257848 -0.157058
-0.325078 0.026216 -0.159203
-0.295554 0.02495 -0.149821
-0.301273 0.025366 -0.15201
-0.306964 0.0257871 -0.154191
-0.312621 0.0262132 -0.156361
-0.289507 0.0253619 -0.149092
-0.295009 0.0257762 -0.151285
-0.300486 0.0261959 -0.153473
-0.30593 0.0266208 -0.155651
-0.278115 0.0253491 -0.14615
-0.283419 0.0257552 -0.14835
-0.288703 0.0261668 -0.150548
-0.293964 0.0265841 -0.152741
-0.299194 0.0270068 -0.154928
-0.272212 0.0257272 -0.145394
-0.277298 0.0261292 -0.147597
-0.282366 0.0265371 -0.149799
-0.28741 0.0269508 -0.151998
-0.2467 0.0245605 -0.135845
-0.251608 0.0249331 -0.138033
-0.25651 0.0253116 -0.140227
-0.261404 0.0256961 -0.142425
-0.266287 0.0260867 -0.144627
-0.271156 0.0264835 -0.146832
-0.276006 0.0268865 -0.149038
-0.280833 0.0272955 -0.151242
-0.241618 0.0249285 -0.135071
-0.246314 0.0252939 -0.137256
-0.251002 0.0256654 -0.139448
-0.255681 0.0260432 -0.141646
-0.260349 0.0264271 -0.14385
-0.265001 0.0268175 -0.146057
-0.249953 0.0263719 -0.140858
-0.254407 0.026748 -0.143062
-0.258844 0.0271305 -0.145271
-0.321695 -0.00431172 -0.131322
-0.323065 -0.00484019 -0.133616
-0.32983 -0.00542891 -0.13596
-0.336558 -0.0060021 -0.138324
-0.343236 -0.00655663 -0.140709
-0.349853 -0.00708902 -0.143116
-0.356392 -0.00759544 -0.145549
-0.317347 -0.00475564 -0.133574
-0.323905 -0.00535357 -0.135918
-0.330428 -0.00593637 -0.138281
-0.336905 -0.00650085 -0.140664
-0.343325 -0.00704347 -0.143071
-0.349672 -0.0075603 -0.145502
-0.311545 -0.00464898 -0.133522
-0.317893 -0.00525523 -0.135866
-0.324209 -0.0058468 -0.138228
-0.330483 -0.00642049 -0.140611
-0.336702 -0.0069727 -0.143017
-0.305667 -0.00451939 -0.13346
-0.311804 -0.00513297 -0.135803
-0.317911 -0.0057324 -0.138165
-0.323977 -0.00631447 -0.140548
-0.329993 -0.00687554 -0.142953
-0.299723 -0.00436603 -0.133387
-0.305646 -0.00498587 -0.13573
-0.31154 -0.00559216 -0.138092
-0.317397 -0.00618169 -0.140475
-0.323207 -0.00675082 -0.14288
-0.29372 -0.00418809 -0.133301
-0.299427 -0.00481301 -0.135644
-0.305107 -0.00542506 -0.138007
-0.310752 -0.00602105 -0.14039
-0.287666 -0.00398475 -0.133202
-0.293157 -0.0046135 -0.135546
-0.298621 -0.00523011 -0.137909
-0.304053 -0.00583143 -0.140294
-0.27628 -0.00311529 -0.130762
-0.281571 -0.00375522 -0.133088
-0.286844 -0.00438644 -0.135433
-0.292092 -0.00500629 -0.137798
-0.297309 -0.00561169 -0.140184
-0.270372 -0.00285857 -0.130632
-0.275445 -0.00349875 -0.13296
-0.2805 -0.00413095 -0.135306
-0.28553 -0.0047526 -0.137672
-0.244905 1.45796e-05 -0.12135
-0.2498 -0.000635254 -0.123609
-0.254689 -0.00128447 -0.125884
-0.259571 -0.00193182 -0.128176
-0.264441 -0.00257579 -0.130486
-0.269296 -0.0032146 -0.132815
-0.274133 -0.00384618 -0.135163
-0.278946 -0.00446806 -0.137531
-0.23982 0.00030611 -0.121185
-0.244502 -0.000338568 -0.123444
-0.249177 -0.000983039 -0.125719
-0.253843 -0.00162611 -0.128012
-0.258497 -0.00226635 -0.130323
-0.263135 -0.00290207 -0.132653
-0.267755 -0.00353131 -0.135003
-0.272351 -0.00415172 -0.137373
-0.234722 0.000617814 -0.121002
-0.239194 -1.99951e-05 -0.12326
-0.243657 -0.000657994 -0.125535
-0.24811 -0.00129503 -0.127829
-0.252549 -0.00192973 -0.130142
-0.256972 -0.0025605 -0.132473
-0.261376 -0.00318556 -0.134825
-0.265756 -0.00380266 -0.137197
-0.323436 0.0206017 -0.150864
-0.324819 0.0214509 -0.152429
-0.331594 0.0218172 -0.154601
-0.338331 0.0221881 -0.156757
-0.345019 0.0225639 -0.158895
-0.351646 0.0229448 -0.161011
-0.358195 0.0233312 -0.163099
-0.319104 0.0219278 -0.151798
-0.325673 0.0222963 -0.153974
-0.332206 0.0226696 -0.156137
-0.338693 0.0230478 -0.158283
-0.345123 0.0234313 -0.160408
-0.351481 0.0238202 -0.162508
-0.313306 0.0223908 -0.151152
-0.319665 0.0227608 -0.153333
-0.325992 0.0231357 -0.155502
-0.332276 0.0235157 -0.157656
-0.338506 0.0239009 -0.159791
-0.307433 0.0228394 -0.150492
-0.31358 0.0232101 -0.152677
-0.319697 0.0235859 -0.154853
-0.325775 0.0239668 -0.157015
-0.331802 0.0243531 -0.159159
-0.301492 0.0232731 -0.149818
-0.307426 0.0236436 -0.152008
-0.313332 0.0240195 -0.154189
-0.3192 0.0244006 -0.156359
-0.325022 0.0247871 -0.158513
-0.295493 0.0236912 -0.14913
-0.301211 0.0240608 -0.151324
-0.306903 0.0244358 -0.153512
-0.312561 0.0248163 -0.15569
-0.289443 0.0240931 -0.148429
-0.294945 0.0244609 -0.150628
-0.300422 0.0248343 -0.152821
-0.305867 0.0252132 -0.155007
-0.278048 0.0241192 -0.145511
-0.283352 0.0244785 -0.147716
-0.288637 0.0248435 -0.149919
-0.293898 0.0252142 -0.152118
-0.299128 0.0255906 -0.154311
-0.272143 0.0244913 -0.144784
-0.277229 0.0248466 -0.14699
-0.282296 0.0252078 -0.149197
-0.28734 0.0255748 -0.151402
-0.246631 0.0235042 -0.135249
-0.251538 0.0238313 -0.137439
-0.256439 0.0241639 -0.139636
-0.261333 0.0245024 -0.141838
-0.266216 0.0248467 -0.144044
-0.271084 0.0251969 -0.146254
-0.275934 0.0255532 -0.148464
-0.280761 0.0259156 -0.150675
-0.241547 0.0238685 -0.134502
-0.246242 0.0241889 -0.13669
-0.250929 0.024515 -0.138885
-0.255608 0.024847 -0.141087
-0.260275 0.0251849 -0.143294
-0.264927 0.025529 -0.145506
-0.249878 0.0251752 -0.140326
-0.25433 0.0255057 -0.142534
-0.258767 0.0258423 -0.144747
-0.323334 0.0183881 -0.149153
-0.323385 0.0194908 -0.150009
-0.324716 0.0191132 -0.150781
-0.324768 0.0202773 -0.151605
-0.331493 0.0193936 -0.152966
-0.331544 0.0206004 -0.153784
-0.338232 0.0196796 -0.155138
-0.338282 0.0209286 -0.155948
-0.344923 0.0199717 -0.157296
-0.344971 0.0212622 -0.158096
-0.351552 0.0202704 -0.159434
-0.351599 0.0216017 -0.160223
-0.358105 0.0205763 -0.161549
-0.358151 0.0219476 -0.162325
-0.318998 0.0195543 -0.150203
-0.319051 0.0207361 -0.151001
-0.325568 0.0198358 -0.152392
-0.32562 0.0210608 -0.153184
-0.332103 0.020123 -0.15457
-0.332154 0.0213907 -0.155355
-0.338593 0.0204163 -0.156735
-0.338643 0.0217261 -0.15751
-0.345025 0.0207162 -0.158882
-0.345074 0.0220675 -0.159646
-0.351386 0.0210235 -0.161007
-0.351434 0.0224153 -0.161759
-0.313196 0.0199848 -0.149611
-0.313251 0.0211825 -0.150382
-0.319556 0.0202668 -0.151805
-0.319611 0.0215082 -0.15257
-0.325884 0.0205545 -0.153988
-0.325938 0.0218391 -0.154746
-0.33217 0.0208484 -0.15616
-0.332223 0.0221757 -0.156909
-0.338403 0.021149 -0.158315
-0.338454 0.0225183 -0.159054
-0.307318 0.0204041 -0.149005
-0.307376 0.0216162 -0.14975
-0.313467 0.0206859 -0.151203
-0.313524 0.0219421 -0.151941
-0.319586 0.0209736 -0.153392
-0.319642 0.0222734 -0.154124
-0.325665 0.0212675 -0.155571
-0.32572 0.0226105 -0.156294
-0.331694 0.0215681 -0.157735
-0.331748 0.0229536 -0.158448
-0.301374 0.0208118 -0.148386
-0.301433 0.0220365 -0.149103
-0.307309 0.0210928 -0.150587
-0.307367 0.022362 -0.151299
-0.313215 0.0213798 -0.152782
-0.313273 0.022693 -0.153487
-0.319085 0.021673 -0.154968
-0.319143 0.0230297 -0.155665
-0.324909 0.0219729 -0.157142
-0.324965 0.0233726 -0.157829
-0.29537 0.0212075 -0.147753
-0.295431 0.0224431 -0.148443
-0.301089 0.021487 -0.149958
-0.30115 0.0227673 -0.150643
-0.306782 0.0217726 -0.152159
-0.306843 0.0230972 -0.152837
-0.312441 0.0220644 -0.154352
-0.312501 0.0234329 -0.155022
-0.289316 0.0215907 -0.147107
-0.289379 0.0228354 -0.147769
-0.294819 0.0218681 -0.149317
-0.294882 0.0231576 -0.149974
-0.300296 0.0221515 -0.151523
-0.300359 0.0234855 -0.152174
-0.305741 0.0224413 -0.153723
-0.305804 0.0238194 -0.154367
-0.277917 0.0216924 -0.144235
-0.277982 0.0228994 -0.144875
-0.283221 0.021961 -0.146448
-0.283286 0.0232129 -0.147084
-0.288506 0.0222355 -0.148662
-0.288571 0.0235322 -0.149292
-0.293767 0.022516 -0.150874
-0.293832 0.0238573 -0.151498
-0.298997 0.022803 -0.153081
-0.299062 0.0241886 -0.153698
-0.272008 0.0220532 -0.143561
-0.272075 0.0232656 -0.144174
-0.277093 0.022318 -0.145777
-0.277161 0.0235752 -0.146386
-0.282161 0.0225887 -0.147995
-0.282228 0.0238906 -0.148598
-0.287204 0.0228656 -0.150212
-0.287272 0.0242121 -0.150809
-0.246496 0.0214158 -0.134054
-0.246563 0.0224549 -0.134653
-0.251402 0.0216544 -0.13625
-0.251469 0.0227373 -0.136846
-0.256302 0.021898 -0.138453
-0.25637 0.0230249 -0.139046
-0.261195 0.0221468 -0.140662
-0.261263 0.0233181 -0.141252
-0.266077 0.0224012 -0.142876
-0.266146 0.0236169 -0.143462
-0.270944 0.0226613 -0.145095
-0.271013 0.0239216 -0.145676
-0.275793 0.0229274 -0.147316
-0.275863 0.0242324 -0.147892
-0.28062 0.0231997 -0.149538
-0.28069 0.0245492 -0.150109
-0.24141 0.0217733 -0.13336
-0.241478 0.0228156 -0.133933
-0.246103 0.0220061 -0.135554
-0.246172 0.0230917 -0.136124
-0.250789 0.0222439 -0.137756
-0.250859 0.0233732 -0.138322
-0.255466 0.0224871 -0.139965
-0.255537 0.0236603 -0.140528
-0.260132 0.0227358 -0.14218
-0.260203 0.0239531 -0.142739
-0.264782 0.0229904 -0.144401
-0.264854 0.0242519 -0.144955
-0.269414 0.023251 -0.146626
-0.269486 0.0245569 -0.147175
-0.274024 0.023518 -0.148853
-0.236312 0.0221207 -0.132655
-0.236381 0.0231648 -0.133202
-0.240794 0.0223468 -0.134847
-0.240864 0.0234337 -0.135391
-0.245268 0.0225781 -0.137048
-0.245339 0.023708 -0.137588
-0.249732 0.0228147 -0.139256
-0.249804 0.023988 -0.139793
-0.254183 0.0230569 -0.141473
-0.254256 0.0242738 -0.142005
-0.258618 0.0233049 -0.143696
-0.258692 0.0245656 -0.144224
-0.263035 0.0235591 -0.145924
-0.263109 0.0248637 -0.146447
-0.267429 0.0238198 -0.148157
-0.323276 0.0172927 -0.148299
-0.323276 0.0172921 -0.148299
-0.324657 0.0179571 -0.149959
-0.324657 0.0179564 -0.149958
-0.331434 0.0181954 -0.15215
-0.331434 0.0181947 -0.15215
-0.338174 0.0184398 -0.154331
-0.338174 0.018439 -0.154331
-0.344866 0.0186907 -0.156498
-0.344866 0.0186899 -0.156498
-0.351497 0.018949 -0.158649
-0.351497 0.0189481 -0.158648
-0.358052 0.0192155 -0.160778
-0.358052 0.0192146 -0.160778
-0.318937 0.0183811 -0.149407
-0.318937 0.0183804 -0.149407
-0.325507 0.0186199 -0.151603
-0.325507 0.0186191 -0.151602
-0.332043 0.0188649 -0.153789
-0.332043 0.018864 -0.153788
-0.338534 0.0191165 -0.155963
-0.338534 0.0191156 -0.155962
-0.344968 0.0193754 -0.158121
-0.344968 0.0193745 -0.15812
-0.35133 0.0196426 -0.16026
-0.35133 0.0196416 -0.16026
-0.313133 0.0187959 -0.148841
-0.313133 0.0187951 -0.148841
-0.319494 0.0190347 -0.151041
-0.319494 0.0190339 -0.151041
-0.325823 0.0192797 -0.153232
-0.325823 0.0192789 -0.153232
-0.33211 0.0195315 -0.155413
-0.33211 0.0195306 -0.155413
-0.338343 0.0197905 -0.15758
-0.338343 0.0197896 -0.157579
-0.307254 0.0192011 -0.148262
-0.307254 0.0192004 -0.148262
-0.313403 0.0194395 -0.150466
-0.313403 0.0194387 -0.150465
-0.319522 0.019684 -0.152662
-0.319522 0.0196831 -0.152662
-0.325602 0.0199353 -0.15485
-0.325602 0.0199343 -0.15485
-0.331633 0.0201939 -0.157025
-0.331633 0.0201929 -0.157024
-0.301308 0.0195965 -0.147669
-0.301308 0.0195958 -0.147669
-0.307243 0.0198338 -0.149877
-0.307243 0.019833 -0.149877
-0.31315 0.0200773 -0.152079
-0.31315 0.0200764 -0.152079
-0.319021 0.0203275 -0.154273
-0.319021 0.0203265 -0.154273
-0.324845 0.0205851 -0.156457
-0.324845 0.020584 -0.156456
-0.295302 0.0199817 -0.147063
-0.295302 0.0199809 -0.147063
-0.301022 0.0202173 -0.149275
-0.301022 0.0202164 -0.149274
-0.306715 0.0204591 -0.151482
-0.306715 0.0204581 -0.151482
-0.312374 0.0207076 -0.153683
-0.312374 0.0207066 -0.153683
-0.289246 0.0203562 -0.146444
-0.289246 0.0203554 -0.146444
-0.294749 0.0205894 -0.148659
-0.294749 0.0205886 -0.148659
-0.300227 0.020829 -0.150872
-0.300227 0.020828 -0.150872
-0.305672 0.0210753 -0.15308
-0.305672 0.0210742 -0.15308
-0.277846 0.0204953 -0.143594
-0.277846 0.0204945 -0.143594
-0.283149 0.0207197 -0.145812
-0.283149 0.0207188 -0.145812
-0.288434 0.02095 -0.148031
-0.288434 0.0209491 -0.148031
-0.293695 0.0211866 -0.15025
-0.293695 0.0211856 -0.150249
-0.298926 0.0214299 -0.152465
-0.298926 0.0214289 -0.152464
-0.271935 0.0208511 -0.142947
-0.271935 0.0208503 -0.142947
-0.27702 0.0210718 -0.145168
-0.27702 0.0210709 -0.145168
-0.282087 0.0212984 -0.147391
-0.282087 0.0212975 -0.147391
-0.287131 0.0215314 -0.149615
-0.287131 0.0215304 -0.149614
-0.246424 0.0203845 -0.133453
-0.246424 0.020384 -0.133453
-0.251329 0.0205799 -0.135652
-0.251329 0.0205793 -0.135652
-0.256229 0.0207801 -0.137858
-0.256229 0.0207794 -0.137858
-0.261121 0.0209853 -0.14007
-0.261121 0.0209845 -0.14007
-0.266002 0.0211958 -0.142289
-0.266002 0.021195 -0.142289
-0.270869 0.0214121 -0.144512
-0.270869 0.0214112 -0.144512
-0.275718 0.0216343 -0.146739
-0.275718 0.0216334 -0.146739
-0.280544 0.0218629 -0.148967
-0.280544 0.0218619 -0.148967
-0.241337 0.0207389 -0.132785
-0.241337 0.0207383 -0.132785
-0.246029 0.020929 -0.134982
-0.246029 0.0209284 -0.134982
-0.250714 0.0211239 -0.137187
-0.250714 0.0211232 -0.137187
-0.25539 0.0213238 -0.139399
-0.25539 0.0213231 -0.139399
-0.260055 0.0215292 -0.141619
-0.260055 0.0215284 -0.141619
-0.264705 0.0217403 -0.143844
-0.264705 0.0217394 -0.143844
-0.269337 0.0219574 -0.146074
-0.269337 0.0219564 -0.146074
-0.273946 0.0221809 -0.148308
-0.273946 0.0221798 -0.148308
-0.236237 0.0210846 -0.132106
-0.236237 0.0210841 -0.132106
-0.240718 0.0212687 -0.134301
-0.240718 0.021268 -0.134301
-0.245191 0.0214576 -0.136505
-0.245191 0.0214569 -0.136505
-0.249654 0.0216516 -0.138717
-0.249654 0.0216508 -0.138717
-0.254105 0.021851 -0.140937
-0.254105 0.0218502 -0.140938
-0.258539 0.022056 -0.143165
-0.258539 0.0220551 -0.143165
-0.262955 0.0222672 -0.145399
-0.262955 0.0222662 -0.145399
-0.267348 0.0224847 -0.147637
-0.267348 0.0224836 -0.147637
-0.323217 0.0162028 -0.14745
-0.324597 0.0168068 -0.149142
-0.331375 0.0170033 -0.151342
-0.338116 0.0172063 -0.153532
-0.344809 0.0174165 -0.15571
-0.351441 0.0176347 -0.157873
-0.357996 0.0178621 -0.160018
-0.318875 0.0172135 -0.148617
-0.325446 0.01741 -0.15082
-0.331983 0.017613 -0.153015
-0.338475 0.0178233 -0.155199
-0.344909 0.0180417 -0.15737
-0.351273 0.0182692 -0.159523
-0.31307 0.0176126 -0.148077
-0.319432 0.0178087 -0.150284
-0.325761 0.0180113 -0.152484
-0.332049 0.0182212 -0.154675
-0.338283 0.0184392 -0.156853
-0.30719 0.0180038 -0.147524
-0.313339 0.018199 -0.149735
-0.319459 0.0184008 -0.15194
-0.325539 0.0186098 -0.154137
-0.33157 0.0188268 -0.156323
-0.301242 0.0183869 -0.146958
-0.307177 0.0185807 -0.149172
-0.313085 0.018781 -0.151382
-0.318956 0.0189887 -0.153586
-0.32478 0.0192043 -0.15578
-0.295235 0.0187614 -0.146378
-0.300954 0.0189533 -0.148596
-0.306648 0.0191518 -0.150811
-0.312307 0.0193575 -0.153022
-0.289177 0.0191271 -0.145785
-0.29468 0.0193166 -0.148007
-0.300158 0.0195126 -0.150228
-0.305604 0.0197158 -0.152444
-0.277775 0.0193031 -0.142956
-0.283078 0.0194836 -0.14518
-0.288363 0.0196701 -0.147406
-0.293624 0.0198632 -0.149631
-0.298855 0.0200634 -0.151854
-0.271863 0.0196537 -0.142336
-0.276948 0.0198306 -0.144562
-0.282014 0.0200136 -0.146791
-0.287058 0.0202031 -0.149022
-0.246353 0.0193565 -0.132853
-0.251257 0.019509 -0.135055
-0.256156 0.019666 -0.137264
-0.261047 0.019828 -0.139481
-0.265928 0.0199951 -0.141704
-0.270794 0.0201679 -0.143932
-0.275643 0.0203467 -0.146165
-0.280469 0.020532 -0.148401
-0.241264 0.0197075 -0.132211
-0.245955 0.0198553 -0.13441
-0.25064 0.0200075 -0.136619
-0.255316 0.0201647 -0.138836
-0.25998 0.0203271 -0.14106
-0.264629 0.020495 -0.14329
-0.26926 0.0206691 -0.145527
-0.273869 0.0208495 -0.147767
-0.236163 0.0200514 -0.131557
-0.240644 0.0201937 -0.133755
-0.245116 0.0203406 -0.135962
-0.249578 0.0204923 -0.138179
-0.254028 0.0206493 -0.140404
-0.258461 0.0208118 -0.142637
-0.262876 0.0209803 -0.144877
-0.267269 0.0211552 -0.147122
-0.323156 0.0151196 -0.146606
-0.324536 0.0156638 -0.14833
-0.331314 0.0158189 -0.150537
-0.338056 0.015981 -0.152736
-0.344749 0.0161509 -0.154926
-0.351382 0.0163296 -0.157102
-0.357938 0.0165183 -0.159262
-0.318813 0.0160534 -0.14783
-0.325385 0.016208 -0.150041
-0.331922 0.0163696 -0.152244
-0.338414 0.0165391 -0.154439
-0.344849 0.0167174 -0.156623
-0.351213 0.0169056 -0.158791
-0.313007 0.0164369 -0.147316
-0.319369 0.0165907 -0.14953
-0.325698 0.0167515 -0.151739
-0.331986 0.0169201 -0.15394
-0.338221 0.0170975 -0.156131
-0.307125 0.0168142 -0.146789
-0.313275 0.0169668 -0.149007
-0.319394 0.0171263 -0.15122
-0.325475 0.0172937 -0.153428
-0.331507 0.0174697 -0.155626
-0.301175 0.017185 -0.146249
-0.307111 0.0173359 -0.14847
-0.313019 0.0174938 -0.150689
-0.31889 0.0176594 -0.152902
-0.324715 0.0178337 -0.155107
-0.295167 0.017549 -0.145696
-0.300887 0.0176979 -0.147921
-0.30658 0.0178536 -0.150144
-0.31224 0.0180171 -0.152363
-0.289108 0.0179059 -0.145129
-0.294611 0.0180523 -0.147358
-0.300088 0.0182056 -0.149586
-0.305534 0.0183664 -0.151812
-0.277705 0.0181184 -0.142321
-0.283008 0.0182556 -0.14455
-0.288293 0.018399 -0.146782
-0.293553 0.0185493 -0.149015
-0.298784 0.018707 -0.151247
-0.271792 0.0184638 -0.141727
-0.276876 0.0185977 -0.143958
-0.281942 0.0187377 -0.146194
-0.286985 0.0188844 -0.148432
-0.246282 0.0183337 -0.132254
-0.251186 0.0184439 -0.134458
-0.256084 0.0185584 -0.136672
-0.260975 0.0186776 -0.138892
-0.265855 0.018802 -0.14112
-0.270721 0.0189319 -0.143354
-0.275569 0.019068 -0.145593
-0.280395 0.0192107 -0.147836
-0.241193 0.0186815 -0.131637
-0.245883 0.0187874 -0.13384
-0.250567 0.0188976 -0.136052
-0.255242 0.0190125 -0.138273
-0.259905 0.0191325 -0.140502
-0.264554 0.0192581 -0.142738
-0.269184 0.0193897 -0.14498
-0.273793 0.0195279 -0.147228
-0.236091 0.0190235 -0.131008
-0.240571 0.0191246 -0.133209
-0.245042 0.01923 -0.13542
-0.249503 0.0193401 -0.137641
-0.253952 0.0194552 -0.139871
-0.258385 0.0195758 -0.14211
-0.262799 0.0197024 -0.144355
-0.267191 0.0198356 -0.146607
-0.323096 0.0140407 -0.145761
-0.324475 0.0145258 -0.147517
-0.331254 0.0146399 -0.149732
-0.337996 0.0147615 -0.15194
-0.34469 0.0148915 -0.15414
-0.351323 0.0150311 -0.156329
-0.35788 0.0151815 -0.158505
-0.318751 0.0148986 -0.147042
-0.325323 0.0150118 -0.14926
-0.33186 0.0151324 -0.151473
-0.338353 0.0152615 -0.153679
-0.344789 0.0154001 -0.155874
-0.351153 0.0155495 -0.158058
-0.312943 0.0152669 -0.146555
-0.319305 0.0153789 -0.148776
-0.325635 0.0154983 -0.150993
-0.331924 0.015626 -0.153204
-0.338159 0.0157633 -0.155407
-0.30706 0.0156306 -0.146053
-0.31321 0.015741 -0.148278
-0.31933 0.0158588 -0.1505
-0.325411 0.0159849 -0.152716
-0.331443 0.0161204 -0.154926
-0.30111 0.0159895 -0.145539
-0.307045 0.016098 -0.147767
-0.312953 0.0162138 -0.149993
-0.318825 0.0163379 -0.152216
-0.32465 0.0164713 -0.154433
-0.2951 0.0163433 -0.145012
-0.30082 0.0164496 -0.147243
-0.306513 0.0165632 -0.149474
-0.312173 0.0166849 -0.151702
-0.28904 0.0166919 -0.144471
-0.294542 0.0167956 -0.146706
-0.30002 0.0169066 -0.148942
-0.305466 0.0170255 -0.151176
-0.277636 0.0169405 -0.141683
-0.282939 0.017035 -0.143918
-0.288223 0.0171359 -0.146156
-0.293483 0.0172438 -0.148397
-0.298714 0.0173596 -0.150637
-0.271721 0.0172812 -0.141115
-0.276805 0.0173725 -0.143352
-0.281871 0.0174701 -0.145594
-0.286914 0.0175746 -0.147839
-0.246213 0.0173164 -0.131653
-0.251116 0.0173847 -0.133861
-0.256014 0.0174572 -0.136077
-0.260904 0.0175342 -0.138302
-0.265784 0.0176164 -0.140535
-0.270649 0.0177041 -0.142774
-0.275497 0.017798 -0.145019
-0.280322 0.0178988 -0.147268
-0.241123 0.0176611 -0.131061
-0.245813 0.0177257 -0.133267
-0.250496 0.0177944 -0.135483
-0.25517 0.0178676 -0.137708
-0.259833 0.0179458 -0.139941
-0.264481 0.0180296 -0.142183
-0.26911 0.0181194 -0.144431
-0.273718 0.018216 -0.146685
-0.23602 0.0180015 -0.130457
-0.240499 0.0180619 -0.132662
-0.24497 0.0181264 -0.134877
-0.24943 0.0181954 -0.137102
-0.253878 0.0182694 -0.139336
-0.25831 0.0183487 -0.14158
-0.262724 0.018434 -0.143831
-0.267115 0.018526 -0.14609
-0.323028 0.012965 -0.144916
-0.324406 0.0133913 -0.146704
-0.331185 0.0134647 -0.148927
-0.337928 0.013546 -0.151145
-0.344622 0.0136363 -0.153356
-0.351256 0.013737 -0.155558
-0.357813 0.0138493 -0.157749
-0.318681 0.0137475 -0.146255
-0.325253 0.0138194 -0.14848
-0.331791 0.0138993 -0.150702
-0.338284 0.0139882 -0.152919
-0.34472 0.0140874 -0.155127
-0.351085 0.0141982 -0.157326
-0.312873 0.0141008 -0.145792
-0.319235 0.0141711 -0.148021
-0.325565 0.0142493 -0.150247
-0.331854 0.0143365 -0.152469
-0.338089 0.0144338 -0.154684
-0.306989 0.014451 -0.145317
-0.313139 0.0145195 -0.147549
-0.319259 0.0145958 -0.149779
-0.32534 0.0146809 -0.152006
-0.331372 0.0147761 -0.154227
-0.301037 0.0147981 -0.144828
-0.306973 0.0148645 -0.147063
-0.312881 0.0149386 -0.149298
-0.318752 0.0150214 -0.15153
-0.324578 0.0151142 -0.153758
-0.295027 0.015142 -0.144327
-0.300746 0.015206 -0.146565
-0.30644 0.0152776 -0.148804
-0.312099 0.0153579 -0.151042
-0.288966 0.0154824 -0.143812
-0.294468 0.0155438 -0.146054
-0.299945 0.0156127 -0.148297
-0.305391 0.0156901 -0.15054
-0.277561 0.0157671 -0.141045
-0.282863 0.0158192 -0.143285
-0.288147 0.0158777 -0.145529
-0.293407 0.0159436 -0.147777
-0.298638 0.0160179 -0.150026
-0.271645 0.0161032 -0.140502
-0.276728 0.0161522 -0.142744
-0.281794 0.0162077 -0.144992
-0.286836 0.0162703 -0.147245
-0.246138 0.0163027 -0.13105
-0.251041 0.0163294 -0.133261
-0.255938 0.0163602 -0.135481
-0.260828 0.0163953 -0.13771
-0.265706 0.0164355 -0.139947
-0.270571 0.0164813 -0.142191
-0.275418 0.0165334 -0.144442
-0.280243 0.0165925 -0.146699
-0.241047 0.0166444 -0.130483
-0.245736 0.016668 -0.132692
-0.250419 0.0166954 -0.134912
-0.255092 0.0167273 -0.137141
-0.259754 0.016764 -0.139379
-0.264402 0.0168063 -0.141625
-0.269031 0.0168547 -0.14388
-0.273638 0.01691 -0.146141
-0.235944 0.0169832 -0.129904
-0.240422 0.0170033 -0.132111
-0.244892 0.0170272 -0.13433
-0.249352 0.0170555 -0.136559
-0.253799 0.0170886 -0.138798
-0.25823 0.017127 -0.141047
-0.262643 0.0171714 -0.143304
-0.267033 0.0172226 -0.14557
-0.32296 0.0118932 -0.144075
-0.324338 0.012261 -0.145894
-0.331117 0.0122937 -0.148125
-0.337859 0.0123349 -0.150353
-0.344554 0.0123857 -0.152576
-0.351188 0.0124476 -0.154793
-0.357746 0.012522 -0.157
-0.318612 0.0126006 -0.14547
-0.325184 0.0126315 -0.147704
-0.331722 0.0126708 -0.149936
-0.338215 0.0127196 -0.152163
-0.344651 0.0127795 -0.154385
-0.351017 0.0128519 -0.156599
-0.312803 0.0129388 -0.145033
-0.319165 0.0129677 -0.14727
-0.325495 0.0130049 -0.149505
-0.331784 0.0130517 -0.151738
-0.338019 0.0131093 -0.153965
-0.306918 0.0132757 -0.144583
-0.313068 0.0133025 -0.146823
-0.319188 0.0133374 -0.149062
-0.325269 0.0133817 -0.151299
-0.331301 0.0134368 -0.153533
-0.300966 0.0136111 -0.14412
-0.306901 0.0136355 -0.146363
-0.312809 0.013668 -0.148606
-0.31868 0.0137098 -0.150848
-0.324505 0.0137622 -0.153088
-0.294954 0.013945 -0.143644
-0.300673 0.0139669 -0.14589
-0.306367 0.0139968 -0.148137
-0.312026 0.0140358 -0.150385
-0.288892 0.0142772 -0.143156
-0.294394 0.0142965 -0.145404
-0.299871 0.0143236 -0.147655
-0.305316 0.0143596 -0.149908
-0.277487 0.0145978 -0.140407
-0.282789 0.0146077 -0.142654
-0.288072 0.0146242 -0.144905
-0.293332 0.0146483 -0.147161
-0.298562 0.0146812 -0.149419
-0.27157 0.0149292 -0.13989
-0.276653 0.0149363 -0.142139
-0.281718 0.0149498 -0.144393
-0.28676 0.0149709 -0.146653
-0.246065 0.0152921 -0.130447
-0.250967 0.0152775 -0.132661
-0.255864 0.0152668 -0.134885
-0.260752 0.0152603 -0.137118
-0.265631 0.0152588 -0.13936
-0.270495 0.0152629 -0.14161
-0.275341 0.0152734 -0.143868
-0.280166 0.0152911 -0.146132
-0.240974 0.0156308 -0.129905
-0.245662 0.0156136 -0.132118
-0.250344 0.0156001 -0.134341
-0.255016 0.0155908 -0.136574
-0.259678 0.0155863 -0.138817
-0.264325 0.0155874 -0.141069
-0.268953 0.0155946 -0.14333
-0.27356 0.0156089 -0.145599
-0.23587 0.015968 -0.12935
-0.240347 0.015948 -0.131561
-0.244816 0.0159316 -0.133784
-0.249275 0.0159193 -0.136017
-0.253721 0.0159118 -0.138261
-0.258152 0.0159095 -0.140515
-0.262564 0.0159134 -0.142779
-0.266954 0.0159241 -0.145052
-0.32289 0.0108257 -0.143236
-0.324267 0.0111353 -0.145087
-0.331046 0.0111277 -0.147327
-0.337789 0.0111289 -0.149564
-0.344483 0.0111404 -0.151799
-0.351117 0.0111637 -0.154029
-0.357675 0.0112004 -0.156253
-0.318541 0.0114584 -0.144688
-0.325113 0.0114485 -0.14693
-0.331651 0.0114474 -0.149171
-0.338144 0.0114565 -0.15141
-0.34458 0.0114772 -0.153646
-0.350945 0.0115114 -0.155875
-0.312731 0.0117817 -0.144277
-0.319093 0.0117694 -0.146521
-0.325423 0.0117659 -0.148766
-0.331712 0.0117724 -0.151009
-0.337947 0.0117905 -0.15325
-0.306846 0.0121053 -0.143852
-0.312995 0.0120905 -0.146099
-0.319115 0.0120844 -0.148347
-0.325196 0.0120882 -0.150595
-0.331228 0.0121035 -0.152841
-0.300893 0.012429 -0.143415
-0.306828 0.0124118 -0.145664
-0.312735 0.012403 -0.147916
-0.318606 0.012404 -0.150169
-0.324432 0.0124162 -0.152421
-0.294881 0.012753 -0.142964
-0.3006 0.0127331 -0.145217
-0.306292 0.0127216 -0.147473
-0.311951 0.0127196 -0.14973
-0.288818 0.0130771 -0.142501
-0.294319 0.0130546 -0.144756
-0.299796 0.0130402 -0.147016
-0.305241 0.0130352 -0.149279
-0.277413 0.0134333 -0.139772
-0.282714 0.0134012 -0.142024
-0.287997 0.013376 -0.144283
-0.293257 0.0133588 -0.146546
-0.298486 0.0133506 -0.148814
-0.271495 0.01376 -0.139281
-0.276578 0.0137254 -0.141535
-0.281642 0.0136975 -0.143796
-0.286684 0.0136772 -0.146064
-0.245992 0.014285 -0.129846
-0.250893 0.0142294 -0.132063
-0.255789 0.0141774 -0.134291
-0.260678 0.0141296 -0.136529
-0.265555 0.0140868 -0.138776
-0.270419 0.0140495 -0.141032
-0.275265 0.0140188 -0.143296
-0.280088 0.0139956 -0.145568
-0.2409 0.0146207 -0.129329
-0.245588 0.014563 -0.131545
-0.250269 0.0145088 -0.133772
-0.254941 0.0144587 -0.136009
-0.259602 0.0144134 -0.138258
-0.264248 0.0143735 -0.140516
-0.268876 0.01434 -0.142783
-0.273481 0.0143137 -0.145059
-0.235796 0.0149563 -0.128798
-0.240272 0.0148964 -0.131013
-0.24474 0.01484 -0.133239
-0.249199 0.0147875 -0.135477
-0.253644 0.0147397 -0.137726
-0.258074 0.0146972 -0.139986
-0.262486 0.0146609 -0.142256
-0.266875 0.0146315 -0.144536
-0.322821 0.00975885 -0.142396
-0.324197 0.0100103 -0.144279
-0.330976 0.00996243 -0.146527
-0.337718 0.00992392 -0.148775
-0.344413 0.00989625 -0.151021
-0.351046 0.00988103 -0.153265
-0.357605 0.00988015 -0.155505
-0.318471 0.010317 -0.143906
-0.325042 0.0102664 -0.146155
-0.33158 0.0102251 -0.148406
-0.338073 0.0101945 -0.150656
-0.344509 0.0101763 -0.152905
-0.350874 0.0101724 -0.15515
-0.31266 0.0106254 -0.143519
-0.319022 0.0105721 -0.145771
-0.325352 0.0105279 -0.148025
-0.33164 0.0104944 -0.150279
-0.337875 0.0104731 -0.152533
-0.306774 0.0109357 -0.14312
-0.312924 0.0108797 -0.145375
-0.319043 0.0108326 -0.147632
-0.325124 0.0107961 -0.14989
-0.331156 0.0107716 -0.152149
-0.300821 0.0112479 -0.142708
-0.306756 0.0111891 -0.144965
-0.312663 0.0111392 -0.147226
-0.318534 0.0110995 -0.149489
-0.324358 0.0110718 -0.151752
-0.294808 0.011562 -0.142283
-0.300527 0.0115005 -0.144543
-0.306219 0.0114477 -0.146807
-0.311878 0.0114049 -0.149074
-0.288745 0.011878 -0.141846
-0.294246 0.0118139 -0.144108
-0.299723 0.0117581 -0.146376
-0.305167 0.0117123 -0.148648
-0.27734 0.0122698 -0.139137
-0.282641 0.0121959 -0.141395
-0.287923 0.0121292 -0.14366
-0.293182 0.0120706 -0.145931
-0.298411 0.0120216 -0.148208
-0.271422 0.0125919 -0.13867
-0.276504 0.0125158 -0.14093
-0.281568 0.0124465 -0.143198
-0.286609 0.0123852 -0.145473
-0.24592 0.0132786 -0.129245
-0.250821 0.0131821 -0.131465
-0.255717 0.013089 -0.133697
-0.260604 0.013 -0.135939
-0.265481 0.0129159 -0.138191
-0.270345 0.0128375 -0.140452
-0.27519 0.0127657 -0.142723
-0.280013 0.0127017 -0.145002
-0.240828 0.0136113 -0.128752
-0.245515 0.0135132 -0.130972
-0.250196 0.0134185 -0.133202
-0.254867 0.0133277 -0.135444
-0.259527 0.0132416 -0.137697
-0.264173 0.0131611 -0.139961
-0.2688 0.0130869 -0.142234
-0.273405 0.0130203 -0.144517
-0.235723 0.0139453 -0.128246
-0.240199 0.0138457 -0.130464
-0.244667 0.0137494 -0.132694
-0.249125 0.0136569 -0.134936
-0.253569 0.013569 -0.13719
-0.257999 0.0134864 -0.139456
-0.262409 0.01341 -0.141732
-0.266798 0.0133408 -0.144019
-0.322744 0.00869157 -0.141555
-0.32412 0.00888498 -0.14347
-0.330899 0.00879682 -0.145726
-0.33764 0.00871855 -0.147984
-0.344335 0.00865172 -0.150242
-0.350968 0.00859809 -0.1525
-0.357526 0.00855968 -0.154755
-0.318393 0.00917521 -0.143121
-0.324964 0.0090839 -0.145379
-0.331501 0.00900237 -0.147639
-0.337994 0.00893217 -0.149901
-0.34443 0.0088751 -0.152163
-0.350795 0.0088332 -0.154424
-0.312583 0.0094688 -0.14276
-0.318944 0.0093744 -0.14502
-0.325273 0.00928963 -0.147283
-0.331561 0.00921606 -0.149548
-0.337796 0.00915549 -0.151815
-0.306696 0.00976586 -0.142386
-0.312845 0.00966844 -0.144649
-0.318964 0.00958048 -0.146915
-0.325045 0.00950354 -0.149184
-0.331076 0.00943943 -0.151454
-0.300743 0.0100665 -0.142
-0.306677 0.00996613 -0.144264
-0.312583 0.00987504 -0.146534
-0.318454 0.00979477 -0.148807
-0.324278 0.00972711 -0.151082
-0.29473 0.0103707 -0.141601
-0.300448 0.0102676 -0.143867
-0.30614 0.0101734 -0.14614
-0.311798 0.0100899 -0.148417
-0.288666 0.0106787 -0.141188
-0.294167 0.0105729 -0.143457
-0.299642 0.0104758 -0.145733
-0.305087 0.0103891 -0.148015
-0.277261 0.0111061 -0.138499
-0.282561 0.0109904 -0.140762
-0.287843 0.0108821 -0.143034
-0.293102 0.0107823 -0.145314
-0.29833 0.0106924 -0.1476
-0.271343 0.0114237 -0.138058
-0.276424 0.011306 -0.140323
-0.281487 0.0111953 -0.142598
-0.286528 0.0110928 -0.144881
-0.245843 0.0122722 -0.128641
-0.250743 0.0121347 -0.130865
-0.255638 0.0120005 -0.1331
-0.260525 0.0118704 -0.135346
-0.265402 0.011745 -0.137603
-0.270264 0.0116254 -0.13987
-0.275109 0.0115125 -0.142147
-0.279931 0.0114077 -0.144434
-0.240751 0.012602 -0.128173
-0.245437 0.0124635 -0.130396
-0.250117 0.0123282 -0.13263
-0.254788 0.0121967 -0.134876
-0.259448 0.0120699 -0.137134
-0.264092 0.0119486 -0.139403
-0.268719 0.0118338 -0.141683
-0.273324 0.0117267 -0.143974
-0.235646 0.0129345 -0.127691
-0.240121 0.0127952 -0.129912
-0.244588 0.012659 -0.132146
-0.249045 0.0125264 -0.134393
-0.253489 0.0123984 -0.136651
-0.257918 0.0122756 -0.138922
-0.262328 0.0121591 -0.141205
-0.266716 0.01205 -0.143499
-0.322666 0.00762479 -0.140712
-0.324041 0.00776013 -0.142659
-0.330819 0.0076317 -0.144923
-0.33756 0.00751364 -0.147191
-0.344254 0.00740764 -0.149461
-0.350887 0.00731558 -0.151732
-0.357444 0.00723962 -0.154005
-0.318314 0.00803394 -0.142335
-0.324885 0.00790192 -0.144601
-0.331421 0.00778015 -0.146871
-0.337913 0.00767031 -0.149144
-0.344348 0.00757432 -0.151419
-0.350713 0.00749438 -0.153696
-0.312503 0.00831267 -0.141998
-0.318864 0.0081772 -0.144266
-0.325193 0.0080518 -0.146539
-0.33148 0.00793818 -0.148815
-0.337715 0.00783828 -0.151094
-0.306617 0.00859649 -0.14165
-0.312765 0.00845772 -0.14392
-0.318884 0.00832882 -0.146195
-0.324964 0.0082115 -0.148474
-0.330994 0.0081077 -0.150758
-0.300663 0.00888554 -0.141288
-0.306597 0.00874364 -0.14356
-0.312503 0.00861139 -0.145838
-0.318372 0.00849048 -0.148122
-0.324196 0.00838285 -0.150409
-0.29465 0.00917997 -0.140914
-0.300367 0.00903515 -0.143188
-0.306059 0.00889972 -0.145469
-0.311716 0.00877536 -0.147756
-0.288586 0.00947991 -0.140527
-0.294086 0.00933239 -0.142803
-0.299561 0.00919399 -0.145087
-0.305005 0.00906636 -0.147378
-0.277181 0.00994287 -0.137856
-0.282481 0.00978547 -0.140126
-0.287763 0.00963551 -0.142405
-0.29302 0.00949438 -0.144692
-0.298248 0.00936368 -0.146987
-0.271263 0.010256 -0.13744
-0.276344 0.0100967 -0.139711
-0.281406 0.00994463 -0.141993
-0.286446 0.00980104 -0.144283
-0.245766 0.0112663 -0.128032
-0.250665 0.0110879 -0.130259
-0.25556 0.0109126 -0.132498
-0.260446 0.0107412 -0.134748
-0.265322 0.0105746 -0.13701
-0.270184 0.0104138 -0.139283
-0.275028 0.0102599 -0.141567
-0.27985 0.0101141 -0.143861
-0.240673 0.0115932 -0.127588
-0.245359 0.0114144 -0.129814
-0.250038 0.0112385 -0.132052
-0.254709 0.0110663 -0.134303
-0.259368 0.0108987 -0.136566
-0.264012 0.0107367 -0.13884
-0.268638 0.0105812 -0.141127
-0.273242 0.0104337 -0.143425
-0.235568 0.0119242 -0.12713
-0.240043 0.0117452 -0.129355
-0.244509 0.0115691 -0.131592
-0.248966 0.0113965 -0.133843
-0.253409 0.0112283 -0.136107
-0.257837 0.0110654 -0.138383
-0.262247 0.0109088 -0.140672
-0.266633 0.0107598 -0.142974
-0.322666 0.00762593 -0.140713
-0.324041 0.00776139 -0.14266
-0.330819 0.00763306 -0.144924
-0.33756 0.00751509 -0.147191
-0.344254 0.00740918 -0.149461
-0.350887 0.00731722 -0.151733
-0.357444 0.00724136 -0.154006
-0.318314 0.00803524 -0.142335
-0.324885 0.00790332 -0.144601
-0.331421 0.00778164 -0.146871
-0.337913 0.0076719 -0.149144
-0.344348 0.00757602 -0.15142
-0.350713 0.00749617 -0.153697
-0.312503 0.00831401 -0.141999
-0.318864 0.00817864 -0.144267
-0.325193 0.00805335 -0.146539
-0.33148 0.00793983 -0.148816
-0.337715 0.00784003 -0.151095
-0.306617 0.00859787 -0.14165
-0.312765 0.0084592 -0.14392
-0.318884 0.0083304 -0.146195
-0.324964 0.00821319 -0.148475
-0.330994 0.00810951 -0.150758
-0.300663 0.00888696 -0.141289
-0.306597 0.00874516 -0.143561
-0.312503 0.00861302 -0.145839
-0.318372 0.00849223 -0.148122
-0.324196 0.00838472 -0.15041
-0.29465 0.00918142 -0.140914
-0.300367 0.00903671 -0.143188
-0.306059 0.0089014 -0.145469
-0.311716 0.00877716 -0.147757
-0.288586 0.00948139 -0.140527
-0.294086 0.00933399 -0.142803
-0.299561 0.00919571 -0.145087
-0.305005 0.0090682 -0.147379
-0.277181 0.00994426 -0.137856
-0.282481 0.00978698 -0.140126
-0.287763 0.00963715 -0.142405
-0.29302 0.00949614 -0.144692
-0.298248 0.00936557 -0.146988
-0.271263 0.0102574 -0.13744
-0.276344 0.0100983 -0.139711
-0.281406 0.00994631 -0.141993
-0.286446 0.00980285 -0.144284
-0.245766 0.0112673 -0.128032
-0.250665 0.011089 -0.130259
-0.25556 0.0109138 -0.132497
-0.260446 0.0107426 -0.134748
-0.265322 0.0105761 -0.13701
-0.270184 0.0104154 -0.139283
-0.275028 0.0102616 -0.141567
-0.27985 0.0101159 -0.143861
-0.240673 0.0115943 -0.127588
-0.245359 0.0114155 -0.129814
-0.250038 0.0112397 -0.132052
-0.254709 0.0110676 -0.134303
-0.259368 0.0109002 -0.136565
-0.264012 0.0107383 -0.13884
-0.268638 0.010583 -0.141127
-0.273242 0.0104355 -0.143424
-0.235568 0.0119253 -0.12713
-0.240043 0.0117464 -0.129354
-0.244509 0.0115703 -0.131592
-0.248966 0.0113978 -0.133843
-0.253409 0.0112298 -0.136106
-0.257837 0.011067 -0.138383
-0.262247 0.0109106 -0.140672
-0.266633 0.0107617 -0.142973
-0.32259 0.00655648 -0.139868
-0.323965 0.00663365 -0.141847
-0.330742 0.00646492 -0.14412
-0.337483 0.00630706 -0.146397
-0.344176 0.00616189 -0.148679
-0.350808 0.00603144 -0.150965
-0.357365 0.00591798 -0.153254
-0.318238 0.006891 -0.141547
-0.324808 0.00671823 -0.143822
-0.331344 0.00655619 -0.146101
-0.337835 0.0064067 -0.148386
-0.34427 0.00627183 -0.150675
-0.350633 0.00615389 -0.152967
-0.312427 0.00715483 -0.141236
-0.318787 0.00697824 -0.143512
-0.325115 0.00681218 -0.145793
-0.331402 0.00665849 -0.148081
-0.337636 0.00651926 -0.150373
-0.306541 0.00742537 -0.140912
-0.312688 0.00724517 -0.143189
-0.318806 0.0070753 -0.145474
-0.324886 0.00691757 -0.147764
-0.330915 0.00677408 -0.15006
-0.300587 0.00770283 -0.140575
-0.30652 0.00751929 -0.142855
-0.312425 0.00734582 -0.145142
-0.318295 0.00718424 -0.147435
-0.324118 0.00703663 -0.149736
-0.294574 0.0079874 -0.140226
-0.300291 0.00780082 -0.142507
-0.305982 0.00762402 -0.144797
-0.311638 0.0074588 -0.147094
-0.28851 0.00827928 -0.139864
-0.29401 0.00808998 -0.142147
-0.299484 0.00791015 -0.14444
-0.304927 0.00774157 -0.14674
-0.277106 0.00877794 -0.137212
-0.282405 0.00857864 -0.139487
-0.287686 0.00838698 -0.141773
-0.292944 0.00820446 -0.144069
-0.298171 0.00803282 -0.146373
-0.271188 0.00908658 -0.13682
-0.276268 0.00888563 -0.139097
-0.28133 0.00869201 -0.141386
-0.28637 0.00850718 -0.143684
-0.245693 0.0102593 -0.12742
-0.250592 0.0100398 -0.129651
-0.255486 0.00982322 -0.131893
-0.260372 0.00961051 -0.134148
-0.265247 0.00940253 -0.136415
-0.270109 0.00920036 -0.138693
-0.274952 0.00900521 -0.140984
-0.279773 0.00881849 -0.143286
-0.2406 0.0105833 -0.127001
-0.245286 0.0103639 -0.12923
-0.249965 0.0101473 -0.131472
-0.254635 0.00993432 -0.133727
-0.259293 0.00972586 -0.135994
-0.263936 0.00952294 -0.138275
-0.268562 0.00932672 -0.140568
-0.273165 0.00913857 -0.142873
-0.235495 0.0109129 -0.126567
-0.23997 0.010694 -0.128795
-0.244436 0.0104778 -0.131036
-0.248891 0.010265 -0.133291
-0.253335 0.0100566 -0.135559
-0.257762 0.0098534 -0.137841
-0.262171 0.00965661 -0.140137
-0.266557 0.00946753 -0.142445
-0.32251 0.00548431 -0.139023
-0.323884 0.00550285 -0.141034
-0.33066 0.0052936 -0.143315
-0.3374 0.00509574 -0.145602
-0.344092 0.0049112 -0.147896
-0.350724 0.00474217 -0.150195
-0.357279 0.00459106 -0.1525
-0.318157 0.00574347 -0.140759
-0.324726 0.00552973 -0.143041
-0.331261 0.00532721 -0.14533
-0.337752 0.00513786 -0.147626
-0.344186 0.00496389 -0.149929
-0.350548 0.00480779 -0.152237
-0.312346 0.00599214 -0.140472
-0.318706 0.00577418 -0.142756
-0.325033 0.00556723 -0.145047
-0.331319 0.00537325 -0.147345
-0.337552 0.00519449 -0.149651
-0.30646 0.00624914 -0.140173
-0.312607 0.00602726 -0.142458
-0.318725 0.00581615 -0.144752
-0.324803 0.00561778 -0.147053
-0.330832 0.00543438 -0.149362
-0.300507 0.00651473 -0.139862
-0.306439 0.00628929 -0.142149
-0.312344 0.00607433 -0.144444
-0.318212 0.00587181 -0.146749
-0.324034 0.00568398 -0.149061
-0.294494 0.00678919 -0.139538
-0.30021 0.00656056 -0.141826
-0.3059 0.00634209 -0.144125
-0.311556 0.00613574 -0.146432
-0.288431 0.00707275 -0.1392
-0.293929 0.00684136 -0.141491
-0.299403 0.00661978 -0.143792
-0.304845 0.00640994 -0.146102
-0.277027 0.00760719 -0.136568
-0.282326 0.00736566 -0.138849
-0.287606 0.00713196 -0.141142
-0.292863 0.00690771 -0.143445
-0.298089 0.00669479 -0.14576
-0.27111 0.00791109 -0.136201
-0.276189 0.0076681 -0.138484
-0.281251 0.00743261 -0.140779
-0.286289 0.00720617 -0.143085
-0.245617 0.00924739 -0.12681
-0.250515 0.00898644 -0.129043
-0.255409 0.00872831 -0.13129
-0.260294 0.00847389 -0.133549
-0.265169 0.00822417 -0.13582
-0.27003 0.00798028 -0.138105
-0.274873 0.00774353 -0.140402
-0.279693 0.00751545 -0.142711
-0.240525 0.00956842 -0.126415
-0.245209 0.00930811 -0.128647
-0.249888 0.00905044 -0.130893
-0.254557 0.00879625 -0.133152
-0.259215 0.00854652 -0.135424
-0.263858 0.00830232 -0.13771
-0.268483 0.00806491 -0.14001
-0.273085 0.00783577 -0.142322
-0.23542 0.00989642 -0.126005
-0.239894 0.00963732 -0.128236
-0.244359 0.00938068 -0.130481
-0.248814 0.00912733 -0.13274
-0.253257 0.00887821 -0.135013
-0.257684 0.00863433 -0.137301
-0.262092 0.00839689 -0.139603
-0.266477 0.00816731 -0.141918
-0.322427 0.00441272 -0.138178
-0.323801 0.0043725 -0.14022
-0.330577 0.00412257 -0.142509
-0.337316 0.00388451 -0.144806
-0.344007 0.00366039 -0.147111
-0.350637 0.00345251 -0.149425
-0.357192 0.00326345 -0.151746
-0.318074 0.00459642 -0.13997
-0.324643 0.00434153 -0.14226
-0.331177 0.00409833 -0.144559
-0.337667 0.00386891 -0.146866
-0.3441 0.00365559 -0.149181
-0.350461 0.00346102 -0.151505
-0.312264 0.00482994 -0.139709
-0.318623 0.00457045 -0.142
-0.32495 0.00432241 -0.1443
-0.331235 0.00408793 -0.146609
-0.337466 0.00386937 -0.148927
-0.306379 0.0050734 -0.139435
-0.312525 0.00480969 -0.141728
-0.318641 0.00455716 -0.14403
-0.324719 0.00431792 -0.146341
-0.330747 0.00409435 -0.148662
-0.300425 0.00532714 -0.139149
-0.306357 0.00505964 -0.141443
-0.312261 0.00480301 -0.143748
-0.318128 0.00455934 -0.146062
-0.32395 0.00433103 -0.148386
-0.294413 0.00559148 -0.138851
-0.300129 0.00532065 -0.141146
-0.305818 0.00506035 -0.143453
-0.311473 0.00481265 -0.14577
-0.28835 0.00586672 -0.138539
-0.293848 0.00559309 -0.140836
-0.299321 0.0053296 -0.143145
-0.304762 0.0050783 -0.145465
-0.276948 0.00643704 -0.135926
-0.282246 0.00615315 -0.138213
-0.287525 0.00587728 -0.140512
-0.292781 0.00561114 -0.142824
-0.298007 0.00535675 -0.145147
-0.271031 0.00673618 -0.135585
-0.276109 0.00645104 -0.137873
-0.28117 0.00617354 -0.140175
-0.286208 0.00590536 -0.142489
-0.24554 0.00823631 -0.126203
-0.250438 0.00793388 -0.128439
-0.255331 0.0076341 -0.130689
-0.260216 0.0073379 -0.132952
-0.26509 0.00704634 -0.135229
-0.26995 0.00676063 -0.137519
-0.274793 0.00648217 -0.139822
-0.279612 0.00621258 -0.142139
-0.240448 0.00855429 -0.125833
-0.245133 0.00825304 -0.128068
-0.249811 0.00795423 -0.130317
-0.254479 0.00765877 -0.13258
-0.259137 0.00736768 -0.134858
-0.263779 0.00708211 -0.137149
-0.268403 0.0068034 -0.139455
-0.273005 0.00653312 -0.141775
-0.235344 0.00888067 -0.125447
-0.239817 0.00858129 -0.127681
-0.244282 0.00828417 -0.12993
-0.248737 0.00799017 -0.132193
-0.253179 0.0077003 -0.134471
-0.257605 0.00741563 -0.136764
-0.262013 0.00713744 -0.139072
-0.266398 0.00686723 -0.141395
-0.32234 0.00334113 -0.13733
-0.323714 0.00324211 -0.139403
-0.330488 0.00295128 -0.1417
-0.337227 0.00267279 -0.144007
-0.343917 0.00240883 -0.146323
-0.350546 0.00216182 -0.148649
-0.357099 0.0019345 -0.150986
-0.317987 0.00344946 -0.139179
-0.324555 0.00315323 -0.141476
-0.331088 0.00286911 -0.143784
-0.337577 0.00259934 -0.146102
-0.344009 0.00234639 -0.14843
-0.350369 0.00211303 -0.150769
-0.312178 0.00366799 -0.138943
-0.318536 0.00336676 -0.141241
-0.324861 0.0030774 -0.14355
-0.331145 0.00280214 -0.14587
-0.337376 0.00254349 -0.1482
-0.306293 0.00389808 -0.138695
-0.312438 0.00359232 -0.140994
-0.318553 0.00329814 -0.143305
-0.32463 0.00301775 -0.145627
-0.330657 0.0027537 -0.147959
-0.30034 0.00414013 -0.138434
-0.306271 0.00383035 -0.140735
-0.312174 0.00353181 -0.143048
-0.31804 0.00324672 -0.145372
-0.32386 0.00297762 -0.147707
-0.294328 0.00439451 -0.138161
-0.300043 0.00408129 -0.140464
-0.305731 0.00377891 -0.142778
-0.311385 0.00348958 -0.145104
-0.288266 0.00466161 -0.137875
-0.293763 0.00434554 -0.140179
-0.299235 0.0040399 -0.142496
-0.304675 0.00374688 -0.144824
-0.276865 0.00526815 -0.135282
-0.282162 0.00494175 -0.137575
-0.287441 0.00462351 -0.139881
-0.292696 0.00431526 -0.142199
-0.297921 0.00401913 -0.144531
-0.270948 0.0055627 -0.134966
-0.276026 0.00523526 -0.13726
-0.281086 0.00491558 -0.139568
-0.286123 0.00460542 -0.141889
-0.24546 0.00722722 -0.125595
-0.250358 0.00688324 -0.127834
-0.25525 0.00654172 -0.130087
-0.260135 0.00620364 -0.132354
-0.265008 0.00587012 -0.134636
-0.269868 0.00554244 -0.136931
-0.274709 0.00522209 -0.139241
-0.279528 0.00491079 -0.141565
-0.240369 0.00754228 -0.125249
-0.245053 0.00720003 -0.127488
-0.24973 0.00686002 -0.12974
-0.254399 0.00652319 -0.132008
-0.259055 0.00619062 -0.13429
-0.263697 0.00586354 -0.136586
-0.268321 0.00554337 -0.138898
-0.272922 0.00523176 -0.141225
-0.235265 0.00786718 -0.124888
-0.239738 0.00752748 -0.127125
-0.244202 0.00718981 -0.129377
-0.248657 0.00685507 -0.131645
-0.253098 0.00652434 -0.133928
-0.257524 0.00619876 -0.136226
-0.261931 0.00587966 -0.138539
-0.266315 0.00556864 -0.140869
-0.322256 0.0022633 -0.136479
-0.323629 0.00210493 -0.138584
-0.330403 0.00177287 -0.140889
-0.33714 0.00145364 -0.143204
-0.343829 0.00114955 -0.145532
-0.350457 0.000863177 -0.147871
-0.357008 0.000597382 -0.150222
-0.317904 0.00229548 -0.138385
-0.32447 0.00195754 -0.14069
-0.331002 0.00163218 -0.143006
-0.33749 0.00132175 -0.145335
-0.34392 0.00102888 -0.147675
-0.350279 0.000756503 -0.150028
-0.312095 0.00249877 -0.138174
-0.318451 0.00215542 -0.14048
-0.324776 0.00182438 -0.142797
-0.331059 0.001508 -0.145127
-0.337288 0.00120896 -0.147469
-0.30621 0.00271526 -0.137952
-0.312355 0.00236705 -0.140258
-0.318469 0.00203081 -0.142577
-0.324544 0.00170892 -0.144908
-0.33057 0.00140406 -0.147253
-0.300258 0.00294539 -0.137717
-0.306188 0.00259291 -0.140025
-0.31209 0.00225204 -0.142345
-0.317956 0.00192512 -0.144678
-0.323775 0.00161487 -0.147025
-0.294247 0.00318962 -0.137469
-0.299961 0.00283352 -0.139778
-0.305648 0.00248861 -0.142101
-0.311302 0.00215722 -0.144436
-0.288186 0.00344836 -0.137209
-0.293682 0.00308935 -0.139519
-0.299153 0.00274108 -0.141843
-0.304593 0.00240585 -0.144181
-0.276786 0.00409147 -0.134636
-0.282083 0.00372202 -0.136934
-0.287361 0.00336088 -0.139246
-0.292615 0.00300998 -0.141572
-0.297839 0.0026716 -0.143913
-0.27087 0.00438129 -0.134345
-0.275948 0.00401099 -0.136645
-0.281007 0.00364854 -0.138958
-0.286043 0.00329584 -0.141287
-0.245385 0.00621234 -0.124984
-0.250282 0.00582626 -0.127226
-0.255174 0.00544245 -0.129483
-0.260058 0.00506192 -0.131754
-0.264931 0.00468586 -0.13404
-0.26979 0.00431562 -0.13634
-0.274631 0.00395277 -0.138656
-0.279449 0.00359915 -0.140987
-0.240294 0.00652447 -0.124663
-0.244978 0.00614066 -0.126905
-0.249655 0.00575886 -0.129161
-0.254323 0.00538008 -0.131432
-0.258979 0.00500543 -0.133718
-0.26362 0.00463621 -0.13602
-0.268243 0.00427394 -0.138338
-0.272844 0.00392036 -0.140672
-0.235191 0.00684789 -0.124326
-0.239663 0.00646729 -0.126567
-0.244128 0.00608848 -0.128822
-0.248582 0.00571241 -0.131094
-0.253023 0.00534019 -0.133381
-0.257448 0.00497304 -0.135684
-0.261855 0.00461236 -0.138004
-0.266238 0.00425985 -0.14034
-0.322167 0.00117898 -0.135628
-0.323539 0.000960405 -0.137764
-0.330312 0.000586761 -0.140077
-0.337048 0.000226432 -0.142401
-0.343735 -0.000118127 -0.144739
-0.350361 -0.000444196 -0.147091
-0.356912 -0.000748757 -0.149458
-0.317815 0.00113367 -0.13759
-0.32438 0.000753618 -0.139903
-0.330911 0.000386629 -0.142228
-0.337397 3.51834e-05 -0.144567
-0.343826 -0.000297945 -0.14692
-0.350183 -0.000609662 -0.149287
-0.312007 0.00132122 -0.137405
-0.318362 0.000935331 -0.139718
-0.324686 0.00056219 -0.142044
-0.330967 0.000204304 -0.144384
-0.337195 -0.000135511 -0.146738
-0.306123 0.00152359 -0.137209
-0.312266 0.00113247 -0.139522
-0.31838 0.000753746 -0.141849
-0.324454 0.000389922 -0.14419
-0.330478 4.38454e-05 -0.146546
-0.300172 0.0017413 -0.137
-0.306101 0.00134562 -0.139314
-0.312002 0.00096193 -0.141643
-0.317866 0.000592733 -0.143985
-0.323684 0.000240882 -0.146343
-0.294162 0.00197484 -0.136778
-0.299875 0.00157534 -0.139094
-0.305561 0.00118738 -0.141424
-0.311213 0.000813438 -0.143768
-0.288101 0.0022247 -0.136543
-0.293597 0.00182218 -0.13886
-0.299067 0.00143071 -0.141192
-0.304505 0.00105274 -0.143538
-0.276704 0.00290446 -0.133991
-0.281999 0.00249135 -0.136294
-0.287277 0.0020867 -0.138613
-0.29253 0.00169255 -0.140946
-0.297753 0.00131134 -0.143295
-0.270789 0.00318906 -0.133726
-0.275865 0.00277525 -0.136031
-0.280924 0.00236939 -0.138351
-0.285959 0.0019735 -0.140687
-0.245306 0.00518881 -0.124376
-0.250203 0.00475999 -0.126621
-0.255095 0.00433323 -0.128881
-0.259978 0.00390958 -0.131156
-0.264851 0.0034903 -0.133446
-0.269709 0.00307681 -0.135752
-0.274549 0.00267077 -0.138074
-0.279367 0.00227413 -0.140412
-0.240216 0.00549767 -0.12408
-0.2449 0.00507163 -0.126324
-0.249576 0.00464737 -0.128584
-0.254244 0.00422592 -0.130859
-0.258899 0.00380847 -0.13315
-0.26354 0.00339639 -0.135457
-0.268163 0.00299127 -0.137781
-0.272762 0.00259497 -0.140121
-0.235114 0.0058193 -0.123767
-0.239586 0.00539711 -0.126011
-0.24405 0.00497644 -0.12827
-0.248504 0.00455829 -0.130546
-0.252944 0.00414383 -0.132837
-0.257369 0.00373434 -0.135146
-0.261775 0.0033313 -0.137471
-0.266158 0.0029365 -0.139814
-0.322077 9.29789e-05 -0.134774
-0.323449 -0.000186231 -0.136943
-0.33022 -0.000601888 -0.139262
-0.336954 -0.00100377 -0.141595
-0.34364 -0.00138929 -0.143944
-0.350265 -0.0017556 -0.146308
-0.356813 -0.00209951 -0.148689
-0.317725 -3.03164e-05 -0.136794
-0.324289 -0.000452891 -0.139114
-0.330819 -0.000861973 -0.141448
-0.337304 -0.00125495 -0.143796
-0.343731 -0.00162889 -0.146161
-0.350086 -0.00198054 -0.148543
-0.311918 0.000141451 -0.136635
-0.318273 -0.000287413 -0.138955
-0.324595 -0.00070312 -0.14129
-0.330875 -0.00110303 -0.143639
-0.337101 -0.00148418 -0.146004
-0.306035 0.000329652 -0.136465
-0.312178 -0.000104811 -0.138785
-0.31829 -0.000526506 -0.14112
-0.324362 -0.000932786 -0.143471
-0.330385 -0.00132065 -0.145837
-0.300085 0.000534863 -0.136283
-0.306013 9.55548e-05 -0.138604
-0.311913 -0.000331426 -0.14094
-0.317776 -0.000743437 -0.143291
-0.323592 -0.00113747 -0.145659
-0.294076 0.00075765 -0.136088
-0.299788 0.00031432 -0.13841
-0.305473 -0.000117172 -0.140747
-0.311124 -0.000534202 -0.1431
-0.288017 0.000998564 -0.135879
-0.293511 0.000552109 -0.138202
-0.298981 0.000116959 -0.140541
-0.304418 -0.000304296 -0.142896
-0.276621 0.0017153 -0.133348
-0.281916 0.00125814 -0.135657
-0.287192 0.000809531 -0.137981
-0.292445 0.000371659 -0.140322
-0.297666 -5.29382e-05 -0.142679
-0.270707 0.0019946 -0.13311
-0.275783 0.00153688 -0.13542
-0.280841 0.00108717 -0.137746
-0.285875 0.000647606 -0.140088
-0.245227 0.00416423 -0.123771
-0.250124 0.0036924 -0.126019
-0.255015 0.00322238 -0.128283
-0.259898 0.00275529 -0.130561
-0.26477 0.00229242 -0.132856
-0.269628 0.00183527 -0.135167
-0.274467 0.0013856 -0.137495
-0.279284 0.000945454 -0.139839
-0.240138 0.00446973 -0.123501
-0.244821 0.00400118 -0.125748
-0.249497 0.00353415 -0.128012
-0.254165 0.0030697 -0.130291
-0.25882 0.00260909 -0.132586
-0.26346 0.00215375 -0.134898
-0.268082 0.00170535 -0.137228
-0.272681 0.00126583 -0.139575
-0.235036 0.00478948 -0.123214
-0.239508 0.0043254 -0.125461
-0.243972 0.00386258 -0.127723
-0.248426 0.00340202 -0.130003
-0.252866 0.00294495 -0.132299
-0.25729 0.00249272 -0.134612
-0.261696 0.00204687 -0.136944
-0.266078 0.00160928 -0.139293
-0.322077 9.36026e-05 -0.134774
-0.323449 -0.000185539 -0.136943
-0.33022 -0.000601146 -0.139262
-0.336954 -0.00100298 -0.141596
-0.34364 -0.00138845 -0.143944
-0.350265 -0.0017547 -0.146309
-0.356813 -0.00209856 -0.14869
-0.317725 -2.96025e-05 -0.136795
-0.324289 -0.000452125 -0.139114
-0.330819 -0.000861155 -0.141448
-0.337304 -0.00125407 -0.143797
-0.343731 -0.00162796 -0.146162
-0.350086 -0.00197956 -0.148543
-0.311918 0.000142186 -0.136636
-0.318273 -0.000286623 -0.138956
-0.324595 -0.000702275 -0.14129
-0.330875 -0.00110213 -0.143639
-0.337101 -0.00148322 -0.146005
-0.306035 0.000330409 -0.136465
-0.312178 -0.000103998 -0.138786
-0.31829 -0.000525635 -0.141121
-0.324362 -0.000931856 -0.143471
-0.330385 -0.00131966 -0.145838
-0.300085 0.000535641 -0.136283
-0.306013 9.63917e-05 -0.138604
-0.311913 -0.000330529 -0.14094
-0.317776 -0.000742478 -0.143292
-0.323592 -0.00113645 -0.14566
-0.294076 0.000758449 -0.136088
-0.299788 0.00031518 -0.13841
-0.305473 -0.000116249 -0.140747
-0.311124 -0.000533214 -0.1431
-0.288017 0.000999384 -0.13588
-0.293511 0.000552992 -0.138203
-0.298981 0.000117908 -0.140541
-0.304418 -0.000303279 -0.142896
-0.276621 0.00171607 -0.133348
-0.281916 0.00125898 -0.135657
-0.287192 0.000810436 -0.137982
-0.292445 0.000372634 -0.140322
-0.297666 -5.18923e-05 -0.142679
-0.270707 0.0019954 -0.13311
-0.275783 0.00153774 -0.13542
-0.280841 0.0010881 -0.137746
-0.285875 0.000648606 -0.140088
-0.245227 0.00416479 -0.123771
-0.250124 0.00369302 -0.126019
-0.255015 0.00322306 -0.128283
-0.259898 0.00275603 -0.130561
-0.26477 0.00229322 -0.132856
-0.269628 0.00183615 -0.135167
-0.274467 0.00138655 -0.137495
-0.279284 0.000946479 -0.139839
-0.240138 0.0044703 -0.123501
-0.244821 0.00400181 -0.125748
-0.249497 0.00353484 -0.128011
-0.254165 0.00307046 -0.130291
-0.25882 0.00260992 -0.132586
-0.26346 0.00215465 -0.134898
-0.268082 0.00170632 -0.137228
-0.272681 0.00126688 -0.139575
-0.235036 0.00479006 -0.123214
-0.239508 0.00432604 -0.12546
-0.243972 0.00386328 -0.127723
-0.248426 0.00340279 -0.130003
-0.252866 0.00294579 -0.132299
-0.25729 0.00249364 -0.134612
-0.261696 0.00204786 -0.136944
-0.266078 0.00161036 -0.139293
-0.321982 -0.000994478 -0.133915
-0.323354 -0.00133444 -0.136115
-0.330124 -0.00179247 -0.138441
-0.336856 -0.0022363 -0.140783
-0.343541 -0.00266321 -0.143141
-0.350163 -0.00307021 -0.145516
-0.35671 -0.00345397 -0.147911
-0.317631 -0.00119564 -0.135993
-0.324194 -0.00166111 -0.138319
-0.330722 -0.00211269 -0.140661
-0.337205 -0.00254763 -0.143019
-0.34363 -0.00296286 -0.145394
-0.349984 -0.00335497 -0.147789
-0.311825 -0.00103943 -0.135861
-0.318178 -0.00151164 -0.138187
-0.324499 -0.00197032 -0.140528
-0.330777 -0.0024127 -0.142887
-0.337002 -0.00283567 -0.145263
-0.305943 -0.000865155 -0.135717
-0.312084 -0.00134333 -0.138043
-0.318195 -0.00180841 -0.140385
-0.324266 -0.0022576 -0.142744
-0.330287 -0.00268776 -0.145121
-0.299994 -0.000672178 -0.135561
-0.305921 -0.00115549 -0.137888
-0.311819 -0.00162617 -0.140231
-0.317681 -0.00208146 -0.142591
-0.323496 -0.00251818 -0.144969
-0.293986 -0.000459872 -0.135393
-0.299697 -0.000947405 -0.137721
-0.305381 -0.00142284 -0.140065
-0.311031 -0.00188343 -0.142426
-0.287928 -0.000227626 -0.135211
-0.293422 -0.000718388 -0.13754
-0.29889 -0.00119763 -0.139885
-0.304326 -0.00166263 -0.142248
-0.276534 0.00052668 -0.132702
-0.281828 2.51556e-05 -0.135016
-0.287104 -0.000467759 -0.137346
-0.292355 -0.00094977 -0.139692
-0.297576 -0.00141821 -0.142057
-0.270621 0.00080098 -0.132491
-0.275697 0.000299042 -0.134805
-0.280754 -0.000194861 -0.137136
-0.285788 -0.000678508 -0.139485
-0.245145 0.0031416 -0.123165
-0.250041 0.00262659 -0.125416
-0.254932 0.00211313 -0.127682
-0.259814 0.00160237 -0.129965
-0.264686 0.00109566 -0.132263
-0.269543 0.000594576 -0.134579
-0.274382 0.000100939 -0.136912
-0.279198 -0.000383109 -0.139263
-0.240057 0.00344399 -0.122921
-0.244739 0.00293278 -0.125171
-0.249415 0.0024228 -0.127437
-0.254082 0.00191516 -0.12972
-0.258737 0.00141115 -0.132019
-0.263377 0.000912262 -0.134336
-0.267998 0.000420242 -0.136671
-0.272596 -6.28696e-05 -0.139024
-0.234956 0.0037621 -0.122659
-0.239428 0.00325601 -0.124909
-0.243891 0.00275086 -0.127175
-0.248344 0.0022477 -0.129458
-0.252784 0.00174779 -0.131758
-0.257208 0.00125256 -0.134076
-0.261613 0.000763591 -0.136413
-0.265995 0.000282859 -0.138768
-0.321982 -0.000993874 -0.133916
-0.323354 -0.00133377 -0.136115
-0.330124 -0.00179175 -0.138441
-0.336856 -0.00223553 -0.140783
-0.34354 -0.0026624 -0.143141
-0.350163 -0.00306935 -0.145517
-0.35671 -0.00345305 -0.147911
-0.317631 -0.00119495 -0.135993
-0.324194 -0.00166037 -0.138319
-0.330722 -0.0021119 -0.140661
-0.337205 -0.00254678 -0.143019
-0.34363 -0.00296196 -0.145395
-0.349984 -0.00335402 -0.147789
-0.311825 -0.00103872 -0.135861
-0.318178 -0.00151087 -0.138187
-0.324499 -0.0019695 -0.140528
-0.330777 -0.00241183 -0.142887
-0.337002 -0.00283475 -0.145263
-0.305943 -0.000864423 -0.135717
-0.312084 -0.00134255 -0.138043
-0.318195 -0.00180756 -0.140385
-0.324266 -0.0022567 -0.142744
-0.330287 -0.0026868 -0.145121
-0.299994 -0.000671425 -0.135561
-0.305921 -0.00115468 -0.137888
-0.311819 -0.00162531 -0.140231
-0.317681 -0.00208053 -0.142591
-0.323496 -0.0025172 -0.144969
-0.293986 -0.0004591 -0.135393
-0.299697 -0.000946573 -0.137721
-0.305381 -0.00142195 -0.140065
-0.311031 -0.00188247 -0.142426
-0.287928 -0.000226834 -0.135211
-0.293422 -0.000717534 -0.13754
-0.29889 -0.00119671 -0.139885
-0.304326 -0.00166165 -0.142248
-0.276534 0.00052743 -0.132702
-0.281828 2.59672e-05 -0.135016
-0.287104 -0.000466884 -0.137346
-0.292355 -0.000948828 -0.139692
-0.297576 -0.0014172 -0.142057
-0.270621 0.000801747 -0.132491
-0.275697 0.000299873 -0.134805
-0.280754 -0.000193964 -0.137136
-0.285788 -0.000677541 -0.139485
-0.245145 0.00314214 -0.123165
-0.250041 0.00262719 -0.125416
-0.254932 0.00211379 -0.127682
-0.259814 0.00160309 -0.129964
-0.264686 0.00109644 -0.132263
-0.269543 0.000595424 -0.134579
-0.274382 0.000101856 -0.136912
-0.279198 -0.000382119 -0.139262
-0.240057 0.00344455 -0.122921
-0.244739 0.00293339 -0.125171
-0.249415 0.00242347 -0.127437
-0.254082 0.00191589 -0.129719
-0.258737 0.00141194 -0.132019
-0.263377 0.000913128 -0.134336
-0.267998 0.00042118 -0.136671
-0.272596 -6.18553e-05 -0.139024
-0.234956 0.00376266 -0.122659
-0.239428 0.00325663 -0.124908
-0.243891 0.00275154 -0.127174
-0.248344 0.00224844 -0.129457
-0.252784 0.00174861 -0.131758
-0.257208 0.00125345 -0.134076
-0.261613 0.00076455 -0.136412
-0.265995 0.000283897 -0.138768
-0.32189 -0.00209174 -0.133053
-0.323261 -0.00249335 -0.135284
-0.33003 -0.00299428 -0.137616
-0.336761 -0.00348056 -0.139965
-0.343443 -0.00394933 -0.142332
-0.350064 -0.00439745 -0.144719
-0.356608 -0.00482143 -0.147127
-0.31754 -0.00237208 -0.135188
-0.324101 -0.002881 -0.13752
-0.330628 -0.00337561 -0.139869
-0.337109 -0.00385302 -0.142236
-0.343533 -0.00431 -0.144622
-0.349884 -0.00474298 -0.147029
-0.311735 -0.00223181 -0.135082
-0.318087 -0.00274796 -0.137414
-0.324406 -0.00325019 -0.139763
-0.330683 -0.0037356 -0.142129
-0.336906 -0.0042009 -0.144516
-0.305855 -0.00207184 -0.134965
-0.311994 -0.00259438 -0.137297
-0.318104 -0.00310346 -0.139646
-0.324173 -0.00359616 -0.142013
-0.330193 -0.00406916 -0.144399
-0.299907 -0.00189148 -0.134836
-0.305833 -0.00241948 -0.137168
-0.31173 -0.00293455 -0.139518
-0.31759 -0.00343376 -0.141886
-0.323403 -0.00391378 -0.144273
-0.293901 -0.00169002 -0.134694
-0.29961 -0.0022225 -0.137027
-0.305293 -0.00274261 -0.139378
-0.310941 -0.00324746 -0.141747
-0.287844 -0.0014668 -0.13454
-0.293336 -0.00200267 -0.136874
-0.298803 -0.00252678 -0.139225
-0.304238 -0.0030363 -0.141595
-0.276452 -0.000674418 -0.132053
-0.281746 -0.00122116 -0.134371
-0.28702 -0.00175923 -0.136706
-0.292271 -0.00228622 -0.139059
-0.29749 -0.00279934 -0.141431
-0.270541 -0.000405404 -0.131868
-0.275616 -0.000952454 -0.134187
-0.280672 -0.00149146 -0.136523
-0.285705 -0.00202009 -0.138878
-0.245067 0.00210954 -0.122556
-0.249963 0.00155049 -0.124809
-0.254854 0.000992702 -0.127078
-0.259736 0.000437366 -0.129364
-0.264607 -0.000114109 -0.131667
-0.269463 -0.000660086 -0.133987
-0.274301 -0.00119865 -0.136325
-0.279117 -0.00172757 -0.138682
-0.23998 0.00240874 -0.122338
-0.244663 0.00185397 -0.12459
-0.249338 0.00130012 -0.126859
-0.254005 0.000748331 -0.129145
-0.258659 0.000199945 -0.131449
-0.263299 -0.000343482 -0.13377
-0.267919 -0.000880135 -0.13611
-0.272517 -0.00140787 -0.138469
-0.23488 0.00272513 -0.122101
-0.239352 0.0021761 -0.124353
-0.243816 0.00162767 -0.126622
-0.248269 0.00108092 -0.128909
-0.252708 0.000537171 -0.131213
-0.257132 -2.1107e-06 -0.133536
-0.261536 -0.000535279 -0.135878
-0.265918 -0.00106026 -0.138239
-0.321793 -0.00319978 -0.132189
-0.323163 -0.00366446 -0.134452
-0.32993 -0.00420895 -0.13679
-0.336659 -0.00473832 -0.139147
-0.34334 -0.00524959 -0.141523
-0.349959 -0.00573943 -0.143921
-0.356501 -0.00620419 -0.146341
-0.317443 -0.00356149 -0.134383
-0.324003 -0.00411458 -0.136721
-0.330528 -0.00465291 -0.139077
-0.337007 -0.00517346 -0.141452
-0.343429 -0.00567283 -0.143849
-0.349778 -0.00614728 -0.146269
-0.31164 -0.00343797 -0.134303
-0.31799 -0.00399882 -0.136641
-0.324308 -0.00454535 -0.138997
-0.330583 -0.00507449 -0.141372
-0.336804 -0.0055828 -0.143768
-0.305761 -0.00329313 -0.134213
-0.311899 -0.00386083 -0.136551
-0.318007 -0.00441471 -0.138907
-0.324075 -0.00495168 -0.141282
-0.330093 -0.00546827 -0.143678
-0.299815 -0.00312621 -0.134112
-0.305739 -0.00369977 -0.13645
-0.311635 -0.00426006 -0.138806
-0.317493 -0.00480401 -0.141181
-0.323305 -0.00532813 -0.143578
-0.29381 -0.00293645 -0.133997
-0.299518 -0.00351479 -0.136336
-0.3052 -0.00408048 -0.138693
-0.310847 -0.00463046 -0.141069
-0.287755 -0.0027231 -0.13387
-0.293246 -0.00330505 -0.136209
-0.298712 -0.00387501 -0.138567
-0.304145 -0.00442999 -0.140945
-0.276366 -0.00189245 -0.131406
-0.281658 -0.00248545 -0.133728
-0.286932 -0.00306973 -0.136069
-0.292181 -0.00364275 -0.138428
-0.297399 -0.00420156 -0.140807
-0.270456 -0.00162952 -0.131248
-0.27553 -0.0022228 -0.133572
-0.280585 -0.00280802 -0.135913
-0.285617 -0.00338275 -0.138274
-0.244986 0.00106348 -0.121951
-0.249881 0.00045928 -0.124206
-0.254771 -0.000143954 -0.126479
-0.259653 -0.000745005 -0.128768
-0.264524 -0.00134241 -0.131074
-0.269379 -0.00193446 -0.133399
-0.274217 -0.00251916 -0.135742
-0.279031 -0.00309414 -0.138105
-0.2399 0.0013589 -0.121758
-0.244582 0.000759431 -0.124014
-0.249257 0.000160543 -0.126286
-0.253924 -0.000436593 -0.128576
-0.258578 -0.00103059 -0.130883
-0.263217 -0.00161981 -0.133209
-0.267837 -0.00220238 -0.135554
-0.272434 -0.00277603 -0.137919
-0.234801 0.00167303 -0.121548
-0.239273 0.00107986 -0.123803
-0.243736 0.00048692 -0.126076
-0.248189 -0.000104673 -0.128366
-0.252628 -0.000693577 -0.130674
-0.257052 -0.00127825 -0.133002
-0.261456 -0.00185697 -0.135348
-0.265836 -0.00242759 -0.137715
-0.321577 0.0208069 -0.150172
-0.328809 0.0212013 -0.152356
-0.336017 0.0215998 -0.154528
-0.316458 0.0213231 -0.149539
-0.330493 0.0221241 -0.153901
-0.337469 0.0225308 -0.156061
-0.344405 0.0229416 -0.158204
-0.351289 0.0233565 -0.160325
-0.358106 0.0237757 -0.162419
-0.364842 0.0241993 -0.164483
-0.371477 0.0246278 -0.16651
-0.377991 0.0250617 -0.168493
-0.311248 0.0218265 -0.148891
-0.318069 0.0222282 -0.15108
-0.36469 0.0251612 -0.165922
-0.371028 0.0255993 -0.167921
-0.312564 0.0227208 -0.150418
-0.357793 0.0256753 -0.165319
-0.306979 0.0231988 -0.149741
-0.344716 0.0257307 -0.162634
-0.350794 0.0261693 -0.164702
-0.301321 0.0236616 -0.14905
-0.337818 0.026202 -0.161988
-0.295597 0.0241086 -0.148345
-0.330839 0.0266522 -0.161327
-0.289816 0.0245392 -0.147626
-0.318233 0.0266444 -0.158517
-0.323791 0.0270806 -0.160653
-0.27845 0.0245495 -0.144696
-0.283985 0.0249529 -0.146895
-0.311332 0.0270509 -0.157817
-0.272797 0.0249488 -0.14395
-0.304385 0.0274348 -0.157103
-0.251762 0.0241783 -0.136609
-0.256884 0.0245568 -0.138799
-0.262001 0.0249411 -0.140994
-0.267112 0.0253312 -0.143193
-0.292425 0.0273702 -0.154192
-0.297403 0.0277951 -0.156377
-0.285633 0.0277104 -0.153444
-0.269635 0.0272142 -0.148266
-0.274246 0.0276172 -0.150476
-0.27883 0.0280264 -0.152685
-0.263263 0.0275197 -0.147484
-0.319799 -0.00377299 -0.129034
-0.327023 -0.00436508 -0.131345
-0.334224 -0.00494629 -0.133673
-0.314675 -0.00370941 -0.129012
-0.328694 -0.00490346 -0.133649
-0.335662 -0.00548213 -0.135994
-0.342591 -0.00604496 -0.138359
-0.349467 -0.00658886 -0.140745
-0.356277 -0.00711045 -0.143154
-0.363006 -0.00760601 -0.145589
-0.369634 -0.00807151 -0.148052
-0.37614 -0.00850266 -0.150546
-0.30946 -0.00362709 -0.128981
-0.316272 -0.00423875 -0.13129
-0.362837 -0.00807172 -0.14801
-0.369167 -0.00851342 -0.150502
-0.310762 -0.00414539 -0.131249
-0.35593 -0.00804702 -0.147961
-0.305171 -0.00403089 -0.131197
-0.342853 -0.00749938 -0.145447
-0.348921 -0.00799614 -0.147904
-0.299508 -0.00389449 -0.131135
-0.335945 -0.00741149 -0.145382
-0.293778 -0.00373545 -0.131062
-0.328958 -0.00729536 -0.145309
-0.287992 -0.00355303 -0.130976
-0.316354 -0.00659732 -0.142796
-0.3219 -0.00714966 -0.145224
-0.276632 -0.00270126 -0.128568
-0.282156 -0.00334653 -0.130876
-0.309444 -0.00641381 -0.1427
-0.270974 -0.00246887 -0.128453
-0.302488 -0.00619905 -0.142591
-0.24997 -0.00025701 -0.121497
-0.25508 -0.000910337 -0.123756
-0.260186 -0.00156263 -0.126031
-0.265284 -0.00221256 -0.128323
-0.290532 -0.00536074 -0.140059
-0.295496 -0.00595175 -0.142468
-0.283731 -0.00507738 -0.13992
-0.27692 -0.00476056 -0.139764
-0.270109 -0.00440917 -0.139591
-0.321528 0.0197509 -0.14928
-0.328761 0.0201022 -0.151468
-0.335971 0.0204577 -0.153645
-0.316407 0.0202471 -0.148674
-0.330444 0.0209606 -0.153045
-0.337422 0.021324 -0.155212
-0.344359 0.021692 -0.157362
-0.351245 0.0220647 -0.159493
-0.358065 0.0224423 -0.161599
-0.364803 0.0228255 -0.163676
-0.37144 0.0232145 -0.165719
-0.377957 0.0236103 -0.167722
-0.311195 0.0207319 -0.148053
-0.318017 0.0210892 -0.150245
-0.36465 0.0237237 -0.165155
-0.37099 0.0241228 -0.167173
-0.31251 0.021564 -0.149611
-0.35775 0.0242153 -0.164577
-0.306923 0.0220257 -0.148962
-0.344668 0.0242918 -0.161902
-0.350747 0.0246887 -0.163985
-0.301263 0.0224737 -0.148299
-0.337766 0.0247451 -0.161282
-0.295537 0.0229076 -0.147622
-0.330785 0.0251794 -0.160648
-0.289753 0.0233268 -0.146931
-0.318174 0.0252023 -0.157854
-0.323734 0.025594 -0.160001
-0.278385 0.023374 -0.144025
-0.283921 0.0237308 -0.146228
-0.31127 0.0255977 -0.157181
-0.27273 0.0237655 -0.143307
-0.30432 0.0259728 -0.156495
-0.251694 0.023127 -0.135986
-0.256816 0.0234598 -0.138178
-0.261933 0.0237979 -0.140376
-0.267043 0.0241417 -0.142578
-0.292355 0.0259478 -0.153603
-0.297335 0.0263267 -0.155796
-0.28556 0.0262841 -0.152883
-0.26956 0.0258793 -0.14772
-0.274171 0.0262359 -0.149936
-0.278754 0.0265987 -0.152151
-0.263185 0.0261854 -0.146965
-0.26758 0.026535 -0.149186
-0.321427 0.0176621 -0.147507
-0.321478 0.018703 -0.148393
-0.328662 0.0179288 -0.149705
-0.328712 0.0190117 -0.150587
-0.335874 0.0182004 -0.151893
-0.335923 0.0193249 -0.152769
-0.316304 0.0181193 -0.146953
-0.316356 0.0191794 -0.147814
-0.330344 0.0186617 -0.151345
-0.330394 0.0198068 -0.152195
-0.337324 0.0189405 -0.153525
-0.337373 0.0201276 -0.154369
-0.344265 0.0192248 -0.155692
-0.344312 0.0204534 -0.156528
-0.351153 0.0195151 -0.157842
-0.351199 0.0207846 -0.158668
-0.357976 0.0198119 -0.159972
-0.358021 0.0211216 -0.160786
-0.364718 0.0201159 -0.162077
-0.364761 0.0214649 -0.162877
-0.37136 0.0204281 -0.164154
-0.371401 0.0218152 -0.164937
-0.37788 0.0207495 -0.166196
-0.377919 0.0221736 -0.16696
-0.311088 0.0185677 -0.146386
-0.311142 0.0196458 -0.147219
-0.317912 0.018838 -0.148587
-0.317965 0.0199592 -0.149416
-0.364565 0.0208904 -0.163637
-0.364608 0.0223006 -0.164397
-0.370909 0.0212138 -0.165692
-0.370951 0.0226615 -0.166434
-0.312402 0.0192781 -0.148006
-0.312456 0.0204164 -0.148809
-0.357659 0.0213389 -0.163107
-0.357705 0.0227702 -0.163843
-0.306811 0.0197082 -0.147411
-0.306867 0.020862 -0.148187
-0.344568 0.0214569 -0.160451
-0.344618 0.0228673 -0.161178
-0.350651 0.021773 -0.162563
-0.3507 0.0232235 -0.163275
-0.301147 0.0201277 -0.146803
-0.301205 0.0212955 -0.147552
-0.337661 0.021876 -0.159882
-0.337714 0.0233031 -0.160583
-0.295418 0.0205363 -0.14618
-0.295477 0.0217164 -0.146902
-0.330674 0.0222802 -0.159299
-0.33073 0.023722 -0.159975
-0.28963 0.0209335 -0.145544
-0.289692 0.0221244 -0.146239
-0.318056 0.0223631 -0.156535
-0.318115 0.0237748 -0.157196
-0.323617 0.0226689 -0.158703
-0.323676 0.0241232 -0.159353
-0.278258 0.0210529 -0.142685
-0.278321 0.0222078 -0.143356
-0.283794 0.021319 -0.144896
-0.283857 0.0225188 -0.145563
-0.311146 0.0227378 -0.155914
-0.311208 0.0241595 -0.156549
-0.2726 0.0214294 -0.142023
-0.272665 0.0225915 -0.142666
-0.30419 0.0230967 -0.155281
-0.304255 0.0245261 -0.15589
-0.251563 0.0210485 -0.134737
-0.251628 0.0220829 -0.135363
-0.256683 0.021292 -0.136935
-0.256749 0.0223706 -0.137558
-0.2618 0.0215405 -0.139139
-0.261866 0.0226634 -0.139759
-0.266909 0.0217941 -0.141348
-0.266976 0.0229617 -0.141965
-0.29222 0.0231489 -0.152426
-0.292287 0.0245398 -0.153017
-0.297199 0.023439 -0.154636
-0.297266 0.0248737 -0.155218
-0.285419 0.0234786 -0.15176
-0.285489 0.0248723 -0.152324
-0.274097 0.0248681 -0.149397
-0.278607 0.0237914 -0.151082
-0.27868 0.0251857 -0.151619
-0.267504 0.0251682 -0.148674
-0.271796 0.0240869 -0.150392
-0.271872 0.0254792 -0.150903
-0.321369 0.0166279 -0.146622
-0.321369 0.0166274 -0.146622
-0.328605 0.0168531 -0.148825
-0.328605 0.0168525 -0.148824
-0.335818 0.0170833 -0.151019
-0.335818 0.0170827 -0.151019
-0.316244 0.0170662 -0.146094
-0.316244 0.0170656 -0.146094
-0.330286 0.0175244 -0.150496
-0.330286 0.0175238 -0.150496
-0.337267 0.0177617 -0.152684
-0.337267 0.017761 -0.152683
-0.344209 0.0180049 -0.154859
-0.344209 0.0180041 -0.154859
-0.351098 0.0182547 -0.15702
-0.351098 0.0182539 -0.15702
-0.357923 0.0185118 -0.159162
-0.357923 0.0185109 -0.159162
-0.364666 0.0187771 -0.161283
-0.364666 0.0187761 -0.161282
-0.37131 0.0190515 -0.163376
-0.37131 0.0190505 -0.163376
-0.377832 0.0193364 -0.165439
-0.377832 0.0193354 -0.165438
-0.311028 0.017497 -0.145553
-0.311028 0.0174964 -0.145552
-0.317852 0.0177245 -0.147759
-0.317852 0.0177238 -0.147758
-0.364512 0.0194913 -0.162883
-0.364512 0.0194903 -0.162882
-0.370859 0.0197775 -0.164958
-0.370859 0.0197764 -0.164957
-0.31234 0.0181479 -0.147204
-0.31234 0.0181472 -0.147204
-0.357604 0.0199191 -0.162376
-0.357604 0.019918 -0.162375
-0.306748 0.0185627 -0.146636
-0.306748 0.018562 -0.146636
-0.34451 0.0200578 -0.159729
-0.34451 0.0200568 -0.159728
-0.350594 0.0203344 -0.161856
-0.350594 0.0203333 -0.161855
-0.301082 0.0189685 -0.146054
-0.301082 0.0189678 -0.146054
-0.3376 0.0204607 -0.159184
-0.3376 0.0204597 -0.159183
-0.295351 0.0193651 -0.145459
-0.295351 0.0193644 -0.145458
-0.330611 0.0208508 -0.158626
-0.330611 0.0208497 -0.158625
-0.289563 0.0197519 -0.14485
-0.289563 0.0197512 -0.14485
-0.31799 0.0209636 -0.155875
-0.31799 0.0209625 -0.155875
-0.323552 0.0212275 -0.158055
-0.323552 0.0212264 -0.158054
-0.278189 0.019907 -0.142013
-0.278189 0.0199063 -0.142013
-0.283724 0.0201288 -0.144228
-0.283725 0.020128 -0.144228
-0.311078 0.0213289 -0.155281
-0.311078 0.0213278 -0.155281
-0.272529 0.0202765 -0.141378
-0.272529 0.0202758 -0.141378
-0.304119 0.0216805 -0.154674
-0.304119 0.0216794 -0.154674
-0.251492 0.0200218 -0.13411
-0.251492 0.0200212 -0.13411
-0.256612 0.0202217 -0.13631
-0.256612 0.0202211 -0.13631
-0.261727 0.0204264 -0.138517
-0.261727 0.0204257 -0.138517
-0.266836 0.0206361 -0.14073
-0.266836 0.0206353 -0.14073
-0.292146 0.0217711 -0.151836
-0.292146 0.02177 -0.151836
-0.297125 0.022018 -0.154054
-0.297125 0.0220168 -0.154054
-0.285343 0.0220983 -0.151196
-0.285343 0.0220972 -0.151196
-0.278528 0.0224111 -0.150543
-0.278528 0.0224099 -0.150543
-0.271715 0.0227089 -0.149879
-0.271715 0.0227078 -0.149879
-0.321311 0.0155989 -0.145743
-0.328547 0.0157828 -0.147951
-0.335761 0.015972 -0.150152
-0.316185 0.0160182 -0.145241
-0.330228 0.0163929 -0.149654
-0.33721 0.0165889 -0.15185
-0.344152 0.0167914 -0.154035
-0.351042 0.017001 -0.156207
-0.357868 0.0172187 -0.158362
-0.364612 0.0174455 -0.160498
-0.371258 0.0176825 -0.162611
-0.377782 0.0179311 -0.164695
-0.310967 0.0164313 -0.144725
-0.317792 0.0166164 -0.146936
-0.364458 0.0180998 -0.16214
-0.370806 0.0183492 -0.164236
-0.312279 0.017023 -0.146408
-0.357548 0.0185069 -0.161656
-0.306685 0.0174225 -0.145866
-0.344451 0.0186662 -0.159016
-0.350536 0.0189035 -0.16116
-0.301018 0.0178147 -0.14531
-0.337539 0.0190529 -0.158496
-0.295285 0.0181991 -0.144741
-0.330547 0.0194288 -0.157962
-0.289495 0.0185755 -0.144159
-0.317923 0.0195711 -0.155224
-0.323486 0.0197936 -0.157416
-0.27812 0.0187657 -0.141345
-0.283656 0.0189436 -0.143564
-0.311009 0.0199269 -0.154655
-0.272458 0.0191282 -0.140736
-0.304048 0.0202713 -0.154074
-0.251421 0.0189984 -0.133484
-0.256541 0.0191551 -0.135687
-0.261656 0.0193163 -0.137898
-0.266765 0.0194824 -0.140114
-0.292073 0.0203997 -0.151252
-0.297052 0.0206039 -0.153479
-0.285267 0.0207243 -0.150637
-0.278451 0.0210369 -0.15001
-0.271635 0.021337 -0.149371
-0.321251 0.014576 -0.144867
-0.328488 0.014719 -0.147081
-0.335702 0.0148676 -0.149289
-0.316124 0.0149763 -0.144391
-0.330168 0.0152685 -0.148816
-0.33715 0.0154237 -0.15102
-0.344093 0.0155858 -0.153215
-0.350984 0.0157558 -0.155398
-0.357811 0.0159345 -0.157568
-0.364556 0.0161232 -0.159719
-0.371203 0.0163232 -0.161851
-0.377728 0.016536 -0.163957
-0.310905 0.0153719 -0.143901
-0.31773 0.015515 -0.146117
-0.364402 0.0167184 -0.161402
-0.370751 0.0169313 -0.163519
-0.312216 0.015905 -0.145615
-0.357489 0.0171052 -0.160942
-0.306621 0.0162894 -0.145099
-0.344389 0.0172848 -0.158308
-0.350475 0.0174835 -0.160468
-0.300953 0.0166679 -0.14457
-0.337476 0.0176556 -0.157812
-0.295219 0.0170403 -0.144027
-0.330482 0.0180177 -0.157303
-0.289428 0.0174063 -0.143471
-0.317856 0.0181891 -0.154576
-0.323419 0.0183708 -0.156781
-0.278051 0.0176313 -0.140678
-0.283587 0.0177657 -0.142902
-0.31094 0.0185357 -0.154033
-0.272389 0.0179868 -0.140095
-0.303977 0.018873 -0.153476
-0.251352 0.0179803 -0.132859
-0.256471 0.0180943 -0.135065
-0.261586 0.0182126 -0.137279
-0.266694 0.0183356 -0.1395
-0.292 0.0190386 -0.15067
-0.296979 0.0192009 -0.152907
-0.285193 0.0193608 -0.150081
-0.278374 0.0196733 -0.149479
-0.271556 0.0199757 -0.148865
-0.321191 0.0135568 -0.143992
-0.328428 0.0136592 -0.146211
-0.335643 0.0137676 -0.148426
-0.316063 0.0139386 -0.143541
-0.330108 0.0141488 -0.147978
-0.337091 0.0142635 -0.15019
-0.344034 0.0143857 -0.152394
-0.350926 0.0145163 -0.154589
-0.357753 0.0146565 -0.156771
-0.364499 0.0148075 -0.158939
-0.371147 0.0149708 -0.161089
-0.377673 0.0151481 -0.163217
-0.310843 0.0143168 -0.143076
-0.317669 0.0144184 -0.145298
-0.364344 0.0153443 -0.160663
-0.370694 0.0155211 -0.162801
-0.312153 0.014792 -0.144821
-0.35743 0.0157113 -0.160225
-0.306558 0.0151616 -0.144331
-0.344328 0.0159113 -0.157598
-0.350415 0.0160716 -0.159775
-0.300888 0.0155268 -0.143828
-0.337413 0.0162666 -0.157126
-0.295153 0.0158875 -0.143311
-0.330418 0.0166153 -0.156641
-0.289361 0.0162434 -0.142782
-0.317789 0.0168158 -0.153926
-0.323352 0.0169571 -0.156143
-0.277984 0.016503 -0.14001
-0.283519 0.0165945 -0.142239
-0.310872 0.0171535 -0.153407
-0.27232 0.0168517 -0.139453
-0.303907 0.0174843 -0.152876
-0.251284 0.0169675 -0.132233
-0.256402 0.0170392 -0.134442
-0.261516 0.0171151 -0.136659
-0.266624 0.0171956 -0.138884
-0.291928 0.0176869 -0.150085
-0.296907 0.0178079 -0.152332
-0.285119 0.0180071 -0.149521
-0.278299 0.01832 -0.148944
-0.271479 0.0186253 -0.148355
-0.321124 0.0125404 -0.143116
-0.328361 0.0126025 -0.145341
-0.335576 0.0126709 -0.147563
-0.315995 0.0129038 -0.14269
-0.33004 0.0130324 -0.14714
-0.337023 0.0131069 -0.14936
-0.343967 0.0131894 -0.151574
-0.350859 0.0132809 -0.15378
-0.357687 0.0133827 -0.155977
-0.364434 0.0134963 -0.158161
-0.371082 0.0136231 -0.16033
-0.377609 0.0137652 -0.162481
-0.310775 0.0132649 -0.142251
-0.3176 0.013325 -0.144478
-0.364278 0.0139751 -0.159926
-0.370629 0.0141162 -0.162086
-0.312084 0.0136825 -0.144027
-0.357363 0.0143225 -0.159511
-0.306487 0.0140374 -0.143563
-0.344258 0.0145428 -0.156889
-0.350346 0.0146652 -0.159083
-0.300817 0.0143894 -0.143085
-0.337342 0.0148829 -0.156441
-0.295081 0.0147386 -0.142595
-0.330345 0.0152185 -0.15598
-0.289287 0.0150847 -0.142091
-0.317716 0.0154479 -0.153277
-0.323279 0.0155492 -0.155506
-0.27791 0.0153787 -0.13934
-0.283445 0.0154276 -0.141574
-0.310796 0.0157771 -0.152782
-0.272245 0.0157209 -0.13881
-0.303831 0.0161015 -0.152275
-0.25121 0.0159581 -0.131604
-0.256327 0.0159878 -0.133816
-0.261441 0.0160216 -0.136037
-0.266548 0.0160598 -0.138266
-0.29185 0.0163411 -0.149499
-0.296829 0.0164211 -0.151756
-0.28504 0.0166596 -0.14896
-0.278218 0.0169731 -0.148407
-0.271397 0.0172814 -0.147842
-0.321057 0.0115278 -0.142244
-0.328294 0.0115497 -0.144475
-0.335509 0.0115782 -0.146704
-0.315927 0.0118727 -0.141843
-0.329973 0.0119202 -0.146306
-0.336956 0.0119546 -0.148534
-0.3439 0.0119975 -0.150758
-0.350792 0.01205 -0.152977
-0.35762 0.0121136 -0.155188
-0.364367 0.0121898 -0.157389
-0.371016 0.0122804 -0.159577
-0.377544 0.0123873 -0.161751
-0.310706 0.0122168 -0.141429
-0.317531 0.0122357 -0.143662
-0.364211 0.0126109 -0.159196
-0.370562 0.0127163 -0.161378
-0.312015 0.012577 -0.143236
-0.357294 0.0129388 -0.158803
-0.306417 0.0129172 -0.142797
-0.344189 0.0131794 -0.156186
-0.350276 0.0132639 -0.158398
-0.300746 0.0132562 -0.142345
-0.337271 0.0135044 -0.155761
-0.295009 0.0135938 -0.14188
-0.330273 0.0138268 -0.155324
-0.289215 0.01393 -0.141402
-0.317642 0.0140852 -0.152631
-0.323205 0.0141467 -0.154874
-0.277837 0.0142583 -0.138673
-0.283371 0.0142647 -0.140911
-0.310722 0.0144059 -0.152161
-0.272171 0.0145939 -0.138167
-0.303755 0.014724 -0.151679
-0.251137 0.0149519 -0.130976
-0.256254 0.0149399 -0.133192
-0.261367 0.0149317 -0.135416
-0.266474 0.0149279 -0.137649
-0.291774 0.0150004 -0.148917
-0.296752 0.0150397 -0.151183
-0.284962 0.0153171 -0.148402
-0.278139 0.0156313 -0.147874
-0.271317 0.0159426 -0.147332
-0.320987 0.0105192 -0.141374
-0.328225 0.0105011 -0.143611
-0.33544 0.0104899 -0.145848
-0.315858 0.0108458 -0.140998
-0.329903 0.0108124 -0.145474
-0.336886 0.010807 -0.147711
-0.34383 0.0108105 -0.149945
-0.350722 0.0108243 -0.152176
-0.35755 0.0108498 -0.154401
-0.364298 0.0108888 -0.156619
-0.370946 0.0109432 -0.158827
-0.377475 0.0110151 -0.161023
-0.310636 0.0111728 -0.140609
-0.317461 0.0111507 -0.142848
-0.36414 0.0112525 -0.158468
-0.370492 0.0113223 -0.160672
-0.311944 0.011476 -0.142447
-0.357223 0.0115611 -0.158097
-0.306346 0.0118016 -0.142034
-0.344117 0.011822 -0.155486
-0.350204 0.0118688 -0.157715
-0.300674 0.0121275 -0.141608
-0.337198 0.012132 -0.155084
-0.294937 0.0124536 -0.141168
-0.330199 0.0124415 -0.15467
-0.289142 0.01278 -0.140716
-0.317568 0.0127287 -0.151988
-0.323131 0.0127506 -0.154245
-0.277764 0.0131422 -0.138007
-0.283298 0.0131066 -0.140251
-0.310646 0.013041 -0.151543
-0.272098 0.0134713 -0.137527
-0.303678 0.013353 -0.151084
-0.251064 0.0139492 -0.13035
-0.256181 0.0138957 -0.132569
-0.261294 0.013846 -0.134797
-0.266399 0.0138005 -0.137035
-0.291697 0.0136659 -0.148336
-0.296675 0.0136648 -0.150613
-0.284884 0.013981 -0.147846
-0.278061 0.0142958 -0.147342
-0.271237 0.0146103 -0.146825
-0.320919 0.00951101 -0.140504
-0.328156 0.00945304 -0.142746
-0.335371 0.00940223 -0.14499
-0.315788 0.00981933 -0.140152
-0.329833 0.00970542 -0.144641
-0.336816 0.00966021 -0.146886
-0.34376 0.00962444 -0.149131
-0.350652 0.00959956 -0.151374
-0.35748 0.00958718 -0.153613
-0.364228 0.00958913 -0.155848
-0.370876 0.00960746 -0.158076
-0.377404 0.00964444 -0.160295
-0.310566 0.0101294 -0.139789
-0.317391 0.0100664 -0.142033
-0.364069 0.00989571 -0.157739
-0.370421 0.00993003 -0.159965
-0.311874 0.0103756 -0.141658
-0.357152 0.010185 -0.15739
-0.306275 0.0106867 -0.14127
-0.344044 0.0104661 -0.154784
-0.350132 0.0104754 -0.157031
-0.300603 0.0109996 -0.140869
-0.337125 0.0107612 -0.154406
-0.294865 0.0113143 -0.140456
-0.330126 0.011058 -0.154016
-0.28907 0.0116309 -0.140029
-0.317494 0.0113739 -0.151344
-0.323056 0.0113564 -0.153613
-0.277692 0.0120271 -0.13734
-0.283225 0.0119494 -0.13959
-0.310572 0.0116778 -0.150922
-0.272025 0.0123496 -0.136887
-0.303603 0.0119838 -0.150489
-0.250993 0.0129472 -0.129724
-0.256109 0.0128523 -0.131946
-0.261221 0.012761 -0.134178
-0.266327 0.012674 -0.136419
-0.291621 0.0123331 -0.147755
-0.296599 0.0122918 -0.150042
-0.284808 0.0126466 -0.147289
-0.277984 0.0129622 -0.146809
-0.27116 0.0132799 -0.146316
-0.320843 0.00850244 -0.139632
-0.32808 0.00840458 -0.141881
-0.335294 0.00831418 -0.144132
-0.315712 0.00879248 -0.139306
-0.329756 0.008598 -0.143807
-0.336739 0.00851303 -0.146061
-0.343682 0.00843802 -0.148316
-0.350575 0.00837452 -0.150571
-0.357402 0.00832428 -0.152825
-0.364149 0.00828925 -0.155076
-0.370797 0.00827163 -0.157324
-0.377325 0.00827383 -0.159566
-0.31049 0.00908556 -0.138967
-0.317314 0.00898165 -0.141217
-0.36399 0.00853876 -0.157008
-0.370341 0.00853776 -0.159257
-0.311796 0.0092749 -0.140867
-0.357072 0.00880877 -0.156682
-0.306198 0.00957145 -0.140504
-0.343965 0.00910999 -0.154081
-0.350052 0.00908187 -0.156345
-0.300525 0.00987136 -0.140129
-0.337045 0.00939023 -0.153726
-0.294787 0.0101747 -0.139741
-0.330045 0.00967414 -0.153359
-0.288992 0.0104816 -0.13934
-0.317413 0.0100187 -0.150698
-0.322975 0.00996192 -0.152981
-0.277614 0.0109117 -0.136672
-0.283147 0.010792 -0.138926
-0.310491 0.0103144 -0.150301
-0.271947 0.0112278 -0.136244
-0.303522 0.0106143 -0.149891
-0.250916 0.0119451 -0.129095
-0.256032 0.0118089 -0.13132
-0.261143 0.011676 -0.133556
-0.266248 0.0115474 -0.135802
-0.29154 0.0110001 -0.147171
-0.296517 0.0109186 -0.149468
-0.284726 0.0113121 -0.146729
-0.277901 0.0116286 -0.146274
-0.271077 0.0119495 -0.145804
-0.320765 0.00749438 -0.138758
-0.328001 0.00735661 -0.141013
-0.335215 0.00722661 -0.143272
-0.315634 0.00776615 -0.138457
-0.329677 0.00749106 -0.142971
-0.336659 0.00736633 -0.145234
-0.343602 0.00725206 -0.147499
-0.350494 0.00714993 -0.149766
-0.357321 0.0070618 -0.152034
-0.364068 0.00698976 -0.154303
-0.370716 0.00693616 -0.15657
-0.377243 0.00690354 -0.158835
-0.310412 0.00804227 -0.138143
-0.317236 0.00789744 -0.140399
-0.363908 0.00718217 -0.156277
-0.370259 0.00714582 -0.158547
-0.311718 0.00817469 -0.140073
-0.35699 0.00743293 -0.155973
-0.306119 0.00845672 -0.139736
-0.343883 0.00775431 -0.153376
-0.349969 0.00768874 -0.155658
-0.300446 0.00874366 -0.139386
-0.336963 0.00801967 -0.153044
-0.294708 0.00903562 -0.139023
-0.329963 0.00829075 -0.152701
-0.288912 0.00933274 -0.138648
-0.317331 0.00866401 -0.150049
-0.322893 0.00856786 -0.152346
-0.277535 0.00979683 -0.135999
-0.283067 0.00963512 -0.138259
-0.310409 0.00895139 -0.149676
-0.271868 0.0101065 -0.135596
-0.303439 0.00924527 -0.14929
-0.250838 0.0109436 -0.128461
-0.255954 0.0107659 -0.130689
-0.261065 0.0105916 -0.132929
-0.266169 0.0104213 -0.135179
-0.291458 0.00966751 -0.146583
-0.296434 0.00954588 -0.148891
-0.284644 0.00997803 -0.146165
-0.277819 0.0102954 -0.145733
-0.270994 0.0106196 -0.145287
-0.320765 0.0074954 -0.138759
-0.328001 0.00735772 -0.141014
-0.335215 0.0072278 -0.143273
-0.315634 0.00776721 -0.138457
-0.329677 0.00749229 -0.142972
-0.336659 0.00736765 -0.145235
-0.343602 0.00725347 -0.1475
-0.350494 0.00715142 -0.149767
-0.357321 0.00706338 -0.152035
-0.364068 0.00699144 -0.154304
-0.370715 0.00693793 -0.156571
-0.377243 0.00690539 -0.158837
-0.310412 0.00804336 -0.138144
-0.317236 0.00789861 -0.140399
-0.363908 0.007184 -0.156278
-0.370259 0.00714775 -0.158549
-0.311718 0.0081759 -0.140074
-0.35699 0.00743483 -0.155974
-0.306119 0.00845796 -0.139736
-0.343883 0.00775617 -0.153376
-0.349969 0.0076907 -0.155659
-0.300446 0.00874493 -0.139386
-0.336963 0.00802159 -0.153045
-0.294708 0.00903693 -0.139023
-0.329963 0.00829274 -0.152701
-0.288912 0.00933408 -0.138648
-0.317331 0.00866593 -0.150049
-0.322893 0.00856991 -0.152346
-0.277535 0.00979809 -0.135999
-0.283067 0.00963649 -0.138259
-0.310408 0.00895337 -0.149676
-0.271868 0.0101078 -0.135596
-0.303439 0.0092473 -0.14929
-0.250838 0.0109446 -0.128461
-0.255954 0.010767 -0.130689
-0.261065 0.0105928 -0.132929
-0.266169 0.0104226 -0.135179
-0.291458 0.00966946 -0.146583
-0.296434 0.00954796 -0.148891
-0.284644 0.00998002 -0.146165
-0.277819 0.0102974 -0.145733
-0.270994 0.0106217 -0.145287
-0.320689 0.00648487 -0.137884
-0.327925 0.00630716 -0.140146
-0.335139 0.00613753 -0.142411
-0.315559 0.00673834 -0.137607
-0.329601 0.00638256 -0.142135
-0.336583 0.00621804 -0.144406
-0.343525 0.0060645 -0.146682
-0.350416 0.00592374 -0.148961
-0.357242 0.00579775 -0.151244
-0.363988 0.00568878 -0.153529
-0.370635 0.00559929 -0.155816
-0.377162 0.00553196 -0.158105
-0.310336 0.00699746 -0.137318
-0.31716 0.00681165 -0.13958
-0.363828 0.00582409 -0.155545
-0.370178 0.00575251 -0.157838
-0.311642 0.00707287 -0.139279
-0.356909 0.00605551 -0.155263
-0.306043 0.00734034 -0.138967
-0.343803 0.00639686 -0.15267
-0.349889 0.00629392 -0.15497
-0.300371 0.00761427 -0.138642
-0.336883 0.00664724 -0.152361
-0.294633 0.00789483 -0.138304
-0.329883 0.00690541 -0.152041
-0.288837 0.00818219 -0.137953
-0.317253 0.00730726 -0.149399
-0.322813 0.00717177 -0.151709
-0.27746 0.00868034 -0.135325
-0.282992 0.00847651 -0.137589
-0.31033 0.00758629 -0.149049
-0.271793 0.00898357 -0.134947
-0.303361 0.00787407 -0.148687
-0.250766 0.00994078 -0.127825
-0.25588 0.00972161 -0.130057
-0.260991 0.0095056 -0.1323
-0.266094 0.0092936 -0.134554
-0.29138 0.00833281 -0.145993
-0.296356 0.00817091 -0.148311
-0.284567 0.00864181 -0.145599
-0.277741 0.00896002 -0.14519
-0.270917 0.00928762 -0.144767
-0.320609 0.00547194 -0.137009
-0.327845 0.00525408 -0.139276
-0.335058 0.00504461 -0.141549
-0.315479 0.00570688 -0.136756
-0.32952 0.00526998 -0.141297
-0.336501 0.00506547 -0.143577
-0.343442 0.00487247 -0.145863
-0.350332 0.0046929 -0.148155
-0.357158 0.0045289 -0.150451
-0.363903 0.00438282 -0.152753
-0.370549 0.0042573 -0.15506
-0.377074 0.00415514 -0.157371
-0.310257 0.00594877 -0.136492
-0.31708 0.00572176 -0.138759
-0.363742 0.00446058 -0.154811
-0.37009 0.00435363 -0.157126
-0.311562 0.00596669 -0.138484
-0.356823 0.00467232 -0.154551
-0.305963 0.00621937 -0.138196
-0.343719 0.00503347 -0.151963
-0.349803 0.00489298 -0.154281
-0.300291 0.00648004 -0.137897
-0.336799 0.00526852 -0.151677
-0.294553 0.00674894 -0.137584
-0.329799 0.00551342 -0.151381
-0.288758 0.0070263 -0.137259
-0.31717 0.00594374 -0.148748
-0.322729 0.00576865 -0.151072
-0.277382 0.0075586 -0.134651
-0.282913 0.00731231 -0.13692
-0.310247 0.00621406 -0.148422
-0.271715 0.00785516 -0.134298
-0.303278 0.00649537 -0.148084
-0.250689 0.00893332 -0.12719
-0.255803 0.0086723 -0.129425
-0.260913 0.0084143 -0.131671
-0.266017 0.00816022 -0.13393
-0.291299 0.00699062 -0.145403
-0.296274 0.00678809 -0.147732
-0.284486 0.00729777 -0.145033
-0.277661 0.00761655 -0.144648
-0.270837 0.00794719 -0.144248
-0.320528 0.0044597 -0.136133
-0.327762 0.00420156 -0.138406
-0.334974 0.00395212 -0.140686
-0.315398 0.00467612 -0.135905
-0.329437 0.00415784 -0.140458
-0.336417 0.00391317 -0.142747
-0.343357 0.00368052 -0.145043
-0.350247 0.00346192 -0.147346
-0.357071 0.00325963 -0.149657
-0.363815 0.00307617 -0.151976
-0.37046 0.0029143 -0.154302
-0.376984 0.00277697 -0.156636
-0.310176 0.0049008 -0.135666
-0.316998 0.00463247 -0.137939
-0.363653 0.00309606 -0.154074
-0.37 0.00295339 -0.156411
-0.31148 0.00486113 -0.137689
-0.356735 0.00328812 -0.153837
-0.305882 0.00509902 -0.137426
-0.343632 0.00366943 -0.151254
-0.349715 0.00349105 -0.15359
-0.30021 0.00534644 -0.137152
-0.336713 0.00388918 -0.150992
-0.294473 0.00560368 -0.136866
-0.329713 0.00412083 -0.150719
-0.288678 0.00587102 -0.136566
-0.317085 0.00457994 -0.148097
-0.322644 0.00436496 -0.150434
-0.277303 0.00643756 -0.133978
-0.282833 0.00614873 -0.136253
-0.310164 0.00484157 -0.147796
-0.271636 0.00672743 -0.133651
-0.303195 0.00511645 -0.147482
-0.250612 0.00792671 -0.126558
-0.255726 0.00762379 -0.128796
-0.260835 0.00732373 -0.131046
-0.265938 0.00702749 -0.133309
-0.291217 0.00564843 -0.144815
-0.296191 0.00540506 -0.147154
-0.284404 0.00595374 -0.144469
-0.27758 0.00627307 -0.144108
-0.270756 0.00660674 -0.143732
-0.320441 0.00344749 -0.135254
-0.327675 0.00314891 -0.137533
-0.334886 0.00285931 -0.13982
-0.315312 0.00364552 -0.135051
-0.329349 0.00304552 -0.139617
-0.336328 0.00276048 -0.141913
-0.343267 0.00248794 -0.144219
-0.350156 0.00223006 -0.146534
-0.356979 0.00198922 -0.148859
-0.363722 0.00176808 -0.151193
-0.370365 0.00156955 -0.153538
-0.376888 0.00139673 -0.155894
-0.31009 0.00385313 -0.134838
-0.316911 0.00354332 -0.137116
-0.363559 0.00172987 -0.153333
-0.369905 0.00155114 -0.155691
-0.311394 0.00375586 -0.136891
-0.356642 0.00190236 -0.153118
-0.305796 0.00397911 -0.136654
-0.34354 0.00230429 -0.150541
-0.349622 0.00208767 -0.152893
-0.300125 0.00421344 -0.136406
-0.336622 0.00250887 -0.150303
-0.294388 0.00445918 -0.136145
-0.329623 0.00272743 -0.150054
-0.288594 0.00471668 -0.135871
-0.316997 0.00321586 -0.147443
-0.322554 0.00296063 -0.149793
-0.27722 0.00531777 -0.133304
-0.28275 0.00498623 -0.135583
-0.310076 0.00346899 -0.147166
-0.271554 0.00560111 -0.133002
-0.303108 0.00373762 -0.146876
-0.250532 0.00692195 -0.125925
-0.255645 0.00657705 -0.128165
-0.260754 0.00623484 -0.130419
-0.265856 0.00589633 -0.132686
-0.291132 0.00430685 -0.144224
-0.296105 0.00402235 -0.146573
-0.28432 0.00461054 -0.143903
-0.277496 0.00493064 -0.143566
-0.270673 0.00526757 -0.143214
-0.320358 0.00242957 -0.134374
-0.32759 0.00209024 -0.136658
-0.3348 0.00176018 -0.138951
-0.315228 0.00260903 -0.134196
-0.329264 0.00192664 -0.138773
-0.336242 0.00160093 -0.141077
-0.34318 0.00128822 -0.143392
-0.350067 0.000990803 -0.145718
-0.356889 0.000711188 -0.148056
-0.36363 0.000452176 -0.150406
-0.370272 0.000216823 -0.15277
-0.376793 8.39997e-06 -0.155147
-0.310007 0.00279937 -0.134007
-0.316828 0.00244771 -0.13629
-0.363466 0.000355339 -0.152587
-0.369811 0.000140414 -0.154966
-0.311311 0.00264392 -0.136091
-0.35655 0.000507872 -0.152395
-0.305714 0.00285233 -0.13588
-0.343451 0.000930243 -0.149824
-0.349532 0.000675157 -0.152193
-0.300044 0.00307336 -0.135657
-0.336534 0.00111928 -0.14961
-0.294307 0.00330741 -0.135421
-0.329536 0.00132435 -0.149385
-0.288513 0.00355487 -0.135173
-0.316912 0.00184207 -0.146785
-0.322468 0.00154621 -0.149148
-0.277141 0.00419085 -0.132627
-0.28267 0.00381611 -0.134911
-0.309992 0.00208634 -0.146533
-0.271476 0.00446753 -0.132351
-0.303025 0.00234838 -0.146267
-0.250456 0.00591144 -0.125289
-0.255569 0.00552402 -0.127532
-0.260677 0.00513913 -0.129789
-0.265779 0.00475781 -0.13206
-0.291051 0.00295508 -0.14363
-0.296023 0.00262887 -0.145989
-0.28424 0.00325687 -0.143333
-0.277417 0.00357751 -0.143021
-0.270595 0.00391749 -0.142693
-0.320269 0.00140597 -0.133492
-0.3275 0.00102554 -0.135781
-0.334709 0.000654682 -0.138082
-0.31514 0.00156642 -0.133339
-0.329173 0.000800912 -0.137928
-0.33615 0.000434187 -0.14024
-0.343087 8.09736e-05 -0.142564
-0.349973 -0.000256309 -0.144902
-0.356793 -0.000575001 -0.147253
-0.363532 -0.00087216 -0.149619
-0.370172 -0.00114458 -0.152
-0.376692 -0.00138884 -0.154399
-0.30992 0.00173906 -0.133176
-0.316739 0.00134516 -0.135464
-0.363368 -0.00102848 -0.15184
-0.36971 -0.00127984 -0.15424
-0.311224 0.00152456 -0.13529
-0.356453 -0.000896545 -0.151671
-0.305627 0.00171765 -0.135105
-0.343356 -0.000454084 -0.149107
-0.349435 -0.000747944 -0.151492
-0.299957 0.00192491 -0.134908
-0.33644 -0.000281261 -0.148917
-0.294222 0.00214678 -0.134699
-0.329444 -9.03595e-05 -0.148716
-0.288429 0.00238372 -0.134476
-0.316822 0.000456383 -0.146128
-0.322377 0.000119459 -0.148503
-0.277058 0.00305466 -0.131952
-0.282587 0.00263614 -0.134241
-0.309903 0.000691104 -0.145901
-0.271394 0.00332423 -0.131702
-0.302938 0.000945844 -0.14566
-0.250377 0.00489263 -0.124655
-0.255489 0.00446209 -0.126901
-0.260597 0.00403388 -0.129162
-0.265698 0.00360911 -0.131437
-0.290966 0.0015899 -0.143038
-0.295937 0.00122138 -0.145406
-0.284156 0.00188913 -0.142766
-0.277335 0.00220964 -0.142479
-0.270514 0.00255203 -0.142175
-0.320179 0.000381065 -0.132607
-0.32741 -4.08104e-05 -0.134902
-0.334617 -0.000452834 -0.137209
-0.315052 0.000522465 -0.13248
-0.329082 -0.000326881 -0.137081
-0.336057 -0.000735036 -0.1394
-0.342993 -0.0011292 -0.141733
-0.349877 -0.00150683 -0.144082
-0.356696 -0.00186512 -0.146446
-0.363433 -0.00220099 -0.148827
-0.370071 -0.00251108 -0.151226
-0.376588 -0.00279179 -0.153645
-0.309832 0.000677358 -0.132343
-0.31665 0.000240877 -0.134637
-0.363268 -0.00241754 -0.151089
-0.369608 -0.00270598 -0.153508
-0.311135 0.000403421 -0.134489
-0.356354 -0.00230632 -0.150943
-0.30554 0.000581142 -0.13433
-0.343261 -0.00184323 -0.148387
-0.349338 -0.00217653 -0.150788
-0.299871 0.000774564 -0.134159
-0.336346 -0.00168672 -0.148221
-0.294136 0.000984201 -0.133976
-0.32935 -0.00151008 -0.148045
-0.288344 0.00121055 -0.133781
-0.316732 -0.000933753 -0.14547
-0.322285 -0.0013124 -0.147857
-0.276975 0.00191675 -0.131278
-0.282503 0.0014541 -0.133572
-0.309814 -0.000708662 -0.145268
-0.271312 0.00217913 -0.131055
-0.30285 -0.000461306 -0.145053
-0.250297 0.00387284 -0.124025
-0.255409 0.0033989 -0.126274
-0.260516 0.00292708 -0.128537
-0.265617 0.00245853 -0.130816
-0.290881 0.000220629 -0.142448
-0.295851 -0.000190807 -0.144825
-0.284073 0.000517198 -0.142202
-0.277253 0.000837482 -0.14194
-0.270434 0.00118217 -0.141661
-0.320179 0.000381625 -0.132608
-0.327409 -4.02068e-05 -0.134902
-0.334617 -0.000452186 -0.137209
-0.315052 0.000523044 -0.132481
-0.329082 -0.000326211 -0.137081
-0.336057 -0.000734318 -0.1394
-0.342993 -0.00112844 -0.141734
-0.349877 -0.00150601 -0.144082
-0.356696 -0.00186426 -0.146446
-0.363433 -0.00220008 -0.148827
-0.370071 -0.00251012 -0.151226
-0.376588 -0.00279079 -0.153646
-0.309832 0.000677955 -0.132344
-0.31665 0.00024152 -0.134637
-0.363268 -0.00241654 -0.151089
-0.369608 -0.00270494 -0.153509
-0.311135 0.000404084 -0.134489
-0.356354 -0.00230529 -0.150944
-0.30554 0.000581825 -0.13433
-0.343261 -0.00184221 -0.148388
-0.349338 -0.00217546 -0.150789
-0.299871 0.000775267 -0.134159
-0.336345 -0.00168567 -0.148222
-0.294136 0.000984922 -0.133976
-0.32935 -0.001509 -0.148045
-0.288344 0.00121129 -0.133781
-0.316732 -0.000932699 -0.14547
-0.322285 -0.00131128 -0.147858
-0.276975 0.00191745 -0.131279
-0.282503 0.00145486 -0.133572
-0.309814 -0.000707576 -0.145268
-0.271312 0.00217985 -0.131055
-0.30285 -0.000460187 -0.145054
-0.250297 0.00387339 -0.124025
-0.255409 0.00339951 -0.126274
-0.260516 0.00292775 -0.128537
-0.265617 0.00245926 -0.130816
-0.290881 0.000221704 -0.142448
-0.295851 -0.000189655 -0.144825
-0.284073 0.000518301 -0.142202
-0.277253 0.000838613 -0.14194
-0.270434 0.00118333 -0.141661
-0.320085 -0.000645206 -0.131718
-0.327314 -0.00110881 -0.134017
-0.33452 -0.00156233 -0.13633
-0.314958 -0.00052265 -0.131617
-0.328986 -0.00145645 -0.136227
-0.33596 -0.00190639 -0.138554
-0.342894 -0.00234189 -0.140895
-0.349776 -0.00276028 -0.143254
-0.356593 -0.00315863 -0.145629
-0.363328 -0.00353368 -0.148025
-0.369964 -0.00388192 -0.150441
-0.376479 -0.0041996 -0.15288
-0.309739 -0.000385286 -0.131506
-0.316556 -0.00086465 -0.133804
-0.363162 -0.00381081 -0.150327
-0.3695 -0.00413688 -0.152765
-0.311042 -0.000718735 -0.133682
-0.356249 -0.00372019 -0.150205
-0.305448 -0.000556149 -0.13355
-0.34316 -0.00323573 -0.147658
-0.349235 -0.00360905 -0.150074
-0.29978 -0.000376312 -0.133406
-0.336246 -0.00309533 -0.147517
-0.294046 -0.000178656 -0.13325
-0.329252 -0.00293274 -0.147366
-0.288255 3.73752e-05 -0.133081
-0.316637 -0.002326 -0.144805
-0.322189 -0.00274694 -0.147203
-0.276888 0.000779383 -0.130602
-0.282415 0.00027232 -0.132899
-0.309721 -0.00211026 -0.144629
-0.271226 0.00103486 -0.130405
-0.302759 -0.00186998 -0.14444
-0.250214 0.00285476 -0.123392
-0.255325 0.00233725 -0.125644
-0.260432 0.00182161 -0.12791
-0.265532 0.00130906 -0.130193
-0.290792 -0.00114932 -0.141852
-0.295761 -0.0016042 -0.144237
-0.283985 -0.000855075 -0.141632
-0.277167 -0.00053467 -0.141396
-0.27035 -0.000187319 -0.141143
-0.320085 -0.000644664 -0.131719
-0.327314 -0.00110823 -0.134018
-0.33452 -0.0015617 -0.13633
-0.314958 -0.00052209 -0.131617
-0.328986 -0.0014558 -0.136227
-0.33596 -0.0019057 -0.138554
-0.342894 -0.00234115 -0.140896
-0.349776 -0.0027595 -0.143254
-0.356593 -0.00315779 -0.14563
-0.363328 -0.0035328 -0.148025
-0.369964 -0.003881 -0.150441
-0.376479 -0.00419863 -0.15288
-0.309739 -0.000384709 -0.131506
-0.316556 -0.000864027 -0.133804
-0.363162 -0.00380985 -0.150327
-0.3695 -0.00413587 -0.152766
-0.311042 -0.000718093 -0.133682
-0.356249 -0.00371919 -0.150205
-0.305448 -0.000555488 -0.13355
-0.34316 -0.00323475 -0.147658
-0.349235 -0.00360801 -0.150074
-0.29978 -0.000375633 -0.133406
-0.336246 -0.00309431 -0.147517
-0.294046 -0.000177959 -0.13325
-0.329252 -0.00293169 -0.147366
-0.288255 3.80908e-05 -0.133081
-0.316637 -0.00232498 -0.144805
-0.322189 -0.00274586 -0.147203
-0.276888 0.000780059 -0.130602
-0.282415 0.000273053 -0.132899
-0.309721 -0.00210921 -0.144629
-0.271226 0.00103555 -0.130405
-0.302759 -0.0018689 -0.14444
-0.250214 0.00285529 -0.123392
-0.255325 0.00233784 -0.125644
-0.260432 0.00182226 -0.12791
-0.265532 0.00130976 -0.130192
-0.290792 -0.00114828 -0.141852
-0.295761 -0.00160309 -0.144237
-0.283985 -0.000854009 -0.141632
-0.277167 -0.000533577 -0.141395
-0.27035 -0.000186198 -0.141142
-0.319993 -0.00168043 -0.130826
-0.32722 -0.00218627 -0.133129
-0.334425 -0.00268175 -0.135447
-0.314867 -0.00157704 -0.130751
-0.328892 -0.00259634 -0.13537
-0.335864 -0.00308856 -0.137703
-0.342797 -0.00356586 -0.140052
-0.349677 -0.00402544 -0.14242
-0.356492 -0.00446423 -0.144807
-0.363225 -0.00487881 -0.147216
-0.369859 -0.00526551 -0.149648
-0.376371 -0.0056204 -0.152106
-0.309649 -0.00145753 -0.130666
-0.316465 -0.00198034 -0.132967
-0.363058 -0.00521742 -0.149558
-0.369394 -0.00558138 -0.152014
-0.310952 -0.00185141 -0.132872
-0.356147 -0.00514799 -0.149459
-0.305359 -0.00170431 -0.132766
-0.343062 -0.00464242 -0.146923
-0.349135 -0.00505614 -0.149352
-0.299692 -0.0015384 -0.132649
-0.33615 -0.00451874 -0.146807
-0.29396 -0.00135306 -0.13252
-0.329158 -0.00437083 -0.146681
-0.288171 -0.00114768 -0.132378
-0.316546 -0.00373371 -0.144135
-0.322096 -0.00419757 -0.146544
-0.276806 -0.000369371 -0.129922
-0.282332 -0.000921646 -0.132222
-0.309632 -0.00352791 -0.143985
-0.271145 -0.000121062 -0.129751
-0.302671 -0.00329531 -0.143822
-0.250135 0.00182736 -0.122757
-0.255246 0.00126544 -0.125011
-0.260353 0.000705142 -0.12728
-0.265452 0.000147707 -0.129566
-0.290708 -0.00253564 -0.141252
-0.295676 -0.00303484 -0.143645
-0.283903 -0.00224422 -0.141058
-0.277087 -0.00192418 -0.140847
-0.270272 -0.00157463 -0.14062
-0.319896 -0.00272509 -0.129932
-0.327122 -0.00327378 -0.13224
-0.334325 -0.00381183 -0.134563
-0.314771 -0.00264156 -0.129883
-0.328793 -0.00374765 -0.134512
-0.335763 -0.00428276 -0.136851
-0.342694 -0.00480248 -0.139208
-0.349572 -0.00530384 -0.141585
-0.356385 -0.00578363 -0.143984
-0.363116 -0.00623828 -0.146406
-0.369747 -0.00666393 -0.148854
-0.376256 -0.00705648 -0.15133
-0.309555 -0.0025406 -0.129825
-0.316369 -0.00310754 -0.13213
-0.362948 -0.00663986 -0.148787
-0.369281 -0.0070422 -0.151262
-0.310857 -0.00299634 -0.132062
-0.356039 -0.00659266 -0.148713
-0.305265 -0.00286549 -0.131983
-0.342958 -0.00606643 -0.146187
-0.349028 -0.00652117 -0.148631
-0.2996 -0.00271428 -0.131893
-0.336048 -0.00596054 -0.146097
-0.293869 -0.00254203 -0.131791
-0.329058 -0.00582842 -0.145996
-0.288081 -0.00234808 -0.131676
-0.31645 -0.00516125 -0.143466
-0.321998 -0.00566884 -0.145885
-0.276718 -0.00153328 -0.129244
-0.282244 -0.00213175 -0.131548
-0.309538 -0.00496651 -0.143343
-0.271059 -0.00129287 -0.129101
-0.302579 -0.00474274 -0.143206
-0.250052 0.000786531 -0.122125
-0.255163 0.000179152 -0.124381
-0.260269 -0.000426879 -0.126654
-0.265368 -0.00103027 -0.128943
-0.29062 -0.00394415 -0.140655
-0.295586 -0.00448877 -0.143056
-0.283817 -0.00365668 -0.140488
-0.277003 -0.00333814 -0.140304
-0.27019 -0.00298757 -0.140103
CELL_DATA 2343
SCALARS MARKER int 1
LOOKUP_TABLE default
1
1
1
1
1
1
1
1
1
1
1
1
1
1
1
1
1
1
1
1
1
1
1
1
1
1
1
1
1
1
1
1
1
1
1
1
1
1
1
1
1
1
1
1
1
1
1
1
1
1
1
1
1
1
1
1
1
1
1
1
1
1
1
1
1
1
1
1
1
1
1
1
1
1
1
1
1
1
1
1
1
1
1
1
1
1
1
1
1
1
1
1
1
1
1
1
1
1
1
1
1
1
1
1
1
1
1
1
1
1
1
1
1
1
1
1
1
1
1
1
1
1
1
1
1
1
1
1
1
1
1
1
1
1
1
1
1
1
1
1
1
1
1
1
1
1
1
1
1
1
1
1
1
1
1
1
1
1
1
1
1
1
1
2
2
2
2
2
2
2
2
2
2
2
2
2
2
2
2
2
2
2
2
2
2
2
2
2
2
2
2
2
2
2
2
2
2
2
2
2
2
2
2
2
2
2
2
2
2
2
2
2
2
2
2
2
2
2
2
2
2
2
2
2
2
2
2
2
2
2
2
2
2
2
2
2
2
2
2
2
2
2
2
2
2
2
2
1
1
1
1
1
1
1
1
1
1
1
1
1
1
1
1
1
1
1
1
1
1
1
1
1
1
1
1
1
1
1
1
1
1
1
1
1
1
1
1
1
1
1
1
1
1
1
1
1
1
1
1
1
1
1
1
1
1
1
1
1
1
1
1
1
1
1
1
1
1
1
1
1
1
1
1
1
1
1
1
1
1
1
1
1
1
1
1
1
1
1
1
1
1
1
1
1
1
1
1
1
1
1
1
1
1
1
1
1
1
1
1
1
1
1
1
1
1
1
1
1
1
1
1
1
1
1
1
1
1
1
1
1
1
1
1
1
1
1
1
1
1
1
1
1
1
1
1
1
1
1
1
1
1
1
1
1
1
1
1
1
1
1
1
1
1
1
1
1
1
1
1
1
1
1
1
1
1
1
1
1
1
1
1
1
1
1
1
1
1
1
1
1
1
1
1
1
1
1
1
1
1
1
1
1
1
1
1
1
1
1
1
1
1
1
1
1
1
1
1
1
1
1
1
1
1
1
1
1
1
1
1
1
1
1
1
1
1
1
1
1
1
1
1
1
1
1
1
1
1
1
1
1
1
1
1
1
1
1
1
1
1
1
1
1
1
1
1
1
1
1
1
1
1
1
1
1
1
1
1
1
1
1
1
1
1
1
1
1
1
1
1
1
1
1
1
1
1
1
1
1
1
1
1
1
1
1
1
1
1
1
1
1
1
1
1
1
1
1
1
1
1
1
1
1
1
1
1
1
1
1
1
1
1
1
1
1
1
1
1
1
1
1
1
1
1
1
1
1
1
1
1
1
1
1
1
1
1
1
1
1
1
1
1
1
1
1
1
1
1
1
1
1
1
1
1
1
1
1
1
1
1
1
1
1
1
1
1
1
1
1
1
1
1
1
1
1
1
1
1
1
1
1
1
1
1
1
1
1
1
1
1
1
1
1
1
1
1
1
1
1
1
1
1
1
1
1
1
1
1
1
1
1
1
1
1
1
1
1
1
1
1
1
1
1
1
1
1
1
1
1
1
1
1
1
1
1
1
1
1
1
1
1
1
1
1
1
1
1
1
1
1
1
1
1
1
1
1
1
1
1
1
1
1
1
1
1
1
1
1
1
1
1
1
1
1
1
1
1
1
1
1
1
1
1
1
1
1
1
1
1
1
1
1
1
1
1
1
1
1
1
1
1
1
1
1
1
1
1
1
1
1
1
1
1
1
1
1
1
1
1
1
1
1
1
1
1
1
1
1
1
1
1
1
1
1
1
1
1
1
1
1
1
1
1
1
1
1
1
1
1
1
1
1
1
1
1
1
1
1
1
1
1
1
1
1
1
1
1
1
1
1
1
1
1
1
1
1
1
1
1
1
1
1
1
1
1
1
1
1
1
1
1
1
1
1
1
1
1
1
1
1
1
1
1
1
1
1
1
1
1
1
1
1
1
1
1
1
1
1
1
1
1
1
1
1
1
1
1
1
1
1
1
1
1
1
1
1
1
1
1
1
1
1
1
1
1
1
1
1
1
1
1
1
1
1
1
1
1
1
1
1
1
1
1
1
1
1
1
1
1
1
1
1
1
1
1
1
1
1
1
1
1
1
1
1
1
1
1
1
1
1
1
1
1
1
1
1
1
1
1
1
1
1
1
1
1
1
1
1
1
1
1
1
1
1
1
1
1
1
1
1
1
1
1
1
1
1
1
1
1
1
1
1
1
1
5
5
5
5
5
5
5
5
5
5
5
5
5
5
5
5
5
5
5
5
5
5
5
5
5
5
5
5
5
5
5
5
5
5
5
5
5
5
5
5
5
5
5
5
5
5
5
5
5
5
5
5
5
5
5
5
5
5
5
5
5
5
5
5
5
5
5
5
5
5
5
5
5
5
5
5
5
5
5
5
5
5
5
5
1
1
1
1
1
1
1
1
1
1
1
1
1
1
1
1
1
1
1
1
1
1
1
1
1
1
1
1
1
1
1
1
1
1
1
1
1
1
1
1
1
1
1
1
1
1
1
1
1
1
1
1
1
1
1
1
1
1
1
1
1
1
1
1
1
1
1
1
1
1
1
1
1
1
1
1
1
1
1
1
1
1
1
1
1
1
1
1
1
1
1
1
1
1
1
1
1
1
1
1
1
1
1
1
1
1
1
1
1
1
1
1
1
1
1
1
1
1
1
1
1
1
1
1
1
1
1
1
1
1
1
1
1
1
1
1
1
1
1
1
1
1
1
1
1
1
1
1
1
1
1
1
1
1
1
1
1
1
1
1
1
1
1
1
1
1
1
1
1
1
1
1
1
1
1
1
1
1
1
1
1
1
1
1
1
1
1
1
1
1
1
1
1
1
1
1
1
1
1
1
1
1
1
1
1
1
1
1
1
1
1
1
1
1
1
1
1
1
1
1
1
1
1
1
1
1
1
1
1
1
1
1
1
1
1
1
1
1
1
1
1
1
1
1
1
1
1
1
1
1
1
1
1
1
1
1
1
1
1
1
1
1
1
1
1
1
1
1
1
1
1
1
1
1
1
1
1
1
1
1
1
1
1
1
1
1
1
1
1
1
1
1
1
1
1
1
1
1
1
1
1
1
1
1
1
1
1
1
1
1
1
1
1
1
1
1
1
1
1
1
1
1
1
1
1
1
1
1
1
1
1
1
1
1
1
1
1
1
1
1
1
1
1
1
1
1
1
1
1
1
1
1
1
1
1
1
1
1
1
1
1
1
1
1
1
1
1
1
1
1
1
1
1
1
1
1
1
1
1
1
1
1
1
1
1
1
1
1
1
1
1
1
1
1
1
1
1
1
1
1
1
1
1
1
1
1
1
1
1
1
1
1
1
1
1
1
1
1
1
1
1
1
1
1
1
1
1
1
1
1
1
1
1
1
1
1
1
1
1
1
1
1
1
1
1
1
1
1
1
1
1
1
1
1
1
1
1
1
1
1
1
1
1
1
1
1
1
1
1
1
1
1
1
1
1
1
1
1
1
1
1
1
1
1
1
1
1
1
1
1
1
1
1
1
1
1
1
1
1
1
1
1
1
1
1
1
1
1
1
1
1
1
1
1
1
1
1
1
1
1
1
1
1
1
1
1
1
1
1
1
1
1
1
1
1
1
1
1
1
1
1
1
1
1
1
1
1
1
1
1
1
1
1
1
1
1
1
1
1
1
1
1
1
1
1
1
1
1
1
1
1
1
1
1
1
1
1
1
1
1
1
1
1
1
1
1
1
1
6
6
6
6
6
6
6
6
6
6
6
6
6
6
6
6
6
6
6
6
6
6
6
6
6
6
6
6
6
6
6
6
6
6
6
6
6
6
6
6
6
6
6
6
6
6
6
6
6
6
6
6
6
6
6
6
6
6
6
6
6
6
6
6
6
6
6
6
6
6
6
6
6
6
6
6
6
6
6
6
6
6
6
6
1
1
1
1
1
1
1
1
1
1
1
1
1
1
1
1
1
1
1
1
1
1
1
1
1
1
1
1
1
1
1
1
1
1
1
1
1
1
1
1
1
1
1
1
1
1
1
1
1
1
1
1
1
1
1
1
1
1
1
1
1
1
1
1
1
1
1
1
1
1
1
1
1
1
1
1
1
1
1
1
1
1
1
1
7
7
7
7
7
7
7
7
7
7
7
7
7
7
7
7
7
7
7
7
7
7
7
7
7
7
7
7
7
7
7
7
7
7
7
7
7
7
7
7
7
7
7
7
7
7
7
7
7
7
7
7
7
7
7
7
7
7
7
7
7
7
7
7
7
7
7
7
7
7
7
7
7
7
7
7
7
7
7
7
7
7
7
7
1
1
1
1
1
1
1
1
1
1
1
1
1
1
1
1
1
1
1
1
1
1
1
1
1
1
1
1
1
1
1
1
1
1
1
1
1
1
1
1
1
1
1
1
1
1
1
1
1
1
1
1
1
1
1
1
1
1
1
1
1
1
1
1
1
1
1
1
1
1
1
1
1
1
1
1
1
1
1
1
1
1
1
1
1
1
1
1
1
1
1
1
1
1
1
1
1
1
1
1
1
1
1
1
1
1
1
1
1
1
1
1
1
1
1
1
1
1
1
1
1
1
1
1
1
1
1
1
1
1
1
1
1
1
1
1
1
1
1
1
1
1
1
1
1
1
1
1
1
1
1
1
1
1
1
1
1
1
1
1
1
1
1
1
1
1
1
1
1
1
1
1
1
1
1
1
1
1
1
1
1
1
1
1
1
1
1
1
1
1
1
1
1
1
1
1
1
1
1
1
1
1
1
1
1
1
1
1
1
1
1
1
1
1
1
1
1
1
1
1
1
1
1
1
1
1
1
1
1
1
1
1
1
1
1
1
1
1
1
1
1
1
1
1
1
1
1
1
1
1
1
1
1
1
1
1
1
1
1
1
1
1
1
1
1
1
1
1
1
1
1
1
1
1
1
1
1
1
1
1
1
1
1
1
1
1
1
1
1
1
1
1
1
1
1
1
1
1
1
1
1
1
1
1
1
1
1
1
1
1
1
1
1
1
1
1
1
1
1
1
1
1
1
1
1
1
1
1
1
1
1
1
1
1
1
1
1
1
1
1
1
1
1
1
1
1
1
1
1
1
1
1
1
1
1
1
1
1
1
1
1
1
1
1
1
1
1
1
1
1
1
1
1
1
1
1
1
1
1
1
1
1
1
1
1
1
1
1
1
1
1
1
1
1
1
1
1
1
1
1
1
1
1
1
1
1
1
1
1
1
1
1
1
1
1
1
SCALARS LOCAL_STRESS double 6
LOOKUP_TABLE default
-70.4669 -1.57392 -0.27708 6.67827 0.0222917 0.181878
-69.2638 -1.55026 -0.289964 6.67226 0.0226794 0.196723
-72.3959 -1.64088 -0.276426 6.65418 0.0228429 0.178497
-71.2828 -1.62546 -0.289821 6.64838 0.0232774 0.193707
-69.9965 -1.60524 -0.303377 6.63712 0.0238423 0.209519
-68.5198 -1.57965 -0.317084 6.61999 0.0240112 0.225948
-66.8402 -1.54748 -0.330821 6.59589 0.0240502 0.243056
-64.9425 -1.5075 -0.344499 6.56365 0.0239965 0.260822
-62.8111 -1.45818 -0.35797 6.52195 0.023873 0.279218
-60.4305 -1.39772 -0.371121 6.46933 0.0236262 0.29814
-57.787 -1.32366 -0.383654 6.40428 0.0231546 0.31738
-73.3112 -1.70553 -0.28961 6.62206 0.0238993 0.190197
-72.1199 -1.69417 -0.303712 6.6113 0.0243668 0.206368
-70.7389 -1.67779 -0.317997 6.59469 0.0247309 0.223348
-69.1536 -1.65529 -0.332382 6.5713 0.0249731 0.241073
-67.3479 -1.6254 -0.346755 6.53994 0.0250662 0.259468
-65.3055 -1.58658 -0.360977 6.49922 0.0249776 0.278461
-63.0104 -1.53692 -0.374941 6.44761 0.0246555 0.298002
-75.3472 -1.78981 -0.28906 6.59366 0.0244855 0.186344
-74.2571 -1.7876 -0.303692 6.58316 0.0250228 0.202848
-72.9778 -1.78066 -0.318521 6.56702 0.025448 0.22024
-71.4936 -1.76805 -0.333505 6.54433 0.0257514 0.238461
-69.7868 -1.74851 -0.348531 6.51386 0.0259053 0.257444
-67.8399 -1.72051 -0.363479 6.47418 0.0258391 0.27711
-65.6347 -1.68205 -0.378158 6.42365 0.0255882 0.297376
-77.3866 -1.87862 -0.288233 6.56291 0.025049 0.181999
-76.4032 -1.8857 -0.303326 6.55256 0.0256538 0.198826
-75.2321 -1.88842 -0.318651 6.53683 0.0261413 0.216625
-73.8556 -1.88592 -0.334183 6.5148 0.0265086 0.235343
-72.255 -1.87701 -0.349814 6.48522 0.0267268 0.254923
-70.4112 -1.86009 -0.365416 6.4466 0.0267223 0.275332
-79.4258 -1.97197 -0.287102 6.52972 0.0255857 0.177137
-78.555 -1.9885 -0.302584 6.51937 0.0262579 0.194269
-77.4984 -2.00108 -0.31835 6.50395 0.0268091 0.212463
-76.2368 -2.00894 -0.334377 6.48253 0.0272428 0.231674
-74.75 -2.01091 -0.35056 6.45384 0.0275292 0.251854
-73.0167 -2.00542 -0.366729 6.41631 0.0275777 0.272984
-81.461 -2.06989 -0.28564 6.49399 0.0260927 0.171732
-80.7086 -2.09602 -0.301436 6.48348 0.0268326 0.189144
-79.7732 -2.11866 -0.317585 6.46826 0.0274491 0.207714
-78.6339 -2.1371 -0.334047 6.44736 0.027952 0.227405
-77.2692 -2.15005 -0.350643 6.41949 0.0281953 0.248164
-75.6565 -2.15651 -0.367439 6.38319 0.0283862 0.26994
-83.4879 -2.17236 -0.283823 6.45563 0.0265681 0.165761
-82.8597 -2.20825 -0.299854 6.44478 0.027375 0.183418
-82.0524 -2.24117 -0.316323 6.4296 0.0280585 0.202336
-81.0429 -2.27043 -0.333155 6.40911 0.0286335 0.222486
-79.8073 -2.2948 -0.350144 6.38196 0.0289821 0.243939
-85.8361 -2.23157 -0.265748 6.42289 0.026117 0.142472
-85.4985 -2.2792 -0.281466 6.41468 0.0269948 0.159141
-85.0038 -2.32521 -0.297811 6.40318 0.0278808 0.177059
-84.3314 -2.36861 -0.314531 6.38784 0.0286336 0.196284
-83.4596 -2.40891 -0.331663 6.36762 0.0292842 0.21686
-82.3629 -2.445 -0.349005 6.34115 0.0297241 0.238869
-87.7016 -2.33351 -0.26313 6.3801 0.0264852 0.135278
-87.4937 -2.39091 -0.278901 6.37076 0.0274538 0.151975
-87.1355 -2.44688 -0.295281 6.35859 0.0283455 0.170036
-86.605 -2.50097 -0.312179 6.34289 0.0291695 0.189516
-85.8791 -2.55224 -0.329389 6.3227 0.0297802 0.21045
-84.9321 -2.60061 -0.347162 6.29693 0.0303901 0.232904
-89.0493 -2.23506 -0.216152 6.35609 0.0234277 0.0847051
-89.3109 -2.30326 -0.230033 6.35044 0.0246875 0.0976448
-89.4769 -2.37154 -0.244657 6.3435 0.0257597 0.111957
-89.5348 -2.43952 -0.259949 6.33492 0.0267827 0.127442
-89.465 -2.50683 -0.275797 6.32419 0.0278071 0.144176
-89.2494 -2.5732 -0.29224 6.31099 0.0287628 0.16232
-88.8674 -2.6382 -0.309239 6.29467 0.0296595 0.181989
-88.2933 -2.70112 -0.326586 6.27419 0.0303993 0.203347
-90.4685 -2.31767 -0.213074 6.31448 0.0236745 0.0768164
-90.8523 -2.39472 -0.226852 6.30661 0.0249125 0.0896061
-91.1467 -2.47174 -0.241166 6.29773 0.025904 0.103657
-91.337 -2.54958 -0.256417 6.28737 0.0270169 0.119002
-91.4068 -2.6271 -0.272237 6.27493 0.0281032 0.135737
-91.3393 -2.70389 -0.288571 6.26037 0.0289981 0.153853
-91.1137 -2.78004 -0.305579 6.24312 0.029945 0.173545
-90.7017 -2.85503 -0.323154 6.22227 0.0309019 0.195164
-93.101 -2.6631 -0.252333 6.2374 0.0273987 0.110164
-93.3187 -2.75109 -0.268155 6.2232 0.0285848 0.126884
-93.4048 -2.83944 -0.284707 6.2067 0.0295386 0.144999
53.1734 -7.82315 -0.271023 2.0612 0.235772 -0.459846
53.5517 -7.78288 -0.283595 2.02258 0.250264 -0.496819
51.99 -7.90238 -0.270214 2.10955 0.218571 -0.47273
52.296 -7.86952 -0.28328 2.07066 0.233109 -0.511139
52.6152 -7.82635 -0.2965 2.02736 0.248572 -0.55064
52.952 -7.77188 -0.309896 1.97929 0.265451 -0.590783
53.3045 -7.70446 -0.323351 1.92661 0.283719 -0.631643
53.6711 -7.62234 -0.336779 1.86943 0.303432 -0.673034
54.0506 -7.52353 -0.350013 1.80795 0.324733 -0.71466
54.4432 -7.40584 -0.36291 1.74249 0.347912 -0.75599
54.8504 -7.26677 -0.375224 1.67372 0.373257 -0.796336
50.9821 -7.95776 -0.282841 2.11735 0.214974 -0.525154
51.2276 -7.92268 -0.296581 2.07363 0.230579 -0.566122
51.4876 -7.87646 -0.310509 2.02503 0.247505 -0.608164
51.7624 -7.81762 -0.324573 1.97156 0.265849 -0.651076
52.0506 -7.74433 -0.338657 1.91329 0.285675 -0.6946
52.35 -7.65454 -0.352612 1.85042 0.307132 -0.738387
52.6598 -7.54593 -0.366319 1.78333 0.330582 -0.781948
49.6183 -8.04742 -0.282076 2.16289 0.196036 -0.538875
49.7837 -8.02058 -0.296304 2.11887 0.211597 -0.581431
49.9633 -7.98291 -0.31074 2.06984 0.228532 -0.625224
50.1569 -7.93294 -0.325359 2.0157 0.246929 -0.670073
50.3629 -7.86883 -0.340055 1.95646 0.266873 -0.715733
50.5796 -7.78842 -0.354677 1.89228 0.288546 -0.761823
50.8045 -7.68925 -0.369076 1.82345 0.312186 -0.807929
48.2008 -8.13837 -0.281022 2.20697 0.176109 -0.55221
48.2823 -8.11994 -0.295668 2.16279 0.191597 -0.596378
48.3779 -8.09106 -0.310557 2.11347 0.208518 -0.641966
48.4869 -8.05028 -0.32568 2.0588 0.226949 -0.688814
48.6074 -7.9957 -0.340937 1.99872 0.246989 -0.736699
48.7367 -7.92507 -0.356197 1.93335 0.26886 -0.785289
46.7294 -8.23044 -0.279654 2.24947 0.155154 -0.565097
46.723 -8.22059 -0.294642 2.20528 0.17053 -0.610897
46.7306 -8.20075 -0.309926 2.15581 0.187402 -0.658317
46.7511 -8.16944 -0.325497 2.10076 0.205839 -0.707224
46.7823 -8.12475 -0.341258 2.03998 0.225945 -0.757416
46.8213 -8.06429 -0.35705 1.97352 0.247955 -0.808588
45.2037 -8.32347 -0.277949 2.29026 0.133133 -0.577463
45.1053 -8.32235 -0.293199 2.2462 0.148348 -0.624909
45.0205 -8.31178 -0.308816 2.19674 0.165124 -0.674193
44.9484 -8.29024 -0.324768 2.14147 0.183525 -0.72521
44.887 -8.25566 -0.340892 2.08025 0.203721 -0.777703
44.8316 -8.20605 -0.357254 2.01282 0.225714 -0.831568
43.6242 -8.41727 -0.27588 2.32919 0.110018 -0.589223
43.429 -8.42503 -0.291313 2.28541 0.125006 -0.638323
43.2473 -8.42395 -0.307192 2.23612 0.141624 -0.689493
43.0779 -8.41246 -0.323457 2.18081 0.159936 -0.742662
42.9181 -8.38839 -0.33993 2.11918 0.180161 -0.797716
42.3062 -8.48773 -0.258192 2.40389 0.0725926 -0.551665
41.9945 -8.5115 -0.273269 2.36602 0.085775 -0.60021
41.6944 -8.52843 -0.288957 2.32276 0.100467 -0.651024
41.4106 -8.53705 -0.305026 2.27381 0.116849 -0.704092
41.139 -8.53586 -0.321526 2.21864 0.135004 -0.759445
40.8765 -8.52275 -0.338288 2.15685 0.155135 -0.817016
40.7246 -8.57394 -0.255362 2.43804 0.0477652 -0.560479
40.3066 -8.60627 -0.270441 2.40068 0.0604143 -0.610451
39.9021 -8.63234 -0.286107 2.35808 0.0747113 -0.662872
39.5109 -8.65083 -0.302286 2.30964 0.090756 -0.717838
39.1324 -8.66001 -0.318818 2.25492 0.108733 -0.775302
38.7615 -8.65847 -0.335913 2.19315 0.128611 -0.835426
40.7524 -8.51164 -0.210145 2.55245 -0.0053118 -0.428529
40.1925 -8.56439 -0.223433 2.52887 0.00231137 -0.472811
39.642 -8.61408 -0.237397 2.50135 0.011415 -0.519381
39.1012 -8.66002 -0.251977 2.46962 0.0219337 -0.568271
38.5709 -8.7011 -0.267071 2.43308 0.0339802 -0.619651
38.0536 -8.73652 -0.282735 2.39122 0.0477378 -0.673682
37.5491 -8.76505 -0.298942 2.34345 0.0633226 -0.730528
37.0552 -8.78496 -0.315532 2.28913 0.0809798 -0.790287
39.4217 -8.57463 -0.206924 2.57928 -0.0297987 -0.432428
38.7513 -8.63447 -0.219788 2.55643 -0.0228239 -0.477547
38.0903 -8.69156 -0.233114 2.52984 -0.0142156 -0.524742
37.4349 -8.74585 -0.247872 2.4988 -0.00456581 -0.574738
36.7873 -8.79588 -0.263233 2.46302 0.00651328 -0.627617
36.1512 -8.84074 -0.278812 2.422 0.0195813 -0.683207
35.5267 -8.87927 -0.29469 2.37509 0.0347488 -0.741933
34.9122 -8.91036 -0.31134 2.32147 0.0518376 -0.803868
38.0733 -8.63695 -0.203174 2.6037 -0.05461 -0.434809
37.2869 -8.70399 -0.215887 2.58155 -0.0484319 -0.480726
36.5057 -8.76886 -0.229102 2.55565 -0.0407374 -0.528842
35.7334 -8.83111 -0.243455 2.52567 -0.0320479 -0.580012
34.9625 -8.8903 -0.258794 2.49078 -0.0217752 -0.634314
34.1951 -8.9449 -0.274456 2.45064 -0.00956346 -0.691414
33.4428 -8.99376 -0.2902 2.40453 0.00472901 -0.751884
32.7032 -9.03595 -0.306663 2.35173 0.0210617 -0.815748
0 0 0 0 0 0
0 0 0 0 0 0
0 0 0 0 0 0
0 0 0 0 0 0
0 0 0 0 0 0
0 0 0 0 0 0
0 0 0 0 0 0
0 0 0 0 0 0
0 0 0 0 0 0
0 0 0 0 0 0
0 0 0 0 0 0
0 0 0 0 0 0
0 0 0 0 0 0
0 0 0 0 0 0
0 0 0 0 0 0
0 0 0 0 0 0
0 0 0 0 0 0
0 0 0 0 0 0
0 0 0 0 0 0
0 0 0 0 0 0
0 0 0 0 0 0
0 0 0 0 0 0
0 0 0 0 0 0
0 0 0 0 0 0
0 0 0 0 0 0
0 0 0 0 0 0
0 0 0 0 0 0
0 0 0 0 0 0
0 0 0 0 0 0
0 0 0 0 0 0
0 0 0 0 0 0
0 0 0 0 0 0
0 0 0 0 0 0
0 0 0 0 0 0
0 0 0 0 0 0
0 0 0 0 0 0
0 0 0 0 0 0
0 0 0 0 0 0
0 0 0 0 0 0
0 0 0 0 0 0
0 0 0 0 0 0
0 0 0 0 0 0
0 0 0 0 0 0
0 0 0 0 0 0
0 0 0 0 0 0
0 0 0 0 0 0
0 0 0 0 0 0
0 0 0 0 0 0
0 0 0 0 0 0
0 0 0 0 0 0
0 0 0 0 0 0
0 0 0 0 0 0
0 0 0 0 0 0
0 0 0 0 0 0
0 0 0 0 0 0
0 0 0 0 0 0
0 0 0 0 0 0
0 0 0 0 0 0
0 0 0 0 0 0
0 0 0 0 0 0
0 0 0 0 0 0
0 0 0 0 0 0
0 0 0 0 0 0
0 0 0 0 0 0
0 0 0 0 0 0
0 0 0 0 0 0
0 0 0 0 0 0
0 0 0 0 0 0
0 0 0 0 0 0
0 0 0 0 0 0
0 0 0 0 0 0
0 0 0 0 0 0
0 0 0 0 0 0
0 0 0 0 0 0
0 0 0 0 0 0
0 0 0 0 0 0
0 0 0 0 0 0
0 0 0 0 0 0
0 0 0 0 0 0
0 0 0 0 0 0
0 0 0 0 0 0
0 0 0 0 0 0
0 0 0 0 0 0
0 0 0 0 0 0
-63.9224 -2.65386 -0.270982 6.4078 0.212682 0.775085
-63.1113 -2.65634 -0.283206 6.40178 0.223811 0.837954
-65.3531 -2.69811 -0.270098 6.40577 0.246092 0.767576
-64.6013 -2.70693 -0.282828 6.40046 0.258879 0.831757
-63.737 -2.7122 -0.295662 6.39095 0.270307 0.899196
-62.75 -2.7135 -0.308651 6.37701 0.27954 0.970086
-61.6349 -2.7097 -0.321655 6.35789 0.286469 1.04464
-60.3848 -2.69977 -0.334576 6.3328 0.290647 1.12293
-58.9929 -2.6824 -0.347256 6.30093 0.291515 1.20498
-57.4527 -2.6561 -0.359539 6.26148 0.288362 1.29071
-55.7597 -2.61897 -0.371177 6.21359 0.280504 1.37982
-66.1082 -2.7601 -0.282261 6.3979 0.294756 0.824191
-65.3052 -2.77226 -0.295627 6.38935 0.307843 0.893086
-64.3802 -2.78065 -0.309147 6.37627 0.319083 0.965728
-63.3261 -2.78436 -0.322761 6.35802 0.328042 1.04226
-62.1353 -2.78227 -0.336346 6.33383 0.334195 1.12273
-60.801 -2.77309 -0.349752 6.30278 0.336905 1.20717
-59.3171 -2.75525 -0.362851 6.26397 0.335398 1.29561
-67.6327 -2.81542 -0.281385 6.39438 0.331345 0.815376
-66.8955 -2.8346 -0.295235 6.38663 0.346376 0.885634
-66.0363 -2.8503 -0.309264 6.37442 0.359598 0.959881
-65.0471 -2.86168 -0.323437 6.35711 0.370571 1.03827
-63.9197 -2.86767 -0.337641 6.33386 0.378757 1.12092
-62.6461 -2.86691 -0.351716 6.30375 0.383433 1.20789
-61.2191 -2.85783 -0.365505 6.26569 0.38394 1.29923
-69.1717 -2.87304 -0.280205 6.38966 0.368636 0.805109
-68.504 -2.89934 -0.29447 6.3827 0.385719 0.876701
-67.7147 -2.92248 -0.308954 6.37139 0.401057 0.952538
-66.7948 -2.94172 -0.323636 6.35506 0.414202 1.0328
-65.7351 -2.956 -0.338408 6.33282 0.424599 1.11765
-64.5276 -2.96395 -0.353142 6.30366 0.431496 1.20727
-70.7233 -2.93291 -0.278695 6.38367 0.406581 0.793295
-70.129 -2.96641 -0.293301 6.37746 0.425836 0.866177
-69.4139 -2.99715 -0.308181 6.36705 0.443431 0.943572
-68.5678 -3.0244 -0.323314 6.35173 0.458916 1.02569
-67.5807 -3.04718 -0.338599 6.33059 0.471719 1.11275
-66.4427 -3.06407 -0.353876 6.30249 0.481055 1.20501
-72.2855 -2.99499 -0.276829 6.3763 0.445114 0.779831
-71.7685 -3.03579 -0.291696 6.37081 0.466667 0.853942
-71.1321 -3.07424 -0.306909 6.3613 0.486673 0.932845
-70.3646 -3.10968 -0.322428 6.34702 0.504677 1.01679
-69.4552 -3.14098 -0.338091 6.327 0.519981 1.10605
-68.3931 -3.16723 -0.353938 6.30017 0.532069 1.20088
-73.8558 -3.05923 -0.274577 6.36747 0.484144 0.764609
-73.4202 -3.1074 -0.289623 6.36264 0.50813 0.839867
-72.8672 -3.15369 -0.305097 6.354 0.530708 0.920207
-72.1835 -3.19747 -0.320932 6.34077 0.551423 1.00593
-71.3563 -3.23767 -0.33696 6.32189 0.569591 1.09747
-75.6698 -3.06893 -0.257048 6.3585 0.496162 0.675993
-75.4286 -3.12539 -0.271761 6.35718 0.523524 0.74745
-75.0817 -3.18117 -0.287046 6.35285 0.550105 0.823811
-74.6169 -3.23542 -0.302707 6.34505 0.575426 0.905491
-74.0221 -3.28768 -0.318777 6.33287 0.599053 0.992902
-73.2835 -3.33697 -0.335101 6.31522 0.62031 1.08655
-77.1617 -3.13018 -0.253956 6.3461 0.533261 0.656253
-77.0067 -3.19383 -0.268656 6.34507 0.563173 0.728349
-76.7501 -3.25704 -0.283927 6.34136 0.592425 0.805619
-76.3785 -3.31936 -0.299692 6.33432 0.620664 0.888511
-75.8784 -3.38003 -0.315815 6.32312 0.647325 0.977489
-75.2358 -3.43878 -0.332454 6.30684 0.671978 1.07309
-78.3443 -2.98281 -0.20948 6.32392 0.471985 0.444695
-78.5161 -3.05222 -0.222443 6.32806 0.504785 0.503587
-78.6188 -3.12239 -0.23605 6.33093 0.53751 0.56679
-78.6458 -3.19309 -0.250257 6.3322 0.5702 0.634488
-78.584 -3.26399 -0.26496 6.33135 0.602741 0.707101
-78.4225 -3.33489 -0.280217 6.32806 0.634854 0.785118
-78.1489 -3.40538 -0.295998 6.32171 0.666192 0.869057
-77.7476 -3.4749 -0.312167 6.3114 0.696237 0.959545
-79.5614 -3.02759 -0.205716 6.30915 0.501619 0.420836
-79.8171 -3.1033 -0.218548 6.31289 0.536516 0.479658
-80.0084 -3.18003 -0.232038 6.31551 0.571476 0.542829
-80.1251 -3.25765 -0.24609 6.31663 0.606667 0.61063
-80.158 -3.33593 -0.260695 6.3159 0.641941 0.683552
-80.0957 -3.41461 -0.275849 6.31291 0.677059 0.762111
-79.9249 -3.49338 -0.291552 6.30712 0.711676 0.846885
-79.6295 -3.57185 -0.307718 6.29772 0.745307 0.938565
-80.7636 -3.07345 -0.201577 6.29326 0.530196 0.395334
-81.1052 -3.15551 -0.214229 6.29641 0.567102 0.453891
-81.3862 -3.23884 -0.227474 6.29862 0.604366 0.516791
-81.5969 -3.32307 -0.24112 6.29955 0.642296 0.584554
-81.7293 -3.40913 -0.255697 6.29879 0.680514 0.657768
-81.7722 -3.49603 -0.270862 6.29574 0.718749 0.736658
-81.7091 -3.58328 -0.286432 6.29033 0.756687 0.821916
-81.5235 -3.67073 -0.302407 6.2818 0.794001 0.914382
-22.7596 -4.7964 -0.265811 -6.34411 0.921185 -0.238326
-23.0335 -4.75858 -0.277746 -6.33849 0.993412 -0.253413
-22.9388 -4.88844 -0.264984 -6.34752 0.912514 -0.276849
-23.2807 -4.85572 -0.277423 -6.34275 0.986339 -0.293864
-23.6038 -4.81605 -0.289957 -6.33414 1.06378 -0.309472
-23.9046 -4.76883 -0.302654 -6.32149 1.145 -0.322763
-24.1693 -4.71344 -0.315358 -6.30413 1.23013 -0.333512
-24.3853 -4.64927 -0.327981 -6.28141 1.31916 -0.341176
-24.5368 -4.57561 -0.340367 -6.25261 1.41207 -0.345064
-24.6053 -4.49172 -0.352359 -6.21709 1.50871 -0.344256
-24.5668 -4.3968 -0.363694 -6.17415 1.60871 -0.337801
-23.5532 -4.95459 -0.276909 -6.34606 0.977623 -0.335195
-23.9512 -4.92027 -0.289975 -6.33853 1.05684 -0.352764
-24.3296 -4.87848 -0.303198 -6.32683 1.14017 -0.3684
-24.6774 -4.82861 -0.316508 -6.31042 1.22766 -0.381564
-24.9814 -4.76998 -0.329786 -6.28862 1.31929 -0.391627
-25.2258 -4.70188 -0.34288 -6.26064 1.41502 -0.397816
-25.3907 -4.6236 -0.355673 -6.22572 1.51484 -0.399127
-23.8455 -5.05509 -0.276087 -6.34867 0.967368 -0.377283
-24.319 -5.02638 -0.289635 -6.34209 1.04826 -0.397117
-24.7769 -4.99028 -0.303361 -6.33139 1.13354 -0.415098
-25.2095 -4.94617 -0.317226 -6.316 1.2233 -0.430685
-25.604 -4.89334 -0.331115 -6.29518 1.31755 -0.443235
-25.9441 -4.83099 -0.344869 -6.26815 1.41631 -0.451878
-26.2103 -4.75836 -0.358337 -6.23394 1.51952 -0.45572
-24.16 -5.1571 -0.274964 -6.35036 0.955352 -0.420145
-24.7098 -5.1342 -0.288926 -6.34474 1.0379 -0.44236
-25.2483 -5.10404 -0.303103 -6.33507 1.12513 -0.462827
-25.7671 -5.06596 -0.317471 -6.32076 1.21716 -0.48101
-26.2541 -5.0192 -0.331924 -6.30102 1.31408 -0.496249
-26.6926 -4.96301 -0.346336 -6.27496 1.41601 -0.507636
-24.4967 -5.2605 -0.273515 -6.35104 0.94146 -0.46373
-25.1231 -5.24364 -0.287816 -6.34637 1.02561 -0.488451
-25.7432 -5.21966 -0.302386 -6.33777 1.11476 -0.511556
-26.3496 -5.18788 -0.3172 -6.32461 1.20907 -0.532517
-26.9309 -5.14749 -0.33216 -6.30604 1.30869 -0.55066
-27.4707 -5.09762 -0.347111 -6.28107 1.41378 -0.565047
-24.8552 -5.36518 -0.271709 -6.35062 0.925567 -0.507965
-25.5587 -5.35455 -0.286271 -6.3469 1.01125 -0.535324
-26.2611 -5.33703 -0.301169 -6.33938 1.10227 -0.561229
-26.9564 -5.31182 -0.316365 -6.32741 1.19884 -0.585161
-27.6317 -5.27804 -0.331698 -6.31008 1.30115 -0.60633
-28.2768 -5.23496 -0.347204 -6.28642 1.40938 -0.624066
-25.2355 -5.47097 -0.269515 -6.34901 0.907546 -0.552754
-26.0162 -5.46681 -0.284255 -6.3462 0.994668 -0.582889
-26.8017 -5.45601 -0.29941 -6.33978 1.08748 -0.611764
-27.5867 -5.43768 -0.314916 -6.32904 1.18626 -0.63887
-28.3602 -5.41087 -0.330617 -6.31298 1.29136 -0.663449
-24.796 -5.56897 -0.25235 -6.34532 0.804313 -0.564263
-25.6365 -5.57746 -0.266758 -6.34619 0.887208 -0.597933
-26.4952 -5.58026 -0.281727 -6.34417 0.975698 -0.631018
-27.3643 -5.57645 -0.297063 -6.33885 1.07019 -0.66304
-28.2398 -5.5653 -0.312799 -6.32936 1.17109 -0.693532
-29.1125 -5.54581 -0.328788 -6.31471 1.27881 -0.721757
-25.1464 -5.66988 -0.249294 -6.34029 0.780817 -0.606875
-26.0607 -5.685 -0.263688 -6.34179 0.864525 -0.643413
-26.9954 -5.69472 -0.27864 -6.34072 0.95416 -0.679534
-27.9484 -5.69818 -0.294074 -6.33646 1.05019 -0.714884
-28.9132 -5.69445 -0.309862 -6.32821 1.15306 -0.748889
-29.8877 -5.6828 -0.326146 -6.3151 1.26327 -0.781075
-22.7217 -5.67959 -0.205683 -6.31728 0.534224 -0.531717
-23.6252 -5.71352 -0.218388 -6.32417 0.602756 -0.570724
-24.5574 -5.74407 -0.231712 -6.32983 0.676247 -0.609937
-25.517 -5.77084 -0.245616 -6.33395 0.754924 -0.649348
-26.5035 -5.79302 -0.260002 -6.33602 0.839279 -0.688844
-27.5164 -5.80999 -0.274933 -6.33573 0.929864 -0.728187
-28.5536 -5.82099 -0.290373 -6.33248 1.02723 -0.767052
-29.6117 -5.82503 -0.306203 -6.32542 1.132 -0.804922
-22.9165 -5.76126 -0.20191 -6.30893 0.505807 -0.566053
-23.8815 -5.80144 -0.214471 -6.31586 0.574271 -0.607399
-24.8775 -5.83858 -0.227671 -6.32171 0.647744 -0.649123
-25.9059 -5.87209 -0.241419 -6.32611 0.726573 -0.691348
-26.9663 -5.90141 -0.255704 -6.32871 0.811325 -0.733922
-28.0576 -5.92587 -0.270522 -6.32911 0.902604 -0.776636
-29.1791 -5.94468 -0.285873 -6.3268 1.00105 -0.8192
-30.3304 -5.9569 -0.301686 -6.32098 1.10737 -0.861151
-23.1257 -5.84249 -0.197689 -6.2995 0.475543 -0.599283
-24.1522 -5.88906 -0.210067 -6.3063 0.543697 -0.642905
-25.2127 -5.93286 -0.223032 -6.31219 0.61687 -0.687217
-26.3056 -5.9732 -0.236371 -6.31686 0.695677 -0.732491
-27.4427 -6.01002 -0.250592 -6.31989 0.780773 -0.778339
-28.6157 -6.04245 -0.265392 -6.32069 0.872477 -0.824554
-29.8231 -6.06941 -0.280594 -6.31918 0.971597 -0.870891
-31.0672 -6.08996 -0.2962 -6.31461 1.079 -0.917034
43.9027 -8.14953 -0.267748 1.20375 0.477294 -0.895481
43.9672 -8.139 -0.27982 1.16972 0.515794 -0.964384
43.3674 -8.21311 -0.266875 1.24167 0.440566 -0.922433
43.3923 -8.20816 -0.279446 1.20696 0.47867 -0.994181
43.419 -8.1965 -0.292115 1.16995 0.520398 -1.06761
43.4503 -8.17762 -0.304948 1.13054 0.566557 -1.1422
43.486 -8.15036 -0.31778 1.08914 0.617481 -1.21788
43.526 -8.11364 -0.330519 1.04608 0.673625 -1.29424
43.5712 -8.06624 -0.343001 1.00182 0.735546 -1.37071
43.6248 -8.00684 -0.355048 0.956886 0.803941 -1.44645
43.6909 -7.93395 -0.36638 0.912059 0.879396 -1.52042
42.7889 -8.27846 -0.278861 1.24436 0.439707 -1.02356
42.7749 -8.27286 -0.292058 1.20649 0.481122 -1.10002
42.762 -8.26007 -0.305415 1.16614 0.526903 -1.17816
42.751 -8.23911 -0.318853 1.12358 0.577559 -1.25764
42.7417 -8.20881 -0.332245 1.07914 0.633584 -1.338
42.7343 -8.16789 -0.34543 1.03329 0.695591 -1.4186
42.7302 -8.115 -0.358286 0.986658 0.76445 -1.49863
42.1626 -8.3498 -0.277945 1.28216 0.399083 -1.05249
42.1047 -8.35036 -0.291617 1.24352 0.439887 -1.13214
42.0464 -8.3439 -0.305474 1.20227 0.485175 -1.21375
41.9875 -8.32946 -0.319466 1.15859 0.535464 -1.297
41.9276 -8.30585 -0.333471 1.11279 0.591306 -1.38145
41.867 -8.27169 -0.347315 1.06533 0.653413 -1.46644
41.8049 -8.22548 -0.360842 1.01679 0.72256 -1.55122
41.5105 -8.42206 -0.276707 1.32022 0.356612 -1.08084
41.4074 -8.42891 -0.290787 1.2809 0.396698 -1.16375
41.3024 -8.42898 -0.305091 1.23881 0.441379 -1.24894
41.1946 -8.42131 -0.319584 1.19408 0.491185 -1.33612
41.0829 -8.40465 -0.334153 1.14697 0.546717 -1.42486
40.9661 -8.3776 -0.348667 1.09795 0.6088 -1.51457
40.832 -8.4951 -0.27512 1.35852 0.312247 -1.10847
40.6824 -8.50838 -0.289533 1.31861 0.351492 -1.19473
40.5293 -8.51517 -0.304224 1.27578 0.395434 -1.2836
40.3715 -8.51448 -0.319161 1.23006 0.444618 -1.37485
40.2071 -8.50505 -0.334237 1.18169 0.499691 -1.46808
40.034 -8.48535 -0.349296 1.1311 0.561548 -1.56273
40.1267 -8.56876 -0.273155 1.39702 0.265952 -1.13524
39.9291 -8.58859 -0.287818 1.35663 0.304214 -1.2249
39.7266 -8.60229 -0.30283 1.31316 0.347262 -1.31757
39.5175 -8.60883 -0.318144 1.26656 0.395662 -1.41303
39.3 -8.6068 -0.333598 1.21708 0.450173 -1.51086
39.0696 -8.59494 -0.349207 1.16491 0.511508 -1.61071
39.3941 -8.64289 -0.270777 1.4357 0.217711 -1.16098
39.147 -8.66938 -0.285604 1.39495 0.254821 -1.2541
38.8936 -8.69017 -0.300863 1.35095 0.296795 -1.35064
38.6317 -8.70416 -0.316481 1.30357 0.344224 -1.45044
38.3581 -8.70989 -0.332308 1.25297 0.397962 -1.55325
38.9309 -8.67939 -0.253329 1.51183 0.136021 -1.09258
38.6367 -8.71714 -0.267807 1.47443 0.167516 -1.18542
38.3356 -8.75056 -0.282846 1.43353 0.203292 -1.28209
38.0295 -8.77861 -0.298273 1.38913 0.243984 -1.38259
37.7133 -8.80026 -0.314111 1.34111 0.290226 -1.48685
37.3832 -8.81406 -0.330221 1.28953 0.342892 -1.59471
38.1934 -8.7474 -0.25004 1.55074 0.0855573 -1.11252
37.8469 -8.79161 -0.264478 1.51328 0.115407 -1.20845
37.4943 -8.83193 -0.27949 1.47235 0.149629 -1.30862
37.1336 -8.86739 -0.294997 1.42769 0.188802 -1.41312
36.7618 -8.8968 -0.310887 1.37924 0.233667 -1.52188
36.3735 -8.91914 -0.32727 1.3268 0.284935 -1.63494
38.6054 -8.64757 -0.206118 1.68161 -0.0289977 -0.859318
38.2183 -8.7052 -0.218835 1.65393 -0.011453 -0.945731
37.828 -8.76117 -0.232171 1.62324 0.00930013 -1.03612
37.4328 -8.81502 -0.246092 1.58945 0.033467 -1.13068
37.031 -8.86588 -0.2605 1.55223 0.0614803 -1.22968
36.6227 -8.91328 -0.275466 1.51135 0.0938764 -1.33336
36.2052 -8.95629 -0.290957 1.46659 0.131257 -1.44188
35.7744 -8.99375 -0.306869 1.4177 0.174432 -1.55536
37.9809 -8.6972 -0.2021 1.71916 -0.0766419 -0.868568
37.5408 -8.76036 -0.214642 1.6919 -0.0609468 -0.956994
37.0962 -8.82222 -0.227833 1.66167 -0.0421519 -1.0496
36.6452 -8.88223 -0.241574 1.62817 -0.0200562 -1.14676
36.187 -8.93984 -0.255856 1.5912 0.00585202 -1.24878
35.7204 -8.99438 -0.27068 1.5505 0.0361338 -1.35592
35.2436 -9.04505 -0.286052 1.5058 0.07141 -1.46846
34.7521 -9.09082 -0.301917 1.45671 0.112489 -1.5866
37.3397 -8.74614 -0.197559 1.75646 -0.124794 -0.875687
36.8432 -8.81481 -0.209904 1.7297 -0.111095 -0.965932
36.3415 -8.88254 -0.222854 1.69998 -0.0945174 -1.06064
35.8354 -8.94863 -0.23618 1.66708 -0.0747826 -1.16045
35.3168 -9.01318 -0.25034 1.6304 -0.051148 -1.2656
34.7846 -9.07507 -0.265097 1.59 -0.0232752 -1.37616
34.2446 -9.13355 -0.280279 1.54548 0.00953505 -1.49253
33.692 -9.1877 -0.295895 1.49634 0.0481093 -1.61515
-132.391 0.0189804 -0.268014 -0.993574 0.949474 0.488679
-132.272 0.0159214 -0.279889 -0.960754 1.0225 0.532135
-133.163 -0.0216379 -0.266984 -1.02905 0.979238 0.44786
-133.108 -0.028293 -0.27936 -0.995486 1.05529 0.490806
-132.967 -0.0332719 -0.291804 -0.960117 1.13314 0.538027
-132.735 -0.0363504 -0.304403 -0.922948 1.21231 0.590397
-132.396 -0.0371314 -0.316973 -0.884423 1.29279 0.648312
-131.939 -0.035297 -0.329411 -0.844926 1.37422 0.7123
-131.35 -0.0303964 -0.34155 -0.804965 1.45606 0.782977
-130.615 -0.0218282 -0.353213 -0.765112 1.53748 0.861026
-129.718 -0.0088122 -0.364094 -0.726165 1.61753 0.946938
-133.955 -0.0740718 -0.278604 -1.03074 1.08774 0.447477
-133.883 -0.0828666 -0.291583 -0.994428 1.16881 0.494269
-133.718 -0.0899665 -0.30471 -0.956231 1.25172 0.546172
-133.449 -0.0950277 -0.317887 -0.91647 1.33619 0.603771
-133.062 -0.0976974 -0.330983 -0.875537 1.42181 0.66765
-132.541 -0.0975617 -0.343828 -0.833949 1.50798 0.738494
-131.872 -0.0941302 -0.356304 -0.792392 1.59391 0.817169
-134.812 -0.121036 -0.277513 -1.06681 1.11986 0.402312
-134.81 -0.133797 -0.290971 -1.02963 1.20431 0.448355
-134.716 -0.145027 -0.304601 -0.990415 1.29088 0.499658
-134.52 -0.154449 -0.318338 -0.949441 1.37931 0.556826
-134.206 -0.161739 -0.332054 -0.907069 1.46921 0.620511
-133.758 -0.166436 -0.345569 -0.86381 1.55994 0.691511
-133.159 -0.16813 -0.358712 -0.820325 1.65086 0.770625
-135.677 -0.16933 -0.276094 -1.10356 1.15147 0.355147
-135.747 -0.186118 -0.289965 -1.06558 1.2394 0.400308
-135.728 -0.201557 -0.304047 -1.02542 1.32976 0.450866
-135.608 -0.21542 -0.318293 -0.983279 1.42231 0.507455
-135.37 -0.227417 -0.332581 -0.939494 1.51668 0.570788
-134.999 -0.237204 -0.34678 -0.89462 1.61234 0.641798
-136.549 -0.218941 -0.274323 -1.141 1.18244 0.305941
-136.693 -0.239813 -0.288529 -1.10231 1.27394 0.350067
-136.751 -0.259538 -0.303003 -1.06128 1.36821 0.399715
-136.71 -0.277922 -0.317701 -1.01803 1.46504 0.455549
-136.553 -0.294711 -0.332508 -0.972875 1.56411 0.518348
-136.263 -0.309564 -0.347264 -0.92632 1.66492 0.589134
-137.426 -0.26985 -0.272166 -1.17913 1.21263 0.254667
-137.646 -0.294863 -0.286626 -1.13984 1.30777 0.297581
-137.783 -0.31895 -0.301426 -1.09802 1.40607 0.346128
-137.825 -0.341934 -0.31651 -1.05374 1.50734 0.401006
-137.752 -0.363496 -0.331711 -1.00733 1.61123 0.463125
-137.549 -0.383579 -0.347026 -0.959088 1.71746 0.533353
-138.304 -0.322034 -0.269585 -1.21795 1.24185 0.201314
-138.601 -0.351248 -0.284212 -1.17816 1.34071 0.242817
-138.821 -0.379776 -0.299264 -1.13566 1.44314 0.290044
-138.949 -0.407437 -0.314661 -1.09046 1.54901 0.343732
-138.965 -0.434016 -0.330251 -1.04278 1.65811 0.404911
-138.741 -0.341242 -0.252122 -1.29444 1.17108 0.110987
-139.18 -0.375234 -0.266409 -1.25736 1.26982 0.145879
-139.558 -0.408946 -0.281238 -1.21727 1.37253 0.185761
-139.864 -0.441994 -0.296462 -1.17423 1.4792 0.231419
-140.081 -0.474412 -0.312088 -1.12821 1.58981 0.283652
-140.19 -0.506033 -0.327976 -1.07938 1.70422 0.343532
-139.538 -0.39181 -0.24859 -1.33471 1.19429 0.055483
-140.053 -0.429964 -0.262829 -1.29747 1.29644 0.0884231
-140.514 -0.46793 -0.277645 -1.25719 1.40295 0.126432
-140.906 -0.50558 -0.292951 -1.21372 1.51393 0.17024
-141.215 -0.542777 -0.308647 -1.16708 1.62935 0.220767
-141.424 -0.579605 -0.324814 -1.11722 1.74927 0.278959
-138.331 -0.316193 -0.204998 -1.46917 0.925796 -0.0694767
-139.023 -0.358381 -0.217519 -1.44067 1.01827 -0.0505981
-139.69 -0.400721 -0.230659 -1.40943 1.11484 -0.0280902
-140.326 -0.443212 -0.244383 -1.37538 1.21575 -0.0017094
-140.92 -0.485714 -0.258588 -1.33825 1.32129 0.0290668
-141.464 -0.528168 -0.273354 -1.29789 1.43166 0.0648937
-141.946 -0.570509 -0.288645 -1.25416 1.54701 0.106534
-142.35 -0.612685 -0.304367 -1.20691 1.66749 0.154983
-138.903 -0.356618 -0.200718 -1.50949 0.937482 -0.121366
-139.659 -0.402657 -0.21305 -1.48137 1.03224 -0.10462
-140.396 -0.44904 -0.226037 -1.45051 1.13132 -0.0843699
-141.105 -0.495702 -0.239571 -1.41666 1.23515 -0.0603763
-141.778 -0.542588 -0.253646 -1.37966 1.34405 -0.0320536
-142.407 -0.589627 -0.268265 -1.33935 1.45826 0.00127049
-142.981 -0.636757 -0.283433 -1.29552 1.57802 0.0403856
-143.484 -0.684003 -0.29911 -1.2479 1.70355 0.086298
-139.462 -0.39758 -0.19587 -1.55009 0.947038 -0.173736
-140.283 -0.447656 -0.207996 -1.52244 1.04389 -0.159268
-141.088 -0.498191 -0.220744 -1.49203 1.14539 -0.141553
-141.87 -0.548893 -0.233882 -1.45868 1.25221 -0.120277
-142.625 -0.600381 -0.247807 -1.4219 1.36461 -0.0946187
-143.34 -0.652426 -0.262319 -1.38176 1.48266 -0.0641166
-144.006 -0.704532 -0.277285 -1.33798 1.60667 -0.0279147
-144.61 -0.756783 -0.292717 -1.29014 1.73711 0.0150012
-57.76 -3.71086 -0.269854 6.15885 0.326886 1.11434
-57.3464 -3.73913 -0.281746 6.15495 0.344959 1.20442
-58.7105 -3.73148 -0.268964 6.17853 0.379849 1.10466
-58.3262 -3.76411 -0.281367 6.17593 0.400519 1.19664
-57.8887 -3.79455 -0.293827 6.17061 0.419009 1.29334
-57.3966 -3.82252 -0.306425 6.16249 0.43431 1.39504
-56.8502 -3.84706 -0.318966 6.15117 0.4461 1.50199
-56.2499 -3.86735 -0.331342 6.13632 0.453701 1.61429
-55.5972 -3.88239 -0.343388 6.1176 0.45626 1.73197
-54.8932 -3.89106 -0.354928 6.09482 0.452718 1.85491
-54.1405 -3.8919 -0.36566 6.06774 0.442127 1.98267
-59.3311 -3.7895 -0.280744 6.19681 0.457365 1.187
-58.9234 -3.8247 -0.293744 6.19292 0.478533 1.28581
-58.4608 -3.8576 -0.306878 6.18606 0.496889 1.39
-57.9431 -3.88741 -0.320037 6.17592 0.511784 1.49976
-57.3705 -3.91325 -0.33308 6.1621 0.522441 1.61518
-56.7446 -3.9341 -0.345838 6.14423 0.527907 1.7363
-56.0686 -3.94881 -0.358196 6.12202 0.527024 1.86317
-60.3635 -3.81486 -0.279771 6.21774 0.515394 1.17559
-59.9875 -3.85489 -0.293257 6.21527 0.539604 1.27641
-59.5561 -3.89285 -0.306905 6.20979 0.561074 1.38293
-59.0687 -3.92804 -0.320633 6.20093 0.579137 1.49539
-58.5254 -3.95959 -0.334307 6.18827 0.592985 1.61395
-57.9272 -3.98643 -0.347746 6.17142 0.601552 1.73871
-57.2767 -4.00734 -0.360772 6.14985 0.603805 1.86973
-61.4221 -3.84027 -0.278457 6.23854 0.574587 1.16218
-61.0798 -3.88516 -0.292364 6.23757 0.602015 1.26497
-60.6817 -3.92826 -0.306474 6.23356 0.62681 1.37381
-60.2267 -3.96893 -0.320723 6.22612 0.648286 1.48899
-59.7146 -4.00631 -0.334982 6.21476 0.665605 1.61073
-59.1474 -4.03936 -0.349122 6.19898 0.677652 1.73928
-62.5066 -3.86566 -0.276773 6.25914 0.634874 1.14663
-62.2003 -3.91541 -0.291027 6.25973 0.665713 1.25134
-61.8378 -3.9637 -0.305541 6.25731 0.69406 1.36247
-61.4174 -4.00993 -0.320254 6.25141 0.719215 1.48035
-60.9385 -4.05327 -0.335046 6.24149 0.740311 1.60529
-60.4024 -4.09264 -0.349758 6.22696 0.756188 1.73765
-63.6169 -3.89091 -0.274685 6.27941 0.69616 1.12881
-63.3487 -3.94553 -0.289205 6.28165 0.730617 1.23535
-63.0244 -3.99906 -0.304056 6.2809 0.762761 1.34871
-62.6411 -4.05092 -0.319169 6.27667 0.791882 1.46926
-62.1978 -4.1002 -0.334375 6.26837 0.816979 1.5974
-61.6951 -4.14615 -0.34965 6.25533 0.837134 1.73352
-64.7525 -3.91594 -0.272151 6.29927 0.758317 1.10857
-64.5249 -3.97541 -0.28685 6.30321 0.796612 1.21684
-64.2415 -4.0342 -0.301966 6.30424 0.832813 1.33233
-63.8981 -4.09174 -0.317405 6.30181 0.866206 1.45549
-63.4931 -4.14721 -0.333023 6.29521 0.895799 1.58692
-66.0374 -3.87634 -0.254621 6.31057 0.777578 0.982773
-65.91 -3.94051 -0.269002 6.31863 0.82115 1.0857
-65.7285 -4.00493 -0.28391 6.32428 0.863535 1.19562
-65.4889 -4.06899 -0.299208 6.32719 0.90407 1.31312
-65.1885 -4.13225 -0.31489 6.32668 0.942063 1.43879
-64.8247 -4.19397 -0.330821 6.32201 0.976526 1.57332
-67.176 -3.89617 -0.251069 6.32743 0.83692 0.956206
-67.0936 -3.9648 -0.265407 6.33716 0.88452 1.06018
-66.9588 -4.03397 -0.280317 6.34473 0.931172 1.17151
-66.7664 -4.10329 -0.295707 6.34958 0.976327 1.29086
-66.5125 -4.1722 -0.311484 6.3511 1.0192 1.41889
-66.1942 -4.24033 -0.327695 6.34858 1.05898 1.55636
-68.1533 -3.70304 -0.207134 6.30013 0.740524 0.652394
-68.2538 -3.77244 -0.219748 6.31568 0.792377 0.737788
-68.3138 -3.84326 -0.232984 6.33023 0.844296 0.829186
-68.3315 -3.91535 -0.246809 6.34348 0.896257 0.926971
-68.3 -3.98843 -0.261119 6.35495 0.948034 1.03179
-68.2154 -4.06242 -0.275986 6.36439 0.999232 1.14432
-68.0735 -4.13697 -0.291369 6.37127 1.04931 1.26529
-67.8689 -4.21169 -0.307184 6.3749 1.09752 1.39556
-69.1822 -3.71017 -0.202765 6.31076 0.788525 0.619997
-69.3306 -3.78309 -0.215185 6.32767 0.843714 0.705408
-69.4411 -3.8577 -0.22827 6.34371 0.899232 0.796901
-69.5084 -3.93385 -0.241904 6.35851 0.955193 0.894999
-69.5287 -4.01139 -0.256083 6.37177 1.01135 1.00041
-69.4976 -4.09015 -0.270807 6.38311 1.06734 1.11387
-69.4098 -4.16989 -0.286075 6.39206 1.12264 1.2362
-69.2594 -4.25039 -0.301852 6.39796 1.17657 1.36835
-70.2226 -3.71656 -0.197779 6.32045 0.835328 0.585651
-70.4215 -3.79301 -0.209993 6.33862 0.893824 0.670821
-70.5845 -3.87137 -0.222846 6.35607 0.953088 0.762115
-70.7055 -3.95129 -0.236109 6.37251 1.01336 0.860304
-70.7808 -4.03335 -0.250114 6.38755 1.07418 0.966218
-70.8076 -4.11703 -0.264713 6.40066 1.13519 1.08032
-70.7781 -4.20197 -0.279781 6.41168 1.19591 1.20359
-70.6848 -4.28808 -0.295317 6.41999 1.25581 1.33714
-40.1266 -4.73605 -0.26606 -6.09884 1.20195 -0.34595
-40.662 -4.73041 -0.277777 -6.09569 1.29616 -0.366491
-40.0978 -4.79154 -0.265247 -6.12393 1.19304 -0.400291
-40.6807 -4.78854 -0.277478 -6.12223 1.28934 -0.423606
-41.2477 -4.78266 -0.289765 -6.1182 1.39037 -0.444678
-41.7946 -4.77386 -0.302199 -6.11178 1.49635 -0.462441
-42.3085 -4.76192 -0.314567 -6.10268 1.6075 -0.476484
-42.7785 -4.74673 -0.326762 -6.09066 1.72386 -0.486034
-43.1906 -4.72816 -0.338626 -6.07552 1.84539 -0.490142
-43.5299 -4.70606 -0.349976 -6.05721 1.97199 -0.487624
-43.777 -4.68016 -0.360519 -6.03561 2.10323 -0.477343
-40.6906 -4.84828 -0.276944 -6.14894 1.28056 -0.481958
-41.3102 -4.84516 -0.289775 -6.14645 1.3839 -0.505909
-41.912 -4.83916 -0.302749 -6.14142 1.49257 -0.526959
-42.4855 -4.83009 -0.315739 -6.13358 1.60673 -0.544372
-43.0188 -4.8178 -0.328605 -6.12266 1.72639 -0.557278
-43.4978 -4.80217 -0.341179 -6.1084 1.85154 -0.564617
-43.9061 -4.78322 -0.353347 -6.09065 1.98223 -0.56509
-40.6852 -4.90957 -0.27605 -6.17594 1.26991 -0.541419
-41.3579 -4.90932 -0.289375 -6.17504 1.37545 -0.568626
-42.0162 -4.90621 -0.302869 -6.17152 1.48668 -0.593036
-42.6505 -4.90009 -0.316436 -6.16507 1.60376 -0.613899
-43.2491 -4.8908 -0.32994 -6.15538 1.72678 -0.630316
-43.7975 -4.87819 -0.343201 -6.14218 1.85578 -0.641107
-44.2787 -4.86219 -0.356038 -6.12508 1.99079 -0.645082
-40.6657 -4.97242 -0.274819 -6.20308 1.25714 -0.601987
-41.3915 -4.97511 -0.288574 -6.20386 1.36487 -0.632628
-42.1069 -4.975 -0.302537 -6.20197 1.47864 -0.660611
-42.803 -4.97193 -0.316633 -6.19707 1.59868 -0.685179
-43.4683 -4.96574 -0.330732 -6.18876 1.72513 -0.705403
-44.0879 -4.95639 -0.344704 -6.17669 1.85817 -0.72005
-40.6308 -5.0368 -0.273219 -6.23026 1.24209 -0.663588
-41.4094 -5.04252 -0.28733 -6.23283 1.35197 -0.697853
-42.1821 -5.04552 -0.301705 -6.2327 1.46828 -0.729639
-42.9407 -5.0456 -0.316276 -6.22948 1.59128 -0.758184
-43.6741 -5.04262 -0.330917 -6.22273 1.72121 -0.782535
-44.3673 -5.03645 -0.345475 -6.21199 1.85832 -0.801414
-40.5789 -5.10268 -0.271214 -6.25737 1.22462 -0.726122
-41.41 -5.11152 -0.2856 -6.26183 1.33657 -0.764213
-42.2401 -5.11773 -0.300322 -6.26359 1.45537 -0.800046
-43.0617 -5.12109 -0.315302 -6.26221 1.58133 -0.832862
-43.8628 -5.12136 -0.330371 -6.25722 1.71476 -0.861582
-44.6325 -5.11854 -0.345497 -6.24804 1.85594 -0.885165
-40.5088 -5.17001 -0.268757 -6.28432 1.20456 -0.789457
-41.3917 -5.18206 -0.283334 -6.29074 1.31849 -0.831585
-42.2789 -5.19161 -0.298328 -6.29452 1.43971 -0.871725
-43.1636 -5.19836 -0.313645 -6.29515 1.56859 -0.90912
-44.0351 -5.20211 -0.329145 -6.29202 1.70564 -0.942713
-39.5013 -5.22066 -0.251426 -6.30033 1.07303 -0.805944
-40.4189 -5.2385 -0.265687 -6.31099 1.18171 -0.853389
-41.3529 -5.25409 -0.280471 -6.31944 1.29753 -0.899805
-42.2966 -5.26711 -0.295656 -6.32536 1.42105 -0.94452
-43.2443 -5.2774 -0.311225 -6.32815 1.55277 -0.98682
-44.1863 -5.28472 -0.327053 -6.32715 1.69329 -1.02566
-39.346 -5.2874 -0.247919 -6.32439 1.04609 -0.866154
-40.3089 -5.30852 -0.262143 -6.33708 1.15601 -0.917781
-41.292 -5.32756 -0.276941 -6.34777 1.27349 -0.968652
-42.2914 -5.34419 -0.292224 -6.35594 1.39914 -1.01822
-43.3007 -5.35813 -0.307906 -6.36103 1.53358 -1.0657
-44.314 -5.36927 -0.324013 -6.36241 1.67744 -1.11023
-36.317 -5.27063 -0.204381 -6.29509 0.72485 -0.75921
-37.239 -5.30018 -0.216878 -6.31367 0.815625 -0.81465
-38.1905 -5.32833 -0.229994 -6.33134 0.912638 -0.870366
-39.17 -5.35499 -0.243697 -6.34781 1.01629 -0.926305
-40.1762 -5.37972 -0.257893 -6.36262 1.12724 -0.982253
-41.208 -5.4024 -0.272651 -6.37555 1.24616 -1.03784
-42.2618 -5.42278 -0.287931 -6.38609 1.37373 -1.09256
-43.3337 -5.44055 -0.303662 -6.39362 1.51076 -1.14566
-36.0148 -5.32933 -0.200022 -6.31196 0.691362 -0.807703
-36.9679 -5.36208 -0.21232 -6.33234 0.782248 -0.866547
-37.9534 -5.39365 -0.225285 -6.35192 0.879469 -0.925951
-38.9714 -5.42372 -0.238802 -6.37037 0.983572 -0.986005
-40.0206 -5.45208 -0.252869 -6.38739 1.09528 -1.04648
-41.0996 -5.47854 -0.267486 -6.40262 1.21535 -1.10702
-42.2062 -5.50281 -0.282653 -6.4156 1.34457 -1.16716
-43.3391 -5.52463 -0.298347 -6.42575 1.48384 -1.22623
-35.6934 -5.38857 -0.19501 -6.32795 0.655806 -0.854996
-36.6768 -5.42469 -0.207105 -6.35004 0.746525 -0.917216
-37.6954 -5.45979 -0.219853 -6.37148 0.843629 -0.98044
-38.7471 -5.49338 -0.233014 -6.39202 0.947948 -1.0449
-39.8387 -5.52552 -0.246881 -6.41126 1.06033 -1.11015
-40.9647 -5.55602 -0.261354 -6.42872 1.18123 -1.17585
-42.123 -5.58441 -0.276319 -6.4442 1.31165 -1.2416
-43.314 -5.61033 -0.291776 -6.45714 1.45268 -1.3069
34.8922 -8.48442 -0.268766 0.368733 0.596055 -1.09659
34.6661 -8.50466 -0.280686 0.339606 0.646675 -1.17993
35.002 -8.5322 -0.267998 0.397206 0.550697 -1.12957
34.7704 -8.55621 -0.280439 0.367078 0.600716 -1.21641
34.5307 -8.57724 -0.292937 0.336644 0.655716 -1.30519
34.2838 -8.59527 -0.305579 0.30616 0.716647 -1.39532
34.0316 -8.60964 -0.318132 0.276181 0.784012 -1.48667
33.7754 -8.61992 -0.330487 0.24722 0.858452 -1.57873
33.5182 -8.62566 -0.34248 0.219959 0.940691 -1.67081
33.2657 -8.62644 -0.353906 0.195068 1.03157 -1.76197
33.0249 -8.62158 -0.364465 0.173387 1.13172 -1.85103
34.8744 -8.6085 -0.279945 0.396226 0.552543 -1.25242
34.6276 -8.63354 -0.292991 0.364628 0.607009 -1.34494
34.3705 -8.65555 -0.306183 0.332867 0.667367 -1.43938
34.104 -8.67398 -0.319371 0.301431 0.734307 -1.53535
33.8295 -8.68834 -0.332411 0.270858 0.808525 -1.63227
33.5492 -8.69813 -0.345122 0.24185 0.890824 -1.72937
33.2668 -8.70298 -0.357386 0.215238 0.982258 -1.82574
34.9819 -8.66135 -0.279061 0.427395 0.502325 -1.28792
34.7285 -8.6905 -0.292611 0.394642 0.555916 -1.38439
34.462 -8.71666 -0.306334 0.361578 0.615549 -1.4831
34.1825 -8.73931 -0.320115 0.328659 0.681934 -1.58369
33.8907 -8.75795 -0.333809 0.296434 0.755834 -1.68559
33.5888 -8.77201 -0.347222 0.26559 0.838183 -1.78802
33.2779 -8.78088 -0.360164 0.236981 0.929956 -1.89012
35.0904 -8.71471 -0.277821 0.460547 0.449872 -1.32275
34.8315 -8.74807 -0.29181 0.426686 0.502449 -1.42327
34.5569 -8.77853 -0.306015 0.392345 0.561204 -1.5264
34.2659 -8.80558 -0.320341 0.35795 0.626872 -1.6318
33.9581 -8.82866 -0.334648 0.324045 0.700282 -1.73895
33.6338 -8.84725 -0.3488 0.291398 0.782513 -1.84711
35.199 -8.76846 -0.276191 0.495767 0.395135 -1.35677
34.9359 -8.80614 -0.290546 0.460856 0.446535 -1.46143
34.6546 -8.84103 -0.305175 0.425285 0.504237 -1.56913
34.3536 -8.87264 -0.319992 0.389436 0.569001 -1.67954
34.0316 -8.90036 -0.334862 0.353838 0.641724 -1.79219
33.6877 -8.92357 -0.349626 0.319246 0.723578 -1.90638
35.3068 -8.82248 -0.274132 0.533132 0.338077 -1.38979
35.0409 -8.86454 -0.288772 0.49725 0.388117 -1.4987
34.7544 -8.90401 -0.303758 0.460513 0.444561 -1.61111
34.4451 -8.94034 -0.319001 0.42325 0.508207 -1.72672
34.1117 -8.97284 -0.334325 0.386008 0.580078 -1.84505
33.7502 -9.00097 -0.349674 0.349398 0.661203 -1.96559
35.4129 -8.87659 -0.271598 0.572716 0.278685 -1.42164
35.1453 -8.92313 -0.286433 0.53596 0.327151 -1.53487
34.8551 -8.96731 -0.301702 0.498142 0.382105 -1.65211
34.5394 -9.00854 -0.317297 0.45953 0.444384 -1.77313
34.1945 -9.04608 -0.33308 0.420632 0.515126 -1.89757
35.7652 -8.87761 -0.253914 0.650345 0.175978 -1.33888
35.5175 -8.93051 -0.268425 0.614507 0.216959 -1.45203
35.2479 -8.98172 -0.283468 0.577075 0.263618 -1.56972
34.9555 -9.03075 -0.298933 0.538284 0.316815 -1.6919
34.6351 -9.07703 -0.314794 0.498413 0.377446 -1.81848
34.2822 -9.11983 -0.330928 0.457904 0.446689 -1.9492
35.8603 -8.92699 -0.25027 0.695011 0.114134 -1.3638
35.6145 -8.98423 -0.264736 0.658703 0.152955 -1.48086
35.3469 -9.04014 -0.279799 0.620678 0.197527 -1.60296
35.0538 -9.09413 -0.295366 0.581046 0.248666 -1.73017
34.7306 -9.14557 -0.311361 0.540056 0.307376 -1.86243
34.3719 -9.19391 -0.32778 0.498039 0.374728 -1.99964
36.5755 -8.78658 -0.205978 0.839512 -0.0308845 -1.05488
36.3814 -8.84982 -0.218658 0.80891 -0.00799445 -1.16067
36.1739 -8.91294 -0.231965 0.776319 0.0189735 -1.27123
35.9499 -8.97568 -0.245881 0.741815 0.0503623 -1.38681
35.7061 -9.03748 -0.260314 0.705313 0.0867775 -1.50775
35.4402 -9.09817 -0.27533 0.666841 0.128933 -1.63429
35.1478 -9.15721 -0.290892 0.626524 0.177673 -1.7666
34.8232 -9.21402 -0.30694 0.584488 0.234068 -1.90476
36.6436 -8.82257 -0.201462 0.888282 -0.0888718 -1.06695
36.4539 -8.88956 -0.213924 0.857927 -0.0683353 -1.17531
36.25 -8.95673 -0.227072 0.825534 -0.0438675 -1.28871
36.0292 -9.02366 -0.24079 0.791015 -0.0151228 -1.40762
35.7889 -9.09006 -0.255079 0.754368 0.0185646 -1.53241
35.5256 -9.15558 -0.269943 0.715617 0.0579528 -1.66337
35.235 -9.21977 -0.285382 0.6748 0.103911 -1.80078
34.9111 -9.28214 -0.301388 0.631933 0.157513 -1.94485
36.7023 -8.85755 -0.196247 0.938895 -0.147467 -1.07691
36.5149 -8.92833 -0.208497 0.908926 -0.12946 -1.18763
36.3136 -8.99956 -0.221432 0.876867 -0.107801 -1.30376
36.0983 -9.07069 -0.234802 0.842649 -0.0820601 -1.42605
35.8619 -9.14173 -0.248849 0.805994 -0.0513247 -1.55479
35.5993 -9.21217 -0.263535 0.767134 -0.0150601 -1.69011
35.3111 -9.28161 -0.278755 0.72602 0.0276764 -1.83246
34.9911 -9.34955 -0.294509 0.682541 0.0779946 -1.98228
-134.649 -0.63623 -0.269593 -0.161493 1.07956 0.581955
-134.902 -0.666284 -0.281381 -0.133626 1.16299 0.634158
-135.382 -0.632411 -0.268708 -0.187669 1.11263 0.533925
-135.681 -0.663421 -0.281024 -0.15872 1.19951 0.585534
-135.947 -0.694484 -0.293374 -0.129963 1.28852 0.642329
-136.18 -0.725598 -0.305853 -0.101737 1.37912 0.705256
-136.375 -0.756406 -0.318209 -0.0746334 1.47125 0.774793
-136.53 -0.786684 -0.330325 -0.0492092 1.56449 0.851552
-136.641 -0.816092 -0.342032 -0.0262009 1.65821 0.936207
-136.711 -0.844108 -0.353124 -0.00630516 1.7515 1.02952
-136.735 -0.870048 -0.363283 0.00963074 1.84327 1.13201
-136.473 -0.660285 -0.280419 -0.185869 1.23564 0.534565
-136.788 -0.692453 -0.293319 -0.15588 1.32832 0.590841
-137.068 -0.724867 -0.306355 -0.1263 1.42316 0.653242
-137.309 -0.757288 -0.319353 -0.0976723 1.51983 0.722436
-137.508 -0.789462 -0.332163 -0.0705853 1.61785 0.799097
-137.661 -0.821066 -0.344596 -0.0457964 1.71653 0.883985
-137.77 -0.851787 -0.356539 -0.0241765 1.81499 0.978065
-137.277 -0.656536 -0.279411 -0.215445 1.27138 0.481399
-137.642 -0.689765 -0.292826 -0.184211 1.36792 0.536806
-137.973 -0.723436 -0.306403 -0.153235 1.46695 0.598516
-138.263 -0.757381 -0.320006 -0.123041 1.56814 0.667228
-138.509 -0.791398 -0.333484 -0.0942362 1.67105 0.74369
-138.708 -0.825143 -0.346636 -0.0675638 1.77495 0.828796
-138.856 -0.858363 -0.35926 -0.0439352 1.87909 0.923441
-138.091 -0.65234 -0.278043 -0.247441 1.30654 0.425864
-138.51 -0.686528 -0.29191 -0.214996 1.40706 0.480242
-138.893 -0.721363 -0.30598 -0.182641 1.51041 0.54109
-139.235 -0.756739 -0.320143 -0.150873 1.61632 0.609142
-139.532 -0.792507 -0.33425 -0.120305 1.72435 0.685223
-139.78 -0.82849 -0.34816 -0.091773 1.83387 0.770376
-138.915 -0.647703 -0.276282 -0.281963 1.34101 0.367909
-139.389 -0.682736 -0.290527 -0.248359 1.4456 0.421075
-139.827 -0.718628 -0.305033 -0.214659 1.55342 0.480863
-140.225 -0.755327 -0.319704 -0.181326 1.66423 0.548051
-140.576 -0.792738 -0.334394 -0.148967 1.77763 0.623536
-140.875 -0.830716 -0.348938 -0.118411 1.89304 0.70847
-139.745 -0.642636 -0.274087 -0.319115 1.37462 0.307501
-140.276 -0.678389 -0.288628 -0.284424 1.48338 0.359245
-140.773 -0.715224 -0.303506 -0.249436 1.59582 0.417747
-141.23 -0.753122 -0.318621 -0.214567 1.71171 0.483828
-141.639 -0.79196 -0.333792 -0.180442 1.83064 0.558532
-141.994 -0.831835 -0.348939 -0.147769 1.95225 0.64288
-140.579 -0.637157 -0.271412 -0.358997 1.40721 0.244629
-141.17 -0.6735 -0.286157 -0.323312 1.52023 0.294711
-141.729 -0.711151 -0.301333 -0.287114 1.6374 0.351663
-142.248 -0.750114 -0.31682 -0.250763 1.75857 0.416362
-142.718 -0.790408 -0.332477 -0.214858 1.88346 0.489977
-140.734 -0.595577 -0.253662 -0.43699 1.32573 0.137146
-141.414 -0.631128 -0.268098 -0.401624 1.43852 0.179292
-142.069 -0.668093 -0.283051 -0.365143 1.55594 0.227454
-142.692 -0.706428 -0.298438 -0.327838 1.67797 0.282559
-143.276 -0.746307 -0.31421 -0.290086 1.80458 0.345557
-143.812 -0.787818 -0.330245 -0.252427 1.93559 0.417676
-141.507 -0.589203 -0.249843 -0.48316 1.35179 0.0717215
-142.248 -0.624937 -0.264235 -0.44723 1.46848 0.111556
-142.968 -0.662207 -0.27923 -0.410026 1.59027 0.157494
-143.659 -0.701086 -0.294729 -0.371745 1.71726 0.210414
-144.312 -0.741717 -0.310664 -0.332716 1.84944 0.271389
-144.919 -0.784296 -0.327002 -0.293398 1.98679 0.341577
-139.785 -0.482946 -0.205617 -0.63087 1.0455 -0.0779886
-140.62 -0.514832 -0.21821 -0.599622 1.15086 -0.0549717
-141.451 -0.547948 -0.231436 -0.566644 1.261 -0.0276653
-142.273 -0.582444 -0.245277 -0.532054 1.37617 0.00428791
-143.079 -0.618372 -0.259639 -0.49583 1.49674 0.041548
-143.865 -0.655897 -0.274592 -0.458063 1.62295 0.0848953
-144.626 -0.695177 -0.290096 -0.418964 1.75498 0.135251
-145.352 -0.73643 -0.306098 -0.378751 1.89296 0.193763
-140.366 -0.476477 -0.200924 -0.682479 1.05907 -0.139171
-141.256 -0.508137 -0.213289 -0.651443 1.16705 -0.118679
-142.146 -0.541171 -0.226354 -0.618607 1.28007 -0.0940524
-143.029 -0.575606 -0.239993 -0.583937 1.3986 -0.0649236
-143.902 -0.611574 -0.254212 -0.547482 1.52304 -0.0305823
-144.757 -0.649234 -0.269014 -0.509331 1.65367 0.00979341
-145.59 -0.688773 -0.2844 -0.469605 1.79077 0.0571595
-146.393 -0.73049 -0.300373 -0.428416 1.9346 0.11268
-140.932 -0.46993 -0.195521 -0.736461 1.07076 -0.20096
-141.879 -0.501482 -0.207668 -0.705786 1.18116 -0.183171
-142.828 -0.53446 -0.220523 -0.673246 1.29697 -0.161544
-143.774 -0.56865 -0.233834 -0.638811 1.41893 -0.135631
-144.714 -0.604532 -0.247789 -0.602279 1.54736 -0.104475
-145.64 -0.642368 -0.262386 -0.563933 1.68238 -0.0674619
-146.548 -0.682081 -0.277551 -0.523804 1.82441 -0.0235596
-147.43 -0.723941 -0.293283 -0.481882 1.97394 0.0284305
-135.22 -0.799754 -0.27047 0.0449987 1.08025 0.543291
-135.566 -0.836523 -0.282213 0.0716067 1.16361 0.597561
-135.942 -0.784835 -0.269658 0.0210889 1.11336 0.490242
-136.331 -0.821903 -0.281935 0.0488618 1.20018 0.543968
-136.699 -0.859459 -0.294237 0.0759492 1.28911 0.603153
-137.05 -0.897541 -0.306655 0.101929 1.3796 0.668713
-137.38 -0.935804 -0.318924 0.126177 1.47161 0.741045
-137.688 -0.974043 -0.330923 0.148092 1.56467 0.820662
-137.975 -1.01194 -0.34249 0.166888 1.65819 0.908122
-138.246 -1.049 -0.353416 0.181836 1.75124 1.00399
-138.5 -1.08456 -0.363401 0.192079 1.84274 1.10853
-137.109 -0.806551 -0.281406 0.0236657 1.23637 0.487774
-137.522 -0.844531 -0.294259 0.0520507 1.32896 0.546513
-137.914 -0.883233 -0.307238 0.0794586 1.42371 0.611682
-138.284 -0.922445 -0.320155 0.105297 1.52026 0.683877
-138.631 -0.961938 -0.332856 0.128926 1.61812 0.763687
-138.954 -1.00141 -0.345154 0.149537 1.7166 0.851756
-139.257 -1.04056 -0.356936 0.166217 1.81482 0.948839
-137.9 -0.790137 -0.280464 -0.00435739 1.27215 0.429087
-138.358 -0.828453 -0.293838 0.0253592 1.36863 0.487011
-138.796 -0.867697 -0.307366 0.0542523 1.46757 0.551598
-139.209 -0.907729 -0.320897 0.0817373 1.56865 0.6235
-139.597 -0.948374 -0.334274 0.107148 1.67141 0.703396
-139.959 -0.989317 -0.347299 0.129688 1.77512 0.792059
-140.294 -1.03033 -0.359763 0.14839 1.87903 0.890192
-138.701 -0.772828 -0.279156 -0.0352337 1.30736 0.367761
-139.208 -0.811338 -0.292992 -0.0042109 1.40783 0.424673
-139.693 -0.850988 -0.307023 0.0261602 1.51111 0.488477
-140.153 -0.891702 -0.321123 0.0553121 1.61691 0.559883
-140.585 -0.933363 -0.335139 0.0825653 1.7248 0.639662
-140.989 -0.975831 -0.348932 0.107022 1.83415 0.728748
-139.512 -0.754633 -0.277449 -0.0690957 1.34188 0.30375
-140.07 -0.79318 -0.291675 -0.0368112 1.44643 0.359423
-140.605 -0.833083 -0.306153 -0.00498798 1.55419 0.422206
-141.115 -0.874324 -0.320772 0.0258339 1.66491 0.492873
-141.595 -0.916846 -0.335383 0.0549737 1.77818 0.572295
-142.043 -0.960548 -0.349822 0.0815309 1.89342 0.661531
-140.33 -0.73557 -0.275301 -0.106073 1.37554 0.237024
-140.941 -0.773983 -0.289836 -0.0725928 1.48428 0.291199
-141.53 -0.813976 -0.304698 -0.0393652 1.59666 0.352684
-142.092 -0.85557 -0.319775 -0.00689191 1.71248 0.422326
-142.623 -0.898689 -0.334885 0.0241305 1.83131 0.501166
-143.121 -0.943461 -0.349934 0.0528982 1.95276 0.590162
-141.152 -0.715666 -0.272665 -0.14629 1.40817 0.167574
-141.819 -0.753767 -0.28742 -0.111705 1.52119 0.219956
-142.465 -0.793671 -0.302592 -0.077146 1.63833 0.279826
-143.083 -0.835429 -0.318055 -0.0430654 1.75943 0.34811
-143.67 -0.879114 -0.33367 -0.0101471 1.88424 0.426006
-141.235 -0.6589 -0.254924 -0.224652 1.32672 0.0516987
-141.977 -0.694816 -0.269393 -0.189795 1.43953 0.0953971
-142.702 -0.732565 -0.28436 -0.154295 1.55695 0.145683
-143.407 -0.772194 -0.299756 -0.118504 1.67897 0.203578
-144.085 -0.813908 -0.315519 -0.0828907 1.80554 0.270115
-144.732 -0.857856 -0.33153 -0.0480871 1.93648 0.346585
-142 -0.638258 -0.251106 -0.272352 1.35281 -0.0205478
-142.8 -0.673363 -0.265543 -0.236844 1.46954 0.0205808
-143.586 -0.710431 -0.280572 -0.200502 1.59134 0.0684106
-144.354 -0.749587 -0.296096 -0.163609 1.71834 0.123922
-145.096 -0.791045 -0.312048 -0.126574 1.8505 0.1883
-145.806 -0.83503 -0.32837 -0.0899746 1.9878 0.262819
-140.145 -0.524376 -0.206738 -0.423157 1.04638 -0.177715
-141.017 -0.553664 -0.219377 -0.39131 1.15181 -0.154905
-141.889 -0.584452 -0.232653 -0.357994 1.262 -0.127449
-142.759 -0.61692 -0.246542 -0.323364 1.37723 -0.0949707
-143.62 -0.651175 -0.260956 -0.287463 1.49783 -0.0567117
-144.469 -0.687436 -0.275955 -0.250451 1.62408 -0.0117698
-145.302 -0.725918 -0.291496 -0.212618 1.75613 0.0409008
-146.111 -0.766906 -0.307532 -0.174273 1.89411 0.102582
-140.726 -0.50614 -0.202028 -0.477614 1.05995 -0.245046
-141.652 -0.534183 -0.214438 -0.445942 1.168 -0.225078
-142.581 -0.56385 -0.227554 -0.412713 1.28108 -0.200629
-143.509 -0.595196 -0.241248 -0.377945 1.39968 -0.171302
-144.432 -0.628399 -0.255523 -0.341739 1.52417 -0.136301
-145.347 -0.663678 -0.27038 -0.304247 1.65486 -0.0946906
-146.247 -0.701282 -0.285815 -0.26567 1.792 -0.0453663
-147.128 -0.741578 -0.301833 -0.226222 1.93585 0.0129878
-141.293 -0.48766 -0.196584 -0.534962 1.07164 -0.312981
-142.272 -0.514551 -0.208778 -0.50363 1.18212 -0.296032
-143.259 -0.543098 -0.221692 -0.470665 1.298 -0.274935
-144.247 -0.573124 -0.235081 -0.436076 1.42004 -0.249209
-145.235 -0.605074 -0.249076 -0.39974 1.54854 -0.217819
-146.216 -0.639323 -0.263718 -0.361976 1.68362 -0.180005
-147.186 -0.675901 -0.27894 -0.3229 1.82572 -0.134576
-148.141 -0.715122 -0.294728 -0.282605 1.9753 -0.0801842
0 0 0 0 0 0
0 0 0 0 0 0
0 0 0 0 0 0
0 0 0 0 0 0
0 0 0 0 0 0
0 0 0 0 0 0
0 0 0 0 0 0
0 0 0 0 0 0
0 0 0 0 0 0
0 0 0 0 0 0
0 0 0 0 0 0
0 0 0 0 0 0
0 0 0 0 0 0
0 0 0 0 0 0
0 0 0 0 0 0
0 0 0 0 0 0
0 0 0 0 0 0
0 0 0 0 0 0
0 0 0 0 0 0
0 0 0 0 0 0
0 0 0 0 0 0
0 0 0 0 0 0
0 0 0 0 0 0
0 0 0 0 0 0
0 0 0 0 0 0
0 0 0 0 0 0
0 0 0 0 0 0
0 0 0 0 0 0
0 0 0 0 0 0
0 0 0 0 0 0
0 0 0 0 0 0
0 0 0 0 0 0
0 0 0 0 0 0
0 0 0 0 0 0
0 0 0 0 0 0
0 0 0 0 0 0
0 0 0 0 0 0
0 0 0 0 0 0
0 0 0 0 0 0
0 0 0 0 0 0
0 0 0 0 0 0
0 0 0 0 0 0
0 0 0 0 0 0
0 0 0 0 0 0
0 0 0 0 0 0
0 0 0 0 0 0
0 0 0 0 0 0
0 0 0 0 0 0
0 0 0 0 0 0
0 0 0 0 0 0
0 0 0 0 0 0
0 0 0 0 0 0
0 0 0 0 0 0
0 0 0 0 0 0
0 0 0 0 0 0
0 0 0 0 0 0
0 0 0 0 0 0
0 0 0 0 0 0
0 0 0 0 0 0
0 0 0 0 0 0
0 0 0 0 0 0
0 0 0 0 0 0
0 0 0 0 0 0
0 0 0 0 0 0
0 0 0 0 0 0
0 0 0 0 0 0
0 0 0 0 0 0
0 0 0 0 0 0
0 0 0 0 0 0
0 0 0 0 0 0
0 0 0 0 0 0
0 0 0 0 0 0
0 0 0 0 0 0
0 0 0 0 0 0
0 0 0 0 0 0
0 0 0 0 0 0
0 0 0 0 0 0
0 0 0 0 0 0
0 0 0 0 0 0
0 0 0 0 0 0
0 0 0 0 0 0
0 0 0 0 0 0
0 0 0 0 0 0
0 0 0 0 0 0
28.18 -8.73864 -0.272671 -0.250513 0.52036 -1.01839
27.74 -8.78229 -0.284613 -0.275854 0.575 -1.09932
28.7734 -8.77457 -0.272083 -0.228828 0.465178 -1.04987
28.3535 -8.82067 -0.284565 -0.255423 0.519321 -1.13404
27.918 -8.86663 -0.297085 -0.280838 0.578973 -1.22057
27.4674 -8.91271 -0.309714 -0.304581 0.645026 -1.30898
27.0045 -8.95865 -0.32219 -0.325991 0.71782 -1.39926
26.5322 -9.00451 -0.334389 -0.34442 0.797803 -1.49108
26.0548 -9.05038 -0.346156 -0.359044 0.885458 -1.58392
25.5803 -9.09645 -0.357286 -0.369093 0.98125 -1.6769
25.1174 -9.14267 -0.367504 -0.373704 1.08531 -1.76902
28.9874 -8.85949 -0.28426 -0.232123 0.460922 -1.16846
28.5706 -8.90793 -0.297331 -0.258901 0.520186 -1.25843
28.1352 -8.95644 -0.310526 -0.28414 0.585936 -1.35083
27.6825 -9.00482 -0.323655 -0.307202 0.658716 -1.44541
27.2149 -9.05307 -0.336561 -0.327397 0.739053 -1.54178
26.7367 -9.10123 -0.34906 -0.343869 0.827516 -1.63936
26.2531 -9.14961 -0.361042 -0.355666 0.924747 -1.73732
29.6446 -8.89847 -0.283531 -0.205605 0.399893 -1.20258
29.2492 -8.94952 -0.297125 -0.233795 0.458392 -1.29617
28.8316 -9.00059 -0.310877 -0.260604 0.523639 -1.39251
28.3922 -9.05154 -0.324623 -0.285389 0.596239 -1.49135
27.9324 -9.10231 -0.338208 -0.307427 0.676821 -1.59233
27.4563 -9.15294 -0.351434 -0.325871 0.766082 -1.69486
26.9665 -9.20346 -0.364101 -0.339699 0.864611 -1.79827
30.323 -8.93764 -0.282426 -0.1758 0.336098 -1.23624
29.952 -8.99137 -0.296488 -0.205385 0.393621 -1.33356
29.5554 -9.04512 -0.310748 -0.233764 0.458147 -1.43395
29.1326 -9.09873 -0.32507 -0.260304 0.530357 -1.53721
28.6839 -9.15215 -0.339298 -0.28426 0.610977 -1.64302
28.211 -9.20544 -0.353294 -0.304676 0.700863 -1.75085
31.0215 -8.97688 -0.280911 -0.142551 0.269494 -1.26935
30.6782 -9.03336 -0.295371 -0.173492 0.325792 -1.37047
30.306 -9.08988 -0.310087 -0.203424 0.389344 -1.47505
29.9035 -9.14629 -0.324933 -0.231732 0.460905 -1.58289
29.4697 -9.20247 -0.33976 -0.257663 0.541311 -1.69373
29.0049 -9.25843 -0.354408 -0.280251 0.631552 -1.80711
31.739 -9.01607 -0.278943 -0.105703 0.20005 -1.30177
31.4268 -9.07535 -0.293724 -0.137939 0.254841 -1.40679
31.0828 -9.13474 -0.308832 -0.169382 0.317121 -1.51567
30.7044 -9.19406 -0.324143 -0.199448 0.387728 -1.62827
30.2906 -9.25312 -0.339477 -0.227372 0.467677 -1.74428
29.8382 -9.31192 -0.354729 -0.252257 0.557876 -1.86347
32.474 -9.05504 -0.276471 -0.0651031 0.127759 -1.33336
32.1964 -9.11719 -0.291488 -0.0985467 0.180724 -1.44238
31.8844 -9.17955 -0.306915 -0.131434 0.24139 -1.55568
31.5345 -9.2419 -0.322621 -0.163223 0.310683 -1.6732
31.1432 -9.30405 -0.338471 -0.193147 0.389791 -1.79477
33.4333 -9.02876 -0.258614 0.0136268 0.00858903 -1.25544
33.2256 -9.09354 -0.273361 -0.0206708 0.0526149 -1.36391
32.9852 -9.1587 -0.288595 -0.0551424 0.103431 -1.47706
32.7092 -9.22413 -0.304257 -0.0893761 0.162092 -1.59491
32.3922 -9.28962 -0.320272 -0.122817 0.229652 -1.71751
32.0296 -9.35498 -0.336523 -0.154746 0.307406 -1.84478
34.1539 -9.06393 -0.254912 0.0628885 -0.0666434 -1.28124
33.9889 -9.1315 -0.269645 0.0278622 -0.0252845 -1.3934
33.7908 -9.1997 -0.28496 -0.00756006 0.022997 -1.51065
33.5549 -9.26827 -0.300761 -0.0430096 0.0792135 -1.63315
33.2753 -9.33703 -0.316985 -0.078001 0.144585 -1.76096
32.9465 -9.40577 -0.333545 -0.111847 0.220421 -1.89413
35.0848 -8.89167 -0.209816 0.216637 -0.226313 -0.988754
35.0395 -8.95947 -0.222727 0.184255 -0.203823 -1.08963
34.9735 -9.02833 -0.236288 0.150665 -0.176555 -1.19519
34.8829 -9.09818 -0.250463 0.116053 -0.144135 -1.3057
34.7632 -9.16872 -0.26518 0.0805389 -0.105759 -1.42152
34.6103 -9.23998 -0.280477 0.0443505 -0.0604755 -1.54295
34.4186 -9.31177 -0.296307 0.00785069 -0.00719589 -1.67019
34.1813 -9.38391 -0.312628 -0.0285641 0.0554034 -1.80343
35.6746 -8.91717 -0.205195 0.27395 -0.296385 -1.00312
35.6767 -8.98738 -0.217877 0.241705 -0.276869 -1.10651
35.6581 -9.0589 -0.231279 0.208149 -0.252744 -1.21484
35.6153 -9.13146 -0.245269 0.173355 -0.223603 -1.32857
35.5443 -9.20497 -0.259849 0.137472 -0.188618 -1.44809
35.44 -9.27933 -0.275014 0.100716 -0.146806 -1.57372
35.2965 -9.35437 -0.29075 0.0633696 -0.0970057 -1.70576
35.1062 -9.43 -0.307058 0.0257437 -0.0378545 -1.8445
36.2615 -8.94144 -0.199811 0.334662 -0.367064 -1.01596
36.3105 -9.01412 -0.212281 0.30274 -0.350698 -1.1217
36.3395 -9.0883 -0.22549 0.269424 -0.330069 -1.23274
36.3479 -9.16361 -0.239195 0.234758 -0.304689 -1.34978
36.329 -9.24001 -0.25348 0.198712 -0.273489 -1.47315
36.2751 -9.31748 -0.268423 0.161623 -0.235648 -1.60298
36.1831 -9.39586 -0.283956 0.123691 -0.189913 -1.73971
36.0461 -9.47497 -0.300042 0.085119 -0.134888 -1.88384
-61.6127 -4.67204 -0.270848 -5.80011 1.03523 -0.316813
-62.4731 -4.70702 -0.282648 -5.80088 1.12877 -0.334315
-61.3147 -4.68237 -0.270285 -5.85217 1.01728 -0.373395
-62.1972 -4.71696 -0.282624 -5.85522 1.11259 -0.393446
-63.0685 -4.75375 -0.295005 -5.85783 1.21363 -0.411398
-63.9227 -4.79333 -0.307484 -5.86021 1.32071 -0.426283
-64.7491 -4.83597 -0.31981 -5.86249 1.43414 -0.437841
-65.5383 -4.88212 -0.331856 -5.86495 1.55406 -0.4455
-66.2791 -4.93237 -0.343475 -5.86801 1.68053 -0.448555
-66.9606 -4.98719 -0.354493 -5.8723 1.81326 -0.446039
-67.569 -5.04695 -0.364652 -5.87842 1.95172 -0.437069
-61.869 -4.72841 -0.282357 -5.91105 1.09434 -0.45413
-62.7638 -4.76478 -0.295278 -5.91587 1.19734 -0.474679
-63.6442 -4.80394 -0.30832 -5.92023 1.30684 -0.49252
-64.5004 -4.84621 -0.321289 -5.92422 1.4231 -0.507066
-65.3223 -4.89208 -0.334035 -5.92808 1.5463 -0.517658
-66.0978 -4.94212 -0.34638 -5.93217 1.67649 -0.523487
-66.815 -4.9971 -0.358232 -5.93709 1.81361 -0.523501
-61.4813 -4.7413 -0.281684 -5.96839 1.07411 -0.516288
-62.4003 -4.77718 -0.295122 -5.97563 1.17893 -0.539833
-63.3081 -4.81583 -0.308716 -5.9822 1.29064 -0.560705
-64.1949 -4.85764 -0.322297 -5.98814 1.40957 -0.578307
-65.0503 -4.90312 -0.335712 -5.99362 1.53598 -0.591943
-65.8624 -4.95286 -0.348775 -5.99901 1.67001 -0.600694
-66.6172 -5.00756 -0.361297 -6.00464 1.8117 -0.603659
-61.0334 -4.75579 -0.280649 -6.02715 1.05169 -0.579925
-61.976 -4.79112 -0.294554 -6.03703 1.15824 -0.606657
-62.9107 -4.82918 -0.308655 -6.04604 1.27209 -0.630782
-63.8281 -4.87043 -0.322806 -6.05417 1.39362 -0.651685
-64.7178 -4.91541 -0.336853 -6.06152 1.52322 -0.668638
-65.5672 -4.96489 -0.350671 -6.06838 1.66119 -0.680671
-60.5225 -4.77195 -0.27922 -6.08722 1.027 -0.645007
-61.4873 -4.80665 -0.293528 -6.09998 1.13516 -0.675139
-62.4482 -4.84406 -0.308084 -6.11168 1.25103 -0.702762
-63.396 -4.88466 -0.322754 -6.12227 1.37509 -0.727243
-64.3204 -4.92902 -0.337391 -6.13177 1.50782 -0.747816
-65.2084 -4.9779 -0.351848 -6.14035 1.64969 -0.763465
-59.9455 -4.78986 -0.277357 -6.14851 0.999951 -0.711478
-60.931 -4.82386 -0.291993 -6.16436 1.10958 -0.745248
-61.9168 -4.86055 -0.306942 -6.17902 1.22735 -0.776642
-62.8944 -4.90041 -0.322075 -6.19236 1.35382 -0.805008
-63.8529 -4.94399 -0.337218 -6.20434 1.48958 -0.829441
-64.7808 -4.99211 -0.352258 -6.21497 1.6352 -0.849148
-59.2995 -4.80957 -0.275007 -6.21085 0.970465 -0.779266
-60.3036 -4.84281 -0.289892 -6.23005 1.0814 -0.816931
-61.3127 -4.87873 -0.305165 -6.24794 1.2009 -0.852396
-62.3188 -4.91777 -0.320692 -6.26433 1.32963 -0.884986
-63.3117 -4.96059 -0.336345 -6.27907 1.46839 -0.91379
-57.5772 -4.80057 -0.257411 -6.25007 0.834414 -0.805058
-58.582 -4.83103 -0.272056 -6.27409 0.938416 -0.848248
-59.602 -4.86359 -0.287157 -6.29688 1.05052 -0.890109
-60.6322 -4.89869 -0.302673 -6.31829 1.17156 -0.929971
-61.6651 -4.93684 -0.318513 -6.33805 1.30235 -0.967161
-62.6912 -4.9787 -0.334563 -6.35593 1.44384 -1.00076
-56.7764 -4.82482 -0.253844 -6.31014 0.799355 -0.870962
-57.7896 -4.85449 -0.268497 -6.33798 0.903886 -0.918374
-58.8232 -4.88626 -0.283704 -6.36465 1.01689 -0.964669
-59.8717 -4.92049 -0.299371 -6.38987 1.13923 -1.00928
-60.9293 -4.95771 -0.315438 -6.41332 1.27184 -1.05143
-61.9865 -4.99856 -0.331791 -6.43474 1.41579 -1.09032
-53.0142 -4.77238 -0.20908 -6.27012 0.491815 -0.780824
-53.9472 -4.79734 -0.221942 -6.30408 0.575123 -0.833088
-54.9107 -4.82343 -0.23546 -6.33759 0.665035 -0.885355
-55.9028 -4.8509 -0.249576 -6.37045 0.761995 -0.93754
-56.9213 -4.87991 -0.264223 -6.40236 0.866841 -0.989376
-57.9646 -4.91089 -0.279429 -6.43313 0.980477 -1.04045
-59.028 -4.94423 -0.29514 -6.46244 1.10384 -1.09019
-60.1071 -4.98046 -0.311317 -6.48995 1.23803 -1.13784
-52.0805 -4.80233 -0.204615 -6.31827 0.453159 -0.835928
-53.0058 -4.82669 -0.217261 -6.35619 0.536064 -0.891822
-53.9644 -4.85224 -0.230625 -6.39378 0.62561 -0.948001
-54.9546 -4.87904 -0.244572 -6.43077 0.722412 -1.00451
-55.9753 -4.90735 -0.2591 -6.46695 0.827324 -1.06106
-57.0242 -4.93753 -0.274194 -6.50204 0.941289 -1.11725
-58.0984 -4.96997 -0.289832 -6.53572 1.06535 -1.1725
-59.1951 -5.00521 -0.306011 -6.56762 1.2007 -1.22613
-51.0848 -4.83394 -0.199413 -6.36587 0.413249 -0.890615
-51.9997 -4.85787 -0.211856 -6.40779 0.495534 -0.950153
-52.95 -4.88301 -0.22504 -6.44949 0.584462 -1.01045
-53.9334 -4.90925 -0.238736 -6.49083 0.680848 -1.07167
-54.951 -4.93678 -0.252971 -6.53146 0.785674 -1.1333
-56.0013 -4.96622 -0.267847 -6.57105 0.899642 -1.19491
-57.0816 -4.99783 -0.283304 -6.60935 1.02393 -1.25598
-58.1898 -5.032 -0.299282 -6.646 1.15991 -1.31595
-47.3441 -5.54147 -0.273109 5.73921 0.325702 1.02843
-47.6324 -5.61491 -0.284985 5.7407 0.343645 1.11773
-47.4712 -5.52004 -0.272518 5.79667 0.378546 1.01444
-47.7366 -5.59439 -0.284931 5.8006 0.399083 1.10551
-48.0526 -5.66909 -0.297394 5.80446 0.417459 1.20175
-48.4309 -5.74398 -0.309943 5.8085 0.432679 1.30345
-48.8815 -5.81845 -0.32233 5.81297 0.444426 1.41089
-49.4166 -5.89209 -0.334433 5.81823 0.452034 1.52422
-50.0504 -5.9644 -0.346107 5.82483 0.454736 1.64346
-50.7962 -6.03487 -0.357188 5.83352 0.451535 1.76847
-51.6664 -6.10283 -0.36743 5.84506 0.441444 1.89882
-47.8827 -5.57047 -0.284633 5.86225 0.455858 1.09141
-48.1746 -5.6461 -0.297622 5.86845 0.476888 1.1896
-48.5276 -5.7221 -0.31073 5.8746 0.495141 1.29367
-48.9525 -5.79794 -0.323756 5.88086 0.509973 1.40385
-49.4621 -5.87314 -0.336552 5.88758 0.520633 1.52029
-50.0711 -5.94717 -0.348947 5.89523 0.526249 1.64303
-50.7967 -6.01955 -0.360854 5.90455 0.525719 1.77207
-48.0725 -5.54265 -0.283927 5.92566 0.51386 1.0755
-48.3387 -5.61923 -0.297426 5.93444 0.537944 1.17554
-48.6645 -5.69636 -0.31108 5.94294 0.559305 1.28181
-49.0616 -5.77355 -0.32471 5.95126 0.577289 1.39459
-49.5434 -5.85031 -0.338168 5.95967 0.591127 1.51411
-50.1251 -5.92611 -0.351272 5.96867 0.599827 1.64047
-50.8243 -6.00031 -0.363841 5.97872 0.602411 1.77376
-48.3089 -5.51094 -0.282859 5.99074 0.573101 1.05759
-48.5485 -5.58836 -0.296821 6.00236 0.600418 1.15942
-48.846 -5.66654 -0.310976 6.01346 0.625099 1.26784
-49.2135 -5.74502 -0.325169 6.0241 0.646484 1.3832
-49.6653 -5.82332 -0.339251 6.03448 0.663775 1.50579
-50.2192 -5.90094 -0.353102 6.04499 0.675928 1.63591
-48.5945 -5.47514 -0.281402 6.05741 0.633537 1.03757
-48.8067 -5.55327 -0.295764 6.07211 0.664283 1.1411
-49.0749 -5.63239 -0.310367 6.08608 0.692519 1.25161
-49.4113 -5.71208 -0.325074 6.09933 0.717576 1.3695
-49.8309 -5.79188 -0.339736 6.11198 0.738626 1.49516
-50.3518 -5.87124 -0.354218 6.1243 0.754575 1.62901
-48.9318 -5.43507 -0.279516 6.12554 0.695107 1.01535
-49.1162 -5.51374 -0.294206 6.14359 0.729496 1.12048
-49.3542 -5.59367 -0.309199 6.16073 0.761545 1.23298
-49.6583 -5.67446 -0.324362 6.1769 0.79057 1.35333
-50.0434 -5.75563 -0.339527 6.19217 0.815617 1.48201
-50.5279 -5.83671 -0.354572 6.20664 0.835809 1.61951
-49.3232 -5.39054 -0.277155 6.19499 0.757732 0.990836
-49.4796 -5.46955 -0.292095 6.21666 0.795997 1.09743
-49.6872 -5.55012 -0.307408 6.23727 0.832136 1.21181
-49.958 -5.63188 -0.322959 6.2567 0.865452 1.33452
-50.308 -5.71439 -0.338628 6.2749 0.894994 1.46626
-49.6774 -5.26412 -0.259507 6.23897 0.777661 0.863354
-49.7703 -5.34134 -0.274219 6.26557 0.821288 0.963898
-49.9 -5.42051 -0.289365 6.29115 0.863702 1.07187
-50.077 -5.50151 -0.30492 6.31556 0.904229 1.18797
-50.3139 -5.58403 -0.32078 6.3386 0.942188 1.3129
-50.6266 -5.6677 -0.336837 6.36015 0.976624 1.44747
-50.2086 -5.21048 -0.255947 6.3063 0.837985 0.833286
-50.2773 -5.28728 -0.270675 6.33708 0.885733 0.934597
-50.3802 -5.36639 -0.285939 6.36687 0.932502 1.04369
-50.527 -5.44758 -0.301645 6.39539 0.977736 1.16133
-50.7299 -5.53069 -0.317739 6.42241 1.02066 1.28831
-51.0047 -5.61529 -0.334086 6.44771 1.06046 1.42553
-50.7693 -4.93851 -0.210983 6.2644 0.742181 0.536758
-50.7661 -5.00714 -0.223928 6.30139 0.7943 0.618516
-50.7742 -5.07836 -0.237534 6.338 0.84653 0.706449
-50.7989 -5.1521 -0.251725 6.37407 0.898782 0.800984
-50.8458 -5.22831 -0.266447 6.40932 0.950821 0.902864
-50.923 -5.30703 -0.281714 6.44357 1.00226 1.01286
-51.0404 -5.38812 -0.297469 6.47653 1.05253 1.1318
-51.2097 -5.4715 -0.313669 6.50793 1.10091 1.26064
-51.4697 -4.8791 -0.206578 6.31889 0.791887 0.50244
-51.4524 -4.9463 -0.219308 6.36027 0.847452 0.58403
-51.4454 -5.01629 -0.232759 6.40141 0.903411 0.671855
-51.4519 -5.08893 -0.24679 6.44204 0.959812 0.766496
-51.478 -5.16425 -0.261396 6.48198 1.0164 0.868723
-51.5312 -5.24227 -0.276558 6.52096 1.07279 0.979358
-51.6206 -5.32293 -0.292245 6.55868 1.12845 1.09932
-51.7576 -5.40625 -0.308448 6.59483 1.1827 1.22966
-52.2237 -4.81566 -0.201459 6.37294 0.841169 0.466801
-52.1955 -4.88131 -0.21399 6.41877 0.900177 0.548024
-52.1765 -4.94985 -0.227267 6.46449 0.960037 0.635492
-52.1682 -5.02108 -0.241072 6.50992 1.02093 0.730008
-52.1748 -5.09506 -0.25538 6.55475 1.08239 0.832476
-52.2065 -5.17203 -0.270322 6.59869 1.14399 0.943459
-52.2708 -5.25192 -0.285836 6.64146 1.20528 1.06401
-52.3771 -5.33469 -0.301843 6.68275 1.26572 1.19539
-137.48 -1.45769 -0.272304 0.872859 0.946119 0.450513
-138.199 -1.52182 -0.284095 0.894461 1.01838 0.495729
-138.162 -1.39833 -0.271658 0.858124 0.976184 0.405053
-138.909 -1.46016 -0.283991 0.881249 1.05151 0.449847
-139.688 -1.52427 -0.296382 0.901703 1.12855 0.499107
-140.507 -1.5908 -0.308859 0.918764 1.20678 0.553642
-141.371 -1.65947 -0.321164 0.931668 1.2862 0.613754
-142.289 -1.73017 -0.333179 0.939611 1.36643 0.679843
-143.273 -1.80263 -0.344772 0.941638 1.44694 0.752329
-144.339 -1.87646 -0.355769 0.936859 1.52702 0.831703
-145.501 -1.95106 -0.365932 0.924385 1.60579 0.91828
-139.634 -1.39591 -0.283647 0.86395 1.08439 0.401712
-140.438 -1.45772 -0.296553 0.885976 1.16465 0.45064
-141.279 -1.52219 -0.309584 0.904761 1.24663 0.504886
-142.161 -1.5892 -0.322527 0.919513 1.33006 0.564923
-143.094 -1.65864 -0.335242 0.929378 1.41449 0.631209
-144.089 -1.73024 -0.34756 0.933348 1.49933 0.704234
-145.161 -1.80379 -0.359387 0.930363 1.58387 0.784642
-140.371 -1.32882 -0.282898 0.842251 1.11701 0.351437
-141.203 -1.38809 -0.296315 0.865954 1.20072 0.399708
-142.069 -1.45026 -0.309891 0.886579 1.28643 0.453507
-142.973 -1.51532 -0.323441 0.9033 1.37384 0.51334
-143.924 -1.58319 -0.336819 0.915205 1.46254 0.579737
-144.932 -1.65366 -0.34985 0.921287 1.55192 0.653302
-146.01 -1.72656 -0.362343 0.920365 1.64137 0.734612
-141.121 -1.25902 -0.281795 0.815974 1.14922 0.298865
-141.984 -1.31543 -0.295676 0.841362 1.23649 0.346317
-142.877 -1.37501 -0.309755 0.863859 1.32605 0.399501
-143.806 -1.43779 -0.323871 0.882617 1.41762 0.458964
-144.776 -1.50379 -0.337874 0.896687 1.51082 0.525312
-145.8 -1.57298 -0.351652 0.904929 1.60511 0.599286
-141.882 -1.18652 -0.280311 0.784885 1.18091 0.243949
-142.778 -1.23976 -0.294596 0.811942 1.27185 0.290393
-143.702 -1.29639 -0.309126 0.836321 1.3654 0.342763
-144.658 -1.35655 -0.323759 0.857167 1.46132 0.401658
-145.651 -1.42033 -0.338347 0.873505 1.55926 0.467763
-146.694 -1.48778 -0.35276 0.884153 1.65871 0.541924
-142.652 -1.11137 -0.278408 0.748747 1.21197 0.186654
-143.583 -1.16107 -0.293027 0.77743 1.30668 0.231872
-144.541 -1.2144 -0.307951 0.803675 1.40437 0.283195
-145.527 -1.27156 -0.323044 0.826634 1.50483 0.341284
-146.548 -1.33268 -0.338147 0.845322 1.60768 0.40697
-147.611 -1.39796 -0.353122 0.858553 1.71258 0.480988
-143.428 -1.03361 -0.276043 0.707329 1.24227 0.126964
-144.398 -1.0794 -0.290919 0.737563 1.34084 0.170705
-145.392 -1.12904 -0.306168 0.765625 1.44281 0.220711
-146.412 -1.18279 -0.321655 0.790691 1.54802 0.277713
-147.464 -1.24094 -0.337269 0.81174 1.65619 0.34268
-143.217 -0.915338 -0.258475 0.627562 1.17292 0.0283719
-144.207 -0.95328 -0.273128 0.660441 1.27162 0.0648611
-145.218 -0.994807 -0.288209 0.69208 1.37421 0.106865
-146.252 -1.04034 -0.303707 0.721875 1.4806 0.155245
-147.311 -1.09023 -0.319511 0.748999 1.59073 0.210833
-148.397 -1.14487 -0.335519 0.772456 1.7044 0.27467
-143.953 -0.837332 -0.254926 0.573889 1.19772 -0.0339114
-144.987 -0.870489 -0.269608 0.607767 1.30003 0.00040576
-146.043 -0.90738 -0.284823 0.640726 1.40662 0.0403591
-147.12 -0.948378 -0.300481 0.672128 1.51756 0.0867608
-148.22 -0.993991 -0.316538 0.701246 1.63278 0.140582
-149.345 -1.04457 -0.332837 0.72704 1.7522 0.20285
-141.563 -0.691404 -0.210176 0.4106 0.930244 -0.166684
-142.582 -0.710652 -0.223068 0.444891 1.0231 -0.147901
-143.623 -0.732538 -0.236616 0.479628 1.12006 -0.125168
-144.684 -0.75734 -0.250752 0.514514 1.22135 -0.0981756
-145.764 -0.785425 -0.265436 0.549204 1.32725 -0.0662869
-146.867 -0.817241 -0.280665 0.583266 1.43794 -0.0287636
-147.99 -0.853249 -0.29638 0.616105 1.55353 0.0152643
-149.136 -0.894006 -0.312552 0.647048 1.67408 0.0668504
-142.146 -0.625723 -0.205824 0.344832 0.944155 -0.225055
-143.211 -0.639633 -0.218503 0.379116 1.03948 -0.208704
-144.298 -0.656187 -0.231907 0.414001 1.13916 -0.188533
-145.406 -0.67559 -0.245897 0.449252 1.24363 -0.164222
-146.536 -0.698225 -0.260471 0.48455 1.35317 -0.135103
-147.686 -0.724556 -0.275605 0.519491 1.46801 -0.100395
-148.859 -0.755113 -0.291263 0.553547 1.58832 -0.0591811
-150.054 -0.790523 -0.307443 0.586102 1.71429 -0.0103818
-142.715 -0.559092 -0.20079 0.274052 0.956802 -0.284147
-143.825 -0.567609 -0.213276 0.308097 1.05447 -0.270353
-144.959 -0.578704 -0.226518 0.342862 1.15682 -0.253043
-146.117 -0.592423 -0.240305 0.378165 1.26456 -0.231828
-147.296 -0.609126 -0.254577 0.413784 1.37793 -0.20579
-148.498 -0.629593 -0.269491 0.449302 1.49692 -0.174307
-149.722 -0.654294 -0.284994 0.484265 1.62187 -0.136396
-150.97 -0.68372 -0.30099 0.518135 1.75319 -0.0909286
19.1338 -9.07429 -0.27557 -1.08213 0.402091 -0.813469
18.3992 -9.149 -0.287686 -1.10257 0.444349 -0.879304
20.3723 -9.09454 -0.275171 -1.06977 0.35587 -0.839156
19.6916 -9.16996 -0.287841 -1.09183 0.397862 -0.907608
18.9839 -9.24899 -0.300591 -1.11073 0.443951 -0.978114
18.2505 -9.33223 -0.313431 -1.12567 0.494862 -1.0502
17.4951 -9.41997 -0.3261 -1.13583 0.550752 -1.12395
16.7225 -9.51287 -0.338479 -1.14037 0.611865 -1.19911
15.9393 -9.61172 -0.350447 -1.13827 0.678475 -1.27532
15.1561 -9.71748 -0.361815 -1.12859 0.750889 -1.35188
14.3848 -9.83105 -0.372365 -1.11041 0.829218 -1.42798
21.0323 -9.19091 -0.287743 -1.07659 0.349036 -0.93573
20.378 -9.27043 -0.301014 -1.09715 0.394968 -1.00895
19.6933 -9.35406 -0.314413 -1.11389 0.445798 -1.08428
18.9798 -9.44211 -0.327732 -1.12598 0.501852 -1.16153
18.2418 -9.53519 -0.340829 -1.1325 0.563431 -1.2404
17.4857 -9.63404 -0.353537 -1.1324 0.63087 -1.32044
16.7199 -9.73977 -0.365747 -1.12454 0.704605 -1.40102
22.4231 -9.21156 -0.287242 -1.05655 0.297952 -0.963675
21.8271 -9.29169 -0.301031 -1.07888 0.343404 -1.03982
21.1959 -9.37581 -0.314988 -1.09757 0.393987 -1.11832
20.53 -9.46423 -0.328925 -1.11172 0.450073 -1.19899
19.8324 -9.55753 -0.342695 -1.12037 0.512044 -1.28157
19.1089 -9.65648 -0.356122 -1.12243 0.58033 -1.3656
18.3654 -9.76191 -0.369017 -1.11667 0.655298 -1.45058
23.8625 -9.23196 -0.28638 -1.03151 0.244463 -0.991328
23.3304 -9.31275 -0.300642 -1.05562 0.289263 -1.07047
22.7584 -9.3974 -0.315115 -1.07629 0.339426 -1.15223
22.1461 -9.48624 -0.329631 -1.09259 0.395381 -1.23645
21.4947 -9.57981 -0.344039 -1.1035 0.457591 -1.32292
20.8076 -9.67895 -0.358226 -1.10781 0.526607 -1.41123
25.3494 -9.25199 -0.285127 -1.00118 0.188521 -1.01862
24.8873 -9.33348 -0.299806 -1.02709 0.232465 -1.10083
24.3808 -9.41871 -0.314745 -1.04976 0.282001 -1.18595
23.8284 -9.50802 -0.329792 -1.06827 0.337622 -1.27387
23.2298 -9.60192 -0.344797 -1.08156 0.399878 -1.36438
22.5866 -9.70119 -0.359634 -1.08837 0.469425 -1.45715
26.8827 -9.27155 -0.283448 -0.965328 0.130088 -1.04547
26.4967 -9.35375 -0.298477 -0.992976 0.17294 -1.13083
26.0625 -9.43962 -0.313824 -1.01764 0.221604 -1.21943
25.5771 -9.52946 -0.329346 -1.0384 0.276643 -1.31117
25.0392 -9.62375 -0.344885 -1.05418 0.33876 -1.40584
24.4474 -9.72314 -0.360292 -1.06369 0.408514 -1.50327
28.4604 -9.29048 -0.281297 -0.923678 0.0691476 -1.0718
28.1572 -9.37341 -0.296602 -0.953001 0.110637 -1.16039
27.8024 -9.45996 -0.312292 -0.979622 0.158141 -1.25257
27.3915 -9.55039 -0.328225 -1.00263 0.212303 -1.34829
26.9208 -9.64521 -0.344295 -1.0209 0.273967 -1.44745
30.2452 -9.22799 -0.263512 -0.843454 -0.028835 -1.00941
30.0801 -9.30858 -0.278603 -0.876009 0.00567521 -1.09748
29.8668 -9.39231 -0.294123 -0.906868 0.045528 -1.18943
29.5987 -9.47957 -0.31008 -0.935363 0.0915415 -1.2853
29.2705 -9.57065 -0.326348 -0.960576 0.144476 -1.38514
28.8768 -9.666 -0.342831 -0.981415 0.205262 -1.4889
31.8072 -9.24433 -0.260144 -0.788331 -0.0926448 -1.03149
31.7398 -9.32567 -0.275285 -0.821985 -0.0602617 -1.12257
31.6225 -9.41025 -0.290968 -0.854295 -0.0223784 -1.21787
31.4491 -9.49826 -0.307104 -0.884538 0.0217678 -1.31754
31.2116 -9.59008 -0.323657 -0.911904 0.0730872 -1.42161
30.9043 -9.68599 -0.340443 -0.935239 0.132527 -1.53017
33.0574 -9.02981 -0.214315 -0.62148 -0.222043 -0.795722
33.2042 -9.10368 -0.227615 -0.656525 -0.204828 -0.877459
33.3196 -9.18019 -0.241587 -0.691777 -0.183742 -0.963088
33.3985 -9.25947 -0.256168 -0.726901 -0.158527 -1.0528
33.4346 -9.34165 -0.271327 -0.761482 -0.128534 -1.1469
33.4211 -9.42702 -0.287043 -0.795016 -0.0930252 -1.24565
33.3502 -9.5158 -0.303258 -0.826833 -0.0511691 -1.34921
33.2135 -9.60836 -0.319947 -0.85617 -0.00197053 -1.45775
34.3531 -9.04144 -0.210129 -0.552887 -0.282074 -0.80904
34.6054 -9.11595 -0.223226 -0.587974 -0.267317 -0.8929
34.8276 -9.19325 -0.237068 -0.623439 -0.248809 -0.980853
35.0147 -9.27329 -0.251522 -0.658991 -0.226268 -1.07327
35.1606 -9.35627 -0.266583 -0.694264 -0.199023 -1.17047
35.2578 -9.4424 -0.282225 -0.72879 -0.166296 -1.27272
35.2975 -9.53193 -0.298406 -0.761958 -0.127197 -1.38027
35.2704 -9.62526 -0.315121 -0.793051 -0.0807073 -1.49337
35.657 -9.05158 -0.205271 -0.478724 -0.342838 -0.821588
36.0168 -9.12679 -0.218185 -0.513605 -0.330662 -0.907484
36.3483 -9.20486 -0.231885 -0.548995 -0.315037 -0.997756
36.6486 -9.2857 -0.246166 -0.584668 -0.295605 -1.09303
36.9115 -9.36926 -0.260924 -0.620319 -0.271465 -1.19354
37.1261 -9.45613 -0.276359 -0.655502 -0.241968 -1.29935
37.2837 -9.54645 -0.292412 -0.689687 -0.206147 -1.41083
37.3765 -9.64047 -0.308969 -0.722232 -0.162942 -1.52844
-78.9416 -4.6152 -0.273748 -5.55311 0.752459 -0.206339
-80.0665 -4.68264 -0.285789 -5.5562 0.8234 -0.218148
-78.4352 -4.58923 -0.273401 -5.62688 0.735109 -0.247006
-79.5629 -4.65388 -0.286004 -5.63289 0.807379 -0.260522
-80.6829 -4.72485 -0.298703 -5.63988 0.884195 -0.272781
-81.7875 -4.80308 -0.311485 -5.64826 0.965765 -0.28296
-82.8672 -4.88929 -0.324111 -5.65851 1.0523 -0.290998
-83.9137 -4.98442 -0.336462 -5.67129 1.14391 -0.29656
-84.9171 -5.08957 -0.348422 -5.68752 1.24062 -0.299226
-85.8685 -5.20576 -0.359814 -5.70833 1.34216 -0.298324
-86.7597 -5.33393 -0.370436 -5.73498 1.44809 -0.293181
-78.9709 -4.62656 -0.285979 -5.71214 0.789646 -0.304118
-80.0921 -4.69453 -0.29919 -5.7219 0.867899 -0.318051
-81.2008 -4.76978 -0.312534 -5.73275 0.951333 -0.330241
-82.2876 -4.85308 -0.325809 -5.74504 1.04008 -0.340315
-83.3433 -4.94543 -0.338878 -5.75942 1.13427 -0.347864
-84.357 -5.04792 -0.351581 -5.77674 1.2339 -0.352383
-85.319 -5.16186 -0.363812 -5.79814 1.33889 -0.353148
-78.2847 -4.60062 -0.285583 -5.79391 0.77028 -0.34887
-79.4078 -4.66543 -0.29931 -5.80675 0.849866 -0.364821
-80.5215 -4.73746 -0.313214 -5.82035 0.934949 -0.379034
-81.6159 -4.81758 -0.327107 -5.83502 1.02573 -0.39114
-82.681 -4.90685 -0.340846 -5.85131 1.12241 -0.400709
-83.7061 -5.00641 -0.354263 -5.87007 1.22504 -0.407149
-84.679 -5.11757 -0.36718 -5.89219 1.33362 -0.40989
-77.5012 -4.57629 -0.284846 -5.87815 0.749115 -0.394809
-78.625 -4.63774 -0.299049 -5.89439 0.829943 -0.41291
-79.7425 -4.70634 -0.313472 -5.91107 0.916598 -0.429298
-80.8439 -4.78304 -0.327944 -5.92844 1.00935 -0.443602
-81.9187 -4.86895 -0.342318 -5.94698 1.10847 -0.455371
-82.9556 -4.96543 -0.356489 -5.96741 1.21418 -0.463982
-76.6162 -4.55372 -0.283742 -5.96476 0.726096 -0.441932
-77.7386 -4.61162 -0.298368 -5.98474 0.808055 -0.462332
-78.8584 -4.67658 -0.313262 -6.00486 0.896183 -0.481069
-79.9658 -4.7496 -0.328265 -6.0253 0.990822 -0.49776
-81.0502 -4.83184 -0.343235 -6.04643 1.09232 -0.511929
-82.0995 -4.92475 -0.358052 -6.06889 1.20104 -0.522925
-75.6253 -4.53307 -0.282236 -6.05363 0.701172 -0.490224
-76.7437 -4.58721 -0.297223 -6.0777 0.784134 -0.513094
-77.8637 -4.64831 -0.312532 -6.10163 0.873611 -0.534374
-78.9755 -4.7174 -0.328014 -6.12553 0.970019 -0.553666
-80.0688 -4.79567 -0.343522 -6.14972 1.07379 -0.570374
-81.1307 -4.88456 -0.358899 -6.17459 1.18537 -0.584068
-74.5242 -4.51447 -0.280286 -6.14461 0.674308 -0.539662
-75.6354 -4.56468 -0.295565 -6.17313 0.758125 -0.565193
-76.7527 -4.62171 -0.311227 -6.20128 0.8488 -0.589235
-77.8668 -4.68662 -0.327126 -6.22907 0.946833 -0.611372
-78.9674 -4.76073 -0.343166 -6.25671 1.05285 -0.631006
-72.224 -4.45753 -0.262747 -6.20357 0.567335 -0.560891
-73.3088 -4.49806 -0.277837 -6.23748 0.645427 -0.590194
-74.4088 -4.54418 -0.29334 -6.27086 0.729994 -0.618617
-75.5199 -4.59695 -0.309282 -6.30364 0.821692 -0.645666
-76.6331 -4.65743 -0.325527 -6.33579 0.921173 -0.670923
-77.7387 -4.72698 -0.341983 -6.3674 1.02917 -0.693782
-70.9092 -4.44749 -0.259619 -6.29289 0.536382 -0.6096
-71.9737 -4.48397 -0.274786 -6.33209 0.614676 -0.641866
-73.0593 -4.52589 -0.290482 -6.37069 0.699743 -0.673351
-74.1598 -4.57419 -0.306623 -6.40854 0.79226 -0.703678
-75.2693 -4.63007 -0.32318 -6.44551 0.892972 -0.73232
-76.3755 -4.69475 -0.33994 -6.4816 1.00271 -0.758776
-66.5323 -4.3666 -0.213948 -6.24652 0.303929 -0.551884
-67.4827 -4.38778 -0.227293 -6.29231 0.365156 -0.587712
-68.4652 -4.4121 -0.241321 -6.33794 0.431669 -0.623486
-69.4778 -4.44007 -0.255949 -6.38328 0.503748 -0.65915
-70.5179 -4.47242 -0.271153 -6.42814 0.582084 -0.694536
-71.5827 -4.50995 -0.286908 -6.47235 0.66743 -0.729378
-72.6672 -4.55362 -0.303153 -6.51571 0.760536 -0.763282
-73.7665 -4.60461 -0.319866 -6.55806 0.862272 -0.795738
-65.0906 -4.37328 -0.210036 -6.32024 0.271021 -0.59361
-66.0024 -4.3908 -0.223203 -6.37177 0.331771 -0.632076
-66.9491 -4.41137 -0.237122 -6.42327 0.397821 -0.670667
-67.9279 -4.43538 -0.251653 -6.47451 0.469598 -0.709449
-68.9374 -4.4635 -0.266791 -6.52535 0.547794 -0.748218
-69.9752 -4.49651 -0.282504 -6.57555 0.633186 -0.786693
-71.0376 -4.53539 -0.298747 -6.62485 0.726627 -0.824497
-72.1204 -4.58131 -0.315512 -6.67306 0.829043 -0.861159
-63.5494 -4.38259 -0.205527 -6.39383 0.237409 -0.635554
-64.4183 -4.39657 -0.218538 -6.45124 0.297567 -0.676682
-65.3234 -4.41348 -0.232345 -6.50874 0.362975 -0.718287
-66.2626 -4.43356 -0.246753 -6.56618 0.434272 -0.76056
-67.2327 -4.45725 -0.261609 -6.62329 0.512257 -0.803075
-68.2357 -4.4857 -0.277143 -6.67985 0.597466 -0.845481
-69.2685 -4.51976 -0.293297 -6.73553 0.690865 -0.887449
-70.3265 -4.56039 -0.309942 -6.79012 0.793539 -0.928608
-41.2165 -6.5978 -0.275436 5.48844 0.208854 0.688055
-41.9014 -6.69748 -0.287611 5.49187 0.219635 0.749671
-40.8667 -6.55288 -0.274996 5.56766 0.242045 0.676547
-41.4988 -6.65158 -0.287732 5.57414 0.25449 0.739389
-42.2408 -6.7521 -0.300582 5.58194 0.265603 0.805871
-43.1106 -6.85422 -0.313516 5.59153 0.274554 0.876175
-44.1245 -6.95756 -0.326301 5.60344 0.281237 0.950546
-45.3016 -7.06191 -0.33883 5.61847 0.285224 1.0291
-46.6635 -7.167 -0.350984 5.63763 0.286049 1.11185
-48.2309 -7.27262 -0.362586 5.66218 0.283066 1.19869
-50.0232 -7.3786 -0.373438 5.69359 0.275576 1.28936
-41.1478 -6.60003 -0.287607 5.65926 0.290223 0.727737
-41.8343 -6.69935 -0.30096 5.66996 0.302969 0.795522
-42.6474 -6.80047 -0.314452 5.68211 0.313908 0.867496
-43.6048 -6.90303 -0.327885 5.69615 0.322611 0.943806
-44.7263 -7.00678 -0.341127 5.7128 0.328589 1.02456
-46.0343 -7.11137 -0.354022 5.73305 0.331287 1.10976
-47.5533 -7.21663 -0.366459 5.75816 0.329981 1.19942
-40.85 -6.54245 -0.287123 5.74715 0.326733 0.714816
-41.4777 -6.64055 -0.300982 5.76109 0.341452 0.783847
-42.2303 -6.74064 -0.315026 5.77612 0.354377 0.857327
-43.1264 -6.84234 -0.329071 5.79262 0.365093 0.935429
-44.1874 -6.94537 -0.342977 5.81124 0.373102 1.01831
-45.4365 -7.04942 -0.356578 5.83294 0.377758 1.10604
-46.8999 -7.15413 -0.369704 5.85876 0.378457 1.19868
-40.6099 -6.4787 -0.286302 5.83778 0.364046 0.700447
-41.1762 -6.57541 -0.300629 5.8553 0.380847 0.770673
-41.865 -6.6743 -0.315184 5.87356 0.395897 0.845616
-42.6961 -6.77501 -0.329798 5.89288 0.408786 0.925486
-43.692 -6.87723 -0.344331 5.91381 0.419004 1.0105
-44.8792 -6.9807 -0.35868 5.93721 0.42587 1.10086
-40.4315 -6.40853 -0.28512 5.93107 0.402141 0.684569
-40.9341 -6.50364 -0.299864 5.95253 0.421146 0.755925
-41.5562 -6.60113 -0.314881 5.9744 0.438472 0.832276
-42.3185 -6.70067 -0.330018 5.99692 0.453711 0.913874
-43.2445 -6.80196 -0.345135 6.02054 0.466334 1.001
-44.362 -6.9047 -0.360124 6.04602 0.475626 1.09394
-40.319 -6.3317 -0.28355 6.02689 0.440989 0.667127
-40.7556 -6.42495 -0.298649 6.05267 0.462335 0.739534
-41.3083 -6.52081 -0.314073 6.07856 0.482104 0.817217
-41.9983 -6.61897 -0.329678 6.1047 0.499884 0.900485
-42.8496 -6.71915 -0.345327 6.13149 0.515034 0.989673
-43.8908 -6.82097 -0.360855 6.15944 0.527061 1.08512
-40.2765 -6.24795 -0.281553 6.12509 0.480557 0.648074
-40.6454 -6.33904 -0.29694 6.1556 0.50439 0.721436
-41.1263 -6.43299 -0.312708 6.18593 0.526787 0.80036
-41.7407 -6.52951 -0.32872 6.21616 0.547319 0.885217
-42.5145 -6.6284 -0.34489 6.24656 0.565356 0.976507
-40.0968 -6.07147 -0.263908 6.18939 0.493487 0.558352
-40.3081 -6.15705 -0.279095 6.22545 0.520784 0.627326
-40.6079 -6.24563 -0.29469 6.26114 0.547289 0.701584
-41.015 -6.33734 -0.310733 6.29637 0.57251 0.781635
-41.5511 -6.43191 -0.327081 6.33118 0.596026 0.867978
-42.2421 -6.52918 -0.343654 6.36572 0.617209 0.961181
-40.2711 -5.97616 -0.260783 6.28613 0.53174 0.535585
-40.4179 -6.05862 -0.276053 6.32786 0.561712 0.605
-40.6479 -6.14445 -0.291846 6.36908 0.591009 0.679959
-40.9797 -6.23353 -0.308083 6.40969 0.619267 0.761
-41.4351 -6.3259 -0.324745 6.44959 0.645969 0.848695
-42.04 -6.42111 -0.341604 6.48882 0.670614 0.943671
-40.6102 -5.65678 -0.214898 6.23904 0.471536 0.331601
-40.5399 -5.72577 -0.228343 6.28757 0.50454 0.386992
-40.5093 -5.79806 -0.24247 6.33599 0.537525 0.446833
-40.5282 -5.87367 -0.257185 6.38418 0.570458 0.511349
-40.6101 -5.9527 -0.272485 6.43197 0.603211 0.581082
-40.7698 -6.03522 -0.288339 6.47918 0.635539 0.656587
-41.0254 -6.12123 -0.30468 6.52564 0.667065 0.738457
-41.3983 -6.2108 -0.321489 6.57125 0.697302 0.827381
-41.1149 -5.55928 -0.211082 6.31931 0.50326 0.30632
-40.9939 -5.62405 -0.224351 6.37405 0.538525 0.361535
-40.9094 -5.69226 -0.238373 6.42879 0.573937 0.421234
-40.8702 -5.76386 -0.253011 6.48333 0.609593 0.485769
-40.8883 -5.83898 -0.268257 6.53752 0.645331 0.555683
-40.9781 -5.91772 -0.284077 6.59114 0.6809 0.631564
-41.1571 -6.00015 -0.300422 6.64394 0.715944 0.714076
-41.4466 -6.0864 -0.317281 6.69576 0.750014 0.803968
-41.698 -5.45574 -0.206745 6.39958 0.53509 0.280306
-41.5292 -5.51602 -0.219872 6.46069 0.572605 0.335262
-41.3938 -5.57981 -0.233802 6.52192 0.610586 0.394668
-41.2988 -5.64701 -0.248344 6.58314 0.649278 0.459089
-41.2537 -5.71747 -0.263316 6.64407 0.688299 0.529189
-41.2755 -5.79183 -0.278974 6.70453 0.727313 0.605289
-41.3802 -5.87015 -0.29525 6.76415 0.766041 0.688144
-41.5862 -5.95241 -0.311999 6.82277 0.804145 0.778673
0 0 0 0 0 0
0 0 0 0 0 0
0 0 0 0 0 0
0 0 0 0 0 0
0 0 0 0 0 0
0 0 0 0 0 0
0 0 0 0 0 0
0 0 0 0 0 0
0 0 0 0 0 0
0 0 0 0 0 0
0 0 0 0 0 0
0 0 0 0 0 0
0 0 0 0 0 0
0 0 0 0 0 0
0 0 0 0 0 0
0 0 0 0 0 0
0 0 0 0 0 0
0 0 0 0 0 0
0 0 0 0 0 0
0 0 0 0 0 0
0 0 0 0 0 0
0 0 0 0 0 0
0 0 0 0 0 0
0 0 0 0 0 0
0 0 0 0 0 0
0 0 0 0 0 0
0 0 0 0 0 0
0 0 0 0 0 0
0 0 0 0 0 0
0 0 0 0 0 0
0 0 0 0 0 0
0 0 0 0 0 0
0 0 0 0 0 0
0 0 0 0 0 0
0 0 0 0 0 0
0 0 0 0 0 0
0 0 0 0 0 0
0 0 0 0 0 0
0 0 0 0 0 0
0 0 0 0 0 0
0 0 0 0 0 0
0 0 0 0 0 0
0 0 0 0 0 0
0 0 0 0 0 0
0 0 0 0 0 0
0 0 0 0 0 0
0 0 0 0 0 0
0 0 0 0 0 0
0 0 0 0 0 0
0 0 0 0 0 0
0 0 0 0 0 0
0 0 0 0 0 0
0 0 0 0 0 0
0 0 0 0 0 0
0 0 0 0 0 0
0 0 0 0 0 0
0 0 0 0 0 0
0 0 0 0 0 0
0 0 0 0 0 0
0 0 0 0 0 0
0 0 0 0 0 0
0 0 0 0 0 0
0 0 0 0 0 0
0 0 0 0 0 0
0 0 0 0 0 0
0 0 0 0 0 0
0 0 0 0 0 0
0 0 0 0 0 0
0 0 0 0 0 0
0 0 0 0 0 0
0 0 0 0 0 0
0 0 0 0 0 0
0 0 0 0 0 0
0 0 0 0 0 0
0 0 0 0 0 0
0 0 0 0 0 0
0 0 0 0 0 0
0 0 0 0 0 0
0 0 0 0 0 0
0 0 0 0 0 0
0 0 0 0 0 0
0 0 0 0 0 0
0 0 0 0 0 0
0 0 0 0 0 0
-139.56 -2.12535 -0.274962 1.7207 0.579836 0.235422
-140.632 -2.21783 -0.287156 1.73781 0.623736 0.259925
-140.208 -2.0216 -0.274389 1.71597 0.598745 0.208252
-141.291 -2.10924 -0.287154 1.73501 0.644565 0.232656
-142.456 -2.20107 -0.300055 1.74935 0.691378 0.259248
-143.716 -2.2972 -0.313052 1.75801 0.738717 0.288597
-145.084 -2.39752 -0.325905 1.76001 0.786718 0.320745
-146.579 -2.50197 -0.338512 1.75432 0.835176 0.355825
-148.224 -2.61038 -0.350772 1.73976 0.883793 0.393952
-150.045 -2.72238 -0.362487 1.7152 0.932159 0.43531
-152.073 -2.83754 -0.373467 1.6797 0.979776 0.480015
-141.967 -1.99614 -0.286888 1.72648 0.66529 0.203954
-143.139 -2.08293 -0.30028 1.74277 0.714033 0.23053
-144.4 -2.17437 -0.313826 1.75352 0.76376 0.259873
-145.765 -2.2705 -0.327327 1.7577 0.814301 0.292156
-147.25 -2.37125 -0.340658 1.7542 0.865388 0.32754
-148.878 -2.47647 -0.353668 1.74177 0.916652 0.366176
-150.678 -2.58595 -0.366229 1.71914 0.967692 0.408328
-142.658 -1.87845 -0.286281 1.71198 0.68593 0.173931
-143.839 -1.95985 -0.300174 1.73037 0.736831 0.20026
-145.105 -2.04622 -0.31427 1.7434 0.788867 0.22951
-146.469 -2.13766 -0.328382 1.74995 0.84186 0.261859
-147.947 -2.23421 -0.342378 1.74884 0.895565 0.297508
-149.561 -2.33576 -0.356097 1.73879 0.949593 0.33668
-151.338 -2.4422 -0.36936 1.71836 1.00363 0.379561
-143.364 -1.75619 -0.285342 1.69119 0.706364 0.142441
-144.557 -1.83174 -0.2997 1.71173 0.759493 0.16843
-145.831 -1.91255 -0.314303 1.72711 0.813927 0.19749
-147.196 -1.99882 -0.328986 1.73617 0.869497 0.229816
-148.669 -2.09069 -0.34361 1.73765 0.925969 0.265651
-150.272 -2.18825 -0.358079 1.73012 0.98302 0.305305
-144.082 -1.6294 -0.284052 1.66377 0.726535 0.109446
-145.291 -1.69858 -0.298824 1.68648 0.781963 0.134983
-146.575 -1.77331 -0.313887 1.70427 0.838892 0.163736
-147.945 -1.85387 -0.329092 1.71595 0.897165 0.195929
-149.416 -1.94052 -0.3443 1.7202 0.956563 0.231848
-151.009 -2.03345 -0.359412 1.71552 1.01678 0.271868
-144.812 -1.49812 -0.282384 1.62938 0.746379 0.0749156
-146.039 -1.56039 -0.297508 1.65424 0.80418 0.0998696
-147.336 -1.62847 -0.312976 1.67447 0.863704 0.128175
-148.714 -1.70274 -0.328649 1.68885 0.924812 0.160095
-150.187 -1.78353 -0.344399 1.69605 0.987231 0.196021
-151.772 -1.87117 -0.360047 1.69446 1.05081 0.236188
-145.551 -1.3624 -0.280303 1.58766 0.765833 0.0388286
-146.799 -1.41719 -0.295715 1.61463 0.826079 0.0630458
-148.113 -1.47801 -0.311526 1.63728 0.8883 0.0907383
-149.503 -1.54535 -0.327604 1.6544 0.952379 0.122217
-150.981 -1.61973 -0.343877 1.66459 1.01814 0.157969
-145.078 -1.18121 -0.262597 1.50623 0.724283 -0.0191383
-146.296 -1.22239 -0.277789 1.53828 0.78479 0.00114679
-147.568 -1.26904 -0.293401 1.56726 0.847601 0.0244792
-148.903 -1.32197 -0.309487 1.59228 0.912621 0.0513657
-150.308 -1.38169 -0.325902 1.61213 0.97981 0.0822024
-151.796 -1.44883 -0.342576 1.62542 1.04902 0.117514
-145.795 -1.04556 -0.259425 1.44732 0.740515 -0.0571577
-147.043 -1.07798 -0.274707 1.48084 0.80334 -0.0380939
-148.344 -1.11604 -0.290524 1.51174 0.868698 -0.015846
-149.703 -1.16039 -0.306805 1.53901 0.936618 0.0100118
-151.128 -1.21186 -0.323548 1.5616 1.00702 0.0399958
-152.628 -1.27093 -0.340501 1.57795 1.07987 0.0745872
-142.925 -0.864339 -0.213612 1.26859 0.576753 -0.133984
-144.08 -0.874408 -0.227035 1.30644 0.634035 -0.1239
-145.274 -0.888312 -0.241133 1.34382 0.693815 -0.111436
-146.509 -0.906488 -0.255832 1.38027 0.756193 -0.0965304
-147.79 -0.929591 -0.271146 1.41513 0.821348 -0.0788291
-149.121 -0.958313 -0.28703 1.4477 0.889362 -0.0579248
-150.508 -0.993366 -0.303418 1.47706 0.960276 -0.0333477
-151.958 -1.03561 -0.320307 1.50217 1.03412 -0.00452584
-143.521 -0.750688 -0.209823 1.19182 0.586345 -0.170112
-144.713 -0.751264 -0.223075 1.22991 0.645274 -0.161471
-145.944 -0.755595 -0.237084 1.26776 0.706854 -0.150506
-147.216 -0.76407 -0.251723 1.30491 0.771343 -0.137156
-148.533 -0.777296 -0.266989 1.34081 0.838906 -0.121041
-149.897 -0.796003 -0.282848 1.3748 0.909645 -0.101726
-151.315 -0.821015 -0.299248 1.40602 0.983645 -0.07871
-152.792 -0.85325 -0.316187 1.43345 1.061 -0.0514204
-144.102 -0.635249 -0.205602 1.10772 0.595483 -0.206912
-145.331 -0.626102 -0.218723 1.14575 0.656015 -0.199739
-146.601 -0.620554 -0.232656 1.18374 0.719397 -0.190462
-147.913 -0.618872 -0.247225 1.22128 0.786156 -0.178967
-149.265 -0.621415 -0.262219 1.25782 0.856398 -0.164648
-150.666 -0.629406 -0.277928 1.29282 0.929949 -0.147184
-152.118 -0.643705 -0.294282 1.32552 1.00699 -0.126049
-153.628 -0.664994 -0.311127 1.35494 1.08783 -0.100628
0 0 0 0 0 0
0 0 0 0 0 0
0 0 0 0 0 0
0 0 0 0 0 0
0 0 0 0 0 0
0 0 0 0 0 0
0 0 0 0 0 0
0 0 0 0 0 0
0 0 0 0 0 0
0 0 0 0 0 0
0 0 0 0 0 0
0 0 0 0 0 0
0 0 0 0 0 0
0 0 0 0 0 0
0 0 0 0 0 0
0 0 0 0 0 0
0 0 0 0 0 0
0 0 0 0 0 0
0 0 0 0 0 0
0 0 0 0 0 0
0 0 0 0 0 0
0 0 0 0 0 0
0 0 0 0 0 0
0 0 0 0 0 0
0 0 0 0 0 0
0 0 0 0 0 0
0 0 0 0 0 0
0 0 0 0 0 0
0 0 0 0 0 0
0 0 0 0 0 0
0 0 0 0 0 0
0 0 0 0 0 0
0 0 0 0 0 0
0 0 0 0 0 0
0 0 0 0 0 0
0 0 0 0 0 0
0 0 0 0 0 0
0 0 0 0 0 0
0 0 0 0 0 0
0 0 0 0 0 0
0 0 0 0 0 0
0 0 0 0 0 0
0 0 0 0 0 0
0 0 0 0 0 0
0 0 0 0 0 0
0 0 0 0 0 0
0 0 0 0 0 0
0 0 0 0 0 0
0 0 0 0 0 0
0 0 0 0 0 0
0 0 0 0 0 0
0 0 0 0 0 0
0 0 0 0 0 0
0 0 0 0 0 0
0 0 0 0 0 0
0 0 0 0 0 0
0 0 0 0 0 0
0 0 0 0 0 0
0 0 0 0 0 0
0 0 0 0 0 0
0 0 0 0 0 0
0 0 0 0 0 0
0 0 0 0 0 0
0 0 0 0 0 0
0 0 0 0 0 0
0 0 0 0 0 0
0 0 0 0 0 0
0 0 0 0 0 0
0 0 0 0 0 0
0 0 0 0 0 0
0 0 0 0 0 0
0 0 0 0 0 0
0 0 0 0 0 0
0 0 0 0 0 0
0 0 0 0 0 0
0 0 0 0 0 0
0 0 0 0 0 0
0 0 0 0 0 0
0 0 0 0 0 0
0 0 0 0 0 0
0 0 0 0 0 0
0 0 0 0 0 0
0 0 0 0 0 0
0 0 0 0 0 0
9.85566 -9.4006 -0.278884 -1.93725 0.162798 -0.376621
8.80398 -9.50528 -0.291519 -1.95339 0.181147 -0.410163
11.7397 -9.40551 -0.278558 -1.9352 0.136241 -0.38837
10.7743 -9.50917 -0.29178 -1.95338 0.154764 -0.423145
9.76909 -9.62008 -0.30517 -1.96636 0.174713 -0.459354
8.72603 -9.73908 -0.318674 -1.97308 0.196516 -0.496594
7.64967 -9.86704 -0.332055 -1.97249 0.219982 -0.535083
6.54634 -10.0052 -0.34521 -1.9635 0.244981 -0.574802
5.42503 -10.155 -0.358053 -1.94487 0.271383 -0.615633
4.29895 -10.3183 -0.370368 -1.91539 0.299071 -0.657208
3.18348 -10.4969 -0.381993 -1.87408 0.327807 -0.699071
12.8224 -9.51257 -0.291742 -1.94722 0.126891 -0.436059
11.9048 -9.62201 -0.305637 -1.96227 0.14712 -0.473444
10.9431 -9.73936 -0.319697 -1.97119 0.169259 -0.512306
9.93905 -9.86548 -0.333739 -1.97288 0.193227 -0.552573
8.89846 -10.0016 -0.347642 -1.96617 0.218929 -0.594168
7.83022 -10.1491 -0.361259 -1.94974 0.246256 -0.636918
6.74569 -10.3098 -0.374439 -1.92224 0.275126 -0.680507
14.9473 -9.51535 -0.291389 -1.93471 0.0975924 -0.448951
14.1242 -9.62339 -0.305791 -1.95198 0.11789 -0.487681
13.2506 -9.73913 -0.320413 -1.9633 0.140268 -0.528013
12.3273 -9.86341 -0.33508 -1.9675 0.164677 -0.569903
11.3582 -9.9974 -0.349661 -1.9633 0.191069 -0.613291
10.3514 -10.1425 -0.363991 -1.94933 0.219372 -0.657985
9.31528 -10.3005 -0.377905 -1.92411 0.249426 -0.703807
17.1492 -9.51746 -0.290697 -1.91547 0.066732 -0.461749
16.4287 -9.62412 -0.305572 -1.93503 0.0869983 -0.501844
15.6516 -9.73826 -0.320715 -1.94885 0.109526 -0.543678
14.8174 -9.86069 -0.335965 -1.9557 0.134302 -0.587233
13.928 -9.99254 -0.351188 -1.95422 0.161325 -0.632469
12.9884 -10.1353 -0.366284 -1.94291 0.190581 -0.679265
19.4269 -9.51882 -0.289645 -1.88915 0.0342676 -0.474436
18.8178 -9.62412 -0.304946 -1.91103 0.0543812 -0.51592
18.1464 -9.73665 -0.320562 -1.92741 0.0769425 -0.559292
17.4104 -9.85722 -0.336348 -1.93704 0.101981 -0.604555
16.61 -9.98692 -0.352169 -1.9385 0.129548 -0.651692
15.748 -10.1272 -0.367923 -1.93017 0.159688 -0.700622
21.7794 -9.51932 -0.288208 -1.85537 0.000164556 -0.486996
21.2909 -9.62324 -0.303876 -1.87956 0.0199805 -0.529897
20.7348 -9.73417 -0.319911 -1.89855 0.0424309 -0.574844
20.1072 -9.85288 -0.336178 -1.91105 0.0675927 -0.621862
19.4066 -9.98047 -0.352557 -1.91564 0.0956231 -0.670886
18.6327 -10.1182 -0.368862 -1.91059 0.126451 -0.722013
24.2045 -9.51882 -0.286353 -1.81376 -0.0356019 -0.499418
23.8465 -9.62137 -0.302324 -1.84021 -0.0162538 -0.543766
23.4162 -9.73069 -0.318718 -1.86181 0.00591001 -0.590326
22.908 -9.84755 -0.335406 -1.87724 0.0310208 -0.639149
22.3176 -9.97306 -0.352324 -1.88501 0.0593326 -0.690272
26.8484 -9.42179 -0.268337 -1.73178 -0.0892706 -0.468064
26.6991 -9.51718 -0.284073 -1.76392 -0.0730848 -0.511642
26.4827 -9.61833 -0.300251 -1.79256 -0.0543581 -0.557523
26.1892 -9.72605 -0.316936 -1.81671 -0.0326896 -0.605741
25.8124 -9.84105 -0.333978 -1.83509 -0.00784247 -0.656422
25.3456 -9.96441 -0.351311 -1.84618 0.0204865 -0.709635
29.2602 -9.41998 -0.265363 -1.67171 -0.127395 -0.478893
29.2634 -9.51413 -0.281213 -1.70546 -0.112241 -0.52382
29.197 -9.61395 -0.29762 -1.73619 -0.0943488 -0.57118
29.0521 -9.72005 -0.314518 -1.76279 -0.0734174 -0.621105
28.8181 -9.83331 -0.33192 -1.78412 -0.0490778 -0.67367
28.4888 -9.95441 -0.349547 -1.7985 -0.0210325 -0.72905
30.9022 -9.16591 -0.218217 -1.48834 -0.195397 -0.364508
31.2228 -9.24534 -0.232141 -1.52735 -0.188025 -0.404025
31.4992 -9.32883 -0.246754 -1.56569 -0.178539 -0.445706
31.7247 -9.41675 -0.261995 -1.60286 -0.166973 -0.48958
31.8904 -9.50965 -0.277891 -1.63812 -0.152991 -0.535871
31.9862 -9.60803 -0.294385 -1.67069 -0.136217 -0.584782
32.002 -9.71247 -0.311414 -1.69958 -0.116293 -0.636466
31.927 -9.82385 -0.328978 -1.72364 -0.0928016 -0.691073
32.916 -9.16425 -0.214616 -1.40887 -0.232139 -0.371804
33.4017 -9.2426 -0.228382 -1.4482 -0.226128 -0.412321
33.8453 -9.32507 -0.242929 -1.48712 -0.218042 -0.455052
34.24 -9.41186 -0.258137 -1.52508 -0.207892 -0.50019
34.5773 -9.50345 -0.274005 -1.56152 -0.195319 -0.547917
34.8466 -9.60032 -0.290499 -1.59568 -0.179925 -0.598428
35.0358 -9.70306 -0.307566 -1.62662 -0.161306 -0.651933
35.1328 -9.81249 -0.325201 -1.65322 -0.139059 -0.708622
34.9525 -9.16091 -0.210625 -1.32146 -0.269573 -0.379091
35.608 -9.23824 -0.224281 -1.3608 -0.264947 -0.420577
36.2245 -9.31966 -0.238781 -1.39993 -0.258447 -0.464378
36.7967 -9.40532 -0.253957 -1.4384 -0.250023 -0.510942
37.3176 -9.49524 -0.269562 -1.47558 -0.239122 -0.560378
37.7723 -9.59054 -0.285933 -1.51088 -0.225416 -0.6126
38.1468 -9.69161 -0.302994 -1.54347 -0.208458 -0.667877
38.4313 -9.79901 -0.320573 -1.57229 -0.18781 -0.726571
-96.6742 -4.54141 -0.276631 -5.28744 0.220328 -0.0191897
-98.0721 -4.64092 -0.289253 -5.29088 0.24842 -0.0213884
-95.979 -4.47861 -0.276362 -5.38319 0.205351 -0.0306579
-97.3616 -4.57293 -0.289582 -5.39011 0.233942 -0.0330504
-98.7385 -4.67769 -0.302993 -5.39925 0.264794 -0.0356845
-100.101 -4.79412 -0.316525 -5.41122 0.29796 -0.0380103
-101.438 -4.92346 -0.329979 -5.42678 0.333508 -0.0403254
-102.743 -5.06714 -0.343254 -5.44701 0.371452 -0.0427339
-104.006 -5.22683 -0.356264 -5.47325 0.411737 -0.0453233
-105.218 -5.4041 -0.368802 -5.5072 0.45403 -0.047989
-106.378 -5.60059 -0.38076 -5.55081 0.497865 -0.050596
-96.5256 -4.50622 -0.289606 -5.49304 0.218424 -0.0452633
-97.8842 -4.60537 -0.303529 -5.50551 0.249763 -0.0479396
-99.2298 -4.71622 -0.317624 -5.52035 0.28376 -0.0505923
-100.553 -4.84008 -0.331741 -5.53821 0.320366 -0.0532452
-101.845 -4.97846 -0.345763 -5.56012 0.359583 -0.0559458
-103.095 -5.13303 -0.359557 -5.5874 0.401347 -0.0587262
-104.295 -5.3056 -0.372965 -5.62168 0.445411 -0.0614952
-95.562 -4.44092 -0.289376 -5.59957 0.201966 -0.0580033
-96.9019 -4.53418 -0.303801 -5.61572 0.233717 -0.0609365
-98.2319 -4.63906 -0.31846 -5.6338 0.268315 -0.0638116
-99.5417 -4.75699 -0.333202 -5.65438 0.305779 -0.0666773
-100.821 -4.88955 -0.347901 -5.67839 0.346156 -0.0695743
-102.059 -5.03848 -0.362397 -5.70709 0.389385 -0.0724871
-103.245 -5.20573 -0.376556 -5.74194 0.435307 -0.0754696
-94.4644 -4.37723 -0.288831 -5.70967 0.184453 -0.071321
-95.7838 -4.46427 -0.303729 -5.72994 0.216526 -0.0745358
-97.0966 -4.56284 -0.318912 -5.75168 0.251647 -0.0776613
-98.392 -4.67442 -0.334234 -5.7754 0.289889 -0.0807587
-99.659 -4.8007 -0.34957 -5.80188 0.331351 -0.0838643
-100.886 -4.94368 -0.364828 -5.8323 0.376067 -0.0869697
-93.2271 -4.31537 -0.287953 -5.82328 0.165877 -0.08524
-94.5235 -4.39587 -0.30328 -5.84811 0.198171 -0.0887709
-95.817 -4.48775 -0.318938 -5.87397 0.233714 -0.0921838
-97.0966 -4.59257 -0.334793 -5.90128 0.272631 -0.0955422
-98.3506 -4.7121 -0.350721 -5.9307 0.31508 -0.0988753
-99.5663 -4.84843 -0.366634 -5.96329 0.361178 -0.102168
-91.8442 -4.25558 -0.286717 -5.94027 0.146239 -0.0997829
-93.1143 -4.32922 -0.302418 -5.97014 0.178641 -0.103675
-94.3857 -4.41404 -0.318499 -6.00062 0.214485 -0.107422
-95.6473 -4.51167 -0.334833 -6.03203 0.25395 -0.111083
-96.8878 -4.62395 -0.351316 -6.06495 0.297236 -0.11459
-98.0921 -4.75296 -0.367769 -6.10016 0.344535 -0.118161
-90.3097 -4.1981 -0.285093 -6.06051 0.12555 -0.11497
-91.5494 -4.26456 -0.301109 -6.09591 0.157932 -0.119281
-92.7951 -4.34195 -0.317553 -6.13154 0.193938 -0.123421
-94.0357 -4.43196 -0.33431 -6.1676 0.233803 -0.12744
-95.2601 -4.53659 -0.351324 -6.20456 0.27787 -0.131286
-87.4297 -4.09342 -0.267311 -6.14213 0.074802 -0.125973
-88.6181 -4.14324 -0.283092 -6.18374 0.103766 -0.130811
-89.8222 -4.20214 -0.299318 -6.22525 0.13606 -0.135619
-91.0375 -4.27174 -0.316061 -6.26659 0.172071 -0.140227
-92.2532 -4.3537 -0.333174 -6.30792 0.212165 -0.144673
-93.4582 -4.45006 -0.3506 -6.34956 0.256745 -0.148914
-85.6195 -4.04859 -0.264615 -6.26151 0.0525674 -0.141951
-86.7614 -4.09103 -0.280537 -6.30991 0.0810723 -0.147399
-87.9259 -4.14221 -0.29701 -6.35796 0.113065 -0.152719
-89.105 -4.20367 -0.31398 -6.40561 0.148911 -0.157884
-90.2926 -4.27725 -0.331473 -6.45283 0.189021 -0.162804
-91.4722 -4.3648 -0.349185 -6.49982 0.233876 -0.167553
-80.5677 -3.9412 -0.21754 -6.21461 -0.037153 -0.139651
-81.5598 -3.95792 -0.231561 -6.27083 -0.0176142 -0.146079
-82.5869 -3.97964 -0.246271 -6.32695 0.00464127 -0.15236
-83.6473 -4.00721 -0.261594 -6.38292 0.0295393 -0.158542
-84.7377 -4.04193 -0.277571 -6.43862 0.0575019 -0.164631
-85.854 -4.08504 -0.294153 -6.4938 0.0890193 -0.170612
-86.9901 -4.13802 -0.311273 -6.54837 0.124521 -0.176439
-88.1398 -4.20267 -0.328937 -6.60227 0.164482 -0.182035
-78.6262 -3.92435 -0.214245 -6.31482 -0.0586665 -0.154758
-79.5505 -3.93427 -0.228128 -6.37864 -0.0398264 -0.161869
-80.513 -3.94894 -0.242788 -6.44249 -0.0183358 -0.168809
-81.5102 -3.96919 -0.258112 -6.50619 0.0058679 -0.175734
-82.5403 -3.99608 -0.274096 -6.5696 0.0331705 -0.18259
-83.6002 -4.03087 -0.290706 -6.63249 0.0640518 -0.189339
-84.685 -4.07503 -0.307891 -6.6946 0.0990238 -0.195949
-85.7886 -4.13038 -0.325647 -6.7558 0.13856 -0.202367
-76.5441 -3.91121 -0.210628 -6.41541 -0.0803477 -0.170312
-77.3944 -3.91439 -0.224432 -6.48711 -0.0622306 -0.178045
-78.2844 -3.92208 -0.239088 -6.55894 -0.0416086 -0.185713
-79.211 -3.93491 -0.254428 -6.6308 -0.0181997 -0.193624
-80.1676 -3.95357 -0.270162 -6.70241 0.00845053 -0.201519
-81.1595 -3.97986 -0.286678 -6.77361 0.0385784 -0.209195
-82.1828 -4.01509 -0.303894 -6.8439 0.072738 -0.216647
-83.2302 -4.06078 -0.321628 -6.91317 0.111514 -0.223905
-34.6646 -7.67697 -0.277327 5.21615 0.0170826 0.0981323
-35.7347 -7.80346 -0.290136 5.21925 0.0168389 0.111779
-33.823 -7.60972 -0.276879 5.31741 0.0174258 0.0908977
-34.8099 -7.73343 -0.290282 5.3241 0.0172542 0.104831
-35.9664 -7.86031 -0.3039 5.33331 0.0172153 0.119766
-37.3152 -7.99014 -0.317663 5.34567 0.0167567 0.135741
-38.8803 -8.12267 -0.331389 5.36202 0.0161379 0.152854
-40.6885 -8.25783 -0.344985 5.38353 0.0153782 0.171137
-42.769 -8.39559 -0.358365 5.41167 0.0145274 0.190586
-45.151 -8.53587 -0.371325 5.44823 0.0135433 0.211035
-47.8625 -8.67912 -0.383785 5.49539 0.0123342 0.232235
-33.9456 -7.65536 -0.290096 5.43297 0.0177424 0.0973427
-35.0136 -7.77912 -0.304233 5.44563 0.0176216 0.112507
-36.2734 -7.90593 -0.318553 5.46093 0.0173769 0.128967
-37.7501 -8.03564 -0.33294 5.47963 0.0169959 0.146687
-39.4715 -8.16814 -0.347282 5.50282 0.0164449 0.165668
-41.4683 -8.30327 -0.361447 5.53193 0.0157016 0.185872
-43.7726 -8.44101 -0.375277 5.56873 0.0147074 0.207183
-33.1444 -7.56929 -0.289693 5.54572 0.0182579 0.0894648
-34.1193 -7.68976 -0.304312 5.56219 0.0182598 0.104836
-35.2837 -7.81348 -0.319184 5.58084 0.0181157 0.121609
-36.6645 -7.94024 -0.33418 5.60231 0.0178363 0.139771
-38.2913 -8.06988 -0.349186 5.62761 0.0173925 0.159343
-40.1961 -8.2022 -0.364035 5.65811 0.0167136 0.180285
-42.4139 -8.33719 -0.378628 5.69541 0.0158387 0.202524
-32.4115 -7.47479 -0.288977 5.66233 0.0188238 0.0810637
-33.2888 -7.59175 -0.304052 5.68308 0.0189472 0.0966023
-34.3528 -7.71214 -0.319431 5.70551 0.0189119 0.11365
-35.6315 -7.83575 -0.334991 5.7302 0.0187455 0.132215
-37.1564 -7.96238 -0.350616 5.758 0.0184197 0.152342
-38.9631 -8.0919 -0.366219 5.79019 0.0178644 0.174063
-31.7526 -7.37156 -0.287936 5.78275 0.019439 0.0721357
-32.5281 -7.48473 -0.303423 5.80825 0.0196841 0.0877955
-33.4865 -7.60153 -0.319259 5.83495 0.0197666 0.10507
-34.6571 -7.72174 -0.335331 5.86332 0.0197239 0.123987
-36.0727 -7.84516 -0.351525 5.89412 0.019528 0.144621
-37.771 -7.97165 -0.367769 5.92847 0.0190938 0.167051
-31.1733 -7.25929 -0.286549 5.90685 0.0201024 0.0626803
-31.8432 -7.36833 -0.302393 5.9376 0.0204704 0.0784086
-32.6911 -7.48121 -0.318631 5.9691 0.02068 0.0958495
-33.7476 -7.59773 -0.335157 6.0017 0.0207721 0.115056
-35.0463 -7.71775 -0.351882 6.03606 0.0206273 0.136117
-36.6264 -7.84091 -0.368634 6.07304 0.0203983 0.159131
-30.6798 -7.13764 -0.28479 6.0345 0.0208125 0.052703
-31.2403 -7.24218 -0.300932 6.07104 0.0213053 0.0684394
-31.9732 -7.35078 -0.31751 6.10789 0.0216514 0.0859778
-32.9097 -7.46326 -0.334431 6.14531 0.0218892 0.105401
-34.0858 -7.57955 -0.351657 6.18381 0.0219256 0.126905
-29.9717 -6.91099 -0.26684 6.12244 0.0209597 0.0280334
-30.2791 -7.00639 -0.282693 6.16544 0.0215576 0.0421529
-30.726 -7.10591 -0.29901 6.20838 0.0221872 0.0578941
-31.3397 -7.20978 -0.315863 6.25119 0.0226796 0.0754524
-32.1508 -7.31782 -0.333112 6.29407 0.0230746 0.095007
-33.196 -7.42995 -0.350718 6.33738 0.0232977 0.116775
-29.7738 -6.77519 -0.264062 6.24949 0.0216419 0.0172927
-29.9748 -6.86495 -0.280056 6.29964 0.0224049 0.0311849
-30.3067 -6.95916 -0.296599 6.34944 0.0231141 0.0467908
-30.7975 -7.05781 -0.313656 6.39883 0.0237629 0.0642844
-31.4786 -7.16109 -0.331264 6.44784 0.0242709 0.0838581
-32.3868 -7.26845 -0.349113 6.49666 0.0247238 0.105758
-29.9475 -6.40473 -0.216813 6.20392 0.0193612 -0.0262684
-29.7894 -6.47563 -0.230905 6.26236 0.0204882 -0.0168659
-29.6966 -6.55059 -0.24567 6.32068 0.0214486 -0.00600034
-29.6841 -6.62976 -0.261022 6.37881 0.0223438 0.0061391
-29.7744 -6.71338 -0.277039 6.43666 0.0232243 0.0197776
-29.989 -6.80158 -0.293673 6.49396 0.0240849 0.0351641
-30.3539 -6.89441 -0.310857 6.55061 0.0248998 0.0525035
-30.8999 -6.99205 -0.3286 6.60658 0.0256165 0.0720373
-30.249 -6.26979 -0.213545 6.31091 0.019737 -0.0366935
-30.0017 -6.33377 -0.227482 6.37743 0.0209813 -0.0276304
-29.8142 -6.40196 -0.242178 6.44393 0.022013 -0.0171537
-29.702 -6.47438 -0.25754 6.51026 0.0230471 -0.00534339
-29.6832 -6.55127 -0.273558 6.57625 0.0240792 0.00798814
-29.7791 -6.63281 -0.290206 6.64166 0.0250998 0.0230753
-30.0156 -6.71916 -0.307438 6.70625 0.026091 0.0401689
-30.4235 -6.8105 -0.325245 6.76985 0.02703 0.0594936
-30.6565 -6.12666 -0.209972 6.41842 0.0202082 -0.0472555
-30.3226 -6.18336 -0.223827 6.49333 0.0214403 -0.0385183
-30.0434 -6.2443 -0.23853 6.56831 0.0225229 -0.0284961
-29.8314 -6.30945 -0.253909 6.64327 0.0238433 -0.0170497
-29.7025 -6.3785 -0.26966 6.71794 0.0251929 -0.00392798
-29.6813 -6.45254 -0.28621 6.79216 0.0263823 0.0108325
-29.7907 -6.53171 -0.303467 6.86536 0.0274573 0.0274952
-30.0582 -6.61595 -0.321233 6.93742 0.0284934 0.0463975
-4.97349 -4.87228 -0.270192 -6.60795 0.387467 -0.053003
-4.97838 -4.80257 -0.282683 -6.60171 0.416973 -0.0587797
-5.34329 -5.00168 -0.269549 -6.5894 0.380988 -0.0623299
-5.43527 -4.93952 -0.282547 -6.58347 0.411252 -0.0685057
-5.50758 -4.86632 -0.295692 -6.57238 0.442847 -0.0748033
-5.5568 -4.78096 -0.309 -6.55576 0.47576 -0.0806131
-5.56926 -4.68238 -0.322348 -6.53258 0.509964 -0.0860747
-5.5319 -4.56943 -0.335655 -6.50179 0.545353 -0.0911133
-5.42771 -4.44077 -0.34877 -6.46217 0.581816 -0.0955834
-5.23581 -4.29505 -0.361571 -6.41243 0.619153 -0.0991534
-4.92722 -4.1308 -0.3738 -6.35123 0.657012 -0.101388
-5.95259 -5.07843 -0.282322 -6.56311 0.404584 -0.0784508
-6.11945 -5.01323 -0.296006 -6.55264 0.436994 -0.0850423
-6.2674 -4.93601 -0.309868 -6.5366 0.470964 -0.0914821
-6.38521 -4.84565 -0.323846 -6.51417 0.506357 -0.0976244
-6.45946 -4.74091 -0.337827 -6.48425 0.543014 -0.103332
-6.47322 -4.62045 -0.351672 -6.44556 0.580786 -0.10841
-6.40402 -4.48284 -0.365274 -6.3967 0.619549 -0.112518
-6.5236 -5.21899 -0.28178 -6.54096 0.397089 -0.0885204
-6.78705 -5.16221 -0.295977 -6.53087 0.43026 -0.095592
-7.03571 -5.09353 -0.310367 -6.51541 0.465138 -0.102546
-7.26036 -5.01181 -0.324919 -6.49372 0.501611 -0.109262
-7.44845 -4.91574 -0.339529 -6.46468 0.539538 -0.115595
-7.58298 -4.80388 -0.354066 -6.42698 0.57876 -0.121305
-7.64182 -4.67469 -0.368366 -6.3791 0.619087 -0.126151
-7.15312 -5.36104 -0.280969 -6.51676 0.388603 -0.0987674
-7.51401 -5.31302 -0.295609 -6.50697 0.422513 -0.106328
-7.86484 -5.25328 -0.310476 -6.49202 0.458293 -0.113812
-8.19811 -5.18063 -0.325556 -6.47106 0.495853 -0.121119
-8.50217 -5.09369 -0.340747 -6.44293 0.535072 -0.128108
-8.75993 -4.99095 -0.355923 -6.40624 0.57584 -0.134534
-7.84222 -5.50438 -0.279861 -6.49042 0.379071 -0.10919
-8.30144 -5.46546 -0.294874 -6.48081 0.413686 -0.11725
-8.75583 -5.41507 -0.310163 -6.46631 0.450349 -0.125279
-9.19938 -5.35194 -0.325714 -6.44605 0.488991 -0.133198
-9.62144 -5.27462 -0.341432 -6.41884 0.529511 -0.140871
-10.0056 -5.18145 -0.357155 -6.38322 0.571812 -0.148043
-8.59202 -5.64878 -0.278433 -6.46184 0.368439 -0.119782
-9.1505 -5.61932 -0.293741 -6.45229 0.40371 -0.128354
-9.70975 -5.5787 -0.309393 -6.43815 0.441219 -0.136944
-10.2651 -5.52555 -0.325356 -6.41853 0.480921 -0.145496
-10.8048 -5.45829 -0.341459 -6.3922 0.522723 -0.153772
-11.3199 -5.37543 -0.357778 -6.35779 0.566501 -0.16182
-9.40361 -5.79401 -0.276657 -6.43094 0.356655 -0.130538
-10.0623 -5.77437 -0.292185 -6.42129 0.392516 -0.139632
-10.7277 -5.74394 -0.308133 -6.40739 0.430815 -0.148801
-11.3964 -5.70124 -0.324442 -6.38833 0.471538 -0.158005
-12.0584 -5.64455 -0.340918 -6.36281 0.514729 -0.167057
-9.53594 -5.93954 -0.259148 -6.40454 0.309678 -0.132003
-10.2773 -5.9395 -0.274357 -6.39776 0.343616 -0.141415
-11.0381 -5.93032 -0.290177 -6.38773 0.380034 -0.151072
-11.8109 -5.91051 -0.306354 -6.37393 0.419046 -0.160838
-12.5941 -5.87874 -0.322935 -6.35531 0.460727 -0.170714
-13.38 -5.83325 -0.339736 -6.3306 0.505153 -0.180543
-10.377 -6.07553 -0.256604 -6.36947 0.295271 -0.142523
-11.2175 -6.08555 -0.27186 -6.36192 0.329396 -0.152483
-12.0786 -6.08687 -0.287692 -6.35154 0.366198 -0.162649
-12.9601 -6.07811 -0.304024 -6.33765 0.40582 -0.173034
-13.8562 -6.05766 -0.320663 -6.31929 0.44835 -0.183484
-14.77 -6.02416 -0.337852 -6.29542 0.493875 -0.194176
-8.61707 -6.10987 -0.211103 -6.34677 0.191636 -0.122926
-9.47882 -6.149 -0.224574 -6.34337 0.218555 -0.132812
-10.3669 -6.18289 -0.238736 -6.33866 0.247924 -0.142841
-11.28 -6.21076 -0.253519 -6.33228 0.279636 -0.15308
-12.2191 -6.23139 -0.26883 -6.32373 0.313882 -0.163581
-13.1845 -6.2437 -0.284707 -6.31268 0.350944 -0.174324
-14.1762 -6.24639 -0.301114 -6.29848 0.391045 -0.185348
-15.1921 -6.2378 -0.317862 -6.28012 0.434425 -0.196554
-9.30582 -6.21528 -0.208123 -6.31204 0.175561 -0.132137
-10.2557 -6.26377 -0.221487 -6.30688 0.202226 -0.142416
-11.2302 -6.30731 -0.23535 -6.30067 0.231254 -0.152798
-12.2428 -6.34542 -0.250089 -6.29296 0.26279 -0.163607
-13.2844 -6.37677 -0.265354 -6.28312 0.297052 -0.174686
-14.3548 -6.40019 -0.280735 -6.27113 0.334294 -0.18585
-15.4576 -6.41479 -0.297098 -6.25633 0.374665 -0.197473
-16.5954 -6.41899 -0.31444 -6.23795 0.418519 -0.209631
-13.2599 -6.47882 -0.24608 -6.25146 0.244949 -0.174196
-14.4047 -6.52145 -0.261313 -6.24033 0.279133 -0.185879
-15.5893 -6.55672 -0.276569 -6.22688 0.316327 -0.197777
-16.8101 -6.58347 -0.292853 -6.21119 0.356727 -0.210029
-130.274 0.684252 -0.270401 -1.8438 0.585192 0.271847
-129.801 0.709012 -0.28272 -1.80628 0.630262 0.294601
-131.084 0.599042 -0.269364 -1.88941 0.603675 0.24912
-130.691 0.617617 -0.282176 -1.8515 0.65059 0.271676
-130.161 0.639619 -0.295111 -1.80974 0.698616 0.296237
-129.483 0.665524 -0.308225 -1.76379 0.747334 0.323426
-128.633 0.695764 -0.321383 -1.71393 0.796887 0.35338
-127.589 0.730757 -0.334491 -1.66029 0.847086 0.386347
-126.324 0.771054 -0.347381 -1.60316 0.897617 0.422637
-124.812 0.817333 -0.359907 -1.54292 0.947965 0.462639
-123.022 0.870483 -0.371803 -1.48029 0.997524 0.506673
-131.589 0.522705 -0.281473 -1.89572 0.670715 0.247582
-131.148 0.538242 -0.294934 -1.8534 0.720656 0.272031
-130.56 0.557453 -0.308573 -1.80682 0.771719 0.299034
-129.803 0.5808 -0.322335 -1.75606 0.823764 0.328874
-128.855 0.608739 -0.336099 -1.70126 0.876537 0.361829
-127.688 0.64178 -0.349712 -1.64269 0.929675 0.398239
-126.272 0.680563 -0.363053 -1.5808 0.982706 0.438598
-132.496 0.424822 -0.280459 -1.93918 0.69066 0.222489
-132.145 0.433518 -0.294402 -1.89643 0.742656 0.246603
-131.649 0.445768 -0.308542 -1.84928 0.795944 0.273357
-130.99 0.461973 -0.322856 -1.79773 0.85038 0.303034
-130.141 0.482579 -0.337232 -1.74185 0.905737 0.335944
-129.076 0.508155 -0.351512 -1.68187 0.961633 0.372493
-127.761 0.539281 -0.365545 -1.6182 1.01771 0.413091
-133.408 0.323792 -0.279152 -1.9816 0.710293 0.196242
-133.149 0.325427 -0.293505 -1.93855 0.764397 0.219957
-132.749 0.330468 -0.308094 -1.89096 0.819981 0.246394
-132.19 0.339279 -0.322909 -1.83873 0.876911 0.275841
-131.446 0.352296 -0.337846 -1.78186 0.93498 0.308634
-130.487 0.370034 -0.352772 -1.7206 0.993871 0.345259
-134.324 0.219644 -0.277529 -2.0229 0.72953 0.16881
-134.158 0.213989 -0.292216 -1.97967 0.785792 0.192051
-133.857 0.211564 -0.307194 -1.93177 0.843746 0.218091
-133.402 0.212719 -0.322452 -1.87898 0.903267 0.247224
-132.767 0.217873 -0.337894 -1.82127 0.964175 0.279815
-131.919 0.227563 -0.353355 -1.75877 1.02619 0.316395
-135.241 0.112423 -0.275566 -2.06296 0.748267 0.140171
-135.169 0.0992376 -0.290505 -2.0197 0.806739 0.162847
-134.97 0.0890788 -0.305808 -1.97162 0.867131 0.188396
-134.623 0.0823018 -0.321444 -1.91843 0.92934 0.217118
-134.099 0.0794143 -0.33725 -1.86008 0.993126 0.249472
-133.372 0.0806402 -0.353283 -1.79644 1.05842 0.285788
-136.156 0.00219081 -0.273236 -2.10168 0.766381 0.110308
-136.18 -0.0187772 -0.288345 -2.05851 0.827108 0.132316
-136.085 -0.0369504 -0.303902 -2.01041 0.890004 0.157262
-135.849 -0.0519515 -0.319846 -1.95697 0.954991 0.185458
-135.442 -0.063319 -0.336 -1.89801 1.02197 0.217446
-136.85 -0.0792664 -0.255612 -2.17675 0.722983 0.060513
-137.066 -0.110679 -0.270362 -2.13883 0.783655 0.0791981
-137.189 -0.139985 -0.285707 -2.096 0.846737 0.10044
-137.2 -0.166467 -0.301443 -2.04803 0.912196 0.124654
-137.077 -0.19 -0.317614 -1.9945 0.980047 0.152192
-136.791 -0.210149 -0.334056 -1.93514 1.05023 0.183604
-137.663 -0.187251 -0.252505 -2.21196 0.737309 0.0291951
-137.97 -0.226792 -0.267239 -2.1744 0.800048 0.0468793
-138.192 -0.264285 -0.282559 -2.13203 0.86542 0.0672204
-138.31 -0.299387 -0.298394 -2.08435 0.933489 0.0905514
-138.302 -0.331654 -0.314598 -2.03102 1.0042 0.11734
-138.146 -0.361057 -0.331362 -1.97142 1.07769 0.147933
-136.922 -0.145153 -0.208014 -2.33093 0.572116 -0.0396967
-137.482 -0.196928 -0.220978 -2.30615 0.62899 -0.0296093
-137.999 -0.247708 -0.234602 -2.27766 0.688369 -0.017433
-138.465 -0.297299 -0.248834 -2.24521 0.750376 -0.00316142
-138.864 -0.34535 -0.263566 -2.2083 0.815182 0.0134294
-139.186 -0.391543 -0.278868 -2.16647 0.882888 0.0326843
-139.414 -0.43559 -0.294715 -2.11924 0.953598 0.0549604
-139.524 -0.477132 -0.31096 -2.06607 1.0274 0.080792
-137.478 -0.232932 -0.204334 -2.36041 0.579029 -0.0693438
-138.11 -0.292659 -0.217176 -2.33625 0.637293 -0.0603997
-138.706 -0.351611 -0.230678 -2.30849 0.698168 -0.0494167
-139.255 -0.4096 -0.244754 -2.27665 0.761926 -0.0364143
-139.747 -0.466361 -0.25939 -2.24037 0.828751 -0.0210847
-140.17 -0.521574 -0.274588 -2.19919 0.89878 -0.00309764
-140.507 -0.574907 -0.290355 -2.15256 0.972139 0.0179247
-140.738 -0.626072 -0.306597 -2.09981 1.04897 0.042515
-138.022 -0.321743 -0.200357 -2.38798 0.584224 -0.0993545
-138.725 -0.389656 -0.213019 -2.36448 0.643709 -0.0915969
-139.398 -0.456958 -0.22627 -2.33744 0.705989 -0.0819694
-140.03 -0.523297 -0.239923 -2.30652 0.771584 -0.0704357
-140.617 -0.589362 -0.254563 -2.27088 0.840596 -0.0564651
-141.14 -0.654403 -0.269791 -2.23041 0.912923 -0.0399218
-141.587 -0.717496 -0.285429 -2.18448 0.98875 -0.0203712
-141.941 -0.778481 -0.301486 -2.13228 1.06843 0.00271453
SCALARS STRAIN double 6
LOOKUP_TABLE default
0.00019818 0.000423679 -0.000902402 3.80915e-06 0.00049858 8.77869e-05
0.000193231 0.000427435 -0.000897578 6.35173e-06 0.00049061 8.47645e-05
0.000205504 0.000413318 -0.000907914 2.87397e-06 0.000509319 8.96292e-05
0.000201072 0.000416479 -0.000903725 5.47489e-06 0.000501342 8.66773e-05
0.000196029 0.000419754 -0.000898345 8.23315e-06 0.00049228 8.34782e-05
0.000190316 0.000423171 -0.000891668 1.10817e-05 0.000482033 7.99388e-05
0.000183862 0.00042671 -0.000883495 1.40666e-05 0.000470607 7.60608e-05
0.000176587 0.00043035 -0.000873615 1.71906e-05 0.000457988 7.18235e-05
0.000168405 0.000434068 -0.000861786 2.04526e-05 0.000444187 6.72007e-05
0.000159212 0.000437846 -0.00084774 2.38286e-05 0.000429242 6.21627e-05
0.000148898 0.000441682 -0.000831178 2.7269e-05 0.000413269 5.66834e-05
0.000209154 0.000405012 -0.000909895 4.55329e-06 0.000511644 8.86899e-05
0.000204665 0.000407679 -0.000905223 7.34959e-06 0.000502556 8.55528e-05
0.000199518 0.000410471 -0.000899272 1.03059e-05 0.000492257 8.20926e-05
0.00019364 0.000413386 -0.000891864 1.34117e-05 0.000480721 7.82906e-05
0.000186952 0.000416404 -0.000882781 1.66535e-05 0.00046793 7.41239e-05
0.000179363 0.000419499 -0.000871771 2.00166e-05 0.000453887 6.95634e-05
0.000170762 0.000422651 -0.000858553 2.34842e-05 0.000438637 6.45696e-05
0.000217474 0.0003931 -0.000916092 3.59771e-06 0.000521558 9.07725e-05
0.000213564 0.000395106 -0.000912132 6.4508e-06 0.00051247 8.77276e-05
0.000209011 0.000397242 -0.000906931 9.47479e-06 0.000502147 8.43527e-05
0.000203741 0.000399504 -0.000900314 1.26626e-05 0.000490539 8.06294e-05
0.00019767 0.00040187 -0.000892058 1.60028e-05 0.000477609 7.65329e-05
0.000190705 0.000404315 -0.000881906 1.94746e-05 0.000463348 7.2029e-05
0.000182734 0.000406815 -0.000869556 2.30696e-05 0.000447792 6.70932e-05
0.000226029 0.000380714 -0.000922294 2.59268e-06 0.000531013 9.29454e-05
0.000222725 0.000382024 -0.000919057 5.49896e-06 0.00052196 8.99976e-05
0.000218794 0.000383471 -0.000914625 8.5885e-06 0.000511647 8.67135e-05
0.000214161 0.000385047 -0.000908825 1.18572e-05 0.000500001 8.30748e-05
0.000208742 0.00038673 -0.00090143 1.52956e-05 0.000486968 7.90546e-05
0.000202437 0.000388495 -0.000892171 1.88895e-05 0.000472532 7.46101e-05
0.000234814 0.00036785 -0.000928484 1.5358e-06 0.000539974 9.52094e-05
0.000232143 0.000368427 -0.000925978 4.49104e-06 0.00053099 9.23649e-05
0.000228863 0.000369148 -0.000922334 7.64295e-06 0.000520723 8.9178e-05
0.000224899 0.000370003 -0.000917374 1.09903e-05 0.000509078 8.56305e-05
0.000220165 0.00037097 -0.000910872 1.45258e-05 0.000495982 8.16933e-05
0.000214561 0.00037202 -0.000902544 1.8236e-05 0.0004814 7.73182e-05
0.000243823 0.000354506 -0.000934644 4.25003e-07 0.000548402 9.75653e-05
0.000241813 0.000354312 -0.000932877 3.42398e-06 0.000539521 9.48312e-05
0.000239214 0.000354267 -0.000930035 6.63386e-06 0.000529338 9.17491e-05
0.000235952 0.000354362 -0.000925939 1.00565e-05 0.000517734 8.83004e-05
0.00023194 0.000354579 -0.000920349 1.36674e-05 0.000504638 8.44394e-05
0.000227076 0.000354879 -0.000913016 1.7494e-05 0.000489948 8.01669e-05
0.00025305 0.000340683 -0.000940756 -7.41314e-07 0.000556257 0.000100014
0.000251729 0.000339675 -0.000939733 2.29484e-06 0.000547512 9.73982e-05
0.000249842 0.000338821 -0.000937706 5.55687e-06 0.000537452 9.44296e-05
0.000247315 0.000338114 -0.000934493 9.04997e-06 0.000525933 9.10885e-05
0.000244063 0.000337531 -0.000929846 1.27728e-05 0.000512853 8.73148e-05
0.000262615 0.000328445 -0.000946288 -4.80953e-06 0.00057079 0.000104754
0.000262487 0.00032641 -0.0009468 -1.97406e-06 0.000563477 0.000102562
0.000261883 0.000324519 -0.000946527 1.10068e-06 0.000554919 0.000100067
0.000260739 0.000322809 -0.000945324 4.40762e-06 0.000545019 9.72221e-05
0.000258982 0.000321253 -0.00094301 7.96487e-06 0.000533631 9.39987e-05
0.000256528 0.000319828 -0.000939341 1.1775e-05 0.000520625 9.03375e-05
0.000271534 0.000314574 -0.000951563 -6.08924e-06 0.000577169 0.000107245
0.000272125 0.00031163 -0.000952756 -3.24583e-06 0.000570033 0.000105202
0.000272265 0.000308848 -0.000953238 -1.61192e-07 0.000561694 0.000102839
0.000271896 0.000306232 -0.000952867 3.18176e-06 0.000551993 0.000100129
0.000270948 0.000303783 -0.00095145 6.77362e-06 0.000540806 9.70201e-05
0.000269331 0.000301465 -0.000948809 1.06644e-05 0.00052792 9.3507e-05
0.000274634 0.000312817 -0.000948211 -1.46568e-05 0.000597544 0.000113933
0.000276916 0.000308536 -0.000951438 -1.24561e-05 0.000593504 0.000112835
0.000278923 0.000304368 -0.000954307 -1.00462e-05 0.000588614 0.000111454
0.000280617 0.000300325 -0.000956737 -7.43151e-06 0.000582794 0.000109824
0.000281948 0.000296418 -0.000958612 -4.5871e-06 0.000575896 0.000107926
0.000282863 0.000292675 -0.000959848 -1.49333e-06 0.000567789 0.000105713
0.000283301 0.000289098 -0.000960309 1.87478e-06 0.000558323 0.000103151
0.000283198 0.000285678 -0.000959805 5.53491e-06 0.000547328 0.000100177
0.000281742 0.000301086 -0.000951588 -1.59454e-05 0.000601803 0.000116134
0.000284699 0.000295846 -0.000955326 -1.37787e-05 0.000597959 0.000115173
0.000287413 0.000290733 -0.00095875 -1.14295e-05 0.000593321 0.000113943
0.000289843 0.000285702 -0.000961809 -8.83145e-06 0.000587689 0.000112483
0.000291943 0.00028078 -0.000964356 -5.98897e-06 0.000581011 0.000110738
0.000293664 0.000276023 -0.00096633 -2.92112e-06 0.000573173 0.000108675
0.000294946 0.000271423 -0.000967627 4.43384e-07 0.000563982 0.000106285
0.000295717 0.00026698 -0.000968068 4.15866e-06 0.000553231 0.000103487
0.000299191 0.000270744 -0.000966732 -1.02294e-05 0.000591844 0.000115216
0.000302087 0.000264769 -0.000969978 -7.38846e-06 0.000585435 0.000113637
0.000304641 0.000258878 -0.000972695 -4.3234e-06 0.000577813 0.000111741
0.000202687 0.000390297 -0.000909354 7.08446e-05 0.000413843 6.43736e-05
0.000198911 0.000392883 -0.000905669 7.85695e-05 0.000406542 6.07302e-05
0.000208766 0.000382189 -0.000914671 7.29227e-05 0.000423573 6.8953e-05
0.00020543 0.000384287 -0.00091156 8.09355e-05 0.000416231 6.54021e-05
0.000201601 0.000386454 -0.000907427 8.92089e-05 0.000408026 6.15141e-05
0.000197228 0.000388719 -0.000902185 9.76572e-05 0.000398879 5.71777e-05
0.000192251 0.000391066 -0.000895664 0.000106293 0.000388825 5.23749e-05
0.000186609 0.000393478 -0.000887688 0.00011508 0.000377883 4.70708e-05
0.000180232 0.000395943 -0.000878058 0.000123956 0.000366087 4.12101e-05
0.000173041 0.000398455 -0.00086656 0.000132812 0.000353499 3.47052e-05
0.00016495 0.000401021 -0.000852957 0.000141506 0.000340245 2.74661e-05
0.000212154 0.000375288 -0.00091748 8.32548e-05 0.000425642 7.02931e-05
0.000208797 0.000376958 -0.000913988 9.18236e-05 0.000417368 6.64883e-05
0.000204908 0.000378705 -0.000909394 0.000100654 0.000408134 6.2256e-05
0.000200425 0.000380528 -0.00090355 0.000109706 0.000397943 5.75555e-05
0.000195283 0.000382413 -0.000896273 0.000118927 0.000386806 5.23491e-05
0.000189414 0.000384339 -0.000887355 0.000128245 0.000374756 4.65794e-05
0.000182731 0.000386295 -0.000876568 0.000137561 0.000361868 4.01425e-05
0.000219078 0.000365941 -0.00092344 8.55273e-05 0.00043482 7.53687e-05
0.000216216 0.00036707 -0.000920588 9.44142e-05 0.000426502 7.16866e-05
0.000212833 0.000368276 -0.000916666 0.000103597 0.000417201 6.75706e-05
0.00020887 0.000369552 -0.000911524 0.00011304 0.000406897 6.29819e-05
0.000204259 0.000370883 -0.000904975 0.000122694 0.000395587 5.78782e-05
0.000198925 0.000372252 -0.000896804 0.000132483 0.0003833 5.21939e-05
0.000192782 0.000373636 -0.000886763 0.000142321 0.000370092 4.58479e-05
0.000226198 0.000356221 -0.000929414 8.77375e-05 0.000443704 8.06629e-05
0.000223854 0.000356783 -0.000927216 9.69461e-05 0.000435371 7.71128e-05
0.000221004 0.000357421 -0.000923984 0.000106488 0.00042603 7.31223e-05
0.000217586 0.000358127 -0.000919569 0.000116333 0.00041564 6.86544e-05
0.000213533 0.000358882 -0.00091378 0.000126438 0.000404186 6.36635e-05
0.000208766 0.000359663 -0.000906387 0.000136735 0.000391689 5.80744e-05
0.000233512 0.000346126 -0.000935386 8.98743e-05 0.000452271 8.61817e-05
0.000231709 0.000346093 -0.000933852 9.94072e-05 0.000443952 8.27748e-05
0.000229416 0.000346135 -0.000931329 0.000109314 0.0004346 7.8921e-05
0.000226571 0.000346244 -0.000927666 0.000119572 0.000424154 7.45848e-05
0.000223106 0.000346397 -0.000922666 0.000130142 0.000412585 6.97187e-05
0.000218939 0.00034657 -0.000916088 0.000140962 0.000399896 6.42438e-05
0.000241013 0.000335652 -0.000941339 9.19248e-05 0.000460493 9.19305e-05
0.000239775 0.000334995 -0.000940478 0.000101783 0.000452217 8.868e-05
0.000238066 0.000334413 -0.000938681 0.00011206 0.000442884 8.49765e-05
0.000235823 0.000333895 -0.000935791 0.000122739 0.000432416 8.07853e-05
0.000232977 0.000333425 -0.000931602 0.00013377 0.000420782 7.60448e-05
0.000229445 0.000332962 -0.000925898 0.000145135 0.000407929 7.07243e-05
0.000248696 0.000324802 -0.000947256 9.38735e-05 0.000468341 9.79125e-05
0.000248048 0.000323488 -0.000947075 0.000104058 0.000460136 9.48347e-05
0.000246948 0.000322249 -0.000946018 0.000114707 0.000450857 9.12979e-05
0.000245336 0.000321074 -0.000943924 0.000125814 0.000440401 8.72675e-05
0.000243142 0.000319939 -0.000940574 0.000137357 0.000428711 8.26708e-05
0.000256212 0.000315695 -0.000951922 8.56741e-05 0.000482802 0.000106612
0.000256554 0.000313601 -0.000953116 9.56894e-05 0.000475763 0.000104132
0.000256519 0.000311573 -0.000953625 0.000106209 0.000467678 0.000101243
0.000256056 0.000309643 -0.000953319 0.000117232 0.000458485 9.78932e-05
0.000255105 0.000307776 -0.000952038 0.000128771 0.00044808 9.4042e-05
0.000253596 0.000305947 -0.000949564 0.000140816 0.000436382 8.96204e-05
0.000263623 0.000304813 -0.000957074 8.70853e-05 0.000489669 0.000112832
0.000264578 0.000301993 -0.000958901 9.73787e-05 0.000482747 0.000110583
0.00026518 0.000299256 -0.000960107 0.00010821 0.00047481 0.000107908
0.000265381 0.000296595 -0.000960562 0.000119606 0.000465737 0.000104768
0.000265124 0.000294003 -0.000960097 0.000131559 0.000455442 0.000101104
0.000264336 0.000291442 -0.000958548 0.000144111 0.000443774 9.68974e-05
0.000264894 0.000304766 -0.000952247 5.97489e-05 0.000511078 0.00012308
0.000267205 0.000300995 -0.000955872 6.87758e-05 0.000506835 0.000122152
0.000269306 0.000297285 -0.000959191 7.82961e-05 0.000501833 0.000120877
0.000271169 0.000293635 -0.000962134 8.83188e-05 0.000496018 0.000119257
0.000272756 0.000290049 -0.000964597 9.88839e-05 0.000489273 0.000117256
0.000274021 0.000286543 -0.000966502 0.000110028 0.000481496 0.000114825
0.000274914 0.000283112 -0.000967724 0.00012179 0.000472576 0.000111923
0.000275382 0.000279737 -0.000968093 0.000134195 0.000462383 0.000108479
0.000270756 0.000295586 -0.000955607 6.02567e-05 0.000516443 0.000128898
0.000273666 0.000291057 -0.000959723 6.94427e-05 0.000512355 0.000128208
0.000276403 0.000286588 -0.000963574 7.90777e-05 0.000507543 0.000127149
0.000278866 0.000282156 -0.000967098 8.93132e-05 0.000501876 0.000125821
0.000281077 0.000277769 -0.000970192 0.000100168 0.000495296 0.000124139
0.000283028 0.000273453 -0.000972793 0.000111614 0.000487703 0.000121984
0.000284664 0.000269203 -0.00097478 0.00012374 0.000478971 0.000119317
0.000285886 0.000265009 -0.000976013 0.000136571 0.000468939 0.000116149
0.000276679 0.00028628 -0.00095888 6.04871e-05 0.000521316 0.000134777
0.000280176 0.000280954 -0.000963471 6.98245e-05 0.000517373 0.000134354
0.000283529 0.000275662 -0.000967844 7.96357e-05 0.000512708 0.000133591
0.00028664 0.000270428 -0.000971929 9.00938e-05 0.000507263 0.000132576
0.000289527 0.000265199 -0.000975676 0.000101222 0.000500875 0.000131188
0.000292188 0.000259985 -0.000978966 0.000112959 0.000493471 0.000129345
0.000294573 0.000254864 -0.00098172 0.000125424 0.000484916 0.000127004
0.00029658 0.000249819 -0.00098381 0.000138629 0.000475066 0.000124152
0 0 0 0 0 0
0 0 0 0 0 0
0 0 0 0 0 0
0 0 0 0 0 0
0 0 0 0 0 0
0 0 0 0 0 0
0 0 0 0 0 0
0 0 0 0 0 0
0 0 0 0 0 0
0 0 0 0 0 0
0 0 0 0 0 0
0 0 0 0 0 0
0 0 0 0 0 0
0 0 0 0 0 0
0 0 0 0 0 0
0 0 0 0 0 0
0 0 0 0 0 0
0 0 0 0 0 0
0 0 0 0 0 0
0 0 0 0 0 0
0 0 0 0 0 0
0 0 0 0 0 0
0 0 0 0 0 0
0 0 0 0 0 0
0 0 0 0 0 0
0 0 0 0 0 0
0 0 0 0 0 0
0 0 0 0 0 0
0 0 0 0 0 0
0 0 0 0 0 0
0 0 0 0 0 0
0 0 0 0 0 0
0 0 0 0 0 0
0 0 0 0 0 0
0 0 0 0 0 0
0 0 0 0 0 0
0 0 0 0 0 0
0 0 0 0 0 0
0 0 0 0 0 0
0 0 0 0 0 0
0 0 0 0 0 0
0 0 0 0 0 0
0 0 0 0 0 0
0 0 0 0 0 0
0 0 0 0 0 0
0 0 0 0 0 0
0 0 0 0 0 0
0 0 0 0 0 0
0 0 0 0 0 0
0 0 0 0 0 0
0 0 0 0 0 0
0 0 0 0 0 0
0 0 0 0 0 0
0 0 0 0 0 0
0 0 0 0 0 0
0 0 0 0 0 0
0 0 0 0 0 0
0 0 0 0 0 0
0 0 0 0 0 0
0 0 0 0 0 0
0 0 0 0 0 0
0 0 0 0 0 0
0 0 0 0 0 0
0 0 0 0 0 0
0 0 0 0 0 0
0 0 0 0 0 0
0 0 0 0 0 0
0 0 0 0 0 0
0 0 0 0 0 0
0 0 0 0 0 0
0 0 0 0 0 0
0 0 0 0 0 0
0 0 0 0 0 0
0 0 0 0 0 0
0 0 0 0 0 0
0 0 0 0 0 0
0 0 0 0 0 0
0 0 0 0 0 0
0 0 0 0 0 0
0 0 0 0 0 0
0 0 0 0 0 0
0 0 0 0 0 0
0 0 0 0 0 0
0 0 0 0 0 0
0.000235177 0.000358021 -0.000916998 0.000122518 0.000330331 3.60468e-05
0.000232594 0.000359515 -0.000914683 0.000133269 0.000323626 2.82458e-05
0.000240138 0.000352173 -0.000922128 0.000125728 0.000339042 4.28399e-05
0.000237915 0.00035329 -0.000920327 0.000136901 0.000332263 3.51752e-05
0.000235306 0.000354439 -0.000917696 0.000148373 0.000324834 2.67362e-05
0.000232271 0.000355642 -0.000914173 0.000160058 0.000316705 1.73676e-05
0.000228766 0.00035689 -0.000909618 0.000171965 0.000307937 7.0057e-06
0.000224742 0.000358174 -0.000903894 0.000184041 0.000298569 -4.44233e-06
0.000220148 0.000359488 -0.000896846 0.000196208 0.000288666 -1.70805e-05
0.000214922 0.00036084 -0.000888311 0.000208349 0.00027831 -3.10178e-05
0.000208998 0.000362245 -0.000878108 0.00022032 0.00026764 -4.63347e-05
0.000243393 0.000346767 -0.000926007 0.00014046 0.000340773 4.24317e-05
0.000241171 0.000347533 -0.000923946 0.000152377 0.000333234 3.41176e-05
0.000238534 0.000348329 -0.000920995 0.000164596 0.000324982 2.4882e-05
0.000235436 0.000349158 -0.000917032 0.000177076 0.000316045 1.46277e-05
0.000231827 0.000350011 -0.000911915 0.000189748 0.000306461 3.25276e-06
0.000227654 0.000350875 -0.000905481 0.000202523 0.000296291 -9.3578e-06
0.000222854 0.000351752 -0.000897554 0.000215293 0.000285634 -2.33423e-05
0.000249025 0.000339992 -0.000931733 0.000143948 0.000349205 4.99851e-05
0.000247208 0.000340339 -0.000930244 0.000156334 0.00034158 4.18509e-05
0.000244987 0.000340713 -0.000927885 0.000169064 0.000333217 3.27699e-05
0.000242317 0.000341107 -0.000924539 0.000182098 0.000324127 2.26413e-05
0.000239146 0.000341512 -0.000920056 0.000195372 0.000314337 1.13536e-05
0.000235419 0.000341918 -0.000914266 0.000208794 0.000303906 -1.22712e-06
0.000231071 0.00034231 -0.000906976 0.00022227 0.00029292 -1.52268e-05
0.000254807 0.000332942 -0.000937482 0.000147337 0.000357511 5.78604e-05
0.000253414 0.000332854 -0.000936576 0.000160202 0.000349824 4.99287e-05
0.00025163 0.000332787 -0.00093483 0.000173459 0.000341371 4.10271e-05
0.000249409 0.000332732 -0.000932123 0.000187067 0.000332148 3.10503e-05
0.0002467 0.000332673 -0.000928302 0.000200973 0.00032217 1.9877e-05
0.000243443 0.000332594 -0.000923186 0.000215092 0.000311498 7.34982e-06
0.000260736 0.000325613 -0.000943239 0.000150606 0.000365677 6.60622e-05
0.000259786 0.000325072 -0.000942928 0.000163961 0.000357951 5.8359e-05
0.000258459 0.000324546 -0.000941812 0.000177758 0.000349432 4.96653e-05
0.00025671 0.000324024 -0.000939767 0.000191963 0.000340098 3.98704e-05
0.000254486 0.000323487 -0.000936636 0.000206526 0.000329954 2.88424e-05
0.000251728 0.000322913 -0.000932227 0.000221372 0.000319047 1.64078e-05
0.000266808 0.000318003 -0.000948988 0.000153735 0.000373686 7.45936e-05
0.00026632 0.00031699 -0.000949281 0.000167587 0.000365946 6.71486e-05
0.000265472 0.000315986 -0.000948812 0.000181937 0.000357387 5.86951e-05
0.000264218 0.000314978 -0.000947452 0.000196758 0.000347968 4.91163e-05
0.000262505 0.00031395 -0.000945032 0.000211989 0.000337698 3.8254e-05
0.000260273 0.000312864 -0.00094138 0.000227595 0.000326571 2.5973e-05
0.000273018 0.000310112 -0.000954712 0.000156694 0.000381521 8.34551e-05
0.000273012 0.000308604 -0.000955619 0.00017105 0.000373792 7.63014e-05
0.000272664 0.000307101 -0.000955811 0.000185965 0.00036522 6.81249e-05
0.000271928 0.000305588 -0.000955156 0.00020142 0.000355746 5.88012e-05
0.000270754 0.000304038 -0.000953476 0.000217381 0.000345353 4.81485e-05
0.000278581 0.000304004 -0.000958304 0.00014519 0.00039596 9.8591e-05
0.000279361 0.000301959 -0.000960391 0.000159441 0.000389141 9.26484e-05
0.000279857 0.000299914 -0.000961921 0.000174314 0.000381469 8.58184e-05
0.000280031 0.000297889 -0.000962789 0.000189803 0.000372914 7.79599e-05
0.000279837 0.000295848 -0.000962858 0.000205907 0.000363415 6.89358e-05
0.000279227 0.000293761 -0.00096195 0.000222604 0.000352937 5.85563e-05
0.000284553 0.000296075 -0.000963341 0.000147267 0.000403303 0.000107725
0.000285832 0.000293492 -0.000966006 0.000161963 0.000396546 0.000102161
0.000286849 0.00029092 -0.00096817 0.000177336 0.000388956 9.56952e-05
0.000287566 0.000288347 -0.000969723 0.000193404 0.000380449 8.82012e-05
0.000287943 0.000285757 -0.000970523 0.000210154 0.000370976 7.95146e-05
0.000287925 0.00028311 -0.000970433 0.000227607 0.000360444 6.94805e-05
0.000284131 0.000297408 -0.000956557 0.000107736 0.000425846 0.000128235
0.000286458 0.000294231 -0.000960724 0.000120867 0.000421357 0.0001252
0.000288631 0.00029107 -0.000964656 0.000134627 0.000416206 0.000121506
0.00029063 0.000287917 -0.000968293 0.00014905 0.000410359 0.000117125
0.000292424 0.000284766 -0.000971545 0.000164182 0.000403725 0.000111969
0.000293982 0.000281624 -0.000974346 0.000180059 0.000396231 0.000105921
0.000295265 0.000278476 -0.000976593 0.000196706 0.000387802 9.88428e-05
0.000296237 0.000275297 -0.000978142 0.000214144 0.000378351 9.05558e-05
0.000288849 0.000290707 -0.000959924 0.000108228 0.000432268 0.000136604
0.000291643 0.000286972 -0.000964553 0.000121638 0.000427901 0.000133968
0.000294301 0.000283243 -0.000968983 0.000135701 0.000422891 0.000130692
0.000296806 0.000279511 -0.000973151 0.000150484 0.000417159 0.000126754
0.000299134 0.000275774 -0.000976993 0.000166039 0.000410643 0.000122054
0.000301251 0.000272032 -0.000980432 0.000182409 0.000403269 0.000116473
0.000303123 0.000268278 -0.000983376 0.00019963 0.000394949 0.000109869
0.000304713 0.000264488 -0.000985697 0.000217737 0.000385571 0.00010206
0.000293617 0.000283868 -0.000963203 0.000108354 0.000438404 0.000145051
0.000296887 0.000279547 -0.000968282 0.000122003 0.000434169 0.000142829
0.000300046 0.000275226 -0.000973202 0.000136345 0.0004293 0.000140017
0.000303078 0.00027091 -0.000977894 0.0001515 0.000423744 0.000136576
0.000305957 0.000266543 -0.000982339 0.000167504 0.000417354 0.000132366
0.000308654 0.000262132 -0.000986412 0.000184352 0.000410114 0.000127301
0.000311137 0.000257731 -0.000990056 0.000202102 0.000401921 0.00012123
0.00031337 0.000253311 -0.000993156 0.000220834 0.000392638 0.000113972
0.000240204 0.000341988 -0.000921194 0.00014875 0.000289175 1.99528e-05
0.000238312 0.000342955 -0.00091952 0.000161359 0.000282793 1.15223e-05
0.000244452 0.000337261 -0.000926243 0.00015254 0.000297406 2.75527e-05
0.000242885 0.000337907 -0.000925054 0.00016565 0.000290935 1.92501e-05
0.000240993 0.000338568 -0.000923127 0.000179099 0.000283919 1.01305e-05
0.000238742 0.000339263 -0.000920409 0.000192781 0.000276322 3.50195e-08
0.000236092 0.000339986 -0.000916775 0.000206682 0.000268213 -1.11032e-05
0.000233002 0.000340731 -0.000912105 0.000220721 0.000259642 -2.33773e-05
0.000229426 0.000341496 -0.000906266 0.000234794 0.000250683 -3.68984e-05
0.00022531 0.000342294 -0.00089912 0.000248745 0.000241429 -5.17954e-05
0.000220597 0.000343147 -0.000890514 0.000262383 0.000232019 -6.8171e-05
0.000247593 0.000332614 -0.000930629 0.000169836 0.000299025 2.73517e-05
0.00024605 0.000332947 -0.000929239 0.000183817 0.000291883 1.83472e-05
0.000244158 0.000333292 -0.000927055 0.000198133 0.000284148 8.37561e-06
0.000241877 0.000333649 -0.000923974 0.000212715 0.000275858 -2.66335e-06
0.000239164 0.000334012 -0.000919867 0.000227469 0.000267062 -1.48715e-05
0.000235972 0.000334376 -0.000914594 0.000242276 0.000257834 -2.83709e-05
0.000232246 0.000334742 -0.000908006 0.000256989 0.000248282 -4.33232e-05
0.000252434 0.000327114 -0.000936252 0.000173913 0.000307112 3.57962e-05
0.000251255 0.000327092 -0.0009354 0.000188453 0.000299867 2.69653e-05
0.000249739 0.000327073 -0.000933774 0.000203381 0.000292003 1.71419e-05
0.000247845 0.000327053 -0.000931268 0.000218631 0.000283544 6.22216e-06
0.00024553 0.000327023 -0.00092775 0.000234116 0.000274531 -5.90664e-06
0.000242744 0.000326979 -0.000923073 0.000249707 0.000265033 -1.93858e-05
0.000239432 0.000326907 -0.000917068 0.00026527 0.00025515 -3.43592e-05
0.000257404 0.000321387 -0.000941901 0.000177852 0.000315157 4.46142e-05
0.000256606 0.000320997 -0.000941601 0.000192964 0.000307829 3.59804e-05
0.000255484 0.000320602 -0.000940551 0.000208522 0.000299855 2.63302e-05
0.000253996 0.000320194 -0.000938643 0.000224466 0.000291244 1.55556e-05
0.0002521 0.000319759 -0.000935741 0.000240715 0.000282027 3.53355e-06
0.000249742 0.000319283 -0.000931689 0.000257151 0.000272279 -9.9001e-06
0.000262502 0.00031543 -0.000947562 0.000181632 0.00032315 5.38134e-05
0.000262102 0.000314658 -0.000947825 0.000197325 0.00031576 4.54035e-05
0.000261391 0.000313873 -0.000947369 0.000213529 0.000307697 3.59555e-05
0.000260329 0.000313064 -0.000946082 0.000230192 0.000298954 2.53562e-05
0.000258872 0.000312213 -0.000943825 0.000247238 0.000289551 1.34726e-05
0.000256968 0.000311301 -0.000940426 0.000264555 0.000279552 1.25526e-07
0.000267723 0.000309239 -0.000953219 0.000185225 0.00033108 6.33991e-05
0.000267737 0.00030807 -0.000954056 0.000201507 0.000323651 5.52442e-05
0.000267457 0.000306881 -0.000954211 0.000218372 0.000315523 4.60318e-05
0.000266842 0.000305658 -0.000953567 0.000235776 0.000306669 3.56429e-05
0.000265848 0.000304384 -0.000951975 0.000253634 0.000297115 2.39193e-05
0.000264421 0.000303024 -0.000949279 0.000271877 0.000286876 1.07205e-05
0.000273063 0.000302812 -0.000958855 0.0001886 0.000338932 7.33736e-05
0.00027351 0.00030123 -0.000960275 0.000205477 0.00033149 6.55093e-05
0.000273678 0.000299621 -0.000961056 0.000223014 0.000323322 5.6571e-05
0.000273531 0.000297969 -0.000961077 0.000241179 0.000314384 4.64326e-05
0.000273023 0.000296247 -0.000960178 0.000259918 0.000304682 3.4914e-05
0.000277397 0.00029817 -0.000961936 0.000174969 0.000353335 9.03285e-05
0.000278519 0.000296167 -0.000964449 0.000191709 0.000346676 8.37379e-05
0.000279415 0.000294135 -0.000966464 0.000209192 0.000339263 7.6202e-05
0.000280052 0.000292089 -0.000967886 0.00022741 0.000331082 6.75817e-05
0.000280393 0.000289992 -0.000968591 0.000246352 0.00032209 5.77401e-05
0.000280395 0.000287812 -0.000968418 0.00026598 0.000312272 4.64902e-05
0.00028252 0.000291699 -0.000966917 0.00017728 0.000360934 0.000100681
0.000284088 0.000289252 -0.000969983 0.000194536 0.000354315 9.44815e-05
0.000285449 0.000286784 -0.000972604 0.000212605 0.000346955 8.73199e-05
0.000286574 0.000284282 -0.000974679 0.000231506 0.000338791 7.90678e-05
0.000287428 0.000281723 -0.000976076 0.000251222 0.00032979 6.95632e-05
0.000287964 0.000279069 -0.000976672 0.00027176 0.000319885 5.86539e-05
0.000280815 0.00029367 -0.000959186 0.000130842 0.000383918 0.000123957
0.000283243 0.0002908 -0.000963616 0.000146207 0.000379349 0.000120473
0.000285556 0.000287924 -0.000967843 0.00016233 0.000374172 0.000116285
0.000287738 0.000285033 -0.000971815 0.000179242 0.000368361 0.000111354
0.000289765 0.000282116 -0.000975444 0.000197001 0.00036184 0.000105584
0.000291609 0.000279176 -0.000978676 0.000215654 0.000354549 9.88529e-05
0.000293241 0.000276195 -0.000981412 0.000235235 0.000346432 9.10257e-05
0.00029463 0.000273144 -0.000983522 0.000255763 0.00033742 8.19245e-05
0.000284832 0.000288189 -0.000962547 0.000131327 0.000390874 0.000133562
0.000287673 0.00028486 -0.000967425 0.000147007 0.000386416 0.000130505
0.000290416 0.000281517 -0.000972136 0.000163474 0.000381364 0.000126767
0.000293049 0.000278147 -0.00097662 0.000180799 0.00037565 0.000122308
0.00029555 0.000274747 -0.000980818 0.000199042 0.000369224 0.000117021
0.000297894 0.000271311 -0.000984661 0.000218262 0.000362027 0.00011078
0.000300053 0.000267828 -0.000988064 0.000238513 0.000353987 0.000103442
0.000301996 0.000264268 -0.000990909 0.000259831 0.000345013 9.48279e-05
0.000288902 0.000282578 -0.000965818 0.000131406 0.000397652 0.000143269
0.000292166 0.000278764 -0.000971134 0.000147356 0.000393316 0.000140663
0.000295353 0.000274932 -0.00097632 0.000164139 0.000388393 0.000137425
0.000298453 0.000271084 -0.000981312 0.000181882 0.000382837 0.000133498
0.000301445 0.000267165 -0.000986091 0.000200629 0.000376517 0.000128732
0.000304306 0.000263173 -0.000990544 0.000220397 0.00036943 0.000123039
0.000307012 0.000259154 -0.000994617 0.000241267 0.000361488 0.000116261
0.000309533 0.000255074 -0.000998205 0.000263326 0.000352576 0.000108218
0.000240664 0.000326134 -0.000924505 0.000165858 0.000247912 2.14419e-05
0.0002392 0.000326588 -0.000923418 0.000179878 0.000241837 1.34936e-05
0.00024441 0.000322527 -0.000929481 0.000170834 0.000255708 2.96547e-05
0.000243226 0.000322718 -0.00092885 0.000185425 0.000249529 2.18594e-05
0.000241767 0.000322908 -0.000927569 0.000200374 0.000242908 1.32471e-05
0.000240005 0.000323113 -0.000925597 0.000215575 0.000235824 3.6499e-06
0.000237908 0.000323331 -0.000922826 0.000231012 0.000228355 -7.01313e-06
0.000235444 0.000323557 -0.000919152 0.000246602 0.000220563 -1.88465e-05
0.000232576 0.000323795 -0.000914466 0.000262227 0.000212533 -3.19761e-05
0.000229267 0.000324064 -0.000908656 0.000277711 0.000204363 -4.65561e-05
0.000225473 0.000324389 -0.000901596 0.000292844 0.000196196 -6.27207e-05
0.000247371 0.000318652 -0.000934328 0.000190886 0.000257245 3.06091e-05
0.000246215 0.000318571 -0.000933548 0.000206444 0.000250485 2.21402e-05
0.000244765 0.000318482 -0.000932073 0.000222361 0.000243249 1.26994e-05
0.000242987 0.000318388 -0.000929811 0.000238566 0.000235587 2.1731e-06
0.00024085 0.000318285 -0.000926654 0.000254964 0.000227562 -9.55203e-06
0.000238317 0.000318171 -0.000922482 0.000271424 0.000219257 -2.26136e-05
0.000235348 0.000318053 -0.000917177 0.000287777 0.000210793 -3.72018e-05
0.00025163 0.000314426 -0.000939858 0.000196256 0.00026504 3.97075e-05
0.000250791 0.000314053 -0.000939582 0.000212455 0.000258158 3.14429e-05
0.000249668 0.000313661 -0.000938626 0.000229069 0.000250776 2.21855e-05
0.000248227 0.000313248 -0.000936896 0.000246034 0.00024293 1.18194e-05
0.000246435 0.000312807 -0.000934279 0.000263258 0.000234675 2.19726e-07
0.000244255 0.000312337 -0.000930652 0.000280603 0.000226094 -1.27719e-05
0.000241646 0.000311829 -0.000925873 0.000297921 0.000217297 -2.73285e-05
0.000256003 0.000310021 -0.000945419 0.000201507 0.000272878 4.91895e-05
0.000255496 0.000309346 -0.000945662 0.000218361 0.000265894 4.11534e-05
0.000254714 0.000308643 -0.000945242 0.000235695 0.000258382 3.21054e-05
0.000253627 0.000307904 -0.000944067 0.000253449 0.000250365 2.19269e-05
0.000252199 0.000307118 -0.000942017 0.000271537 0.000241891 1.04827e-05
0.000250392 0.000306272 -0.000938961 0.000289837 0.00023305 -2.4097e-06
0.000260486 0.000305432 -0.000950999 0.000206614 0.000280756 5.90628e-05
0.000260326 0.000304447 -0.000951771 0.000224137 0.000273689 5.12826e-05
0.000259903 0.000303424 -0.000951906 0.00024221 0.000266066 4.24739e-05
0.000259187 0.000302351 -0.000951308 0.000260782 0.000257895 3.25148e-05
0.000258141 0.000301212 -0.000949852 0.000279774 0.000249216 2.12599e-05
0.000256728 0.000299991 -0.000947395 0.000299071 0.000240109 8.51238e-06
0.000265076 0.000300656 -0.000956579 0.000211548 0.000288667 6.93324e-05
0.000265279 0.00029935 -0.000957893 0.000229752 0.000281539 6.18395e-05
0.000265232 0.000297997 -0.000958601 0.000248583 0.000273825 5.33045e-05
0.000264905 0.000296583 -0.000958602 0.000268 0.000265521 4.36011e-05
0.000264262 0.00029509 -0.000957762 0.000287917 0.000256666 3.25607e-05
0.000263264 0.000293486 -0.000955949 0.000308262 0.000247299 2.00236e-05
0.000269771 0.000295689 -0.000962146 0.000216275 0.000296603 8e-05
0.000270352 0.000294052 -0.000964011 0.000235169 0.000289437 7.28304e-05
0.000270698 0.000292359 -0.000965308 0.000254775 0.000281658 6.46084e-05
0.000270779 0.000290593 -0.00096593 0.000275063 0.000273242 5.52022e-05
0.00027056 0.000288726 -0.000965733 0.000295979 0.000264215 4.44234e-05
0.000273403 0.000292489 -0.000964805 0.000201937 0.000311042 9.69531e-05
0.000274569 0.000290548 -0.000967676 0.000220742 0.000304536 9.10649e-05
0.000275543 0.000288548 -0.000970106 0.000240344 0.000297376 8.42578e-05
0.0002763 0.000286503 -0.000972008 0.000260739 0.000289557 7.63936e-05
0.000276808 0.000284375 -0.00097327 0.000281919 0.000281058 6.73316e-05
0.000277034 0.000282131 -0.000973748 0.000303848 0.000271885 5.68793e-05
0.000277908 0.000287473 -0.000969753 0.000205509 0.000318965 0.000107984
0.000279466 0.000285179 -0.000973153 0.00022493 0.00031248 0.000102517
0.000280849 0.000282835 -0.000976159 0.000245226 0.000305346 9.61189e-05
0.000282034 0.000280424 -0.000978678 0.000266418 0.000297516 8.86631e-05
0.000282992 0.000277923 -0.000980592 0.000288496 0.000288975 7.99866e-05
0.000283686 0.000275292 -0.000981788 0.000311466 0.000279685 6.99323e-05
0.000275911 0.000290034 -0.000961281 0.000153934 0.000342437 0.000129823
0.000278209 0.000287482 -0.000965916 0.000171367 0.000337798 0.000127013
0.000280409 0.000284906 -0.00097038 0.00018962 0.000332602 0.000123534
0.0002825 0.000282292 -0.000974622 0.000208731 0.000326831 0.00011934
0.000284461 0.000279626 -0.000978562 0.000228759 0.000320425 0.000114335
0.00028627 0.000276908 -0.000982151 0.000249751 0.000313337 0.000108403
0.0002879 0.000274117 -0.000985298 0.000271744 0.000305526 0.000101413
0.000289329 0.000271221 -0.000987885 0.000294761 0.000296945 9.31886e-05
0.000279451 0.000285766 -0.000964663 0.000155397 0.000349986 0.000140037
0.000282112 0.000282855 -0.000969734 0.000173226 0.000345451 0.000137676
0.000284691 0.000279911 -0.000974666 0.000191915 0.000340368 0.000134674
0.000287178 0.00027692 -0.000979401 0.00021154 0.000334681 0.000130983
0.000289557 0.000273874 -0.000983888 0.000232163 0.000328351 0.000126494
0.000291807 0.000270763 -0.000988063 0.000253843 0.000321335 0.000121088
0.000293901 0.000267574 -0.000991844 0.000276632 0.000313575 0.000114628
0.000295818 0.000264272 -0.000995127 0.000300578 0.000305001 0.000106942
0.000283045 0.000281378 -0.000967955 0.000156441 0.000357463 0.000150348
0.000286078 0.000278083 -0.000973453 0.000174626 0.000353045 0.000148466
0.000289048 0.000274753 -0.000978845 0.000193726 0.000348084 0.000145992
0.000291947 0.000271388 -0.000984074 0.000213872 0.000342541 0.000142864
0.000294759 0.000267935 -0.000989118 0.000235114 0.000336302 0.000138929
0.000297465 0.000264382 -0.000993877 0.000257469 0.000329378 0.000134108
0.000300043 0.000260767 -0.000998299 0.000281018 0.000321694 0.000128254
0.000302469 0.000257055 -0.00100229 0.000305853 0.000313154 0.00012119
0.000270033 0.000310458 -0.00092793 0.000178666 0.000206714 2.24545e-05
0.000269123 0.000310411 -0.000927505 0.000193493 0.000200922 1.36379e-05
0.000273259 0.000307974 -0.000932823 0.000184224 0.000214054 3.14245e-05
0.000272594 0.000307722 -0.000932825 0.000199659 0.000208144 2.27771e-05
0.000271698 0.000307452 -0.000932273 0.000215469 0.000201894 1.31968e-05
0.000270549 0.000307179 -0.000931137 0.000231558 0.0001953 2.50376e-06
0.000269121 0.000306903 -0.000929324 0.00024792 0.000188449 -9.39285e-06
0.000267388 0.000306624 -0.000926751 0.000264481 0.000181415 -2.261e-05
0.000265321 0.00030635 -0.000923328 0.000281129 0.000174293 -3.72822e-05
0.000262889 0.000306105 -0.000918969 0.000297691 0.000167187 -5.35576e-05
0.000260058 0.000305919 -0.000913574 0.000313973 0.000160249 -7.15483e-05
0.000276161 0.000304886 -0.000938194 0.000205752 0.000215466 3.23304e-05
0.000275529 0.000304403 -0.000938108 0.00022221 0.000209061 2.29091e-05
0.000274652 0.000303893 -0.000937432 0.000239051 0.000202299 1.23827e-05
0.000273504 0.00030336 -0.000936088 0.00025622 0.000195243 6.24248e-07
0.000272057 0.000302805 -0.000933987 0.000273627 0.000187965 -1.2495e-05
0.000270285 0.000302227 -0.000931032 0.000291149 0.000180563 -2.7124e-05
0.000268153 0.00030164 -0.000927132 0.000308624 0.000173164 -4.34486e-05
0.000279821 0.000301938 -0.000943618 0.000211771 0.000222946 4.22656e-05
0.000279465 0.000301225 -0.000944003 0.00022891 0.000216402 3.30685e-05
0.000278873 0.000300474 -0.000943807 0.000246489 0.000209476 2.2739e-05
0.000278019 0.000299681 -0.000942954 0.000264455 0.000202218 1.11452e-05
0.000276875 0.000298843 -0.000941349 0.000282725 0.000194697 -1.8552e-06
0.000275413 0.000297963 -0.000938892 0.00030117 0.000187008 -1.64345e-05
0.000273599 0.000297035 -0.000935466 0.000319655 0.000179276 -3.27673e-05
0.000283573 0.000298857 -0.000949078 0.000217682 0.000230558 5.2613e-05
0.000283505 0.000297911 -0.000949946 0.00023552 0.00022389 4.36697e-05
0.000283212 0.000296914 -0.00095025 0.000253861 0.000216813 3.35687e-05
0.000282666 0.000295858 -0.000949909 0.000272656 0.000209364 2.21731e-05
0.000281841 0.000294735 -0.000948825 0.00029183 0.000201607 9.32722e-06
0.000280706 0.000293535 -0.00094689 0.000311269 0.000193646 -5.16896e-06
0.000287414 0.000295639 -0.00095456 0.000223461 0.0002383 6.33793e-05
0.000287648 0.000294455 -0.000955925 0.000242013 0.000231527 5.47229e-05
0.000287667 0.000293208 -0.000956745 0.000261139 0.000224315 4.4887e-05
0.000287446 0.000291887 -0.000956939 0.000280796 0.000216689 3.37281e-05
0.000286955 0.000290476 -0.000956402 0.000300915 0.000208706 2.10774e-05
0.000286166 0.000288961 -0.000955013 0.000321395 0.000200463 6.71547e-06
0.000291341 0.00029228 -0.000960048 0.000229077 0.000246171 7.45681e-05
0.00029189 0.000290853 -0.000961921 0.000248359 0.000239313 6.62364e-05
0.000292237 0.000289352 -0.000963277 0.000268292 0.000231986 5.67069e-05
0.000292355 0.000287761 -0.000964027 0.000288841 0.0002242 4.5829e-05
0.000292217 0.000286066 -0.000964057 0.00030993 0.000216015 3.34063e-05
0.000291792 0.000284235 -0.000963258 0.000331502 0.000207491 1.92514e-05
0.000295352 0.000288776 -0.000965527 0.000234494 0.000254169 8.61797e-05
0.00029623 0.0002871 -0.000967919 0.000254519 0.000247249 7.82151e-05
0.000296919 0.000285339 -0.000969826 0.00027528 0.000239828 6.9039e-05
0.000297393 0.000283475 -0.000971153 0.000296751 0.000231904 5.84922e-05
0.000297626 0.000281481 -0.000971779 0.000318888 0.00022352 4.63542e-05
0.00029807 0.000287004 -0.000967672 0.000219682 0.000268655 0.000104715
0.000299445 0.000285138 -0.000970975 0.000239656 0.000262273 9.82126e-05
0.000300666 0.000283189 -0.0009739 0.000260448 0.000255332 9.06595e-05
0.000301712 0.000281162 -0.000976374 0.000282056 0.000247844 8.18895e-05
0.000302558 0.000279021 -0.000978298 0.000304476 0.000239805 7.17307e-05
0.00030318 0.000276732 -0.00097955 0.00032768 0.000231244 5.99541e-05
0.000301905 0.000283441 -0.000972569 0.000223891 0.000276882 0.000116681
0.00030362 0.000281317 -0.000976373 0.000244543 0.000270501 0.000110652
0.000305196 0.000279115 -0.000979844 0.000266093 0.00026356 0.000103564
0.000306614 0.000276815 -0.000982899 0.000288561 0.000256031 9.52591e-05
0.000307853 0.000274392 -0.000985434 0.000311943 0.000247916 8.55418e-05
0.000308882 0.000271804 -0.000987352 0.000336249 0.000239205 7.42102e-05
0.000299077 0.000286547 -0.000963172 0.000169243 0.000300914 0.000140423
0.000301399 0.000284327 -0.000968062 0.000187888 0.000296174 0.000137374
0.000303647 0.000282065 -0.000972816 0.000207374 0.000290929 0.000133579
0.000305811 0.000279744 -0.00097739 0.000227749 0.000285169 0.000128983
0.000307875 0.000277347 -0.00098171 0.000249073 0.000278846 0.000123474
0.000309821 0.000274871 -0.000985733 0.000271388 0.000271926 0.000116914
0.000311627 0.000272289 -0.00098938 0.000294728 0.000264389 0.00010914
0.000313276 0.000269569 -0.000992547 0.000319119 0.000256203 9.99428e-05
0.000302073 0.000283488 -0.000966563 0.000171163 0.000309036 0.000151431
0.000304709 0.000281009 -0.000971873 0.000190257 0.000304394 0.000148882
0.000307283 0.00027848 -0.000977077 0.000210237 0.000299249 0.000145616
0.00030979 0.000275885 -0.000982125 0.00023119 0.000293559 0.000141579
0.000312216 0.000273212 -0.000986967 0.00025318 0.000287294 0.000136649
0.000314545 0.000270448 -0.000991547 0.00027626 0.000280424 0.000130683
0.000316754 0.000267574 -0.000995794 0.000300474 0.00027291 0.000123514
0.000318829 0.000264554 -0.000999616 0.000325872 0.000264699 0.000114932
0.000305119 0.000280321 -0.000969861 0.000172657 0.000317193 0.000162531
0.000308075 0.000277561 -0.000975584 0.000192163 0.000312664 0.000160511
0.000310986 0.00027475 -0.000981235 0.000212619 0.000307634 0.000157829
0.000313849 0.000271886 -0.000986757 0.000234161 0.000302073 0.000154419
0.000316651 0.000268917 -0.000992131 0.000256845 0.000295884 0.000150112
0.000319375 0.000265826 -0.000997268 0.000280683 0.000289087 0.000144805
0.000322005 0.00026264 -0.00100212 0.000305742 0.000281625 0.000138322
0.000324522 0.000259322 -0.00100661 0.000332117 0.000273421 0.000130449
0.000270245 0.000294859 -0.000932124 0.000194567 0.000165904 9.28184e-06
0.00026987 0.000294317 -0.000932399 0.000210065 0.000160391 -9.0083e-07
0.000272927 0.000293498 -0.000936938 0.000200316 0.000172781 1.8884e-05
0.000272754 0.000292809 -0.000937613 0.000216453 0.000167135 8.85978e-06
0.000272409 0.000292086 -0.000937829 0.000232962 0.000161248 -2.20335e-06
0.000271877 0.000291342 -0.00093757 0.000249736 0.000155134 -1.44896e-05
0.000271138 0.00029058 -0.000936756 0.000266762 0.000148888 -2.80903e-05
0.000270175 0.000289804 -0.000935322 0.000283954 0.000142591 -4.31231e-05
0.00026897 0.000289025 -0.0009332 0.00030119 0.000136348 -5.97215e-05
0.000267499 0.000288271 -0.000930326 0.000318299 0.000130272 -7.80259e-05
0.000265738 0.00028758 -0.000926621 0.00033508 0.000124517 -9.81215e-05
0.000275716 0.000291204 -0.00094288 0.000222752 0.000174054 1.90784e-05
0.00027559 0.000290325 -0.000943529 0.000239943 0.000167999 8.1604e-06
0.000275283 0.000289402 -0.000943695 0.000257506 0.000161702 -3.97986e-06
0.000274777 0.000288438 -0.000943312 0.000275375 0.000155237 -1.74719e-05
0.000274055 0.000287437 -0.000942309 0.000293449 0.000148686 -3.24466e-05
0.000273099 0.000286404 -0.000940612 0.000311594 0.000142157 -4.90531e-05
0.000271884 0.000285356 -0.000938152 0.000329645 0.000135789 -6.74704e-05
0.000278752 0.000289532 -0.000948202 0.000228956 0.00018121 2.9727e-05
0.000278854 0.000288488 -0.00094929 0.000246866 0.000174998 1.90221e-05
0.000278784 0.000287385 -0.000949902 0.000265206 0.000168519 7.05974e-06
0.000278524 0.000286221 -0.000949971 0.000283912 0.000161836 -6.2964e-06
0.000278056 0.000284993 -0.000949423 0.000302889 0.000155029 -2.11926e-05
0.000277361 0.000283711 -0.000948179 0.000321997 0.000148205 -3.78028e-05
0.000276418 0.000282371 -0.000946146 0.000341091 0.0001415 -5.62937e-05
0.000281862 0.000287774 -0.000953563 0.000235032 0.000188582 4.0834e-05
0.000282203 0.000286566 -0.000955104 0.000253679 0.000182227 3.0375e-05
0.000282381 0.000285283 -0.000956179 0.000272822 0.000175576 1.86257e-05
0.000282379 0.00028392 -0.000956722 0.000292401 0.000168683 5.44162e-06
0.000282177 0.000282468 -0.000956652 0.000312327 0.000161624 -9.33849e-06
0.000281759 0.000280922 -0.000955884 0.000332473 0.000154517 -2.59182e-05
0.000285044 0.000285927 -0.000958948 0.00024095 0.000196174 5.24071e-05
0.000285636 0.000284553 -0.000960955 0.000260352 0.000189692 4.22314e-05
0.000286073 0.000283091 -0.000962512 0.000280325 0.000182885 3.07354e-05
0.000286341 0.00028153 -0.00096355 0.000300813 0.000175793 1.77655e-05
0.00028642 0.000279856 -0.000963983 0.000321734 0.000168489 3.14487e-06
0.000286292 0.000278058 -0.000963715 0.000342969 0.000161084 -1.33518e-05
0.000288296 0.000283983 -0.000964344 0.000246677 0.00020399 6.44508e-05
0.000289149 0.000282444 -0.000966828 0.000266852 0.000197401 5.4601e-05
0.000289859 0.000280804 -0.000968885 0.00028768 0.000190454 4.34044e-05
0.000290409 0.000279047 -0.000970439 0.000309111 0.000183179 3.06974e-05
0.000290783 0.00027716 -0.000971397 0.000331057 0.000175649 1.62724e-05
0.000290962 0.000275113 -0.000971668 0.000353439 0.000167943 -6.69665e-08
0.000291617 0.000281939 -0.000969733 0.000252174 0.000212034 7.69656e-05
0.000292743 0.000280233 -0.000972706 0.000273138 0.000205359 6.74899e-05
0.000293737 0.000278415 -0.000975279 0.000294843 0.000198293 5.66452e-05
0.000294583 0.000276464 -0.000977371 0.000317251 0.000190852 4.42568e-05
0.000295267 0.000274355 -0.00097888 0.000340303 0.000183099 3.0089e-05
0.000293491 0.000281581 -0.000971308 0.000236453 0.000226546 9.78058e-05
0.000295006 0.000279802 -0.000975093 0.000257388 0.000220288 8.99505e-05
0.000296416 0.000277913 -0.00097857 0.000279161 0.000213568 8.08991e-05
0.000297707 0.000275916 -0.000981676 0.000301763 0.000206408 7.04657e-05
0.000298864 0.000273773 -0.000984326 0.000325179 0.000198825 5.84597e-05
0.000299873 0.000271451 -0.000986416 0.000349364 0.000190866 4.46326e-05
0.000296668 0.000279468 -0.000976146 0.000240641 0.000235055 0.000110747
0.000298465 0.000277524 -0.000980408 0.00026229 0.000228779 0.00010339
0.000300169 0.000275475 -0.000984402 0.000284864 0.000222033 9.48225e-05
0.00030177 0.000273298 -0.000988054 0.00030838 0.000214805 8.48674e-05
0.000303254 0.000270965 -0.000991277 0.00033282 0.000207115 7.33067e-05
0.000304603 0.000268434 -0.000993986 0.000358177 0.000198976 5.99118e-05
0.000293297 0.00028309 -0.000965669 0.000183081 0.000259624 0.000138664
0.000295551 0.00028121 -0.00097086 0.000202641 0.000254782 0.000134671
0.000297755 0.00027927 -0.000975952 0.000223079 0.000249487 0.000129825
0.000299907 0.000277251 -0.000980909 0.000244444 0.000243739 0.000124063
0.000301994 0.000275134 -0.000985663 0.000266797 0.0002375 0.000117255
0.000304005 0.00027291 -0.000990181 0.000290181 0.000230752 0.000109244
0.000305929 0.000270551 -0.000994392 0.00031462 0.000223488 9.98425e-05
0.000307755 0.000268021 -0.000998209 0.000340133 0.000215699 8.8815e-05
0.000295788 0.000281238 -0.000969055 0.000184844 0.000268295 0.000150612
0.000298301 0.000279198 -0.00097465 0.000204872 0.000263541 0.000147155
0.000300777 0.000277091 -0.000980177 0.000225825 0.000258335 0.000142874
0.000303213 0.000274901 -0.000985588 0.000247794 0.000252642 0.000137708
0.000305601 0.000272612 -0.000990841 0.000270846 0.000246444 0.000131516
0.000307931 0.000270206 -0.000995888 0.000295034 0.000239723 0.000124135
0.00031019 0.000267661 -0.00100067 0.000320399 0.000232457 0.00011537
0.00031237 0.000264936 -0.0010051 0.000346983 0.000224614 0.000104982
0.000298329 0.000279288 -0.000972345 0.000186157 0.000277102 0.000162662
0.000301108 0.00027707 -0.000978341 0.000206611 0.000272458 0.000159773
0.000303864 0.000274785 -0.000984297 0.000228058 0.000267357 0.000156121
0.000306595 0.000272432 -0.000990165 0.000250641 0.00026178 0.000151625
0.000309295 0.000269958 -0.000995926 0.000274417 0.000255645 0.000146103
0.000311954 0.000267341 -0.0010015 0.000299399 0.000248978 0.000139427
0.000314563 0.000264598 -0.00100686 0.000325658 0.000241741 0.000131389
0.000317112 0.000261688 -0.00101192 0.000353281 0.000233879 0.000121746
0.000277464 0.000279313 -0.000936196 0.00021161 0.00012532 7.30263e-07
0.000277725 0.000278284 -0.000937114 0.000228024 0.000120096 -9.56096e-06
0.000279503 0.000279071 -0.000940962 0.000217685 0.00013175 1.03479e-05
0.00027993 0.000277953 -0.000942253 0.000234789 0.000126378 2.08734e-07
0.000280236 0.000276786 -0.000943177 0.000252251 0.000120865 -1.09645e-05
0.000280411 0.000275581 -0.000943727 0.000269951 0.000115239 -2.33562e-05
0.000280442 0.000274343 -0.00094384 0.000287855 0.0001096 -3.70616e-05
0.000280318 0.000273079 -0.000943468 0.000305854 0.000104039 -5.22011e-05
0.000280023 0.000271804 -0.000942564 0.000323808 9.867e-05 -6.89118e-05
0.000279544 0.000270552 -0.000941089 0.000341526 9.36131e-05 -8.73501e-05
0.00027886 0.000269365 -0.000938987 0.000358781 8.9022e-05 -0.000107624
0.000282188 0.000277574 -0.000947451 0.00024144 0.000132913 1.04409e-05
0.000282674 0.00027631 -0.000948774 0.000259641 0.000127219 -5.93217e-07
0.000283036 0.000274984 -0.000949715 0.000278191 0.000121397 -1.2842e-05
0.000283261 0.0002736 -0.000950219 0.000297004 0.000115527 -2.64378e-05
0.000283338 0.000272164 -0.000950236 0.000315956 0.000109704 -4.15124e-05
0.000283253 0.000270686 -0.00094971 0.000334888 0.000104044 -5.82185e-05
0.000282992 0.000269187 -0.000948602 0.000353616 9.86961e-05 -7.67529e-05
0.000284497 0.000277173 -0.000952706 0.000247968 0.000139763 2.1105e-05
0.00028517 0.000275809 -0.000954437 0.000266947 0.000133896 1.02784e-05
0.000285728 0.000274365 -0.000955788 0.000286339 0.000127875 -1.79587e-06
0.000286157 0.000272841 -0.000956705 0.000306061 0.000121774 -1.52549e-05
0.000286446 0.000271236 -0.000957132 0.000325992 0.000115683 -3.02453e-05
0.000286582 0.000269563 -0.000957014 0.000345967 0.000109721 -4.6945e-05
0.000286552 0.000267824 -0.00095628 0.000365814 0.000104036 -6.55345e-05
0.000286855 0.000276734 -0.000958004 0.000254338 0.000146913 3.22349e-05
0.000287726 0.000275273 -0.000960157 0.000274116 0.000140886 2.16463e-05
0.000288488 0.000273716 -0.000961936 0.00029438 0.000134675 9.77964e-06
0.000289131 0.000272057 -0.000963288 0.00031505 0.000128347 -3.50857e-06
0.000289642 0.00027029 -0.000964149 0.000336013 0.000121991 -1.8379e-05
0.000290011 0.000268413 -0.000964459 0.000357114 0.000115738 -3.50383e-05
0.000289262 0.00027625 -0.000963332 0.000260518 0.000154373 4.38395e-05
0.000290338 0.000274696 -0.000965921 0.000281115 0.0001482 3.35241e-05
0.000291315 0.000273032 -0.000968146 0.00030228 0.000141813 2.1903e-05
0.000292182 0.000271245 -0.000969953 0.000323939 0.000135267 8.82534e-06
0.000292927 0.000269323 -0.000971272 0.000345985 0.000128649 -5.8838e-06
0.000293539 0.000267257 -0.000972032 0.00036827 0.000122085 -2.24506e-05
0.000291716 0.000275715 -0.000968675 0.000266471 0.000162152 5.59251e-05
0.000293007 0.000274074 -0.000971711 0.000287906 0.000155852 4.5923e-05
0.000294208 0.000272308 -0.000974402 0.000309999 0.000149303 3.45911e-05
0.000295309 0.0002704 -0.000976685 0.000332686 0.000142553 2.17698e-05
0.0002963 0.000268337 -0.000978485 0.000355853 0.000135688 7.25601e-06
0.000297169 0.00026609 -0.000979731 0.000379388 0.000128806 -9.14622e-06
0.000294217 0.000275123 -0.000974016 0.000272158 0.000170259 6.84933e-05
0.000295731 0.000273399 -0.000977512 0.000294445 0.000163851 5.88506e-05
0.000297166 0.000271536 -0.000980685 0.00031749 0.000157161 4.7858e-05
0.000298512 0.000269514 -0.000983467 0.000341242 0.000150222 3.53457e-05
0.000299761 0.000267305 -0.000985774 0.000365617 0.000143113 2.10856e-05
0.000294958 0.000276163 -0.000975113 0.000255238 0.000184788 8.95899e-05
0.000296764 0.000274479 -0.000979333 0.000277519 0.000178681 8.15427e-05
0.00029851 0.000272661 -0.000983304 0.000300679 0.000172206 7.23096e-05
0.00030019 0.000270707 -0.000986977 0.000324699 0.000165398 6.17133e-05
0.000301793 0.000268578 -0.000990278 0.000349549 0.000158292 4.95705e-05
0.000303312 0.000266242 -0.000993122 0.000375161 0.000150954 3.56428e-05
0.000297324 0.000275492 -0.000979934 0.000259481 0.000193594 0.000102624
0.000299359 0.000273737 -0.000984607 0.000282527 0.00018745 9.50604e-05
0.000301348 0.000271851 -0.00098907 0.000306549 0.000180927 8.62964e-05
0.000303282 0.00026981 -0.000993257 0.000331558 0.000174028 7.6161e-05
0.000305156 0.000267582 -0.000997095 0.000357525 0.000166787 6.44467e-05
0.000306958 0.000265127 -0.00100051 0.000384421 0.000159242 5.09362e-05
0.000292787 0.000279607 -0.000968524 0.00019796 0.000218629 0.000131302
0.000295121 0.00027807 -0.000973985 0.000218786 0.000213712 0.000127091
0.000297437 0.000276458 -0.000979382 0.000240549 0.000208396 0.00012203
0.000299735 0.000274747 -0.000984683 0.000263298 0.000202688 0.00011605
0.000302007 0.000272918 -0.000989827 0.000287097 0.000196563 0.000109023
0.000304247 0.000270956 -0.000994787 0.000311987 0.000190017 0.000100798
0.000306447 0.000268832 -0.000999503 0.000337993 0.000183058 9.11961e-05
0.000308603 0.000266507 -0.0010039 0.000365123 0.000175695 7.99948e-05
0.000294593 0.000278955 -0.00097194 0.00019961 0.000227856 0.000143408
0.000297136 0.000277357 -0.000977794 0.000220927 0.00022302 0.000139723
0.000299671 0.000275678 -0.000983611 0.000243235 0.000217781 0.000135217
0.000302198 0.000273898 -0.000989348 0.000266625 0.000212116 0.000129822
0.000304715 0.000272 -0.000994971 0.000291165 0.000206017 0.000123399
0.000307214 0.000269962 -0.00100044 0.000316914 0.000199479 0.000115787
0.00030969 0.000267757 -0.00100569 0.000343917 0.000192496 0.000106802
0.000312139 0.000265343 -0.00101067 0.000372207 0.000185054 9.62158e-05
0.000296441 0.000278218 -0.000975259 0.000200789 0.000237321 0.000155631
0.000299197 0.000276544 -0.000981502 0.000222553 0.00023259 0.000152507
0.000301957 0.000274789 -0.000987735 0.000245377 0.000227451 0.000148622
0.000304723 0.000272951 -0.000993915 0.000269412 0.00022189 0.000143887
0.000307493 0.00027098 -0.00100002 0.000294716 0.000215843 0.000138118
0.000310261 0.000268844 -0.001006 0.000321307 0.000209342 0.000131196
0.000313024 0.000266554 -0.0010118 0.000349268 0.000202369 0.000122918
0.000315778 0.000264068 -0.00101737 0.000378684 0.000194886 0.000113052
0.00027678 0.00026382 -0.0009397 0.000214082 8.41038e-05 2.85646e-06
0.000277467 0.00026231 -0.000941236 0.000230919 7.91478e-05 -7.03505e-06
0.000278283 0.000264694 -0.000944415 0.000220347 9.00851e-05 1.25428e-05
0.000279091 0.000263155 -0.000946296 0.00023789 8.49648e-05 2.81805e-06
0.000279828 0.000261552 -0.0009479 0.00025582 7.98033e-05 -7.9365e-06
0.000280493 0.000259893 -0.000949234 0.000274019 7.46451e-05 -1.99107e-05
0.00028108 0.000258188 -0.000950249 0.000292455 6.95993e-05 -3.32102e-05
0.000281584 0.000256445 -0.000950917 0.000311022 6.47626e-05 -4.79664e-05
0.000282005 0.000254685 -0.000951211 0.000329578 6.02638e-05 -6.43267e-05
0.000282337 0.000252945 -0.000951119 0.000347925 5.62264e-05 -8.24605e-05
0.000282574 0.000251272 -0.000950607 0.000365824 5.28055e-05 -0.000102499
0.000280751 0.000263999 -0.00095142 0.000244751 9.11102e-05 1.31236e-05
0.000281621 0.000262357 -0.000953389 0.000263435 8.57545e-05 2.52539e-06
0.000282423 0.000260636 -0.000955076 0.000282503 8.03856e-05 -9.28507e-06
0.000283153 0.000258841 -0.000956442 0.000301871 7.50962e-05 -2.24501e-05
0.000283808 0.000256981 -0.000957454 0.000321419 6.99877e-05 -3.71124e-05
0.000284386 0.00025507 -0.000958078 0.000340988 6.5192e-05 -5.34357e-05
0.000284886 0.000253132 -0.000958305 0.000360387 6.08645e-05 -7.16322e-05
0.000282448 0.000264868 -0.000956606 0.000251491 9.76515e-05 2.38475e-05
0.000283455 0.000263189 -0.000958949 0.00027097 9.21058e-05 1.34754e-05
0.000284401 0.000261413 -0.000961009 0.0002909 8.65205e-05 1.86159e-06
0.000285281 0.000259539 -0.000962747 0.000311199 8.09826e-05 -1.11401e-05
0.000286094 0.000257568 -0.000964123 0.000331753 7.55956e-05 -2.56865e-05
0.000286839 0.000255517 -0.000965107 0.000352397 7.04881e-05 -4.19672e-05
0.000287516 0.00025339 -0.000965653 0.000372956 6.58212e-05 -6.01815e-05
0.000284179 0.000265743 -0.00096184 0.000258078 0.00010458 3.50262e-05
0.000285331 0.000264037 -0.000964572 0.000278372 9.88545e-05 2.49104e-05
0.000286427 0.000262215 -0.000967024 0.000299192 9.30597e-05 1.35264e-05
0.000287466 0.000260271 -0.000969153 0.000320462 8.72765e-05 7.23043e-07
0.000288444 0.000258201 -0.000970917 0.000342074 8.16079e-05 -1.36701e-05
0.000289364 0.000256004 -0.000972279 0.000363875 7.61993e-05 -2.98718e-05
0.000285946 0.00026662 -0.000967109 0.000264482 0.000111911 4.66685e-05
0.000287248 0.000264895 -0.000970245 0.000285611 0.000106018 3.68432e-05
0.000288503 0.000263038 -0.000973106 0.000307349 0.000100025 2.57267e-05
0.000289707 0.000261035 -0.000975649 0.000329629 9.40023e-05 1.31619e-05
0.000290859 0.000258876 -0.000977823 0.000352349 8.80524e-05 -1.03529e-06
0.000291961 0.000256555 -0.000979583 0.000375366 8.23173e-05 -1.71035e-05
0.000287746 0.000267491 -0.0009724 0.000270668 0.000119659 5.87799e-05
0.000289207 0.000265757 -0.000975952 0.00029265 0.000113615 4.92841e-05
0.000290628 0.000263874 -0.000979241 0.000315334 0.000107436 3.84783e-05
0.000292005 0.000261825 -0.000982218 0.000338662 0.000101185 2.6198e-05
0.00029334 0.000259598 -0.000984827 0.000362527 9.49649e-05 1.22329e-05
0.000294632 0.000257165 -0.000987017 0.000386825 8.88923e-05 -3.62736e-06
0.00028958 0.000268349 -0.000977694 0.000276599 0.000127835 7.13617e-05
0.000291208 0.000266614 -0.000981676 0.000299448 0.00012166 6.224e-05
0.000292802 0.000264716 -0.000985411 0.000323103 0.000115315 5.17941e-05
0.000294361 0.000262633 -0.000988845 0.000347515 0.00010885 3.98508e-05
0.000295887 0.000260339 -0.000991913 0.000372611 0.000102361 2.61766e-05
0.000289626 0.000270778 -0.000978354 0.000259396 0.000142427 9.19539e-05
0.00029145 0.000269195 -0.000982971 0.000282219 0.000136434 8.44113e-05
0.000293251 0.000267456 -0.000987399 0.000305959 0.00013017 7.57131e-05
0.000295028 0.000265554 -0.000991598 0.000330605 0.000123681 6.56829e-05
0.000296778 0.000263451 -0.00099551 0.000356135 0.000117021 5.41361e-05
0.000298505 0.000261113 -0.000999067 0.000382492 0.000110275 4.08304e-05
0.000291363 0.000271546 -0.000983165 0.000263899 0.000151544 0.000104967
0.00029336 0.000269986 -0.00098821 0.000287505 0.000145496 9.79166e-05
0.000295342 0.000268272 -0.000993101 0.000312126 0.000139158 8.96998e-05
0.000297309 0.000266376 -0.000997781 0.00033778 0.000132552 8.01482e-05
0.000299262 0.000264265 -0.00100219 0.000364448 0.000125726 6.90553e-05
0.0003012 0.0002619 -0.00100627 0.00039211 0.000118745 5.62009e-05
0.000286622 0.000276138 -0.000970936 0.000201125 0.000177169 0.000132242
0.000288793 0.000274949 -0.000976633 0.000222435 0.000172143 0.000128457
0.000290965 0.000273668 -0.000982299 0.000244712 0.000166769 0.000123854
0.00029314 0.000272272 -0.000987906 0.000268004 0.000161066 0.000118363
0.000295313 0.000270737 -0.0009934 0.000292381 0.000155018 0.000111856
0.000297484 0.000269045 -0.000998762 0.00031789 0.000148635 0.000104188
0.000299652 0.000267166 -0.00100394 0.000344561 0.000141944 9.51851e-05
0.000301818 0.000265057 -0.00100887 0.000372412 0.000134969 8.46283e-05
0.000287953 0.000276685 -0.000974394 0.000203038 0.000186973 0.000144308
0.00029028 0.000275535 -0.00098047 0.000224855 0.000182021 0.000141047
0.000292616 0.000274288 -0.000986541 0.000247695 0.000176715 0.000137001
0.000294962 0.000272924 -0.000992567 0.000271649 0.000171042 0.000132097
0.00029732 0.000271422 -0.000998518 0.000296791 0.000165004 0.000126199
0.000299688 0.000269759 -0.00100436 0.00032318 0.000158609 0.000119152
0.000302064 0.000267904 -0.00101004 0.00035087 0.000151869 0.000110777
0.000304452 0.000265812 -0.00101552 0.000379903 0.000144787 0.000100855
0.000289326 0.000277163 -0.000977753 0.000204514 0.000197122 0.00015649
0.000291813 0.000276037 -0.000984206 0.000226796 0.00019227 0.000153789
0.000294317 0.000274816 -0.00099068 0.000250174 0.000187057 0.000150361
0.000296843 0.000273499 -0.000997133 0.000274795 0.000181477 0.000146118
0.000299393 0.000272035 -0.00100355 0.000300722 0.000175477 0.000140876
0.000301965 0.000270388 -0.00100987 0.000327978 0.000169104 0.000134522
0.00030456 0.00026856 -0.00101607 0.00035665 0.000162354 0.000126864
0.000307179 0.000266508 -0.00102211 0.000386832 0.000155208 0.000117678
0.00030505 0.000248349 -0.000943073 0.000212757 4.27847e-05 8.84588e-06
0.000306262 0.000246358 -0.000945258 0.000229601 3.80795e-05 -1.24412e-06
0.000306117 0.000250342 -0.000947716 0.000219065 4.83105e-05 1.90151e-05
0.000307416 0.000248381 -0.000950219 0.000236603 4.3425e-05 9.08434e-06
0.00030869 0.000246341 -0.000952538 0.000254561 3.85984e-05 -1.9033e-06
0.000309943 0.000244229 -0.000954692 0.000272832 3.38933e-05 -1.41352e-05
0.000311176 0.000242057 -0.000956646 0.000291396 2.94263e-05 -2.77098e-05
0.00031239 0.000239838 -0.00095839 0.000310161 2.53036e-05 -4.27501e-05
0.000313592 0.000237594 -0.000959917 0.000329 2.16655e-05 -5.93914e-05
0.000314786 0.000235371 -0.000961238 0.000347721 1.86411e-05 -7.77839e-05
0.000315974 0.000233217 -0.000962342 0.000366101 1.6388e-05 -9.80318e-05
0.000308588 0.00025045 -0.000955248 0.000243508 4.91744e-05 1.98902e-05
0.000309959 0.00024843 -0.000957898 0.000262207 4.41398e-05 9.04881e-06
0.000311311 0.000246315 -0.000960371 0.000281332 3.92079e-05 -3.03588e-06
0.000312649 0.000244109 -0.000962638 0.000300813 3.44833e-05 -1.65001e-05
0.000313975 0.000241826 -0.000964684 0.000320544 3.00779e-05 -3.14795e-05
0.000315295 0.000239483 -0.000966498 0.000340384 2.61354e-05 -4.81265e-05
0.000316617 0.000237108 -0.000968094 0.00036015 2.28201e-05 -6.6632e-05
0.000309779 0.00025259 -0.000960339 0.000250309 5.5402e-05 3.11427e-05
0.000311248 0.000250598 -0.000963333 0.00026979 5.01585e-05 2.05194e-05
0.000312705 0.00024849 -0.000966143 0.00028976 4.49909e-05 8.6172e-06
0.000314153 0.000246265 -0.000968743 0.000310154 4.00002e-05 -4.70615e-06
0.000315596 0.000243929 -0.000971112 0.000330873 3.53023e-05 -1.96018e-05
0.000317041 0.000241501 -0.00097324 0.000351769 3.10376e-05 -3.62483e-05
0.000318499 0.000238988 -0.000975109 0.000372683 2.73798e-05 -5.48258e-05
0.000310986 0.000254783 -0.000965482 0.000256974 6.21042e-05 4.28758e-05
0.00031256 0.000252833 -0.000968834 0.000277255 5.66597e-05 3.25044e-05
0.000314127 0.000250745 -0.000972 0.000298099 5.12613e-05 2.08211e-05
0.00031569 0.000248516 -0.000974952 0.000319444 4.60048e-05 7.67638e-06
0.000317255 0.000246141 -0.000977666 0.000341198 4.10078e-05 -7.09626e-06
0.000318831 0.000243626 -0.000980127 0.000363228 3.64297e-05 -2.37057e-05
0.000312209 0.000257024 -0.000970665 0.000263475 6.93012e-05 5.50979e-05
0.000313893 0.000255128 -0.000974388 0.000284577 6.3667e-05 4.5017e-05
0.000315575 0.000253076 -0.000977928 0.000306321 5.80461e-05 3.35943e-05
0.00031726 0.000250857 -0.000981254 0.000328654 5.25275e-05 2.06721e-05
0.000318953 0.000248462 -0.000984335 0.000351492 4.7228e-05 6.06801e-06
0.000320665 0.000245885 -0.000987146 0.000374712 4.23064e-05 -1.0449e-05
0.000313449 0.000259305 -0.000975872 0.00026978 7.7012e-05 6.78141e-05
0.000315248 0.000257477 -0.000979981 0.000291721 7.12034e-05 5.80675e-05
0.000317051 0.000255476 -0.000983914 0.000314394 6.53723e-05 4.69536e-05
0.000318863 0.000253286 -0.000987634 0.000337752 5.95992e-05 3.43045e-05
0.00032069 0.000250894 -0.000991105 0.000361707 5.4004e-05 1.99092e-05
0.000322543 0.000248275 -0.000994296 0.000386178 4.87236e-05 3.56151e-06
0.000314704 0.000261616 -0.000981088 0.000275856 8.52546e-05 8.10253e-05
0.000316625 0.000259871 -0.000985596 0.000298652 7.9291e-05 7.1663e-05
0.000318555 0.000257937 -0.00098994 0.000322278 7.32667e-05 6.09124e-05
0.0003205 0.000255793 -0.000994076 0.000346697 6.72517e-05 4.85948e-05
0.000322469 0.000253412 -0.000997962 0.000371854 6.13622e-05 3.44727e-05
0.000313944 0.000265437 -0.000981239 0.000258903 9.99323e-05 0.00010244
0.000315978 0.000263958 -0.000986289 0.00028165 9.40297e-05 9.47292e-05
0.000318026 0.000262299 -0.000991214 0.000305327 8.79515e-05 8.58049e-05
0.000320089 0.000260449 -0.000995987 0.000329928 8.17557e-05 7.548e-05
0.000322175 0.00025837 -0.00100056 0.000355444 7.55165e-05 6.35603e-05
0.000324291 0.00025603 -0.00100489 0.000381831 6.93395e-05 4.97963e-05
0.000315115 0.000267651 -0.000986003 0.000263619 0.000109359 0.000116107
0.000317274 0.000266288 -0.000991457 0.000287146 0.000103383 0.000108911
0.000319454 0.000264746 -0.000996816 0.000311698 9.72046e-05 0.000100488
0.000321658 0.000262996 -0.00100204 0.000337294 9.08641e-05 9.06588e-05
0.000323893 0.000261002 -0.00100707 0.000363927 8.44266e-05 7.92041e-05
0.000326164 0.000258725 -0.00101187 0.00039159 7.79832e-05 6.58893e-05
0.000309597 0.00027272 -0.000972843 0.000201333 0.000135647 0.000144148
0.00031181 0.000271881 -0.000978796 0.000222566 0.000130489 0.000140368
0.000314046 0.000270935 -0.000984757 0.000244762 0.000125034 0.000135734
0.000316308 0.000269855 -0.0009907 0.000267975 0.000119309 0.000130172
0.000318598 0.000268615 -0.000996578 0.000292274 0.000113313 0.000123546
0.000320916 0.000267196 -0.00100238 0.00031771 0.000107067 0.000115699
0.000323268 0.000265562 -0.00100806 0.000344314 0.000100614 0.000106442
0.000325661 0.00026367 -0.00101358 0.000372112 9.39995e-05 9.55442e-05
0.000310468 0.000274473 -0.000976309 0.000203517 0.00014603 0.000156808
0.000312793 0.000273772 -0.000982627 0.000225265 0.000140939 0.00015358
0.000315147 0.00027296 -0.000988976 0.000248032 0.000135541 0.000149532
0.000317535 0.000272015 -0.000995318 0.000271914 0.000129834 0.000144587
0.000319959 0.000270913 -0.00100163 0.000296983 0.000123831 0.000138601
0.000322422 0.000269628 -0.00100788 0.000323301 0.000117552 0.000131407
0.000324928 0.000268124 -0.00101404 0.000350919 0.000111025 0.000122812
0.000327486 0.000266356 -0.00102006 0.000379887 0.000104275 0.000112578
0.000311372 0.000276172 -0.000979673 0.000205302 0.000156865 0.000169581
0.000313812 0.000275598 -0.000986356 0.000227527 0.00015187 0.000166942
0.000316287 0.000274915 -0.000993091 0.000250846 0.000146558 0.000163544
0.000318806 0.000274122 -0.000999844 0.000275405 0.000140932 0.000159296
0.000321371 0.000273169 -0.0010066 0.000301269 0.000134953 0.000154004
0.000323985 0.000272013 -0.00101331 0.00032846 0.000128679 0.000147544
0.000326653 0.00027065 -0.00101995 0.000357061 0.000122121 0.000139705
0.000329383 0.000269034 -0.00102649 0.000387168 0.000115282 0.000130247
0.00031314 0.000232884 -0.000946282 0.000214944 1.78978e-06 1.7704e-05
0.000314885 0.000230412 -0.000949125 0.000231761 -2.66594e-06 7.32052e-06
0.000313632 0.000235996 -0.00095083 0.000221282 6.86616e-06 2.8809e-05
0.000315425 0.000233613 -0.000953965 0.000238797 2.21342e-06 1.8568e-05
0.000317246 0.000231135 -0.000957011 0.000256723 -2.28227e-06 7.23043e-06
0.000319102 0.000228568 -0.000959995 0.000274951 -6.54247e-06 -5.38388e-06
0.000321002 0.000225929 -0.000962897 0.000293459 -1.04438e-05 -1.93548e-05
0.000322953 0.000223232 -0.000965722 0.000312157 -1.38713e-05 -3.47842e-05
0.000324965 0.000220504 -0.000968483 0.000330912 -1.66751e-05 -5.17807e-05
0.000327051 0.000217795 -0.000971212 0.000349536 -1.87194e-05 -7.04534e-05
0.000329216 0.000215161 -0.000973916 0.000367807 -1.98449e-05 -9.08529e-05
0.000315962 0.000236908 -0.000958876 0.000245732 7.5757e-06 3.03422e-05
0.000317838 0.00023451 -0.000962221 0.0002644 2.85882e-06 1.91293e-05
0.000319754 0.000231998 -0.00096549 0.000283484 -1.64278e-06 6.62774e-06
0.000321718 0.000229381 -0.00096867 0.000302912 -5.81468e-06 -7.2817e-06
0.00032374 0.000226672 -0.00097176 0.000322578 -9.53501e-06 -2.2716e-05
0.000325832 0.000223895 -0.000974768 0.000342337 -1.26498e-05 -3.98014e-05
0.000328009 0.000221083 -0.000977731 0.000362008 -1.49868e-05 -5.86842e-05
0.000316496 0.000240321 -0.000963848 0.000252558 1.34953e-05 4.26203e-05
0.000318428 0.000238014 -0.000967506 0.000272011 8.55256e-06 3.16072e-05
0.000320406 0.000235573 -0.00097108 0.000291944 3.79775e-06 1.92586e-05
0.000322437 0.000232996 -0.000974557 0.000312288 -6.56224e-07 5.44426e-06
0.000324534 0.000230292 -0.000977931 0.000332943 -4.68165e-06 -9.97099e-06
0.000326709 0.000227483 -0.000981214 0.00035376 -8.12767e-06 -2.71395e-05
0.000328981 0.000224584 -0.000984406 0.00037458 -1.08094e-05 -4.61994e-05
0.000317025 0.000243833 -0.000968873 0.000259244 1.99758e-05 5.54306e-05
0.000319017 0.000241637 -0.000972859 0.000279501 1.48133e-05 4.46584e-05
0.000321059 0.000239282 -0.000976756 0.000300311 9.80809e-06 3.25052e-05
0.00032316 0.000236765 -0.000980548 0.000321608 5.07e-06 1.88287e-05
0.000325334 0.000234085 -0.000984228 0.000343302 7.29685e-07 3.47499e-06
0.000327596 0.000231248 -0.000987802 0.000365256 -3.04092e-06 -1.37401e-05
0.00031755 0.00024744 -0.00097394 0.000265761 2.70422e-05 6.87811e-05
0.000319604 0.000245371 -0.000978267 0.000286842 2.16697e-05 5.82968e-05
0.000321713 0.000243123 -0.000982505 0.000308556 1.64207e-05 4.63886e-05
0.000323888 0.000240686 -0.000986634 0.000330846 1.13998e-05 3.29006e-05
0.000326141 0.000238051 -0.00099064 0.000353627 6.73832e-06 1.76591e-05
0.000328493 0.000235217 -0.000994521 0.000376774 2.60919e-06 4.53856e-07
0.00031807 0.000251132 -0.000979033 0.000272078 3.47187e-05 8.26763e-05
0.00032019 0.000249209 -0.000983716 0.000294002 2.91504e-05 7.25336e-05
0.000322369 0.00024709 -0.000988312 0.000316648 2.36684e-05 6.09277e-05
0.000324619 0.000244755 -0.000992798 0.000339967 1.83703e-05 4.76878e-05
0.000326957 0.000242196 -0.000997154 0.00036387 1.33901e-05 3.26061e-05
0.000329399 0.000239388 -0.00100137 0.000388271 8.88368e-06 1.54915e-05
0.000318587 0.0002549 -0.000984137 0.000278159 4.30284e-05 9.71163e-05
0.000320775 0.000253143 -0.000989188 0.000300943 3.72831e-05 8.73757e-05
0.000323028 0.000251172 -0.000994162 0.000324546 3.15839e-05 7.61376e-05
0.000325357 0.000248965 -0.000999026 0.000348931 2.60192e-05 6.32151e-05
0.000327781 0.000246494 -0.00100376 0.00037404 2.07219e-05 4.83681e-05
0.000316903 0.000260116 -0.00098373 0.000261208 5.77796e-05 0.000120059
0.000319103 0.000258739 -0.000989226 0.000283954 5.19782e-05 0.0001121
0.000321362 0.000257159 -0.000994666 0.000307622 4.6095e-05 0.000102824
0.000323692 0.00025536 -0.00100003 0.000332205 4.01997e-05 9.2028e-05
0.000326104 0.000253304 -0.0010053 0.000357692 3.43848e-05 7.95029e-05
0.000328618 0.000250958 -0.00101043 0.000384036 2.8774e-05 6.499e-05
0.000317353 0.000263778 -0.000988411 0.000265915 6.75101e-05 0.000135009
0.000319622 0.000262612 -0.000994284 0.000289444 6.16183e-05 0.000127608
0.000321956 0.000261242 -0.00100013 0.000313991 5.56114e-05 0.000118871
0.000324366 0.000259637 -0.00100591 0.000339574 4.95467e-05 0.0001086
0.000326867 0.000257758 -0.0010116 0.000366184 4.3505e-05 9.65579e-05
0.000329474 0.000255566 -0.00101716 0.000393811 3.76008e-05 8.24872e-05
0.00031114 0.000269324 -0.000974265 0.000203571 9.4412e-05 0.000164371
0.000313313 0.000268837 -0.000980479 0.000224822 8.91352e-05 0.000160655
0.000315534 0.000268225 -0.000986739 0.000247033 8.36138e-05 0.000156019
0.000317812 0.000267463 -0.000993025 0.000270256 7.78815e-05 0.000150388
0.000320152 0.00026652 -0.000999298 0.00029456 7.19503e-05 0.000143607
0.000322564 0.000265372 -0.00100556 0.000319995 6.58545e-05 0.000135497
0.000325059 0.000263983 -0.00101177 0.000346591 5.96533e-05 0.000125845
0.000327653 0.000262307 -0.0010179 0.000374371 5.34092e-05 0.000114395
0.000311429 0.000272287 -0.000977704 0.000205726 0.00010536 0.000178198
0.000313659 0.000272036 -0.000984266 0.000227495 0.000100144 0.00017509
0.000315943 0.00027166 -0.000990896 0.000250279 9.46683e-05 0.000171099
0.000318289 0.000271135 -0.00099756 0.000274173 8.89423e-05 0.000166142
0.000320704 0.000270434 -0.00100424 0.000299252 8.2989e-05 0.000160061
0.000323198 0.000269527 -0.00101092 0.000325573 7.68419e-05 0.000152666
0.000325781 0.000268375 -0.00101757 0.000353187 7.05435e-05 0.000143737
0.000328471 0.000266929 -0.00102417 0.000382142 6.41387e-05 0.000133008
0.000311745 0.000275209 -0.00098104 0.000207478 0.000116863 0.000192138
0.000314035 0.000275188 -0.000987952 0.000229726 0.000111739 0.000189675
0.000316383 0.000275046 -0.00099495 0.000253063 0.000106344 0.000186396
0.0003188 0.000274778 -0.001002 0.000277638 0.000100687 0.000182205
0.000321293 0.000274337 -0.0010091 0.000303514 9.47479e-05 0.000176895
0.000323872 0.000273674 -0.00101621 0.000330712 8.85904e-05 0.00017031
0.000326549 0.000272775 -0.00102331 0.000359314 8.22421e-05 0.000162214
0.00032934 0.000271595 -0.00103039 0.000389415 7.57261e-05 0.000152335
0 0 0 0 0 0
0 0 0 0 0 0
0 0 0 0 0 0
0 0 0 0 0 0
0 0 0 0 0 0
0 0 0 0 0 0
0 0 0 0 0 0
0 0 0 0 0 0
0 0 0 0 0 0
0 0 0 0 0 0
0 0 0 0 0 0
0 0 0 0 0 0
0 0 0 0 0 0
0 0 0 0 0 0
0 0 0 0 0 0
0 0 0 0 0 0
0 0 0 0 0 0
0 0 0 0 0 0
0 0 0 0 0 0
0 0 0 0 0 0
0 0 0 0 0 0
0 0 0 0 0 0
0 0 0 0 0 0
0 0 0 0 0 0
0 0 0 0 0 0
0 0 0 0 0 0
0 0 0 0 0 0
0 0 0 0 0 0
0 0 0 0 0 0
0 0 0 0 0 0
0 0 0 0 0 0
0 0 0 0 0 0
0 0 0 0 0 0
0 0 0 0 0 0
0 0 0 0 0 0
0 0 0 0 0 0
0 0 0 0 0 0
0 0 0 0 0 0
0 0 0 0 0 0
0 0 0 0 0 0
0 0 0 0 0 0
0 0 0 0 0 0
0 0 0 0 0 0
0 0 0 0 0 0
0 0 0 0 0 0
0 0 0 0 0 0
0 0 0 0 0 0
0 0 0 0 0 0
0 0 0 0 0 0
0 0 0 0 0 0
0 0 0 0 0 0
0 0 0 0 0 0
0 0 0 0 0 0
0 0 0 0 0 0
0 0 0 0 0 0
0 0 0 0 0 0
0 0 0 0 0 0
0 0 0 0 0 0
0 0 0 0 0 0
0 0 0 0 0 0
0 0 0 0 0 0
0 0 0 0 0 0
0 0 0 0 0 0
0 0 0 0 0 0
0 0 0 0 0 0
0 0 0 0 0 0
0 0 0 0 0 0
0 0 0 0 0 0
0 0 0 0 0 0
0 0 0 0 0 0
0 0 0 0 0 0
0 0 0 0 0 0
0 0 0 0 0 0
0 0 0 0 0 0
0 0 0 0 0 0
0 0 0 0 0 0
0 0 0 0 0 0
0 0 0 0 0 0
0 0 0 0 0 0
0 0 0 0 0 0
0 0 0 0 0 0
0 0 0 0 0 0
0 0 0 0 0 0
0 0 0 0 0 0
0.000301944 0.000217419 -0.000949737 0.000204702 -3.9632e-05 2.15098e-05
0.000304187 0.000214464 -0.000953227 0.000221023 -4.38602e-05 1.11671e-05
0.000301723 0.000221651 -0.000954219 0.000210737 -3.50137e-05 3.29629e-05
0.00030397 0.000218844 -0.000957976 0.000227715 -3.94587e-05 2.27465e-05
0.000306296 0.000215926 -0.000961736 0.000245149 -4.36461e-05 1.14376e-05
0.000308713 0.000212904 -0.000965532 0.00026294 -4.74827e-05 -1.1373e-06
0.000311235 0.000209795 -0.000969362 0.000281078 -5.08377e-05 -1.50453e-05
0.000313873 0.000206619 -0.000973245 0.000299493 -5.35855e-05 -3.03727e-05
0.000316644 0.000203407 -0.000977214 0.000318073 -5.55674e-05 -4.72113e-05
0.000319563 0.000200214 -0.000981317 0.000336636 -5.66397e-05 -6.56473e-05
0.000322637 0.000197101 -0.000985585 0.000354973 -5.66408e-05 -8.57033e-05
0.000303725 0.000223366 -0.0009628 0.000234318 -3.44903e-05 3.48739e-05
0.000306059 0.000220587 -0.000966827 0.000252447 -3.89143e-05 2.36704e-05
0.000308489 0.000217678 -0.000970878 0.000271046 -4.30085e-05 1.11827e-05
0.000311029 0.000214647 -0.000974951 0.000290056 -4.66487e-05 -2.69622e-06
0.000313694 0.000211511 -0.000979061 0.000309391 -4.9702e-05 -1.8069e-05
0.000316502 0.0002083 -0.000983237 0.00032893 -5.2004e-05 -3.50445e-05
0.000319471 0.00020505 -0.000987533 0.000348499 -5.33738e-05 -5.37437e-05
0.000303452 0.000228052 -0.000967685 0.000240829 -2.88862e-05 4.75305e-05
0.000305793 0.000225429 -0.000971996 0.000259694 -3.35544e-05 3.65087e-05
0.000308235 0.000222652 -0.00097632 0.000279088 -3.79212e-05 2.41504e-05
0.000310794 0.000219721 -0.000980655 0.00029896 -4.18614e-05 1.03353e-05
0.000313487 0.000216647 -0.000985012 0.000319231 -4.52347e-05 -5.05881e-06
0.000316333 0.000213458 -0.000989422 0.000339772 -4.78791e-05 -2.21664e-05
0.000319354 0.000210171 -0.000993906 0.000360442 -4.95983e-05 -4.1101e-05
0.000303151 0.000232885 -0.000972625 0.000247218 -2.26338e-05 6.07423e-05
0.000305499 0.00023044 -0.000977235 0.000266835 -2.75421e-05 4.99464e-05
0.000307954 0.000227817 -0.00098185 0.00028705 -3.21805e-05 3.77622e-05
0.000310531 0.00022501 -0.000986466 0.000307817 -3.64251e-05 2.40553e-05
0.000313251 0.000222021 -0.00099109 0.000329065 -4.01314e-05 8.68316e-06
0.000316135 0.000218861 -0.000995751 0.00035068 -4.31147e-05 -8.52049e-06
0.000302822 0.000237859 -0.000977609 0.000253461 -1.57031e-05 7.45171e-05
0.000305177 0.000235615 -0.000982532 0.000273848 -2.08429e-05 6.39979e-05
0.000307644 0.00023317 -0.000987455 0.000294909 -2.57481e-05 5.20406e-05
0.00031024 0.000230512 -0.000992372 0.000316604 -3.02982e-05 3.84953e-05
0.000312986 0.000227634 -0.000997285 0.000338871 -3.43469e-05 2.31974e-05
0.000315908 0.000224539 -0.00100221 0.000361608 -3.77063e-05 5.95321e-06
0.000302467 0.000242964 -0.000982622 0.000259532 -8.0645e-06 8.88595e-05
0.000304829 0.000240945 -0.000987872 0.000280707 -1.34227e-05 7.86748e-05
0.000307307 0.000238704 -0.000993122 0.000302638 -1.85853e-05 6.70057e-05
0.000309921 0.000236223 -0.000998361 0.000325294 -2.34374e-05 5.36851e-05
0.000312694 0.000233493 -0.00100359 0.000348608 -2.78301e-05 3.85123e-05
0.000315651 0.000230493 -0.0010088 0.000372521 -3.15882e-05 2.13093e-05
0.000302086 0.00024819 -0.000987647 0.000265402 3.10736e-07 0.000103769
0.000304455 0.00024642 -0.000993238 0.000287381 -5.24761e-06 9.39844e-05
0.000306945 0.00024441 -0.000998833 0.000310206 -1.06529e-05 8.26736e-05
0.000309577 0.000242136 -0.00100441 0.000333856 -1.57982e-05 6.96517e-05
0.000312375 0.000239572 -0.00100997 0.000358293 -2.05332e-05 5.46831e-05
0.000299415 0.000254805 -0.000986718 0.000249148 1.517e-05 0.00012722
0.000301684 0.00025353 -0.000992659 0.000271028 9.43671e-06 0.000119246
0.00030406 0.000252028 -0.000998612 0.000293836 3.71519e-06 0.000109927
0.000306562 0.000250277 -0.00100457 0.000317577 -1.91229e-06 9.90546e-05
0.00030921 0.000248241 -0.00101052 0.000342253 -7.33533e-06 8.64171e-05
0.000312032 0.000245886 -0.00101644 0.000367841 -1.24116e-05 7.17579e-05
0.000298995 0.000259919 -0.000991347 0.000253783 2.52077e-05 0.000142673
0.000301266 0.000258949 -0.000997643 0.000276401 1.93663e-05 0.000135268
0.000303649 0.00025775 -0.00100397 0.000300035 1.34968e-05 0.000126495
0.000306162 0.000256287 -0.00101031 0.000324711 7.67408e-06 0.00011615
0.000308829 0.000254521 -0.00101664 0.000350435 1.99492e-06 0.00010399
0.000311674 0.000252411 -0.00102295 0.000377215 -3.40338e-06 8.97555e-05
0.000292294 0.000265948 -0.000976235 0.000194179 5.28327e-05 0.00017239
0.000294306 0.000265812 -0.000982716 0.000214531 4.74043e-05 0.000168748
0.000296394 0.000265535 -0.000989279 0.000235825 4.17825e-05 0.000164167
0.000298568 0.000265089 -0.000995911 0.000258111 3.60071e-05 0.000158572
0.000300842 0.000264442 -0.00100258 0.000281462 3.01051e-05 0.000151801
0.000303232 0.000263566 -0.0010093 0.000305933 2.4125e-05 0.000143665
0.000305757 0.00026242 -0.00101603 0.000331561 1.81408e-05 0.000133948
0.000308441 0.000260957 -0.00102278 0.000358379 1.2233e-05 0.000122385
0.000291882 0.000270123 -0.000979674 0.000196463 6.43556e-05 0.000186694
0.00029389 0.000270323 -0.000986489 0.000217313 5.89792e-05 0.000183679
0.000295974 0.000270383 -0.000993405 0.000239155 5.33919e-05 0.000179761
0.000298148 0.000270278 -0.0010004 0.000262084 4.76121e-05 0.000174858
0.000300425 0.000269978 -0.00100745 0.000286172 4.16737e-05 0.000168803
0.000302822 0.000269449 -0.00101457 0.000311483 3.56227e-05 0.000161402
0.000305358 0.000268647 -0.00102171 0.000338072 2.95179e-05 0.000152422
0.00030806 0.000267522 -0.00102888 0.000365994 2.34242e-05 0.000141593
0.000291494 0.000274273 -0.000983008 0.000198409 7.6538e-05 0.000201112
0.000293497 0.000274807 -0.000990159 0.000219723 7.12494e-05 0.000198759
0.000295577 0.000275206 -0.000997427 0.000242102 6.57365e-05 0.000195575
0.000297751 0.000275464 -0.00100479 0.000265686 6.00152e-05 0.00019146
0.000300032 0.000275534 -0.00101224 0.00029054 5.40826e-05 0.000186201
0.000302438 0.000275365 -0.00101975 0.000316689 4.80071e-05 0.000179634
0.000304987 0.000274931 -0.00102732 0.000344214 4.18325e-05 0.000171511
0.000307706 0.000274185 -0.00103494 0.000373215 3.56045e-05 0.000161552
0.000321111 0.000201812 -0.000953184 0.00019437 -8.12214e-05 2.62465e-05
0.00032391 0.000198363 -0.000957305 0.000210199 -8.52196e-05 1.61983e-05
0.000320428 0.000207164 -0.000957647 0.000199601 -7.70959e-05 3.71564e-05
0.000323199 0.000203921 -0.000962009 0.00021605 -8.13305e-05 2.72387e-05
0.000326093 0.000200552 -0.000966465 0.000232993 -8.5207e-05 1.62366e-05
0.000329127 0.000197061 -0.000971058 0.000250332 -8.86169e-05 3.97427e-06
0.000332319 0.000193471 -0.000975799 0.000268064 -9.14227e-05 -9.62275e-06
0.000335685 0.000189804 -0.000980726 0.000286125 -9.3487e-05 -2.46525e-05
0.000339248 0.000186097 -0.00098589 0.000304414 -9.46446e-05 -4.12135e-05
0.000343027 0.000182409 -0.000991361 0.000322749 -9.47442e-05 -5.93958e-05
0.000347035 0.000178808 -0.000997192 0.000340918 -9.36221e-05 -7.92383e-05
0.000322437 0.000209671 -0.000966792 0.000221797 -7.67928e-05 3.87933e-05
0.000325305 0.000206498 -0.000971484 0.000239393 -8.0921e-05 2.79026e-05
0.000328316 0.000203178 -0.000976299 0.000257502 -8.46044e-05 1.57362e-05
0.000331491 0.00019972 -0.000981246 0.000276069 -8.77093e-05 2.17991e-06
0.000334848 0.000196145 -0.00098636 0.000295019 -9.00909e-05 -1.28798e-05
0.000338412 0.000192485 -0.000991689 0.00031424 -9.15758e-05 -2.95597e-05
0.000342204 0.000188786 -0.000997308 0.000333562 -9.19765e-05 -4.79867e-05
0.000321624 0.000215631 -0.000971642 0.000227435 -7.15428e-05 5.0839e-05
0.000324462 0.000212678 -0.000976587 0.000245723 -7.5934e-05 4.0136e-05
0.000327449 0.00020955 -0.00098164 0.000264584 -7.99092e-05 2.81075e-05
0.000330605 0.000206251 -0.000986813 0.000283973 -8.33312e-05 1.46269e-05
0.000333953 0.000202793 -0.000992135 0.000303821 -8.60469e-05 -4.37033e-07
0.000337517 0.000199207 -0.000997653 0.00032401 -8.78842e-05 -1.72272e-05
0.000341323 0.000195519 -0.00100341 0.000344409 -8.86363e-05 -3.58675e-05
0.000320759 0.000221786 -0.000976552 0.000232938 -6.55595e-05 6.34029e-05
0.000323566 0.000219079 -0.000981766 0.000251931 -7.02112e-05 5.29298e-05
0.000326527 0.000216171 -0.000987076 0.000271565 -7.44794e-05 4.10827e-05
0.000329663 0.000213058 -0.000992494 0.000291801 -7.82258e-05 2.77224e-05
0.000332998 0.000209744 -0.000998041 0.000312582 -8.12919e-05 1.26981e-05
0.00033656 0.000206245 -0.00100377 0.000333806 -8.34814e-05 -4.16504e-06
0.000319841 0.000228129 -0.00098151 0.000238286 -5.88077e-05 7.64913e-05
0.000322616 0.000225695 -0.000987008 0.000257997 -6.3713e-05 6.62964e-05
0.000325549 0.000223036 -0.000992594 0.000278423 -6.82713e-05 5.46819e-05
0.000328662 0.00022014 -0.000998275 0.000299535 -7.23457e-05 4.14944e-05
0.000331983 0.000217002 -0.00100407 0.000321284 -7.57749e-05 2.65623e-05
0.000335541 0.000213628 -0.00101002 0.000343584 -7.8357e-05 9.68281e-06
0.000318873 0.000234651 -0.000986502 0.000243457 -5.12521e-05 9.01077e-05
0.000321612 0.00023252 -0.000992299 0.000263899 -5.63993e-05 8.02455e-05
0.000324515 0.00023014 -0.000998179 0.000285137 -6.12401e-05 6.89224e-05
0.000327603 0.000227494 -0.00100415 0.000307151 -6.56416e-05 5.59693e-05
0.000330907 0.000224573 -0.00101021 0.000329889 -6.94401e-05 4.11802e-05
0.000334457 0.00022136 -0.0010164 0.00035331 -7.24407e-05 2.43667e-05
0.000317854 0.000241341 -0.000991511 0.000248429 -4.28585e-05 0.000104251
0.000320556 0.000239542 -0.000997622 0.000269613 -4.82304e-05 9.47828e-05
0.000323426 0.000237475 -0.00100382 0.000291682 -5.33405e-05 8.38182e-05
0.000326487 0.000235114 -0.00101009 0.000314624 -5.80623e-05 7.11709e-05
0.00032977 0.000232436 -0.00101645 0.000338419 -6.22285e-05 5.66022e-05
0.000314271 0.000249377 -0.000990145 0.000232163 -2.79355e-05 0.000126621
0.000316788 0.000248188 -0.000996514 0.000253165 -3.3605e-05 0.00011892
0.000319451 0.000246747 -0.00100296 0.000275115 -3.91673e-05 0.000109908
0.000322285 0.000245027 -0.00100948 0.00029803 -4.45272e-05 9.93775e-05
0.000325316 0.00024299 -0.00101608 0.000321926 -4.95556e-05 8.71182e-05
0.000328575 0.000240602 -0.00102276 0.000346797 -5.40915e-05 7.28714e-05
0.000313208 0.000255953 -0.000994791 0.00023599 -1.76391e-05 0.000141245
0.00031568 0.000255164 -0.00100149 0.000257666 -2.34363e-05 0.000134094
0.000318303 0.000254119 -0.00100829 0.000280376 -2.9173e-05 0.000125613
0.000321099 0.00025278 -0.00101516 0.000304154 -3.47561e-05 0.000115601
0.000324096 0.000251104 -0.00102212 0.00032902 -4.00719e-05 0.000103818
0.000327328 0.000249051 -0.00102914 0.000355 -4.49596e-05 9.00026e-05
0.000305556 0.000262508 -0.000978806 0.000178597 1.06934e-05 0.000169591
0.000307639 0.000262713 -0.00098555 0.00019796 5.10243e-06 0.00016609
0.00030982 0.00026276 -0.000992408 0.000218259 -6.30721e-07 0.000161677
0.000312115 0.000262619 -0.000999375 0.000239543 -6.46022e-06 0.00015628
0.000314541 0.000262254 -0.00100643 0.000261891 -1.23419e-05 0.000149741
0.00031712 0.000261632 -0.00101359 0.000285369 -1.82136e-05 0.000141878
0.000319874 0.000260711 -0.00102083 0.000310022 -2.39859e-05 0.000132478
0.000322836 0.000259439 -0.00102816 0.000335897 -2.95594e-05 0.000121283
0.000304596 0.000267908 -0.000982312 0.00018031 2.27501e-05 0.000183093
0.000306628 0.00026855 -0.000989376 0.000200124 1.72004e-05 0.000180189
0.000308759 0.000269037 -0.000996574 0.000220921 1.14875e-05 0.00017641
0.000311004 0.00026934 -0.00100389 0.000242793 5.64052e-06 0.000171675
0.000313383 0.000269428 -0.00101131 0.000265817 -2.95028e-07 0.000165825
0.000315915 0.00026926 -0.00101883 0.000290065 -6.26027e-06 0.00015867
0.000318627 0.000268791 -0.00102646 0.0003156 -1.21798e-05 0.000149984
0.000321549 0.000267964 -0.00103418 0.00034249 -1.79677e-05 0.000139505
0.000303642 0.000273301 -0.000985711 0.000181749 3.55728e-05 0.000196703
0.000305621 0.000274381 -0.0009931 0.000201985 3.01044e-05 0.000194429
0.000307699 0.000275314 -0.00100064 0.000223272 2.44571e-05 0.000191348
0.000309893 0.000276087 -0.0010083 0.000245745 1.86546e-05 0.000187368
0.000312223 0.000276657 -0.00101609 0.000269472 1.27134e-05 0.000182279
0.000314708 0.000276965 -0.001024 0.000294486 6.70596e-06 0.000175923
0.000317375 0.000276978 -0.00103202 0.000320878 6.92952e-07 0.000168063
0.000320254 0.000276645 -0.00104015 0.000348756 -5.25651e-06 0.000158427
0.000327686 0.000186129 -0.000956624 0.000196723 -0.000122401 2.9467e-05
0.000330882 0.000182183 -0.000961348 0.000212007 -0.000126175 2.018e-05
0.000326593 0.0001926 -0.000961097 0.000202008 -0.000118736 3.92495e-05
0.000329717 0.000188918 -0.000966036 0.000217919 -0.000122763 3.00921e-05
0.000333016 0.000185093 -0.000971156 0.000234231 -0.000126338 1.99348e-05
0.000336513 0.000181132 -0.000976509 0.000250838 -0.000129337 8.60458e-06
0.000340234 0.000177056 -0.000982123 0.000267728 -0.000131615 -3.97996e-06
0.000344206 0.000172895 -0.000988052 0.000284822 -0.000133027 -1.79244e-05
0.000348457 0.000168688 -0.000994366 0.000302005 -0.0001334 -3.33309e-05
0.000353019 0.0001645 -0.00100116 0.000319108 -0.000132573 -5.03062e-05
0.000357917 0.000160405 -0.0010085 0.000335926 -0.000130382 -6.89211e-05
0.000328496 0.000195893 -0.00097081 0.000223719 -0.000118623 4.04623e-05
0.000331723 0.000192323 -0.000976134 0.000240692 -0.000122463 3.0418e-05
0.000335151 0.000188589 -0.000981675 0.000258073 -0.000125749 1.91929e-05
0.000338808 0.000184699 -0.000987456 0.000275799 -0.00012834 6.66747e-06
0.000342721 0.00018068 -0.000993531 0.000293776 -0.000130079 -7.27619e-06
0.000346924 0.000176568 -0.000999964 0.000311879 -0.000130785 -2.27578e-05
0.00035145 0.000172415 -0.00100686 0.000329942 -0.000130263 -3.99206e-05
0.00032722 0.000203124 -0.000975656 0.000229398 -0.000113693 5.12621e-05
0.00033037 0.000199837 -0.000981202 0.000247075 -0.000117812 4.14023e-05
0.000333725 0.000196356 -0.000986948 0.00026522 -0.000121408 3.03183e-05
0.000337313 0.000192684 -0.000992918 0.000283772 -0.000124331 1.78833e-05
0.000341166 0.000188837 -0.000999157 0.000302646 -0.000126418 3.9648e-06
0.000345317 0.000184851 -0.00100573 0.00032171 -0.000127485 -1.15836e-05
0.000349806 0.000180757 -0.00101272 0.000340826 -0.000127316 -2.89001e-05
0.000325887 0.000210598 -0.000980568 0.000234928 -0.000107945 6.25216e-05
0.000328958 0.000207624 -0.000986354 0.000253325 -0.000112343 5.28823e-05
0.000332236 0.000204428 -0.000992324 0.000272256 -0.000116251 4.19776e-05
0.000335752 0.000201006 -0.000998499 0.000291666 -0.000119517 2.96727e-05
0.000339539 0.000197363 -0.00100492 0.000311479 -0.000121969 1.58186e-05
0.000343635 0.00019352 -0.00101166 0.000331576 -0.0001234 2.37978e-07
0.000324498 0.000218308 -0.000985536 0.000240286 -0.000101339 7.42476e-05
0.000327486 0.00021568 -0.000991577 0.00025942 -0.000106011 6.48694e-05
0.000330684 0.000212803 -0.000997789 0.00027916 -0.000110229 5.41885e-05
0.000334124 0.000209665 -0.00100419 0.000299461 -0.000113843 4.20596e-05
0.00033784 0.000206263 -0.00101082 0.000320254 -0.000116676 2.83164e-05
0.000341875 0.000202606 -0.00101773 0.00034143 -0.000118515 1.27566e-05
0.000323055 0.000226245 -0.000990545 0.000245449 -9.38338e-05 8.64436e-05
0.000325956 0.000223997 -0.000996857 0.000265334 -9.87685e-05 7.73728e-05
0.00032907 0.000221475 -0.00100333 0.000285907 -0.000103292 6.69666e-05
0.000332428 0.000218659 -0.00100998 0.000307131 -0.000107255 5.50671e-05
0.00033607 0.000215543 -0.00101684 0.00032893 -0.00011048 4.14775e-05
0.000340038 0.000212113 -0.00102394 0.000351239 -0.000112755 2.60143e-05
0.000321559 0.000234396 -0.000995578 0.000250392 -8.53907e-05 9.91096e-05
0.000324369 0.000232563 -0.00100218 0.000271041 -9.05719e-05 9.03984e-05
0.000327394 0.000230435 -0.00100893 0.000292468 -9.53884e-05 8.03247e-05
0.000330667 0.000227984 -0.00101585 0.000314645 -9.96959e-05 6.87163e-05
0.000334229 0.000225186 -0.00102296 0.000337526 -0.000103311 5.53479e-05
0.000317483 0.000243856 -0.000993839 0.000234503 -7.03868e-05 0.000119354
0.000320014 0.00024275 -0.00100061 0.000255075 -7.59804e-05 0.000112245
0.00032273 0.000241365 -0.00100752 0.000276513 -8.13761e-05 0.000103948
0.000325662 0.000239671 -0.00101457 0.000298813 -8.64669e-05 9.42715e-05
0.000328844 0.000237628 -0.00102178 0.000321974 -9.11065e-05 8.30247e-05
0.000332319 0.000235203 -0.00102917 0.000345962 -9.51164e-05 6.99665e-05
0.000315993 0.000251893 -0.000998542 0.000238232 -5.98061e-05 0.000132447
0.000318425 0.000251281 -0.00100563 0.0002595 -6.55444e-05 0.000125833
0.000321043 0.000250385 -0.00101286 0.000281719 -7.11383e-05 0.000118015
0.000323878 0.000249165 -0.00102024 0.000304911 -7.64772e-05 0.000108809
0.000326965 0.000247575 -0.00102776 0.000329074 -8.14321e-05 9.79981e-05
0.000330346 0.000245574 -0.00103545 0.00035421 -8.58197e-05 8.53442e-05
0.000308341 0.000258988 -0.000981764 0.000181559 -3.08125e-05 0.000158357
0.000310263 0.000259532 -0.00098876 0.00020069 -3.65405e-05 0.000155064
0.000312299 0.000259898 -0.000995902 0.00022071 -4.23623e-05 0.000150939
0.000314472 0.000260056 -0.00100319 0.000241664 -4.82246e-05 0.000145914
0.000316803 0.000259969 -0.00101061 0.000263621 -5.40684e-05 0.00013985
0.000319319 0.000259598 -0.00101818 0.000286632 -5.98188e-05 0.000132587
0.000322051 0.000258895 -0.00102589 0.000310727 -6.53715e-05 0.000123933
0.000325038 0.000257809 -0.00103376 0.000335934 -7.06095e-05 0.000113653
0.000307105 0.000265617 -0.000985371 0.000183095 -1.8206e-05 0.000170466
0.000308928 0.000266697 -0.000992678 0.000202685 -2.39009e-05 0.000167705
0.000310864 0.000267606 -0.00100015 0.000223214 -2.97144e-05 0.000164145
0.000312934 0.000268314 -0.00100776 0.000244769 -3.5606e-05 0.000159713
0.00031516 0.000268784 -0.00101553 0.000267419 -4.15192e-05 0.000154267
0.00031757 0.000268973 -0.00102345 0.000291222 -4.73832e-05 0.000147639
0.000320196 0.00026883 -0.00103152 0.000316228 -5.31068e-05 0.000139626
0.000323077 0.000268296 -0.00103975 0.000342485 -5.85847e-05 0.000129989
0.000305877 0.000272259 -0.00098887 0.000184342 -4.7268e-06 0.000182692
0.000307598 0.000273881 -0.000996493 0.000204361 -1.0346e-05 0.00018049
0.00030943 0.000275343 -0.00100429 0.000225386 -1.61017e-05 0.000177555
0.000311394 0.000276628 -0.00101225 0.000247554 -2.19608e-05 0.0001738
0.000313514 0.000277692 -0.00102036 0.000270924 -2.78899e-05 0.000169031
0.000315817 0.000278472 -0.00102864 0.000295512 -3.38122e-05 0.000163115
0.000318333 0.000278925 -0.00103708 0.0003214 -3.96501e-05 0.00015584
0.000321103 0.000278999 -0.00104569 0.000348682 -4.53127e-05 0.000146958
0.000346411 0.00017051 -0.000959583 0.00019653 -0.000163924 4.09107e-05
0.00035011 0.000166068 -0.000964877 0.000211093 -0.000167496 3.27778e-05
0.000344889 0.0001781 -0.000964031 0.000202354 -0.0001607 5.02874e-05
0.000348486 0.000173981 -0.000969517 0.000217541 -0.000164544 4.22477e-05
0.000352295 0.0001697 -0.000975265 0.000233041 -0.000167841 3.33633e-05
0.000356343 0.000165266 -0.000981337 0.000248744 -0.000170452 2.34812e-05
0.00036066 0.000160703 -0.000987774 0.000264641 -0.000172225 1.25487e-05
0.000365276 0.000156043 -0.000994646 0.000280651 -0.000173006 4.95204e-07
0.000370225 0.00015133 -0.00100204 0.000296658 -0.000172609 -1.27508e-05
0.000375545 0.000146633 -0.00101007 0.00031251 -0.000170865 -2.72724e-05
0.000381268 0.000142033 -0.00101883 0.000328028 -0.000167606 -4.31185e-05
0.000346783 0.000182182 -0.000974247 0.000223898 -0.000160783 5.21688e-05
0.000350487 0.000178217 -0.000980169 0.000240052 -0.000164359 4.33577e-05
0.000354433 0.000174068 -0.000986397 0.000256518 -0.000167275 3.35388e-05
0.000358652 0.000169746 -0.000992966 0.000273231 -0.000169376 2.26246e-05
0.000363175 0.000165279 -0.000999945 0.000290094 -0.000170497 1.05331e-05
0.000368039 0.00016071 -0.00100741 0.000306978 -0.000170443 -2.82137e-06
0.000373286 0.000156093 -0.0010155 0.000323734 -0.000169011 -1.75511e-05
0.000345001 0.000190685 -0.000979052 0.00023016 -0.00015615 6.25174e-05
0.000348595 0.000187066 -0.000985168 0.000247017 -0.000160026 5.38458e-05
0.000352434 0.000183233 -0.000991569 0.000264239 -0.00016327 4.41228e-05
0.000356548 0.000179188 -0.000998291 0.000281761 -0.000165722 3.32542e-05
0.000360974 0.00017495 -0.00100539 0.000299493 -0.000167206 2.11434e-05
0.00036575 0.000170559 -0.00101297 0.0003173 -0.000167526 7.68222e-06
0.00037092 0.000166051 -0.00102109 0.000335052 -0.000166455 -7.2309e-06
0.000343139 0.000199479 -0.000983929 0.000236295 -0.000150613 7.33239e-05
0.000346619 0.000196242 -0.000990256 0.000253875 -0.000154787 6.48256e-05
0.000350345 0.000192759 -0.000996848 0.000271881 -0.000158365 5.52335e-05
0.00035435 0.000189028 -0.00100374 0.00029025 -0.000161181 4.44448e-05
0.000358672 0.000185056 -0.00101099 0.000308896 -0.000163049 3.23478e-05
0.000363354 0.000180865 -0.00101868 0.0003277 -0.00016375 1.88074e-05
0.000341197 0.000208556 -0.000988865 0.000242279 -0.000144125 8.45967e-05
0.000344557 0.000205738 -0.00099542 0.000260603 -0.000148595 7.63106e-05
0.000348165 0.000202645 -0.00100222 0.000279421 -0.000152507 6.68905e-05
0.000352055 0.000199267 -0.00100931 0.000298675 -0.000155694 5.62229e-05
0.000356268 0.000195601 -0.00101672 0.000318284 -0.000157965 4.41799e-05
0.000360848 0.000191659 -0.00102453 0.000338136 -0.000159092 3.06048e-05
0.000339175 0.000217907 -0.000993847 0.000248087 -0.000136641 9.63413e-05
0.00034241 0.000215547 -0.00100065 0.000267176 -0.000141396 8.83122e-05
0.000345894 0.000212886 -0.00100768 0.000286834 -0.000145637 7.91121e-05
0.000349664 0.000209905 -0.00101497 0.000307011 -0.000149199 6.86146e-05
0.00035376 0.000206596 -0.00102257 0.000327619 -0.000151888 5.66626e-05
0.000358232 0.000202947 -0.00103054 0.000348578 -0.000153474 4.31201e-05
0.000337075 0.000227519 -0.000998857 0.000253692 -0.000128116 0.00010856
0.000340179 0.000225658 -0.00100592 0.000273564 -0.000133141 0.000100839
0.000343534 0.000223472 -0.0010132 0.000294091 -0.000137701 9.19139e-05
0.000347175 0.000220935 -0.00102073 0.000315229 -0.000141633 8.16441e-05
0.000351149 0.000218022 -0.00102855 0.000336917 -0.000144739 6.9845e-05
0.000332148 0.000238398 -0.000996718 0.000239128 -0.000112966 0.000127551
0.0003349 0.000237378 -0.00100387 0.000259055 -0.000118514 0.000121253
0.000337867 0.000236056 -0.00101121 0.000279738 -0.000123778 0.000113894
0.000341085 0.000234392 -0.00101877 0.000301159 -0.000128638 0.000105307
0.000344592 0.00023235 -0.00102656 0.000323297 -0.000132931 9.53325e-05
0.000348434 0.000229894 -0.00103461 0.0003461 -0.00013646 8.37699e-05
0.000330044 0.000247893 -0.00100143 0.000243521 -0.000102062 0.000140257
0.000332654 0.000247463 -0.00100887 0.000264173 -0.000107773 0.000134408
0.000335479 0.000246722 -0.00101652 0.000285665 -0.000113259 0.000127474
0.000338554 0.000245628 -0.00102436 0.000308004 -0.000118393 0.000119298
0.000341919 0.00024413 -0.00103243 0.000331171 -0.000123031 0.00010969
0.00034562 0.000242189 -0.00104075 0.00035514 -0.000126967 9.84535e-05
0.000321496 0.000255512 -0.000983865 0.000188789 -7.22945e-05 0.000164168
0.000323481 0.000256397 -0.000991093 0.000207567 -7.81814e-05 0.000161339
0.000325603 0.000257088 -0.000998498 0.000227164 -8.41163e-05 0.000157751
0.000327883 0.000257552 -0.00100608 0.000247622 -9.00378e-05 0.000153347
0.000330346 0.000257747 -0.00101384 0.000268995 -9.58747e-05 0.000148
0.000333022 0.000257632 -0.0010218 0.000291313 -0.000101539 0.000141569
0.000335947 0.000257156 -0.00102996 0.00031459 -0.000106912 0.000133883
0.000339163 0.000256264 -0.00103834 0.000338834 -0.000111859 0.000124738
0.000319725 0.000263366 -0.000987522 0.000190898 -5.90973e-05 0.00017602
0.000321569 0.000264889 -0.000995049 0.000210166 -6.49584e-05 0.000173692
0.000323546 0.000266225 -0.00100277 0.000230306 -7.08956e-05 0.000170634
0.000325677 0.000267341 -0.00101067 0.000251399 -7.68579e-05 0.000166782
0.000327988 0.000268201 -0.00101875 0.0002735 -8.27792e-05 0.000162006
0.00033051 0.000268753 -0.00102704 0.00029665 -8.85772e-05 0.000156155
0.000333279 0.000268944 -0.00103552 0.000320878 -9.4145e-05 0.000149048
0.000336337 0.000268712 -0.00104423 0.000346214 -9.93586e-05 0.000140477
0.00031794 0.000271252 -0.000991069 0.000192706 -4.49174e-05 0.000188004
0.000319639 0.000273422 -0.000998902 0.000212437 -5.07079e-05 0.000186203
0.000321465 0.000275417 -0.00100694 0.000233107 -5.65946e-05 0.000183733
0.000323443 0.000277219 -0.00101516 0.000254851 -6.25349e-05 0.000180517
0.000325599 0.000278783 -0.00102358 0.000277714 -6.8482e-05 0.000176374
0.000327962 0.000280042 -0.0010322 0.000301694 -7.43532e-05 0.000171185
0.000330568 0.000280943 -0.00104103 0.000326851 -8.00551e-05 0.000164756
0.000333461 0.000281434 -0.00105008 0.000353263 -8.54766e-05 0.000156869
0.000335631 0.000154861 -0.000962497 0.000172269 -0.000206794 4.97973e-05
0.000339771 0.000149914 -0.000968371 0.000185544 -0.000210201 4.23577e-05
0.000333338 0.000163574 -0.0009669 0.000177246 -0.000204085 5.92442e-05
0.00033733 0.000159007 -0.000972942 0.000191057 -0.000207787 5.18597e-05
0.000341576 0.00015426 -0.00097933 0.000205245 -0.00021084 4.37167e-05
0.000346104 0.000149341 -0.000986133 0.000219707 -0.00021309 3.46804e-05
0.000350948 0.000144279 -0.000993406 0.000234451 -0.000214376 2.47277e-05
0.000356141 0.000139107 -0.00100123 0.000249422 -0.000214531 1.3822e-05
0.000361718 0.000133874 -0.00100971 0.000264533 -0.000213357 1.92242e-06
0.000367721 0.000128655 -0.00101899 0.000279638 -0.000210674 -1.1015e-05
0.000374186 0.000123534 -0.00102918 0.000294568 -0.00020631 -2.49956e-05
0.000334783 0.000168437 -0.000977607 0.00019649 -0.000204481 6.18277e-05
0.000338876 0.000164066 -0.00098414 0.000211233 -0.000207836 5.37155e-05
0.000343254 0.000159491 -0.000991067 0.000226358 -0.000210413 4.46925e-05
0.000347953 0.000154724 -0.000998437 0.000241816 -0.000212047 3.47026e-05
0.000353008 0.000149796 -0.00100633 0.000257541 -0.000212559 2.36967e-05
0.000358457 0.000144754 -0.00101485 0.000273433 -0.000211743 1.16223e-05
0.000364347 0.000139658 -0.00102414 0.000289356 -0.000209382 -1.58927e-06
0.000332129 0.000178217 -0.00098235 0.00020184 -0.000200225 7.22443e-05
0.000336061 0.000174256 -0.000989047 0.000217181 -0.000203903 6.42281e-05
0.000340282 0.000170057 -0.000996117 0.000232953 -0.000206834 5.52531e-05
0.000344827 0.000165627 -0.0010036 0.000249112 -0.000208843 4.52531e-05
0.000349737 0.000160983 -0.00101159 0.000265596 -0.00020974 3.41631e-05
0.000355052 0.000156171 -0.00102016 0.000282301 -0.000209316 2.19118e-05
0.000360821 0.000151232 -0.00102945 0.000299118 -0.000207328 8.44196e-06
0.000329368 0.000188335 -0.000987167 0.000207082 -0.000194977 8.31379e-05
0.000333131 0.000184824 -0.000994047 0.000223036 -0.00019898 7.52534e-05
0.000337186 0.000181043 -0.00100128 0.000239475 -0.000202273 6.63618e-05
0.00034157 0.000176988 -0.0010089 0.000256361 -0.000204673 5.63853e-05
0.000346325 0.000172671 -0.00101699 0.000273638 -0.000205981 4.52427e-05
0.000351497 0.000168116 -0.00102564 0.000291216 -0.000205959 3.28387e-05
0.0003265 0.000198785 -0.000992047 0.0002122 -0.000188685 9.45173e-05
0.000330086 0.000195765 -0.000999128 0.000228781 -0.000193012 8.68062e-05
0.000333966 0.000192445 -0.00100654 0.000245909 -0.000196669 7.80404e-05
0.00033818 0.000188813 -0.00101432 0.00026355 -0.000199472 6.81291e-05
0.00034277 0.000184866 -0.00102253 0.000281654 -0.000201212 5.69734e-05
0.000347788 0.00018062 -0.00103127 0.000300142 -0.000201644 4.44567e-05
0.000323526 0.000209556 -0.000996976 0.000217175 -0.000181299 0.000106389
0.000326926 0.000207073 -0.00100427 0.0002344 -0.000185941 9.88989e-05
0.000330623 0.00020426 -0.00101188 0.000252237 -0.00018996 9.0309e-05
0.000334655 0.000201099 -0.00101984 0.00027066 -0.00019317 8.05135e-05
0.000339071 0.00019758 -0.0010282 0.000289613 -0.000195363 6.93833e-05
0.000343923 0.000193695 -0.00103705 0.000309055 -0.000196285 5.68191e-05
0.000320448 0.000220636 -0.00100194 0.00022199 -0.000172767 0.000118754
0.000323654 0.000218735 -0.00100947 0.000239872 -0.00017771 0.00011154
0.000327156 0.00021648 -0.0010173 0.00025844 -0.000182081 0.000103185
0.000330997 0.000213842 -0.00102546 0.000277675 -0.000185699 9.35655e-05
0.000335227 0.000210797 -0.001034 0.000297545 -0.000188344 8.25246e-05
0.000314525 0.000232949 -0.000999361 0.000208806 -0.000157457 0.000137479
0.00031727 0.000232008 -0.0010069 0.000226615 -0.000163047 0.000131615
0.000320271 0.000230737 -0.0010147 0.00024518 -0.000168262 0.000124734
0.000323569 0.000229092 -0.00102277 0.0002645 -0.000172968 0.00011668
0.000327207 0.000227035 -0.00103115 0.000284575 -0.000176983 0.000107308
0.000331237 0.00022453 -0.00103989 0.000305384 -0.000180091 9.6443e-05
0.000311463 0.00024391 -0.00100405 0.000212642 -0.000146293 0.000150392
0.000313996 0.000243654 -0.00101186 0.000231061 -0.000152071 0.000144959
0.000316784 0.000243059 -0.00101993 0.000250306 -0.00015754 0.000138478
0.000319866 0.000242078 -0.00102826 0.000270396 -0.000162556 0.000130801
0.000323289 0.000240658 -0.00103689 0.000291334 -0.000166957 0.000121756
0.000327106 0.00023876 -0.00104586 0.000313122 -0.000170512 0.00011116
0.000302547 0.000252078 -0.000985663 0.000164171 -0.000115503 0.00017351
0.000304307 0.000253301 -0.000993125 0.000180749 -0.00012165 0.000170995
0.000306224 0.000254311 -0.0010008 0.000198102 -0.0001278 0.000167743
0.000308324 0.000255073 -0.00100868 0.000216263 -0.000133883 0.000163706
0.000310638 0.000255544 -0.00101679 0.000235292 -0.000139816 0.000158758
0.000313201 0.000255676 -0.00102515 0.000255233 -0.000145494 0.000152757
0.000316056 0.000255415 -0.00103376 0.000276113 -0.000150783 0.000145544
0.000319252 0.000254703 -0.00104267 0.000297956 -0.000155531 0.000136927
0.000299993 0.000261163 -0.000989344 0.000166135 -0.000101751 0.000185617
0.000301542 0.000263126 -0.000997094 0.000183135 -0.000107885 0.000183601
0.000303243 0.000264884 -0.00100506 0.000200951 -0.000114054 0.000180873
0.000305121 0.000266405 -0.00101325 0.000219655 -0.000120196 0.000177378
0.000307207 0.000267647 -0.00102166 0.000239305 -0.000126235 0.000172987
0.000309536 0.000268555 -0.00103032 0.000259951 -0.000132075 0.000167549
0.000312153 0.00026907 -0.00103923 0.000281636 -0.000137593 0.000160892
0.000315107 0.000269126 -0.00104843 0.000304402 -0.000142644 0.000152822
0.000297417 0.000270301 -0.000992915 0.00016789 -8.69001e-05 0.000197858
0.000298749 0.000273017 -0.00100096 0.000185292 -9.29735e-05 0.000196365
0.000300225 0.000275543 -0.00100923 0.000203568 -9.91044e-05 0.000194221
0.000301872 0.000277858 -0.00101773 0.00022284 -0.000105242 0.000191355
0.000303722 0.000279918 -0.00102645 0.000243152 -0.000111323 0.000187591
0.00030581 0.000281649 -0.00103542 0.000264511 -0.000117258 0.000182806
0.000308179 0.00028299 -0.00104465 0.000286987 -0.000122939 0.000176812
0.000310879 0.000283887 -0.00105416 0.000310663 -0.000128234 0.000169404
0.00035575 0.000138941 -0.000965615 0.000147455 -0.000249958 5.53089e-05
0.00036044 0.00013347 -0.00097209 0.000159265 -0.000253206 4.80737e-05
0.000353076 0.000148775 -0.000970035 0.00015063 -0.000247827 6.36809e-05
0.000357587 0.00014374 -0.000976651 0.000162884 -0.000251395 5.64952e-05
0.000362393 0.000138507 -0.0009837 0.000175562 -0.000254211 4.85627e-05
0.000367527 0.000133084 -0.00099126 0.000188572 -0.000256108 3.97488e-05
0.000373026 0.000127503 -0.000999396 0.000201924 -0.000256914 3.00251e-05
0.000378928 0.0001218 -0.00100821 0.000215578 -0.000256449 1.9343e-05
0.000385275 0.000116028 -0.00101783 0.000229468 -0.000254506 7.65755e-06
0.000392114 0.000110268 -0.00102841 0.000243453 -0.000250894 -5.07062e-06
0.00039949 0.000104613 -0.00104009 0.000257366 -0.000245437 -1.8852e-05
0.000354605 0.000154398 -0.000981313 0.000166385 -0.00024861 6.53286e-05
0.000359225 0.000149599 -0.000988477 0.000179517 -0.000251751 5.74224e-05
0.000364176 0.000144575 -0.000996127 0.000193089 -0.000253997 4.862e-05
0.000369496 0.000139341 -0.00100432 0.000207058 -0.00025517 3.88591e-05
0.000375225 0.000133931 -0.00101317 0.000221373 -0.00025508 2.808e-05
0.000381408 0.000128395 -0.00102278 0.000235955 -0.000253508 1.6225e-05
0.000388097 0.000122801 -0.00103332 0.000250676 -0.000250228 3.2274e-06
0.000351492 0.000165452 -0.00098606 0.000169767 -0.0002448 7.45514e-05
0.000355918 0.000161125 -0.000993358 0.000183389 -0.000248289 6.67359e-05
0.000360676 0.000156538 -0.00100112 0.000197497 -0.000250915 5.79779e-05
0.000365807 0.000151697 -0.0010094 0.000212058 -0.000252489 4.82061e-05
0.000371355 0.000146624 -0.00101829 0.000227028 -0.000252805 3.73472e-05
0.000377367 0.000141368 -0.00102791 0.000242323 -0.000251641 2.53242e-05
0.000383897 0.000135976 -0.0010384 0.000257848 -0.000248743 1.20765e-05
0.000348248 0.000176894 -0.000990889 0.00017301 -0.000239914 8.4191e-05
0.000352469 0.000173084 -0.00099834 0.000187127 -0.000243756 7.64988e-05
0.000357025 0.000168978 -0.00100623 0.000201782 -0.000246772 6.78185e-05
0.000361958 0.000164574 -0.0010146 0.000216951 -0.000248765 5.80688e-05
0.000367314 0.000159885 -0.00102356 0.000232597 -0.000249517 4.71617e-05
0.000373144 0.000154939 -0.00103321 0.000248651 -0.000248779 3.49956e-05
0.000344871 0.000188717 -0.000995788 0.000176102 -0.000233895 9.42537e-05
0.000348879 0.000185469 -0.00100341 0.00019072 -0.000238091 8.67223e-05
0.000353223 0.000181894 -0.00101144 0.000205932 -0.000241503 7.81591e-05
0.000357947 0.000177978 -0.00101994 0.000221724 -0.000243929 6.84715e-05
0.000363099 0.000173722 -0.00102898 0.000238066 -0.000245144 5.7555e-05
0.000368736 0.000169143 -0.00103867 0.000254903 -0.000244885 4.52861e-05
0.000341362 0.00020091 -0.00100074 0.000179031 -0.000226687 0.000104743
0.000345146 0.000198276 -0.00100856 0.000194155 -0.00023123 9.74155e-05
0.000349267 0.000195282 -0.00101676 0.000209935 -0.000235037 8.90156e-05
0.00035377 0.000191909 -0.00102539 0.000226364 -0.000237906 7.94375e-05
0.000358708 0.000188147 -0.00103454 0.000243407 -0.000239609 6.85484e-05
0.000364137 0.000183992 -0.00104429 0.000261053 -0.000239871 5.62411e-05
0.000337723 0.000213462 -0.00100574 0.000181786 -0.000218233 0.000115659
0.000341272 0.000211491 -0.00101376 0.000197421 -0.00022311 0.000108584
0.000345158 0.000209136 -0.00102215 0.000213778 -0.000227306 0.000100401
0.000349428 0.000206363 -0.00103095 0.000230858 -0.000230619 9.0988e-05
0.000354136 0.000203149 -0.00104023 0.000248654 -0.000232811 8.01861e-05
0.000330944 0.000227242 -0.0010028 0.000168947 -0.000202829 0.000132798
0.000333955 0.000226352 -0.00101075 0.000184346 -0.000208481 0.000127004
0.000337258 0.000225102 -0.001019 0.000200509 -0.000213666 0.00012023
0.000340897 0.000223442 -0.0010276 0.000217452 -0.000218235 0.000112323
0.00034492 0.000221335 -0.00103659 0.000235197 -0.000221987 0.000103141
0.000349384 0.000218742 -0.00104603 0.00025375 -0.000224683 9.25065e-05
0.000327308 0.00023968 -0.00100756 0.000170879 -0.000191491 0.000144166
0.000330064 0.000239569 -0.00101576 0.000186734 -0.000197361 0.000138761
0.000333109 0.000239088 -0.00102426 0.000203414 -0.000202837 0.000132348
0.000336486 0.000238186 -0.00103309 0.000220951 -0.000207754 0.000124786
0.000340248 0.000236806 -0.0010423 0.000239367 -0.000211935 0.000115904
0.000344452 0.000234907 -0.00105193 0.000258696 -0.000215123 0.000105524
0.000317413 0.000248474 -0.000988384 0.000128445 -0.000159674 0.000165939
0.000319275 0.000250015 -0.000996103 0.000142428 -0.000166111 0.000163311
0.000321316 0.000251321 -0.00100406 0.000157145 -0.000172507 0.000159971
0.000323565 0.000252358 -0.00101227 0.000172625 -0.000178785 0.000155874
0.000326056 0.000253077 -0.00102074 0.000188935 -0.000184842 0.000150905
0.00032883 0.000253423 -0.00102951 0.000206138 -0.000190562 0.000144927
0.000331933 0.000253342 -0.0010386 0.000224277 -0.000195794 0.000137785
0.000335417 0.00025277 -0.00104805 0.000243394 -0.000200364 0.000129293
0.000314357 0.000258806 -0.000992181 0.000128974 -0.000145443 0.000176558
0.000315965 0.000261189 -0.00100018 0.000143262 -0.000151885 0.000174373
0.000317745 0.000263349 -0.00100842 0.000158313 -0.000158322 0.000171498
0.000319727 0.000265251 -0.00101692 0.000174192 -0.00016468 0.000167887
0.000321943 0.000266846 -0.00102568 0.000190966 -0.000170871 0.000163417
0.000324434 0.000268078 -0.00103473 0.000208696 -0.000176787 0.000157945
0.000327248 0.00026888 -0.00104409 0.000227445 -0.000182287 0.000151305
0.000330438 0.000269185 -0.0010538 0.000247267 -0.000187204 0.000143308
0.00031125 0.000269215 -0.000995867 0.000129375 -0.000129998 0.000187291
0.000312597 0.000272459 -0.00100415 0.000143951 -0.000136392 0.000185568
0.000314106 0.000275496 -0.00101269 0.000159335 -0.000142808 0.000183212
0.000315808 0.000278301 -0.00102148 0.000175639 -0.000149185 0.000180163
0.000317738 0.000280831 -0.00103053 0.000192913 -0.00015544 0.000176253
0.000319936 0.000283003 -0.00103987 0.000211178 -0.000161479 0.000171362
0.000322448 0.00028475 -0.00104953 0.000230517 -0.000167178 0.000165316
0.000325328 0.000286011 -0.00105952 0.000251022 -0.000172382 0.000157915
0.000359303 0.000122819 -0.000968394 0.00014088 -0.000292684 6.53983e-05
0.000364375 0.000116813 -0.000975409 0.000151225 -0.000295779 5.94279e-05
0.000356236 0.00013377 -0.000972873 0.000143851 -0.000291072 7.18552e-05
0.000361086 0.000128256 -0.000980002 0.00015462 -0.000294508 6.59357e-05
0.000366285 0.000122523 -0.000987644 0.000165672 -0.000297098 5.94003e-05
0.000371872 0.000116584 -0.000995886 0.000176905 -0.000298663 5.21184e-05
0.000377895 0.000110469 -0.00100481 0.000188332 -0.000299018 4.40534e-05
0.000384399 0.000104219 -0.00101453 0.000199898 -0.000297973 3.51455e-05
0.000391437 9.78926e-05 -0.0010252 0.000211528 -0.000295311 2.53456e-05
0.000399067 9.15753e-05 -0.00103698 0.000223107 -0.000290828 1.46013e-05
0.000407348 8.53673e-05 -0.00105007 0.000234492 -0.000284345 2.87377e-06
0.000357669 0.000140137 -0.000984706 0.000157893 -0.000292184 7.27595e-05
0.000362636 0.000134896 -0.000992431 0.000169376 -0.000295119 6.62557e-05
0.000367993 0.000129411 -0.00100073 0.000181143 -0.000297051 5.90012e-05
0.000373787 0.000123695 -0.00100967 0.000193146 -0.000297793 5.09269e-05
0.000380069 0.000117786 -0.00101938 0.000205321 -0.000297138 4.19658e-05
0.000386892 0.00011174 -0.00102999 0.000217579 -0.000294858 3.20568e-05
0.000394321 0.00010563 -0.00104169 0.000229809 -0.000290717 2.11212e-05
0.000354124 0.000152461 -0.000989504 0.000161042 -0.000288757 7.98692e-05
0.000358848 0.000147755 -0.000997333 0.000172996 -0.000292062 7.3454e-05
0.000363963 0.000142764 -0.0010057 0.000185275 -0.000294398 6.62506e-05
0.000369518 0.000137497 -0.00101469 0.000197835 -0.000295561 5.81876e-05
0.000375566 0.000131979 -0.0010244 0.000210617 -0.000295333 4.9189e-05
0.000382165 0.000126261 -0.00103497 0.000223528 -0.000293477 3.91736e-05
0.000389382 0.000120398 -0.00104657 0.000236479 -0.000289729 2.80696e-05
0.000350451 0.000165222 -0.000994395 0.000164043 -0.00028417 8.72931e-05
0.000354922 0.000161098 -0.00100235 0.000176476 -0.000287853 8.09903e-05
0.000359784 0.000156653 -0.00101081 0.000189281 -0.000290605 7.38641e-05
0.000365087 0.000151884 -0.00101986 0.000202418 -0.000292212 6.58392e-05
0.000370888 0.000146806 -0.00102958 0.000215834 -0.000292443 5.68289e-05
0.00037725 0.000141451 -0.00104014 0.000229448 -0.000291033 4.67284e-05
0.00034665 0.000178414 -0.000999366 0.000166879 -0.000278361 9.50359e-05
0.000350856 0.000174924 -0.00100746 0.000179802 -0.000282425 8.88727e-05
0.000355453 0.000171077 -0.00101604 0.000193146 -0.000285599 8.18542e-05
0.000360493 0.000166861 -0.00102516 0.00020688 -0.000287668 7.38986e-05
0.000366034 0.000162277 -0.00103493 0.000220956 -0.000288389 6.49074e-05
0.000372143 0.000157346 -0.00104547 0.000235301 -0.000287482 5.47576e-05
0.000342722 0.000192026 -0.0010044 0.000169538 -0.000271269 0.0001031
0.000346652 0.000189225 -0.00101266 0.000182956 -0.000275707 9.71077e-05
0.000350971 0.000186033 -0.00102137 0.000196853 -0.000279308 9.02318e-05
0.000355734 0.00018243 -0.0010306 0.000211203 -0.000281849 8.23818e-05
0.000361001 0.000178407 -0.00104043 0.000225952 -0.00028309 7.34352e-05
0.000366842 0.000173961 -0.00105098 0.000241062 -0.000282732 6.32917e-05
0.000338668 0.000206046 -0.00100949 0.000172004 -0.000262831 0.000111486
0.00034231 0.00020399 -0.00101793 0.000185925 -0.000267632 0.0001057
0.000346339 0.000201516 -0.0010268 0.000200387 -0.000271653 9.90064e-05
0.000350809 0.00019859 -0.00103616 0.000215372 -0.000274672 9.13041e-05
0.000355786 0.000195187 -0.00104608 0.000230849 -0.000276435 8.24484e-05
0.000331483 0.000221308 -0.00100632 0.000160418 -0.000247293 0.000124951
0.000334493 0.000220452 -0.00101461 0.000174253 -0.000252987 0.000120195
0.000337834 0.000219206 -0.00102325 0.000188693 -0.000258128 0.00011465
0.000341557 0.000217513 -0.00103231 0.000203732 -0.000262556 0.000108184
0.000345719 0.000215335 -0.00104181 0.00021937 -0.000266049 0.000100678
0.000350389 0.000212632 -0.00105185 0.000235586 -0.000268353 9.19775e-05
0.000327497 0.00023522 -0.0010112 0.000162019 -0.000235728 0.000133663
0.000330199 0.000235239 -0.00101973 0.000176305 -0.000241664 0.000129215
0.000333225 0.000234852 -0.00102861 0.000191253 -0.000247128 0.000123957
0.000336628 0.00023401 -0.00103786 0.000206878 -0.000251938 0.000117769
0.000340467 0.000232647 -0.00104755 0.000223178 -0.000255901 0.000110508
0.000344811 0.000230726 -0.00105773 0.000240158 -0.000258734 0.000102027
0.000317737 0.000244684 -0.00099144 0.000123194 -0.000202952 0.000151017
0.00031942 0.000246529 -0.000999377 0.000135971 -0.000209635 0.000148818
0.0003213 0.000248119 -0.00100758 0.000149367 -0.000216237 0.000146034
0.000323412 0.000249415 -0.00101606 0.000163405 -0.000222673 0.000142634
0.000325793 0.000250364 -0.00102484 0.000178138 -0.000228825 0.000138529
0.000328491 0.000250906 -0.00103396 0.000193603 -0.000234564 0.000133613
0.000331558 0.000250984 -0.00104344 0.000209822 -0.000239723 0.000127758
0.000335056 0.000250529 -0.00105335 0.000226815 -0.000244113 0.00012081
0.000314493 0.000256267 -0.000995412 0.000123364 -0.000188201 0.000159144
0.000315874 0.000259057 -0.00100362 0.000136434 -0.000194902 0.000157286
0.000317444 0.000261605 -0.0010121 0.000150155 -0.000201563 0.000154862
0.000319235 0.00026387 -0.00102086 0.000164584 -0.000208099 0.00015184
0.000321285 0.000265802 -0.00102991 0.000179771 -0.00021441 0.000148124
0.00032364 0.000267338 -0.00103929 0.000195756 -0.000220374 0.000143605
0.000326356 0.000268407 -0.00104902 0.000212576 -0.000225836 0.000138146
0.000329493 0.000268936 -0.00105916 0.000230264 -0.000230612 0.00013159
0.000311202 0.000267953 -0.000999275 0.000123378 -0.00017212 0.000167373
0.000312273 0.000271712 -0.00100776 0.000136727 -0.000178785 0.000165868
0.00031352 0.000275246 -0.00101653 0.000150768 -0.00018544 0.000163844
0.000314977 0.000278527 -0.00102557 0.00016561 -0.000192013 0.000161262
0.000316683 0.000281507 -0.0010349 0.000181289 -0.000198407 0.000157977
0.000318684 0.000284101 -0.00104456 0.000197798 -0.00020452 0.000153906
0.000321033 0.000286229 -0.00105456 0.000215196 -0.000210213 0.00014891
0.000323793 0.00028783 -0.00106495 0.000233557 -0.000215313 0.000142821
0 0 0 0 0 0
0 0 0 0 0 0
0 0 0 0 0 0
0 0 0 0 0 0
0 0 0 0 0 0
0 0 0 0 0 0
0 0 0 0 0 0
0 0 0 0 0 0
0 0 0 0 0 0
0 0 0 0 0 0
0 0 0 0 0 0
0 0 0 0 0 0
0 0 0 0 0 0
0 0 0 0 0 0
0 0 0 0 0 0
0 0 0 0 0 0
0 0 0 0 0 0
0 0 0 0 0 0
0 0 0 0 0 0
0 0 0 0 0 0
0 0 0 0 0 0
0 0 0 0 0 0
0 0 0 0 0 0
0 0 0 0 0 0
0 0 0 0 0 0
0 0 0 0 0 0
0 0 0 0 0 0
0 0 0 0 0 0
0 0 0 0 0 0
0 0 0 0 0 0
0 0 0 0 0 0
0 0 0 0 0 0
0 0 0 0 0 0
0 0 0 0 0 0
0 0 0 0 0 0
0 0 0 0 0 0
0 0 0 0 0 0
0 0 0 0 0 0
0 0 0 0 0 0
0 0 0 0 0 0
0 0 0 0 0 0
0 0 0 0 0 0
0 0 0 0 0 0
0 0 0 0 0 0
0 0 0 0 0 0
0 0 0 0 0 0
0 0 0 0 0 0
0 0 0 0 0 0
0 0 0 0 0 0
0 0 0 0 0 0
0 0 0 0 0 0
0 0 0 0 0 0
0 0 0 0 0 0
0 0 0 0 0 0
0 0 0 0 0 0
0 0 0 0 0 0
0 0 0 0 0 0
0 0 0 0 0 0
0 0 0 0 0 0
0 0 0 0 0 0
0 0 0 0 0 0
0 0 0 0 0 0
0 0 0 0 0 0
0 0 0 0 0 0
0 0 0 0 0 0
0 0 0 0 0 0
0 0 0 0 0 0
0 0 0 0 0 0
0 0 0 0 0 0
0 0 0 0 0 0
0 0 0 0 0 0
0 0 0 0 0 0
0 0 0 0 0 0
0 0 0 0 0 0
0 0 0 0 0 0
0 0 0 0 0 0
0 0 0 0 0 0
0 0 0 0 0 0
0 0 0 0 0 0
0 0 0 0 0 0
0 0 0 0 0 0
0 0 0 0 0 0
0 0 0 0 0 0
0 0 0 0 0 0
0.00037842 0.000106773 -0.000970393 0.000132218 -0.000335912 8.81803e-05
0.000383919 0.000100228 -0.000977872 0.000141104 -0.000338873 8.45853e-05
0.000375013 0.000118844 -0.000974884 0.000135925 -0.000334784 9.37176e-05
0.000380262 0.000112848 -0.000982452 0.000145212 -0.000338109 9.01263e-05
0.000385887 0.000106611 -0.000990604 0.00015465 -0.000340493 8.61943e-05
0.000391932 0.000100149 -0.000999433 0.000164136 -0.000341742 8.18214e-05
0.000398446 9.34936e-05 -0.00100904 0.000173687 -0.000341663 7.70136e-05
0.000405479 8.66878e-05 -0.00101954 0.000183252 -0.000340052 7.17627e-05
0.000413086 7.9794e-05 -0.00103111 0.000192761 -0.000336677 6.60672e-05
0.000421334 7.29028e-05 -0.00104394 0.000202121 -0.000331321 5.99166e-05
0.00043029 6.612e-05 -0.00105824 0.000211224 -0.0003238 5.33157e-05
0.000376455 0.000125956 -0.00098715 0.000149243 -0.000336209 9.59506e-05
0.000381818 0.000120272 -0.000995355 0.000159083 -0.000338961 9.20008e-05
0.000387601 0.000114321 -0.00100421 0.000169064 -0.000340602 8.7605e-05
0.000393855 0.000108117 -0.00101379 0.000179141 -0.000340929 8.27428e-05
0.000400631 0.0001017 -0.00102424 0.00018925 -0.000339727 7.73997e-05
0.000407988 9.51315e-05 -0.00103571 0.000199306 -0.00033675 7.1567e-05
0.000415996 8.84888e-05 -0.0010484 0.000209216 -0.00033175 6.52197e-05
0.000372497 0.000139555 -0.000991949 0.000153197 -0.000333126 0.000102034
0.000377587 0.000134467 -0.00100023 0.000163487 -0.000336273 9.81135e-05
0.000383097 0.000129071 -0.00100912 0.000173949 -0.000338342 9.37131e-05
0.000389078 0.000123373 -0.00101872 0.000184536 -0.000339117 8.88106e-05
0.000395585 0.000117401 -0.00102912 0.000195189 -0.000338364 8.33836e-05
0.00040268 0.00011121 -0.00104051 0.000205817 -0.000335831 7.74095e-05
0.000410436 0.000104859 -0.00105305 0.000216344 -0.000331239 7.08762e-05
0.000368388 0.000153639 -0.000996848 0.000157048 -0.000328795 0.000108405
0.000373193 0.000149201 -0.00100522 0.000167802 -0.000332347 0.000104534
0.000378417 0.000144414 -0.00101418 0.000178763 -0.00033486 0.000100149
0.000384112 0.000139276 -0.00102379 0.000189887 -0.000336107 9.52242e-05
0.000390336 0.000133802 -0.00103418 0.000201115 -0.000335841 8.97294e-05
0.000397157 0.000128027 -0.0010455 0.000212368 -0.000333779 8.36247e-05
0.000364127 0.000168202 -0.00100183 0.000160781 -0.00032315 0.00011507
0.000368634 0.00016447 -0.00101033 0.000172013 -0.00032711 0.000111271
0.000373559 0.000160352 -0.00101936 0.000183493 -0.000330077 0.000106926
0.000378955 0.000155833 -0.00102902 0.00019518 -0.000331817 0.000102002
0.000384883 0.000150916 -0.0010394 0.000207017 -0.000332072 9.64607e-05
0.000391412 0.000145624 -0.00105067 0.000218927 -0.000330544 9.0248e-05
0.000359713 0.000183235 -0.0010069 0.00016438 -0.000316124 0.000122035
0.000363911 0.000180269 -0.00101552 0.000176104 -0.000320488 0.000118334
0.000368523 0.000176881 -0.00102467 0.000188124 -0.000323913 0.000114058
0.000373605 0.000173046 -0.00103439 0.000200401 -0.000326161 0.000109164
0.00037922 0.000168758 -0.0010448 0.000212866 -0.000326971 0.000103592
0.000385442 0.000164015 -0.00105602 0.000225474 -0.000326025 9.73149e-05
0.000355148 0.000198725 -0.00101201 0.000167829 -0.000307647 0.000129301
0.000359022 0.000196587 -0.0010208 0.000180059 -0.000312405 0.000125731
0.000363307 0.000193996 -0.00103007 0.000192639 -0.000316285 0.000121557
0.000368059 0.000190917 -0.00103989 0.000205533 -0.000319047 0.000116728
0.000373345 0.000187323 -0.00105035 0.000218692 -0.000320417 0.000111163
0.000347248 0.000215466 -0.0010086 0.00015877 -0.00029189 0.000139748
0.000350432 0.000214648 -0.00101717 0.000171103 -0.000297654 0.000136874
0.000353969 0.000213409 -0.00102614 0.000183862 -0.000302785 0.000133465
0.00035791 0.000211686 -0.00103556 0.000197021 -0.000307107 0.000129433
0.000362316 0.00020944 -0.00104549 0.00021056 -0.000310381 0.000124709
0.000367254 0.000206627 -0.00105603 0.000224434 -0.000312334 0.000119205
0.000342731 0.000230852 -0.00101355 0.000161408 -0.000280033 0.000147388
0.000345569 0.000231004 -0.00102234 0.000174216 -0.000286065 0.000144745
0.000348753 0.000230718 -0.00103151 0.0001875 -0.000291551 0.000141538
0.000352335 0.000229939 -0.00104111 0.000201257 -0.000296292 0.000137693
0.000356375 0.000228598 -0.0010512 0.000215461 -0.000300078 0.000133119
0.000360945 0.000226656 -0.00106184 0.000230088 -0.000302602 0.000127732
0.000332207 0.00024097 -0.00099328 0.000127117 -0.000246169 0.000159652
0.000333943 0.000243124 -0.00100139 0.000138866 -0.000253116 0.000158624
0.00033589 0.000245002 -0.00100978 0.000151108 -0.000259945 0.00015717
0.000338083 0.000246561 -0.00101847 0.000163856 -0.000266563 0.000155283
0.000340563 0.000247745 -0.0010275 0.000177139 -0.000272839 0.0001529
0.000343377 0.00024849 -0.0010369 0.000190968 -0.000278631 0.000149947
0.000346581 0.000248731 -0.0010467 0.00020534 -0.000283757 0.00014634
0.000350237 0.000248399 -0.00105696 0.000220251 -0.000288009 0.000141977
0.000328486 0.000253799 -0.000997356 0.000128259 -0.00023083 0.000166906
0.000329881 0.000257002 -0.00100573 0.000140338 -0.000237807 0.000166158
0.000331479 0.000259942 -0.00101439 0.000152942 -0.000244713 0.000164996
0.000333311 0.000262576 -0.00102334 0.000166116 -0.000251449 0.00016341
0.000335417 0.000264851 -0.00103263 0.000179888 -0.000257907 0.000161332
0.000337846 0.000266697 -0.00104226 0.000194271 -0.000263954 0.000158683
0.000340654 0.000268039 -0.00105229 0.000209275 -0.000269418 0.00015537
0.000343904 0.000268798 -0.00106276 0.000224907 -0.000274096 0.000151293
0.000324687 0.000266758 -0.00100132 0.000129239 -0.00021404 0.000174276
0.000325732 0.000271037 -0.00100997 0.000141636 -0.000220991 0.000173814
0.000326966 0.000275074 -0.0010189 0.000154598 -0.000227904 0.00017298
0.00032842 0.000278835 -0.00102814 0.000168227 -0.000234695 0.000171755
0.000330138 0.000282274 -0.00103768 0.000182537 -0.000241254 0.000170022
0.000332166 0.000285295 -0.00104758 0.000197489 -0.000247474 0.000167729
0.000334559 0.000287813 -0.00105785 0.000213111 -0.000253201 0.000164776
0.000337383 0.000289761 -0.00106855 0.000229455 -0.000258241 0.000161052
0 0 0 0 0 0
0 0 0 0 0 0
0 0 0 0 0 0
0 0 0 0 0 0
0 0 0 0 0 0
0 0 0 0 0 0
0 0 0 0 0 0
0 0 0 0 0 0
0 0 0 0 0 0
0 0 0 0 0 0
0 0 0 0 0 0
0 0 0 0 0 0
0 0 0 0 0 0
0 0 0 0 0 0
0 0 0 0 0 0
0 0 0 0 0 0
0 0 0 0 0 0
0 0 0 0 0 0
0 0 0 0 0 0
0 0 0 0 0 0
0 0 0 0 0 0
0 0 0 0 0 0
0 0 0 0 0 0
0 0 0 0 0 0
0 0 0 0 0 0
0 0 0 0 0 0
0 0 0 0 0 0
0 0 0 0 0 0
0 0 0 0 0 0
0 0 0 0 0 0
0 0 0 0 0 0
0 0 0 0 0 0
0 0 0 0 0 0
0 0 0 0 0 0
0 0 0 0 0 0
0 0 0 0 0 0
0 0 0 0 0 0
0 0 0 0 0 0
0 0 0 0 0 0
0 0 0 0 0 0
0 0 0 0 0 0
0 0 0 0 0 0
0 0 0 0 0 0
0 0 0 0 0 0
0 0 0 0 0 0
0 0 0 0 0 0
0 0 0 0 0 0
0 0 0 0 0 0
0 0 0 0 0 0
0 0 0 0 0 0
0 0 0 0 0 0
0 0 0 0 0 0
0 0 0 0 0 0
0 0 0 0 0 0
0 0 0 0 0 0
0 0 0 0 0 0
0 0 0 0 0 0
0 0 0 0 0 0
0 0 0 0 0 0
0 0 0 0 0 0
0 0 0 0 0 0
0 0 0 0 0 0
0 0 0 0 0 0
0 0 0 0 0 0
0 0 0 0 0 0
0 0 0 0 0 0
0 0 0 0 0 0
0 0 0 0 0 0
0 0 0 0 0 0
0 0 0 0 0 0
0 0 0 0 0 0
0 0 0 0 0 0
0 0 0 0 0 0
0 0 0 0 0 0
0 0 0 0 0 0
0 0 0 0 0 0
0 0 0 0 0 0
0 0 0 0 0 0
0 0 0 0 0 0
0 0 0 0 0 0
0 0 0 0 0 0
0 0 0 0 0 0
0 0 0 0 0 0
0 0 0 0 0 0
0.00036818 9.06605e-05 -0.000972562 9.40164e-05 -0.000380928 0.000101882
0.00037407 8.35625e-05 -0.000980532 0.000100837 -0.0003838 9.96052e-05
0.000363948 0.000103858 -0.000977036 9.6329e-05 -0.000380404 0.000107213
0.000369542 9.73625e-05 -0.00098507 0.000103415 -0.000383669 0.000104878
0.000375543 9.06051e-05 -0.000993763 0.000110733 -0.000385885 0.000102365
0.000381996 8.36013e-05 -0.00100321 0.000118194 -0.00038685 9.96026e-05
0.000388949 7.63843e-05 -0.00101352 0.000125831 -0.000386351 9.66447e-05
0.000396454 6.90008e-05 -0.00102484 0.000133629 -0.000384173 9.35368e-05
0.000404563 6.1517e-05 -0.00103735 0.000141551 -0.000380068 9.0328e-05
0.000413345 5.40286e-05 -0.00105125 0.000149514 -0.000373801 8.70695e-05
0.000422866 4.66474e-05 -0.00106678 0.000157416 -0.000365183 8.38396e-05
0.000364833 0.000111705 -0.00098973 0.000105918 -0.000382317 0.000110442
0.000370524 0.000105559 -0.000998449 0.00011349 -0.000384935 0.000107845
0.000376668 9.91216e-05 -0.00100789 0.000121295 -0.00038632 0.000104983
0.000383315 9.24083e-05 -0.00101815 0.000129308 -0.000386255 0.00010189
0.000390518 8.5461e-05 -0.00102938 0.0001375 -0.000384511 9.86016e-05
0.000398335 7.83451e-05 -0.00104173 0.000145826 -0.000380824 9.5164e-05
0.000406836 7.11439e-05 -0.00105544 0.000154208 -0.000374931 9.16223e-05
0.000359943 0.000126583 -0.000994499 0.000108353 -0.000379704 0.000116284
0.000365309 0.000121096 -0.00100326 0.000116215 -0.000382749 0.000113645
0.000371129 0.000115273 -0.00101272 0.000124336 -0.000384597 0.000110705
0.000377454 0.000109122 -0.00102295 0.000132695 -0.000385014 0.000107487
0.000384341 0.000102672 -0.00103409 0.000141269 -0.00038375 0.000104022
0.000391852 9.59826e-05 -0.00104632 0.000150005 -0.000380533 0.000100346
0.000400058 8.91157e-05 -0.00105984 0.000158853 -0.000375069 9.65182e-05
0.00035487 0.000141997 -0.000999371 0.000110703 -0.000375758 0.00012243
0.000359897 0.000137226 -0.0010082 0.000118859 -0.000379243 0.00011977
0.000365377 0.000132077 -0.00101769 0.000127303 -0.000381572 0.000116769
0.000371364 0.000126547 -0.00102791 0.000136019 -0.000382499 0.000113443
0.000377919 0.000120651 -0.00103899 0.000144987 -0.000381758 0.000109812
0.000385107 0.000114429 -0.00105111 0.000154167 -0.000379047 0.000105902
0.000349614 0.00015794 -0.00100434 0.000112961 -0.000370406 0.000128887
0.000354286 0.000153947 -0.00101326 0.000121416 -0.000374337 0.000126231
0.00035941 0.000149534 -0.00102279 0.00013019 -0.000377161 0.000123193
0.000365043 0.000144689 -0.00103302 0.000139274 -0.000378622 0.00011978
0.000371247 0.000139412 -0.00104406 0.000148648 -0.000378444 0.000116001
0.000378093 0.000133729 -0.00105608 0.000158281 -0.000376305 0.00011187
0.000344176 0.000174403 -0.00100938 0.00011512 -0.000363574 0.000135662
0.000348476 0.000171252 -0.00101842 0.000123879 -0.00036795 0.00013304
0.000353227 0.000167644 -0.00102802 0.000132992 -0.000371276 0.000129993
0.000358487 0.000163554 -0.00103828 0.000142452 -0.00037329 0.000126522
0.000364321 0.000158973 -0.00104931 0.000152232 -0.000373714 0.000122611
0.000370803 0.000153901 -0.00106124 0.000162334 -0.000372204 0.000118298
0.000338557 0.000191372 -0.00101449 0.000117173 -0.000355187 0.000142757
0.000342469 0.000189131 -0.00102366 0.000126242 -0.00036 0.000140203
0.000346827 0.000186401 -0.00103336 0.000135701 -0.000363826 0.000137184
0.000351694 0.000183143 -0.00104368 0.000145549 -0.000366405 0.000133689
0.000357136 0.00017933 -0.00105473 0.000155777 -0.000367441 0.000129685
0.00032964 0.000209619 -0.00101076 0.000110134 -0.00033922 0.000152213
0.000332759 0.000208823 -0.00101964 0.000119106 -0.000345171 0.000150182
0.000336264 0.000207571 -0.00102897 0.0001285 -0.000350402 0.000147726
0.00034021 0.000205796 -0.0010388 0.000138315 -0.000354719 0.000144778
0.000344661 0.000203454 -0.0010492 0.00014856 -0.000357864 0.000141303
0.000349689 0.000200502 -0.00106028 0.000159237 -0.000359538 0.000137257
0.000324084 0.000226489 -0.00101573 0.000111687 -0.000327185 0.000159772
0.000326784 0.000226758 -0.00102481 0.000120944 -0.000333442 0.000157925
0.000329863 0.000226553 -0.00103432 0.000130653 -0.000339073 0.000155611
0.000333375 0.000225814 -0.0010443 0.00014083 -0.00034386 0.000152782
0.000337387 0.000224469 -0.00105482 0.000151479 -0.000347572 0.000149376
0.000341974 0.000222475 -0.00106597 0.000162618 -0.000349877 0.000145349
0.000313278 0.000237307 -0.000994843 8.71543e-05 -0.00029191 0.000170182
0.000314734 0.00023976 -0.00100314 9.53883e-05 -0.000299264 0.000169686
0.00031642 0.000241914 -0.00101174 0.000104045 -0.000306464 0.000168822
0.000318373 0.000243724 -0.00102067 0.000113126 -0.000313408 0.000167603
0.000320638 0.000245127 -0.00102998 0.000122668 -0.000319951 0.000165969
0.000323268 0.000246054 -0.00103969 0.000132703 -0.000325932 0.000163854
0.000326324 0.000246437 -0.00104984 0.000143252 -0.000331155 0.000161198
0.000329871 0.000246201 -0.00106052 0.000154334 -0.000335391 0.00015793
0.000308698 0.00025139 -0.000998979 8.78141e-05 -0.000276059 0.000177479
0.00030974 0.000254996 -0.00100753 9.62496e-05 -0.000283465 0.000177239
0.000310999 0.000258317 -0.00101639 0.000105121 -0.000290769 0.000176638
0.000312511 0.000261309 -0.00102557 0.000114461 -0.00029786 0.000175682
0.000314322 0.00026391 -0.00103511 0.000124299 -0.00030462 0.000174308
0.000316484 0.000266049 -0.00104504 0.000134668 -0.000310901 0.000172444
0.000319059 0.000267642 -0.0010554 0.000145599 -0.000316514 0.000170021
0.000322115 0.000268605 -0.00106625 0.00015712 -0.000321233 0.000166969
0.000304026 0.000265627 -0.00100301 8.83931e-05 -0.000258629 0.000184893
0.000304639 0.000270419 -0.00101182 9.70213e-05 -0.000266029 0.000184914
0.000305453 0.000274949 -0.00102095 0.000106107 -0.000273364 0.000184612
0.000306504 0.000279179 -0.0010304 0.000115735 -0.000280541 0.000183982
0.00030784 0.000283062 -0.00104018 0.00012592 -0.000287432 0.000182918
0.000309513 0.000286494 -0.00105035 0.00013664 -0.000293923 0.000181367
0.000311582 0.00028938 -0.00106093 0.00014794 -0.000299846 0.000179247
0.000314118 0.000291651 -0.00107198 0.00015988 -0.000304985 0.000176483
0.00038933 7.41054e-05 -0.000975095 5.50378e-05 -0.000426483 0.000108366
0.000395763 6.64232e-05 -0.000983606 5.94414e-05 -0.000429282 0.000106206
0.000384804 8.84236e-05 -0.000979626 5.45527e-05 -0.000426659 0.000112103
0.000390912 8.13977e-05 -0.000988176 5.9075e-05 -0.000429882 0.000109871
0.000397466 7.40872e-05 -0.000997463 6.38917e-05 -0.00043195 0.000107473
0.000404511 6.65094e-05 -0.00100759 6.89223e-05 -0.000432648 0.000104837
0.0004121 5.86984e-05 -0.00101869 7.42069e-05 -0.000431749 0.000102015
0.000420288 5.07044e-05 -0.0010309 7.97504e-05 -0.00042902 9.90395e-05
0.000429136 4.2599e-05 -0.00104443 8.55443e-05 -0.000424202 9.59574e-05
0.000438715 3.44844e-05 -0.00105951 9.15145e-05 -0.000417043 9.28308e-05
0.0004491 2.64783e-05 -0.00107641 9.75668e-05 -0.000407348 8.9741e-05
0.000385858 9.69677e-05 -0.000992874 5.85747e-05 -0.000429179 0.000113754
0.000392071 9.03247e-05 -0.00100216 6.34876e-05 -0.000431683 0.000111258
0.000398777 8.33654e-05 -0.00101225 6.87038e-05 -0.000432831 0.000108513
0.000406028 7.61071e-05 -0.00102325 7.42078e-05 -0.000432394 0.000105546
0.000413881 6.85944e-05 -0.00103533 7.99946e-05 -0.000430124 0.000102385
0.000422402 6.08967e-05 -0.00104867 8.60455e-05 -0.000425745 9.90683e-05
0.000431663 5.31045e-05 -0.00106351 9.22991e-05 -0.000418977 9.56501e-05
0.000380597 0.000113122 -0.000997694 5.79495e-05 -0.000427142 0.000117835
0.000386455 0.000107198 -0.001007 6.29798e-05 -0.000430108 0.000115283
0.000392805 0.00010091 -0.00101706 6.83367e-05 -0.000431754 0.000112446
0.000399701 9.42668e-05 -0.00102799 7.40173e-05 -0.000431833 0.000109346
0.000407205 8.73001e-05 -0.00103995 8.00205e-05 -0.000430075 0.000106001
0.000415383 8.00733e-05 -0.00105311 8.6321e-05 -0.00042619 0.000102445
0.000424313 7.26542e-05 -0.0010677 9.28886e-05 -0.000419872 9.87359e-05
0.000375129 0.000129863 -0.00100263 5.71864e-05 -0.000423691 0.000122137
0.000380616 0.000124719 -0.00101197 6.23255e-05 -0.000427135 0.000119546
0.000386593 0.000119166 -0.00102203 6.78172e-05 -0.000429301 0.000116634
0.000393119 0.000113201 -0.00103291 7.36674e-05 -0.000429929 0.000113414
0.000400256 0.000106841 -0.00104476 7.98808e-05 -0.000428731 0.000109898
0.000408075 0.000100128 -0.00105776 8.64448e-05 -0.000425388 0.000106106
0.000369452 0.000147185 -0.00100766 5.62837e-05 -0.000418748 0.000126664
0.000374551 0.000142888 -0.00101706 6.15229e-05 -0.000422678 0.000124054
0.00038014 0.000138137 -0.00102714 6.71414e-05 -0.000425383 0.000121085
0.000386277 0.000132918 -0.001038 7.31521e-05 -0.000426588 0.000117765
0.000393028 0.000127234 -0.00104976 7.95666e-05 -0.000425996 0.000114094
0.000400468 0.000121112 -0.00106262 8.63822e-05 -0.000423265 0.000110081
0.000363568 0.000165078 -0.00101279 5.52407e-05 -0.000412233 0.000131417
0.000368262 0.000161697 -0.00102228 6.05703e-05 -0.000416651 0.000128811
0.000373442 0.000157822 -0.0010324 6.63057e-05 -0.000419905 0.00012581
0.00037917 0.000153425 -0.00104325 7.24664e-05 -0.000421711 0.000122414
0.000385516 0.000148498 -0.00105496 7.90558e-05 -0.000421771 0.000118603
0.000392556 0.000143043 -0.00106767 8.61131e-05 -0.000419713 0.000114405
0.000357475 0.000183529 -0.001018 5.40579e-05 -0.000404063 0.000136397
0.000361745 0.000181138 -0.00102759 5.94676e-05 -0.000408964 0.000133821
0.000366497 0.000178217 -0.00103778 6.53088e-05 -0.000412769 0.000130817
0.000371796 0.000174726 -0.00104865 7.16069e-05 -0.000415194 0.000127373
0.000377713 0.000170634 -0.00106033 7.83873e-05 -0.000415919 0.000123455
0.000347765 0.000203332 -0.00101402 4.76591e-05 -0.000387976 0.000143749
0.000351175 0.000202511 -0.00102325 5.27261e-05 -0.000394156 0.000141608
0.000355001 0.000201196 -0.00103298 5.82169e-05 -0.000399527 0.000139083
0.000359304 0.000199314 -0.00104326 6.41518e-05 -0.000403876 0.000136109
0.000364149 0.000196818 -0.00105419 7.05734e-05 -0.000406924 0.000132654
0.000369613 0.000193662 -0.00106586 7.75165e-05 -0.000408349 0.000128672
0.000341715 0.000221694 -0.00101912 4.61746e-05 -0.000375897 0.000149054
0.000344669 0.000222032 -0.00102854 5.12801e-05 -0.000382426 0.000147036
0.000348031 0.000221855 -0.00103843 5.68232e-05 -0.000388249 0.000144596
0.000351861 0.000221099 -0.00104883 6.28396e-05 -0.000393124 0.000141688
0.000356227 0.000219685 -0.00105985 6.93617e-05 -0.000396803 0.000138258
0.00036121 0.00021757 -0.00107154 7.64498e-05 -0.000398922 0.000134264
0.000329893 0.000233338 -0.000997624 3.13861e-05 -0.000339177 0.000158064
0.000331492 0.000236055 -0.00100615 3.54319e-05 -0.000346993 0.000157227
0.00033334 0.000238446 -0.001015 3.983e-05 -0.00035462 0.000156043
0.00033548 0.000240462 -0.00102422 4.45711e-05 -0.000361949 0.000154537
0.00033796 0.000242036 -0.00103384 4.97074e-05 -0.000368814 0.00015266
0.000340835 0.000243091 -0.0010439 5.52968e-05 -0.00037504 0.000150349
0.000344167 0.000243554 -0.00105446 6.13826e-05 -0.000380411 0.000147549
0.000348026 0.000243347 -0.00106559 6.80084e-05 -0.000384679 0.000144196
0.000324873 0.000248687 -0.00100194 2.96721e-05 -0.000322932 0.000163168
0.00032602 0.00025266 -0.00101071 3.37197e-05 -0.000330829 0.000162505
0.000327404 0.000256324 -0.00101982 3.81099e-05 -0.000338596 0.000161501
0.000329065 0.000259627 -0.00102927 4.28671e-05 -0.000346109 0.000160174
0.000331049 0.000262505 -0.00103912 4.80315e-05 -0.000353236 0.000158471
0.000333413 0.000264879 -0.00104939 5.36571e-05 -0.000359814 0.000156328
0.000336222 0.000266658 -0.00106012 5.98011e-05 -0.000365636 0.000153678
0.000339544 0.000267755 -0.00107139 6.65103e-05 -0.000370454 0.000150462
0.000319733 0.000264215 -0.00100615 2.79123e-05 -0.000304985 0.000168335
0.000320412 0.000269484 -0.00101519 3.19467e-05 -0.000312902 0.000167842
0.000321311 0.000274465 -0.00102455 3.63203e-05 -0.000320733 0.000167041
0.000322468 0.00027912 -0.00103426 4.11107e-05 -0.000328371 0.000165941
0.000323934 0.000283395 -0.00104433 4.63381e-05 -0.000335669 0.000164447
0.000325764 0.000287181 -0.00105483 5.20009e-05 -0.000342504 0.000162511
0.000328021 0.000290369 -0.00106577 5.81675e-05 -0.000348695 0.00016006
0.000330777 0.000292886 -0.00107721 6.49126e-05 -0.000354004 0.000157031
0.000389816 5.7223e-05 -0.000976951 3.97957e-05 -0.000471569 0.000125568
0.000396616 4.89371e-05 -0.000985912 4.1819e-05 -0.000474304 0.000125186
0.000384915 7.26565e-05 -0.000981596 3.88652e-05 -0.000472359 0.000126613
0.000391346 6.50793e-05 -0.000990566 4.09614e-05 -0.000475544 0.000126164
0.000398279 5.71943e-05 -0.00100035 4.31548e-05 -0.000477477 0.000125724
0.000405767 4.90198e-05 -0.00101105 4.53618e-05 -0.000477936 0.000125226
0.000413869 4.05913e-05 -0.0010228 4.76204e-05 -0.000476675 0.000124711
0.000422651 3.19619e-05 -0.00103579 4.99255e-05 -0.000473445 0.000124203
0.000432184 2.32081e-05 -0.00105022 5.227e-05 -0.000467978 0.000123737
0.00044255 1.44384e-05 -0.00106634 5.46111e-05 -0.000460003 0.000123365
0.000453838 5.77655e-06 -0.00108446 5.68904e-05 -0.000449316 0.000123147
0.000385882 8.18719e-05 -0.000995362 3.99689e-05 -0.000475399 0.000127224
0.000392427 7.47094e-05 -0.00100511 4.22064e-05 -0.0004778 0.000126698
0.000399527 6.72044e-05 -0.00101573 4.45356e-05 -0.000478735 0.000126114
0.00040724 5.93763e-05 -0.00102735 4.69375e-05 -0.000477962 0.000125496
0.000415637 5.12721e-05 -0.00104015 4.93943e-05 -0.000475216 0.000124861
0.000424791 4.29646e-05 -0.00105434 5.1883e-05 -0.000470205 0.000124241
0.000434788 3.4551e-05 -0.00107016 5.43644e-05 -0.000462638 0.000123678
0.00038022 9.92967e-05 -0.0010003 3.8855e-05 -0.000473847 0.000128337
0.000386362 9.29116e-05 -0.00101002 4.11635e-05 -0.00047674 0.000127757
0.000393055 8.61338e-05 -0.00102059 4.35774e-05 -0.000478204 0.000127096
0.000400363 7.89728e-05 -0.0010321 4.60831e-05 -0.000477977 0.000126378
0.000408357 7.14619e-05 -0.00104473 4.86652e-05 -0.000475772 0.000125617
0.000417115 6.36686e-05 -0.00105868 5.12928e-05 -0.000471281 0.000124839
0.000426725 5.56658e-05 -0.0010742 5.39452e-05 -0.000464185 0.000124093
0.000374363 0.000117359 -0.00100536 3.75997e-05 -0.000470798 0.000129524
0.000380084 0.000111818 -0.00101509 3.99744e-05 -0.000474202 0.000128896
0.000386354 0.000105835 -0.00102561 4.247e-05 -0.000476221 0.000128165
0.000393237 9.94068e-05 -0.00103704 4.50776e-05 -0.000476577 0.000127354
0.000400809 9.25537e-05 -0.00104951 4.77842e-05 -0.000474967 0.000126474
0.000409151 8.53196e-05 -0.00106325 5.05675e-05 -0.00047105 0.00012554
0.00036831 0.000136054 -0.00101054 3.61982e-05 -0.00046617 0.000130785
0.000373592 0.000131427 -0.0010203 3.86333e-05 -0.000470096 0.000130116
0.00037942 0.000126311 -0.00103081 4.12061e-05 -0.000472691 0.000129324
0.00038586 0.00012069 -0.00104216 4.39114e-05 -0.000473664 0.000128429
0.000392989 0.000114568 -0.0010545 4.67399e-05 -0.000472698 0.000127438
0.000400892 0.000107974 -0.00106803 4.96725e-05 -0.00046943 0.000126357
0.000362063 0.000155372 -0.00101582 3.4646e-05 -0.000459877 0.000132118
0.000366888 0.000151734 -0.00102565 3.71343e-05 -0.00046433 0.000131417
0.000372253 0.000147563 -0.00103616 3.9778e-05 -0.000467515 0.000130574
0.000378228 0.000142829 -0.00104747 4.25754e-05 -0.000469133 0.000129606
0.000384892 0.000137523 -0.00105971 4.55058e-05 -0.000468862 0.000128505
0.000392334 0.000131651 -0.00107304 4.85853e-05 -0.00046631 0.000127304
0.000355622 0.000175299 -0.0010212 3.29393e-05 -0.000451831 0.000133522
0.00035997 0.00017273 -0.00103111 3.54725e-05 -0.000456807 0.000132797
0.000364852 0.000169588 -0.00104166 3.81789e-05 -0.000460589 0.000131915
0.000370339 0.00016583 -0.00105295 4.10605e-05 -0.000462871 0.000130886
0.000376514 0.000161427 -0.00106511 4.41146e-05 -0.000463316 0.000129692
0.000345598 0.00019668 -0.00101716 2.86742e-05 -0.000435561 0.000135618
0.000348991 0.000195808 -0.00102665 3.10646e-05 -0.00044194 0.000134999
0.000352842 0.000194401 -0.00103666 3.36435e-05 -0.000447431 0.000134254
0.000357217 0.000192378 -0.00104728 3.6403e-05 -0.000451805 0.000133346
0.000362192 0.000189693 -0.00105858 3.93589e-05 -0.000454763 0.000132271
0.00036785 0.000186297 -0.0010707 4.25141e-05 -0.00045596 0.000131009
0.000339286 0.000216531 -0.00102249 2.66479e-05 -0.000423353 0.000137134
0.000342172 0.000216909 -0.00103215 2.9049e-05 -0.000430117 0.000136536
0.000345504 0.000216729 -0.0010423 3.16448e-05 -0.000436105 0.000135783
0.000349349 0.000215921 -0.00105301 3.4446e-05 -0.000441055 0.000134862
0.000353783 0.000214401 -0.00106437 3.74548e-05 -0.0004447 0.000133752
0.000358897 0.000212125 -0.00107646 4.06986e-05 -0.000446649 0.000132446
0.00032774 0.000229072 -0.00100069 1.82918e-05 -0.00038528 0.000139622
0.000329146 0.00023203 -0.00100938 2.01845e-05 -0.000393492 0.000139466
0.000330819 0.000234632 -0.00101841 2.22489e-05 -0.000401489 0.00013914
0.000332809 0.000236828 -0.00102783 2.44668e-05 -0.000409152 0.000138694
0.000335168 0.000238543 -0.00103767 2.68676e-05 -0.000416295 0.000138115
0.000337958 0.000239692 -0.00104798 2.94763e-05 -0.000422732 0.000137376
0.000341246 0.000240199 -0.00105882 3.23065e-05 -0.00042823 0.000136458
0.000345111 0.00023998 -0.00107026 3.53715e-05 -0.000432523 0.000135333
0.000322639 0.000245685 -0.00100527 1.6042e-05 -0.000368574 0.000141096
0.000323548 0.000250003 -0.00101421 1.79087e-05 -0.000376893 0.000140979
0.000324711 0.000253983 -0.00102349 1.9937e-05 -0.00038506 0.000140691
0.000326171 0.000257569 -0.00103314 2.21388e-05 -0.000392938 0.000140283
0.000327983 0.000260691 -0.00104319 2.45328e-05 -0.000400383 0.000139734
0.000330205 0.000263263 -0.00105369 2.71419e-05 -0.000407218 0.000139023
0.000332909 0.000265191 -0.00106468 2.99876e-05 -0.000413221 0.00013812
0.000336174 0.000266377 -0.00107623 3.3085e-05 -0.000418125 0.000137008
0.000317438 0.000262503 -0.00100975 1.36952e-05 -0.000350046 0.000142583
0.000317834 0.000268224 -0.00101895 1.55165e-05 -0.000358407 0.000142485
0.000318464 0.000273628 -0.00102849 1.74925e-05 -0.000366665 0.000142241
0.00031937 0.000278676 -0.00103839 1.96913e-05 -0.000374701 0.000141894
0.000320609 0.00028331 -0.00104866 2.21108e-05 -0.000382352 0.000141384
0.000322241 0.00028741 -0.00105938 2.47126e-05 -0.000389487 0.000140705
0.000324333 0.000290858 -0.00107056 2.75305e-05 -0.000395912 0.000139833
0.000326969 0.000293574 -0.00108226 3.061e-05 -0.000401372 0.000138746
0.000200993 0.000406835 -0.000906481 3.91986e-05 0.000456006 6.37701e-05
0.000196792 0.000409995 -0.000902268 4.45463e-05 0.000448378 5.95739e-05
0.000207536 0.000397601 -0.000911886 3.90901e-05 0.000466194 6.7201e-05
0.000203815 0.000400218 -0.000908278 4.4602e-05 0.000458539 6.3063e-05
0.000199554 0.000402926 -0.000903566 5.03669e-05 0.000449914 5.85892e-05
0.000194697 0.000405753 -0.000897651 5.63017e-05 0.000440227 5.36801e-05
0.000189179 0.000408681 -0.000890351 6.24213e-05 0.0004295 4.83342e-05
0.000182928 0.000411692 -0.000881471 6.87001e-05 0.000417733 4.25291e-05
0.000175862 0.000414766 -0.000870789 7.51008e-05 0.000404951 3.62298e-05
0.000167888 0.000417893 -0.000858063 8.1546e-05 0.000391204 2.93839e-05
0.000158904 0.000421075 -0.000843026 8.7919e-05 0.000376612 2.19426e-05
0.000211062 0.000389986 -0.000914312 4.45729e-05 0.000468346 6.67416e-05
0.000207316 0.000392141 -0.000910276 5.04963e-05 0.000459671 6.23136e-05
0.000202987 0.000394397 -0.00090505 5.66722e-05 0.000449914 5.74662e-05
0.000198009 0.00039675 -0.000898473 6.30611e-05 0.000439062 5.2175e-05
0.000192307 0.000399184 -0.000890342 6.96217e-05 0.000427111 4.64156e-05
0.000185798 0.000401677 -0.000880429 7.63047e-05 0.000414081 4.015e-05
0.000178383 0.000404211 -0.000868474 8.30415e-05 0.000400032 3.3312e-05
0.000218528 0.000379357 -0.000920379 4.44606e-05 0.000477839 7.05799e-05
0.000215321 0.000380911 -0.00091702 5.05599e-05 0.000469141 6.62342e-05
0.000211546 0.000382567 -0.000912507 5.69383e-05 0.000459337 6.14581e-05
0.000207134 0.00038432 -0.000906678 6.35646e-05 0.000448391 5.62271e-05
0.000202012 0.000386151 -0.000899327 7.04001e-05 0.000436285 5.05129e-05
0.00019609 0.000388039 -0.000890218 7.73874e-05 0.000423026 4.42713e-05
0.000189269 0.000389959 -0.000879073 8.44638e-05 0.000408663 3.74573e-05
0.00022621 0.000368305 -0.000926454 4.42528e-05 0.000486954 7.46057e-05
0.000223566 0.000369227 -0.000923784 5.05246e-05 0.000478264 7.03502e-05
0.00022037 0.000370254 -0.000920002 5.71053e-05 0.000468443 6.56529e-05
0.000216554 0.000371378 -0.000914947 6.3971e-05 0.000457435 6.04892e-05
0.000212041 0.000372579 -0.000908408 7.10868e-05 0.000445203 5.48276e-05
0.00020674 0.000373831 -0.000900137 7.84021e-05 0.000431752 4.8615e-05
0.000234105 0.000356826 -0.000932519 4.39427e-05 0.000495661 7.88245e-05
0.000232049 0.000357084 -0.000930549 5.03822e-05 0.00048701 7.4669e-05
0.000229459 0.00035745 -0.000927517 5.7163e-05 0.000477205 7.00599e-05
0.000226267 0.000357914 -0.000923259 6.42686e-05 0.000466167 6.49724e-05
0.000222395 0.000358455 -0.000917564 7.16682e-05 0.000453845 5.93724e-05
0.000217751 0.000359046 -0.000910169 7.93131e-05 0.000440224 5.32023e-05
0.000242207 0.000344919 -0.000938559 4.35239e-05 0.000503926 8.32411e-05
0.000240764 0.000344479 -0.000937296 5.01242e-05 0.000495346 7.91973e-05
0.000238807 0.000344149 -0.000935029 5.71007e-05 0.00048559 7.46882e-05
0.000236269 0.00034392 -0.000931592 6.44442e-05 0.00047456 6.9688e-05
0.000233072 0.000343773 -0.000926761 7.21108e-05 0.000462204 6.41466e-05
0.000229121 0.000343669 -0.000920302 8.00935e-05 0.000448444 5.80548e-05
0.00025051 0.000332586 -0.000944556 4.29898e-05 0.000511716 8.7859e-05
0.000249705 0.00033141 -0.000944005 4.97415e-05 0.000503236 8.39414e-05
0.00024841 0.000330347 -0.000942517 5.69064e-05 0.000493566 7.95468e-05
0.000246556 0.000329387 -0.000939921 6.44831e-05 0.000482582 7.46475e-05
0.000244068 0.000328507 -0.000935983 7.24556e-05 0.000470204 6.91799e-05
0.000258741 0.000321931 -0.000949587 3.58614e-05 0.00052616 9.60327e-05
0.000259008 0.000319852 -0.000950488 4.23225e-05 0.000518973 9.26847e-05
0.000258866 0.000317878 -0.000950658 4.92244e-05 0.000510644 8.89065e-05
0.00025826 0.00031604 -0.000949959 5.65677e-05 0.000501094 8.46438e-05
0.000257123 0.00031431 -0.00094822 6.43694e-05 0.000490197 7.98618e-05
0.000255379 0.000312661 -0.000945212 7.26236e-05 0.00047785 7.44973e-05
0.000266761 0.000309559 -0.000954779 3.49862e-05 0.000532722 0.000100879
0.00026769 0.000306663 -0.000956337 4.15435e-05 0.000525678 9.77143e-05
0.000268237 0.000303888 -0.000957233 4.85622e-05 0.000517528 9.40957e-05
0.000268349 0.000301232 -0.000957331 5.60707e-05 0.000508134 8.99859e-05
0.000267963 0.000298692 -0.000956451 6.40651e-05 0.00049739 8.53265e-05
0.000267 0.000296231 -0.000954421 7.25919e-05 0.000485113 8.01052e-05
0.000268439 0.000308697 -0.000950541 1.65954e-05 0.000553624 0.000112496
0.000270843 0.000304662 -0.000954006 2.19843e-05 0.000549457 0.000110678
0.000273018 0.000300711 -0.000957142 2.77783e-05 0.000544487 0.000108478
0.000274933 0.000296852 -0.000959873 3.39753e-05 0.000538648 0.00010591
0.000276546 0.000293092 -0.00096209 4.06156e-05 0.000531807 0.000102939
0.000277807 0.000289452 -0.000963713 4.77423e-05 0.000523849 9.95094e-05
0.000278666 0.00028593 -0.000964612 5.53988e-05 0.000514643 9.55773e-05
0.000279064 0.000282513 -0.000964605 6.36122e-05 0.000504042 9.10709e-05
0.000274801 0.000298246 -0.000953886 1.53911e-05 0.000558386 0.000117041
0.000277825 0.000293352 -0.000957851 2.07909e-05 0.000554393 0.000115427
0.000280648 0.000288556 -0.000961527 2.65754e-05 0.000549648 0.000113444
0.00028324 0.000283813 -0.000964868 3.28197e-05 0.000543968 0.00011111
0.00028556 0.000279142 -0.000967735 3.95347e-05 0.000537311 0.000108355
0.000287599 0.000274589 -0.000970077 4.67349e-05 0.000529572 0.00010511
0.000289237 0.000270145 -0.000971772 5.45023e-05 0.000520596 0.000101382
0.000290412 0.000265807 -0.000972674 6.29065e-05 0.000510194 9.71123e-05
0.000291665 0.000270478 -0.000969719 3.15636e-05 0.000548673 0.000116458
0.000294715 0.000264866 -0.000973262 3.83408e-05 0.00054225 0.00011394
0.000297544 0.000259297 -0.000976318 4.56279e-05 0.00053471 0.000110956
0.00029999 0.000253873 -0.00097881 5.34783e-05 0.000525924 0.000107474
0.00023325 0.000374094 -0.000912567 9.78919e-05 0.000371921 6.05517e-05
0.000230061 0.000376127 -0.000909527 0.000107214 0.000364918 5.53808e-05
0.00023873 0.000367118 -0.000917796 0.000101109 0.00038116 6.61664e-05
0.000235943 0.000368718 -0.000915298 0.000110801 0.0003741 6.11296e-05
0.000232706 0.000370368 -0.000911872 0.000120752 0.000366283 5.55542e-05
0.000228972 0.000372094 -0.000907442 0.000130882 0.000357644 4.93032e-05
0.000224689 0.000373882 -0.000901856 0.000141216 0.000348235 4.23287e-05
0.000219798 0.000375721 -0.000894955 0.000151716 0.000338083 3.45595e-05
0.000214237 0.000377602 -0.000886564 0.000162317 0.00032724 2.59097e-05
0.000207934 0.000379525 -0.000876496 0.000172913 0.00031578 1.62759e-05
0.000200811 0.000381501 -0.000864543 0.000183375 0.000303834 5.56511e-06
0.000242003 0.000360958 -0.000921104 0.000114358 0.00038308 6.71334e-05
0.000239197 0.000362168 -0.000918281 0.000124695 0.000375173 6.16841e-05
0.000235906 0.000363431 -0.00091446 0.000135297 0.00036643 5.55757e-05
0.000232075 0.000364748 -0.000909506 0.000146135 0.000356867 4.87325e-05
0.000227643 0.000366107 -0.000903256 0.000157158 0.00034651 4.1077e-05
0.000222549 0.000367493 -0.000895525 0.00016829 0.000335407 3.25163e-05
0.000216714 0.000368899 -0.000886113 0.000179435 0.000323645 2.29238e-05
0.000248238 0.000352899 -0.000926954 0.000117887 0.000391906 7.33587e-05
0.000245883 0.000353629 -0.000924736 0.000128636 0.000383934 6.80821e-05
0.000243056 0.000354409 -0.000921545 0.000139685 0.000375102 6.21332e-05
0.000239699 0.000355235 -0.000917248 0.000151006 0.000365406 5.5436e-05
0.000235754 0.000356093 -0.000911676 0.000162553 0.000354859 4.79062e-05
0.000231151 0.00035697 -0.000904637 0.000174247 0.000343505 3.94365e-05
0.000225813 0.000357848 -0.000895913 0.000186013 0.000331418 2.9915e-05
0.000254643 0.000344516 -0.000932824 0.000121364 0.000400525 7.98337e-05
0.000252761 0.000344745 -0.000931223 0.000132535 0.000392514 7.4746e-05
0.000250419 0.00034502 -0.000928682 0.000144044 0.000383616 6.89741e-05
0.000247562 0.000345335 -0.000925065 0.000155867 0.00037381 6.24415e-05
0.000244128 0.000345673 -0.000920202 0.000167962 0.000363095 5.50574e-05
0.000240046 0.000346013 -0.000913886 0.000180264 0.000351516 4.6697e-05
0.000261216 0.000335807 -0.000938698 0.000124774 0.000408915 8.65625e-05
0.000259826 0.000335511 -0.000937725 0.000136375 0.000400892 8.16821e-05
0.000257994 0.000335259 -0.000935852 0.000148358 0.000391955 7.61074e-05
0.000255661 0.000335041 -0.00093294 0.000160701 0.000382065 6.97607e-05
0.000252765 0.000334839 -0.000928814 0.000173368 0.000371209 6.25449e-05
0.000249234 0.000334626 -0.000923255 0.000186302 0.000359415 5.43245e-05
0.000267951 0.000326768 -0.000944561 0.000128097 0.000417057 9.35478e-05
0.000267076 0.000325923 -0.000944225 0.000140137 0.000409047 8.88956e-05
0.000265775 0.00032512 -0.000943037 0.000152606 0.000400101 8.35412e-05
0.000263992 0.000324346 -0.000940852 0.000165486 0.000390156 7.74046e-05
0.000261664 0.000323585 -0.000937484 0.000178731 0.000379203 7.03688e-05
0.000258715 0.000322798 -0.000932737 0.000192327 0.000367216 6.23412e-05
0.000274842 0.000317402 -0.000950395 0.000131309 0.000424924 0.00010079
0.000274504 0.000315981 -0.000950705 0.000143796 0.000416957 9.63902e-05
0.000273759 0.000314599 -0.000950216 0.000156762 0.00040803 9.12821e-05
0.000272552 0.000313243 -0.000948779 0.000170197 0.000398063 8.53832e-05
0.000270821 0.000311888 -0.000946197 0.000184081 0.00038702 7.85594e-05
0.000281327 0.000309809 -0.000954588 0.000121947 0.000439401 0.00011181
0.000281884 0.00030773 -0.000956179 0.00013437 0.000432474 0.000108292
0.000282104 0.000305683 -0.000957145 0.000147321 0.000424595 0.000104167
0.000281939 0.000303694 -0.000957368 0.000160795 0.00041572 9.93346e-05
0.000281336 0.000301728 -0.000956698 0.0001748 0.000405765 9.37045e-05
0.000280231 0.000299756 -0.000954937 0.000189324 0.000394674 8.71409e-05
0.000287956 0.000300408 -0.0009597 0.000124442 0.000446534 0.000119245
0.000289069 0.000297698 -0.000961896 0.000137272 0.000439698 0.000116043
0.000289868 0.000295033 -0.000963527 0.000150673 0.000431934 0.000112222
0.000290308 0.000292404 -0.000964472 0.000164663 0.000423143 0.0001077
0.000290338 0.0002898 -0.000964574 0.000179233 0.000413256 0.00010236
0.00028989 0.000287182 -0.000963682 0.000194416 0.000402152 9.61133e-05
0.000288307 0.00030108 -0.000954038 9.04593e-05 0.000468517 0.000132478
0.000290632 0.0002976 -0.000957896 0.000101998 0.000464161 0.000131082
0.000292771 0.000294157 -0.000961479 0.000114072 0.000459093 0.000129223
0.000294702 0.000290748 -0.000964725 0.000126706 0.000453267 0.00012689
0.000296388 0.00028737 -0.000967533 0.000139941 0.00044658 0.000124026
0.000297789 0.000284036 -0.000969831 0.0001538 0.000438946 0.000120549
0.000298858 0.000280734 -0.000971505 0.000168309 0.00043027 0.000116373
0.000299549 0.000277444 -0.000972398 0.000183492 0.000420445 0.000111371
0.000293539 0.000293151 -0.000957422 9.15394e-05 0.000474439 0.000139265
0.000296382 0.000289013 -0.000961757 0.000103348 0.000470219 0.000138197
0.00029906 0.000284902 -0.000965856 0.000115711 0.000465312 0.000136683
0.000301554 0.000280811 -0.000969652 0.000128687 0.000459624 0.000134715
0.000303832 0.000276743 -0.000973075 0.000142317 0.000453083 0.000132224
0.000305856 0.000272703 -0.000976041 0.000156631 0.000445601 0.00012913
0.000307579 0.000268691 -0.000978446 0.00017166 0.000437071 0.000125343
0.000308957 0.000264685 -0.000980151 0.00018744 0.00042736 0.000120739
0.000298819 0.000285078 -0.000960718 9.22972e-05 0.000479966 0.000146121
0.00030219 0.00028025 -0.000965516 0.000104342 0.00047589 0.00014539
0.000305425 0.000275443 -0.000970122 0.000116977 0.000471139 0.000144252
0.000308503 0.000270661 -0.000974461 0.000130309 0.000465649 0.000142692
0.000311394 0.000265852 -0.000978512 0.000144366 0.000459258 0.000140596
0.000314061 0.000261029 -0.00098214 0.000159129 0.00045194 0.000137922
0.000316463 0.000256257 -0.000985278 0.000174641 0.000443573 0.000134571
0.000318555 0.00025151 -0.000987802 0.000190981 0.000433999 0.000130421
SCALARS PreDamageArea int 1
LOOKUP_TABLE default
0
0
0
0
0
0
0
0
0
0
0
0
0
0
0
0
0
0
0
0
0
0
0
0
0
0
0
0
0
0
0
0
0
0
0
0
0
0
0
0
0
0
0
0
0
0
0
0
0
0
0
0
0
0
0
0
0
0
0
0
0
0
0
0
0
0
0
0
0
0
0
0
0
0
0
0
0
0
0
0
0
0
0
0
0
0
0
0
0
0
0
0
0
0
0
0
0
0
0
0
0
0
0
0
0
0
0
0
0
0
0
0
0
0
0
0
0
0
0
0
0
0
0
0
0
0
0
0
0
0
0
0
0
0
0
0
0
0
0
0
0
0
0
0
0
0
0
0
0
0
0
0
0
0
0
0
0
0
0
0
0
0
0
0
0
0
0
0
0
0
0
0
0
0
0
0
0
0
0
0
0
0
0
0
0
0
0
0
0
0
0
0
0
0
0
0
0
0
0
0
0
0
0
0
0
0
0
0
0
0
0
0
0
0
0
0
0
0
0
0
0
0
0
0
0
0
0
0
0
0
0
0
0
0
0
0
0
0
0
0
0
0
0
0
0
0
0
0
0
0
0
0
0
0
0
0
0
0
0
0
0
0
0
0
0
0
0
0
0
0
0
0
0
0
0
0
0
0
0
0
0
0
0
0
0
0
0
0
0
0
0
0
0
0
0
0
0
0
0
0
0
0
0
0
0
0
0
0
0
0
0
0
0
0
0
0
0
0
0
0
0
0
0
0
0
0
0
0
0
0
0
0
0
0
0
0
0
0
0
0
0
0
0
0
0
0
0
0
0
0
0
0
0
0
0
0
0
0
0
0
0
0
0
0
0
0
0
0
0
0
0
0
0
0
0
0
0
0
0
0
0
0
0
0
0
0
0
0
0
0
0
0
0
0
0
0
0
0
0
0
0
0
0
0
0
0
0
0
0
0
0
0
0
0
0
0
0
0
0
0
0
0
0
0
0
0
0
0
0
0
0
0
0
0
0
0
0
0
0
0
0
0
0
0
0
0
0
0
0
0
0
0
0
0
0
0
0
0
0
0
0
0
0
0
0
0
0
0
0
0
0
0
0
0
0
0
0
0
0
0
0
0
0
0
0
0
0
0
0
0
0
0
0
0
0
0
0
0
0
0
0
0
0
0
0
0
0
0
0
0
0
0
0
0
0
0
0
0
0
0
0
0
0
0
0
0
0
0
0
0
0
0
0
0
0
0
0
0
0
0
0
0
0
0
0
0
0
0
0
0
0
0
0
0
0
0
0
0
0
0
0
0
0
0
0
0
0
0
0
0
0
0
0
0
0
0
0
0
0
0
0
0
0
0
0
0
0
0
0
0
0
0
0
0
0
0
0
0
0
0
0
0
0
0
0
0
0
0
0
0
0
0
0
0
0
0
0
0
0
0
0
0
0
0
0
0
0
0
0
0
0
0
0
0
0
0
0
0
0
0
0
0
0
0
0
0
0
0
0
0
0
0
0
0
0
0
0
0
0
0
0
0
0
0
0
0
0
0
0
0
0
0
0
0
0
0
0
0
0
0
0
0
0
0
0
0
0
0
0
0
0
0
0
0
0
0
0
0
0
0
0
0
0
0
0
0
0
0
0
0
0
0
0
0
0
0
0
0
0
0
0
0
0
0
0
0
0
0
0
0
0
0
0
0
0
0
0
0
0
0
0
0
0
0
0
0
0
0
0
0
0
0
0
0
0
0
0
0
0
0
0
0
0
0
0
0
0
0
0
0
0
0
0
0
0
0
0
0
0
0
0
0
0
0
0
0
0
0
0
0
0
0
0
0
0
0
0
0
0
0
0
0
0
0
0
0
0
0
0
0
0
0
0
0
0
0
0
0
0
0
0
0
0
0
0
0
0
0
0
0
0
0
0
0
0
0
0
0
0
0
0
0
0
0
0
0
0
0
0
0
0
0
0
0
0
0
0
0
0
0
0
0
0
0
0
0
0
0
0
0
0
0
0
0
0
0
0
0
0
0
0
0
0
0
0
0
0
0
0
0
0
0
0
0
0
0
0
0
0
0
0
0
0
0
0
0
0
0
0
0
0
0
0
0
0
0
0
0
0
0
0
0
0
0
0
0
0
0
0
0
0
0
0
0
0
0
0
0
0
0
0
0
0
0
0
0
0
0
0
0
0
0
0
0
0
0
0
0
0
0
0
0
0
0
0
0
0
0
0
0
0
0
0
0
0
0
0
0
0
0
0
0
0
0
0
0
0
0
0
0
0
0
0
0
0
0
0
0
0
0
0
0
0
1
1
1
1
1
1
1
1
1
1
1
1
1
1
1
1
1
1
1
1
1
1
1
1
1
1
1
1
1
1
1
1
1
1
1
1
1
1
1
1
1
1
1
1
1
1
1
1
1
1
1
1
1
1
1
1
1
1
1
1
1
1
1
1
1
1
1
1
1
1
1
1
1
1
1
1
1
1
1
1
1
1
1
1
0
0
0
0
0
0
0
0
0
0
0
0
0
0
0
0
0
0
0
0
0
0
0
0
0
0
0
0
0
0
0
0
0
0
0
0
0
0
0
0
0
0
0
0
0
0
0
0
0
0
0
0
0
0
0
0
0
0
0
0
0
0
0
0
0
0
0
0
0
0
0
0
0
0
0
0
0
0
0
0
0
0
0
0
0
0
0
0
0
0
0
0
0
0
0
0
0
0
0
0
0
0
0
0
0
0
0
0
0
0
0
0
0
0
0
0
0
0
0
0
0
0
0
0
0
0
0
0
0
0
0
0
0
0
0
0
0
0
0
0
0
0
0
0
0
0
0
0
0
0
0
0
0
0
0
0
0
0
0
0
0
0
0
0
0
0
0
0
0
0
0
0
0
0
0
0
0
0
0
0
0
0
0
0
0
0
0
0
0
0
0
0
0
0
0
0
0
0
0
0
0
0
0
0
0
0
0
0
0
0
0
0
0
0
0
0
0
0
0
0
0
0
0
0
0
0
0
0
0
0
0
0
0
0
0
0
0
0
0
0
0
0
0
0
0
0
0
0
0
0
0
0
0
0
0
0
0
0
0
0
0
0
0
0
0
0
0
0
0
0
0
0
0
0
0
0
0
0
0
0
0
0
0
0
0
0
0
0
0
0
0
0
0
0
0
0
0
0
0
0
0
0
0
0
0
0
0
0
0
0
0
0
0
0
0
0
0
0
0
0
0
0
0
0
0
0
0
0
0
0
0
0
0
0
0
0
0
0
0
0
0
0
0
0
0
0
0
0
0
0
0
0
0
0
0
0
0
0
0
0
0
0
0
0
0
0
0
0
0
0
0
0
0
0
0
0
0
0
0
0
0
0
0
0
0
0
0
0
0
0
0
0
0
0
0
0
0
0
0
0
0
0
0
0
0
0
0
0
0
0
0
0
0
0
0
0
0
0
0
0
0
0
0
0
0
0
0
0
0
0
0
0
0
0
0
0
0
0
0
0
0
0
0
0
0
0
0
0
0
0
0
0
0
0
0
0
0
0
0
0
0
0
0
0
0
0
0
0
0
0
0
0
0
0
0
0
0
0
0
0
0
0
0
0
0
0
0
0
0
0
0
0
0
0
0
0
0
0
0
0
0
0
0
0
0
0
0
0
0
0
0
0
0
0
0
0
0
0
0
0
0
0
0
0
0
0
0
0
0
0
0
0
0
0
0
0
0
0
0
0
0
0
0
0
0
0
0
0
0
0
0
0
0
0
0
0
0
0
0
0
0
0
0
0
0
0
0
0
0
0
0
0
0
0
0
0
0
0
0
0
0
0
0
0
0
0
0
0
0
0
0
0
0
0
0
0
0
0
0
0
0
0
0
0
0
0
0
0
0
0
0
0
0
0
0
0
0
0
0
0
0
0
0
0
0
0
0
0
0
0
0
0
0
0
0
0
0
0
0
0
0
0
0
0
0
0
0
0
0
0
0
0
0
0
0
0
0
0
0
0
0
0
0
0
0
0
0
0
0
0
0
0
0
0
0
0
0
0
0
0
0
0
0
0
0
0
0
0
0
0
0
0
0
0
0
0
0
0
0
0
0
0
0
0
0
0
0
0
0
0
0
0
0
0
0
0
0
0
0
0
0
0
0
0
0
0
0
0
0
0
0
0
0
0
0
0
0
0
0
0
0
0
0
0
0
0
0
0
0
0
0
0
0
0
0
0
0
0
0
0
0
0
0
0
0
0
0
0
0
0
0
0
0
0
0
0
0
0
0
0
0
0
0
0
0
0
0
0
0
0
0
0
0
0
0
0
0
0
0
0
0
0
0
0
0
0
0
0
0
0
0
0
0
0
0
0
0
0
0
0
0
0
0
0
0
0
0
0
0
0
0
0
0
0
0
0
0
0
0
0
0
0
0
0
0
0
0
0
0
0
0
0
0
0
0
0
0
0
0
0
0
0
0
0
0
0
0
0
0
0
0
0
0
0
0
0
0
0
0
0
0
0
0
0
0
0
0
0
0
0
0
0
0
0
0
0
0
0
0
0
0
0
0
0
0
0
0
0
0
0
0
0
0
0
0
0
0
0
0
0
0
0
0
0
0
0
0
0
0
0
0
0
0
0
0
0
0
0
0
0
0
0
0
0
0
0
0
0
0
0
0
0
0
0
0
0
0
0
0
0
0
0
0
0
0
0
0
0
0
0
0
0
0
0
0
0
0
0
0
0
0
0
0
0
0
0
0
0
0
0
0
0
0
0
0
0
0
0
0
0
0
0
0
0
0
0
0
0
0
0
0
0
0
0
0
0
0
0
0
0
0
0
0
0
0
0
0
0
0
0
0
0
0
0
0
0
0
0
0
0
0
0
0
0
0
0
0
0
0
0
0
0
0
0
0
0
0
0
0
0
0
0
0
0
0
0
0
0
0
0
0
0
0
0
0
0
0
0
0
0
0
0
0
0
0
0
0
0
0
0
0
0
0
0
0
0
0
0
0
0
0
0
0
0
0
0
0
0
0
0
0
0
0
0
0
0
0
0
0
0
0
0
0
0
0
0
0
0
0
0
0
0
0
0
0
0
0
0
0
0
0
0
0
0
0
0
0
0
0
0
0
0
0
0
0
0
0
0
0
0
0
0
0
0
0
0
0
0
0
0
0
0
0
0
0
0
0
0
0
0
0
0
0
0
0
0
0
0
0
0
0
0
0
0
0
0
0
0
0
0
0
0
0
0
0
0
0
0
0
0
0
0
0
0
0
0
0
0
0
0
0
0
0
0
0
0
0
0
0
0
0
0
0
0
0
0
0
0
0
0
0
0
0
0
0
0
0
0
0
0
0
0
0
0
0
0
SCALARS d double 9
LOOKUP_TABLE default
0 0 0 0 0 0 0 0 0
0 0 0 0 0 0 0 0 0
0 0 0 0 0 0 0 0 0
0 0 0 0 0 0 0 0 0
0 0 0 0 0 0 0 0 0
0 0 0 0 0 0 0 0 0
0 0 0 0 0 0 0 0 0
0 0 0 0 0 0 0 0 0
0 0 0 0 0 0 0 0 0
0 0 0 0 0 0 0 0 0
0 0 0 0 0 0 0 0 0
0 0 0 0 0 0 0 0 0
0 0 0 0 0 0 0 0 0
0 0 0 0 0 0 0 0 0
0 0 0 0 0 0 0 0 0
0 0 0 0 0 0 0 0 0
0 0 0 0 0 0 0 0 0
0 0 0 0 0 0 0 0 0
0 0 0 0 0 0 0 0 0
0 0 0 0 0 0 0 0 0
0 0 0 0 0 0 0 0 0
0 0 0 0 0 0 0 0 0
0 0 0 0 0 0 0 0 0
0 0 0 0 0 0 0 0 0
0 0 0 0 0 0 0 0 0
0 0 0 0 0 0 0 0 0
0 0 0 0 0 0 0 0 0
0 0 0 0 0 0 0 0 0
0 0 0 0 0 0 0 0 0
0 0 0 0 0 0 0 0 0
0 0 0 0 0 0 0 0 0
0 0 0 0 0 0 0 0 0
0 0 0 0 0 0 0 0 0
0 0 0 0 0 0 0 0 0
0 0 0 0 0 0 0 0 0
0 0 0 0 0 0 0 0 0
0 0 0 0 0 0 0 0 0
0 0 0 0 0 0 0 0 0
0 0 0 0 0 0 0 0 0
0 0 0 0 0 0 0 0 0
0 0 0 0 0 0 0 0 0
0 0 0 0 0 0 0 0 0
0 0 0 0 0 0 0 0 0
0 0 0 0 0 0 0 0 0
0 0 0 0 0 0 0 0 0
0 0 0 0 0 0 0 0 0
0 0 0 0 0 0 0 0 0
0 0 0 0 0 0 0 0 0
0 0 0 0 0 0 0 0 0
0 0 0 0 0 0 0 0 0
0 0 0 0 0 0 0 0 0
0 0 0 0 0 0 0 0 0
0 0 0 0 0 0 0 0 0
0 0 0 0 0 0 0 0 0
0 0 0 0 0 0 0 0 0
0 0 0 0 0 0 0 0 0
0 0 0 0 0 0 0 0 0
0 0 0 0 0 0 0 0 0
0 0 0 0 0 0 0 0 0
0 0 0 0 0 0 0 0 0
0 0 0 0 0 0 0 0 0
0 0 0 0 0 0 0 0 0
0 0 0 0 0 0 0 0 0
0 0 0 0 0 0 0 0 0
0 0 0 0 0 0 0 0 0
0 0 0 0 0 0 0 0 0
0 0 0 0 0 0 0 0 0
0 0 0 0 0 0 0 0 0
0 0 0 0 0 0 0 0 0
0 0 0 0 0 0 0 0 0
0 0 0 0 0 0 0 0 0
0 0 0 0 0 0 0 0 0
0 0 0 0 0 0 0 0 0
0 0 0 0 0 0 0 0 0
0 0 0 0 0 0 0 0 0
0 0 0 0 0 0 0 0 0
0 0 0 0 0 0 0 0 0
0 0 0 0 0 0 0 0 0
0 0 0 0 0 0 0 0 0
0 0 0 0 0 0 0 0 0
0 0 0 0 0 0 0 0 0
0 0 0 0 0 0 0 0 0
0 0 0 0 0 0 0 0 0
0 0 0 0 0 0 0 0 0
0 0 0 0 0 0 0 0 0
0 0 0 0 0 0 0 0 0
0 0 0 0 0 0 0 0 0
0 0 0 0 0 0 0 0 0
0 0 0 0 0 0 0 0 0
0 0 0 0 0 0 0 0 0
0 0 0 0 0 0 0 0 0
0 0 0 0 0 0 0 0 0
0 0 0 0 0 0 0 0 0
0 0 0 0 0 0 0 0 0
0 0 0 0 0 0 0 0 0
0 0 0 0 0 0 0 0 0
0 0 0 0 0 0 0 0 0
0 0 0 0 0 0 0 0 0
0 0 0 0 0 0 0 0 0
0 0 0 0 0 0 0 0 0
0 0 0 0 0 0 0 0 0
0 0 0 0 0 0 0 0 0
0 0 0 0 0 0 0 0 0
0 0 0 0 0 0 0 0 0
0 0 0 0 0 0 0 0 0
0 0 0 0 0 0 0 0 0
0 0 0 0 0 0 0 0 0
0 0 0 0 0 0 0 0 0
0 0 0 0 0 0 0 0 0
0 0 0 0 0 0 0 0 0
0 0 0 0 0 0 0 0 0
0 0 0 0 0 0 0 0 0
0 0 0 0 0 0 0 0 0
0 0 0 0 0 0 0 0 0
0 0 0 0 0 0 0 0 0
0 0 0 0 0 0 0 0 0
0 0 0 0 0 0 0 0 0
0 0 0 0 0 0 0 0 0
0 0 0 0 0 0 0 0 0
0 0 0 0 0 0 0 0 0
0 0 0 0 0 0 0 0 0
0 0 0 0 0 0 0 0 0
0 0 0 0 0 0 0 0 0
0 0 0 0 0 0 0 0 0
0 0 0 0 0 0 0 0 0
0 0 0 0 0 0 0 0 0
0 0 0 0 0 0 0 0 0
0 0 0 0 0 0 0 0 0
0 0 0 0 0 0 0 0 0
0 0 0 0 0 0 0 0 0
0 0 0 0 0 0 0 0 0
0 0 0 0 0 0 0 0 0
0 0 0 0 0 0 0 0 0
0 0 0 0 0 0 0 0 0
0 0 0 0 0 0 0 0 0
0 0 0 0 0 0 0 0 0
0 0 0 0 0 0 0 0 0
0 0 0 0 0 0 0 0 0
0 0 0 0 0 0 0 0 0
0 0 0 0 0 0 0 0 0
0 0 0 0 0 0 0 0 0
0 0 0 0 0 0 0 0 0
0 0 0 0 0 0 0 0 0
0 0 0 0 0 0 0 0 0
0 0 0 0 0 0 0 0 0
0 0 0 0 0 0 0 0 0
0 0 0 0 0 0 0 0 0
0 0 0 0 0 0 0 0 0
0 0 0 0 0 0 0 0 0
0 0 0 0 0 0 0 0 0
0 0 0 0 0 0 0 0 0
0 0 0 0 0 0 0 0 0
0 0 0 0 0 0 0 0 0
0 0 0 0 0 0 0 0 0
0 0 0 0 0 0 0 0 0
0 0 0 0 0 0 0 0 0
0 0 0 0 0 0 0 0 0
0 0 0 0 0 0 0 0 0
0 0 0 0 0 0 0 0 0
0 0 0 0 0 0 0 0 0
0 0 0 0 0 0 0 0 0
0 0 0 0 0 0 0 0 0
0 0 0 0 0 0 0 0 0
0 0 0 0 0 0 0 0 0
0 0 0 0 0 0 0 0 0
0 0 0 0 0 0 0 0 0
0 0 0 0 0 0 0 0 0
0 0 0 0 0 0 0 0 0
0 0 0 0 0 0 0 0 0
0 0 0 0 0 0 0 0 0
0 0 0 0 0 0 0 0 0
0 0 0 0 0 0 0 0 0
0 0 0 0 0 0 0 0 0
0 0 0 0 0 0 0 0 0
0 0 0 0 0 0 0 0 0
0 0 0 0 0 0 0 0 0
0 0 0 0 0 0 0 0 0
0 0 0 0 0 0 0 0 0
0 0 0 0 0 0 0 0 0
0 0 0 0 0 0 0 0 0
0 0 0 0 0 0 0 0 0
0 0 0 0 0 0 0 0 0
0 0 0 0 0 0 0 0 0
0 0 0 0 0 0 0 0 0
0 0 0 0 0 0 0 0 0
0 0 0 0 0 0 0 0 0
0 0 0 0 0 0 0 0 0
0 0 0 0 0 0 0 0 0
0 0 0 0 0 0 0 0 0
0 0 0 0 0 0 0 0 0
0 0 0 0 0 0 0 0 0
0 0 0 0 0 0 0 0 0
0 0 0 0 0 0 0 0 0
0 0 0 0 0 0 0 0 0
0 0 0 0 0 0 0 0 0
0 0 0 0 0 0 0 0 0
0 0 0 0 0 0 0 0 0
0 0 0 0 0 0 0 0 0
0 0 0 0 0 0 0 0 0
0 0 0 0 0 0 0 0 0
0 0 0 0 0 0 0 0 0
0 0 0 0 0 0 0 0 0
0 0 0 0 0 0 0 0 0
0 0 0 0 0 0 0 0 0
0 0 0 0 0 0 0 0 0
0 0 0 0 0 0 0 0 0
0 0 0 0 0 0 0 0 0
0 0 0 0 0 0 0 0 0
0 0 0 0 0 0 0 0 0
0 0 0 0 0 0 0 0 0
0 0 0 0 0 0 0 0 0
0 0 0 0 0 0 0 0 0
0 0 0 0 0 0 0 0 0
0 0 0 0 0 0 0 0 0
0 0 0 0 0 0 0 0 0
0 0 0 0 0 0 0 0 0
0 0 0 0 0 0 0 0 0
0 0 0 0 0 0 0 0 0
0 0 0 0 0 0 0 0 0
0 0 0 0 0 0 0 0 0
0 0 0 0 0 0 0 0 0
0 0 0 0 0 0 0 0 0
0 0 0 0 0 0 0 0 0
0 0 0 0 0 0 0 0 0
0 0 0 0 0 0 0 0 0
0 0 0 0 0 0 0 0 0
0 0 0 0 0 0 0 0 0
0 0 0 0 0 0 0 0 0
0 0 0 0 0 0 0 0 0
0 0 0 0 0 0 0 0 0
0 0 0 0 0 0 0 0 0
0 0 0 0 0 0 0 0 0
0 0 0 0 0 0 0 0 0
0 0 0 0 0 0 0 0 0
0 0 0 0 0 0 0 0 0
0 0 0 0 0 0 0 0 0
0 0 0 0 0 0 0 0 0
0 0 0 0 0 0 0 0 0
0 0 0 0 0 0 0 0 0
0 0 0 0 0 0 0 0 0
0 0 0 0 0 0 0 0 0
0 0 0 0 0 0 0 0 0
0 0 0 0 0 0 0 0 0
0 0 0 0 0 0 0 0 0
0 0 0 0 0 0 0 0 0
0 0 0 0 0 0 0 0 0
0 0 0 0 0 0 0 0 0
0 0 0 0 0 0 0 0 0
0 0 0 0 0 0 0 0 0
0 0 0 0 0 0 0 0 0
0 0 0 0 0 0 0 0 0
0 0 0 0 0 0 0 0 0
0 0 0 0 0 0 0 0 0
0 0 0 0 0 0 0 0 0
0 0 0 0 0 0 0 0 0
0 0 0 0 0 0 0 0 0
0 0 0 0 0 0 0 0 0
0 0 0 0 0 0 0 0 0
0 0 0 0 0 0 0 0 0
0 0 0 0 0 0 0 0 0
0 0 0 0 0 0 0 0 0
0 0 0 0 0 0 0 0 0
0 0 0 0 0 0 0 0 0
0 0 0 0 0 0 0 0 0
0 0 0 0 0 0 0 0 0
0 0 0 0 0 0 0 0 0
0 0 0 0 0 0 0 0 0
0 0 0 0 0 0 0 0 0
0 0 0 0 0 0 0 0 0
0 0 0 0 0 0 0 0 0
0 0 0 0 0 0 0 0 0
0 0 0 0 0 0 0 0 0
0 0 0 0 0 0 0 0 0
0 0 0 0 0 0 0 0 0
0 0 0 0 0 0 0 0 0
0 0 0 0 0 0 0 0 0
0 0 0 0 0 0 0 0 0
0 0 0 0 0 0 0 0 0
0 0 0 0 0 0 0 0 0
0 0 0 0 0 0 0 0 0
0 0 0 0 0 0 0 0 0
0 0 0 0 0 0 0 0 0
0 0 0 0 0 0 0 0 0
0 0 0 0 0 0 0 0 0
0 0 0 0 0 0 0 0 0
0 0 0 0 0 0 0 0 0
0 0 0 0 0 0 0 0 0
0 0 0 0 0 0 0 0 0
0 0 0 0 0 0 0 0 0
0 0 0 0 0 0 0 0 0
0 0 0 0 0 0 0 0 0
0 0 0 0 0 0 0 0 0
0 0 0 0 0 0 0 0 0
0 0 0 0 0 0 0 0 0
0 0 0 0 0 0 0 0 0
0 0 0 0 0 0 0 0 0
0 0 0 0 0 0 0 0 0
0 0 0 0 0 0 0 0 0
0 0 0 0 0 0 0 0 0
0 0 0 0 0 0 0 0 0
0 0 0 0 0 0 0 0 0
0 0 0 0 0 0 0 0 0
0 0 0 0 0 0 0 0 0
0 0 0 0 0 0 0 0 0
0 0 0 0 0 0 0 0 0
0 0 0 0 0 0 0 0 0
0 0 0 0 0 0 0 0 0
0 0 0 0 0 0 0 0 0
0 0 0 0 0 0 0 0 0
0 0 0 0 0 0 0 0 0
0 0 0 0 0 0 0 0 0
0 0 0 0 0 0 0 0 0
0 0 0 0 0 0 0 0 0
0 0 0 0 0 0 0 0 0
0 0 0 0 0 0 0 0 0
0 0 0 0 0 0 0 0 0
0 0 0 0 0 0 0 0 0
0 0 0 0 0 0 0 0 0
0 0 0 0 0 0 0 0 0
0 0 0 0 0 0 0 0 0
0 0 0 0 0 0 0 0 0
0 0 0 0 0 0 0 0 0
0 0 0 0 0 0 0 0 0
0 0 0 0 0 0 0 0 0
0 0 0 0 0 0 0 0 0
0 0 0 0 0 0 0 0 0
0 0 0 0 0 0 0 0 0
0 0 0 0 0 0 0 0 0
0 0 0 0 0 0 0 0 0
0 0 0 0 0 0 0 0 0
0 0 0 0 0 0 0 0 0
0 0 0 0 0 0 0 0 0
0 0 0 0 0 0 0 0 0
0 0 0 0 0 0 0 0 0
0 0 0 0 0 0 0 0 0
0 0 0 0 0 0 0 0 0
0 0 0 0 0 0 0 0 0
0 0 0 0 0 0 0 0 0
0 0 0 0 0 0 0 0 0
0 0 0 0 0 0 0 0 0
0 0 0 0 0 0 0 0 0
0 0 0 0 0 0 0 0 0
0 0 0 0 0 0 0 0 0
0 0 0 0 0 0 0 0 0
0 0 0 0 0 0 0 0 0
0 0 0 0 0 0 0 0 0
0 0 0 0 0 0 0 0 0
0 0 0 0 0 0 0 0 0
0 0 0 0 0 0 0 0 0
0 0 0 0 0 0 0 0 0
0 0 0 0 0 0 0 0 0
0 0 0 0 0 0 0 0 0
0 0 0 0 0 0 0 0 0
0 0 0 0 0 0 0 0 0
0 0 0 0 0 0 0 0 0
0 0 0 0 0 0 0 0 0
0 0 0 0 0 0 0 0 0
0 0 0 0 0 0 0 0 0
0 0 0 0 0 0 0 0 0
0 0 0 0 0 0 0 0 0
0 0 0 0 0 0 0 0 0
0 0 0 0 0 0 0 0 0
0 0 0 0 0 0 0 0 0
0 0 0 0 0 0 0 0 0
0 0 0 0 0 0 0 0 0
0 0 0 0 0 0 0 0 0
0 0 0 0 0 0 0 0 0
0 0 0 0 0 0 0 0 0
0 0 0 0 0 0 0 0 0
0 0 0 0 0 0 0 0 0
0 0 0 0 0 0 0 0 0
0 0 0 0 0 0 0 0 0
0 0 0 0 0 0 0 0 0
0 0 0 0 0 0 0 0 0
0 0 0 0 0 0 0 0 0
0 0 0 0 0 0 0 0 0
0 0 0 0 0 0 0 0 0
0 0 0 0 0 0 0 0 0
0 0 0 0 0 0 0 0 0
0 0 0 0 0 0 0 0 0
0 0 0 0 0 0 0 0 0
0 0 0 0 0 0 0 0 0
0 0 0 0 0 0 0 0 0
0 0 0 0 0 0 0 0 0
0 0 0 0 0 0 0 0 0
0 0 0 0 0 0 0 0 0
0 0 0 0 0 0 0 0 0
0 0 0 0 0 0 0 0 0
0 0 0 0 0 0 0 0 0
0 0 0 0 0 0 0 0 0
0 0 0 0 0 0 0 0 0
0 0 0 0 0 0 0 0 0
0 0 0 0 0 0 0 0 0
0 0 0 0 0 0 0 0 0
0 0 0 0 0 0 0 0 0
0 0 0 0 0 0 0 0 0
0 0 0 0 0 0 0 0 0
0 0 0 0 0 0 0 0 0
0 0 0 0 0 0 0 0 0
0 0 0 0 0 0 0 0 0
0 0 0 0 0 0 0 0 0
0 0 0 0 0 0 0 0 0
0 0 0 0 0 0 0 0 0
0 0 0 0 0 0 0 0 0
0 0 0 0 0 0 0 0 0
0 0 0 0 0 0 0 0 0
0 0 0 0 0 0 0 0 0
0 0 0 0 0 0 0 0 0
0 0 0 0 0 0 0 0 0
0 0 0 0 0 0 0 0 0
0 0 0 0 0 0 0 0 0
0 0 0 0 0 0 0 0 0
0 0 0 0 0 0 0 0 0
0 0 0 0 0 0 0 0 0
0 0 0 0 0 0 0 0 0
0 0 0 0 0 0 0 0 0
0 0 0 0 0 0 0 0 0
0 0 0 0 0 0 0 0 0
0 0 0 0 0 0 0 0 0
0 0 0 0 0 0 0 0 0
0 0 0 0 0 0 0 0 0
0 0 0 0 0 0 0 0 0
0 0 0 0 0 0 0 0 0
0 0 0 0 0 0 0 0 0
0 0 0 0 0 0 0 0 0
0 0 0 0 0 0 0 0 0
0 0 0 0 0 0 0 0 0
0 0 0 0 0 0 0 0 0
0 0 0 0 0 0 0 0 0
0 0 0 0 0 0 0 0 0
0 0 0 0 0 0 0 0 0
0 0 0 0 0 0 0 0 0
0 0 0 0 0 0 0 0 0
0 0 0 0 0 0 0 0 0
0 0 0 0 0 0 0 0 0
0 0 0 0 0 0 0 0 0
0 0 0 0 0 0 0 0 0
0 0 0 0 0 0 0 0 0
0 0 0 0 0 0 0 0 0
0 0 0 0 0 0 0 0 0
0 0 0 0 0 0 0 0 0
0 0 0 0 0 0 0 0 0
0 0 0 0 0 0 0 0 0
0 0 0 0 0 0 0 0 0
0 0 0 0 0 0 0 0 0
0 0 0 0 0 0 0 0 0
0 0 0 0 0 0 0 0 0
0 0 0 0 0 0 0 0 0
0 0 0 0 0 0 0 0 0
0 0 0 0 0 0 0 0 0
0 0 0 0 0 0 0 0 0
0 0 0 0 0 0 0 0 0
0 0 0 0 0 0 0 0 0
0 0 0 0 0 0 0 0 0
0 0 0 0 0 0 0 0 0
0 0 0 0 0 0 0 0 0
0 0 0 0 0 0 0 0 0
0 0 0 0 0 0 0 0 0
0 0 0 0 0 0 0 0 0
0 0 0 0 0 0 0 0 0
0 0 0 0 0 0 0 0 0
0 0 0 0 0 0 0 0 0
0 0 0 0 0 0 0 0 0
0 0 0 0 0 0 0 0 0
0 0 0 0 0 0 0 0 0
0 0 0 0 0 0 0 0 0
0 0 0 0 0 0 0 0 0
0 0 0 0 0 0 0 0 0
0 0 0 0 0 0 0 0 0
0 0 0 0 0 0 0 0 0
0 0 0 0 0 0 0 0 0
0 0 0 0 0 0 0 0 0
0 0 0 0 0 0 0 0 0
0 0 0 0 0 0 0 0 0
0 0 0 0 0 0 0 0 0
0 0 0 0 0 0 0 0 0
0 0 0 0 0 0 0 0 0
0 0 0 0 0 0 0 0 0
0 0 0 0 0 0 0 0 0
0 0 0 0 0 0 0 0 0
0 0 0 0 0 0 0 0 0
0 0 0 0 0 0 0 0 0
0 0 0 0 0 0 0 0 0
0 0 0 0 0 0 0 0 0
0 0 0 0 0 0 0 0 0
0 0 0 0 0 0 0 0 0
0 0 0 0 0 0 0 0 0
0 0 0 0 0 0 0 0 0
0 0 0 0 0 0 0 0 0
0 0 0 0 0 0 0 0 0
0 0 0 0 0 0 0 0 0
0 0 0 0 0 0 0 0 0
0 0 0 0 0 0 0 0 0
0 0 0 0 0 0 0 0 0
0 0 0 0 0 0 0 0 0
0 0 0 0 0 0 0 0 0
0 0 0 0 0 0 0 0 0
0 0 0 0 0 0 0 0 0
0 0 0 0 0 0 0 0 0
0 0 0 0 0 0 0 0 0
0 0 0 0 0 0 0 0 0
0 0 0 0 0 0 0 0 0
0 0 0 0 0 0 0 0 0
0 0 0 0 0 0 0 0 0
0 0 0 0 0 0 0 0 0
0 0 0 0 0 0 0 0 0
0 0 0 0 0 0 0 0 0
0 0 0 0 0 0 0 0 0
0 0 0 0 0 0 0 0 0
0 0 0 0 0 0 0 0 0
0 0 0 0 0 0 0 0 0
0 0 0 0 0 0 0 0 0
0 0 0 0 0 0 0 0 0
0 0 0 0 0 0 0 0 0
0 0 0 0 0 0 0 0 0
0 0 0 0 0 0 0 0 0
0 0 0 0 0 0 0 0 0
0 0 0 0 0 0 0 0 0
0 0 0 0 0 0 0 0 0
0 0 0 0 0 0 0 0 0
0 0 0 0 0 0 0 0 0
0 0 0 0 0 0 0 0 0
0 0 0 0 0 0 0 0 0
0 0 0 0 0 0 0 0 0
0 0 0 0 0 0 0 0 0
0 0 0 0 0 0 0 0 0
0 0 0 0 0 0 0 0 0
0 0 0 0 0 0 0 0 0
0 0 0 0 0 0 0 0 0
0 0 0 0 0 0 0 0 0
0 0 0 0 0 0 0 0 0
0 0 0 0 0 0 0 0 0
0 0 0 0 0 0 0 0 0
0 0 0 0 0 0 0 0 0
0 0 0 0 0 0 0 0 0
0 0 0 0 0 0 0 0 0
0 0 0 0 0 0 0 0 0
0 0 0 0 0 0 0 0 0
0 0 0 0 0 0 0 0 0
0 0 0 0 0 0 0 0 0
0 0 0 0 0 0 0 0 0
0 0 0 0 0 0 0 0 0
0 0 0 0 0 0 0 0 0
0 0 0 0 0 0 0 0 0
0 0 0 0 0 0 0 0 0
0 0 0 0 0 0 0 0 0
0 0 0 0 0 0 0 0 0
0 0 0 0 0 0 0 0 0
0 0 0 0 0 0 0 0 0
0 0 0 0 0 0 0 0 0
0 0 0 0 0 0 0 0 0
0 0 0 0 0 0 0 0 0
0 0 0 0 0 0 0 0 0
0 0 0 0 0 0 0 0 0
0 0 0 0 0 0 0 0 0
0 0 0 0 0 0 0 0 0
0 0 0 0 0 0 0 0 0
0 0 0 0 0 0 0 0 0
0 0 0 0 0 0 0 0 0
0 0 0 0 0 0 0 0 0
0 0 0 0 0 0 0 0 0
0 0 0 0 0 0 0 0 0
0 0 0 0 0 0 0 0 0
0 0 0 0 0 0 0 0 0
0 0 0 0 0 0 0 0 0
0 0 0 0 0 0 0 0 0
0 0 0 0 0 0 0 0 0
0 0 0 0 0 0 0 0 0
0 0 0 0 0 0 0 0 0
0 0 0 0 0 0 0 0 0
0 0 0 0 0 0 0 0 0
0 0 0 0 0 0 0 0 0
0 0 0 0 0 0 0 0 0
0 0 0 0 0 0 0 0 0
0 0 0 0 0 0 0 0 0
0 0 0 0 0 0 0 0 0
0 0 0 0 0 0 0 0 0
0 0 0 0 0 0 0 0 0
0 0 0 0 0 0 0 0 0
0 0 0 0 0 0 0 0 0
0 0 0 0 0 0 0 0 0
0 0 0 0 0 0 0 0 0
0 0 0 0 0 0 0 0 0
0 0 0 0 0 0 0 0 0
0 0 0 0 0 0 0 0 0
0 0 0 0 0 0 0 0 0
0 0 0 0 0 0 0 0 0
0 0 0 0 0 0 0 0 0
0 0 0 0 0 0 0 0 0
0 0 0 0 0 0 0 0 0
0 0 0 0 0 0 0 0 0
0 0 0 0 0 0 0 0 0
0 0 0 0 0 0 0 0 0
0 0 0 0 0 0 0 0 0
0 0 0 0 0 0 0 0 0
0 0 0 0 0 0 0 0 0
0 0 0 0 0 0 0 0 0
0 0 0 0 0 0 0 0 0
0 0 0 0 0 0 0 0 0
0 0 0 0 0 0 0 0 0
0 0 0 0 0 0 0 0 0
0 0 0 0 0 0 0 0 0
0 0 0 0 0 0 0 0 0
0 0 0 0 0 0 0 0 0
0 0 0 0 0 0 0 0 0
0 0 0 0 0 0 0 0 0
0 0 0 0 0 0 0 0 0
0 0 0 0 0 0 0 0 0
0 0 0 0 0 0 0 0 0
0 0 0 0 0 0 0 0 0
0 0 0 0 0 0 0 0 0
0 0 0 0 0 0 0 0 0
0 0 0 0 0 0 0 0 0
0 0 0 0 0 0 0 0 0
0 0 0 0 0 0 0 0 0
0 0 0 0 0 0 0 0 0
0 0 0 0 0 0 0 0 0
0 0 0 0 0 0 0 0 0
0 0 0 0 0 0 0 0 0
0 0 0 0 0 0 0 0 0
0 0 0 0 0 0 0 0 0
0 0 0 0 0 0 0 0 0
0 0 0 0 0 0 0 0 0
0 0 0 0 0 0 0 0 0
0 0 0 0 0 0 0 0 0
0 0 0 0 0 0 0 0 0
0 0 0 0 0 0 0 0 0
0 0 0 0 0 0 0 0 0
0 0 0 0 0 0 0 0 0
0 0 0 0 0 0 0 0 0
0 0 0 0 0 0 0 0 0
0 0 0 0 0 0 0 0 0
0 0 0 0 0 0 0 0 0
0 0 0 0 0 0 0 0 0
0 0 0 0 0 0 0 0 0
0 0 0 0 0 0 0 0 0
0 0 0 0 0 0 0 0 0
0 0 0 0 0 0 0 0 0
0 0 0 0 0 0 0 0 0
0 0 0 0 0 0 0 0 0
0 0 0 0 0 0 0 0 0
0 0 0 0 0 0 0 0 0
0 0 0 0 0 0 0 0 0
0 0 0 0 0 0 0 0 0
0 0 0 0 0 0 0 0 0
0 0 0 0 0 0 0 0 0
0 0 0 0 0 0 0 0 0
0 0 0 0 0 0 0 0 0
0 0 0 0 0 0 0 0 0
0 0 0 0 0 0 0 0 0
0 0 0 0 0 0 0 0 0
0 0 0 0 0 0 0 0 0
0 0 0 0 0 0 0 0 0
0 0 0 0 0 0 0 0 0
0 0 0 0 0 0 0 0 0
0 0 0 0 0 0 0 0 0
0 0 0 0 0 0 0 0 0
0 0 0 0 0 0 0 0 0
0 0 0 0 0 0 0 0 0
0 0 0 0 0 0 0 0 0
0 0 0 0 0 0 0 0 0
0 0 0 0 0 0 0 0 0
0 0 0 0 0 0 0 0 0
0 0 0 0 0 0 0 0 0
0 0 0 0 0 0 0 0 0
0 0 0 0 0 0 0 0 0
0 0 0 0 0 0 0 0 0
0 0 0 0 0 0 0 0 0
0 0 0 0 0 0 0 0 0
0 0 0 0 0 0 0 0 0
0 0 0 0 0 0 0 0 0
0 0 0 0 0 0 0 0 0
0 0 0 0 0 0 0 0 0
0 0 0 0 0 0 0 0 0
0 0 0 0 0 0 0 0 0
0 0 0 0 0 0 0 0 0
0 0 0 0 0 0 0 0 0
0 0 0 0 0 0 0 0 0
0 0 0 0 0 0 0 0 0
0 0 0 0 0 0 0 0 0
0 0 0 0 0 0 0 0 0
0 0 0 0 0 0 0 0 0
0 0 0 0 0 0 0 0 0
0 0 0 0 0 0 0 0 0
0 0 0 0 0 0 0 0 0
0 0 0 0 0 0 0 0 0
0 0 0 0 0 0 0 0 0
0 0 0 0 0 0 0 0 0
0 0 0 0 0 0 0 0 0
0 0 0 0 0 0 0 0 0
0 0 0 0 0 0 0 0 0
0 0 0 0 0 0 0 0 0
0 0 0 0 0 0 0 0 0
0 0 0 0 0 0 0 0 0
0 0 0 0 0 0 0 0 0
0 0 0 0 0 0 0 0 0
0 0 0 0 0 0 0 0 0
0 0 0 0 0 0 0 0 0
0 0 0 0 0 0 0 0 0
0 0 0 0 0 0 0 0 0
0 0 0 0 0 0 0 0 0
0 0 0 0 0 0 0 0 0
0 0 0 0 0 0 0 0 0
0 0 0 0 0 0 0 0 0
0 0 0 0 0 0 0 0 0
0 0 0 0 0 0 0 0 0
0 0 0 0 0 0 0 0 0
0 0 0 0 0 0 0 0 0
0 0 0 0 0 0 0 0 0
0 0 0 0 0 0 0 0 0
0 0 0 0 0 0 0 0 0
0 0 0 0 0 0 0 0 0
0 0 0 0 0 0 0 0 0
0 0 0 0 0 0 0 0 0
0 0 0 0 0 0 0 0 0
0 0 0 0 0 0 0 0 0
0 0 0 0 0 0 0 0 0
0 0 0 0 0 0 0 0 0
0 0 0 0 0 0 0 0 0
0 0 0 0 0 0 0 0 0
0 0 0 0 0 0 0 0 0
0 0 0 0 0 0 0 0 0
0 0 0 0 0 0 0 0 0
0 0 0 0 0 0 0 0 0
0 0 0 0 0 0 0 0 0
0 0 0 0 0 0 0 0 0
0 0 0 0 0 0 0 0 0
0 0 0 0 0 0 0 0 0
0 0 0 0 0 0 0 0 0
0 0 0 0 0 0 0 0 0
0 0 0 0 0 0 0 0 0
0 0 0 0 0 0 0 0 0
0 0 0 0 0 0 0 0 0
0 0 0 0 0 0 0 0 0
0 0 0 0 0 0 0 0 0
0 0 0 0 0 0 0 0 0
0 0 0 0 0 0 0 0 0
0 0 0 0 0 0 0 0 0
0 0 0 0 0 0 0 0 0
0 0 0 0 0 0 0 0 0
0 0 0 0 0 0 0 0 0
0 0 0 0 0 0 0 0 0
0 0 0 0 0 0 0 0 0
0 0 0 0 0 0 0 0 0
0 0 0 0 0 0 0 0 0
0 0 0 0 0 0 0 0 0
0 0 0 0 0 0 0 0 0
0 0 0 0 0 0 0 0 0
0 0 0 0 0 0 0 0 0
0 0 0 0 0 0 0 0 0
0 0 0 0 0 0 0 0 0
0 0 0 0 0 0 0 0 0
0 0 0 0 0 0 0 0 0
0 0 0 0 0 0 0 0 0
0 0 0 0 0 0 0 0 0
0 0 0 0 0 0 0 0 0
0 0 0 0 0 0 0 0 0
0 0 0 0 0 0 0 0 0
0 0 0 0 0 0 0 0 0
0 0 0 0 0 0 0 0 0
0 0 0 0 0 0 0 0 0
0 0 0 0 0 0 0 0 0
0 0 0 0 0 0 0 0 0
0 0 0 0 0 0 0 0 0
0 0 0 0 0 0 0 0 0
0 0 0 0 0 0 0 0 0
0 0 0 0 0 0 0 0 0
0 0 0 0 0 0 0 0 0
0 0 0 0 0 0 0 0 0
0 0 0 0 0 0 0 0 0
0 0 0 0 0 0 0 0 0
0 0 0 0 0 0 0 0 0
0 0 0 0 0 0 0 0 0
0 0 0 0 0 0 0 0 0
0 0 0 0 0 0 0 0 0
0 0 0 0 0 0 0 0 0
0 0 0 0 0 0 0 0 0
0 0 0 0 0 0 0 0 0
0 0 0 0 0 0 0 0 0
0 0 0 0 0 0 0 0 0
0 0 0 0 0 0 0 0 0
0 0 0 0 0 0 0 0 0
0 0 0 0 0 0 0 0 0
0 0 0 0 0 0 0 0 0
0 0 0 0 0 0 0 0 0
0 0 0 0 0 0 0 0 0
0 0 0 0 0 0 0 0 0
0 0 0 0 0 0 0 0 0
0 0 0 0 0 0 0 0 0
0 0 0 0 0 0 0 0 0
0 0 0 0 0 0 0 0 0
0 0 0 0 0 0 0 0 0
0 0 0 0 0 0 0 0 0
0 0 0 0 0 0 0 0 0
0 0 0 0 0 0 0 0 0
0 0 0 0 0 0 0 0 0
0 0 0 0 0 0 0 0 0
0 0 0 0 0 0 0 0 0
0 0 0 0 0 0 0 0 0
0 0 0 0 0 0 0 0 0
0 0 0 0 0 0 0 0 0
0 0 0 0 0 0 0 0 0
0 0 0 0 0 0 0 0 0
0 0 0 0 0 0 0 0 0
0 0 0 0 0 0 0 0 0
0 0 0 0 0 0 0 0 0
0 0 0 0 0 0 0 0 0
0 0 0 0 0 0 0 0 0
0 0 0 0 0 0 0 0 0
0 0 0 0 0 0 0 0 0
0 0 0 0 0 0 0 0 0
0 0 0 0 0 0 0 0 0
0 0 0 0 0 0 0 0 0
0 0 0 0 0 0 0 0 0
0 0 0 0 0 0 0 0 0
0 0 0 0 0 0 0 0 0
0 0 0 0 0 0 0 0 0
0 0 0 0 0 0 0 0 0
0 0 0 0 0 0 0 0 0
0 0 0 0 0 0 0 0 0
0 0 0 0 0 0 0 0 0
0 0 0 0 0 0 0 0 0
0 0 0 0 0 0 0 0 0
0 0 0 0 0 0 0 0 0
0 0 0 0 0 0 0 0 0
0 0 0 0 0 0 0 0 0
0 0 0 0 0 0 0 0 0
0 0 0 0 0 0 0 0 0
0 0 0 0 0 0 0 0 0
0 0 0 0 0 0 0 0 0
0 0 0 0 0 0 0 0 0
0 0 0 0 0 0 0 0 0
0 0 0 0 0 0 0 0 0
0 0 0 0 0 0 0 0 0
0 0 0 0 0 0 0 0 0
0 0 0 0 0 0 0 0 0
0 0 0 0 0 0 0 0 0
0 0 0 0 0 0 0 0 0
0 0 0 0 0 0 0 0 0
0 0 0 0 0 0 0 0 0
0 0 0 0 0 0 0 0 0
0 0 0 0 0 0 0 0 0
0 0 0 0 0 0 0 0 0
0 0 0 0 0 0 0 0 0
0 0 0 0 0 0 0 0 0
0 0 0 0 0 0 0 0 0
0 0 0 0 0 0 0 0 0
0 0 0 0 0 0 0 0 0
0 0 0 0 0 0 0 0 0
0 0 0 0 0 0 0 0 0
0 0 0 0 0 0 0 0 0
0 0 0 0 0 0 0 0 0
0 0 0 0 0 0 0 0 0
0 0 0 0 0 0 0 0 0
0 0 0 0 0 0 0 0 0
0 0 0 0 0 0 0 0 0
0 0 0 0 0 0 0 0 0
0 0 0 0 0 0 0 0 0
0 0 0 0 0 0 0 0 0
0 0 0 0 0 0 0 0 0
0 0 0 0 0 0 0 0 0
0 0 0 0 0 0 0 0 0
0 0 0 0 0 0 0 0 0
0 0 0 0 0 0 0 0 0
0 0 0 0 0 0 0 0 0
0 0 0 0 0 0 0 0 0
0 0 0 0 0 0 0 0 0
0 0 0 0 0 0 0 0 0
0 0 0 0 0 0 0 0 0
0 0 0 0 0 0 0 0 0
0 0 0 0 0 0 0 0 0
0 0 0 0 0 0 0 0 0
0 0 0 0 0 0 0 0 0
0 0 0 0 0 0 0 0 0
0 0 0 0 0 0 0 0 0
0 0 0 0 0 0 0 0 0
0 0 0 0 0 0 0 0 0
0 0 0 0 0 0 0 0 0
0 0 0 0 0 0 0 0 0
0 0 0 0 0 0 0 0 0
0 0 0 0 0 0 0 0 0
0 0 0 0 0 0 0 0 0
0 0 0 0 0 0 0 0 0
0 0 0 0 0 0 0 0 0
0 0 0 0 0 0 0 0 0
0 0 0 0 0 0 0 0 0
0 0 0 0 0 0 0 0 0
0 0 0 0 0 0 0 0 0
0 0 0 0 0 0 0 0 0
0 0 0 0 0 0 0 0 0
0 0 0 0 0 0 0 0 0
0 0 0 0 0 0 0 0 0
0 0 0 0 0 0 0 0 0
0 0 0 0 0 0 0 0 0
0 0 0 0 0 0 0 0 0
0 0 0 0 0 0 0 0 0
0 0 0 0 0 0 0 0 0
0 0 0 0 0 0 0 0 0
0 0 0 0 0 0 0 0 0
0 0 0 0 0 0 0 0 0
0 0 0 0 0 0 0 0 0
0 0 0 0 0 0 0 0 0
0 0 0 0 0 0 0 0 0
0 0 0 0 0 0 0 0 0
0 0 0 0 0 0 0 0 0
0 0 0 0 0 0 0 0 0
0 0 0 0 0 0 0 0 0
0 0 0 0 0 0 0 0 0
0 0 0 0 0 0 0 0 0
0 0 0 0 0 0 0 0 0
0 0 0 0 0 0 0 0 0
0 0 0 0 0 0 0 0 0
0 0 0 0 0 0 0 0 0
0 0 0 0 0 0 0 0 0
0 0 0 0 0 0 0 0 0
0 0 0 0 0 0 0 0 0
0 0 0 0 0 0 0 0 0
0 0 0 0 0 0 0 0 0
0 0 0 0 0 0 0 0 0
0 0 0 0 0 0 0 0 0
0 0 0 0 0 0 0 0 0
0 0 0 0 0 0 0 0 0
0 0 0 0 0 0 0 0 0
0 0 0 0 0 0 0 0 0
0 0 0 0 0 0 0 0 0
0 0 0 0 0 0 0 0 0
0 0 0 0 0 0 0 0 0
0 0 0 0 0 0 0 0 0
0 0 0 0 0 0 0 0 0
0 0 0 0 0 0 0 0 0
0 0 0 0 0 0 0 0 0
0 0 0 0 0 0 0 0 0
0 0 0 0 0 0 0 0 0
0 0 0 0 0 0 0 0 0
0 0 0 0 0 0 0 0 0
0 0 0 0 0 0 0 0 0
0 0 0 0 0 0 0 0 0
0 0 0 0 0 0 0 0 0
0 0 0 0 0 0 0 0 0
0 0 0 0 0 0 0 0 0
0 0 0 0 0 0 0 0 0
0 0 0 0 0 0 0 0 0
0 0 0 0 0 0 0 0 0
0 0 0 0 0 0 0 0 0
0 0 0 0 0 0 0 0 0
0 0 0 0 0 0 0 0 0
0 0 0 0 0 0 0 0 0
0 0 0 0 0 0 0 0 0
0 0 0 0 0 0 0 0 0
0 0 0 0 0 0 0 0 0
0 0 0 0 0 0 0 0 0
0 0 0 0 0 0 0 0 0
0 0 0 0 0 0 0 0 0
0 0 0 0 0 0 0 0 0
0 0 0 0 0 0 0 0 0
0 0 0 0 0 0 0 0 0
0 0 0 0 0 0 0 0 0
0 0 0 0 0 0 0 0 0
0 0 0 0 0 0 0 0 0
0 0 0 0 0 0 0 0 0
0 0 0 0 0 0 0 0 0
0 0 0 0 0 0 0 0 0
0 0 0 0 0 0 0 0 0
0 0 0 0 0 0 0 0 0
0 0 0 0 0 0 0 0 0
0 0 0 0 0 0 0 0 0
0 0 0 0 0 0 0 0 0
0 0 0 0 0 0 0 0 0
0 0 0 0 0 0 0 0 0
0 0 0 0 0 0 0 0 0
0 0 0 0 0 0 0 0 0
0 0 0 0 0 0 0 0 0
0 0 0 0 0 0 0 0 0
0 0 0 0 0 0 0 0 0
0 0 0 0 0 0 0 0 0
0 0 0 0 0 0 0 0 0
0 0 0 0 0 0 0 0 0
0 0 0 0 0 0 0 0 0
0 0 0 0 0 0 0 0 0
0 0 0 0 0 0 0 0 0
0 0 0 0 0 0 0 0 0
0 0 0 0 0 0 0 0 0
0 0 0 0 0 0 0 0 0
0 0 0 0 0 0 0 0 0
0 0 0 0 0 0 0 0 0
0 0 0 0 0 0 0 0 0
0 0 0 0 0 0 0 0 0
0 0 0 0 0 0 0 0 0
0 0 0 0 0 0 0 0 0
0 0 0 0 0 0 0 0 0
0 0 0 0 0 0 0 0 0
0 0 0 0 0 0 0 0 0
0 0 0 0 0 0 0 0 0
0 0 0 0 0 0 0 0 0
0 0 0 0 0 0 0 0 0
0 0 0 0 0 0 0 0 0
0 0 0 0 0 0 0 0 0
0 0 0 0 0 0 0 0 0
0 0 0 0 0 0 0 0 0
0 0 0 0 0 0 0 0 0
0 0 0 0 0 0 0 0 0
0 0 0 0 0 0 0 0 0
0 0 0 0 0 0 0 0 0
0 0 0 0 0 0 0 0 0
0 0 0 0 0 0 0 0 0
0 0 0 0 0 0 0 0 0
0 0 0 0 0 0 0 0 0
0 0 0 0 0 0 0 0 0
0 0 0 0 0 0 0 0 0
0 0 0 0 0 0 0 0 0
0 0 0 0 0 0 0 0 0
0 0 0 0 0 0 0 0 0
0 0 0 0 0 0 0 0 0
0 0 0 0 0 0 0 0 0
0 0 0 0 0 0 0 0 0
0 0 0 0 0 0 0 0 0
0 0 0 0 0 0 0 0 0
0 0 0 0 0 0 0 0 0
0 0 0 0 0 0 0 0 0
0 0 0 0 0 0 0 0 0
0 0 0 0 0 0 0 0 0
0 0 0 0 0 0 0 0 0
0 0 0 0 0 0 0 0 0
0 0 0 0 0 0 0 0 0
0 0 0 0 0 0 0 0 0
0 0 0 0 0 0 0 0 0
0 0 0 0 0 0 0 0 0
0 0 0 0 0 0 0 0 0
0 0 0 0 0 0 0 0 0
0 0 0 0 0 0 0 0 0
0 0 0 0 0 0 0 0 0
0 0 0 0 0 0 0 0 0
0 0 0 0 0 0 0 0 0
0 0 0 0 0 0 0 0 0
0 0 0 0 0 0 0 0 0
0 0 0 0 0 0 0 0 0
0 0 0 0 0 0 0 0 0
0 0 0 0 0 0 0 0 0
0 0 0 0 0 0 0 0 0
0 0 0 0 0 0 0 0 0
0 0 0 0 0 0 0 0 0
0 0 0 0 0 0 0 0 0
0 0 0 0 0 0 0 0 0
0 0 0 0 0 0 0 0 0
0 0 0 0 0 0 0 0 0
0 0 0 0 0 0 0 0 0
0 0 0 0 0 0 0 0 0
0 0 0 0 0 0 0 0 0
0 0 0 0 0 0 0 0 0
0 0 0 0 0 0 0 0 0
0 0 0 0 0 0 0 0 0
0 0 0 0 0 0 0 0 0
0 0 0 0 0 0 0 0 0
0 0 0 0 0 0 0 0 0
0 0 0 0 0 0 0 0 0
0 0 0 0 0 0 0 0 0
0 0 0 0 0 0 0 0 0
0 0 0 0 0 0 0 0 0
0 0 0 0 0 0 0 0 0
0 0 0 0 0 0 0 0 0
0 0 0 0 0 0 0 0 0
0 0 0 0 0 0 0 0 0
0 0 0 0 0 0 0 0 0
0 0 0 0 0 0 0 0 0
0 0 0 0 0 0 0 0 0
0 0 0 0 0 0 0 0 0
0 0 0 0 0 0 0 0 0
0 0 0 0 0 0 0 0 0
0 0 0 0 0 0 0 0 0
0 0 0 0 0 0 0 0 0
0 0 0 0 0 0 0 0 0
0 0 0 0 0 0 0 0 0
0 0 0 0 0 0 0 0 0
0 0 0 0 0 0 0 0 0
0 0 0 0 0 0 0 0 0
0 0 0 0 0 0 0 0 0
0 0 0 0 0 0 0 0 0
0 0 0 0 0 0 0 0 0
0 0 0 0 0 0 0 0 0
0 0 0 0 0 0 0 0 0
0 0 0 0 0 0 0 0 0
0 0 0 0 0 0 0 0 0
0 0 0 0 0 0 0 0 0
0 0 0 0 0 0 0 0 0
0 0 0 0 0 0 0 0 0
0 0 0 0 0 0 0 0 0
0 0 0 0 0 0 0 0 0
0 0 0 0 0 0 0 0 0
0 0 0 0 0 0 0 0 0
0 0 0 0 0 0 0 0 0
0 0 0 0 0 0 0 0 0
0 0 0 0 0 0 0 0 0
0 0 0 0 0 0 0 0 0
0 0 0 0 0 0 0 0 0
0 0 0 0 0 0 0 0 0
0 0 0 0 0 0 0 0 0
0 0 0 0 0 0 0 0 0
0 0 0 0 0 0 0 0 0
0 0 0 0 0 0 0 0 0
0 0 0 0 0 0 0 0 0
0 0 0 0 0 0 0 0 0
0 0 0 0 0 0 0 0 0
0 0 0 0 0 0 0 0 0
0 0 0 0 0 0 0 0 0
0 0 0 0 0 0 0 0 0
0 0 0 0 0 0 0 0 0
0 0 0 0 0 0 0 0 0
0 0 0 0 0 0 0 0 0
0 0 0 0 0 0 0 0 0
0 0 0 0 0 0 0 0 0
0 0 0 0 0 0 0 0 0
0 0 0 0 0 0 0 0 0
0 0 0 0 0 0 0 0 0
0 0 0 0 0 0 0 0 0
0 0 0 0 0 0 0 0 0
0 0 0 0 0 0 0 0 0
0 0 0 0 0 0 0 0 0
0 0 0 0 0 0 0 0 0
0 0 0 0 0 0 0 0 0
0 0 0 0 0 0 0 0 0
0 0 0 0 0 0 0 0 0
0 0 0 0 0 0 0 0 0
0 0 0 0 0 0 0 0 0
0 0 0 0 0 0 0 0 0
0 0 0 0 0 0 0 0 0
0 0 0 0 0 0 0 0 0
0 0 0 0 0 0 0 0 0
0 0 0 0 0 0 0 0 0
0 0 0 0 0 0 0 0 0
0 0 0 0 0 0 0 0 0
0 0 0 0 0 0 0 0 0
0 0 0 0 0 0 0 0 0
0 0 0 0 0 0 0 0 0
0 0 0 0 0 0 0 0 0
0 0 0 0 0 0 0 0 0
0 0 0 0 0 0 0 0 0
0 0 0 0 0 0 0 0 0
0 0 0 0 0 0 0 0 0
0 0 0 0 0 0 0 0 0
0 0 0 0 0 0 0 0 0
0 0 0 0 0 0 0 0 0
0 0 0 0 0 0 0 0 0
0 0 0 0 0 0 0 0 0
0 0 0 0 0 0 0 0 0
0 0 0 0 0 0 0 0 0
0 0 0 0 0 0 0 0 0
0 0 0 0 0 0 0 0 0
0 0 0 0 0 0 0 0 0
0 0 0 0 0 0 0 0 0
0 0 0 0 0 0 0 0 0
0 0 0 0 0 0 0 0 0
0 0 0 0 0 0 0 0 0
0 0 0 0 0 0 0 0 0
0 0 0 0 0 0 0 0 0
0 0 0 0 0 0 0 0 0
0 0 0 0 0 0 0 0 0
0 0 0 0 0 0 0 0 0
0 0 0 0 0 0 0 0 0
0 0 0 0 0 0 0 0 0
0 0 0 0 0 0 0 0 0
0 0 0 0 0 0 0 0 0
0 0 0 0 0 0 0 0 0
0 0 0 0 0 0 0 0 0
0 0 0 0 0 0 0 0 0
0 0 0 0 0 0 0 0 0
0 0 0 0 0 0 0 0 0
0 0 0 0 0 0 0 0 0
0 0 0 0 0 0 0 0 0
0 0 0 0 0 0 0 0 0
0 0 0 0 0 0 0 0 0
0 0 0 0 0 0 0 0 0
0 0 0 0 0 0 0 0 0
0 0 0 0 0 0 0 0 0
0 0 0 0 0 0 0 0 0
0 0 0 0 0 0 0 0 0
0 0 0 0 0 0 0 0 0
0 0 0 0 0 0 0 0 0
0 0 0 0 0 0 0 0 0
0 0 0 0 0 0 0 0 0
0 0 0 0 0 0 0 0 0
0 0 0 0 0 0 0 0 0
0 0 0 0 0 0 0 0 0
0 0 0 0 0 0 0 0 0
0 0 0 0 0 0 0 0 0
0 0 0 0 0 0 0 0 0
0 0 0 0 0 0 0 0 0
0 0 0 0 0 0 0 0 0
0 0 0 0 0 0 0 0 0
0 0 0 0 0 0 0 0 0
0 0 0 0 0 0 0 0 0
0 0 0 0 0 0 0 0 0
0 0 0 0 0 0 0 0 0
0 0 0 0 0 0 0 0 0
0 0 0 0 0 0 0 0 0
0 0 0 0 0 0 0 0 0
0 0 0 0 0 0 0 0 0
0 0 0 0 0 0 0 0 0
0 0 0 0 0 0 0 0 0
0 0 0 0 0 0 0 0 0
0 0 0 0 0 0 0 0 0
0 0 0 0 0 0 0 0 0
0 0 0 0 0 0 0 0 0
0 0 0 0 0 0 0 0 0
0 0 0 0 0 0 0 0 0
0 0 0 0 0 0 0 0 0
0 0 0 0 0 0 0 0 0
0 0 0 0 0 0 0 0 0
0 0 0 0 0 0 0 0 0
0 0 0 0 0 0 0 0 0
0 0 0 0 0 0 0 0 0
0 0 0 0 0 0 0 0 0
0 0 0 0 0 0 0 0 0
0 0 0 0 0 0 0 0 0
0 0 0 0 0 0 0 0 0
0 0 0 0 0 0 0 0 0
0 0 0 0 0 0 0 0 0
0 0 0 0 0 0 0 0 0
0 0 0 0 0 0 0 0 0
0 0 0 0 0 0 0 0 0
0 0 0 0 0 0 0 0 0
0 0 0 0 0 0 0 0 0
0 0 0 0 0 0 0 0 0
0 0 0 0 0 0 0 0 0
0 0 0 0 0 0 0 0 0
0 0 0 0 0 0 0 0 0
0 0 0 0 0 0 0 0 0
0 0 0 0 0 0 0 0 0
0 0 0 0 0 0 0 0 0
0 0 0 0 0 0 0 0 0
0 0 0 0 0 0 0 0 0
0 0 0 0 0 0 0 0 0
0 0 0 0 0 0 0 0 0
0 0 0 0 0 0 0 0 0
0 0 0 0 0 0 0 0 0
0 0 0 0 0 0 0 0 0
0 0 0 0 0 0 0 0 0
0 0 0 0 0 0 0 0 0
0 0 0 0 0 0 0 0 0
0 0 0 0 0 0 0 0 0
0 0 0 0 0 0 0 0 0
0 0 0 0 0 0 0 0 0
0 0 0 0 0 0 0 0 0
0 0 0 0 0 0 0 0 0
0 0 0 0 0 0 0 0 0
0 0 0 0 0 0 0 0 0
0 0 0 0 0 0 0 0 0
0 0 0 0 0 0 0 0 0
0 0 0 0 0 0 0 0 0
0 0 0 0 0 0 0 0 0
0 0 0 0 0 0 0 0 0
0 0 0 0 0 0 0 0 0
0 0 0 0 0 0 0 0 0
0 0 0 0 0 0 0 0 0
0 0 0 0 0 0 0 0 0
0 0 0 0 0 0 0 0 0
0 0 0 0 0 0 0 0 0
0 0 0 0 0 0 0 0 0
0 0 0 0 0 0 0 0 0
0 0 0 0 0 0 0 0 0
0 0 0 0 0 0 0 0 0
0 0 0 0 0 0 0 0 0
0 0 0 0 0 0 0 0 0
0 0 0 0 0 0 0 0 0
0 0 0 0 0 0 0 0 0
0 0 0 0 0 0 0 0 0
0 0 0 0 0 0 0 0 0
0 0 0 0 0 0 0 0 0
0 0 0 0 0 0 0 0 0
0 0 0 0 0 0 0 0 0
0 0 0 0 0 0 0 0 0
0 0 0 0 0 0 0 0 0
0 0 0 0 0 0 0 0 0
0 0 0 0 0 0 0 0 0
0 0 0 0 0 0 0 0 0
0 0 0 0 0 0 0 0 0
0 0 0 0 0 0 0 0 0
0 0 0 0 0 0 0 0 0
0 0 0 0 0 0 0 0 0
0 0 0 0 0 0 0 0 0
0 0 0 0 0 0 0 0 0
0 0 0 0 0 0 0 0 0
0 0 0 0 0 0 0 0 0
0 0 0 0 0 0 0 0 0
0 0 0 0 0 0 0 0 0
0 0 0 0 0 0 0 0 0
0 0 0 0 0 0 0 0 0
0 0 0 0 0 0 0 0 0
0 0 0 0 0 0 0 0 0
0 0 0 0 0 0 0 0 0
0 0 0 0 0 0 0 0 0
0 0 0 0 0 0 0 0 0
0 0 0 0 0 0 0 0 0
0 0 0 0 0 0 0 0 0
0 0 0 0 0 0 0 0 0
0 0 0 0 0 0 0 0 0
0 0 0 0 0 0 0 0 0
0 0 0 0 0 0 0 0 0
0 0 0 0 0 0 0 0 0
0 0 0 0 0 0 0 0 0
0 0 0 0 0 0 0 0 0
0 0 0 0 0 0 0 0 0
0 0 0 0 0 0 0 0 0
0 0 0 0 0 0 0 0 0
0 0 0 0 0 0 0 0 0
0 0 0 0 0 0 0 0 0
0 0 0 0 0 0 0 0 0
0 0 0 0 0 0 0 0 0
0 0 0 0 0 0 0 0 0
0 0 0 0 0 0 0 0 0
0 0 0 0 0 0 0 0 0
0 0 0 0 0 0 0 0 0
0 0 0 0 0 0 0 0 0
0 0 0 0 0 0 0 0 0
0 0 0 0 0 0 0 0 0
0 0 0 0 0 0 0 0 0
0 0 0 0 0 0 0 0 0
0 0 0 0 0 0 0 0 0
0 0 0 0 0 0 0 0 0
0 0 0 0 0 0 0 0 0
0 0 0 0 0 0 0 0 0
0 0 0 0 0 0 0 0 0
0 0 0 0 0 0 0 0 0
0 0 0 0 0 0 0 0 0
0 0 0 0 0 0 0 0 0
0 0 0 0 0 0 0 0 0
0 0 0 0 0 0 0 0 0
0 0 0 0 0 0 0 0 0
0 0 0 0 0 0 0 0 0
0 0 0 0 0 0 0 0 0
0 0 0 0 0 0 0 0 0
0 0 0 0 0 0 0 0 0
0 0 0 0 0 0 0 0 0
0 0 0 0 0 0 0 0 0
0 0 0 0 0 0 0 0 0
0 0 0 0 0 0 0 0 0
0 0 0 0 0 0 0 0 0
0 0 0 0 0 0 0 0 0
0 0 0 0 0 0 0 0 0
0 0 0 0 0 0 0 0 0
0 0 0 0 0 0 0 0 0
0 0 0 0 0 0 0 0 0
0 0 0 0 0 0 0 0 0
0 0 0 0 0 0 0 0 0
0 0 0 0 0 0 0 0 0
0 0 0 0 0 0 0 0 0
0 0 0 0 0 0 0 0 0
0 0 0 0 0 0 0 0 0
0 0 0 0 0 0 0 0 0
0 0 0 0 0 0 0 0 0
0 0 0 0 0 0 0 0 0
0 0 0 0 0 0 0 0 0
0 0 0 0 0 0 0 0 0
0 0 0 0 0 0 0 0 0
0 0 0 0 0 0 0 0 0
0 0 0 0 0 0 0 0 0
0 0 0 0 0 0 0 0 0
0 0 0 0 0 0 0 0 0
0 0 0 0 0 0 0 0 0
0 0 0 0 0 0 0 0 0
0 0 0 0 0 0 0 0 0
0 0 0 0 0 0 0 0 0
0 0 0 0 0 0 0 0 0
0 0 0 0 0 0 0 0 0
0 0 0 0 0 0 0 0 0
0 0 0 0 0 0 0 0 0
0 0 0 0 0 0 0 0 0
0 0 0 0 0 0 0 0 0
0 0 0 0 0 0 0 0 0
0 0 0 0 0 0 0 0 0
0 0 0 0 0 0 0 0 0
0 0 0 0 0 0 0 0 0
0 0 0 0 0 0 0 0 0
0 0 0 0 0 0 0 0 0
0 0 0 0 0 0 0 0 0
0 0 0 0 0 0 0 0 0
0 0 0 0 0 0 0 0 0
0 0 0 0 0 0 0 0 0
0 0 0 0 0 0 0 0 0
0 0 0 0 0 0 0 0 0
0 0 0 0 0 0 0 0 0
0 0 0 0 0 0 0 0 0
0 0 0 0 0 0 0 0 0
0 0 0 0 0 0 0 0 0
0 0 0 0 0 0 0 0 0
0 0 0 0 0 0 0 0 0
0 0 0 0 0 0 0 0 0
0 0 0 0 0 0 0 0 0
0 0 0 0 0 0 0 0 0
0 0 0 0 0 0 0 0 0
0 0 0 0 0 0 0 0 0
0 0 0 0 0 0 0 0 0
0 0 0 0 0 0 0 0 0
0 0 0 0 0 0 0 0 0
0 0 0 0 0 0 0 0 0
0 0 0 0 0 0 0 0 0
0 0 0 0 0 0 0 0 0
0 0 0 0 0 0 0 0 0
0 0 0 0 0 0 0 0 0
0 0 0 0 0 0 0 0 0
0 0 0 0 0 0 0 0 0
0 0 0 0 0 0 0 0 0
0 0 0 0 0 0 0 0 0
0 0 0 0 0 0 0 0 0
0 0 0 0 0 0 0 0 0
0 0 0 0 0 0 0 0 0
0 0 0 0 0 0 0 0 0
0 0 0 0 0 0 0 0 0
0 0 0 0 0 0 0 0 0
0 0 0 0 0 0 0 0 0
0 0 0 0 0 0 0 0 0
0 0 0 0 0 0 0 0 0
0 0 0 0 0 0 0 0 0
0 0 0 0 0 0 0 0 0
0 0 0 0 0 0 0 0 0
0 0 0 0 0 0 0 0 0
0 0 0 0 0 0 0 0 0
0 0 0 0 0 0 0 0 0
0 0 0 0 0 0 0 0 0
0 0 0 0 0 0 0 0 0
0 0 0 0 0 0 0 0 0
0 0 0 0 0 0 0 0 0
0 0 0 0 0 0 0 0 0
0 0 0 0 0 0 0 0 0
0 0 0 0 0 0 0 0 0
0 0 0 0 0 0 0 0 0
0 0 0 0 0 0 0 0 0
0 0 0 0 0 0 0 0 0
0 0 0 0 0 0 0 0 0
0 0 0 0 0 0 0 0 0
0 0 0 0 0 0 0 0 0
0 0 0 0 0 0 0 0 0
0 0 0 0 0 0 0 0 0
0 0 0 0 0 0 0 0 0
0 0 0 0 0 0 0 0 0
0 0 0 0 0 0 0 0 0
0 0 0 0 0 0 0 0 0
0 0 0 0 0 0 0 0 0
0 0 0 0 0 0 0 0 0
0 0 0 0 0 0 0 0 0
0 0 0 0 0 0 0 0 0
0 0 0 0 0 0 0 0 0
0 0 0 0 0 0 0 0 0
0 0 0 0 0 0 0 0 0
0 0 0 0 0 0 0 0 0
0 0 0 0 0 0 0 0 0
0 0 0 0 0 0 0 0 0
0 0 0 0 0 0 0 0 0
0 0 0 0 0 0 0 0 0
0 0 0 0 0 0 0 0 0
0 0 0 0 0 0 0 0 0
0 0 0 0 0 0 0 0 0
0 0 0 0 0 0 0 0 0
0 0 0 0 0 0 0 0 0
0 0 0 0 0 0 0 0 0
0 0 0 0 0 0 0 0 0
0 0 0 0 0 0 0 0 0
0 0 0 0 0 0 0 0 0
0 0 0 0 0 0 0 0 0
0 0 0 0 0 0 0 0 0
0 0 0 0 0 0 0 0 0
0 0 0 0 0 0 0 0 0
0 0 0 0 0 0 0 0 0
0 0 0 0 0 0 0 0 0
0 0 0 0 0 0 0 0 0
0 0 0 0 0 0 0 0 0
0 0 0 0 0 0 0 0 0
0 0 0 0 0 0 0 0 0
0 0 0 0 0 0 0 0 0
0 0 0 0 0 0 0 0 0
0 0 0 0 0 0 0 0 0
0 0 0 0 0 0 0 0 0
0 0 0 0 0 0 0 0 0
0 0 0 0 0 0 0 0 0
0 0 0 0 0 0 0 0 0
0 0 0 0 0 0 0 0 0
0 0 0 0 0 0 0 0 0
0 0 0 0 0 0 0 0 0
0 0 0 0 0 0 0 0 0
0 0 0 0 0 0 0 0 0
0 0 0 0 0 0 0 0 0
0 0 0 0 0 0 0 0 0
0 0 0 0 0 0 0 0 0
0 0 0 0 0 0 0 0 0
0 0 0 0 0 0 0 0 0
0 0 0 0 0 0 0 0 0
0 0 0 0 0 0 0 0 0
0 0 0 0 0 0 0 0 0
0 0 0 0 0 0 0 0 0
0 0 0 0 0 0 0 0 0
0 0 0 0 0 0 0 0 0
0 0 0 0 0 0 0 0 0
0 0 0 0 0 0 0 0 0
0 0 0 0 0 0 0 0 0
0 0 0 0 0 0 0 0 0
0 0 0 0 0 0 0 0 0
0 0 0 0 0 0 0 0 0
0 0 0 0 0 0 0 0 0
0 0 0 0 0 0 0 0 0
0 0 0 0 0 0 0 0 0
0 0 0 0 0 0 0 0 0
0 0 0 0 0 0 0 0 0
0 0 0 0 0 0 0 0 0
0 0 0 0 0 0 0 0 0
0 0 0 0 0 0 0 0 0
0 0 0 0 0 0 0 0 0
0 0 0 0 0 0 0 0 0
0 0 0 0 0 0 0 0 0
0 0 0 0 0 0 0 0 0
0 0 0 0 0 0 0 0 0
0 0 0 0 0 0 0 0 0
0 0 0 0 0 0 0 0 0
0 0 0 0 0 0 0 0 0
0 0 0 0 0 0 0 0 0
0 0 0 0 0 0 0 0 0
0 0 0 0 0 0 0 0 0
0 0 0 0 0 0 0 0 0
0 0 0 0 0 0 0 0 0
0 0 0 0 0 0 0 0 0
0 0 0 0 0 0 0 0 0
0 0 0 0 0 0 0 0 0
0 0 0 0 0 0 0 0 0
0 0 0 0 0 0 0 0 0
0 0 0 0 0 0 0 0 0
0 0 0 0 0 0 0 0 0
0 0 0 0 0 0 0 0 0
0 0 0 0 0 0 0 0 0
0 0 0 0 0 0 0 0 0
0 0 0 0 0 0 0 0 0
0 0 0 0 0 0 0 0 0
0 0 0 0 0 0 0 0 0
0 0 0 0 0 0 0 0 0
0 0 0 0 0 0 0 0 0
0 0 0 0 0 0 0 0 0
0 0 0 0 0 0 0 0 0
0 0 0 0 0 0 0 0 0
0 0 0 0 0 0 0 0 0
0 0 0 0 0 0 0 0 0
0 0 0 0 0 0 0 0 0
0 0 0 0 0 0 0 0 0
0 0 0 0 0 0 0 0 0
0 0 0 0 0 0 0 0 0
0 0 0 0 0 0 0 0 0
0 0 0 0 0 0 0 0 0
0 0 0 0 0 0 0 0 0
0 0 0 0 0 0 0 0 0
0 0 0 0 0 0 0 0 0
0 0 0 0 0 0 0 0 0
0 0 0 0 0 0 0 0 0
0 0 0 0 0 0 0 0 0
0 0 0 0 0 0 0 0 0
0 0 0 0 0 0 0 0 0
0 0 0 0 0 0 0 0 0
0 0 0 0 0 0 0 0 0
0 0 0 0 0 0 0 0 0
0 0 0 0 0 0 0 0 0
0 0 0 0 0 0 0 0 0
0 0 0 0 0 0 0 0 0
0 0 0 0 0 0 0 0 0
0 0 0 0 0 0 0 0 0
0 0 0 0 0 0 0 0 0
0 0 0 0 0 0 0 0 0
0 0 0 0 0 0 0 0 0
0 0 0 0 0 0 0 0 0
0 0 0 0 0 0 0 0 0
0 0 0 0 0 0 0 0 0
0 0 0 0 0 0 0 0 0
0 0 0 0 0 0 0 0 0
0 0 0 0 0 0 0 0 0
0 0 0 0 0 0 0 0 0
0 0 0 0 0 0 0 0 0
0 0 0 0 0 0 0 0 0
0 0 0 0 0 0 0 0 0
0 0 0 0 0 0 0 0 0
0 0 0 0 0 0 0 0 0
0 0 0 0 0 0 0 0 0
0 0 0 0 0 0 0 0 0
0 0 0 0 0 0 0 0 0
0 0 0 0 0 0 0 0 0
0 0 0 0 0 0 0 0 0
0 0 0 0 0 0 0 0 0
0 0 0 0 0 0 0 0 0
0 0 0 0 0 0 0 0 0
0 0 0 0 0 0 0 0 0
0 0 0 0 0 0 0 0 0
0 0 0 0 0 0 0 0 0
0 0 0 0 0 0 0 0 0
0 0 0 0 0 0 0 0 0
0 0 0 0 0 0 0 0 0
0 0 0 0 0 0 0 0 0
0 0 0 0 0 0 0 0 0
0 0 0 0 0 0 0 0 0
0 0 0 0 0 0 0 0 0
0 0 0 0 0 0 0 0 0
0 0 0 0 0 0 0 0 0
0 0 0 0 0 0 0 0 0
0 0 0 0 0 0 0 0 0
0 0 0 0 0 0 0 0 0
0 0 0 0 0 0 0 0 0
0 0 0 0 0 0 0 0 0
0 0 0 0 0 0 0 0 0
0 0 0 0 0 0 0 0 0
0 0 0 0 0 0 0 0 0
0 0 0 0 0 0 0 0 0
0 0 0 0 0 0 0 0 0
0 0 0 0 0 0 0 0 0
0 0 0 0 0 0 0 0 0
0 0 0 0 0 0 0 0 0
0 0 0 0 0 0 0 0 0
0 0 0 0 0 0 0 0 0
0 0 0 0 0 0 0 0 0
0 0 0 0 0 0 0 0 0
0 0 0 0 0 0 0 0 0
0 0 0 0 0 0 0 0 0
0 0 0 0 0 0 0 0 0
0 0 0 0 0 0 0 0 0
0 0 0 0 0 0 0 0 0
0 0 0 0 0 0 0 0 0
0 0 0 0 0 0 0 0 0
0 0 0 0 0 0 0 0 0
0 0 0 0 0 0 0 0 0
0 0 0 0 0 0 0 0 0
0 0 0 0 0 0 0 0 0
0 0 0 0 0 0 0 0 0
0 0 0 0 0 0 0 0 0
0 0 0 0 0 0 0 0 0
0 0 0 0 0 0 0 0 0
0 0 0 0 0 0 0 0 0
0 0 0 0 0 0 0 0 0
0 0 0 0 0 0 0 0 0
0 0 0 0 0 0 0 0 0
0 0 0 0 0 0 0 0 0
0 0 0 0 0 0 0 0 0
0 0 0 0 0 0 0 0 0
0 0 0 0 0 0 0 0 0
0 0 0 0 0 0 0 0 0
0 0 0 0 0 0 0 0 0
0 0 0 0 0 0 0 0 0
0 0 0 0 0 0 0 0 0
0 0 0 0 0 0 0 0 0
0 0 0 0 0 0 0 0 0
0 0 0 0 0 0 0 0 0
0 0 0 0 0 0 0 0 0
0 0 0 0 0 0 0 0 0
0 0 0 0 0 0 0 0 0
0 0 0 0 0 0 0 0 0
0 0 0 0 0 0 0 0 0
0 0 0 0 0 0 0 0 0
0 0 0 0 0 0 0 0 0
0 0 0 0 0 0 0 0 0
0 0 0 0 0 0 0 0 0
0 0 0 0 0 0 0 0 0
0 0 0 0 0 0 0 0 0
0 0 0 0 0 0 0 0 0
0 0 0 0 0 0 0 0 0
0 0 0 0 0 0 0 0 0
0 0 0 0 0 0 0 0 0
0 0 0 0 0 0 0 0 0
0 0 0 0 0 0 0 0 0
0 0 0 0 0 0 0 0 0
0 0 0 0 0 0 0 0 0
0 0 0 0 0 0 0 0 0
0 0 0 0 0 0 0 0 0
0 0 0 0 0 0 0 0 0
0 0 0 0 0 0 0 0 0
0 0 0 0 0 0 0 0 0
0 0 0 0 0 0 0 0 0
0 0 0 0 0 0 0 0 0
0 0 0 0 0 0 0 0 0
0 0 0 0 0 0 0 0 0
0 0 0 0 0 0 0 0 0
0 0 0 0 0 0 0 0 0
0 0 0 0 0 0 0 0 0
0 0 0 0 0 0 0 0 0
0 0 0 0 0 0 0 0 0
0 0 0 0 0 0 0 0 0
0 0 0 0 0 0 0 0 0
0 0 0 0 0 0 0 0 0
0 0 0 0 0 0 0 0 0
0 0 0 0 0 0 0 0 0
0 0 0 0 0 0 0 0 0
0 0 0 0 0 0 0 0 0
0 0 0 0 0 0 0 0 0
0 0 0 0 0 0 0 0 0
0 0 0 0 0 0 0 0 0
0 0 0 0 0 0 0 0 0
0 0 0 0 0 0 0 0 0
0 0 0 0 0 0 0 0 0
0 0 0 0 0 0 0 0 0
0 0 0 0 0 0 0 0 0
0 0 0 0 0 0 0 0 0
0 0 0 0 0 0 0 0 0
0 0 0 0 0 0 0 0 0
0 0 0 0 0 0 0 0 0
0 0 0 0 0 0 0 0 0
0 0 0 0 0 0 0 0 0
0 0 0 0 0 0 0 0 0
0 0 0 0 0 0 0 0 0
0 0 0 0 0 0 0 0 0
0 0 0 0 0 0 0 0 0
0 0 0 0 0 0 0 0 0
0 0 0 0 0 0 0 0 0
0 0 0 0 0 0 0 0 0
0 0 0 0 0 0 0 0 0
0 0 0 0 0 0 0 0 0
0 0 0 0 0 0 0 0 0
0 0 0 0 0 0 0 0 0
0 0 0 0 0 0 0 0 0
0 0 0 0 0 0 0 0 0
0 0 0 0 0 0 0 0 0
0 0 0 0 0 0 0 0 0
0 0 0 0 0 0 0 0 0
0 0 0 0 0 0 0 0 0
0 0 0 0 0 0 0 0 0
0 0 0 0 0 0 0 0 0
0 0 0 0 0 0 0 0 0
0 0 0 0 0 0 0 0 0
0 0 0 0 0 0 0 0 0
0 0 0 0 0 0 0 0 0
0 0 0 0 0 0 0 0 0
0 0 0 0 0 0 0 0 0
0 0 0 0 0 0 0 0 0
0 0 0 0 0 0 0 0 0
0 0 0 0 0 0 0 0 0
0 0 0 0 0 0 0 0 0
0 0 0 0 0 0 0 0 0
0 0 0 0 0 0 0 0 0
0 0 0 0 0 0 0 0 0
0 0 0 0 0 0 0 0 0
0 0 0 0 0 0 0 0 0
0 0 0 0 0 0 0 0 0
0 0 0 0 0 0 0 0 0
0 0 0 0 0 0 0 0 0
0 0 0 0 0 0 0 0 0
0 0 0 0 0 0 0 0 0
0 0 0 0 0 0 0 0 0
0 0 0 0 0 0 0 0 0
0 0 0 0 0 0 0 0 0
0 0 0 0 0 0 0 0 0
0 0 0 0 0 0 0 0 0
0 0 0 0 0 0 0 0 0
0 0 0 0 0 0 0 0 0
0 0 0 0 0 0 0 0 0
0 0 0 0 0 0 0 0 0
0 0 0 0 0 0 0 0 0
0 0 0 0 0 0 0 0 0
0 0 0 0 0 0 0 0 0
0 0 0 0 0 0 0 0 0
0 0 0 0 0 0 0 0 0
0 0 0 0 0 0 0 0 0
0 0 0 0 0 0 0 0 0
0 0 0 0 0 0 0 0 0
0 0 0 0 0 0 0 0 0
0 0 0 0 0 0 0 0 0
0 0 0 0 0 0 0 0 0
0 0 0 0 0 0 0 0 0
0 0 0 0 0 0 0 0 0
0 0 0 0 0 0 0 0 0
0 0 0 0 0 0 0 0 0
0 0 0 0 0 0 0 0 0
0 0 0 0 0 0 0 0 0
0 0 0 0 0 0 0 0 0
0 0 0 0 0 0 0 0 0
0 0 0 0 0 0 0 0 0
0 0 0 0 0 0 0 0 0
0 0 0 0 0 0 0 0 0
0 0 0 0 0 0 0 0 0
0 0 0 0 0 0 0 0 0
0 0 0 0 0 0 0 0 0
0 0 0 0 0 0 0 0 0
0 0 0 0 0 0 0 0 0
0 0 0 0 0 0 0 0 0
0 0 0 0 0 0 0 0 0
0 0 0 0 0 0 0 0 0
0 0 0 0 0 0 0 0 0
0 0 0 0 0 0 0 0 0
0 0 0 0 0 0 0 0 0
0 0 0 0 0 0 0 0 0
0 0 0 0 0 0 0 0 0
0 0 0 0 0 0 0 0 0
0 0 0 0 0 0 0 0 0
0 0 0 0 0 0 0 0 0
0 0 0 0 0 0 0 0 0
0 0 0 0 0 0 0 0 0
0 0 0 0 0 0 0 0 0
0 0 0 0 0 0 0 0 0
0 0 0 0 0 0 0 0 0
0 0 0 0 0 0 0 0 0
0 0 0 0 0 0 0 0 0
0 0 0 0 0 0 0 0 0
0 0 0 0 0 0 0 0 0
0 0 0 0 0 0 0 0 0
0 0 0 0 0 0 0 0 0
0 0 0 0 0 0 0 0 0
0 0 0 0 0 0 0 0 0
0 0 0 0 0 0 0 0 0
0 0 0 0 0 0 0 0 0
0 0 0 0 0 0 0 0 0
0 0 0 0 0 0 0 0 0
0 0 0 0 0 0 0 0 0
0 0 0 0 0 0 0 0 0
0 0 0 0 0 0 0 0 0
0 0 0 0 0 0 0 0 0
0 0 0 0 0 0 0 0 0
0 0 0 0 0 0 0 0 0
0 0 0 0 0 0 0 0 0
0 0 0 0 0 0 0 0 0
0 0 0 0 0 0 0 0 0
0 0 0 0 0 0 0 0 0
0 0 0 0 0 0 0 0 0
0 0 0 0 0 0 0 0 0
0 0 0 0 0 0 0 0 0
0 0 0 0 0 0 0 0 0
0 0 0 0 0 0 0 0 0
0 0 0 0 0 0 0 0 0
0 0 0 0 0 0 0 0 0
0 0 0 0 0 0 0 0 0
0 0 0 0 0 0 0 0 0
0 0 0 0 0 0 0 0 0
0 0 0 0 0 0 0 0 0
0 0 0 0 0 0 0 0 0
0 0 0 0 0 0 0 0 0
0 0 0 0 0 0 0 0 0
0 0 0 0 0 0 0 0 0
0 0 0 0 0 0 0 0 0
0 0 0 0 0 0 0 0 0
0 0 0 0 0 0 0 0 0
0 0 0 0 0 0 0 0 0
0 0 0 0 0 0 0 0 0
0 0 0 0 0 0 0 0 0
0 0 0 0 0 0 0 0 0
0 0 0 0 0 0 0 0 0
0 0 0 0 0 0 0 0 0
0 0 0 0 0 0 0 0 0
0 0 0 0 0 0 0 0 0
0 0 0 0 0 0 0 0 0
0 0 0 0 0 0 0 0 0
0 0 0 0 0 0 0 0 0
0 0 0 0 0 0 0 0 0
0 0 0 0 0 0 0 0 0
0 0 0 0 0 0 0 0 0
0 0 0 0 0 0 0 0 0
0 0 0 0 0 0 0 0 0
0 0 0 0 0 0 0 0 0
0 0 0 0 0 0 0 0 0
0 0 0 0 0 0 0 0 0
0 0 0 0 0 0 0 0 0
0 0 0 0 0 0 0 0 0
0 0 0 0 0 0 0 0 0
0 0 0 0 0 0 0 0 0
0 0 0 0 0 0 0 0 0
0 0 0 0 0 0 0 0 0
0 0 0 0 0 0 0 0 0
0 0 0 0 0 0 0 0 0
0 0 0 0 0 0 0 0 0
0 0 0 0 0 0 0 0 0
0 0 0 0 0 0 0 0 0
0 0 0 0 0 0 0 0 0
0 0 0 0 0 0 0 0 0
0 0 0 0 0 0 0 0 0
0 0 0 0 0 0 0 0 0
0 0 0 0 0 0 0 0 0
0 0 0 0 0 0 0 0 0
0 0 0 0 0 0 0 0 0
0 0 0 0 0 0 0 0 0
0 0 0 0 0 0 0 0 0
0 0 0 0 0 0 0 0 0
0 0 0 0 0 0 0 0 0
0 0 0 0 0 0 0 0 0
0 0 0 0 0 0 0 0 0
0 0 0 0 0 0 0 0 0
0 0 0 0 0 0 0 0 0
0 0 0 0 0 0 0 0 0
0 0 0 0 0 0 0 0 0
0 0 0 0 0 0 0 0 0
0 0 0 0 0 0 0 0 0
0 0 0 0 0 0 0 0 0
0 0 0 0 0 0 0 0 0
0 0 0 0 0 0 0 0 0
0 0 0 0 0 0 0 0 0
0 0 0 0 0 0 0 0 0
0 0 0 0 0 0 0 0 0
0 0 0 0 0 0 0 0 0
0 0 0 0 0 0 0 0 0
0 0 0 0 0 0 0 0 0
0 0 0 0 0 0 0 0 0
0 0 0 0 0 0 0 0 0
0 0 0 0 0 0 0 0 0
0 0 0 0 0 0 0 0 0
0 0 0 0 0 0 0 0 0
0 0 0 0 0 0 0 0 0
0 0 0 0 0 0 0 0 0
0 0 0 0 0 0 0 0 0
0 0 0 0 0 0 0 0 0
0 0 0 0 0 0 0 0 0
0 0 0 0 0 0 0 0 0
0 0 0 0 0 0 0 0 0
0 0 0 0 0 0 0 0 0
0 0 0 0 0 0 0 0 0
0 0 0 0 0 0 0 0 0
0 0 0 0 0 0 0 0 0
0 0 0 0 0 0 0 0 0
0 0 0 0 0 0 0 0 0
0 0 0 0 0 0 0 0 0
0 0 0 0 0 0 0 0 0
0 0 0 0 0 0 0 0 0
0 0 0 0 0 0 0 0 0
0 0 0 0 0 0 0 0 0
0 0 0 0 0 0 0 0 0
0 0 0 0 0 0 0 0 0
0 0 0 0 0 0 0 0 0
0 0 0 0 0 0 0 0 0
0 0 0 0 0 0 0 0 0
0 0 0 0 0 0 0 0 0
0 0 0 0 0 0 0 0 0
0 0 0 0 0 0 0 0 0
0 0 0 0 0 0 0 0 0
0 0 0 0 0 0 0 0 0
0 0 0 0 0 0 0 0 0
0 0 0 0 0 0 0 0 0
0 0 0 0 0 0 0 0 0
0 0 0 0 0 0 0 0 0
0 0 0 0 0 0 0 0 0
0 0 0 0 0 0 0 0 0
0 0 0 0 0 0 0 0 0
0 0 0 0 0 0 0 0 0
0 0 0 0 0 0 0 0 0
0 0 0 0 0 0 0 0 0
0 0 0 0 0 0 0 0 0
0 0 0 0 0 0 0 0 0
0 0 0 0 0 0 0 0 0
0 0 0 0 0 0 0 0 0
0 0 0 0 0 0 0 0 0
0 0 0 0 0 0 0 0 0
0 0 0 0 0 0 0 0 0
0 0 0 0 0 0 0 0 0
0 0 0 0 0 0 0 0 0
0 0 0 0 0 0 0 0 0
0 0 0 0 0 0 0 0 0
0 0 0 0 0 0 0 0 0
0 0 0 0 0 0 0 0 0
0 0 0 0 0 0 0 0 0
0 0 0 0 0 0 0 0 0
0 0 0 0 0 0 0 0 0
0 0 0 0 0 0 0 0 0
0 0 0 0 0 0 0 0 0
0 0 0 0 0 0 0 0 0
0 0 0 0 0 0 0 0 0
0 0 0 0 0 0 0 0 0
0 0 0 0 0 0 0 0 0
0 0 0 0 0 0 0 0 0
0 0 0 0 0 0 0 0 0
0 0 0 0 0 0 0 0 0
0 0 0 0 0 0 0 0 0
0 0 0 0 0 0 0 0 0
0 0 0 0 0 0 0 0 0
0 0 0 0 0 0 0 0 0
0 0 0 0 0 0 0 0 0
0 0 0 0 0 0 0 0 0
0 0 0 0 0 0 0 0 0
0 0 0 0 0 0 0 0 0
0 0 0 0 0 0 0 0 0
0 0 0 0 0 0 0 0 0
0 0 0 0 0 0 0 0 0
0 0 0 0 0 0 0 0 0
0 0 0 0 0 0 0 0 0
0 0 0 0 0 0 0 0 0
0 0 0 0 0 0 0 0 0
0 0 0 0 0 0 0 0 0
0 0 0 0 0 0 0 0 0
0 0 0 0 0 0 0 0 0
0 0 0 0 0 0 0 0 0
0 0 0 0 0 0 0 0 0
0 0 0 0 0 0 0 0 0
0 0 0 0 0 0 0 0 0
0 0 0 0 0 0 0 0 0
0 0 0 0 0 0 0 0 0
0 0 0 0 0 0 0 0 0
0 0 0 0 0 0 0 0 0
0 0 0 0 0 0 0 0 0
0 0 0 0 0 0 0 0 0
0 0 0 0 0 0 0 0 0
0 0 0 0 0 0 0 0 0
0 0 0 0 0 0 0 0 0
0 0 0 0 0 0 0 0 0
0 0 0 0 0 0 0 0 0
0 0 0 0 0 0 0 0 0
0 0 0 0 0 0 0 0 0
0 0 0 0 0 0 0 0 0
0 0 0 0 0 0 0 0 0
0 0 0 0 0 0 0 0 0
0 0 0 0 0 0 0 0 0
0 0 0 0 0 0 0 0 0
0 0 0 0 0 0 0 0 0
0 0 0 0 0 0 0 0 0
0 0 0 0 0 0 0 0 0
0 0 0 0 0 0 0 0 0
0 0 0 0 0 0 0 0 0
0 0 0 0 0 0 0 0 0
0 0 0 0 0 0 0 0 0
0 0 0 0 0 0 0 0 0
0 0 0 0 0 0 0 0 0
0 0 0 0 0 0 0 0 0
0 0 0 0 0 0 0 0 0
0 0 0 0 0 0 0 0 0
0 0 0 0 0 0 0 0 0
0 0 0 0 0 0 0 0 0
0 0 0 0 0 0 0 0 0
0 0 0 0 0 0 0 0 0
0 0 0 0 0 0 0 0 0
0 0 0 0 0 0 0 0 0
0 0 0 0 0 0 0 0 0
0 0 0 0 0 0 0 0 0
0 0 0 0 0 0 0 0 0
0 0 0 0 0 0 0 0 0
0 0 0 0 0 0 0 0 0
0 0 0 0 0 0 0 0 0
0 0 0 0 0 0 0 0 0
0 0 0 0 0 0 0 0 0
0 0 0 0 0 0 0 0 0
0 0 0 0 0 0 0 0 0
0 0 0 0 0 0 0 0 0
0 0 0 0 0 0 0 0 0
0 0 0 0 0 0 0 0 0
0 0 0 0 0 0 0 0 0
0 0 0 0 0 0 0 0 0
0 0 0 0 0 0 0 0 0
0 0 0 0 0 0 0 0 0
0 0 0 0 0 0 0 0 0
0 0 0 0 0 0 0 0 0
0 0 0 0 0 0 0 0 0
0 0 0 0 0 0 0 0 0
0 0 0 0 0 0 0 0 0
0 0 0 0 0 0 0 0 0
0 0 0 0 0 0 0 0 0
0 0 0 0 0 0 0 0 0
0 0 0 0 0 0 0 0 0
0 0 0 0 0 0 0 0 0
0 0 0 0 0 0 0 0 0
0 0 0 0 0 0 0 0 0
0 0 0 0 0 0 0 0 0
0 0 0 0 0 0 0 0 0
0 0 0 0 0 0 0 0 0
0 0 0 0 0 0 0 0 0
0 0 0 0 0 0 0 0 0
0 0 0 0 0 0 0 0 0
0 0 0 0 0 0 0 0 0
0 0 0 0 0 0 0 0 0
0 0 0 0 0 0 0 0 0
0 0 0 0 0 0 0 0 0
0 0 0 0 0 0 0 0 0
0 0 0 0 0 0 0 0 0
0 0 0 0 0 0 0 0 0
0 0 0 0 0 0 0 0 0
0 0 0 0 0 0 0 0 0
0 0 0 0 0 0 0 0 0
0 0 0 0 0 0 0 0 0
0 0 0 0 0 0 0 0 0
0 0 0 0 0 0 0 0 0
0 0 0 0 0 0 0 0 0
0 0 0 0 0 0 0 0 0
0 0 0 0 0 0 0 0 0
0 0 0 0 0 0 0 0 0
0 0 0 0 0 0 0 0 0
0 0 0 0 0 0 0 0 0
0 0 0 0 0 0 0 0 0
0 0 0 0 0 0 0 0 0
0 0 0 0 0 0 0 0 0
0 0 0 0 0 0 0 0 0
0 0 0 0 0 0 0 0 0
0 0 0 0 0 0 0 0 0
0 0 0 0 0 0 0 0 0
0 0 0 0 0 0 0 0 0
0 0 0 0 0 0 0 0 0
0 0 0 0 0 0 0 0 0
0 0 0 0 0 0 0 0 0
0 0 0 0 0 0 0 0 0
0 0 0 0 0 0 0 0 0
0 0 0 0 0 0 0 0 0
0 0 0 0 0 0 0 0 0
0 0 0 0 0 0 0 0 0
0 0 0 0 0 0 0 0 0
0 0 0 0 0 0 0 0 0
0 0 0 0 0 0 0 0 0
0 0 0 0 0 0 0 0 0
0 0 0 0 0 0 0 0 0
0 0 0 0 0 0 0 0 0
0 0 0 0 0 0 0 0 0
0 0 0 0 0 0 0 0 0
0 0 0 0 0 0 0 0 0
0 0 0 0 0 0 0 0 0
0 0 0 0 0 0 0 0 0
0 0 0 0 0 0 0 0 0
0 0 0 0 0 0 0 0 0
0 0 0 0 0 0 0 0 0
0 0 0 0 0 0 0 0 0
0 0 0 0 0 0 0 0 0
0 0 0 0 0 0 0 0 0
0 0 0 0 0 0 0 0 0
0 0 0 0 0 0 0 0 0
0 0 0 0 0 0 0 0 0
0 0 0 0 0 0 0 0 0
0 0 0 0 0 0 0 0 0
0 0 0 0 0 0 0 0 0
0 0 0 0 0 0 0 0 0
0 0 0 0 0 0 0 0 0
0 0 0 0 0 0 0 0 0
0 0 0 0 0 0 0 0 0
0 0 0 0 0 0 0 0 0
0 0 0 0 0 0 0 0 0
0 0 0 0 0 0 0 0 0
0 0 0 0 0 0 0 0 0
0 0 0 0 0 0 0 0 0
0 0 0 0 0 0 0 0 0
0 0 0 0 0 0 0 0 0
0 0 0 0 0 0 0 0 0
0 0 0 0 0 0 0 0 0
0 0 0 0 0 0 0 0 0
0 0 0 0 0 0 0 0 0
0 0 0 0 0 0 0 0 0
0 0 0 0 0 0 0 0 0
0 0 0 0 0 0 0 0 0
0 0 0 0 0 0 0 0 0
0 0 0 0 0 0 0 0 0
0 0 0 0 0 0 0 0 0
0 0 0 0 0 0 0 0 0
0 0 0 0 0 0 0 0 0
0 0 0 0 0 0 0 0 0
0 0 0 0 0 0 0 0 0
0 0 0 0 0 0 0 0 0
0 0 0 0 0 0 0 0 0
0 0 0 0 0 0 0 0 0
0 0 0 0 0 0 0 0 0
0 0 0 0 0 0 0 0 0
0 0 0 0 0 0 0 0 0
0 0 0 0 0 0 0 0 0
0 0 0 0 0 0 0 0 0
0 0 0 0 0 0 0 0 0
0 0 0 0 0 0 0 0 0
0 0 0 0 0 0 0 0 0
0 0 0 0 0 0 0 0 0
0 0 0 0 0 0 0 0 0
0 0 0 0 0 0 0 0 0
0 0 0 0 0 0 0 0 0
0 0 0 0 0 0 0 0 0
0 0 0 0 0 0 0 0 0
0 0 0 0 0 0 0 0 0
0 0 0 0 0 0 0 0 0
0 0 0 0 0 0 0 0 0
0 0 0 0 0 0 0 0 0
0 0 0 0 0 0 0 0 0
0 0 0 0 0 0 0 0 0
0 0 0 0 0 0 0 0 0
0 0 0 0 0 0 0 0 0
0 0 0 0 0 0 0 0 0
0 0 0 0 0 0 0 0 0
0 0 0 0 0 0 0 0 0
0 0 0 0 0 0 0 0 0
0 0 0 0 0 0 0 0 0
0 0 0 0 0 0 0 0 0
0 0 0 0 0 0 0 0 0
0 0 0 0 0 0 0 0 0
0 0 0 0 0 0 0 0 0
0 0 0 0 0 0 0 0 0
0 0 0 0 0 0 0 0 0
0 0 0 0 0 0 0 0 0
0 0 0 0 0 0 0 0 0
0 0 0 0 0 0 0 0 0
0 0 0 0 0 0 0 0 0
0 0 0 0 0 0 0 0 0
0 0 0 0 0 0 0 0 0
0 0 0 0 0 0 0 0 0
0 0 0 0 0 0 0 0 0
0 0 0 0 0 0 0 0 0
0 0 0 0 0 0 0 0 0
0 0 0 0 0 0 0 0 0
0 0 0 0 0 0 0 0 0
0 0 0 0 0 0 0 0 0
0 0 0 0 0 0 0 0 0
0 0 0 0 0 0 0 0 0
0 0 0 0 0 0 0 0 0
0 0 0 0 0 0 0 0 0
0 0 0 0 0 0 0 0 0
0 0 0 0 0 0 0 0 0
0 0 0 0 0 0 0 0 0
0 0 0 0 0 0 0 0 0
0 0 0 0 0 0 0 0 0
0 0 0 0 0 0 0 0 0
0 0 0 0 0 0 0 0 0
0 0 0 0 0 0 0 0 0
0 0 0 0 0 0 0 0 0
0 0 0 0 0 0 0 0 0
0 0 0 0 0 0 0 0 0
0 0 0 0 0 0 0 0 0
0 0 0 0 0 0 0 0 0
0 0 0 0 0 0 0 0 0
0 0 0 0 0 0 0 0 0
0 0 0 0 0 0 0 0 0
0 0 0 0 0 0 0 0 0
0 0 0 0 0 0 0 0 0
0 0 0 0 0 0 0 0 0
0 0 0 0 0 0 0 0 0
0 0 0 0 0 0 0 0 0
0 0 0 0 0 0 0 0 0
0 0 0 0 0 0 0 0 0
0 0 0 0 0 0 0 0 0
0 0 0 0 0 0 0 0 0
0 0 0 0 0 0 0 0 0
0 0 0 0 0 0 0 0 0
0 0 0 0 0 0 0 0 0
0 0 0 0 0 0 0 0 0
0 0 0 0 0 0 0 0 0
0 0 0 0 0 0 0 0 0
0 0 0 0 0 0 0 0 0
0 0 0 0 0 0 0 0 0
0 0 0 0 0 0 0 0 0
0 0 0 0 0 0 0 0 0
0 0 0 0 0 0 0 0 0
0 0 0 0 0 0 0 0 0
0 0 0 0 0 0 0 0 0
0 0 0 0 0 0 0 0 0
0 0 0 0 0 0 0 0 0
0 0 0 0 0 0 0 0 0
0 0 0 0 0 0 0 0 0
0 0 0 0 0 0 0 0 0
0 0 0 0 0 0 0 0 0
0 0 0 0 0 0 0 0 0
0 0 0 0 0 0 0 0 0
0 0 0 0 0 0 0 0 0
0 0 0 0 0 0 0 0 0
0 0 0 0 0 0 0 0 0
0 0 0 0 0 0 0 0 0
0 0 0 0 0 0 0 0 0
0 0 0 0 0 0 0 0 0
0 0 0 0 0 0 0 0 0
0 0 0 0 0 0 0 0 0
0 0 0 0 0 0 0 0 0
0 0 0 0 0 0 0 0 0
0 0 0 0 0 0 0 0 0
0 0 0 0 0 0 0 0 0
0 0 0 0 0 0 0 0 0
0 0 0 0 0 0 0 0 0
0 0 0 0 0 0 0 0 0
0 0 0 0 0 0 0 0 0
0 0 0 0 0 0 0 0 0
0 0 0 0 0 0 0 0 0
0 0 0 0 0 0 0 0 0
0 0 0 0 0 0 0 0 0
0 0 0 0 0 0 0 0 0
0 0 0 0 0 0 0 0 0
0 0 0 0 0 0 0 0 0
0 0 0 0 0 0 0 0 0
0 0 0 0 0 0 0 0 0
0 0 0 0 0 0 0 0 0
0 0 0 0 0 0 0 0 0
0 0 0 0 0 0 0 0 0
0 0 0 0 0 0 0 0 0
0 0 0 0 0 0 0 0 0
0 0 0 0 0 0 0 0 0
0 0 0 0 0 0 0 0 0
0 0 0 0 0 0 0 0 0
0 0 0 0 0 0 0 0 0
0 0 0 0 0 0 0 0 0
0 0 0 0 0 0 0 0 0
0 0 0 0 0 0 0 0 0
0 0 0 0 0 0 0 0 0
0 0 0 0 0 0 0 0 0
0 0 0 0 0 0 0 0 0
0 0 0 0 0 0 0 0 0
0 0 0 0 0 0 0 0 0
0 0 0 0 0 0 0 0 0
0 0 0 0 0 0 0 0 0
0 0 0 0 0 0 0 0 0
0 0 0 0 0 0 0 0 0
0 0 0 0 0 0 0 0 0
0 0 0 0 0 0 0 0 0
0 0 0 0 0 0 0 0 0
0 0 0 0 0 0 0 0 0
0 0 0 0 0 0 0 0 0
0 0 0 0 0 0 0 0 0
0 0 0 0 0 0 0 0 0
0 0 0 0 0 0 0 0 0
0 0 0 0 0 0 0 0 0
0 0 0 0 0 0 0 0 0
0 0 0 0 0 0 0 0 0
0 0 0 0 0 0 0 0 0
0 0 0 0 0 0 0 0 0
0 0 0 0 0 0 0 0 0
0 0 0 0 0 0 0 0 0
0 0 0 0 0 0 0 0 0
0 0 0 0 0 0 0 0 0
0 0 0 0 0 0 0 0 0
0 0 0 0 0 0 0 0 0
0 0 0 0 0 0 0 0 0
0 0 0 0 0 0 0 0 0
0 0 0 0 0 0 0 0 0
0 0 0 0 0 0 0 0 0
0 0 0 0 0 0 0 0 0
0 0 0 0 0 0 0 0 0
0 0 0 0 0 0 0 0 0
0 0 0 0 0 0 0 0 0
0 0 0 0 0 0 0 0 0
0 0 0 0 0 0 0 0 0
0 0 0 0 0 0 0 0 0
0 0 0 0 0 0 0 0 0
0 0 0 0 0 0 0 0 0
0 0 0 0 0 0 0 0 0
0 0 0 0 0 0 0 0 0
0 0 0 0 0 0 0 0 0
0 0 0 0 0 0 0 0 0
0 0 0 0 0 0 0 0 0
0 0 0 0 0 0 0 0 0
0 0 0 0 0 0 0 0 0
0 0 0 0 0 0 0 0 0
0 0 0 0 0 0 0 0 0
0 0 0 0 0 0 0 0 0
0 0 0 0 0 0 0 0 0
0 0 0 0 0 0 0 0 0
0 0 0 0 0 0 0 0 0
0 0 0 0 0 0 0 0 0
0 0 0 0 0 0 0 0 0
0 0 0 0 0 0 0 0 0
0 0 0 0 0 0 0 0 0
0 0 0 0 0 0 0 0 0
0 0 0 0 0 0 0 0 0
0 0 0 0 0 0 0 0 0
0 0 0 0 0 0 0 0 0
0 0 0 0 0 0 0 0 0
0 0 0 0 0 0 0 0 0
0 0 0 0 0 0 0 0 0
0 0 0 0 0 0 0 0 0
0 0 0 0 0 0 0 0 0
0 0 0 0 0 0 0 0 0
0 0 0 0 0 0 0 0 0
0 0 0 0 0 0 0 0 0
0 0 0 0 0 0 0 0 0
0 0 0 0 0 0 0 0 0
0 0 0 0 0 0 0 0 0
0 0 0 0 0 0 0 0 0
0 0 0 0 0 0 0 0 0
0 0 0 0 0 0 0 0 0
0 0 0 0 0 0 0 0 0
0 0 0 0 0 0 0 0 0
0 0 0 0 0 0 0 0 0
SCALARS max_shear_normal_tau double 9
LOOKUP_TABLE default
0 0 0 0 0 0 0 0 0
0 0 0 0 0 0 0 0 0
0 0 0 0 0 0 0 0 0
0 0 0 0 0 0 0 0 0
0 0 0 0 0 0 0 0 0
0 0 0 0 0 0 0 0 0
0 0 0 0 0 0 0 0 0
0 0 0 0 0 0 0 0 0
0 0 0 0 0 0 0 0 0
0 0 0 0 0 0 0 0 0
0 0 0 0 0 0 0 0 0
0 0 0 0 0 0 0 0 0
0 0 0 0 0 0 0 0 0
0 0 0 0 0 0 0 0 0
0 0 0 0 0 0 0 0 0
0 0 0 0 0 0 0 0 0
0 0 0 0 0 0 0 0 0
0 0 0 0 0 0 0 0 0
0 0 0 0 0 0 0 0 0
0 0 0 0 0 0 0 0 0
0 0 0 0 0 0 0 0 0
0 0 0 0 0 0 0 0 0
0 0 0 0 0 0 0 0 0
0 0 0 0 0 0 0 0 0
0 0 0 0 0 0 0 0 0
0 0 0 0 0 0 0 0 0
0 0 0 0 0 0 0 0 0
0 0 0 0 0 0 0 0 0
0 0 0 0 0 0 0 0 0
0 0 0 0 0 0 0 0 0
0 0 0 0 0 0 0 0 0
0 0 0 0 0 0 0 0 0
0 0 0 0 0 0 0 0 0
0 0 0 0 0 0 0 0 0
0 0 0 0 0 0 0 0 0
0 0 0 0 0 0 0 0 0
0 0 0 0 0 0 0 0 0
0 0 0 0 0 0 0 0 0
0 0 0 0 0 0 0 0 0
0 0 0 0 0 0 0 0 0
0 0 0 0 0 0 0 0 0
0 0 0 0 0 0 0 0 0
0 0 0 0 0 0 0 0 0
0 0 0 0 0 0 0 0 0
0 0 0 0 0 0 0 0 0
0 0 0 0 0 0 0 0 0
0 0 0 0 0 0 0 0 0
0 0 0 0 0 0 0 0 0
0 0 0 0 0 0 0 0 0
0 0 0 0 0 0 0 0 0
0 0 0 0 0 0 0 0 0
0 0 0 0 0 0 0 0 0
0 0 0 0 0 0 0 0 0
0 0 0 0 0 0 0 0 0
0 0 0 0 0 0 0 0 0
0 0 0 0 0 0 0 0 0
0 0 0 0 0 0 0 0 0
0 0 0 0 0 0 0 0 0
0 0 0 0 0 0 0 0 0
0 0 0 0 0 0 0 0 0
0 0 0 0 0 0 0 0 0
0 0 0 0 0 0 0 0 0
0 0 0 0 0 0 0 0 0
0 0 0 0 0 0 0 0 0
0 0 0 0 0 0 0 0 0
0 0 0 0 0 0 0 0 0
0 0 0 0 0 0 0 0 0
0 0 0 0 0 0 0 0 0
0 0 0 0 0 0 0 0 0
0 0 0 0 0 0 0 0 0
0 0 0 0 0 0 0 0 0
0 0 0 0 0 0 0 0 0
0 0 0 0 0 0 0 0 0
0 0 0 0 0 0 0 0 0
0 0 0 0 0 0 0 0 0
0 0 0 0 0 0 0 0 0
0 0 0 0 0 0 0 0 0
0 0 0 0 0 0 0 0 0
0 0 0 0 0 0 0 0 0
0 0 0 0 0 0 0 0 0
0 0 0 0 0 0 0 0 0
0 0 0 0 0 0 0 0 0
0 0 0 0 0 0 0 0 0
0 0 0 0 0 0 0 0 0
0 0 0 0 0 0 0 0 0
0 0 0 0 0 0 0 0 0
0 0 0 0 0 0 0 0 0
0 0 0 0 0 0 0 0 0
0 0 0 0 0 0 0 0 0
0 0 0 0 0 0 0 0 0
0 0 0 0 0 0 0 0 0
0 0 0 0 0 0 0 0 0
0 0 0 0 0 0 0 0 0
0 0 0 0 0 0 0 0 0
0 0 0 0 0 0 0 0 0
0 0 0 0 0 0 0 0 0
0 0 0 0 0 0 0 0 0
0 0 0 0 0 0 0 0 0
0 0 0 0 0 0 0 0 0
0 0 0 0 0 0 0 0 0
0 0 0 0 0 0 0 0 0
0 0 0 0 0 0 0 0 0
0 0 0 0 0 0 0 0 0
0 0 0 0 0 0 0 0 0
0 0 0 0 0 0 0 0 0
0 0 0 0 0 0 0 0 0
0 0 0 0 0 0 0 0 0
0 0 0 0 0 0 0 0 0
0 0 0 0 0 0 0 0 0
0 0 0 0 0 0 0 0 0
0 0 0 0 0 0 0 0 0
0 0 0 0 0 0 0 0 0
0 0 0 0 0 0 0 0 0
0 0 0 0 0 0 0 0 0
0 0 0 0 0 0 0 0 0
0 0 0 0 0 0 0 0 0
0 0 0 0 0 0 0 0 0
0 0 0 0 0 0 0 0 0
0 0 0 0 0 0 0 0 0
0 0 0 0 0 0 0 0 0
0 0 0 0 0 0 0 0 0
0 0 0 0 0 0 0 0 0
0 0 0 0 0 0 0 0 0
0 0 0 0 0 0 0 0 0
0 0 0 0 0 0 0 0 0
0 0 0 0 0 0 0 0 0
0 0 0 0 0 0 0 0 0
0 0 0 0 0 0 0 0 0
0 0 0 0 0 0 0 0 0
0 0 0 0 0 0 0 0 0
0 0 0 0 0 0 0 0 0
0 0 0 0 0 0 0 0 0
0 0 0 0 0 0 0 0 0
0 0 0 0 0 0 0 0 0
0 0 0 0 0 0 0 0 0
0 0 0 0 0 0 0 0 0
0 0 0 0 0 0 0 0 0
0 0 0 0 0 0 0 0 0
0 0 0 0 0 0 0 0 0
0 0 0 0 0 0 0 0 0
0 0 0 0 0 0 0 0 0
0 0 0 0 0 0 0 0 0
0 0 0 0 0 0 0 0 0
0 0 0 0 0 0 0 0 0
0 0 0 0 0 0 0 0 0
0 0 0 0 0 0 0 0 0
0 0 0 0 0 0 0 0 0
0 0 0 0 0 0 0 0 0
0 0 0 0 0 0 0 0 0
0 0 0 0 0 0 0 0 0
0 0 0 0 0 0 0 0 0
0 0 0 0 0 0 0 0 0
0 0 0 0 0 0 0 0 0
0 0 0 0 0 0 0 0 0
0 0 0 0 0 0 0 0 0
0 0 0 0 0 0 0 0 0
0 0 0 0 0 0 0 0 0
0 0 0 0 0 0 0 0 0
0 0 0 0 0 0 0 0 0
0 0 0 0 0 0 0 0 0
0 0 0 0 0 0 0 0 0
0 0 0 0 0 0 0 0 0
0 0 0 0 0 0 0 0 0
0.661498 0.69223 0.65938 0.689703 0.661498 0.69223 0.65938 0.689703 0
0.715195 0.747205 0.71238 0.744012 0.715195 0.747205 0.71238 0.744012 0
0.665858 0.697247 0.66323 0.694247 0.665858 0.697247 0.66323 0.694247 0
0.720746 0.753558 0.717433 0.749759 0.720746 0.753558 0.717433 0.749759 0
0.778102 0.812349 0.77396 0.807752 0.778102 0.812349 0.77396 0.807752 0
0.837976 0.873747 0.833042 0.868347 0.837976 0.873747 0.833042 0.868347 0
0.900508 0.937859 0.894764 0.931635 0.900508 0.937859 0.894764 0.931635 0
0.965777 1.00471 0.959187 0.997598 0.965777 1.00471 0.959187 0.997598 0
1.03379 1.0743 1.02627 1.06621 1.03379 1.0743 1.02627 1.06621 0
1.10452 1.14658 1.09598 1.1374 1.10452 1.14658 1.09598 1.1374 0
1.17791 1.22149 1.16823 1.21108 1.17791 1.22149 1.16823 1.21108 0
0.727284 0.760831 0.723383 0.756521 0.727284 0.760831 0.723383 0.756521 0
0.785927 0.820949 0.781305 0.815881 0.785927 0.820949 0.781305 0.815881 0
0.847158 0.883748 0.841754 0.877869 0.847158 0.883748 0.841754 0.877869 0
0.911128 0.949353 0.904889 0.942603 0.911128 0.949353 0.904889 0.942603 0
0.97794 1.01783 0.970799 1.01013 0.97794 1.01783 0.970799 1.01013 0
1.04764 1.08921 1.03951 1.08046 1.04764 1.08921 1.03951 1.08046 0
1.12025 1.1635 1.11102 1.15357 1.12025 1.1635 1.11102 1.15357 0
0.734853 0.769107 0.730354 0.7642 0.734853 0.769107 0.730354 0.7642 0
0.794744 0.830539 0.789524 0.824872 0.794744 0.830539 0.789524 0.824872 0
0.857335 0.894758 0.851329 0.888269 0.857335 0.894758 0.851329 0.888269 0
0.922773 0.961901 0.915916 0.954519 0.922773 0.961901 0.915916 0.954519 0
0.991181 1.03207 0.983397 1.0237 0.991181 1.03207 0.983397 1.0237 0
1.06265 1.10533 1.05384 1.09587 1.06265 1.10533 1.05384 1.09587 0
1.13723 1.18172 1.12727 1.17104 1.13723 1.18172 1.12727 1.17104 0
0.743476 0.778435 0.738365 0.772917 0.743476 0.778435 0.738365 0.772917 0
0.804614 0.841185 0.798783 0.834906 0.804614 0.841185 0.798783 0.834906 0
0.868574 0.906843 0.861952 0.899731 0.868574 0.906843 0.861952 0.899731 0
0.935506 0.975561 0.928018 0.967534 0.935506 0.975561 0.928018 0.967534 0
1.00556 1.04747 0.997114 1.03843 1.00556 1.04747 0.997114 1.03843 0
1.07885 1.12269 1.06934 1.11251 1.07885 1.12269 1.06934 1.11251 0
0.753167 0.788828 0.747439 0.782695 0.753167 0.788828 0.747439 0.782695 0
0.815548 0.852898 0.809102 0.846002 0.815548 0.852898 0.809102 0.846002 0
0.880886 0.920015 0.873643 0.912274 0.880886 0.920015 0.873643 0.912274 0
0.94934 0.990346 0.941215 0.981669 0.94934 0.990346 0.941215 0.981669 0
1.02108 1.06405 1.01197 1.05433 1.02108 1.06405 1.01197 1.05433 0
1.09626 1.1413 1.08605 1.1304 1.09626 1.1413 1.08605 1.1304 0
0.763918 0.800278 0.757579 0.793536 0.763918 0.800278 0.757579 0.793536 0
0.827539 0.865673 0.820485 0.858165 0.827539 0.865673 0.820485 0.858165 0
0.894266 0.934267 0.886408 0.925904 0.894266 0.934267 0.886408 0.925904 0
0.964267 1.00625 0.955512 0.996928 0.964267 1.00625 0.955512 0.996928 0
1.03774 1.08183 1.02798 1.07142 1.03774 1.08183 1.02798 1.07142 0
1.11489 1.16116 1.10398 1.14954 1.11489 1.16116 1.10398 1.14954 0
0.775689 0.812747 0.768767 0.805422 0.775689 0.812747 0.768767 0.805422 0
0.840552 0.879474 0.832913 0.871379 0.840552 0.879474 0.832913 0.871379 0
0.908679 0.949567 0.900229 0.940603 0.908679 0.949567 0.900229 0.940603 0
0.980257 1.02324 0.970893 1.01329 0.980257 1.02324 0.970893 1.01329 0
1.05551 1.10074 1.04512 1.08968 1.05551 1.10074 1.04512 1.08968 0
0.72542 0.761396 0.718596 0.75423 0.72542 0.761396 0.718596 0.75423 0
0.788384 0.826157 0.780942 0.8183 0.788384 0.826157 0.780942 0.8183 0
0.854513 0.894229 0.846336 0.885593 0.854513 0.894229 0.846336 0.885593 0
0.924054 0.965844 0.915059 0.956326 0.924054 0.965844 0.915059 0.956326 0
0.997239 1.04125 0.987311 1.03072 0.997239 1.04125 0.987311 1.03072 0
1.07432 1.12072 1.06333 1.10905 1.07432 1.12072 1.06333 1.10905 0
0.737889 0.774462 0.730588 0.766814 0.737889 0.774462 0.730588 0.766814 0
0.801923 0.840394 0.794003 0.832074 0.801923 0.840394 0.794003 0.832074 0
0.869298 0.909812 0.860662 0.900714 0.869298 0.909812 0.860662 0.900714 0
0.940264 0.982972 0.930804 0.972979 0.940264 0.982972 0.930804 0.972979 0
1.01509 1.06017 1.00468 1.04913 1.01509 1.06017 1.00468 1.04913 0
1.09407 1.14166 1.08255 1.12945 1.09407 1.14166 1.08255 1.12945 0
0.574623 0.606604 0.568188 0.599986 0.574623 0.606604 0.568188 0.599986 0
0.630576 0.664098 0.62381 0.657111 0.630576 0.664098 0.62381 0.657111 0
0.689269 0.724528 0.682101 0.717087 0.689269 0.724528 0.682101 0.717087 0
0.751024 0.788169 0.743364 0.780182 0.751024 0.788169 0.743364 0.780182 0
0.816092 0.855253 0.80784 0.846602 0.816092 0.855253 0.80784 0.846602 0
0.884701 0.926018 0.875736 0.916588 0.884701 0.926018 0.875736 0.916588 0
0.957103 1.00074 0.947307 0.990406 0.957103 1.00074 0.947307 0.990406 0
1.0336 1.07976 1.02284 1.06837 1.0336 1.07976 1.02284 1.06837 0
0.586177 0.618418 0.579444 0.611543 0.586177 0.618418 0.579444 0.611543 0
0.64261 0.676474 0.635613 0.669286 0.64261 0.676474 0.635613 0.669286 0
0.701932 0.737635 0.694582 0.730032 0.701932 0.737635 0.694582 0.730032 0
0.764496 0.802197 0.756685 0.794067 0.764496 0.802197 0.756685 0.794067 0
0.830574 0.87042 0.822182 0.861632 0.830574 0.87042 0.822182 0.861632 0
0.900413 0.942534 0.891311 0.932967 0.900413 0.942534 0.891311 0.932967 0
0.974257 1.01883 0.964321 1.00835 0.974257 1.01883 0.964321 1.00835 0
1.05244 1.0997 1.04152 1.08815 1.05244 1.0997 1.04152 1.08815 0
0.597832 0.630284 0.591107 0.623441 0.597832 0.630284 0.591107 0.623441 0
0.654671 0.688854 0.647718 0.681718 0.654671 0.688854 0.647718 0.681718 0
0.714575 0.750676 0.70729 0.743166 0.714575 0.750676 0.70729 0.743166 0
0.777857 0.816031 0.770169 0.808082 0.777857 0.816031 0.770169 0.808082 0
0.844832 0.885366 0.836642 0.876778 0.844832 0.885366 0.836642 0.876778 0
0.915914 0.958862 0.907004 0.949471 0.915914 0.958862 0.907004 0.949471 0
0.991244 1.0368 0.981469 1.02645 0.991244 1.0368 0.981469 1.02645 0
1.07116 1.11953 1.06037 1.1081 1.07116 1.11953 1.06037 1.1081 0
0 0 0 0 0 0 0 0 0
0 0 0 0 0 0 0 0 0
0 0 0 0 0 0 0 0 0
0 0 0 0 0 0 0 0 0
0 0 0 0 0 0 0 0 0
0 0 0 0 0 0 0 0 0
0 0 0 0 0 0 0 0 0
0 0 0 0 0 0 0 0 0
0 0 0 0 0 0 0 0 0
0 0 0 0 0 0 0 0 0
0 0 0 0 0 0 0 0 0
0 0 0 0 0 0 0 0 0
0 0 0 0 0 0 0 0 0
0 0 0 0 0 0 0 0 0
0 0 0 0 0 0 0 0 0
0 0 0 0 0 0 0 0 0
0 0 0 0 0 0 0 0 0
0 0 0 0 0 0 0 0 0
0 0 0 0 0 0 0 0 0
0 0 0 0 0 0 0 0 0
0 0 0 0 0 0 0 0 0
0 0 0 0 0 0 0 0 0
0 0 0 0 0 0 0 0 0
0 0 0 0 0 0 0 0 0
0 0 0 0 0 0 0 0 0
0 0 0 0 0 0 0 0 0
0 0 0 0 0 0 0 0 0
0 0 0 0 0 0 0 0 0
0 0 0 0 0 0 0 0 0
0 0 0 0 0 0 0 0 0
0 0 0 0 0 0 0 0 0
0 0 0 0 0 0 0 0 0
0 0 0 0 0 0 0 0 0
0 0 0 0 0 0 0 0 0
0 0 0 0 0 0 0 0 0
0 0 0 0 0 0 0 0 0
0 0 0 0 0 0 0 0 0
0 0 0 0 0 0 0 0 0
0 0 0 0 0 0 0 0 0
0 0 0 0 0 0 0 0 0
0 0 0 0 0 0 0 0 0
0 0 0 0 0 0 0 0 0
0 0 0 0 0 0 0 0 0
0 0 0 0 0 0 0 0 0
0 0 0 0 0 0 0 0 0
0 0 0 0 0 0 0 0 0
0 0 0 0 0 0 0 0 0
0 0 0 0 0 0 0 0 0
0 0 0 0 0 0 0 0 0
0 0 0 0 0 0 0 0 0
0 0 0 0 0 0 0 0 0
0 0 0 0 0 0 0 0 0
0 0 0 0 0 0 0 0 0
0 0 0 0 0 0 0 0 0
0 0 0 0 0 0 0 0 0
0 0 0 0 0 0 0 0 0
0 0 0 0 0 0 0 0 0
0 0 0 0 0 0 0 0 0
0 0 0 0 0 0 0 0 0
0 0 0 0 0 0 0 0 0
0 0 0 0 0 0 0 0 0
0 0 0 0 0 0 0 0 0
0 0 0 0 0 0 0 0 0
0 0 0 0 0 0 0 0 0
0 0 0 0 0 0 0 0 0
0 0 0 0 0 0 0 0 0
0 0 0 0 0 0 0 0 0
0 0 0 0 0 0 0 0 0
0 0 0 0 0 0 0 0 0
0 0 0 0 0 0 0 0 0
0 0 0 0 0 0 0 0 0
0 0 0 0 0 0 0 0 0
0 0 0 0 0 0 0 0 0
0 0 0 0 0 0 0 0 0
0 0 0 0 0 0 0 0 0
0 0 0 0 0 0 0 0 0
0 0 0 0 0 0 0 0 0
0 0 0 0 0 0 0 0 0
0 0 0 0 0 0 0 0 0
0 0 0 0 0 0 0 0 0
0 0 0 0 0 0 0 0 0
0 0 0 0 0 0 0 0 0
0 0 0 0 0 0 0 0 0
0 0 0 0 0 0 0 0 0
0 0 0 0 0 0 0 0 0
0 0 0 0 0 0 0 0 0
0 0 0 0 0 0 0 0 0
0 0 0 0 0 0 0 0 0
0 0 0 0 0 0 0 0 0
0 0 0 0 0 0 0 0 0
0 0 0 0 0 0 0 0 0
0 0 0 0 0 0 0 0 0
0 0 0 0 0 0 0 0 0
0 0 0 0 0 0 0 0 0
0 0 0 0 0 0 0 0 0
0 0 0 0 0 0 0 0 0
0 0 0 0 0 0 0 0 0
0 0 0 0 0 0 0 0 0
0 0 0 0 0 0 0 0 0
0 0 0 0 0 0 0 0 0
0 0 0 0 0 0 0 0 0
0 0 0 0 0 0 0 0 0
0 0 0 0 0 0 0 0 0
0 0 0 0 0 0 0 0 0
0 0 0 0 0 0 0 0 0
0 0 0 0 0 0 0 0 0
0 0 0 0 0 0 0 0 0
0 0 0 0 0 0 0 0 0
0 0 0 0 0 0 0 0 0
0 0 0 0 0 0 0 0 0
0 0 0 0 0 0 0 0 0
0 0 0 0 0 0 0 0 0
0 0 0 0 0 0 0 0 0
0 0 0 0 0 0 0 0 0
0 0 0 0 0 0 0 0 0
0 0 0 0 0 0 0 0 0
0 0 0 0 0 0 0 0 0
0 0 0 0 0 0 0 0 0
0 0 0 0 0 0 0 0 0
0 0 0 0 0 0 0 0 0
0 0 0 0 0 0 0 0 0
0 0 0 0 0 0 0 0 0
0 0 0 0 0 0 0 0 0
0 0 0 0 0 0 0 0 0
0 0 0 0 0 0 0 0 0
0 0 0 0 0 0 0 0 0
0 0 0 0 0 0 0 0 0
0 0 0 0 0 0 0 0 0
0 0 0 0 0 0 0 0 0
0 0 0 0 0 0 0 0 0
0 0 0 0 0 0 0 0 0
0 0 0 0 0 0 0 0 0
0 0 0 0 0 0 0 0 0
0 0 0 0 0 0 0 0 0
0 0 0 0 0 0 0 0 0
0 0 0 0 0 0 0 0 0
0 0 0 0 0 0 0 0 0
0 0 0 0 0 0 0 0 0
0 0 0 0 0 0 0 0 0
0 0 0 0 0 0 0 0 0
0 0 0 0 0 0 0 0 0
0 0 0 0 0 0 0 0 0
0 0 0 0 0 0 0 0 0
0 0 0 0 0 0 0 0 0
0 0 0 0 0 0 0 0 0
0 0 0 0 0 0 0 0 0
0 0 0 0 0 0 0 0 0
0 0 0 0 0 0 0 0 0
0 0 0 0 0 0 0 0 0
0 0 0 0 0 0 0 0 0
0 0 0 0 0 0 0 0 0
0 0 0 0 0 0 0 0 0
0 0 0 0 0 0 0 0 0
0 0 0 0 0 0 0 0 0
0 0 0 0 0 0 0 0 0
0 0 0 0 0 0 0 0 0
0 0 0 0 0 0 0 0 0
0 0 0 0 0 0 0 0 0
0 0 0 0 0 0 0 0 0
0 0 0 0 0 0 0 0 0
0 0 0 0 0 0 0 0 0
0 0 0 0 0 0 0 0 0
0 0 0 0 0 0 0 0 0
0 0 0 0 0 0 0 0 0
0 0 0 0 0 0 0 0 0
0 0 0 0 0 0 0 0 0
0 0 0 0 0 0 0 0 0
0 0 0 0 0 0 0 0 0
0 0 0 0 0 0 0 0 0
0 0 0 0 0 0 0 0 0
0 0 0 0 0 0 0 0 0
0 0 0 0 0 0 0 0 0
0 0 0 0 0 0 0 0 0
0 0 0 0 0 0 0 0 0
0 0 0 0 0 0 0 0 0
0 0 0 0 0 0 0 0 0
0 0 0 0 0 0 0 0 0
0 0 0 0 0 0 0 0 0
0 0 0 0 0 0 0 0 0
0 0 0 0 0 0 0 0 0
0 0 0 0 0 0 0 0 0
0 0 0 0 0 0 0 0 0
0 0 0 0 0 0 0 0 0
0 0 0 0 0 0 0 0 0
0 0 0 0 0 0 0 0 0
0 0 0 0 0 0 0 0 0
0 0 0 0 0 0 0 0 0
0 0 0 0 0 0 0 0 0
0 0 0 0 0 0 0 0 0
0 0 0 0 0 0 0 0 0
0 0 0 0 0 0 0 0 0
0 0 0 0 0 0 0 0 0
0 0 0 0 0 0 0 0 0
0 0 0 0 0 0 0 0 0
0 0 0 0 0 0 0 0 0
0 0 0 0 0 0 0 0 0
0 0 0 0 0 0 0 0 0
0 0 0 0 0 0 0 0 0
0 0 0 0 0 0 0 0 0
0 0 0 0 0 0 0 0 0
0 0 0 0 0 0 0 0 0
0 0 0 0 0 0 0 0 0
0 0 0 0 0 0 0 0 0
0 0 0 0 0 0 0 0 0
0 0 0 0 0 0 0 0 0
0 0 0 0 0 0 0 0 0
0 0 0 0 0 0 0 0 0
0 0 0 0 0 0 0 0 0
0 0 0 0 0 0 0 0 0
0 0 0 0 0 0 0 0 0
0 0 0 0 0 0 0 0 0
0 0 0 0 0 0 0 0 0
0 0 0 0 0 0 0 0 0
0 0 0 0 0 0 0 0 0
0 0 0 0 0 0 0 0 0
0 0 0 0 0 0 0 0 0
0 0 0 0 0 0 0 0 0
0 0 0 0 0 0 0 0 0
0 0 0 0 0 0 0 0 0
0 0 0 0 0 0 0 0 0
0 0 0 0 0 0 0 0 0
0 0 0 0 0 0 0 0 0
0 0 0 0 0 0 0 0 0
0 0 0 0 0 0 0 0 0
0 0 0 0 0 0 0 0 0
0 0 0 0 0 0 0 0 0
0 0 0 0 0 0 0 0 0
0 0 0 0 0 0 0 0 0
0 0 0 0 0 0 0 0 0
0 0 0 0 0 0 0 0 0
0 0 0 0 0 0 0 0 0
0 0 0 0 0 0 0 0 0
0 0 0 0 0 0 0 0 0
0 0 0 0 0 0 0 0 0
0 0 0 0 0 0 0 0 0
0 0 0 0 0 0 0 0 0
0 0 0 0 0 0 0 0 0
0 0 0 0 0 0 0 0 0
0 0 0 0 0 0 0 0 0
0 0 0 0 0 0 0 0 0
0 0 0 0 0 0 0 0 0
0 0 0 0 0 0 0 0 0
0 0 0 0 0 0 0 0 0
0 0 0 0 0 0 0 0 0
0 0 0 0 0 0 0 0 0
0 0 0 0 0 0 0 0 0
0 0 0 0 0 0 0 0 0
0 0 0 0 0 0 0 0 0
0 0 0 0 0 0 0 0 0
0 0 0 0 0 0 0 0 0
0 0 0 0 0 0 0 0 0
0 0 0 0 0 0 0 0 0
0 0 0 0 0 0 0 0 0
0 0 0 0 0 0 0 0 0
0 0 0 0 0 0 0 0 0
0 0 0 0 0 0 0 0 0
0 0 0 0 0 0 0 0 0
0 0 0 0 0 0 0 0 0
0 0 0 0 0 0 0 0 0
0 0 0 0 0 0 0 0 0
0 0 0 0 0 0 0 0 0
0 0 0 0 0 0 0 0 0
0 0 0 0 0 0 0 0 0
0 0 0 0 0 0 0 0 0
0 0 0 0 0 0 0 0 0
0 0 0 0 0 0 0 0 0
0 0 0 0 0 0 0 0 0
0 0 0 0 0 0 0 0 0
0 0 0 0 0 0 0 0 0
0 0 0 0 0 0 0 0 0
0 0 0 0 0 0 0 0 0
0 0 0 0 0 0 0 0 0
0 0 0 0 0 0 0 0 0
0 0 0 0 0 0 0 0 0
0 0 0 0 0 0 0 0 0
0 0 0 0 0 0 0 0 0
0 0 0 0 0 0 0 0 0
0 0 0 0 0 0 0 0 0
0 0 0 0 0 0 0 0 0
0 0 0 0 0 0 0 0 0
0 0 0 0 0 0 0 0 0
0 0 0 0 0 0 0 0 0
0 0 0 0 0 0 0 0 0
0 0 0 0 0 0 0 0 0
0 0 0 0 0 0 0 0 0
0 0 0 0 0 0 0 0 0
0 0 0 0 0 0 0 0 0
0 0 0 0 0 0 0 0 0
0 0 0 0 0 0 0 0 0
0 0 0 0 0 0 0 0 0
0 0 0 0 0 0 0 0 0
0 0 0 0 0 0 0 0 0
0 0 0 0 0 0 0 0 0
0 0 0 0 0 0 0 0 0
0 0 0 0 0 0 0 0 0
0 0 0 0 0 0 0 0 0
0 0 0 0 0 0 0 0 0
0 0 0 0 0 0 0 0 0
0 0 0 0 0 0 0 0 0
0 0 0 0 0 0 0 0 0
0 0 0 0 0 0 0 0 0
0 0 0 0 0 0 0 0 0
0 0 0 0 0 0 0 0 0
0 0 0 0 0 0 0 0 0
0 0 0 0 0 0 0 0 0
0 0 0 0 0 0 0 0 0
0 0 0 0 0 0 0 0 0
0 0 0 0 0 0 0 0 0
0 0 0 0 0 0 0 0 0
0 0 0 0 0 0 0 0 0
0 0 0 0 0 0 0 0 0
0 0 0 0 0 0 0 0 0
0 0 0 0 0 0 0 0 0
0 0 0 0 0 0 0 0 0
0 0 0 0 0 0 0 0 0
0 0 0 0 0 0 0 0 0
0 0 0 0 0 0 0 0 0
0 0 0 0 0 0 0 0 0
0 0 0 0 0 0 0 0 0
0 0 0 0 0 0 0 0 0
0 0 0 0 0 0 0 0 0
0 0 0 0 0 0 0 0 0
0 0 0 0 0 0 0 0 0
0 0 0 0 0 0 0 0 0
0 0 0 0 0 0 0 0 0
0 0 0 0 0 0 0 0 0
0 0 0 0 0 0 0 0 0
0 0 0 0 0 0 0 0 0
0 0 0 0 0 0 0 0 0
0 0 0 0 0 0 0 0 0
0 0 0 0 0 0 0 0 0
0 0 0 0 0 0 0 0 0
0 0 0 0 0 0 0 0 0
0 0 0 0 0 0 0 0 0
0 0 0 0 0 0 0 0 0
0 0 0 0 0 0 0 0 0
0 0 0 0 0 0 0 0 0
0 0 0 0 0 0 0 0 0
0 0 0 0 0 0 0 0 0
0 0 0 0 0 0 0 0 0
0 0 0 0 0 0 0 0 0
0 0 0 0 0 0 0 0 0
0 0 0 0 0 0 0 0 0
0 0 0 0 0 0 0 0 0
0 0 0 0 0 0 0 0 0
0 0 0 0 0 0 0 0 0
0 0 0 0 0 0 0 0 0
0 0 0 0 0 0 0 0 0
0 0 0 0 0 0 0 0 0
0 0 0 0 0 0 0 0 0
0 0 0 0 0 0 0 0 0
0 0 0 0 0 0 0 0 0
0 0 0 0 0 0 0 0 0
0 0 0 0 0 0 0 0 0
0 0 0 0 0 0 0 0 0
0 0 0 0 0 0 0 0 0
0 0 0 0 0 0 0 0 0
0 0 0 0 0 0 0 0 0
0 0 0 0 0 0 0 0 0
0 0 0 0 0 0 0 0 0
0 0 0 0 0 0 0 0 0
0 0 0 0 0 0 0 0 0
0 0 0 0 0 0 0 0 0
0 0 0 0 0 0 0 0 0
0 0 0 0 0 0 0 0 0
0 0 0 0 0 0 0 0 0
0 0 0 0 0 0 0 0 0
0 0 0 0 0 0 0 0 0
0 0 0 0 0 0 0 0 0
0 0 0 0 0 0 0 0 0
0 0 0 0 0 0 0 0 0
0 0 0 0 0 0 0 0 0
0 0 0 0 0 0 0 0 0
0 0 0 0 0 0 0 0 0
0 0 0 0 0 0 0 0 0
0 0 0 0 0 0 0 0 0
0 0 0 0 0 0 0 0 0
0 0 0 0 0 0 0 0 0
0 0 0 0 0 0 0 0 0
0 0 0 0 0 0 0 0 0
0 0 0 0 0 0 0 0 0
0 0 0 0 0 0 0 0 0
0 0 0 0 0 0 0 0 0
0 0 0 0 0 0 0 0 0
0 0 0 0 0 0 0 0 0
0 0 0 0 0 0 0 0 0
0 0 0 0 0 0 0 0 0
0 0 0 0 0 0 0 0 0
0 0 0 0 0 0 0 0 0
0 0 0 0 0 0 0 0 0
0 0 0 0 0 0 0 0 0
0 0 0 0 0 0 0 0 0
0 0 0 0 0 0 0 0 0
0 0 0 0 0 0 0 0 0
0 0 0 0 0 0 0 0 0
0 0 0 0 0 0 0 0 0
0 0 0 0 0 0 0 0 0
0 0 0 0 0 0 0 0 0
0 0 0 0 0 0 0 0 0
0 0 0 0 0 0 0 0 0
0 0 0 0 0 0 0 0 0
0 0 0 0 0 0 0 0 0
0 0 0 0 0 0 0 0 0
0 0 0 0 0 0 0 0 0
0 0 0 0 0 0 0 0 0
0 0 0 0 0 0 0 0 0
0 0 0 0 0 0 0 0 0
0 0 0 0 0 0 0 0 0
0 0 0 0 0 0 0 0 0
0 0 0 0 0 0 0 0 0
0 0 0 0 0 0 0 0 0
0 0 0 0 0 0 0 0 0
0 0 0 0 0 0 0 0 0
0 0 0 0 0 0 0 0 0
0 0 0 0 0 0 0 0 0
0 0 0 0 0 0 0 0 0
0 0 0 0 0 0 0 0 0
0 0 0 0 0 0 0 0 0
0 0 0 0 0 0 0 0 0
0 0 0 0 0 0 0 0 0
0 0 0 0 0 0 0 0 0
0 0 0 0 0 0 0 0 0
0 0 0 0 0 0 0 0 0
0 0 0 0 0 0 0 0 0
0 0 0 0 0 0 0 0 0
0 0 0 0 0 0 0 0 0
0 0 0 0 0 0 0 0 0
0 0 0 0 0 0 0 0 0
0 0 0 0 0 0 0 0 0
0 0 0 0 0 0 0 0 0
0 0 0 0 0 0 0 0 0
0 0 0 0 0 0 0 0 0
0 0 0 0 0 0 0 0 0
0 0 0 0 0 0 0 0 0
0 0 0 0 0 0 0 0 0
0 0 0 0 0 0 0 0 0
0 0 0 0 0 0 0 0 0
0 0 0 0 0 0 0 0 0
0 0 0 0 0 0 0 0 0
0 0 0 0 0 0 0 0 0
0 0 0 0 0 0 0 0 0
0 0 0 0 0 0 0 0 0
0 0 0 0 0 0 0 0 0
0 0 0 0 0 0 0 0 0
0 0 0 0 0 0 0 0 0
0 0 0 0 0 0 0 0 0
0 0 0 0 0 0 0 0 0
0 0 0 0 0 0 0 0 0
0 0 0 0 0 0 0 0 0
0 0 0 0 0 0 0 0 0
0 0 0 0 0 0 0 0 0
0 0 0 0 0 0 0 0 0
0 0 0 0 0 0 0 0 0
0 0 0 0 0 0 0 0 0
0 0 0 0 0 0 0 0 0
0 0 0 0 0 0 0 0 0
0 0 0 0 0 0 0 0 0
0 0 0 0 0 0 0 0 0
0 0 0 0 0 0 0 0 0
0 0 0 0 0 0 0 0 0
0 0 0 0 0 0 0 0 0
0 0 0 0 0 0 0 0 0
0 0 0 0 0 0 0 0 0
0 0 0 0 0 0 0 0 0
0 0 0 0 0 0 0 0 0
0 0 0 0 0 0 0 0 0
0 0 0 0 0 0 0 0 0
0 0 0 0 0 0 0 0 0
0 0 0 0 0 0 0 0 0
0 0 0 0 0 0 0 0 0
0 0 0 0 0 0 0 0 0
0 0 0 0 0 0 0 0 0
0 0 0 0 0 0 0 0 0
0 0 0 0 0 0 0 0 0
0 0 0 0 0 0 0 0 0
0 0 0 0 0 0 0 0 0
0 0 0 0 0 0 0 0 0
0 0 0 0 0 0 0 0 0
0 0 0 0 0 0 0 0 0
0 0 0 0 0 0 0 0 0
0 0 0 0 0 0 0 0 0
0 0 0 0 0 0 0 0 0
0 0 0 0 0 0 0 0 0
0 0 0 0 0 0 0 0 0
0 0 0 0 0 0 0 0 0
0 0 0 0 0 0 0 0 0
0 0 0 0 0 0 0 0 0
0 0 0 0 0 0 0 0 0
0 0 0 0 0 0 0 0 0
0 0 0 0 0 0 0 0 0
0 0 0 0 0 0 0 0 0
0 0 0 0 0 0 0 0 0
0 0 0 0 0 0 0 0 0
0 0 0 0 0 0 0 0 0
0 0 0 0 0 0 0 0 0
0 0 0 0 0 0 0 0 0
0 0 0 0 0 0 0 0 0
0 0 0 0 0 0 0 0 0
0 0 0 0 0 0 0 0 0
0 0 0 0 0 0 0 0 0
0 0 0 0 0 0 0 0 0
0 0 0 0 0 0 0 0 0
0 0 0 0 0 0 0 0 0
0 0 0 0 0 0 0 0 0
0 0 0 0 0 0 0 0 0
0 0 0 0 0 0 0 0 0
0 0 0 0 0 0 0 0 0
0 0 0 0 0 0 0 0 0
0 0 0 0 0 0 0 0 0
0 0 0 0 0 0 0 0 0
0 0 0 0 0 0 0 0 0
0 0 0 0 0 0 0 0 0
0 0 0 0 0 0 0 0 0
0 0 0 0 0 0 0 0 0
0 0 0 0 0 0 0 0 0
0 0 0 0 0 0 0 0 0
0 0 0 0 0 0 0 0 0
0 0 0 0 0 0 0 0 0
0 0 0 0 0 0 0 0 0
0 0 0 0 0 0 0 0 0
0 0 0 0 0 0 0 0 0
0 0 0 0 0 0 0 0 0
0 0 0 0 0 0 0 0 0
0 0 0 0 0 0 0 0 0
0 0 0 0 0 0 0 0 0
0 0 0 0 0 0 0 0 0
0 0 0 0 0 0 0 0 0
0 0 0 0 0 0 0 0 0
0 0 0 0 0 0 0 0 0
0 0 0 0 0 0 0 0 0
0 0 0 0 0 0 0 0 0
0 0 0 0 0 0 0 0 0
0 0 0 0 0 0 0 0 0
0 0 0 0 0 0 0 0 0
0 0 0 0 0 0 0 0 0
0 0 0 0 0 0 0 0 0
0 0 0 0 0 0 0 0 0
0 0 0 0 0 0 0 0 0
0 0 0 0 0 0 0 0 0
0 0 0 0 0 0 0 0 0
0 0 0 0 0 0 0 0 0
0 0 0 0 0 0 0 0 0
0 0 0 0 0 0 0 0 0
0 0 0 0 0 0 0 0 0
0 0 0 0 0 0 0 0 0
0 0 0 0 0 0 0 0 0
0 0 0 0 0 0 0 0 0
0 0 0 0 0 0 0 0 0
0 0 0 0 0 0 0 0 0
0 0 0 0 0 0 0 0 0
0 0 0 0 0 0 0 0 0
0 0 0 0 0 0 0 0 0
0 0 0 0 0 0 0 0 0
0 0 0 0 0 0 0 0 0
0 0 0 0 0 0 0 0 0
0 0 0 0 0 0 0 0 0
0 0 0 0 0 0 0 0 0
0 0 0 0 0 0 0 0 0
0 0 0 0 0 0 0 0 0
0 0 0 0 0 0 0 0 0
0 0 0 0 0 0 0 0 0
0 0 0 0 0 0 0 0 0
0 0 0 0 0 0 0 0 0
0 0 0 0 0 0 0 0 0
0 0 0 0 0 0 0 0 0
0 0 0 0 0 0 0 0 0
0 0 0 0 0 0 0 0 0
0 0 0 0 0 0 0 0 0
0 0 0 0 0 0 0 0 0
0 0 0 0 0 0 0 0 0
0 0 0 0 0 0 0 0 0
0 0 0 0 0 0 0 0 0
0 0 0 0 0 0 0 0 0
0 0 0 0 0 0 0 0 0
0 0 0 0 0 0 0 0 0
0 0 0 0 0 0 0 0 0
0 0 0 0 0 0 0 0 0
0 0 0 0 0 0 0 0 0
0 0 0 0 0 0 0 0 0
0 0 0 0 0 0 0 0 0
0 0 0 0 0 0 0 0 0
0 0 0 0 0 0 0 0 0
0 0 0 0 0 0 0 0 0
0 0 0 0 0 0 0 0 0
0 0 0 0 0 0 0 0 0
0 0 0 0 0 0 0 0 0
0 0 0 0 0 0 0 0 0
0 0 0 0 0 0 0 0 0
0 0 0 0 0 0 0 0 0
0 0 0 0 0 0 0 0 0
0 0 0 0 0 0 0 0 0
0 0 0 0 0 0 0 0 0
0 0 0 0 0 0 0 0 0
0 0 0 0 0 0 0 0 0
0 0 0 0 0 0 0 0 0
0 0 0 0 0 0 0 0 0
0 0 0 0 0 0 0 0 0
0 0 0 0 0 0 0 0 0
0 0 0 0 0 0 0 0 0
0 0 0 0 0 0 0 0 0
0 0 0 0 0 0 0 0 0
0 0 0 0 0 0 0 0 0
0 0 0 0 0 0 0 0 0
0 0 0 0 0 0 0 0 0
0 0 0 0 0 0 0 0 0
0 0 0 0 0 0 0 0 0
0 0 0 0 0 0 0 0 0
0 0 0 0 0 0 0 0 0
0 0 0 0 0 0 0 0 0
0 0 0 0 0 0 0 0 0
0 0 0 0 0 0 0 0 0
0 0 0 0 0 0 0 0 0
0 0 0 0 0 0 0 0 0
0 0 0 0 0 0 0 0 0
0 0 0 0 0 0 0 0 0
0 0 0 0 0 0 0 0 0
0 0 0 0 0 0 0 0 0
0 0 0 0 0 0 0 0 0
0 0 0 0 0 0 0 0 0
0 0 0 0 0 0 0 0 0
0 0 0 0 0 0 0 0 0
0 0 0 0 0 0 0 0 0
0 0 0 0 0 0 0 0 0
0 0 0 0 0 0 0 0 0
0 0 0 0 0 0 0 0 0
0 0 0 0 0 0 0 0 0
0 0 0 0 0 0 0 0 0
0 0 0 0 0 0 0 0 0
0 0 0 0 0 0 0 0 0
0 0 0 0 0 0 0 0 0
0 0 0 0 0 0 0 0 0
0 0 0 0 0 0 0 0 0
0 0 0 0 0 0 0 0 0
0 0 0 0 0 0 0 0 0
0 0 0 0 0 0 0 0 0
0 0 0 0 0 0 0 0 0
0 0 0 0 0 0 0 0 0
0 0 0 0 0 0 0 0 0
0 0 0 0 0 0 0 0 0
0 0 0 0 0 0 0 0 0
0 0 0 0 0 0 0 0 0
0 0 0 0 0 0 0 0 0
0 0 0 0 0 0 0 0 0
0 0 0 0 0 0 0 0 0
0 0 0 0 0 0 0 0 0
0 0 0 0 0 0 0 0 0
0 0 0 0 0 0 0 0 0
0 0 0 0 0 0 0 0 0
0 0 0 0 0 0 0 0 0
0 0 0 0 0 0 0 0 0
0 0 0 0 0 0 0 0 0
0 0 0 0 0 0 0 0 0
0 0 0 0 0 0 0 0 0
0 0 0 0 0 0 0 0 0
0 0 0 0 0 0 0 0 0
0 0 0 0 0 0 0 0 0
0 0 0 0 0 0 0 0 0
0 0 0 0 0 0 0 0 0
0 0 0 0 0 0 0 0 0
0 0 0 0 0 0 0 0 0
0 0 0 0 0 0 0 0 0
0 0 0 0 0 0 0 0 0
0 0 0 0 0 0 0 0 0
0 0 0 0 0 0 0 0 0
0 0 0 0 0 0 0 0 0
0 0 0 0 0 0 0 0 0
0 0 0 0 0 0 0 0 0
0 0 0 0 0 0 0 0 0
0 0 0 0 0 0 0 0 0
0 0 0 0 0 0 0 0 0
0 0 0 0 0 0 0 0 0
0 0 0 0 0 0 0 0 0
0 0 0 0 0 0 0 0 0
0 0 0 0 0 0 0 0 0
0 0 0 0 0 0 0 0 0
0 0 0 0 0 0 0 0 0
0 0 0 0 0 0 0 0 0
0 0 0 0 0 0 0 0 0
0 0 0 0 0 0 0 0 0
0 0 0 0 0 0 0 0 0
0 0 0 0 0 0 0 0 0
0 0 0 0 0 0 0 0 0
0 0 0 0 0 0 0 0 0
0 0 0 0 0 0 0 0 0
0 0 0 0 0 0 0 0 0
0 0 0 0 0 0 0 0 0
0 0 0 0 0 0 0 0 0
0 0 0 0 0 0 0 0 0
0 0 0 0 0 0 0 0 0
0 0 0 0 0 0 0 0 0
0 0 0 0 0 0 0 0 0
0 0 0 0 0 0 0 0 0
0 0 0 0 0 0 0 0 0
0 0 0 0 0 0 0 0 0
0 0 0 0 0 0 0 0 0
0 0 0 0 0 0 0 0 0
0 0 0 0 0 0 0 0 0
0 0 0 0 0 0 0 0 0
0 0 0 0 0 0 0 0 0
0 0 0 0 0 0 0 0 0
0 0 0 0 0 0 0 0 0
0 0 0 0 0 0 0 0 0
0 0 0 0 0 0 0 0 0
0 0 0 0 0 0 0 0 0
0 0 0 0 0 0 0 0 0
0 0 0 0 0 0 0 0 0
0 0 0 0 0 0 0 0 0
0 0 0 0 0 0 0 0 0
0 0 0 0 0 0 0 0 0
0 0 0 0 0 0 0 0 0
0 0 0 0 0 0 0 0 0
0 0 0 0 0 0 0 0 0
0 0 0 0 0 0 0 0 0
0 0 0 0 0 0 0 0 0
0 0 0 0 0 0 0 0 0
0 0 0 0 0 0 0 0 0
0 0 0 0 0 0 0 0 0
0 0 0 0 0 0 0 0 0
0 0 0 0 0 0 0 0 0
0 0 0 0 0 0 0 0 0
0 0 0 0 0 0 0 0 0
0 0 0 0 0 0 0 0 0
0 0 0 0 0 0 0 0 0
0 0 0 0 0 0 0 0 0
0 0 0 0 0 0 0 0 0
0 0 0 0 0 0 0 0 0
0 0 0 0 0 0 0 0 0
0 0 0 0 0 0 0 0 0
0 0 0 0 0 0 0 0 0
0 0 0 0 0 0 0 0 0
0 0 0 0 0 0 0 0 0
0 0 0 0 0 0 0 0 0
0 0 0 0 0 0 0 0 0
0 0 0 0 0 0 0 0 0
0 0 0 0 0 0 0 0 0
0 0 0 0 0 0 0 0 0
0 0 0 0 0 0 0 0 0
0 0 0 0 0 0 0 0 0
0 0 0 0 0 0 0 0 0
0 0 0 0 0 0 0 0 0
0 0 0 0 0 0 0 0 0
0 0 0 0 0 0 0 0 0
0 0 0 0 0 0 0 0 0
0 0 0 0 0 0 0 0 0
0 0 0 0 0 0 0 0 0
0 0 0 0 0 0 0 0 0
0 0 0 0 0 0 0 0 0
0 0 0 0 0 0 0 0 0
0 0 0 0 0 0 0 0 0
0 0 0 0 0 0 0 0 0
0 0 0 0 0 0 0 0 0
0 0 0 0 0 0 0 0 0
0 0 0 0 0 0 0 0 0
0 0 0 0 0 0 0 0 0
0 0 0 0 0 0 0 0 0
0 0 0 0 0 0 0 0 0
1.18202 1.23819 1.17917 1.23463 1.18202 1.23819 1.17917 1.23463 0
1.28018 1.33875 1.27609 1.33393 1.28018 1.33875 1.27609 1.33393 0
1.18848 1.24587 1.1845 1.24119 1.18848 1.24587 1.1845 1.24119 0
1.28882 1.34877 1.28358 1.34272 1.28882 1.34877 1.28358 1.34272 0
1.39362 1.45622 1.38697 1.44874 1.39362 1.45622 1.38697 1.44874 0
1.50303 1.56833 1.49492 1.55934 1.50303 1.56833 1.49492 1.55934 0
1.61711 1.6851 1.60746 1.67451 1.61711 1.6851 1.60746 1.67451 0
1.73582 1.80641 1.72451 1.79407 1.73582 1.80641 1.72451 1.79407 0
1.85898 1.93205 1.84584 1.91777 1.85898 1.93205 1.84584 1.91777 0
1.98635 2.06167 1.97118 2.04522 1.98635 2.06167 1.97118 2.04522 0
2.11751 2.19475 2.10005 2.17586 2.11751 2.19475 2.10005 2.17586 0
1.29955 1.36079 1.29309 1.3536 1.29955 1.36079 1.29309 1.3536 0
1.40661 1.47059 1.39888 1.46207 1.40661 1.47059 1.39888 1.46207 0
1.51845 1.58525 1.50932 1.57526 1.51845 1.58525 1.50932 1.57526 0
1.63519 1.70484 1.62453 1.69322 1.63519 1.70484 1.62453 1.69322 0
1.75684 1.82929 1.74447 1.81584 1.75684 1.82929 1.74447 1.81584 0
1.8833 1.95845 1.86901 1.94294 1.8833 1.95845 1.86901 1.94294 0
2.01436 2.09202 1.99791 2.0742 2.01436 2.09202 1.99791 2.0742 0
1.31256 1.375 1.30476 1.36651 1.31256 1.375 1.30476 1.36651 0
1.42175 1.48707 1.41273 1.47728 1.42175 1.48707 1.41273 1.47728 0
1.53596 1.60425 1.52558 1.59301 1.53596 1.60425 1.52558 1.59301 0
1.65534 1.72666 1.64343 1.71379 1.65534 1.72666 1.64343 1.71379 0
1.77996 1.8543 1.76634 1.83959 1.77996 1.8543 1.76634 1.83959 0
1.90979 1.98707 1.89422 1.97026 1.90979 1.98707 1.89422 1.97026 0
2.04465 2.12473 2.02687 2.10554 2.04465 2.12473 2.02687 2.10554 0
1.32798 1.39158 1.31877 1.38171 1.32798 1.39158 1.31877 1.38171 0
1.43924 1.50586 1.42884 1.49472 1.43924 1.50586 1.42884 1.49472 0
1.55577 1.62552 1.54404 1.61295 1.55577 1.62552 1.54404 1.61295 0
1.67776 1.75075 1.66453 1.73655 1.67776 1.75075 1.66453 1.73655 0
1.80536 1.88161 1.79041 1.86555 1.80536 1.88161 1.79041 1.86555 0
1.93859 2.01807 1.92166 1.99987 1.93859 2.01807 1.92166 1.99987 0
1.34595 1.41066 1.33526 1.39933 1.34595 1.41066 1.33526 1.39933 0
1.45918 1.52708 1.44735 1.51452 1.45918 1.52708 1.44735 1.51452 0
1.57798 1.64919 1.56485 1.63522 1.57798 1.64919 1.56485 1.63522 0
1.70256 1.77722 1.68794 1.76163 1.70256 1.77722 1.68794 1.76163 0
1.83315 1.91132 1.8168 1.89386 1.83315 1.91132 1.8168 1.89386 0
1.96983 2.05155 1.95149 2.03191 1.96983 2.05155 1.95149 2.03191 0
1.36657 1.43234 1.35433 1.4195 1.36657 1.43234 1.35433 1.4195 0
1.4817 1.55083 1.46838 1.53679 1.4817 1.55083 1.46838 1.53679 0
1.60271 1.67536 1.58811 1.65993 1.60271 1.67536 1.58811 1.65993 0
1.72987 1.80619 1.71379 1.78915 1.72987 1.80619 1.71379 1.78915 0
1.86344 1.94358 1.84563 1.92463 1.86344 1.94358 1.84563 1.92463 0
2.00363 2.08762 1.98379 2.06647 2.00363 2.08762 1.98379 2.06647 0
1.38989 1.45669 1.37609 1.4423 1.38989 1.45669 1.37609 1.4423 0
1.50687 1.57721 1.49201 1.56165 1.50687 1.57721 1.49201 1.56165 0
1.63005 1.70412 1.61394 1.68719 1.63005 1.70412 1.61394 1.68719 0
1.75976 1.83776 1.74217 1.81921 1.75976 1.83776 1.74217 1.81921 0
1.89635 1.97847 1.87702 1.95799 1.89635 1.97847 1.87702 1.95799 0
1.30319 1.36755 1.28867 1.35258 1.30319 1.36755 1.28867 1.35258 0
1.41592 1.48374 1.40056 1.46778 1.41592 1.48374 1.40056 1.46778 0
1.53473 1.60626 1.51831 1.58915 1.53473 1.60626 1.51831 1.58915 0
1.66006 1.73555 1.6424 1.71707 1.66006 1.73555 1.6424 1.71707 0
1.79232 1.872 1.77319 1.8519 1.79232 1.872 1.77319 1.8519 0
1.93193 2.01605 1.91104 1.99401 1.93193 2.01605 1.91104 1.99401 0
1.33051 1.39567 1.3144 1.37909 1.33051 1.39567 1.3144 1.37909 0
1.44469 1.5135 1.42774 1.49598 1.44469 1.5135 1.42774 1.49598 0
1.56528 1.638 1.54731 1.61934 1.56528 1.638 1.54731 1.61934 0
1.69275 1.76966 1.67354 1.74963 1.69275 1.76966 1.67354 1.74963 0
1.82758 1.90899 1.80688 1.88729 1.82758 1.90899 1.80688 1.88729 0
1.97028 2.05642 1.94779 2.03276 1.97028 2.05642 1.94779 2.03276 0
1.04983 1.1058 1.03355 1.08934 1.04983 1.1058 1.03355 1.08934 0
1.14787 1.20687 1.13127 1.19003 1.14787 1.20687 1.13127 1.19003 0
1.25127 1.3136 1.23422 1.29622 1.25127 1.3136 1.23422 1.29622 0
1.36053 1.42646 1.34287 1.40836 1.36053 1.42646 1.34287 1.40836 0
1.47611 1.54589 1.45765 1.52686 1.47611 1.54589 1.45765 1.52686 0
1.59847 1.67238 1.57898 1.65221 1.59847 1.67238 1.57898 1.65221 0
1.72809 1.80644 1.70736 1.78487 1.72809 1.80644 1.70736 1.78487 0
1.86552 1.94867 1.84328 1.92542 1.86552 1.94867 1.84328 1.92542 0
1.08001 1.13622 1.06229 1.11836 1.08001 1.13622 1.06229 1.11836 0
1.17853 1.23792 1.16054 1.2197 1.17853 1.23792 1.16054 1.2197 0
1.28267 1.34558 1.26425 1.32682 1.28267 1.34558 1.26425 1.32682 0
1.393 1.4597 1.37396 1.44021 1.393 1.4597 1.37396 1.44021 0
1.51 1.58076 1.49014 1.56033 1.51 1.58076 1.49014 1.56033 0
1.63414 1.70927 1.61324 1.68766 1.63414 1.70927 1.61324 1.68766 0
1.76595 1.84577 1.74378 1.82275 1.76595 1.84577 1.74378 1.82275 0
1.90604 1.99097 1.88233 1.96622 1.90604 1.99097 1.88233 1.96622 0
1.11233 1.16876 1.09343 1.14973 1.11233 1.16876 1.09343 1.14973 0
1.21131 1.27113 1.19214 1.25171 1.21131 1.27113 1.19214 1.25171 0
1.31626 1.37975 1.29661 1.35976 1.31626 1.37975 1.29661 1.35976 0
1.42765 1.49508 1.40739 1.4744 1.42765 1.49508 1.40739 1.4744 0
1.54602 1.61782 1.52497 1.59617 1.54602 1.61782 1.52497 1.59617 0
1.67204 1.74843 1.64989 1.72555 1.67204 1.74843 1.64989 1.72555 0
1.80614 1.88749 1.78266 1.86311 1.80614 1.88749 1.78266 1.86311 0
1.949 2.03577 1.9239 2.0096 1.949 2.03577 1.9239 2.0096 0
0 0 0 0 0 0 0 0 0
0 0 0 0 0 0 0 0 0
0 0 0 0 0 0 0 0 0
0 0 0 0 0 0 0 0 0
0 0 0 0 0 0 0 0 0
0 0 0 0 0 0 0 0 0
0 0 0 0 0 0 0 0 0
0 0 0 0 0 0 0 0 0
0 0 0 0 0 0 0 0 0
0 0 0 0 0 0 0 0 0
0 0 0 0 0 0 0 0 0
0 0 0 0 0 0 0 0 0
0 0 0 0 0 0 0 0 0
0 0 0 0 0 0 0 0 0
0 0 0 0 0 0 0 0 0
0 0 0 0 0 0 0 0 0
0 0 0 0 0 0 0 0 0
0 0 0 0 0 0 0 0 0
0 0 0 0 0 0 0 0 0
0 0 0 0 0 0 0 0 0
0 0 0 0 0 0 0 0 0
0 0 0 0 0 0 0 0 0
0 0 0 0 0 0 0 0 0
0 0 0 0 0 0 0 0 0
0 0 0 0 0 0 0 0 0
0 0 0 0 0 0 0 0 0
0 0 0 0 0 0 0 0 0
0 0 0 0 0 0 0 0 0
0 0 0 0 0 0 0 0 0
0 0 0 0 0 0 0 0 0
0 0 0 0 0 0 0 0 0
0 0 0 0 0 0 0 0 0
0 0 0 0 0 0 0 0 0
0 0 0 0 0 0 0 0 0
0 0 0 0 0 0 0 0 0
0 0 0 0 0 0 0 0 0
0 0 0 0 0 0 0 0 0
0 0 0 0 0 0 0 0 0
0 0 0 0 0 0 0 0 0
0 0 0 0 0 0 0 0 0
0 0 0 0 0 0 0 0 0
0 0 0 0 0 0 0 0 0
0 0 0 0 0 0 0 0 0
0 0 0 0 0 0 0 0 0
0 0 0 0 0 0 0 0 0
0 0 0 0 0 0 0 0 0
0 0 0 0 0 0 0 0 0
0 0 0 0 0 0 0 0 0
0 0 0 0 0 0 0 0 0
0 0 0 0 0 0 0 0 0
0 0 0 0 0 0 0 0 0
0 0 0 0 0 0 0 0 0
0 0 0 0 0 0 0 0 0
0 0 0 0 0 0 0 0 0
0 0 0 0 0 0 0 0 0
0 0 0 0 0 0 0 0 0
0 0 0 0 0 0 0 0 0
0 0 0 0 0 0 0 0 0
0 0 0 0 0 0 0 0 0
0 0 0 0 0 0 0 0 0
0 0 0 0 0 0 0 0 0
0 0 0 0 0 0 0 0 0
0 0 0 0 0 0 0 0 0
0 0 0 0 0 0 0 0 0
0 0 0 0 0 0 0 0 0
0 0 0 0 0 0 0 0 0
0 0 0 0 0 0 0 0 0
0 0 0 0 0 0 0 0 0
0 0 0 0 0 0 0 0 0
0 0 0 0 0 0 0 0 0
0 0 0 0 0 0 0 0 0
0 0 0 0 0 0 0 0 0
0 0 0 0 0 0 0 0 0
0 0 0 0 0 0 0 0 0
0 0 0 0 0 0 0 0 0
0 0 0 0 0 0 0 0 0
0 0 0 0 0 0 0 0 0
0 0 0 0 0 0 0 0 0
0 0 0 0 0 0 0 0 0
0 0 0 0 0 0 0 0 0
0 0 0 0 0 0 0 0 0
0 0 0 0 0 0 0 0 0
0 0 0 0 0 0 0 0 0
0 0 0 0 0 0 0 0 0
0 0 0 0 0 0 0 0 0
0 0 0 0 0 0 0 0 0
0 0 0 0 0 0 0 0 0
0 0 0 0 0 0 0 0 0
0 0 0 0 0 0 0 0 0
0 0 0 0 0 0 0 0 0
0 0 0 0 0 0 0 0 0
0 0 0 0 0 0 0 0 0
0 0 0 0 0 0 0 0 0
0 0 0 0 0 0 0 0 0
0 0 0 0 0 0 0 0 0
0 0 0 0 0 0 0 0 0
0 0 0 0 0 0 0 0 0
0 0 0 0 0 0 0 0 0
0 0 0 0 0 0 0 0 0
0 0 0 0 0 0 0 0 0
0 0 0 0 0 0 0 0 0
0 0 0 0 0 0 0 0 0
0 0 0 0 0 0 0 0 0
0 0 0 0 0 0 0 0 0
0 0 0 0 0 0 0 0 0
0 0 0 0 0 0 0 0 0
0 0 0 0 0 0 0 0 0
0 0 0 0 0 0 0 0 0
0 0 0 0 0 0 0 0 0
0 0 0 0 0 0 0 0 0
0 0 0 0 0 0 0 0 0
0 0 0 0 0 0 0 0 0
0 0 0 0 0 0 0 0 0
0 0 0 0 0 0 0 0 0
0 0 0 0 0 0 0 0 0
0 0 0 0 0 0 0 0 0
0 0 0 0 0 0 0 0 0
0 0 0 0 0 0 0 0 0
0 0 0 0 0 0 0 0 0
0 0 0 0 0 0 0 0 0
0 0 0 0 0 0 0 0 0
0 0 0 0 0 0 0 0 0
0 0 0 0 0 0 0 0 0
0 0 0 0 0 0 0 0 0
0 0 0 0 0 0 0 0 0
0 0 0 0 0 0 0 0 0
0 0 0 0 0 0 0 0 0
0 0 0 0 0 0 0 0 0
0 0 0 0 0 0 0 0 0
0 0 0 0 0 0 0 0 0
0 0 0 0 0 0 0 0 0
0 0 0 0 0 0 0 0 0
0 0 0 0 0 0 0 0 0
0 0 0 0 0 0 0 0 0
0 0 0 0 0 0 0 0 0
0 0 0 0 0 0 0 0 0
0 0 0 0 0 0 0 0 0
0 0 0 0 0 0 0 0 0
0 0 0 0 0 0 0 0 0
0 0 0 0 0 0 0 0 0
0 0 0 0 0 0 0 0 0
0 0 0 0 0 0 0 0 0
0 0 0 0 0 0 0 0 0
0 0 0 0 0 0 0 0 0
0 0 0 0 0 0 0 0 0
0 0 0 0 0 0 0 0 0
0 0 0 0 0 0 0 0 0
0 0 0 0 0 0 0 0 0
0 0 0 0 0 0 0 0 0
0 0 0 0 0 0 0 0 0
0 0 0 0 0 0 0 0 0
0 0 0 0 0 0 0 0 0
0 0 0 0 0 0 0 0 0
0 0 0 0 0 0 0 0 0
0 0 0 0 0 0 0 0 0
0 0 0 0 0 0 0 0 0
0 0 0 0 0 0 0 0 0
0 0 0 0 0 0 0 0 0
0 0 0 0 0 0 0 0 0
0 0 0 0 0 0 0 0 0
0 0 0 0 0 0 0 0 0
0 0 0 0 0 0 0 0 0
0 0 0 0 0 0 0 0 0
0 0 0 0 0 0 0 0 0
0 0 0 0 0 0 0 0 0
0 0 0 0 0 0 0 0 0
0 0 0 0 0 0 0 0 0
0 0 0 0 0 0 0 0 0
0 0 0 0 0 0 0 0 0
0 0 0 0 0 0 0 0 0
0 0 0 0 0 0 0 0 0
0 0 0 0 0 0 0 0 0
0 0 0 0 0 0 0 0 0
0 0 0 0 0 0 0 0 0
0 0 0 0 0 0 0 0 0
0 0 0 0 0 0 0 0 0
0 0 0 0 0 0 0 0 0
0 0 0 0 0 0 0 0 0
0 0 0 0 0 0 0 0 0
0 0 0 0 0 0 0 0 0
0 0 0 0 0 0 0 0 0
0 0 0 0 0 0 0 0 0
0 0 0 0 0 0 0 0 0
0 0 0 0 0 0 0 0 0
0 0 0 0 0 0 0 0 0
0 0 0 0 0 0 0 0 0
0 0 0 0 0 0 0 0 0
0 0 0 0 0 0 0 0 0
0 0 0 0 0 0 0 0 0
0 0 0 0 0 0 0 0 0
0 0 0 0 0 0 0 0 0
0 0 0 0 0 0 0 0 0
0 0 0 0 0 0 0 0 0
0 0 0 0 0 0 0 0 0
0 0 0 0 0 0 0 0 0
0 0 0 0 0 0 0 0 0
0 0 0 0 0 0 0 0 0
0 0 0 0 0 0 0 0 0
0 0 0 0 0 0 0 0 0
0 0 0 0 0 0 0 0 0
0 0 0 0 0 0 0 0 0
0 0 0 0 0 0 0 0 0
0 0 0 0 0 0 0 0 0
0 0 0 0 0 0 0 0 0
0 0 0 0 0 0 0 0 0
0 0 0 0 0 0 0 0 0
0 0 0 0 0 0 0 0 0
0 0 0 0 0 0 0 0 0
0 0 0 0 0 0 0 0 0
0 0 0 0 0 0 0 0 0
0 0 0 0 0 0 0 0 0
0 0 0 0 0 0 0 0 0
0 0 0 0 0 0 0 0 0
0 0 0 0 0 0 0 0 0
0 0 0 0 0 0 0 0 0
0 0 0 0 0 0 0 0 0
0 0 0 0 0 0 0 0 0
0 0 0 0 0 0 0 0 0
0 0 0 0 0 0 0 0 0
0 0 0 0 0 0 0 0 0
0 0 0 0 0 0 0 0 0
0 0 0 0 0 0 0 0 0
0 0 0 0 0 0 0 0 0
0 0 0 0 0 0 0 0 0
0 0 0 0 0 0 0 0 0
0 0 0 0 0 0 0 0 0
0 0 0 0 0 0 0 0 0
0 0 0 0 0 0 0 0 0
0 0 0 0 0 0 0 0 0
0 0 0 0 0 0 0 0 0
0 0 0 0 0 0 0 0 0
0 0 0 0 0 0 0 0 0
0 0 0 0 0 0 0 0 0
0 0 0 0 0 0 0 0 0
0 0 0 0 0 0 0 0 0
0 0 0 0 0 0 0 0 0
0 0 0 0 0 0 0 0 0
0 0 0 0 0 0 0 0 0
0 0 0 0 0 0 0 0 0
0 0 0 0 0 0 0 0 0
0 0 0 0 0 0 0 0 0
0 0 0 0 0 0 0 0 0
0 0 0 0 0 0 0 0 0
0 0 0 0 0 0 0 0 0
0 0 0 0 0 0 0 0 0
0 0 0 0 0 0 0 0 0
0 0 0 0 0 0 0 0 0
0 0 0 0 0 0 0 0 0
0 0 0 0 0 0 0 0 0
0 0 0 0 0 0 0 0 0
0 0 0 0 0 0 0 0 0
0 0 0 0 0 0 0 0 0
0 0 0 0 0 0 0 0 0
0 0 0 0 0 0 0 0 0
0 0 0 0 0 0 0 0 0
0 0 0 0 0 0 0 0 0
0 0 0 0 0 0 0 0 0
0 0 0 0 0 0 0 0 0
0 0 0 0 0 0 0 0 0
0 0 0 0 0 0 0 0 0
0 0 0 0 0 0 0 0 0
0 0 0 0 0 0 0 0 0
0 0 0 0 0 0 0 0 0
0 0 0 0 0 0 0 0 0
0 0 0 0 0 0 0 0 0
0 0 0 0 0 0 0 0 0
0 0 0 0 0 0 0 0 0
0 0 0 0 0 0 0 0 0
0 0 0 0 0 0 0 0 0
0 0 0 0 0 0 0 0 0
0 0 0 0 0 0 0 0 0
0 0 0 0 0 0 0 0 0
0 0 0 0 0 0 0 0 0
0 0 0 0 0 0 0 0 0
0 0 0 0 0 0 0 0 0
0 0 0 0 0 0 0 0 0
0 0 0 0 0 0 0 0 0
0 0 0 0 0 0 0 0 0
0 0 0 0 0 0 0 0 0
0 0 0 0 0 0 0 0 0
0 0 0 0 0 0 0 0 0
0 0 0 0 0 0 0 0 0
0 0 0 0 0 0 0 0 0
0 0 0 0 0 0 0 0 0
0 0 0 0 0 0 0 0 0
0 0 0 0 0 0 0 0 0
0 0 0 0 0 0 0 0 0
0 0 0 0 0 0 0 0 0
0 0 0 0 0 0 0 0 0
0 0 0 0 0 0 0 0 0
0 0 0 0 0 0 0 0 0
0 0 0 0 0 0 0 0 0
0 0 0 0 0 0 0 0 0
0 0 0 0 0 0 0 0 0
0 0 0 0 0 0 0 0 0
0 0 0 0 0 0 0 0 0
0 0 0 0 0 0 0 0 0
0 0 0 0 0 0 0 0 0
0 0 0 0 0 0 0 0 0
0 0 0 0 0 0 0 0 0
0 0 0 0 0 0 0 0 0
0 0 0 0 0 0 0 0 0
0 0 0 0 0 0 0 0 0
0 0 0 0 0 0 0 0 0
0 0 0 0 0 0 0 0 0
0 0 0 0 0 0 0 0 0
0 0 0 0 0 0 0 0 0
0 0 0 0 0 0 0 0 0
0 0 0 0 0 0 0 0 0
0 0 0 0 0 0 0 0 0
0 0 0 0 0 0 0 0 0
0 0 0 0 0 0 0 0 0
0 0 0 0 0 0 0 0 0
0 0 0 0 0 0 0 0 0
0 0 0 0 0 0 0 0 0
0 0 0 0 0 0 0 0 0
0 0 0 0 0 0 0 0 0
0 0 0 0 0 0 0 0 0
0 0 0 0 0 0 0 0 0
0 0 0 0 0 0 0 0 0
0 0 0 0 0 0 0 0 0
0 0 0 0 0 0 0 0 0
0 0 0 0 0 0 0 0 0
0 0 0 0 0 0 0 0 0
0 0 0 0 0 0 0 0 0
0 0 0 0 0 0 0 0 0
0 0 0 0 0 0 0 0 0
0 0 0 0 0 0 0 0 0
0 0 0 0 0 0 0 0 0
0 0 0 0 0 0 0 0 0
0 0 0 0 0 0 0 0 0
0 0 0 0 0 0 0 0 0
0 0 0 0 0 0 0 0 0
0 0 0 0 0 0 0 0 0
0 0 0 0 0 0 0 0 0
0 0 0 0 0 0 0 0 0
0 0 0 0 0 0 0 0 0
0 0 0 0 0 0 0 0 0
0 0 0 0 0 0 0 0 0
0 0 0 0 0 0 0 0 0
0 0 0 0 0 0 0 0 0
0 0 0 0 0 0 0 0 0
0 0 0 0 0 0 0 0 0
0 0 0 0 0 0 0 0 0
0 0 0 0 0 0 0 0 0
0 0 0 0 0 0 0 0 0
0 0 0 0 0 0 0 0 0
0 0 0 0 0 0 0 0 0
0 0 0 0 0 0 0 0 0
0 0 0 0 0 0 0 0 0
0 0 0 0 0 0 0 0 0
0 0 0 0 0 0 0 0 0
0 0 0 0 0 0 0 0 0
0 0 0 0 0 0 0 0 0
0 0 0 0 0 0 0 0 0
0 0 0 0 0 0 0 0 0
0 0 0 0 0 0 0 0 0
0 0 0 0 0 0 0 0 0
0 0 0 0 0 0 0 0 0
0 0 0 0 0 0 0 0 0
0 0 0 0 0 0 0 0 0
0 0 0 0 0 0 0 0 0
0 0 0 0 0 0 0 0 0
0 0 0 0 0 0 0 0 0
0 0 0 0 0 0 0 0 0
0 0 0 0 0 0 0 0 0
0 0 0 0 0 0 0 0 0
0 0 0 0 0 0 0 0 0
0 0 0 0 0 0 0 0 0
0 0 0 0 0 0 0 0 0
0 0 0 0 0 0 0 0 0
0 0 0 0 0 0 0 0 0
0 0 0 0 0 0 0 0 0
0 0 0 0 0 0 0 0 0
0 0 0 0 0 0 0 0 0
0 0 0 0 0 0 0 0 0
0 0 0 0 0 0 0 0 0
0 0 0 0 0 0 0 0 0
0 0 0 0 0 0 0 0 0
0 0 0 0 0 0 0 0 0
0 0 0 0 0 0 0 0 0
0 0 0 0 0 0 0 0 0
0 0 0 0 0 0 0 0 0
0 0 0 0 0 0 0 0 0
0 0 0 0 0 0 0 0 0
0 0 0 0 0 0 0 0 0
0 0 0 0 0 0 0 0 0
0 0 0 0 0 0 0 0 0
0 0 0 0 0 0 0 0 0
0 0 0 0 0 0 0 0 0
0 0 0 0 0 0 0 0 0
0 0 0 0 0 0 0 0 0
0 0 0 0 0 0 0 0 0
0 0 0 0 0 0 0 0 0
0 0 0 0 0 0 0 0 0
0 0 0 0 0 0 0 0 0
0 0 0 0 0 0 0 0 0
0 0 0 0 0 0 0 0 0
0 0 0 0 0 0 0 0 0
0 0 0 0 0 0 0 0 0
0 0 0 0 0 0 0 0 0
0 0 0 0 0 0 0 0 0
0 0 0 0 0 0 0 0 0
0 0 0 0 0 0 0 0 0
0 0 0 0 0 0 0 0 0
0 0 0 0 0 0 0 0 0
0 0 0 0 0 0 0 0 0
0 0 0 0 0 0 0 0 0
0 0 0 0 0 0 0 0 0
0 0 0 0 0 0 0 0 0
0 0 0 0 0 0 0 0 0
0 0 0 0 0 0 0 0 0
0 0 0 0 0 0 0 0 0
0 0 0 0 0 0 0 0 0
0 0 0 0 0 0 0 0 0
0 0 0 0 0 0 0 0 0
0 0 0 0 0 0 0 0 0
0 0 0 0 0 0 0 0 0
0 0 0 0 0 0 0 0 0
0 0 0 0 0 0 0 0 0
0 0 0 0 0 0 0 0 0
0 0 0 0 0 0 0 0 0
0 0 0 0 0 0 0 0 0
0 0 0 0 0 0 0 0 0
0 0 0 0 0 0 0 0 0
0 0 0 0 0 0 0 0 0
0 0 0 0 0 0 0 0 0
0 0 0 0 0 0 0 0 0
0 0 0 0 0 0 0 0 0
0 0 0 0 0 0 0 0 0
0 0 0 0 0 0 0 0 0
0 0 0 0 0 0 0 0 0
0 0 0 0 0 0 0 0 0
0 0 0 0 0 0 0 0 0
0 0 0 0 0 0 0 0 0
0 0 0 0 0 0 0 0 0
0 0 0 0 0 0 0 0 0
0 0 0 0 0 0 0 0 0
0 0 0 0 0 0 0 0 0
0 0 0 0 0 0 0 0 0
0 0 0 0 0 0 0 0 0
0 0 0 0 0 0 0 0 0
0 0 0 0 0 0 0 0 0
0 0 0 0 0 0 0 0 0
0 0 0 0 0 0 0 0 0
0 0 0 0 0 0 0 0 0
0 0 0 0 0 0 0 0 0
0 0 0 0 0 0 0 0 0
0 0 0 0 0 0 0 0 0
0 0 0 0 0 0 0 0 0
0 0 0 0 0 0 0 0 0
0 0 0 0 0 0 0 0 0
0 0 0 0 0 0 0 0 0
0 0 0 0 0 0 0 0 0
0 0 0 0 0 0 0 0 0
0 0 0 0 0 0 0 0 0
0 0 0 0 0 0 0 0 0
0 0 0 0 0 0 0 0 0
0 0 0 0 0 0 0 0 0
0 0 0 0 0 0 0 0 0
0 0 0 0 0 0 0 0 0
0 0 0 0 0 0 0 0 0
0 0 0 0 0 0 0 0 0
0 0 0 0 0 0 0 0 0
0 0 0 0 0 0 0 0 0
0 0 0 0 0 0 0 0 0
0 0 0 0 0 0 0 0 0
0 0 0 0 0 0 0 0 0
0 0 0 0 0 0 0 0 0
0 0 0 0 0 0 0 0 0
0 0 0 0 0 0 0 0 0
0 0 0 0 0 0 0 0 0
0 0 0 0 0 0 0 0 0
0 0 0 0 0 0 0 0 0
0 0 0 0 0 0 0 0 0
0 0 0 0 0 0 0 0 0
0 0 0 0 0 0 0 0 0
0 0 0 0 0 0 0 0 0
0 0 0 0 0 0 0 0 0
0 0 0 0 0 0 0 0 0
0 0 0 0 0 0 0 0 0
0 0 0 0 0 0 0 0 0
0 0 0 0 0 0 0 0 0
0 0 0 0 0 0 0 0 0
0 0 0 0 0 0 0 0 0
0 0 0 0 0 0 0 0 0
0 0 0 0 0 0 0 0 0
0 0 0 0 0 0 0 0 0
0 0 0 0 0 0 0 0 0
0 0 0 0 0 0 0 0 0
0 0 0 0 0 0 0 0 0
0 0 0 0 0 0 0 0 0
0 0 0 0 0 0 0 0 0
0 0 0 0 0 0 0 0 0
0 0 0 0 0 0 0 0 0
0 0 0 0 0 0 0 0 0
0 0 0 0 0 0 0 0 0
0 0 0 0 0 0 0 0 0
0 0 0 0 0 0 0 0 0
0 0 0 0 0 0 0 0 0
0 0 0 0 0 0 0 0 0
0 0 0 0 0 0 0 0 0
0 0 0 0 0 0 0 0 0
0 0 0 0 0 0 0 0 0
0 0 0 0 0 0 0 0 0
0 0 0 0 0 0 0 0 0
0 0 0 0 0 0 0 0 0
0 0 0 0 0 0 0 0 0
0 0 0 0 0 0 0 0 0
0 0 0 0 0 0 0 0 0
0 0 0 0 0 0 0 0 0
0 0 0 0 0 0 0 0 0
0 0 0 0 0 0 0 0 0
0 0 0 0 0 0 0 0 0
0 0 0 0 0 0 0 0 0
0 0 0 0 0 0 0 0 0
0 0 0 0 0 0 0 0 0
0 0 0 0 0 0 0 0 0
0 0 0 0 0 0 0 0 0
0 0 0 0 0 0 0 0 0
0 0 0 0 0 0 0 0 0
0 0 0 0 0 0 0 0 0
0 0 0 0 0 0 0 0 0
0 0 0 0 0 0 0 0 0
0 0 0 0 0 0 0 0 0
0 0 0 0 0 0 0 0 0
0 0 0 0 0 0 0 0 0
0 0 0 0 0 0 0 0 0
0 0 0 0 0 0 0 0 0
0 0 0 0 0 0 0 0 0
0 0 0 0 0 0 0 0 0
0 0 0 0 0 0 0 0 0
0 0 0 0 0 0 0 0 0
0 0 0 0 0 0 0 0 0
0 0 0 0 0 0 0 0 0
0 0 0 0 0 0 0 0 0
0 0 0 0 0 0 0 0 0
0 0 0 0 0 0 0 0 0
0 0 0 0 0 0 0 0 0
0 0 0 0 0 0 0 0 0
0 0 0 0 0 0 0 0 0
0 0 0 0 0 0 0 0 0
0 0 0 0 0 0 0 0 0
0 0 0 0 0 0 0 0 0
0 0 0 0 0 0 0 0 0
0 0 0 0 0 0 0 0 0
0 0 0 0 0 0 0 0 0
0 0 0 0 0 0 0 0 0
0 0 0 0 0 0 0 0 0
0 0 0 0 0 0 0 0 0
0 0 0 0 0 0 0 0 0
0 0 0 0 0 0 0 0 0
0 0 0 0 0 0 0 0 0
0 0 0 0 0 0 0 0 0
0 0 0 0 0 0 0 0 0
0 0 0 0 0 0 0 0 0
0 0 0 0 0 0 0 0 0
0 0 0 0 0 0 0 0 0
0 0 0 0 0 0 0 0 0
0 0 0 0 0 0 0 0 0
0 0 0 0 0 0 0 0 0
0 0 0 0 0 0 0 0 0
0 0 0 0 0 0 0 0 0
0 0 0 0 0 0 0 0 0
0 0 0 0 0 0 0 0 0
0 0 0 0 0 0 0 0 0
0 0 0 0 0 0 0 0 0
0 0 0 0 0 0 0 0 0
0 0 0 0 0 0 0 0 0
0 0 0 0 0 0 0 0 0
0 0 0 0 0 0 0 0 0
0 0 0 0 0 0 0 0 0
0 0 0 0 0 0 0 0 0
0 0 0 0 0 0 0 0 0
0 0 0 0 0 0 0 0 0
0 0 0 0 0 0 0 0 0
0 0 0 0 0 0 0 0 0
0 0 0 0 0 0 0 0 0
0 0 0 0 0 0 0 0 0
0 0 0 0 0 0 0 0 0
0 0 0 0 0 0 0 0 0
0 0 0 0 0 0 0 0 0
0 0 0 0 0 0 0 0 0
0 0 0 0 0 0 0 0 0
0 0 0 0 0 0 0 0 0
0 0 0 0 0 0 0 0 0
0 0 0 0 0 0 0 0 0
0 0 0 0 0 0 0 0 0
0.657694 0.688144 0.655511 0.685563 0.657694 0.688144 0.655511 0.685563 0
0.710908 0.742651 0.708029 0.739358 0.710908 0.742651 0.708029 0.739358 0
0.662193 0.693359 0.65948 0.690228 0.662193 0.693359 0.65948 0.690228 0
0.716667 0.749184 0.713218 0.745281 0.716667 0.749184 0.713218 0.745281 0
0.773497 0.807408 0.769262 0.802723 0.773497 0.807408 0.769262 0.802723 0
0.83276 0.86812 0.827738 0.862627 0.83276 0.86812 0.827738 0.862627 0
0.894557 0.931435 0.888718 0.925121 0.894557 0.931435 0.888718 0.925121 0
0.958967 0.997322 0.952287 0.990115 0.958967 0.997322 0.952287 0.990115 0
1.02592 1.06572 1.01832 1.05758 1.02592 1.06572 1.01832 1.05758 0
1.09541 1.13672 1.08683 1.12754 1.09541 1.13672 1.08683 1.12754 0
1.16751 1.21035 1.15786 1.20004 1.16751 1.21035 1.15786 1.20004 0
0.723441 0.756708 0.719403 0.752242 0.723441 0.756708 0.719403 0.752242 0
0.781584 0.816285 0.776794 0.811037 0.781584 0.816285 0.776794 0.811037 0
0.842231 0.878424 0.836639 0.872348 0.842231 0.878424 0.836639 0.872348 0
0.905483 0.943229 0.899045 0.936283 0.905483 0.943229 0.899045 0.936283 0
0.971421 1.01071 0.96409 1.00284 0.971421 1.01071 0.96409 1.00284 0
1.04003 1.08086 1.03174 1.07196 1.04003 1.08086 1.03174 1.07196 0
1.11133 1.15375 1.10197 1.14374 1.11133 1.15375 1.10197 1.14374 0
0.73128 0.76529 0.726619 0.7602 0.73128 0.76529 0.726619 0.7602 0
0.790729 0.826229 0.785313 0.820351 0.790729 0.826229 0.785313 0.820351 0
0.852779 0.889825 0.846551 0.883103 0.852779 0.889825 0.846551 0.883103 0
0.917526 0.956174 0.910431 0.948555 0.917526 0.956174 0.910431 0.948555 0
0.985055 1.02533 0.977034 1.01673 0.985055 1.02533 0.977034 1.01673 0
1.0554 1.09732 1.04637 1.08765 1.0554 1.09732 1.04637 1.08765 0
1.1286 1.17219 1.11846 1.16137 1.1286 1.17219 1.11846 1.16137 0
0.740233 0.774988 0.734924 0.769248 0.740233 0.774988 0.734924 0.769248 0
0.800995 0.837304 0.794927 0.830767 0.800995 0.837304 0.794927 0.830767 0
0.864468 0.902387 0.857575 0.894988 0.864468 0.902387 0.857575 0.894988 0
0.930751 0.970342 0.922966 0.962007 0.930751 0.970342 0.922966 0.962007 0
0.999942 1.04124 0.991189 1.03189 0.999942 1.04124 0.991189 1.03189 0
1.07211 1.11516 1.0623 1.10468 1.07211 1.11516 1.0623 1.10468 0
0.750341 0.785846 0.74436 0.779432 0.750341 0.785846 0.74436 0.779432 0
0.812427 0.849555 0.80568 0.842333 0.812427 0.849555 0.80568 0.842333 0
0.877346 0.916163 0.869761 0.908056 0.877346 0.916163 0.869761 0.908056 0
0.945215 0.985788 0.936708 0.976709 0.945215 0.985788 0.936708 0.976709 0
1.01614 1.05852 1.00662 1.04837 1.01614 1.05852 1.00662 1.04837 0
1.09021 1.13446 1.07958 1.12314 1.09021 1.13446 1.07958 1.12314 0
0.761643 0.797903 0.754968 0.790792 0.761643 0.797903 0.754968 0.790792 0
0.825064 0.863026 0.817617 0.855095 0.825064 0.863026 0.817617 0.855095 0
0.891461 0.931204 0.883156 0.922361 0.891461 0.931204 0.883156 0.922361 0
0.960968 1.00257 0.95171 0.992711 0.960968 1.00257 0.95171 0.992711 0
1.03372 1.07724 1.02339 1.06625 1.03372 1.07724 1.02339 1.06625 0
1.10981 1.15529 1.09831 1.14307 1.10981 1.15529 1.09831 1.14307 0
0.774182 0.811199 0.766788 0.803367 0.774182 0.811199 0.766788 0.803367 0
0.838948 0.877763 0.830776 0.869096 0.838948 0.877763 0.830776 0.869096 0
0.90686 0.947561 0.897808 0.937951 0.90686 0.947561 0.897808 0.937951 0
0.978067 1.02074 0.968025 1.01007 0.978067 1.02074 0.968025 1.01007 0
1.05272 1.09746 1.04157 1.0856 1.05272 1.09746 1.04157 1.0856 0
0.724961 0.760976 0.717528 0.753156 0.724961 0.760976 0.717528 0.753156 0
0.787985 0.825776 0.779858 0.817199 0.787985 0.825776 0.779858 0.817199 0
0.854129 0.893819 0.845202 0.884383 0.854129 0.893819 0.845202 0.884383 0
0.923599 0.965295 0.913766 0.954882 0.923599 0.965295 0.913766 0.954882 0
0.996577 1.04038 0.985712 1.02885 0.996577 1.04038 0.985712 1.02885 0
1.07323 1.11924 1.0612 1.10646 1.07323 1.11924 1.0612 1.10646 0
0.73888 0.775578 0.730679 0.766981 0.73888 0.775578 0.730679 0.766981 0
0.803124 0.841702 0.794215 0.832338 0.803124 0.841702 0.794215 0.832338 0
0.870673 0.911265 0.860949 0.901017 0.870673 0.911265 0.860949 0.901017 0
0.941754 0.984486 0.931094 0.973222 0.941754 0.984486 0.931094 0.973222 0
1.01659 1.0616 1.00485 1.04914 1.01659 1.0616 1.00485 1.04914 0
1.09539 1.14273 1.08239 1.12895 1.09539 1.14273 1.08239 1.12895 0
0.576811 0.608957 0.569292 0.601209 0.576811 0.608957 0.569292 0.601209 0
0.633061 0.666779 0.625127 0.658565 0.633061 0.666779 0.625127 0.658565 0
0.692098 0.72757 0.683659 0.718795 0.692098 0.72757 0.683659 0.718795 0
0.754226 0.7916 0.745187 0.782172 0.754226 0.7916 0.745187 0.782172 0
0.819689 0.859078 0.809947 0.848864 0.819689 0.859078 0.809947 0.848864 0
0.888687 0.930218 0.878101 0.919085 0.888687 0.930218 0.878101 0.919085 0
0.961445 1.00526 0.949882 0.993065 0.961445 1.00526 0.949882 0.993065 0
1.03822 1.08449 1.02553 1.07106 1.03822 1.08449 1.02553 1.07106 0
0.591013 0.623542 0.582633 0.614942 0.591013 0.623542 0.582633 0.614942 0
0.647963 0.682165 0.63918 0.673102 0.647963 0.682165 0.63918 0.673102 0
0.707877 0.743938 0.698586 0.734305 0.707877 0.743938 0.698586 0.734305 0
0.77107 0.809154 0.76116 0.798828 0.77107 0.809154 0.76116 0.798828 0
0.837815 0.878055 0.827154 0.866897 0.837815 0.878055 0.827154 0.866897 0
0.908337 0.950853 0.896785 0.938726 0.908337 0.950853 0.896785 0.938726 0
0.982857 1.02781 0.970276 1.01456 0.982857 1.02781 0.970276 1.01456 0
1.06167 1.10928 1.0479 1.09473 1.06167 1.10928 1.0479 1.09473 0
0.606728 0.639649 0.597472 0.630165 0.606728 0.639649 0.597472 0.630165 0
0.66441 0.699149 0.654726 0.689146 0.66441 0.699149 0.654726 0.689146 0
0.72529 0.761984 0.715033 0.751355 0.72529 0.761984 0.715033 0.751355 0
0.789609 0.828408 0.778693 0.81708 0.789609 0.828408 0.778693 0.81708 0
0.857657 0.89879 0.845987 0.8866 0.857657 0.89879 0.845987 0.8866 0
0.929783 0.97335 0.917176 0.960128 0.929783 0.97335 0.917176 0.960128 0
1.00619 1.05237 0.992477 1.03794 1.00619 1.05237 0.992477 1.03794 0
1.08721 1.13626 1.0722 1.1204 1.08721 1.13626 1.0722 1.1204 0
0 0 0 0 0 0 0 0 0
0 0 0 0 0 0 0 0 0
0 0 0 0 0 0 0 0 0
0 0 0 0 0 0 0 0 0
0 0 0 0 0 0 0 0 0
0 0 0 0 0 0 0 0 0
0 0 0 0 0 0 0 0 0
0 0 0 0 0 0 0 0 0
0 0 0 0 0 0 0 0 0
0 0 0 0 0 0 0 0 0
0 0 0 0 0 0 0 0 0
0 0 0 0 0 0 0 0 0
0 0 0 0 0 0 0 0 0
0 0 0 0 0 0 0 0 0
0 0 0 0 0 0 0 0 0
0 0 0 0 0 0 0 0 0
0 0 0 0 0 0 0 0 0
0 0 0 0 0 0 0 0 0
0 0 0 0 0 0 0 0 0
0 0 0 0 0 0 0 0 0
0 0 0 0 0 0 0 0 0
0 0 0 0 0 0 0 0 0
0 0 0 0 0 0 0 0 0
0 0 0 0 0 0 0 0 0
0 0 0 0 0 0 0 0 0
0 0 0 0 0 0 0 0 0
0 0 0 0 0 0 0 0 0
0 0 0 0 0 0 0 0 0
0 0 0 0 0 0 0 0 0
0 0 0 0 0 0 0 0 0
0 0 0 0 0 0 0 0 0
0 0 0 0 0 0 0 0 0
0 0 0 0 0 0 0 0 0
0 0 0 0 0 0 0 0 0
0 0 0 0 0 0 0 0 0
0 0 0 0 0 0 0 0 0
0 0 0 0 0 0 0 0 0
0 0 0 0 0 0 0 0 0
0 0 0 0 0 0 0 0 0
0 0 0 0 0 0 0 0 0
0 0 0 0 0 0 0 0 0
0 0 0 0 0 0 0 0 0
0 0 0 0 0 0 0 0 0
0 0 0 0 0 0 0 0 0
0 0 0 0 0 0 0 0 0
0 0 0 0 0 0 0 0 0
0 0 0 0 0 0 0 0 0
0 0 0 0 0 0 0 0 0
0 0 0 0 0 0 0 0 0
0 0 0 0 0 0 0 0 0
0 0 0 0 0 0 0 0 0
0 0 0 0 0 0 0 0 0
0 0 0 0 0 0 0 0 0
0 0 0 0 0 0 0 0 0
0 0 0 0 0 0 0 0 0
0 0 0 0 0 0 0 0 0
0 0 0 0 0 0 0 0 0
0 0 0 0 0 0 0 0 0
0 0 0 0 0 0 0 0 0
0 0 0 0 0 0 0 0 0
0 0 0 0 0 0 0 0 0
0 0 0 0 0 0 0 0 0
0 0 0 0 0 0 0 0 0
0 0 0 0 0 0 0 0 0
0 0 0 0 0 0 0 0 0
0 0 0 0 0 0 0 0 0
0 0 0 0 0 0 0 0 0
0 0 0 0 0 0 0 0 0
0 0 0 0 0 0 0 0 0
0 0 0 0 0 0 0 0 0
0 0 0 0 0 0 0 0 0
0 0 0 0 0 0 0 0 0
0 0 0 0 0 0 0 0 0
0 0 0 0 0 0 0 0 0
0 0 0 0 0 0 0 0 0
0 0 0 0 0 0 0 0 0
0 0 0 0 0 0 0 0 0
0 0 0 0 0 0 0 0 0
0 0 0 0 0 0 0 0 0
0 0 0 0 0 0 0 0 0
0 0 0 0 0 0 0 0 0
0 0 0 0 0 0 0 0 0
0 0 0 0 0 0 0 0 0
0 0 0 0 0 0 0 0 0
0.590901 0.617827 0.585787 0.61225 0.590901 0.617827 0.585787 0.61225 0
0.637838 0.665585 0.631893 0.659096 0.637838 0.665585 0.631893 0.659096 0
0.600632 0.628435 0.594874 0.622159 0.600632 0.628435 0.594874 0.622159 0
0.649097 0.677749 0.642444 0.670579 0.649097 0.677749 0.642444 0.670579 0
0.699042 0.72857 0.691476 0.720434 0.699042 0.72857 0.691476 0.720434 0
0.750477 0.780806 0.74191 0.77163 0.750477 0.780806 0.74191 0.77163 0
0.803267 0.834308 0.793632 0.824025 0.803267 0.834308 0.793632 0.824025 0
0.857208 0.888732 0.846425 0.877231 0.857208 0.888732 0.846425 0.877231 0
0.911911 0.943713 0.899863 0.93089 0.911911 0.943713 0.899863 0.93089 0
0.967012 0.998863 0.953597 0.984606 0.967012 0.998863 0.953597 0.984606 0
1.0221 1.05372 1.00719 1.03788 1.0221 1.05372 1.00719 1.03788 0
0.661489 0.691021 0.654195 0.683221 0.661489 0.691021 0.654195 0.683221 0
0.712987 0.743474 0.704801 0.734738 0.712987 0.743474 0.704801 0.734738 0
0.766114 0.797486 0.756957 0.787728 0.766114 0.797486 0.756957 0.787728 0
0.820742 0.852912 0.810526 0.842043 0.820742 0.852912 0.810526 0.842043 0
0.876689 0.909481 0.865312 0.897369 0.876689 0.909481 0.865312 0.897369 0
0.933638 0.966847 0.920957 0.953344 0.933638 0.966847 0.920957 0.953344 0
0.99122 1.0246 0.97709 1.00958 0.99122 1.0246 0.97709 1.00958 0
0.675092 0.70547 0.667083 0.696977 0.675092 0.70547 0.667083 0.696977 0
0.728087 0.759507 0.719221 0.750106 0.728087 0.759507 0.719221 0.750106 0
0.782865 0.815269 0.773051 0.80486 0.782865 0.815269 0.773051 0.80486 0
0.839319 0.87263 0.828452 0.861103 0.839319 0.87263 0.828452 0.861103 0
0.897293 0.93137 0.885254 0.918587 0.897293 0.93137 0.885254 0.918587 0
0.956519 0.991155 0.943162 0.976974 0.956519 0.991155 0.943162 0.976974 0
1.01664 1.05162 1.00181 1.03586 1.01664 1.05162 1.00181 1.03586 0
0.689978 0.721168 0.681222 0.711947 0.689978 0.721168 0.681222 0.711947 0
0.744414 0.776743 0.734832 0.766639 0.744414 0.776743 0.734832 0.766639 0
0.800807 0.834231 0.790297 0.823133 0.800807 0.834231 0.790297 0.823133 0
0.859075 0.893534 0.847519 0.881314 0.859075 0.893534 0.847519 0.881314 0
0.919092 0.954468 0.906355 0.940979 0.919092 0.954468 0.906355 0.940979 0
0.980631 1.01674 0.966553 1.00181 0.980631 1.01674 0.966553 1.00181 0
0.706201 0.738172 0.696667 0.72819 0.706201 0.738172 0.696667 0.72819 0
0.762028 0.795245 0.751696 0.784402 0.762028 0.795245 0.751696 0.784402 0
0.820003 0.854441 0.808761 0.842614 0.820003 0.854441 0.808761 0.842614 0
0.880076 0.915689 0.867793 0.902739 0.880076 0.915689 0.867793 0.902739 0
0.94215 0.978841 0.928677 0.964607 0.94215 0.978841 0.928677 0.964607 0
1.00603 1.04365 0.991204 1.02795 1.00603 1.04365 0.991204 1.02795 0
0.72381 0.756538 0.713469 0.745763 0.72381 0.756538 0.713469 0.745763 0
0.780989 0.815078 0.769872 0.803459 0.780989 0.815078 0.769872 0.803459 0
0.840524 0.875969 0.828508 0.863372 0.840524 0.875969 0.828508 0.863372 0
0.902396 0.939169 0.889342 0.925444 0.902396 0.939169 0.889342 0.925444 0
0.966544 1.00458 0.95229 0.989545 0.966544 1.00458 0.95229 0.989545 0
1.03282 1.07196 1.01718 1.05543 1.03282 1.07196 1.01718 1.05543 0
0.742855 0.776321 0.731679 0.764721 0.742855 0.776321 0.731679 0.764721 0
0.801357 0.83631 0.78942 0.823875 0.801357 0.83631 0.78942 0.823875 0
0.862439 0.898892 0.849609 0.88548 0.862439 0.898892 0.849609 0.88548 0
0.926116 0.964059 0.912243 0.949509 0.926116 0.964059 0.912243 0.949509 0
0.992361 1.03176 0.977274 1.01588 0.992361 1.03176 0.977274 1.01588 0
0.706248 0.738907 0.694851 0.727161 0.706248 0.738907 0.694851 0.727161 0
0.763373 0.797578 0.751343 0.78512 0.763373 0.797578 0.751343 0.78512 0
0.823199 0.859016 0.810403 0.845721 0.823199 0.859016 0.810403 0.845721 0
0.885832 0.923302 0.872139 0.90902 0.885832 0.923302 0.872139 0.90902 0
0.951332 0.990466 0.936583 0.975027 0.951332 0.990466 0.936583 0.975027 0
1.01971 1.0605 1.00372 1.04371 1.01971 1.0605 1.00372 1.04371 0
0.727204 0.760482 0.714914 0.747832 0.727204 0.760482 0.714914 0.747832 0
0.785444 0.820386 0.772507 0.807023 0.785444 0.820386 0.772507 0.807023 0
0.846596 0.883289 0.832892 0.869077 0.846596 0.883289 0.832892 0.869077 0
0.910802 0.949307 0.896186 0.934091 0.910802 0.949307 0.896186 0.934091 0
0.978168 1.01854 0.962468 1.00212 0.978168 1.01854 0.962468 1.00212 0
1.04876 1.09096 1.03177 1.07315 1.04876 1.09096 1.03177 1.07315 0
0.589451 0.618407 0.577449 0.606237 0.589451 0.618407 0.577449 0.606237 0
0.640153 0.67062 0.627837 0.658075 0.640153 0.67062 0.627837 0.658075 0
0.693525 0.725651 0.680791 0.712629 0.693525 0.725651 0.680791 0.712629 0
0.749804 0.783688 0.736551 0.770087 0.749804 0.783688 0.736551 0.770087 0
0.809148 0.844847 0.795259 0.830517 0.809148 0.844847 0.795259 0.830517 0
0.871662 0.909255 0.85698 0.894049 0.871662 0.909255 0.85698 0.894049 0
0.937487 0.977058 0.921863 0.960814 0.937487 0.977058 0.921863 0.960814 0
1.00677 1.04842 0.990033 1.03094 1.00677 1.04842 0.990033 1.03094 0
0.611453 0.640706 0.598565 0.627645 0.611453 0.640706 0.598565 0.627645 0
0.662709 0.693584 0.649498 0.680136 0.662709 0.693584 0.649498 0.680136 0
0.716829 0.749478 0.703182 0.735525 0.716829 0.749478 0.703182 0.735525 0
0.774061 0.808598 0.759855 0.794005 0.774061 0.808598 0.759855 0.794005 0
0.834589 0.87109 0.819684 0.855715 0.834589 0.87109 0.819684 0.855715 0
0.898545 0.937084 0.882796 0.920782 0.898545 0.937084 0.882796 0.920782 0
0.966069 1.00676 0.949327 0.989363 0.966069 1.00676 0.949327 0.989363 0
1.03737 1.08035 1.01945 1.06166 1.03737 1.08035 1.01945 1.06166 0
0.634941 0.664529 0.621205 0.650592 0.634941 0.664529 0.621205 0.650592 0
0.686833 0.718196 0.672716 0.703785 0.686833 0.718196 0.672716 0.703785 0
0.741834 0.775072 0.727188 0.760077 0.741834 0.775072 0.727188 0.760077 0
0.800117 0.835331 0.784851 0.819672 0.800117 0.835331 0.784851 0.819672 0
0.86189 0.899266 0.845898 0.882759 0.86189 0.899266 0.845898 0.882759 0
0.927414 0.966976 0.910499 0.949459 0.927414 0.966976 0.910499 0.949459 0
0.996776 1.03867 0.97878 1.01996 0.996776 1.03867 0.97878 1.01996 0
1.07025 1.11467 1.05097 1.09455 1.07025 1.11467 1.05097 1.09455 0
0 0 0 0 0 0 0 0 0
0 0 0 0 0 0 0 0 0
0 0 0 0 0 0 0 0 0
0 0 0 0 0 0 0 0 0
0 0 0 0 0 0 0 0 0
0 0 0 0 0 0 0 0 0
0 0 0 0 0 0 0 0 0
0 0 0 0 0 0 0 0 0
0 0 0 0 0 0 0 0 0
0 0 0 0 0 0 0 0 0
0 0 0 0 0 0 0 0 0
0 0 0 0 0 0 0 0 0
0 0 0 0 0 0 0 0 0
0 0 0 0 0 0 0 0 0
0 0 0 0 0 0 0 0 0
0 0 0 0 0 0 0 0 0
0 0 0 0 0 0 0 0 0
0 0 0 0 0 0 0 0 0
0 0 0 0 0 0 0 0 0
0 0 0 0 0 0 0 0 0
0 0 0 0 0 0 0 0 0
0 0 0 0 0 0 0 0 0
0 0 0 0 0 0 0 0 0
0 0 0 0 0 0 0 0 0
0 0 0 0 0 0 0 0 0
0 0 0 0 0 0 0 0 0
0 0 0 0 0 0 0 0 0
0 0 0 0 0 0 0 0 0
0 0 0 0 0 0 0 0 0
0 0 0 0 0 0 0 0 0
0 0 0 0 0 0 0 0 0
0 0 0 0 0 0 0 0 0
0 0 0 0 0 0 0 0 0
0 0 0 0 0 0 0 0 0
0 0 0 0 0 0 0 0 0
0 0 0 0 0 0 0 0 0
0 0 0 0 0 0 0 0 0
0 0 0 0 0 0 0 0 0
0 0 0 0 0 0 0 0 0
0 0 0 0 0 0 0 0 0
0 0 0 0 0 0 0 0 0
0 0 0 0 0 0 0 0 0
0 0 0 0 0 0 0 0 0
0 0 0 0 0 0 0 0 0
0 0 0 0 0 0 0 0 0
0 0 0 0 0 0 0 0 0
0 0 0 0 0 0 0 0 0
0 0 0 0 0 0 0 0 0
0 0 0 0 0 0 0 0 0
0 0 0 0 0 0 0 0 0
0 0 0 0 0 0 0 0 0
0 0 0 0 0 0 0 0 0
0 0 0 0 0 0 0 0 0
0 0 0 0 0 0 0 0 0
0 0 0 0 0 0 0 0 0
0 0 0 0 0 0 0 0 0
0 0 0 0 0 0 0 0 0
0 0 0 0 0 0 0 0 0
0 0 0 0 0 0 0 0 0
0 0 0 0 0 0 0 0 0
0 0 0 0 0 0 0 0 0
0 0 0 0 0 0 0 0 0
0 0 0 0 0 0 0 0 0
0 0 0 0 0 0 0 0 0
0 0 0 0 0 0 0 0 0
0 0 0 0 0 0 0 0 0
0 0 0 0 0 0 0 0 0
0 0 0 0 0 0 0 0 0
0 0 0 0 0 0 0 0 0
0 0 0 0 0 0 0 0 0
0 0 0 0 0 0 0 0 0
0 0 0 0 0 0 0 0 0
0 0 0 0 0 0 0 0 0
0 0 0 0 0 0 0 0 0
0 0 0 0 0 0 0 0 0
0 0 0 0 0 0 0 0 0
0 0 0 0 0 0 0 0 0
0 0 0 0 0 0 0 0 0
0 0 0 0 0 0 0 0 0
0 0 0 0 0 0 0 0 0
0 0 0 0 0 0 0 0 0
0 0 0 0 0 0 0 0 0
0 0 0 0 0 0 0 0 0
0 0 0 0 0 0 0 0 0
0 0 0 0 0 0 0 0 0
0 0 0 0 0 0 0 0 0
0 0 0 0 0 0 0 0 0
0 0 0 0 0 0 0 0 0
0 0 0 0 0 0 0 0 0
0 0 0 0 0 0 0 0 0
0 0 0 0 0 0 0 0 0
0 0 0 0 0 0 0 0 0
0 0 0 0 0 0 0 0 0
0 0 0 0 0 0 0 0 0
0 0 0 0 0 0 0 0 0
0 0 0 0 0 0 0 0 0
0 0 0 0 0 0 0 0 0
0 0 0 0 0 0 0 0 0
0 0 0 0 0 0 0 0 0
0 0 0 0 0 0 0 0 0
0 0 0 0 0 0 0 0 0
0 0 0 0 0 0 0 0 0
0 0 0 0 0 0 0 0 0
0 0 0 0 0 0 0 0 0
0 0 0 0 0 0 0 0 0
0 0 0 0 0 0 0 0 0
0 0 0 0 0 0 0 0 0
0 0 0 0 0 0 0 0 0
0 0 0 0 0 0 0 0 0
0 0 0 0 0 0 0 0 0
0 0 0 0 0 0 0 0 0
0 0 0 0 0 0 0 0 0
0 0 0 0 0 0 0 0 0
0 0 0 0 0 0 0 0 0
0 0 0 0 0 0 0 0 0
0 0 0 0 0 0 0 0 0
0 0 0 0 0 0 0 0 0
0 0 0 0 0 0 0 0 0
0 0 0 0 0 0 0 0 0
0 0 0 0 0 0 0 0 0
0 0 0 0 0 0 0 0 0
0 0 0 0 0 0 0 0 0
0 0 0 0 0 0 0 0 0
0 0 0 0 0 0 0 0 0
0 0 0 0 0 0 0 0 0
0 0 0 0 0 0 0 0 0
0 0 0 0 0 0 0 0 0
0 0 0 0 0 0 0 0 0
0 0 0 0 0 0 0 0 0
0 0 0 0 0 0 0 0 0
0 0 0 0 0 0 0 0 0
0 0 0 0 0 0 0 0 0
0 0 0 0 0 0 0 0 0
0 0 0 0 0 0 0 0 0
0 0 0 0 0 0 0 0 0
0 0 0 0 0 0 0 0 0
0 0 0 0 0 0 0 0 0
0 0 0 0 0 0 0 0 0
0 0 0 0 0 0 0 0 0
0 0 0 0 0 0 0 0 0
0 0 0 0 0 0 0 0 0
0 0 0 0 0 0 0 0 0
0 0 0 0 0 0 0 0 0
0 0 0 0 0 0 0 0 0
0 0 0 0 0 0 0 0 0
0 0 0 0 0 0 0 0 0
0 0 0 0 0 0 0 0 0
0 0 0 0 0 0 0 0 0
0 0 0 0 0 0 0 0 0
0 0 0 0 0 0 0 0 0
0 0 0 0 0 0 0 0 0
0 0 0 0 0 0 0 0 0
0 0 0 0 0 0 0 0 0
0 0 0 0 0 0 0 0 0
0 0 0 0 0 0 0 0 0
0 0 0 0 0 0 0 0 0
0 0 0 0 0 0 0 0 0
0 0 0 0 0 0 0 0 0
0 0 0 0 0 0 0 0 0
0 0 0 0 0 0 0 0 0
0 0 0 0 0 0 0 0 0
0 0 0 0 0 0 0 0 0
0 0 0 0 0 0 0 0 0
0 0 0 0 0 0 0 0 0
0 0 0 0 0 0 0 0 0
0 0 0 0 0 0 0 0 0
0 0 0 0 0 0 0 0 0
0 0 0 0 0 0 0 0 0
0 0 0 0 0 0 0 0 0
0 0 0 0 0 0 0 0 0
0 0 0 0 0 0 0 0 0
0 0 0 0 0 0 0 0 0
0 0 0 0 0 0 0 0 0
0 0 0 0 0 0 0 0 0
0 0 0 0 0 0 0 0 0
0 0 0 0 0 0 0 0 0
0 0 0 0 0 0 0 0 0
0 0 0 0 0 0 0 0 0
0 0 0 0 0 0 0 0 0
0 0 0 0 0 0 0 0 0
0 0 0 0 0 0 0 0 0
0 0 0 0 0 0 0 0 0
0 0 0 0 0 0 0 0 0
0 0 0 0 0 0 0 0 0
0 0 0 0 0 0 0 0 0
0 0 0 0 0 0 0 0 0
0 0 0 0 0 0 0 0 0
0 0 0 0 0 0 0 0 0
0 0 0 0 0 0 0 0 0
0 0 0 0 0 0 0 0 0
0 0 0 0 0 0 0 0 0
0 0 0 0 0 0 0 0 0
0 0 0 0 0 0 0 0 0
0 0 0 0 0 0 0 0 0
0 0 0 0 0 0 0 0 0
0 0 0 0 0 0 0 0 0
0 0 0 0 0 0 0 0 0
0 0 0 0 0 0 0 0 0
0 0 0 0 0 0 0 0 0
0 0 0 0 0 0 0 0 0
0 0 0 0 0 0 0 0 0
0 0 0 0 0 0 0 0 0
0 0 0 0 0 0 0 0 0
0 0 0 0 0 0 0 0 0
0 0 0 0 0 0 0 0 0
0 0 0 0 0 0 0 0 0
0 0 0 0 0 0 0 0 0
0 0 0 0 0 0 0 0 0
0 0 0 0 0 0 0 0 0
0 0 0 0 0 0 0 0 0
0 0 0 0 0 0 0 0 0
0 0 0 0 0 0 0 0 0
0 0 0 0 0 0 0 0 0
0 0 0 0 0 0 0 0 0
0 0 0 0 0 0 0 0 0
0 0 0 0 0 0 0 0 0
0 0 0 0 0 0 0 0 0
0 0 0 0 0 0 0 0 0
0 0 0 0 0 0 0 0 0
0 0 0 0 0 0 0 0 0
0 0 0 0 0 0 0 0 0
0 0 0 0 0 0 0 0 0
0 0 0 0 0 0 0 0 0
0 0 0 0 0 0 0 0 0
0 0 0 0 0 0 0 0 0
0 0 0 0 0 0 0 0 0
0 0 0 0 0 0 0 0 0
0 0 0 0 0 0 0 0 0
0 0 0 0 0 0 0 0 0
0 0 0 0 0 0 0 0 0
0 0 0 0 0 0 0 0 0
0 0 0 0 0 0 0 0 0
0 0 0 0 0 0 0 0 0
0 0 0 0 0 0 0 0 0
0 0 0 0 0 0 0 0 0
0 0 0 0 0 0 0 0 0
0 0 0 0 0 0 0 0 0
0 0 0 0 0 0 0 0 0
0 0 0 0 0 0 0 0 0
0 0 0 0 0 0 0 0 0
0 0 0 0 0 0 0 0 0
0 0 0 0 0 0 0 0 0
0 0 0 0 0 0 0 0 0
0 0 0 0 0 0 0 0 0
0 0 0 0 0 0 0 0 0
0 0 0 0 0 0 0 0 0
0 0 0 0 0 0 0 0 0
0 0 0 0 0 0 0 0 0
0 0 0 0 0 0 0 0 0
0 0 0 0 0 0 0 0 0
0 0 0 0 0 0 0 0 0
0 0 0 0 0 0 0 0 0
0 0 0 0 0 0 0 0 0
0 0 0 0 0 0 0 0 0
0 0 0 0 0 0 0 0 0
0 0 0 0 0 0 0 0 0
0 0 0 0 0 0 0 0 0
0 0 0 0 0 0 0 0 0
0 0 0 0 0 0 0 0 0
0 0 0 0 0 0 0 0 0
0 0 0 0 0 0 0 0 0
0 0 0 0 0 0 0 0 0
0 0 0 0 0 0 0 0 0
0 0 0 0 0 0 0 0 0
0 0 0 0 0 0 0 0 0
0 0 0 0 0 0 0 0 0
0 0 0 0 0 0 0 0 0
0 0 0 0 0 0 0 0 0
0 0 0 0 0 0 0 0 0
0 0 0 0 0 0 0 0 0
0 0 0 0 0 0 0 0 0
0 0 0 0 0 0 0 0 0
0 0 0 0 0 0 0 0 0
0 0 0 0 0 0 0 0 0
0 0 0 0 0 0 0 0 0
0 0 0 0 0 0 0 0 0
0 0 0 0 0 0 0 0 0
0 0 0 0 0 0 0 0 0
0 0 0 0 0 0 0 0 0
0 0 0 0 0 0 0 0 0
0 0 0 0 0 0 0 0 0
0 0 0 0 0 0 0 0 0
0 0 0 0 0 0 0 0 0
0 0 0 0 0 0 0 0 0
0 0 0 0 0 0 0 0 0
0 0 0 0 0 0 0 0 0
0 0 0 0 0 0 0 0 0
0 0 0 0 0 0 0 0 0
0 0 0 0 0 0 0 0 0
0 0 0 0 0 0 0 0 0
0 0 0 0 0 0 0 0 0
0 0 0 0 0 0 0 0 0
0 0 0 0 0 0 0 0 0
0 0 0 0 0 0 0 0 0
0 0 0 0 0 0 0 0 0
0 0 0 0 0 0 0 0 0
0 0 0 0 0 0 0 0 0
0 0 0 0 0 0 0 0 0
0 0 0 0 0 0 0 0 0
0 0 0 0 0 0 0 0 0
0 0 0 0 0 0 0 0 0
0 0 0 0 0 0 0 0 0
0 0 0 0 0 0 0 0 0
0 0 0 0 0 0 0 0 0
0 0 0 0 0 0 0 0 0
0 0 0 0 0 0 0 0 0
0 0 0 0 0 0 0 0 0
0 0 0 0 0 0 0 0 0
0 0 0 0 0 0 0 0 0
0 0 0 0 0 0 0 0 0
0 0 0 0 0 0 0 0 0
0 0 0 0 0 0 0 0 0
0 0 0 0 0 0 0 0 0
0 0 0 0 0 0 0 0 0
0 0 0 0 0 0 0 0 0
0 0 0 0 0 0 0 0 0
0 0 0 0 0 0 0 0 0
0 0 0 0 0 0 0 0 0
0 0 0 0 0 0 0 0 0
0 0 0 0 0 0 0 0 0
0 0 0 0 0 0 0 0 0
0 0 0 0 0 0 0 0 0
0 0 0 0 0 0 0 0 0
0 0 0 0 0 0 0 0 0
0 0 0 0 0 0 0 0 0
0 0 0 0 0 0 0 0 0
0 0 0 0 0 0 0 0 0
0 0 0 0 0 0 0 0 0
0 0 0 0 0 0 0 0 0
0 0 0 0 0 0 0 0 0
0 0 0 0 0 0 0 0 0
0 0 0 0 0 0 0 0 0
0 0 0 0 0 0 0 0 0
0 0 0 0 0 0 0 0 0
0 0 0 0 0 0 0 0 0
0 0 0 0 0 0 0 0 0
0 0 0 0 0 0 0 0 0
0 0 0 0 0 0 0 0 0
0 0 0 0 0 0 0 0 0
0 0 0 0 0 0 0 0 0
0 0 0 0 0 0 0 0 0
0 0 0 0 0 0 0 0 0
0 0 0 0 0 0 0 0 0
0 0 0 0 0 0 0 0 0
0 0 0 0 0 0 0 0 0
0 0 0 0 0 0 0 0 0
0 0 0 0 0 0 0 0 0
0 0 0 0 0 0 0 0 0
0 0 0 0 0 0 0 0 0
0 0 0 0 0 0 0 0 0
0 0 0 0 0 0 0 0 0
0 0 0 0 0 0 0 0 0
0 0 0 0 0 0 0 0 0
0 0 0 0 0 0 0 0 0
0 0 0 0 0 0 0 0 0
0 0 0 0 0 0 0 0 0
0 0 0 0 0 0 0 0 0
0 0 0 0 0 0 0 0 0
0 0 0 0 0 0 0 0 0
0 0 0 0 0 0 0 0 0
0 0 0 0 0 0 0 0 0
0 0 0 0 0 0 0 0 0
0 0 0 0 0 0 0 0 0
0 0 0 0 0 0 0 0 0
0 0 0 0 0 0 0 0 0
0 0 0 0 0 0 0 0 0
0 0 0 0 0 0 0 0 0
0 0 0 0 0 0 0 0 0
0 0 0 0 0 0 0 0 0
0 0 0 0 0 0 0 0 0
0 0 0 0 0 0 0 0 0
0 0 0 0 0 0 0 0 0
0 0 0 0 0 0 0 0 0
0 0 0 0 0 0 0 0 0
0 0 0 0 0 0 0 0 0
0 0 0 0 0 0 0 0 0
0 0 0 0 0 0 0 0 0
0 0 0 0 0 0 0 0 0
0 0 0 0 0 0 0 0 0
0 0 0 0 0 0 0 0 0
0 0 0 0 0 0 0 0 0
0 0 0 0 0 0 0 0 0
0 0 0 0 0 0 0 0 0
0 0 0 0 0 0 0 0 0
0 0 0 0 0 0 0 0 0
0 0 0 0 0 0 0 0 0
0 0 0 0 0 0 0 0 0
0 0 0 0 0 0 0 0 0
0 0 0 0 0 0 0 0 0
0 0 0 0 0 0 0 0 0
0 0 0 0 0 0 0 0 0
0 0 0 0 0 0 0 0 0
0 0 0 0 0 0 0 0 0
0 0 0 0 0 0 0 0 0
0 0 0 0 0 0 0 0 0
0 0 0 0 0 0 0 0 0
0 0 0 0 0 0 0 0 0
0 0 0 0 0 0 0 0 0
0 0 0 0 0 0 0 0 0
0 0 0 0 0 0 0 0 0
0 0 0 0 0 0 0 0 0
0 0 0 0 0 0 0 0 0
0 0 0 0 0 0 0 0 0
0 0 0 0 0 0 0 0 0
0 0 0 0 0 0 0 0 0
0 0 0 0 0 0 0 0 0
0 0 0 0 0 0 0 0 0
0 0 0 0 0 0 0 0 0
0 0 0 0 0 0 0 0 0
0 0 0 0 0 0 0 0 0
0 0 0 0 0 0 0 0 0
0 0 0 0 0 0 0 0 0
0 0 0 0 0 0 0 0 0
0 0 0 0 0 0 0 0 0
0 0 0 0 0 0 0 0 0
0 0 0 0 0 0 0 0 0
SCALARS tauN double 9
LOOKUP_TABLE default
0 0 0 0 0 0 0 0 0
0 0 0 0 0 0 0 0 0
0 0 0 0 0 0 0 0 0
0 0 0 0 0 0 0 0 0
0 0 0 0 0 0 0 0 0
0 0 0 0 0 0 0 0 0
0 0 0 0 0 0 0 0 0
0 0 0 0 0 0 0 0 0
0 0 0 0 0 0 0 0 0
0 0 0 0 0 0 0 0 0
0 0 0 0 0 0 0 0 0
0 0 0 0 0 0 0 0 0
0 0 0 0 0 0 0 0 0
0 0 0 0 0 0 0 0 0
0 0 0 0 0 0 0 0 0
0 0 0 0 0 0 0 0 0
0 0 0 0 0 0 0 0 0
0 0 0 0 0 0 0 0 0
0 0 0 0 0 0 0 0 0
0 0 0 0 0 0 0 0 0
0 0 0 0 0 0 0 0 0
0 0 0 0 0 0 0 0 0
0 0 0 0 0 0 0 0 0
0 0 0 0 0 0 0 0 0
0 0 0 0 0 0 0 0 0
0 0 0 0 0 0 0 0 0
0 0 0 0 0 0 0 0 0
0 0 0 0 0 0 0 0 0
0 0 0 0 0 0 0 0 0
0 0 0 0 0 0 0 0 0
0 0 0 0 0 0 0 0 0
0 0 0 0 0 0 0 0 0
0 0 0 0 0 0 0 0 0
0 0 0 0 0 0 0 0 0
0 0 0 0 0 0 0 0 0
0 0 0 0 0 0 0 0 0
0 0 0 0 0 0 0 0 0
0 0 0 0 0 0 0 0 0
0 0 0 0 0 0 0 0 0
0 0 0 0 0 0 0 0 0
0 0 0 0 0 0 0 0 0
0 0 0 0 0 0 0 0 0
0 0 0 0 0 0 0 0 0
0 0 0 0 0 0 0 0 0
0 0 0 0 0 0 0 0 0
0 0 0 0 0 0 0 0 0
0 0 0 0 0 0 0 0 0
0 0 0 0 0 0 0 0 0
0 0 0 0 0 0 0 0 0
0 0 0 0 0 0 0 0 0
0 0 0 0 0 0 0 0 0
0 0 0 0 0 0 0 0 0
0 0 0 0 0 0 0 0 0
0 0 0 0 0 0 0 0 0
0 0 0 0 0 0 0 0 0
0 0 0 0 0 0 0 0 0
0 0 0 0 0 0 0 0 0
0 0 0 0 0 0 0 0 0
0 0 0 0 0 0 0 0 0
0 0 0 0 0 0 0 0 0
0 0 0 0 0 0 0 0 0
0 0 0 0 0 0 0 0 0
0 0 0 0 0 0 0 0 0
0 0 0 0 0 0 0 0 0
0 0 0 0 0 0 0 0 0
0 0 0 0 0 0 0 0 0
0 0 0 0 0 0 0 0 0
0 0 0 0 0 0 0 0 0
0 0 0 0 0 0 0 0 0
0 0 0 0 0 0 0 0 0
0 0 0 0 0 0 0 0 0
0 0 0 0 0 0 0 0 0
0 0 0 0 0 0 0 0 0
0 0 0 0 0 0 0 0 0
0 0 0 0 0 0 0 0 0
0 0 0 0 0 0 0 0 0
0 0 0 0 0 0 0 0 0
0 0 0 0 0 0 0 0 0
0 0 0 0 0 0 0 0 0
0 0 0 0 0 0 0 0 0
0 0 0 0 0 0 0 0 0
0 0 0 0 0 0 0 0 0
0 0 0 0 0 0 0 0 0
0 0 0 0 0 0 0 0 0
0 0 0 0 0 0 0 0 0
0 0 0 0 0 0 0 0 0
0 0 0 0 0 0 0 0 0
0 0 0 0 0 0 0 0 0
0 0 0 0 0 0 0 0 0
0 0 0 0 0 0 0 0 0
0 0 0 0 0 0 0 0 0
0 0 0 0 0 0 0 0 0
0 0 0 0 0 0 0 0 0
0 0 0 0 0 0 0 0 0
0 0 0 0 0 0 0 0 0
0 0 0 0 0 0 0 0 0
0 0 0 0 0 0 0 0 0
0 0 0 0 0 0 0 0 0
0 0 0 0 0 0 0 0 0
0 0 0 0 0 0 0 0 0
0 0 0 0 0 0 0 0 0
0 0 0 0 0 0 0 0 0
0 0 0 0 0 0 0 0 0
0 0 0 0 0 0 0 0 0
0 0 0 0 0 0 0 0 0
0 0 0 0 0 0 0 0 0
0 0 0 0 0 0 0 0 0
0 0 0 0 0 0 0 0 0
0 0 0 0 0 0 0 0 0
0 0 0 0 0 0 0 0 0
0 0 0 0 0 0 0 0 0
0 0 0 0 0 0 0 0 0
0 0 0 0 0 0 0 0 0
0 0 0 0 0 0 0 0 0
0 0 0 0 0 0 0 0 0
0 0 0 0 0 0 0 0 0
0 0 0 0 0 0 0 0 0
0 0 0 0 0 0 0 0 0
0 0 0 0 0 0 0 0 0
0 0 0 0 0 0 0 0 0
0 0 0 0 0 0 0 0 0
0 0 0 0 0 0 0 0 0
0 0 0 0 0 0 0 0 0
0 0 0 0 0 0 0 0 0
0 0 0 0 0 0 0 0 0
0 0 0 0 0 0 0 0 0
0 0 0 0 0 0 0 0 0
0 0 0 0 0 0 0 0 0
0 0 0 0 0 0 0 0 0
0 0 0 0 0 0 0 0 0
0 0 0 0 0 0 0 0 0
0 0 0 0 0 0 0 0 0
0 0 0 0 0 0 0 0 0
0 0 0 0 0 0 0 0 0
0 0 0 0 0 0 0 0 0
0 0 0 0 0 0 0 0 0
0 0 0 0 0 0 0 0 0
0 0 0 0 0 0 0 0 0
0 0 0 0 0 0 0 0 0
0 0 0 0 0 0 0 0 0
0 0 0 0 0 0 0 0 0
0 0 0 0 0 0 0 0 0
0 0 0 0 0 0 0 0 0
0 0 0 0 0 0 0 0 0
0 0 0 0 0 0 0 0 0
0 0 0 0 0 0 0 0 0
0 0 0 0 0 0 0 0 0
0 0 0 0 0 0 0 0 0
0 0 0 0 0 0 0 0 0
0 0 0 0 0 0 0 0 0
0 0 0 0 0 0 0 0 0
0 0 0 0 0 0 0 0 0
0 0 0 0 0 0 0 0 0
0 0 0 0 0 0 0 0 0
0 0 0 0 0 0 0 0 0
0 0 0 0 0 0 0 0 0
0 0 0 0 0 0 0 0 0
0 0 0 0 0 0 0 0 0
0 0 0 0 0 0 0 0 0
0 0 0 0 0 0 0 0 0
0 0 0 0 0 0 0 0 0
0 0 0 0 0 0 0 0 0
0 0 0 0 0 0 0 0 0
0.0149349 0.0157415 0.0156194 0.0164329 0.0149349 0.0157415 0.0156194 0.0164329 0
0.0162567 0.0171482 0.0169536 0.017847 0.0162567 0.0171482 0.0169536 0.017847 0
0.0136581 0.0144608 0.0143737 0.0151758 0.0136581 0.0144608 0.0143737 0.0151758 0
0.0149663 0.0158506 0.0156845 0.0165718 0.0149663 0.0158506 0.0156845 0.0165718 0
0.0164089 0.0173757 0.0171343 0.0181029 0.0164089 0.0173757 0.0171343 0.0181029 0
0.0179867 0.0190342 0.0187182 0.0197682 0.0179867 0.0190342 0.0187182 0.0197682 0
0.0197004 0.0208353 0.0204411 0.0215841 0.0197004 0.0208353 0.0204411 0.0215841 0
0.0215711 0.0228243 0.0223275 0.0235848 0.0215711 0.0228243 0.0223275 0.0235848 0
0.0236514 0.0250489 0.0244169 0.0258151 0.0236514 0.0250489 0.0244169 0.0258151 0
0.0259868 0.0275527 0.0267547 0.0283146 0.0259868 0.0275527 0.0267547 0.0283146 0
0.0286252 0.030396 0.0293839 0.0311415 0.0286252 0.030396 0.0293839 0.0311415 0
0.0136301 0.0145047 0.0143779 0.0152571 0.0136301 0.0145047 0.0143779 0.0152571 0
0.0150497 0.0160062 0.0158082 0.01677 0.0150497 0.0160062 0.0158082 0.01677 0
0.0166035 0.0176417 0.0173734 0.0184158 0.0166035 0.0176417 0.0173734 0.0184158 0
0.0182952 0.0194247 0.0190738 0.0202032 0.0182952 0.0194247 0.0190738 0.0202032 0
0.0201477 0.021393 0.0209303 0.0221782 0.0201477 0.021393 0.0209303 0.0221782 0
0.0222064 0.0235975 0.0229968 0.0243903 0.0222064 0.0235975 0.0229968 0.0243903 0
0.0245241 0.0260902 0.0253212 0.0268865 0.0245241 0.0260902 0.0253212 0.0268865 0
0.0122517 0.0131154 0.0130245 0.0138933 0.0122517 0.0131154 0.0130245 0.0138933 0
0.013646 0.0145904 0.0144304 0.0153806 0.013646 0.0145904 0.0144304 0.0153806 0
0.015173 0.0162009 0.0159697 0.0170022 0.015173 0.0162009 0.0159697 0.0170022 0
0.0168407 0.0179625 0.0176479 0.0187735 0.0168407 0.0179625 0.0176479 0.0187735 0
0.0186716 0.0199081 0.0194886 0.0207289 0.0186716 0.0199081 0.0194886 0.0207289 0
0.0207073 0.0220914 0.0215337 0.0229202 0.0207073 0.0220914 0.0215337 0.0229202 0
0.0230025 0.0245579 0.023838 0.0253992 0.0230025 0.0245579 0.023838 0.0253992 0
0.0108312 0.0116834 0.0116305 0.0124883 0.0108312 0.0116834 0.0116305 0.0124883 0
0.0121996 0.0131317 0.0130111 0.013949 0.0121996 0.0131317 0.0130111 0.013949 0
0.0136992 0.0147158 0.0145233 0.0155453 0.0136992 0.0147158 0.0145233 0.0155453 0
0.0153405 0.016452 0.0161767 0.0172929 0.0153405 0.016452 0.0161767 0.0172929 0
0.0171452 0.0183703 0.0179932 0.0192237 0.0171452 0.0183703 0.0179932 0.0192237 0
0.0191506 0.0205183 0.020013 0.0213901 0.0191506 0.0205183 0.020013 0.0213901 0
0.00936843 0.0102094 0.0101943 0.0110406 0.00936843 0.0102094 0.0101943 0.0110406 0
0.0107113 0.0116309 0.0115492 0.0124749 0.0107113 0.0116309 0.0115492 0.0124749 0
0.0121831 0.0131876 0.0130342 0.0140445 0.0121831 0.0131876 0.0130342 0.0140445 0
0.0137962 0.0148952 0.0146606 0.0157657 0.0137962 0.0148952 0.0146606 0.0157657 0
0.0155704 0.0167802 0.0164495 0.0176671 0.0155704 0.0167802 0.0164495 0.0176671 0
0.0175395 0.0188889 0.0184363 0.0197947 0.0175395 0.0188889 0.0184363 0.0197947 0
0.00786577 0.00869508 0.00871685 0.00955196 0.00786577 0.00869508 0.00871685 0.00955196 0
0.00918284 0.0100901 0.0100465 0.0109599 0.00918284 0.0100901 0.0100465 0.0109599 0
0.010627 0.0116186 0.011504 0.0125019 0.010627 0.0116186 0.011504 0.0125019 0
0.0122104 0.0132951 0.0131018 0.0141937 0.0122104 0.0132951 0.0131018 0.0141937 0
0.0139514 0.0151447 0.014859 0.0160605 0.0139514 0.0151447 0.014859 0.0160605 0
0.0158803 0.017205 0.016808 0.0181466 0.0158803 0.017205 0.016808 0.0181466 0
0.00632847 0.00714559 0.00720164 0.00802497 0.00632847 0.00714559 0.00720164 0.00802497 0
0.00761918 0.00851357 0.00850563 0.0094066 0.00761918 0.00851357 0.00850563 0.0094066 0
0.0090352 0.0100138 0.00993569 0.0109208 0.0090352 0.0100138 0.00993569 0.0109208 0
0.0105887 0.0116579 0.0115039 0.0125811 0.0105887 0.0116579 0.0115039 0.0125811 0
0.0122949 0.0134712 0.0132275 0.0144125 0.0122949 0.0134712 0.0132275 0.0144125 0
0.0036317 0.00435688 0.00450643 0.00523643 0.0036317 0.00435688 0.00450643 0.00523643 0
0.00476973 0.00557031 0.00565653 0.00646654 0.00476973 0.00557031 0.00565653 0.00646654 0
0.00602854 0.00690998 0.00693295 0.00782104 0.00602854 0.00690998 0.00693295 0.00782104 0
0.00741662 0.00838179 0.00833526 0.00930738 0.00741662 0.00838179 0.00833526 0.00930738 0
0.00894039 0.00999564 0.009874 0.0109361 0.00894039 0.00999564 0.009874 0.0109361 0
0.0106123 0.0117666 0.0115631 0.0127299 0.0106123 0.0117666 0.0115631 0.0127299 0
0.00209256 0.00279837 0.00297019 0.00368809 0.00209256 0.00279837 0.00297019 0.00368809 0
0.00319558 0.00398198 0.00409421 0.00488763 0.00319558 0.00398198 0.00409421 0.00488763 0
0.00442627 0.00529487 0.00533915 0.00621449 0.00442627 0.00529487 0.00533915 0.00621449 0
0.00578723 0.00673945 0.00671428 0.00767317 0.00578723 0.00673945 0.00671428 0.00767317 0
0.00728328 0.00832676 0.00822442 0.00927365 0.00728328 0.00832676 0.00822442 0.00927365 0
0.00892574 0.0100621 0.0098812 0.0110263 0.00892574 0.0100621 0.0098812 0.0110263 0
-0.00189443 -0.00143039 -0.00109148 -0.0006139 -0.00189443 -0.00143039 -0.00109148 -0.0006139 0
-0.00118196 -0.000654083 -0.000354334 0.000187466 -0.00118196 -0.000654083 -0.000354334 0.000187466 0
-0.000367041 0.000234974 0.000484518 0.00109647 -0.000367041 0.000234974 0.000484518 0.00109647 0
0.000567909 0.00125497 0.00143815 0.00213509 0.000567909 0.00125497 0.00143815 0.00213509 0
0.00163752 0.00241009 0.00252578 0.00330596 0.00163752 0.00241009 0.00252578 0.00330596 0
0.00284145 0.00369788 0.0037445 0.00460736 0.00284145 0.00369788 0.0037445 0.00460736 0
0.00417691 0.00511636 0.00509362 0.00603992 0.00417691 0.00511636 0.00509362 0.00603992 0
0.00564639 0.00667895 0.00657727 0.00761551 0.00564639 0.00667895 0.00657727 0.00761551 0
-0.00323546 -0.002794 -0.00247509 -0.00202116 -0.00323546 -0.002794 -0.00247509 -0.00202116 0
-0.00256365 -0.00206057 -0.00178021 -0.00126313 -0.00256365 -0.00206057 -0.00178021 -0.00126313 0
-0.00179144 -0.00121065 -0.000983219 -0.000389966 -0.00179144 -0.00121065 -0.000983219 -0.000389966 0
-0.000894281 -0.000227147 -6.35027e-05 0.000615169 -0.000894281 -0.000227147 -6.35027e-05 0.000615169 0
0.000141353 0.000901028 0.00099201 0.00175868 0.000141353 0.000901028 0.00099201 0.00175868 0
0.00132089 0.00216612 0.00218517 0.00303645 0.00132089 0.00216612 0.00218517 0.00303645 0
0.0026335 0.00356171 0.00351039 0.00444455 0.0026335 0.00356171 0.00351039 0.00444455 0
0.00408105 0.00510751 0.00496951 0.00599843 0.00408105 0.00510751 0.00496951 0.00599843 0
-0.00444442 -0.0040194 -0.0037665 -0.00333306 -0.00444442 -0.0040194 -0.0037665 -0.00333306 0
-0.00379981 -0.0033096 -0.00310772 -0.00261209 -0.00379981 -0.0033096 -0.00310772 -0.00261209 0
-0.00305084 -0.0024846 -0.00234788 -0.00177454 -0.00305084 -0.0024846 -0.00234788 -0.00177454 0
-0.00218174 -0.00153499 -0.00146376 -0.000805369 -0.00218174 -0.00153499 -0.00146376 -0.000805369 0
-0.00118292 -0.000444516 -0.000442793 0.000309136 -0.00118292 -0.000444516 -0.000442793 0.000309136 0
-3.78105e-05 0.000797506 0.000724375 0.00156517 -3.78105e-05 0.000797506 0.000724375 0.00156517 0
0.00125821 0.00218483 0.00202958 0.00295563 0.00125821 0.00218483 0.00202958 0.00295563 0
0.00269752 0.00371661 0.00347208 0.00449576 0.00269752 0.00371661 0.00347208 0.00449576 0
0 0 0 0 0 0 0 0 0
0 0 0 0 0 0 0 0 0
0 0 0 0 0 0 0 0 0
0 0 0 0 0 0 0 0 0
0 0 0 0 0 0 0 0 0
0 0 0 0 0 0 0 0 0
0 0 0 0 0 0 0 0 0
0 0 0 0 0 0 0 0 0
0 0 0 0 0 0 0 0 0
0 0 0 0 0 0 0 0 0
0 0 0 0 0 0 0 0 0
0 0 0 0 0 0 0 0 0
0 0 0 0 0 0 0 0 0
0 0 0 0 0 0 0 0 0
0 0 0 0 0 0 0 0 0
0 0 0 0 0 0 0 0 0
0 0 0 0 0 0 0 0 0
0 0 0 0 0 0 0 0 0
0 0 0 0 0 0 0 0 0
0 0 0 0 0 0 0 0 0
0 0 0 0 0 0 0 0 0
0 0 0 0 0 0 0 0 0
0 0 0 0 0 0 0 0 0
0 0 0 0 0 0 0 0 0
0 0 0 0 0 0 0 0 0
0 0 0 0 0 0 0 0 0
0 0 0 0 0 0 0 0 0
0 0 0 0 0 0 0 0 0
0 0 0 0 0 0 0 0 0
0 0 0 0 0 0 0 0 0
0 0 0 0 0 0 0 0 0
0 0 0 0 0 0 0 0 0
0 0 0 0 0 0 0 0 0
0 0 0 0 0 0 0 0 0
0 0 0 0 0 0 0 0 0
0 0 0 0 0 0 0 0 0
0 0 0 0 0 0 0 0 0
0 0 0 0 0 0 0 0 0
0 0 0 0 0 0 0 0 0
0 0 0 0 0 0 0 0 0
0 0 0 0 0 0 0 0 0
0 0 0 0 0 0 0 0 0
0 0 0 0 0 0 0 0 0
0 0 0 0 0 0 0 0 0
0 0 0 0 0 0 0 0 0
0 0 0 0 0 0 0 0 0
0 0 0 0 0 0 0 0 0
0 0 0 0 0 0 0 0 0
0 0 0 0 0 0 0 0 0
0 0 0 0 0 0 0 0 0
0 0 0 0 0 0 0 0 0
0 0 0 0 0 0 0 0 0
0 0 0 0 0 0 0 0 0
0 0 0 0 0 0 0 0 0
0 0 0 0 0 0 0 0 0
0 0 0 0 0 0 0 0 0
0 0 0 0 0 0 0 0 0
0 0 0 0 0 0 0 0 0
0 0 0 0 0 0 0 0 0
0 0 0 0 0 0 0 0 0
0 0 0 0 0 0 0 0 0
0 0 0 0 0 0 0 0 0
0 0 0 0 0 0 0 0 0
0 0 0 0 0 0 0 0 0
0 0 0 0 0 0 0 0 0
0 0 0 0 0 0 0 0 0
0 0 0 0 0 0 0 0 0
0 0 0 0 0 0 0 0 0
0 0 0 0 0 0 0 0 0
0 0 0 0 0 0 0 0 0
0 0 0 0 0 0 0 0 0
0 0 0 0 0 0 0 0 0
0 0 0 0 0 0 0 0 0
0 0 0 0 0 0 0 0 0
0 0 0 0 0 0 0 0 0
0 0 0 0 0 0 0 0 0
0 0 0 0 0 0 0 0 0
0 0 0 0 0 0 0 0 0
0 0 0 0 0 0 0 0 0
0 0 0 0 0 0 0 0 0
0 0 0 0 0 0 0 0 0
0 0 0 0 0 0 0 0 0
0 0 0 0 0 0 0 0 0
0 0 0 0 0 0 0 0 0
0 0 0 0 0 0 0 0 0
0 0 0 0 0 0 0 0 0
0 0 0 0 0 0 0 0 0
0 0 0 0 0 0 0 0 0
0 0 0 0 0 0 0 0 0
0 0 0 0 0 0 0 0 0
0 0 0 0 0 0 0 0 0
0 0 0 0 0 0 0 0 0
0 0 0 0 0 0 0 0 0
0 0 0 0 0 0 0 0 0
0 0 0 0 0 0 0 0 0
0 0 0 0 0 0 0 0 0
0 0 0 0 0 0 0 0 0
0 0 0 0 0 0 0 0 0
0 0 0 0 0 0 0 0 0
0 0 0 0 0 0 0 0 0
0 0 0 0 0 0 0 0 0
0 0 0 0 0 0 0 0 0
0 0 0 0 0 0 0 0 0
0 0 0 0 0 0 0 0 0
0 0 0 0 0 0 0 0 0
0 0 0 0 0 0 0 0 0
0 0 0 0 0 0 0 0 0
0 0 0 0 0 0 0 0 0
0 0 0 0 0 0 0 0 0
0 0 0 0 0 0 0 0 0
0 0 0 0 0 0 0 0 0
0 0 0 0 0 0 0 0 0
0 0 0 0 0 0 0 0 0
0 0 0 0 0 0 0 0 0
0 0 0 0 0 0 0 0 0
0 0 0 0 0 0 0 0 0
0 0 0 0 0 0 0 0 0
0 0 0 0 0 0 0 0 0
0 0 0 0 0 0 0 0 0
0 0 0 0 0 0 0 0 0
0 0 0 0 0 0 0 0 0
0 0 0 0 0 0 0 0 0
0 0 0 0 0 0 0 0 0
0 0 0 0 0 0 0 0 0
0 0 0 0 0 0 0 0 0
0 0 0 0 0 0 0 0 0
0 0 0 0 0 0 0 0 0
0 0 0 0 0 0 0 0 0
0 0 0 0 0 0 0 0 0
0 0 0 0 0 0 0 0 0
0 0 0 0 0 0 0 0 0
0 0 0 0 0 0 0 0 0
0 0 0 0 0 0 0 0 0
0 0 0 0 0 0 0 0 0
0 0 0 0 0 0 0 0 0
0 0 0 0 0 0 0 0 0
0 0 0 0 0 0 0 0 0
0 0 0 0 0 0 0 0 0
0 0 0 0 0 0 0 0 0
0 0 0 0 0 0 0 0 0
0 0 0 0 0 0 0 0 0
0 0 0 0 0 0 0 0 0
0 0 0 0 0 0 0 0 0
0 0 0 0 0 0 0 0 0
0 0 0 0 0 0 0 0 0
0 0 0 0 0 0 0 0 0
0 0 0 0 0 0 0 0 0
0 0 0 0 0 0 0 0 0
0 0 0 0 0 0 0 0 0
0 0 0 0 0 0 0 0 0
0 0 0 0 0 0 0 0 0
0 0 0 0 0 0 0 0 0
0 0 0 0 0 0 0 0 0
0 0 0 0 0 0 0 0 0
0 0 0 0 0 0 0 0 0
0 0 0 0 0 0 0 0 0
0 0 0 0 0 0 0 0 0
0 0 0 0 0 0 0 0 0
0 0 0 0 0 0 0 0 0
0 0 0 0 0 0 0 0 0
0 0 0 0 0 0 0 0 0
0 0 0 0 0 0 0 0 0
0 0 0 0 0 0 0 0 0
0 0 0 0 0 0 0 0 0
0 0 0 0 0 0 0 0 0
0 0 0 0 0 0 0 0 0
0 0 0 0 0 0 0 0 0
0 0 0 0 0 0 0 0 0
0 0 0 0 0 0 0 0 0
0 0 0 0 0 0 0 0 0
0 0 0 0 0 0 0 0 0
0 0 0 0 0 0 0 0 0
0 0 0 0 0 0 0 0 0
0 0 0 0 0 0 0 0 0
0 0 0 0 0 0 0 0 0
0 0 0 0 0 0 0 0 0
0 0 0 0 0 0 0 0 0
0 0 0 0 0 0 0 0 0
0 0 0 0 0 0 0 0 0
0 0 0 0 0 0 0 0 0
0 0 0 0 0 0 0 0 0
0 0 0 0 0 0 0 0 0
0 0 0 0 0 0 0 0 0
0 0 0 0 0 0 0 0 0
0 0 0 0 0 0 0 0 0
0 0 0 0 0 0 0 0 0
0 0 0 0 0 0 0 0 0
0 0 0 0 0 0 0 0 0
0 0 0 0 0 0 0 0 0
0 0 0 0 0 0 0 0 0
0 0 0 0 0 0 0 0 0
0 0 0 0 0 0 0 0 0
0 0 0 0 0 0 0 0 0
0 0 0 0 0 0 0 0 0
0 0 0 0 0 0 0 0 0
0 0 0 0 0 0 0 0 0
0 0 0 0 0 0 0 0 0
0 0 0 0 0 0 0 0 0
0 0 0 0 0 0 0 0 0
0 0 0 0 0 0 0 0 0
0 0 0 0 0 0 0 0 0
0 0 0 0 0 0 0 0 0
0 0 0 0 0 0 0 0 0
0 0 0 0 0 0 0 0 0
0 0 0 0 0 0 0 0 0
0 0 0 0 0 0 0 0 0
0 0 0 0 0 0 0 0 0
0 0 0 0 0 0 0 0 0
0 0 0 0 0 0 0 0 0
0 0 0 0 0 0 0 0 0
0 0 0 0 0 0 0 0 0
0 0 0 0 0 0 0 0 0
0 0 0 0 0 0 0 0 0
0 0 0 0 0 0 0 0 0
0 0 0 0 0 0 0 0 0
0 0 0 0 0 0 0 0 0
0 0 0 0 0 0 0 0 0
0 0 0 0 0 0 0 0 0
0 0 0 0 0 0 0 0 0
0 0 0 0 0 0 0 0 0
0 0 0 0 0 0 0 0 0
0 0 0 0 0 0 0 0 0
0 0 0 0 0 0 0 0 0
0 0 0 0 0 0 0 0 0
0 0 0 0 0 0 0 0 0
0 0 0 0 0 0 0 0 0
0 0 0 0 0 0 0 0 0
0 0 0 0 0 0 0 0 0
0 0 0 0 0 0 0 0 0
0 0 0 0 0 0 0 0 0
0 0 0 0 0 0 0 0 0
0 0 0 0 0 0 0 0 0
0 0 0 0 0 0 0 0 0
0 0 0 0 0 0 0 0 0
0 0 0 0 0 0 0 0 0
0 0 0 0 0 0 0 0 0
0 0 0 0 0 0 0 0 0
0 0 0 0 0 0 0 0 0
0 0 0 0 0 0 0 0 0
0 0 0 0 0 0 0 0 0
0 0 0 0 0 0 0 0 0
0 0 0 0 0 0 0 0 0
0 0 0 0 0 0 0 0 0
0 0 0 0 0 0 0 0 0
0 0 0 0 0 0 0 0 0
0 0 0 0 0 0 0 0 0
0 0 0 0 0 0 0 0 0
0 0 0 0 0 0 0 0 0
0 0 0 0 0 0 0 0 0
0 0 0 0 0 0 0 0 0
0 0 0 0 0 0 0 0 0
0 0 0 0 0 0 0 0 0
0 0 0 0 0 0 0 0 0
0 0 0 0 0 0 0 0 0
0 0 0 0 0 0 0 0 0
0 0 0 0 0 0 0 0 0
0 0 0 0 0 0 0 0 0
0 0 0 0 0 0 0 0 0
0 0 0 0 0 0 0 0 0
0 0 0 0 0 0 0 0 0
0 0 0 0 0 0 0 0 0
0 0 0 0 0 0 0 0 0
0 0 0 0 0 0 0 0 0
0 0 0 0 0 0 0 0 0
0 0 0 0 0 0 0 0 0
0 0 0 0 0 0 0 0 0
0 0 0 0 0 0 0 0 0
0 0 0 0 0 0 0 0 0
0 0 0 0 0 0 0 0 0
0 0 0 0 0 0 0 0 0
0 0 0 0 0 0 0 0 0
0 0 0 0 0 0 0 0 0
0 0 0 0 0 0 0 0 0
0 0 0 0 0 0 0 0 0
0 0 0 0 0 0 0 0 0
0 0 0 0 0 0 0 0 0
0 0 0 0 0 0 0 0 0
0 0 0 0 0 0 0 0 0
0 0 0 0 0 0 0 0 0
0 0 0 0 0 0 0 0 0
0 0 0 0 0 0 0 0 0
0 0 0 0 0 0 0 0 0
0 0 0 0 0 0 0 0 0
0 0 0 0 0 0 0 0 0
0 0 0 0 0 0 0 0 0
0 0 0 0 0 0 0 0 0
0 0 0 0 0 0 0 0 0
0 0 0 0 0 0 0 0 0
0 0 0 0 0 0 0 0 0
0 0 0 0 0 0 0 0 0
0 0 0 0 0 0 0 0 0
0 0 0 0 0 0 0 0 0
0 0 0 0 0 0 0 0 0
0 0 0 0 0 0 0 0 0
0 0 0 0 0 0 0 0 0
0 0 0 0 0 0 0 0 0
0 0 0 0 0 0 0 0 0
0 0 0 0 0 0 0 0 0
0 0 0 0 0 0 0 0 0
0 0 0 0 0 0 0 0 0
0 0 0 0 0 0 0 0 0
0 0 0 0 0 0 0 0 0
0 0 0 0 0 0 0 0 0
0 0 0 0 0 0 0 0 0
0 0 0 0 0 0 0 0 0
0 0 0 0 0 0 0 0 0
0 0 0 0 0 0 0 0 0
0 0 0 0 0 0 0 0 0
0 0 0 0 0 0 0 0 0
0 0 0 0 0 0 0 0 0
0 0 0 0 0 0 0 0 0
0 0 0 0 0 0 0 0 0
0 0 0 0 0 0 0 0 0
0 0 0 0 0 0 0 0 0
0 0 0 0 0 0 0 0 0
0 0 0 0 0 0 0 0 0
0 0 0 0 0 0 0 0 0
0 0 0 0 0 0 0 0 0
0 0 0 0 0 0 0 0 0
0 0 0 0 0 0 0 0 0
0 0 0 0 0 0 0 0 0
0 0 0 0 0 0 0 0 0
0 0 0 0 0 0 0 0 0
0 0 0 0 0 0 0 0 0
0 0 0 0 0 0 0 0 0
0 0 0 0 0 0 0 0 0
0 0 0 0 0 0 0 0 0
0 0 0 0 0 0 0 0 0
0 0 0 0 0 0 0 0 0
0 0 0 0 0 0 0 0 0
0 0 0 0 0 0 0 0 0
0 0 0 0 0 0 0 0 0
0 0 0 0 0 0 0 0 0
0 0 0 0 0 0 0 0 0
0 0 0 0 0 0 0 0 0
0 0 0 0 0 0 0 0 0
0 0 0 0 0 0 0 0 0
0 0 0 0 0 0 0 0 0
0 0 0 0 0 0 0 0 0
0 0 0 0 0 0 0 0 0
0 0 0 0 0 0 0 0 0
0 0 0 0 0 0 0 0 0
0 0 0 0 0 0 0 0 0
0 0 0 0 0 0 0 0 0
0 0 0 0 0 0 0 0 0
0 0 0 0 0 0 0 0 0
0 0 0 0 0 0 0 0 0
0 0 0 0 0 0 0 0 0
0 0 0 0 0 0 0 0 0
0 0 0 0 0 0 0 0 0
0 0 0 0 0 0 0 0 0
0 0 0 0 0 0 0 0 0
0 0 0 0 0 0 0 0 0
0 0 0 0 0 0 0 0 0
0 0 0 0 0 0 0 0 0
0 0 0 0 0 0 0 0 0
0 0 0 0 0 0 0 0 0
0 0 0 0 0 0 0 0 0
0 0 0 0 0 0 0 0 0
0 0 0 0 0 0 0 0 0
0 0 0 0 0 0 0 0 0
0 0 0 0 0 0 0 0 0
0 0 0 0 0 0 0 0 0
0 0 0 0 0 0 0 0 0
0 0 0 0 0 0 0 0 0
0 0 0 0 0 0 0 0 0
0 0 0 0 0 0 0 0 0
0 0 0 0 0 0 0 0 0
0 0 0 0 0 0 0 0 0
0 0 0 0 0 0 0 0 0
0 0 0 0 0 0 0 0 0
0 0 0 0 0 0 0 0 0
0 0 0 0 0 0 0 0 0
0 0 0 0 0 0 0 0 0
0 0 0 0 0 0 0 0 0
0 0 0 0 0 0 0 0 0
0 0 0 0 0 0 0 0 0
0 0 0 0 0 0 0 0 0
0 0 0 0 0 0 0 0 0
0 0 0 0 0 0 0 0 0
0 0 0 0 0 0 0 0 0
0 0 0 0 0 0 0 0 0
0 0 0 0 0 0 0 0 0
0 0 0 0 0 0 0 0 0
0 0 0 0 0 0 0 0 0
0 0 0 0 0 0 0 0 0
0 0 0 0 0 0 0 0 0
0 0 0 0 0 0 0 0 0
0 0 0 0 0 0 0 0 0
0 0 0 0 0 0 0 0 0
0 0 0 0 0 0 0 0 0
0 0 0 0 0 0 0 0 0
0 0 0 0 0 0 0 0 0
0 0 0 0 0 0 0 0 0
0 0 0 0 0 0 0 0 0
0 0 0 0 0 0 0 0 0
0 0 0 0 0 0 0 0 0
0 0 0 0 0 0 0 0 0
0 0 0 0 0 0 0 0 0
0 0 0 0 0 0 0 0 0
0 0 0 0 0 0 0 0 0
0 0 0 0 0 0 0 0 0
0 0 0 0 0 0 0 0 0
0 0 0 0 0 0 0 0 0
0 0 0 0 0 0 0 0 0
0 0 0 0 0 0 0 0 0
0 0 0 0 0 0 0 0 0
0 0 0 0 0 0 0 0 0
0 0 0 0 0 0 0 0 0
0 0 0 0 0 0 0 0 0
0 0 0 0 0 0 0 0 0
0 0 0 0 0 0 0 0 0
0 0 0 0 0 0 0 0 0
0 0 0 0 0 0 0 0 0
0 0 0 0 0 0 0 0 0
0 0 0 0 0 0 0 0 0
0 0 0 0 0 0 0 0 0
0 0 0 0 0 0 0 0 0
0 0 0 0 0 0 0 0 0
0 0 0 0 0 0 0 0 0
0 0 0 0 0 0 0 0 0
0 0 0 0 0 0 0 0 0
0 0 0 0 0 0 0 0 0
0 0 0 0 0 0 0 0 0
0 0 0 0 0 0 0 0 0
0 0 0 0 0 0 0 0 0
0 0 0 0 0 0 0 0 0
0 0 0 0 0 0 0 0 0
0 0 0 0 0 0 0 0 0
0 0 0 0 0 0 0 0 0
0 0 0 0 0 0 0 0 0
0 0 0 0 0 0 0 0 0
0 0 0 0 0 0 0 0 0
0 0 0 0 0 0 0 0 0
0 0 0 0 0 0 0 0 0
0 0 0 0 0 0 0 0 0
0 0 0 0 0 0 0 0 0
0 0 0 0 0 0 0 0 0
0 0 0 0 0 0 0 0 0
0 0 0 0 0 0 0 0 0
0 0 0 0 0 0 0 0 0
0 0 0 0 0 0 0 0 0
0 0 0 0 0 0 0 0 0
0 0 0 0 0 0 0 0 0
0 0 0 0 0 0 0 0 0
0 0 0 0 0 0 0 0 0
0 0 0 0 0 0 0 0 0
0 0 0 0 0 0 0 0 0
0 0 0 0 0 0 0 0 0
0 0 0 0 0 0 0 0 0
0 0 0 0 0 0 0 0 0
0 0 0 0 0 0 0 0 0
0 0 0 0 0 0 0 0 0
0 0 0 0 0 0 0 0 0
0 0 0 0 0 0 0 0 0
0 0 0 0 0 0 0 0 0
0 0 0 0 0 0 0 0 0
0 0 0 0 0 0 0 0 0
0 0 0 0 0 0 0 0 0
0 0 0 0 0 0 0 0 0
0 0 0 0 0 0 0 0 0
0 0 0 0 0 0 0 0 0
0 0 0 0 0 0 0 0 0
0 0 0 0 0 0 0 0 0
0 0 0 0 0 0 0 0 0
0 0 0 0 0 0 0 0 0
0 0 0 0 0 0 0 0 0
0 0 0 0 0 0 0 0 0
0 0 0 0 0 0 0 0 0
0 0 0 0 0 0 0 0 0
0 0 0 0 0 0 0 0 0
0 0 0 0 0 0 0 0 0
0 0 0 0 0 0 0 0 0
0 0 0 0 0 0 0 0 0
0 0 0 0 0 0 0 0 0
0 0 0 0 0 0 0 0 0
0 0 0 0 0 0 0 0 0
0 0 0 0 0 0 0 0 0
0 0 0 0 0 0 0 0 0
0 0 0 0 0 0 0 0 0
0 0 0 0 0 0 0 0 0
0 0 0 0 0 0 0 0 0
0 0 0 0 0 0 0 0 0
0 0 0 0 0 0 0 0 0
0 0 0 0 0 0 0 0 0
0 0 0 0 0 0 0 0 0
0 0 0 0 0 0 0 0 0
0 0 0 0 0 0 0 0 0
0 0 0 0 0 0 0 0 0
0 0 0 0 0 0 0 0 0
0 0 0 0 0 0 0 0 0
0 0 0 0 0 0 0 0 0
0 0 0 0 0 0 0 0 0
0 0 0 0 0 0 0 0 0
0 0 0 0 0 0 0 0 0
0 0 0 0 0 0 0 0 0
0 0 0 0 0 0 0 0 0
0 0 0 0 0 0 0 0 0
0 0 0 0 0 0 0 0 0
0 0 0 0 0 0 0 0 0
0 0 0 0 0 0 0 0 0
0 0 0 0 0 0 0 0 0
0 0 0 0 0 0 0 0 0
0 0 0 0 0 0 0 0 0
0 0 0 0 0 0 0 0 0
0 0 0 0 0 0 0 0 0
0 0 0 0 0 0 0 0 0
0 0 0 0 0 0 0 0 0
0 0 0 0 0 0 0 0 0
0 0 0 0 0 0 0 0 0
0 0 0 0 0 0 0 0 0
0 0 0 0 0 0 0 0 0
0 0 0 0 0 0 0 0 0
0 0 0 0 0 0 0 0 0
0 0 0 0 0 0 0 0 0
0 0 0 0 0 0 0 0 0
0 0 0 0 0 0 0 0 0
0 0 0 0 0 0 0 0 0
0 0 0 0 0 0 0 0 0
0 0 0 0 0 0 0 0 0
0 0 0 0 0 0 0 0 0
0 0 0 0 0 0 0 0 0
0 0 0 0 0 0 0 0 0
0 0 0 0 0 0 0 0 0
0 0 0 0 0 0 0 0 0
0 0 0 0 0 0 0 0 0
0 0 0 0 0 0 0 0 0
0 0 0 0 0 0 0 0 0
0 0 0 0 0 0 0 0 0
0 0 0 0 0 0 0 0 0
0 0 0 0 0 0 0 0 0
0 0 0 0 0 0 0 0 0
0 0 0 0 0 0 0 0 0
0 0 0 0 0 0 0 0 0
0 0 0 0 0 0 0 0 0
0 0 0 0 0 0 0 0 0
0 0 0 0 0 0 0 0 0
0 0 0 0 0 0 0 0 0
0 0 0 0 0 0 0 0 0
0 0 0 0 0 0 0 0 0
0 0 0 0 0 0 0 0 0
0 0 0 0 0 0 0 0 0
0 0 0 0 0 0 0 0 0
0 0 0 0 0 0 0 0 0
0 0 0 0 0 0 0 0 0
0 0 0 0 0 0 0 0 0
0 0 0 0 0 0 0 0 0
0 0 0 0 0 0 0 0 0
0 0 0 0 0 0 0 0 0
0 0 0 0 0 0 0 0 0
0 0 0 0 0 0 0 0 0
0 0 0 0 0 0 0 0 0
0 0 0 0 0 0 0 0 0
0 0 0 0 0 0 0 0 0
0 0 0 0 0 0 0 0 0
0 0 0 0 0 0 0 0 0
0 0 0 0 0 0 0 0 0
0 0 0 0 0 0 0 0 0
0 0 0 0 0 0 0 0 0
0 0 0 0 0 0 0 0 0
0 0 0 0 0 0 0 0 0
0 0 0 0 0 0 0 0 0
0 0 0 0 0 0 0 0 0
0 0 0 0 0 0 0 0 0
0 0 0 0 0 0 0 0 0
0 0 0 0 0 0 0 0 0
0 0 0 0 0 0 0 0 0
0 0 0 0 0 0 0 0 0
0 0 0 0 0 0 0 0 0
0 0 0 0 0 0 0 0 0
0 0 0 0 0 0 0 0 0
0 0 0 0 0 0 0 0 0
0 0 0 0 0 0 0 0 0
0 0 0 0 0 0 0 0 0
0 0 0 0 0 0 0 0 0
0 0 0 0 0 0 0 0 0
0 0 0 0 0 0 0 0 0
0 0 0 0 0 0 0 0 0
0 0 0 0 0 0 0 0 0
0 0 0 0 0 0 0 0 0
0 0 0 0 0 0 0 0 0
0 0 0 0 0 0 0 0 0
0 0 0 0 0 0 0 0 0
0 0 0 0 0 0 0 0 0
0 0 0 0 0 0 0 0 0
0 0 0 0 0 0 0 0 0
0 0 0 0 0 0 0 0 0
0 0 0 0 0 0 0 0 0
0 0 0 0 0 0 0 0 0
0 0 0 0 0 0 0 0 0
0 0 0 0 0 0 0 0 0
0 0 0 0 0 0 0 0 0
0 0 0 0 0 0 0 0 0
0 0 0 0 0 0 0 0 0
0 0 0 0 0 0 0 0 0
0 0 0 0 0 0 0 0 0
0 0 0 0 0 0 0 0 0
0 0 0 0 0 0 0 0 0
0 0 0 0 0 0 0 0 0
0 0 0 0 0 0 0 0 0
0 0 0 0 0 0 0 0 0
0 0 0 0 0 0 0 0 0
0 0 0 0 0 0 0 0 0
0 0 0 0 0 0 0 0 0
0 0 0 0 0 0 0 0 0
0 0 0 0 0 0 0 0 0
0 0 0 0 0 0 0 0 0
0 0 0 0 0 0 0 0 0
0 0 0 0 0 0 0 0 0
0 0 0 0 0 0 0 0 0
0 0 0 0 0 0 0 0 0
0 0 0 0 0 0 0 0 0
0 0 0 0 0 0 0 0 0
0 0 0 0 0 0 0 0 0
0 0 0 0 0 0 0 0 0
0 0 0 0 0 0 0 0 0
0 0 0 0 0 0 0 0 0
0 0 0 0 0 0 0 0 0
0 0 0 0 0 0 0 0 0
0 0 0 0 0 0 0 0 0
0 0 0 0 0 0 0 0 0
0 0 0 0 0 0 0 0 0
0 0 0 0 0 0 0 0 0
0 0 0 0 0 0 0 0 0
0 0 0 0 0 0 0 0 0
0 0 0 0 0 0 0 0 0
0 0 0 0 0 0 0 0 0
0 0 0 0 0 0 0 0 0
0 0 0 0 0 0 0 0 0
0 0 0 0 0 0 0 0 0
0 0 0 0 0 0 0 0 0
0 0 0 0 0 0 0 0 0
0 0 0 0 0 0 0 0 0
0 0 0 0 0 0 0 0 0
0 0 0 0 0 0 0 0 0
0 0 0 0 0 0 0 0 0
0 0 0 0 0 0 0 0 0
0 0 0 0 0 0 0 0 0
0 0 0 0 0 0 0 0 0
0 0 0 0 0 0 0 0 0
0 0 0 0 0 0 0 0 0
0 0 0 0 0 0 0 0 0
0 0 0 0 0 0 0 0 0
0 0 0 0 0 0 0 0 0
0 0 0 0 0 0 0 0 0
0 0 0 0 0 0 0 0 0
0 0 0 0 0 0 0 0 0
0 0 0 0 0 0 0 0 0
0 0 0 0 0 0 0 0 0
0 0 0 0 0 0 0 0 0
0 0 0 0 0 0 0 0 0
0 0 0 0 0 0 0 0 0
0 0 0 0 0 0 0 0 0
0 0 0 0 0 0 0 0 0
0 0 0 0 0 0 0 0 0
0 0 0 0 0 0 0 0 0
0 0 0 0 0 0 0 0 0
0 0 0 0 0 0 0 0 0
0 0 0 0 0 0 0 0 0
0 0 0 0 0 0 0 0 0
0 0 0 0 0 0 0 0 0
0 0 0 0 0 0 0 0 0
0 0 0 0 0 0 0 0 0
0 0 0 0 0 0 0 0 0
0 0 0 0 0 0 0 0 0
0 0 0 0 0 0 0 0 0
0 0 0 0 0 0 0 0 0
0 0 0 0 0 0 0 0 0
0 0 0 0 0 0 0 0 0
0 0 0 0 0 0 0 0 0
0 0 0 0 0 0 0 0 0
0 0 0 0 0 0 0 0 0
0 0 0 0 0 0 0 0 0
0 0 0 0 0 0 0 0 0
0 0 0 0 0 0 0 0 0
0 0 0 0 0 0 0 0 0
0 0 0 0 0 0 0 0 0
0 0 0 0 0 0 0 0 0
0 0 0 0 0 0 0 0 0
0 0 0 0 0 0 0 0 0
0 0 0 0 0 0 0 0 0
0 0 0 0 0 0 0 0 0
0 0 0 0 0 0 0 0 0
0 0 0 0 0 0 0 0 0
0 0 0 0 0 0 0 0 0
0 0 0 0 0 0 0 0 0
0 0 0 0 0 0 0 0 0
0 0 0 0 0 0 0 0 0
0 0 0 0 0 0 0 0 0
0 0 0 0 0 0 0 0 0
0 0 0 0 0 0 0 0 0
0 0 0 0 0 0 0 0 0
0 0 0 0 0 0 0 0 0
0 0 0 0 0 0 0 0 0
0 0 0 0 0 0 0 0 0
0 0 0 0 0 0 0 0 0
0 0 0 0 0 0 0 0 0
0 0 0 0 0 0 0 0 0
0 0 0 0 0 0 0 0 0
0 0 0 0 0 0 0 0 0
0 0 0 0 0 0 0 0 0
0 0 0 0 0 0 0 0 0
0 0 0 0 0 0 0 0 0
0 0 0 0 0 0 0 0 0
0 0 0 0 0 0 0 0 0
0 0 0 0 0 0 0 0 0
0 0 0 0 0 0 0 0 0
0 0 0 0 0 0 0 0 0
0 0 0 0 0 0 0 0 0
0 0 0 0 0 0 0 0 0
0 0 0 0 0 0 0 0 0
0 0 0 0 0 0 0 0 0
0 0 0 0 0 0 0 0 0
0 0 0 0 0 0 0 0 0
0 0 0 0 0 0 0 0 0
0 0 0 0 0 0 0 0 0
0 0 0 0 0 0 0 0 0
0 0 0 0 0 0 0 0 0
0 0 0 0 0 0 0 0 0
0 0 0 0 0 0 0 0 0
0 0 0 0 0 0 0 0 0
0 0 0 0 0 0 0 0 0
0 0 0 0 0 0 0 0 0
0 0 0 0 0 0 0 0 0
0 0 0 0 0 0 0 0 0
0 0 0 0 0 0 0 0 0
0 0 0 0 0 0 0 0 0
0 0 0 0 0 0 0 0 0
0 0 0 0 0 0 0 0 0
0 0 0 0 0 0 0 0 0
0 0 0 0 0 0 0 0 0
0 0 0 0 0 0 0 0 0
0 0 0 0 0 0 0 0 0
0 0 0 0 0 0 0 0 0
0 0 0 0 0 0 0 0 0
0 0 0 0 0 0 0 0 0
0 0 0 0 0 0 0 0 0
0 0 0 0 0 0 0 0 0
0 0 0 0 0 0 0 0 0
0 0 0 0 0 0 0 0 0
0 0 0 0 0 0 0 0 0
0 0 0 0 0 0 0 0 0
0 0 0 0 0 0 0 0 0
0 0 0 0 0 0 0 0 0
0 0 0 0 0 0 0 0 0
0 0 0 0 0 0 0 0 0
0 0 0 0 0 0 0 0 0
0 0 0 0 0 0 0 0 0
0 0 0 0 0 0 0 0 0
0 0 0 0 0 0 0 0 0
0 0 0 0 0 0 0 0 0
0 0 0 0 0 0 0 0 0
0 0 0 0 0 0 0 0 0
0 0 0 0 0 0 0 0 0
0 0 0 0 0 0 0 0 0
0 0 0 0 0 0 0 0 0
0.0184564 0.0198299 0.0200245 0.0214116 0.0184564 0.0198299 0.0200245 0.0214116 0
0.0207 0.022236 0.0223 0.023862 0.0207 0.022236 0.0223 0.023862 0
0.0155906 0.0169161 0.0172046 0.0185587 0.0155906 0.0169161 0.0172046 0.0185587 0
0.0177479 0.0192538 0.0194092 0.0209271 0.0177479 0.0192538 0.0194092 0.0209271 0
0.0202076 0.0219046 0.0218976 0.0236167 0.0202076 0.0219046 0.0218976 0.0236167 0
0.0229985 0.024924 0.0247315 0.026679 0.0229985 0.024924 0.0247315 0.026679 0
0.0261849 0.0283724 0.0279608 0.0301696 0.0261849 0.0283724 0.0279608 0.0301696 0
0.0298296 0.0323227 0.0316477 0.0341617 0.0298296 0.0323227 0.0316477 0.0341617 0
0.034014 0.0368681 0.0358694 0.0387318 0.034014 0.0368681 0.0358694 0.0387318 0
0.0388384 0.0421152 0.0407057 0.0439672 0.0388384 0.0421152 0.0407057 0.0439672 0
0.0443812 0.0480581 0.0462206 0.0498607 0.0443812 0.0480581 0.0462206 0.0498607 0
0.0147364 0.0161944 0.0164279 0.0179148 0.0147364 0.0161944 0.0164279 0.0179148 0
0.0171019 0.0187493 0.018847 0.0205216 0.0171019 0.0187493 0.018847 0.0205216 0
0.0197948 0.0216698 0.021592 0.0234947 0.0197948 0.0216698 0.021592 0.0234947 0
0.0228817 0.0250211 0.0247314 0.0268967 0.0228817 0.0250211 0.0247314 0.0268967 0
0.0264318 0.0288839 0.02833 0.0308029 0.0264318 0.0288839 0.02833 0.0308029 0
0.0305351 0.0333616 0.0324728 0.0353135 0.0305351 0.0333616 0.0324728 0.0353135 0
0.0353058 0.0385825 0.0372693 0.0405463 0.0353058 0.0385825 0.0372693 0.0405463 0
0.0116703 0.0130722 0.0133973 0.0148297 0.0116703 0.0130722 0.0133973 0.0148297 0
0.013928 0.0155192 0.0157123 0.0173343 0.013928 0.0155192 0.0157123 0.0173343 0
0.0165108 0.0183265 0.018354 0.0202023 0.0165108 0.0183265 0.018354 0.0202023 0
0.0194823 0.0215627 0.0213874 0.0235007 0.0194823 0.0215627 0.0213874 0.0235007 0
0.0229181 0.0253162 0.0248848 0.0273133 0.0229181 0.0253162 0.0248848 0.0273133 0
0.0269176 0.0297029 0.0289401 0.031748 0.0269176 0.0297029 0.0289401 0.031748 0
0.0316078 0.0348627 0.033672 0.036939 0.0316078 0.0348627 0.033672 0.036939 0
0.00855825 0.00990071 0.0103136 0.0116887 0.00855825 0.00990071 0.0103136 0.0116887 0
0.0107018 0.0122309 0.0125187 0.014082 0.0107018 0.0122309 0.0125187 0.014082 0
0.0131638 0.014912 0.0150459 0.0168316 0.0131638 0.014912 0.0150459 0.0168316 0
0.0160048 0.0180148 0.0179578 0.0200073 0.0160048 0.0180148 0.0179578 0.0200073 0
0.0193052 0.0216344 0.0213321 0.0237002 0.0193052 0.0216344 0.0213321 0.0237002 0
0.0231738 0.0259006 0.0252723 0.0280323 0.0231738 0.0259006 0.0252723 0.0280323 0
0.00541503 0.00669583 0.00719059 0.00850521 0.00541503 0.00669583 0.00719059 0.00850521 0
0.00743986 0.00890145 0.00927965 0.0107787 0.00743986 0.00890145 0.00927965 0.0107787 0
0.00977123 0.0114449 0.0116822 0.0133975 0.00977123 0.0114449 0.0116822 0.0133975 0
0.0124685 0.0143978 0.0144582 0.0164329 0.0124685 0.0143978 0.0144582 0.0164329 0
0.0156138 0.0178581 0.0176891 0.0199819 0.0156138 0.0178581 0.0176891 0.0199819 0
0.0193209 0.0219653 0.0214864 0.0241788 0.0193209 0.0219653 0.0214864 0.0241788 0
0.00226188 0.00347895 0.0040449 0.00529718 0.00226188 0.00347895 0.0040449 0.00529718 0
0.0041642 0.00555461 0.00601408 0.00744403 0.0041642 0.00555461 0.00601408 0.00744403 0
0.00635839 0.00795211 0.00828342 0.00992181 0.00635839 0.00795211 0.00828342 0.00992181 0
0.00890118 0.01074 0.0109113 0.0128013 0.00890118 0.01074 0.0109113 0.0128013 0
0.0118737 0.0140206 0.0139798 0.016182 0.0118737 0.0140206 0.0139798 0.016182 0
0.0153929 0.0179289 0.0176041 0.0202034 0.0153929 0.0179289 0.0176041 0.0202034 0
-0.000873508 0.000280679 0.000900795 0.00208944 -0.000873508 0.000280679 0.000900795 0.00208944 0
0.0009073 0.00222448 0.00274779 0.00410569 0.0009073 0.00222448 0.00274779 0.00410569 0
0.00296073 0.00447097 0.00487868 0.00643561 0.00296073 0.00447097 0.00487868 0.00643561 0
0.00534276 0.0070858 0.00734951 0.00914636 0.00534276 0.0070858 0.00734951 0.00914636 0
0.00813185 0.0101715 0.0102403 0.0123408 0.00813185 0.0101715 0.0102403 0.0123408 0
-0.0053797 -0.00442604 -0.00370222 -0.00271886 -0.0053797 -0.00442604 -0.00370222 -0.00271886 0
-0.00394256 -0.00285368 -0.00220749 -0.0010819 -0.00394256 -0.00285368 -0.00220749 -0.0010819 0
-0.00228542 -0.00104019 -0.000481555 0.000803438 -0.00228542 -0.00104019 -0.000481555 0.000803438 0
-0.000370369 0.00105624 0.0015095 0.00298268 -0.000370369 0.00105624 0.0015095 0.00298268 0
0.00184981 0.00349294 0.00381919 0.00551874 0.00184981 0.00349294 0.00381919 0.00551874 0
0.00444621 0.00636719 0.0065235 0.00851261 0.00444621 0.00636719 0.0065235 0.00851261 0
-0.0082171 -0.00732222 -0.00661538 -0.0056869 -0.0082171 -0.00732222 -0.00661538 -0.0056869 0
-0.00688835 -0.0058597 -0.00522533 -0.00416398 -0.00688835 -0.0058597 -0.00522533 -0.00416398 0
-0.00534567 -0.00416853 -0.00362029 -0.00240561 -0.00534567 -0.00416853 -0.00362029 -0.00240561 0
-0.00356186 -0.00221595 -0.00176427 -0.000373542 -0.00356186 -0.00221595 -0.00176427 -0.000373542 0
-0.00149659 5.25855e-05 0.000386324 0.00198725 -0.00149659 5.25855e-05 0.000386324 0.00198725 0
0.000912505 0.00270549 0.00289881 0.00476517 0.000912505 0.00270549 0.00289881 0.00476517 0
-0.01355 -0.0130262 -0.0122067 -0.0116585 -0.01355 -0.0130262 -0.0122067 -0.0116585 0
-0.0128132 -0.012189 -0.0114249 -0.0107748 -0.0128132 -0.012189 -0.0114249 -0.0107748 0
-0.0119204 -0.0111853 -0.0104843 -0.00972182 -0.0119204 -0.0111853 -0.0104843 -0.00972182 0
-0.0108575 -0.0100095 -0.00937237 -0.0085002 -0.0108575 -0.0100095 -0.00937237 -0.0085002 0
-0.00961747 -0.00864236 -0.00808537 -0.00708102 -0.00961747 -0.00864236 -0.00808537 -0.00708102 0
-0.00817662 -0.00706071 -0.00658856 -0.00543916 -0.00817662 -0.00706071 -0.00658856 -0.00543916 0
-0.00651054 -0.00523674 -0.00485795 -0.00354474 -0.00651054 -0.00523674 -0.00485795 -0.00354474 0
-0.00458579 -0.00312585 -0.00285606 -0.00134613 -0.00458579 -0.00312585 -0.00285606 -0.00134613 0
-0.0156553 -0.0151666 -0.014484 -0.013977 -0.0156553 -0.0151666 -0.014484 -0.013977 0
-0.0149823 -0.014397 -0.0137766 -0.0131705 -0.0149823 -0.014397 -0.0137766 -0.0131705 0
-0.0141596 -0.0134649 -0.0129156 -0.0121995 -0.0141596 -0.0134649 -0.0129156 -0.0121995 0
-0.0131699 -0.0123628 -0.0118858 -0.011056 -0.0131699 -0.0123628 -0.0118858 -0.011056 0
-0.0120059 -0.0110752 -0.0106791 -0.00972447 -0.0120059 -0.0110752 -0.0106791 -0.00972447 0
-0.0106493 -0.00958377 -0.00927638 -0.00818378 -0.0106493 -0.00958377 -0.00927638 -0.00818378 0
-0.00908103 -0.00786863 -0.00765475 -0.00640884 -0.00908103 -0.00786863 -0.00765475 -0.00640884 0
-0.00727669 -0.00589425 -0.00578433 -0.00435951 -0.00727669 -0.00589425 -0.00578433 -0.00435951 0
-0.0173316 -0.0168554 -0.0164229 -0.0159431 -0.0173316 -0.0168554 -0.0164229 -0.0159431 0
-0.0166856 -0.0161257 -0.0157657 -0.0151933 -0.0166856 -0.0161257 -0.0157657 -0.0151933 0
-0.015911 -0.0152495 -0.0149654 -0.0142857 -0.015911 -0.0152495 -0.0149654 -0.0142857 0
-0.0149783 -0.0141979 -0.0140008 -0.0132073 -0.0149783 -0.0141979 -0.0140008 -0.0132073 0
-0.0138674 -0.0129744 -0.0128616 -0.0119478 -0.0138674 -0.0129744 -0.0128616 -0.0119478 0
-0.0125814 -0.0115578 -0.0115355 -0.0104888 -0.0125814 -0.0115578 -0.0115355 -0.0104888 0
-0.0110933 -0.0099297 -0.0100024 -0.00881238 -0.0110933 -0.0099297 -0.0100024 -0.00881238 0
-0.00938936 -0.00808076 -0.00824235 -0.00689141 -0.00938936 -0.00808076 -0.00824235 -0.00689141 0
0 0 0 0 0 0 0 0 0
0 0 0 0 0 0 0 0 0
0 0 0 0 0 0 0 0 0
0 0 0 0 0 0 0 0 0
0 0 0 0 0 0 0 0 0
0 0 0 0 0 0 0 0 0
0 0 0 0 0 0 0 0 0
0 0 0 0 0 0 0 0 0
0 0 0 0 0 0 0 0 0
0 0 0 0 0 0 0 0 0
0 0 0 0 0 0 0 0 0
0 0 0 0 0 0 0 0 0
0 0 0 0 0 0 0 0 0
0 0 0 0 0 0 0 0 0
0 0 0 0 0 0 0 0 0
0 0 0 0 0 0 0 0 0
0 0 0 0 0 0 0 0 0
0 0 0 0 0 0 0 0 0
0 0 0 0 0 0 0 0 0
0 0 0 0 0 0 0 0 0
0 0 0 0 0 0 0 0 0
0 0 0 0 0 0 0 0 0
0 0 0 0 0 0 0 0 0
0 0 0 0 0 0 0 0 0
0 0 0 0 0 0 0 0 0
0 0 0 0 0 0 0 0 0
0 0 0 0 0 0 0 0 0
0 0 0 0 0 0 0 0 0
0 0 0 0 0 0 0 0 0
0 0 0 0 0 0 0 0 0
0 0 0 0 0 0 0 0 0
0 0 0 0 0 0 0 0 0
0 0 0 0 0 0 0 0 0
0 0 0 0 0 0 0 0 0
0 0 0 0 0 0 0 0 0
0 0 0 0 0 0 0 0 0
0 0 0 0 0 0 0 0 0
0 0 0 0 0 0 0 0 0
0 0 0 0 0 0 0 0 0
0 0 0 0 0 0 0 0 0
0 0 0 0 0 0 0 0 0
0 0 0 0 0 0 0 0 0
0 0 0 0 0 0 0 0 0
0 0 0 0 0 0 0 0 0
0 0 0 0 0 0 0 0 0
0 0 0 0 0 0 0 0 0
0 0 0 0 0 0 0 0 0
0 0 0 0 0 0 0 0 0
0 0 0 0 0 0 0 0 0
0 0 0 0 0 0 0 0 0
0 0 0 0 0 0 0 0 0
0 0 0 0 0 0 0 0 0
0 0 0 0 0 0 0 0 0
0 0 0 0 0 0 0 0 0
0 0 0 0 0 0 0 0 0
0 0 0 0 0 0 0 0 0
0 0 0 0 0 0 0 0 0
0 0 0 0 0 0 0 0 0
0 0 0 0 0 0 0 0 0
0 0 0 0 0 0 0 0 0
0 0 0 0 0 0 0 0 0
0 0 0 0 0 0 0 0 0
0 0 0 0 0 0 0 0 0
0 0 0 0 0 0 0 0 0
0 0 0 0 0 0 0 0 0
0 0 0 0 0 0 0 0 0
0 0 0 0 0 0 0 0 0
0 0 0 0 0 0 0 0 0
0 0 0 0 0 0 0 0 0
0 0 0 0 0 0 0 0 0
0 0 0 0 0 0 0 0 0
0 0 0 0 0 0 0 0 0
0 0 0 0 0 0 0 0 0
0 0 0 0 0 0 0 0 0
0 0 0 0 0 0 0 0 0
0 0 0 0 0 0 0 0 0
0 0 0 0 0 0 0 0 0
0 0 0 0 0 0 0 0 0
0 0 0 0 0 0 0 0 0
0 0 0 0 0 0 0 0 0
0 0 0 0 0 0 0 0 0
0 0 0 0 0 0 0 0 0
0 0 0 0 0 0 0 0 0
0 0 0 0 0 0 0 0 0
0 0 0 0 0 0 0 0 0
0 0 0 0 0 0 0 0 0
0 0 0 0 0 0 0 0 0
0 0 0 0 0 0 0 0 0
0 0 0 0 0 0 0 0 0
0 0 0 0 0 0 0 0 0
0 0 0 0 0 0 0 0 0
0 0 0 0 0 0 0 0 0
0 0 0 0 0 0 0 0 0
0 0 0 0 0 0 0 0 0
0 0 0 0 0 0 0 0 0
0 0 0 0 0 0 0 0 0
0 0 0 0 0 0 0 0 0
0 0 0 0 0 0 0 0 0
0 0 0 0 0 0 0 0 0
0 0 0 0 0 0 0 0 0
0 0 0 0 0 0 0 0 0
0 0 0 0 0 0 0 0 0
0 0 0 0 0 0 0 0 0
0 0 0 0 0 0 0 0 0
0 0 0 0 0 0 0 0 0
0 0 0 0 0 0 0 0 0
0 0 0 0 0 0 0 0 0
0 0 0 0 0 0 0 0 0
0 0 0 0 0 0 0 0 0
0 0 0 0 0 0 0 0 0
0 0 0 0 0 0 0 0 0
0 0 0 0 0 0 0 0 0
0 0 0 0 0 0 0 0 0
0 0 0 0 0 0 0 0 0
0 0 0 0 0 0 0 0 0
0 0 0 0 0 0 0 0 0
0 0 0 0 0 0 0 0 0
0 0 0 0 0 0 0 0 0
0 0 0 0 0 0 0 0 0
0 0 0 0 0 0 0 0 0
0 0 0 0 0 0 0 0 0
0 0 0 0 0 0 0 0 0
0 0 0 0 0 0 0 0 0
0 0 0 0 0 0 0 0 0
0 0 0 0 0 0 0 0 0
0 0 0 0 0 0 0 0 0
0 0 0 0 0 0 0 0 0
0 0 0 0 0 0 0 0 0
0 0 0 0 0 0 0 0 0
0 0 0 0 0 0 0 0 0
0 0 0 0 0 0 0 0 0
0 0 0 0 0 0 0 0 0
0 0 0 0 0 0 0 0 0
0 0 0 0 0 0 0 0 0
0 0 0 0 0 0 0 0 0
0 0 0 0 0 0 0 0 0
0 0 0 0 0 0 0 0 0
0 0 0 0 0 0 0 0 0
0 0 0 0 0 0 0 0 0
0 0 0 0 0 0 0 0 0
0 0 0 0 0 0 0 0 0
0 0 0 0 0 0 0 0 0
0 0 0 0 0 0 0 0 0
0 0 0 0 0 0 0 0 0
0 0 0 0 0 0 0 0 0
0 0 0 0 0 0 0 0 0
0 0 0 0 0 0 0 0 0
0 0 0 0 0 0 0 0 0
0 0 0 0 0 0 0 0 0
0 0 0 0 0 0 0 0 0
0 0 0 0 0 0 0 0 0
0 0 0 0 0 0 0 0 0
0 0 0 0 0 0 0 0 0
0 0 0 0 0 0 0 0 0
0 0 0 0 0 0 0 0 0
0 0 0 0 0 0 0 0 0
0 0 0 0 0 0 0 0 0
0 0 0 0 0 0 0 0 0
0 0 0 0 0 0 0 0 0
0 0 0 0 0 0 0 0 0
0 0 0 0 0 0 0 0 0
0 0 0 0 0 0 0 0 0
0 0 0 0 0 0 0 0 0
0 0 0 0 0 0 0 0 0
0 0 0 0 0 0 0 0 0
0 0 0 0 0 0 0 0 0
0 0 0 0 0 0 0 0 0
0 0 0 0 0 0 0 0 0
0 0 0 0 0 0 0 0 0
0 0 0 0 0 0 0 0 0
0 0 0 0 0 0 0 0 0
0 0 0 0 0 0 0 0 0
0 0 0 0 0 0 0 0 0
0 0 0 0 0 0 0 0 0
0 0 0 0 0 0 0 0 0
0 0 0 0 0 0 0 0 0
0 0 0 0 0 0 0 0 0
0 0 0 0 0 0 0 0 0
0 0 0 0 0 0 0 0 0
0 0 0 0 0 0 0 0 0
0 0 0 0 0 0 0 0 0
0 0 0 0 0 0 0 0 0
0 0 0 0 0 0 0 0 0
0 0 0 0 0 0 0 0 0
0 0 0 0 0 0 0 0 0
0 0 0 0 0 0 0 0 0
0 0 0 0 0 0 0 0 0
0 0 0 0 0 0 0 0 0
0 0 0 0 0 0 0 0 0
0 0 0 0 0 0 0 0 0
0 0 0 0 0 0 0 0 0
0 0 0 0 0 0 0 0 0
0 0 0 0 0 0 0 0 0
0 0 0 0 0 0 0 0 0
0 0 0 0 0 0 0 0 0
0 0 0 0 0 0 0 0 0
0 0 0 0 0 0 0 0 0
0 0 0 0 0 0 0 0 0
0 0 0 0 0 0 0 0 0
0 0 0 0 0 0 0 0 0
0 0 0 0 0 0 0 0 0
0 0 0 0 0 0 0 0 0
0 0 0 0 0 0 0 0 0
0 0 0 0 0 0 0 0 0
0 0 0 0 0 0 0 0 0
0 0 0 0 0 0 0 0 0
0 0 0 0 0 0 0 0 0
0 0 0 0 0 0 0 0 0
0 0 0 0 0 0 0 0 0
0 0 0 0 0 0 0 0 0
0 0 0 0 0 0 0 0 0
0 0 0 0 0 0 0 0 0
0 0 0 0 0 0 0 0 0
0 0 0 0 0 0 0 0 0
0 0 0 0 0 0 0 0 0
0 0 0 0 0 0 0 0 0
0 0 0 0 0 0 0 0 0
0 0 0 0 0 0 0 0 0
0 0 0 0 0 0 0 0 0
0 0 0 0 0 0 0 0 0
0 0 0 0 0 0 0 0 0
0 0 0 0 0 0 0 0 0
0 0 0 0 0 0 0 0 0
0 0 0 0 0 0 0 0 0
0 0 0 0 0 0 0 0 0
0 0 0 0 0 0 0 0 0
0 0 0 0 0 0 0 0 0
0 0 0 0 0 0 0 0 0
0 0 0 0 0 0 0 0 0
0 0 0 0 0 0 0 0 0
0 0 0 0 0 0 0 0 0
0 0 0 0 0 0 0 0 0
0 0 0 0 0 0 0 0 0
0 0 0 0 0 0 0 0 0
0 0 0 0 0 0 0 0 0
0 0 0 0 0 0 0 0 0
0 0 0 0 0 0 0 0 0
0 0 0 0 0 0 0 0 0
0 0 0 0 0 0 0 0 0
0 0 0 0 0 0 0 0 0
0 0 0 0 0 0 0 0 0
0 0 0 0 0 0 0 0 0
0 0 0 0 0 0 0 0 0
0 0 0 0 0 0 0 0 0
0 0 0 0 0 0 0 0 0
0 0 0 0 0 0 0 0 0
0 0 0 0 0 0 0 0 0
0 0 0 0 0 0 0 0 0
0 0 0 0 0 0 0 0 0
0 0 0 0 0 0 0 0 0
0 0 0 0 0 0 0 0 0
0 0 0 0 0 0 0 0 0
0 0 0 0 0 0 0 0 0
0 0 0 0 0 0 0 0 0
0 0 0 0 0 0 0 0 0
0 0 0 0 0 0 0 0 0
0 0 0 0 0 0 0 0 0
0 0 0 0 0 0 0 0 0
0 0 0 0 0 0 0 0 0
0 0 0 0 0 0 0 0 0
0 0 0 0 0 0 0 0 0
0 0 0 0 0 0 0 0 0
0 0 0 0 0 0 0 0 0
0 0 0 0 0 0 0 0 0
0 0 0 0 0 0 0 0 0
0 0 0 0 0 0 0 0 0
0 0 0 0 0 0 0 0 0
0 0 0 0 0 0 0 0 0
0 0 0 0 0 0 0 0 0
0 0 0 0 0 0 0 0 0
0 0 0 0 0 0 0 0 0
0 0 0 0 0 0 0 0 0
0 0 0 0 0 0 0 0 0
0 0 0 0 0 0 0 0 0
0 0 0 0 0 0 0 0 0
0 0 0 0 0 0 0 0 0
0 0 0 0 0 0 0 0 0
0 0 0 0 0 0 0 0 0
0 0 0 0 0 0 0 0 0
0 0 0 0 0 0 0 0 0
0 0 0 0 0 0 0 0 0
0 0 0 0 0 0 0 0 0
0 0 0 0 0 0 0 0 0
0 0 0 0 0 0 0 0 0
0 0 0 0 0 0 0 0 0
0 0 0 0 0 0 0 0 0
0 0 0 0 0 0 0 0 0
0 0 0 0 0 0 0 0 0
0 0 0 0 0 0 0 0 0
0 0 0 0 0 0 0 0 0
0 0 0 0 0 0 0 0 0
0 0 0 0 0 0 0 0 0
0 0 0 0 0 0 0 0 0
0 0 0 0 0 0 0 0 0
0 0 0 0 0 0 0 0 0
0 0 0 0 0 0 0 0 0
0 0 0 0 0 0 0 0 0
0 0 0 0 0 0 0 0 0
0 0 0 0 0 0 0 0 0
0 0 0 0 0 0 0 0 0
0 0 0 0 0 0 0 0 0
0 0 0 0 0 0 0 0 0
0 0 0 0 0 0 0 0 0
0 0 0 0 0 0 0 0 0
0 0 0 0 0 0 0 0 0
0 0 0 0 0 0 0 0 0
0 0 0 0 0 0 0 0 0
0 0 0 0 0 0 0 0 0
0 0 0 0 0 0 0 0 0
0 0 0 0 0 0 0 0 0
0 0 0 0 0 0 0 0 0
0 0 0 0 0 0 0 0 0
0 0 0 0 0 0 0 0 0
0 0 0 0 0 0 0 0 0
0 0 0 0 0 0 0 0 0
0 0 0 0 0 0 0 0 0
0 0 0 0 0 0 0 0 0
0 0 0 0 0 0 0 0 0
0 0 0 0 0 0 0 0 0
0 0 0 0 0 0 0 0 0
0 0 0 0 0 0 0 0 0
0 0 0 0 0 0 0 0 0
0 0 0 0 0 0 0 0 0
0 0 0 0 0 0 0 0 0
0 0 0 0 0 0 0 0 0
0 0 0 0 0 0 0 0 0
0 0 0 0 0 0 0 0 0
0 0 0 0 0 0 0 0 0
0 0 0 0 0 0 0 0 0
0 0 0 0 0 0 0 0 0
0 0 0 0 0 0 0 0 0
0 0 0 0 0 0 0 0 0
0 0 0 0 0 0 0 0 0
0 0 0 0 0 0 0 0 0
0 0 0 0 0 0 0 0 0
0 0 0 0 0 0 0 0 0
0 0 0 0 0 0 0 0 0
0 0 0 0 0 0 0 0 0
0 0 0 0 0 0 0 0 0
0 0 0 0 0 0 0 0 0
0 0 0 0 0 0 0 0 0
0 0 0 0 0 0 0 0 0
0 0 0 0 0 0 0 0 0
0 0 0 0 0 0 0 0 0
0 0 0 0 0 0 0 0 0
0 0 0 0 0 0 0 0 0
0 0 0 0 0 0 0 0 0
0 0 0 0 0 0 0 0 0
0 0 0 0 0 0 0 0 0
0 0 0 0 0 0 0 0 0
0 0 0 0 0 0 0 0 0
0 0 0 0 0 0 0 0 0
0 0 0 0 0 0 0 0 0
0 0 0 0 0 0 0 0 0
0 0 0 0 0 0 0 0 0
0 0 0 0 0 0 0 0 0
0 0 0 0 0 0 0 0 0
0 0 0 0 0 0 0 0 0
0 0 0 0 0 0 0 0 0
0 0 0 0 0 0 0 0 0
0 0 0 0 0 0 0 0 0
0 0 0 0 0 0 0 0 0
0 0 0 0 0 0 0 0 0
0 0 0 0 0 0 0 0 0
0 0 0 0 0 0 0 0 0
0 0 0 0 0 0 0 0 0
0 0 0 0 0 0 0 0 0
0 0 0 0 0 0 0 0 0
0 0 0 0 0 0 0 0 0
0 0 0 0 0 0 0 0 0
0 0 0 0 0 0 0 0 0
0 0 0 0 0 0 0 0 0
0 0 0 0 0 0 0 0 0
0 0 0 0 0 0 0 0 0
0 0 0 0 0 0 0 0 0
0 0 0 0 0 0 0 0 0
0 0 0 0 0 0 0 0 0
0 0 0 0 0 0 0 0 0
0 0 0 0 0 0 0 0 0
0 0 0 0 0 0 0 0 0
0 0 0 0 0 0 0 0 0
0 0 0 0 0 0 0 0 0
0 0 0 0 0 0 0 0 0
0 0 0 0 0 0 0 0 0
0 0 0 0 0 0 0 0 0
0 0 0 0 0 0 0 0 0
0 0 0 0 0 0 0 0 0
0 0 0 0 0 0 0 0 0
0 0 0 0 0 0 0 0 0
0 0 0 0 0 0 0 0 0
0 0 0 0 0 0 0 0 0
0 0 0 0 0 0 0 0 0
0 0 0 0 0 0 0 0 0
0 0 0 0 0 0 0 0 0
0 0 0 0 0 0 0 0 0
0 0 0 0 0 0 0 0 0
0 0 0 0 0 0 0 0 0
0 0 0 0 0 0 0 0 0
0 0 0 0 0 0 0 0 0
0 0 0 0 0 0 0 0 0
0 0 0 0 0 0 0 0 0
0 0 0 0 0 0 0 0 0
0 0 0 0 0 0 0 0 0
0 0 0 0 0 0 0 0 0
0 0 0 0 0 0 0 0 0
0 0 0 0 0 0 0 0 0
0 0 0 0 0 0 0 0 0
0 0 0 0 0 0 0 0 0
0 0 0 0 0 0 0 0 0
0 0 0 0 0 0 0 0 0
0 0 0 0 0 0 0 0 0
0 0 0 0 0 0 0 0 0
0 0 0 0 0 0 0 0 0
0 0 0 0 0 0 0 0 0
0 0 0 0 0 0 0 0 0
0 0 0 0 0 0 0 0 0
0 0 0 0 0 0 0 0 0
0 0 0 0 0 0 0 0 0
0 0 0 0 0 0 0 0 0
0 0 0 0 0 0 0 0 0
0 0 0 0 0 0 0 0 0
0 0 0 0 0 0 0 0 0
0 0 0 0 0 0 0 0 0
0 0 0 0 0 0 0 0 0
0 0 0 0 0 0 0 0 0
0 0 0 0 0 0 0 0 0
0 0 0 0 0 0 0 0 0
0 0 0 0 0 0 0 0 0
0 0 0 0 0 0 0 0 0
0 0 0 0 0 0 0 0 0
0 0 0 0 0 0 0 0 0
0 0 0 0 0 0 0 0 0
0 0 0 0 0 0 0 0 0
0 0 0 0 0 0 0 0 0
0 0 0 0 0 0 0 0 0
0 0 0 0 0 0 0 0 0
0 0 0 0 0 0 0 0 0
0 0 0 0 0 0 0 0 0
0 0 0 0 0 0 0 0 0
0 0 0 0 0 0 0 0 0
0 0 0 0 0 0 0 0 0
0 0 0 0 0 0 0 0 0
0 0 0 0 0 0 0 0 0
0 0 0 0 0 0 0 0 0
0 0 0 0 0 0 0 0 0
0 0 0 0 0 0 0 0 0
0 0 0 0 0 0 0 0 0
0 0 0 0 0 0 0 0 0
0 0 0 0 0 0 0 0 0
0 0 0 0 0 0 0 0 0
0 0 0 0 0 0 0 0 0
0 0 0 0 0 0 0 0 0
0 0 0 0 0 0 0 0 0
0 0 0 0 0 0 0 0 0
0 0 0 0 0 0 0 0 0
0 0 0 0 0 0 0 0 0
0 0 0 0 0 0 0 0 0
0 0 0 0 0 0 0 0 0
0 0 0 0 0 0 0 0 0
0 0 0 0 0 0 0 0 0
0 0 0 0 0 0 0 0 0
0 0 0 0 0 0 0 0 0
0 0 0 0 0 0 0 0 0
0 0 0 0 0 0 0 0 0
0 0 0 0 0 0 0 0 0
0 0 0 0 0 0 0 0 0
0 0 0 0 0 0 0 0 0
0 0 0 0 0 0 0 0 0
0 0 0 0 0 0 0 0 0
0 0 0 0 0 0 0 0 0
0 0 0 0 0 0 0 0 0
0 0 0 0 0 0 0 0 0
0 0 0 0 0 0 0 0 0
0 0 0 0 0 0 0 0 0
0 0 0 0 0 0 0 0 0
0 0 0 0 0 0 0 0 0
0 0 0 0 0 0 0 0 0
0 0 0 0 0 0 0 0 0
0 0 0 0 0 0 0 0 0
0 0 0 0 0 0 0 0 0
0 0 0 0 0 0 0 0 0
0 0 0 0 0 0 0 0 0
0 0 0 0 0 0 0 0 0
0 0 0 0 0 0 0 0 0
0 0 0 0 0 0 0 0 0
0 0 0 0 0 0 0 0 0
0 0 0 0 0 0 0 0 0
0 0 0 0 0 0 0 0 0
0 0 0 0 0 0 0 0 0
0 0 0 0 0 0 0 0 0
0 0 0 0 0 0 0 0 0
0 0 0 0 0 0 0 0 0
0 0 0 0 0 0 0 0 0
0 0 0 0 0 0 0 0 0
0 0 0 0 0 0 0 0 0
0 0 0 0 0 0 0 0 0
0 0 0 0 0 0 0 0 0
0 0 0 0 0 0 0 0 0
0 0 0 0 0 0 0 0 0
0 0 0 0 0 0 0 0 0
0 0 0 0 0 0 0 0 0
0 0 0 0 0 0 0 0 0
0 0 0 0 0 0 0 0 0
0 0 0 0 0 0 0 0 0
0 0 0 0 0 0 0 0 0
0 0 0 0 0 0 0 0 0
0 0 0 0 0 0 0 0 0
0 0 0 0 0 0 0 0 0
0 0 0 0 0 0 0 0 0
0 0 0 0 0 0 0 0 0
0 0 0 0 0 0 0 0 0
0 0 0 0 0 0 0 0 0
0 0 0 0 0 0 0 0 0
0 0 0 0 0 0 0 0 0
0 0 0 0 0 0 0 0 0
0 0 0 0 0 0 0 0 0
0 0 0 0 0 0 0 0 0
0 0 0 0 0 0 0 0 0
0 0 0 0 0 0 0 0 0
0 0 0 0 0 0 0 0 0
0 0 0 0 0 0 0 0 0
0 0 0 0 0 0 0 0 0
0 0 0 0 0 0 0 0 0
0 0 0 0 0 0 0 0 0
0 0 0 0 0 0 0 0 0
0 0 0 0 0 0 0 0 0
0 0 0 0 0 0 0 0 0
0 0 0 0 0 0 0 0 0
0 0 0 0 0 0 0 0 0
0 0 0 0 0 0 0 0 0
0 0 0 0 0 0 0 0 0
0 0 0 0 0 0 0 0 0
0 0 0 0 0 0 0 0 0
0 0 0 0 0 0 0 0 0
0 0 0 0 0 0 0 0 0
0 0 0 0 0 0 0 0 0
0 0 0 0 0 0 0 0 0
0 0 0 0 0 0 0 0 0
0 0 0 0 0 0 0 0 0
0 0 0 0 0 0 0 0 0
0 0 0 0 0 0 0 0 0
0 0 0 0 0 0 0 0 0
0 0 0 0 0 0 0 0 0
0 0 0 0 0 0 0 0 0
0 0 0 0 0 0 0 0 0
0 0 0 0 0 0 0 0 0
0 0 0 0 0 0 0 0 0
0 0 0 0 0 0 0 0 0
0 0 0 0 0 0 0 0 0
0 0 0 0 0 0 0 0 0
0 0 0 0 0 0 0 0 0
0 0 0 0 0 0 0 0 0
0 0 0 0 0 0 0 0 0
0 0 0 0 0 0 0 0 0
0 0 0 0 0 0 0 0 0
0 0 0 0 0 0 0 0 0
0 0 0 0 0 0 0 0 0
0 0 0 0 0 0 0 0 0
0 0 0 0 0 0 0 0 0
0 0 0 0 0 0 0 0 0
0 0 0 0 0 0 0 0 0
0 0 0 0 0 0 0 0 0
0 0 0 0 0 0 0 0 0
0 0 0 0 0 0 0 0 0
0 0 0 0 0 0 0 0 0
0 0 0 0 0 0 0 0 0
0 0 0 0 0 0 0 0 0
0 0 0 0 0 0 0 0 0
0 0 0 0 0 0 0 0 0
0 0 0 0 0 0 0 0 0
0 0 0 0 0 0 0 0 0
0 0 0 0 0 0 0 0 0
0 0 0 0 0 0 0 0 0
0 0 0 0 0 0 0 0 0
0 0 0 0 0 0 0 0 0
0 0 0 0 0 0 0 0 0
0 0 0 0 0 0 0 0 0
0 0 0 0 0 0 0 0 0
0 0 0 0 0 0 0 0 0
0 0 0 0 0 0 0 0 0
0 0 0 0 0 0 0 0 0
0 0 0 0 0 0 0 0 0
0 0 0 0 0 0 0 0 0
0 0 0 0 0 0 0 0 0
0 0 0 0 0 0 0 0 0
0 0 0 0 0 0 0 0 0
0 0 0 0 0 0 0 0 0
0 0 0 0 0 0 0 0 0
0.0101459 0.0109323 0.0110159 0.0118042 0.0101459 0.0109323 0.0110159 0.0118042 0
0.0114328 0.0123049 0.0123158 0.0132103 0.0114328 0.0123049 0.0123158 0.0132103 0
0.00856315 0.0093078 0.00945409 0.0102273 0.00856315 0.0093078 0.00945409 0.0102273 0
0.00978205 0.0106391 0.0107155 0.0115758 0.00978205 0.0106391 0.0107155 0.0115758 0
0.0111897 0.0121637 0.0121359 0.0131258 0.0111897 0.0121637 0.0121359 0.0131258 0
0.0128066 0.0139359 0.0137824 0.0149264 0.0128066 0.0139359 0.0137824 0.0149264 0
0.0146942 0.0160028 0.0156962 0.0170136 0.0146942 0.0160028 0.0156962 0.0170136 0
0.0168923 0.0183975 0.0179124 0.019426 0.0168923 0.0183975 0.0179124 0.019426 0
0.0194354 0.0211649 0.0204723 0.0222076 0.0194354 0.0211649 0.0204723 0.0222076 0
0.0223757 0.0243659 0.0234188 0.0253952 0.0223757 0.0243659 0.0234188 0.0253952 0
0.0257643 0.0280155 0.0267834 0.0290113 0.0257643 0.0280155 0.0267834 0.0290113 0
0.0081063 0.00893315 0.00904596 0.00989243 0.0081063 0.00893315 0.00904596 0.00989243 0
0.00945544 0.0103986 0.0104304 0.0113903 0.00945544 0.0103986 0.0104304 0.0113903 0
0.0110122 0.0121103 0.0120189 0.0131341 0.0110122 0.0121103 0.0120189 0.0131341 0
0.0128388 0.0141165 0.0138785 0.0151746 0.0128388 0.0141165 0.0138785 0.0151746 0
0.0149781 0.0164589 0.016051 0.0175454 0.0149781 0.0164589 0.016051 0.0175454 0
0.0174749 0.0191916 0.0185719 0.0202944 0.0174749 0.0191916 0.0185719 0.0202944 0
0.0203901 0.0223835 0.0214983 0.0234911 0.0203901 0.0223835 0.0214983 0.0234911 0
0.00640192 0.00719114 0.0073627 0.00817266 0.00640192 0.00719114 0.0073627 0.00817266 0
0.00768098 0.00858914 0.00867972 0.00960743 0.00768098 0.00858914 0.00867972 0.00960743 0
0.00916956 0.0102297 0.0102056 0.0112871 0.00916956 0.0102297 0.0102056 0.0112871 0
0.0109231 0.0121623 0.0119992 0.0132599 0.0109231 0.0121623 0.0119992 0.0132599 0
0.01299 0.014438 0.0141054 0.0155719 0.01299 0.014438 0.0141054 0.0155719 0
0.015425 0.0171177 0.0165741 0.0182808 0.015425 0.0171177 0.0165741 0.0182808 0
0.0182968 0.0202852 0.0194692 0.0214595 0.0182968 0.0202852 0.0194692 0.0214595 0
0.00466835 0.00541688 0.00564703 0.00641831 0.00466835 0.00541688 0.00564703 0.00641831 0
0.00587137 0.00673928 0.00689191 0.00778248 0.00587137 0.00673928 0.00689191 0.00778248 0
0.0072824 0.00829821 0.00834578 0.0093866 0.0072824 0.00829821 0.00834578 0.0093866 0
0.00895151 0.0101446 0.0100616 0.011281 0.00895151 0.0101446 0.0100616 0.011281 0
0.0109321 0.0123374 0.0120903 0.0135201 0.0109321 0.0123374 0.0120903 0.0135201 0
0.0132902 0.0149553 0.0144907 0.0161703 0.0132902 0.0149553 0.0144907 0.0161703 0
0.00291073 0.00361635 0.00390477 0.00463432 0.00291073 0.00361635 0.00390477 0.00463432 0
0.00403284 0.00485501 0.00507155 0.00591965 0.00403284 0.00485501 0.00507155 0.00591965 0
0.00535683 0.00632252 0.00644411 0.00743823 0.00535683 0.00632252 0.00644411 0.00743823 0
0.00693117 0.00807132 0.00807129 0.00924148 0.00693117 0.00807132 0.00807129 0.00924148 0
0.00881194 0.0101628 0.0100079 0.0113903 0.00881194 0.0101628 0.0100079 0.0113903 0
0.0110706 0.0126897 0.0123233 0.0139703 0.0110706 0.0126897 0.0123233 0.0139703 0
0.00113857 0.0017975 0.00214208 0.00282749 0.00113857 0.0017975 0.00214208 0.00282749 0
0.00217321 0.00294523 0.00322577 0.00402619 0.00217321 0.00294523 0.00322577 0.00402619 0
0.00340251 0.00431314 0.00450804 0.00544991 0.00340251 0.00431314 0.00450804 0.00544991 0
0.00487259 0.00595193 0.00603662 0.00715088 0.00487259 0.00595193 0.00603662 0.00715088 0
0.00663992 0.00792855 0.007868 0.00919214 0.00663992 0.00792855 0.007868 0.00919214 0
0.00878037 0.0103322 0.0100753 0.0116673 0.00878037 0.0103322 0.0100753 0.0116673 0
-0.000640597 -2.82448e-05 0.000368838 0.00100703 -0.000640597 -2.82448e-05 0.000368838 0.00100703 0
0.000305474 0.00102314 0.00136398 0.0021126 0.000305474 0.00102314 0.00136398 0.0021126 0
0.0014328 0.00228348 0.00254884 0.00343372 0.0014328 0.00228348 0.00254884 0.00343372 0
0.00279075 0.00380546 0.00396993 0.0050212 0.00279075 0.00380546 0.00396993 0.0050212 0
0.00443738 0.00565785 0.00568411 0.00694346 0.00443738 0.00565785 0.00568411 0.00694346 0
-0.00310065 -0.00263052 -0.00214782 -0.00165535 -0.00310065 -0.00263052 -0.00214782 -0.00165535 0
-0.00240032 -0.00184309 -0.00140296 -0.000813324 -0.00240032 -0.00184309 -0.00140296 -0.000813324 0
-0.00155491 -0.000893616 -0.000499181 0.000194007 -0.00155491 -0.000893616 -0.000499181 0.000194007 0
-0.000532799 0.000255775 0.000582088 0.00140581 -0.000532799 0.000255775 0.000582088 0.00140581 0
0.000707466 0.00164969 0.00188881 0.00287306 0.000707466 0.00164969 0.00188881 0.00287306 0
0.00221969 0.00336326 0.00347816 0.00466628 0.00221969 0.00336326 0.00347816 0.00466628 0
-0.00474458 -0.00432013 -0.00381125 -0.00336017 -0.00474458 -0.00432013 -0.00381125 -0.00336017 0
-0.00412948 -0.0036247 -0.00314712 -0.00261349 -0.00412948 -0.0036247 -0.00314712 -0.00261349 0
-0.00338101 -0.00277706 -0.00234495 -0.00170848 -0.00338101 -0.00277706 -0.00234495 -0.00170848 0
-0.00246572 -0.00174109 -0.00136922 -0.000608161 -0.00246572 -0.00174109 -0.00136922 -0.000608161 0
-0.00134436 -0.000472061 -0.000180822 0.000730365 -0.00134436 -0.000472061 -0.000180822 0.000730365 0
3.03647e-05 0.00107826 0.00127132 0.00237619 3.03647e-05 0.00107826 0.00127132 0.00237619 0
-0.00740118 -0.00718215 -0.00661828 -0.00638156 -0.00740118 -0.00718215 -0.00661828 -0.00638156 0
-0.00712079 -0.00685724 -0.00630549 -0.00602305 -0.00712079 -0.00685724 -0.00630549 -0.00602305 0
-0.00676946 -0.00644555 -0.00591742 -0.00556782 -0.00676946 -0.00644555 -0.00591742 -0.00556782 0
-0.00632671 -0.00594428 -0.0054294 -0.00502399 -0.00632671 -0.00594428 -0.0054294 -0.00502399 0
-0.00579065 -0.00533633 -0.00484948 -0.00436662 -0.00579065 -0.00533633 -0.00484948 -0.00436662 0
-0.0051357 -0.00458841 -0.00414149 -0.00356213 -0.0051357 -0.00458841 -0.00414149 -0.00356213 0
-0.0043245 -0.00366006 -0.00327154 -0.00257354 -0.0043245 -0.00366006 -0.00327154 -0.00257354 0
-0.00331731 -0.00251705 -0.00220028 -0.00135851 -0.00331731 -0.00251705 -0.00220028 -0.00135851 0
-0.00867656 -0.00848689 -0.00795874 -0.00775277 -0.00867656 -0.00848689 -0.00795874 -0.00775277 0
-0.00844909 -0.00821705 -0.00770134 -0.00745175 -0.00844909 -0.00821705 -0.00770134 -0.00745175 0
-0.00815552 -0.00786729 -0.00737545 -0.00706843 -0.00815552 -0.00786729 -0.00737545 -0.00706843 0
-0.00777787 -0.0074343 -0.00696244 -0.00659703 -0.00777787 -0.0074343 -0.00696244 -0.00659703 0
-0.00731455 -0.00690653 -0.00645786 -0.00602404 -0.00731455 -0.00690653 -0.00645786 -0.00602404 0
-0.00674516 -0.00624962 -0.00584039 -0.00531603 -0.00674516 -0.00624962 -0.00584039 -0.00531603 0
-0.00603033 -0.00542467 -0.00507127 -0.00443207 -0.00603033 -0.00542467 -0.00507127 -0.00443207 0
-0.00513222 -0.00439667 -0.00411125 -0.00333998 -0.00513222 -0.00439667 -0.00411125 -0.00333998 0
-0.00980193 -0.00963325 -0.00917354 -0.00899416 -0.00980193 -0.00963325 -0.00917354 -0.00899416 0
-0.00961326 -0.00940654 -0.0089641 -0.00874382 -0.00961326 -0.00940654 -0.0089641 -0.00874382 0
-0.00936709 -0.00911056 -0.00869143 -0.00841698 -0.00936709 -0.00911056 -0.00869143 -0.00841698 0
-0.00904362 -0.00872518 -0.00833731 -0.00800657 -0.00904362 -0.00872518 -0.00833731 -0.00800657 0
-0.00862769 -0.00824933 -0.0078973 -0.00750436 -0.00862769 -0.00824933 -0.0078973 -0.00750436 0
-0.0081179 -0.00766678 -0.00735634 -0.00688063 -0.0081179 -0.00766678 -0.00735634 -0.00688063 0
-0.00748809 -0.00693911 -0.0066785 -0.00609723 -0.00748809 -0.00693911 -0.0066785 -0.00609723 0
-0.00669897 -0.0060373 -0.00582603 -0.00512007 -0.00669897 -0.0060373 -0.00582603 -0.00512007 0
0 0 0 0 0 0 0 0 0
0 0 0 0 0 0 0 0 0
0 0 0 0 0 0 0 0 0
0 0 0 0 0 0 0 0 0
0 0 0 0 0 0 0 0 0
0 0 0 0 0 0 0 0 0
0 0 0 0 0 0 0 0 0
0 0 0 0 0 0 0 0 0
0 0 0 0 0 0 0 0 0
0 0 0 0 0 0 0 0 0
0 0 0 0 0 0 0 0 0
0 0 0 0 0 0 0 0 0
0 0 0 0 0 0 0 0 0
0 0 0 0 0 0 0 0 0
0 0 0 0 0 0 0 0 0
0 0 0 0 0 0 0 0 0
0 0 0 0 0 0 0 0 0
0 0 0 0 0 0 0 0 0
0 0 0 0 0 0 0 0 0
0 0 0 0 0 0 0 0 0
0 0 0 0 0 0 0 0 0
0 0 0 0 0 0 0 0 0
0 0 0 0 0 0 0 0 0
0 0 0 0 0 0 0 0 0
0 0 0 0 0 0 0 0 0
0 0 0 0 0 0 0 0 0
0 0 0 0 0 0 0 0 0
0 0 0 0 0 0 0 0 0
0 0 0 0 0 0 0 0 0
0 0 0 0 0 0 0 0 0
0 0 0 0 0 0 0 0 0
0 0 0 0 0 0 0 0 0
0 0 0 0 0 0 0 0 0
0 0 0 0 0 0 0 0 0
0 0 0 0 0 0 0 0 0
0 0 0 0 0 0 0 0 0
0 0 0 0 0 0 0 0 0
0 0 0 0 0 0 0 0 0
0 0 0 0 0 0 0 0 0
0 0 0 0 0 0 0 0 0
0 0 0 0 0 0 0 0 0
0 0 0 0 0 0 0 0 0
0 0 0 0 0 0 0 0 0
0 0 0 0 0 0 0 0 0
0 0 0 0 0 0 0 0 0
0 0 0 0 0 0 0 0 0
0 0 0 0 0 0 0 0 0
0 0 0 0 0 0 0 0 0
0 0 0 0 0 0 0 0 0
0 0 0 0 0 0 0 0 0
0 0 0 0 0 0 0 0 0
0 0 0 0 0 0 0 0 0
0 0 0 0 0 0 0 0 0
0 0 0 0 0 0 0 0 0
0 0 0 0 0 0 0 0 0
0 0 0 0 0 0 0 0 0
0 0 0 0 0 0 0 0 0
0 0 0 0 0 0 0 0 0
0 0 0 0 0 0 0 0 0
0 0 0 0 0 0 0 0 0
0 0 0 0 0 0 0 0 0
0 0 0 0 0 0 0 0 0
0 0 0 0 0 0 0 0 0
0 0 0 0 0 0 0 0 0
0 0 0 0 0 0 0 0 0
0 0 0 0 0 0 0 0 0
0 0 0 0 0 0 0 0 0
0 0 0 0 0 0 0 0 0
0 0 0 0 0 0 0 0 0
0 0 0 0 0 0 0 0 0
0 0 0 0 0 0 0 0 0
0 0 0 0 0 0 0 0 0
0 0 0 0 0 0 0 0 0
0 0 0 0 0 0 0 0 0
0 0 0 0 0 0 0 0 0
0 0 0 0 0 0 0 0 0
0 0 0 0 0 0 0 0 0
0 0 0 0 0 0 0 0 0
0 0 0 0 0 0 0 0 0
0 0 0 0 0 0 0 0 0
0 0 0 0 0 0 0 0 0
0 0 0 0 0 0 0 0 0
0 0 0 0 0 0 0 0 0
0 0 0 0 0 0 0 0 0
0.00240542 0.00286052 0.00328717 0.00374208 0.00240542 0.00286052 0.00328717 0.00374208 0
0.00311186 0.00362808 0.00399898 0.00452482 0.00311186 0.00362808 0.00399898 0.00452482 0
0.000794428 0.00122726 0.0017045 0.00215222 0.000794428 0.00122726 0.0017045 0.00215222 0
0.00146316 0.001974 0.00239565 0.00290629 0.00146316 0.001974 0.00239565 0.00290629 0
0.002258 0.0028427 0.00319502 0.00378644 0.002258 0.0028427 0.00319502 0.00378644 0
0.00318478 0.00387392 0.00413439 0.00482594 0.00318478 0.00387392 0.00413439 0.00482594 0
0.00429082 0.00509857 0.00524526 0.00604982 0.00429082 0.00509857 0.00524526 0.00604982 0
0.00559196 0.00650728 0.00654564 0.00746288 0.00559196 0.00650728 0.00654564 0.00746288 0
0.00708257 0.00812929 0.00803927 0.00907864 0.00708257 0.00812929 0.00803927 0.00907864 0
0.00880777 0.0100176 0.00975051 0.0109407 0.00880777 0.0100176 0.00975051 0.0109407 0
0.0107926 0.0121124 0.0117003 0.0129884 0.0107926 0.0121124 0.0117003 0.0129884 0
-0.00022251 0.000270662 0.000726401 0.00123105 -0.00022251 0.000270662 0.000726401 0.00123105 0
0.000537226 0.00110768 0.00150675 0.00208423 0.000537226 0.00110768 0.00150675 0.00208423 0
0.00143348 0.00210975 0.00241777 0.00310113 0.00143348 0.00210975 0.00241777 0.00310113 0
0.00251021 0.00330485 0.00351015 0.00431349 0.00251021 0.00330485 0.00351015 0.00431349 0
0.00378601 0.00470144 0.00479992 0.00571291 0.00378601 0.00470144 0.00479992 0.00571291 0
0.00527178 0.00632668 0.00628337 0.00733235 0.00527178 0.00632668 0.00628337 0.00733235 0
0.00700684 0.00823621 0.00800968 0.00922804 0.00700684 0.00823621 0.00800968 0.00922804 0
-0.00195234 -0.00148172 -0.00097365 -0.000491054 -0.00195234 -0.00148172 -0.00097365 -0.000491054 0
-0.00123594 -0.000684171 -0.000234754 0.000327262 -0.00123594 -0.000684171 -0.000234754 0.000327262 0
-0.000378908 0.000277078 0.000643025 0.00131033 -0.000378908 0.000277078 0.000643025 0.00131033 0
0.000655988 0.00143081 0.00170005 0.00248533 0.000655988 0.00143081 0.00170005 0.00248533 0
0.00189379 0.00279984 0.0029573 0.00386908 0.00189379 0.00279984 0.0029573 0.00386908 0
0.00335701 0.00440738 0.00443273 0.00548615 0.00335701 0.00440738 0.00443273 0.00548615 0
0.00508441 0.00633341 0.00616288 0.00739857 0.00508441 0.00633341 0.00616288 0.00739857 0
-0.00372513 -0.00328156 -0.00272077 -0.002262 -0.00372513 -0.00328156 -0.00272077 -0.002262 0
-0.00306023 -0.00253297 -0.00202768 -0.00148669 -0.00306023 -0.00253297 -0.00202768 -0.00148669 0
-0.00225266 -0.00162342 -0.00119323 -0.000549006 -0.00225266 -0.00162342 -0.00119323 -0.000549006 0
-0.00127083 -0.000522527 -0.000182587 0.000580682 -0.00127083 -0.000522527 -0.000182587 0.000580682 0
-8.37417e-05 0.000803156 0.001032 0.00192965 -8.37417e-05 0.000803156 0.001032 0.00192965 0
0.00134502 0.00239503 0.00247796 0.00352563 0.00134502 0.00239503 0.00247796 0.00352563 0
-0.00553749 -0.00512427 -0.00450847 -0.00407842 -0.00553749 -0.00512427 -0.00450847 -0.00407842 0
-0.00493089 -0.00443483 -0.00386995 -0.00335612 -0.00493089 -0.00443483 -0.00386995 -0.00335612 0
-0.00418412 -0.003588 -0.00308938 -0.0024745 -0.00418412 -0.003588 -0.00308938 -0.0024745 0
-0.00326628 -0.00255076 -0.00213626 -0.00140229 -0.00326628 -0.00255076 -0.00213626 -0.00140229 0
-0.00214279 -0.0012869 -0.00097774 -0.000103665 -0.00214279 -0.0012869 -0.00097774 -0.000103665 0
-0.000771064 0.0002612 0.000426621 0.00147079 -0.000771064 0.0002612 0.000426621 0.00147079 0
-0.00738136 -0.00700415 -0.00633294 -0.00593509 -0.00738136 -0.00700415 -0.00633294 -0.00593509 0
-0.00684266 -0.00638358 -0.00575596 -0.00527586 -0.00684266 -0.00638358 -0.00575596 -0.00527586 0
-0.00616655 -0.00560945 -0.00504036 -0.00446108 -0.00616655 -0.00560945 -0.00504036 -0.00446108 0
-0.00532386 -0.00464999 -0.00415562 -0.00345764 -0.00532386 -0.00464999 -0.00415562 -0.00345764 0
-0.00428007 -0.00346637 -0.00306671 -0.00222851 -0.00428007 -0.00346637 -0.00306671 -0.00222851 0
-0.00298805 -0.00199371 -0.0017293 -0.000711992 -0.00298805 -0.00199371 -0.0017293 -0.000711992 0
-0.00925419 -0.00891349 -0.00818644 -0.00782562 -0.00925419 -0.00891349 -0.00818644 -0.00782562 0
-0.00878599 -0.00836979 -0.00767938 -0.00723857 -0.00878599 -0.00836979 -0.00767938 -0.00723857 0
-0.00819077 -0.00767926 -0.00703831 -0.00650059 -0.00819077 -0.00767926 -0.00703831 -0.00650059 0
-0.00743386 -0.00680668 -0.00623297 -0.00557938 -0.00743386 -0.00680668 -0.00623297 -0.00557938 0
-0.00647719 -0.00570741 -0.00522809 -0.00443411 -0.00647719 -0.00570741 -0.00522809 -0.00443411 0
-0.011408 -0.0111804 -0.0103783 -0.0101302 -0.011408 -0.0111804 -0.0103783 -0.0101302 0
-0.0111323 -0.0108392 -0.0100621 -0.00974051 -0.0111323 -0.0108392 -0.0100621 -0.00974051 0
-0.0107509 -0.0103816 -0.00962963 -0.00923361 -0.0107509 -0.0103816 -0.00962963 -0.00923361 0
-0.0102433 -0.00978137 -0.0090725 -0.00858237 -0.0102433 -0.00978137 -0.0090725 -0.00858237 0
-0.00958139 -0.00901192 -0.00835665 -0.00775316 -0.00958139 -0.00901192 -0.00835665 -0.00775316 0
-0.00873069 -0.00801582 -0.00744429 -0.00669694 -0.00873069 -0.00801582 -0.00744429 -0.00669694 0
-0.0132047 -0.0130225 -0.0121785 -0.0119693 -0.0132047 -0.0130225 -0.0121785 -0.0119693 0
-0.0130122 -0.0127673 -0.0119372 -0.0116655 -0.0130122 -0.0127673 -0.0119372 -0.0116655 0
-0.0127193 -0.0124006 -0.0115947 -0.011247 -0.0127193 -0.0124006 -0.0115947 -0.011247 0
-0.0123057 -0.0118984 -0.0111273 -0.0106885 -0.0123057 -0.0118984 -0.0111273 -0.0106885 0
-0.0117458 -0.0112352 -0.0105093 -0.00996571 -0.0117458 -0.0112352 -0.0105093 -0.00996571 0
-0.0110116 -0.0103766 -0.0097088 -0.00902507 -0.0110116 -0.0103766 -0.0097088 -0.00902507 0
-0.015022 -0.0149902 -0.0141245 -0.014074 -0.015022 -0.0149902 -0.0141245 -0.014074 0
-0.0150664 -0.0149988 -0.0141343 -0.0140451 -0.0150664 -0.0149988 -0.0141343 -0.0140451 0
-0.0150573 -0.0149453 -0.0140839 -0.0139434 -0.0150573 -0.0149453 -0.0140839 -0.0139434 0
-0.0149877 -0.0148426 -0.0139665 -0.0138021 -0.0149877 -0.0148426 -0.0139665 -0.0138021 0
-0.014867 -0.0146716 -0.0138071 -0.0135832 -0.014867 -0.0146716 -0.0138071 -0.0135832 0
-0.014665 -0.0143996 -0.0135528 -0.0132568 -0.014665 -0.0143996 -0.0135528 -0.0132568 0
-0.0143486 -0.0139953 -0.0131808 -0.0127971 -0.0143486 -0.0139953 -0.0131808 -0.0127971 0
-0.0138908 -0.013443 -0.0126653 -0.0121811 -0.0138908 -0.013443 -0.0126653 -0.0121811 0
-0.0165303 -0.0165309 -0.0156712 -0.0156534 -0.0165303 -0.0165309 -0.0156712 -0.0156534 0
-0.0166344 -0.0166052 -0.0157409 -0.0156897 -0.0166344 -0.0166052 -0.0157409 -0.0156897 0
-0.0166952 -0.016626 -0.0157617 -0.0156692 -0.0166952 -0.016626 -0.0157617 -0.0156692 0
-0.0167014 -0.0165981 -0.0157252 -0.0155969 -0.0167014 -0.0165981 -0.0157252 -0.0155969 0
-0.0166584 -0.0165117 -0.0156359 -0.0154616 -0.0166584 -0.0165117 -0.0156359 -0.0154616 0
-0.0165454 -0.0163322 -0.015472 -0.0152293 -0.0165454 -0.0163322 -0.015472 -0.0152293 0
-0.0163254 -0.0160299 -0.0151968 -0.0148676 -0.0163254 -0.0160299 -0.0151968 -0.0148676 0
-0.0159738 -0.015587 -0.0147837 -0.0143624 -0.0159738 -0.015587 -0.0147837 -0.0143624 0
-0.0179326 -0.0179589 -0.0171378 -0.0171504 -0.0179326 -0.0179589 -0.0171378 -0.0171504 0
-0.0180845 -0.0180876 -0.0172634 -0.0172491 -0.0180845 -0.0180876 -0.0172634 -0.0172491 0
-0.0182044 -0.0181732 -0.0173503 -0.0172977 -0.0182044 -0.0181732 -0.0173503 -0.0172977 0
-0.0182764 -0.0182067 -0.0173851 -0.0172977 -0.0182764 -0.0182067 -0.0173851 -0.0172977 0
-0.018296 -0.0181892 -0.0173707 -0.0172423 -0.018296 -0.0181892 -0.0173707 -0.0172423 0
-0.0182597 -0.0180996 -0.0172914 -0.0171005 -0.0182597 -0.0180996 -0.0172914 -0.0171005 0
-0.0181388 -0.0179064 -0.0171124 -0.0168429 -0.0181388 -0.0179064 -0.0171124 -0.0168429 0
-0.0179077 -0.0176022 -0.0168094 -0.0164538 -0.0179077 -0.0176022 -0.0168094 -0.0164538 0
0 0 0 0 0 0 0 0 0
0 0 0 0 0 0 0 0 0
0 0 0 0 0 0 0 0 0
0 0 0 0 0 0 0 0 0
0 0 0 0 0 0 0 0 0
0 0 0 0 0 0 0 0 0
0 0 0 0 0 0 0 0 0
0 0 0 0 0 0 0 0 0
0 0 0 0 0 0 0 0 0
0 0 0 0 0 0 0 0 0
0 0 0 0 0 0 0 0 0
0 0 0 0 0 0 0 0 0
0 0 0 0 0 0 0 0 0
0 0 0 0 0 0 0 0 0
0 0 0 0 0 0 0 0 0
0 0 0 0 0 0 0 0 0
0 0 0 0 0 0 0 0 0
0 0 0 0 0 0 0 0 0
0 0 0 0 0 0 0 0 0
0 0 0 0 0 0 0 0 0
0 0 0 0 0 0 0 0 0
0 0 0 0 0 0 0 0 0
0 0 0 0 0 0 0 0 0
0 0 0 0 0 0 0 0 0
0 0 0 0 0 0 0 0 0
0 0 0 0 0 0 0 0 0
0 0 0 0 0 0 0 0 0
0 0 0 0 0 0 0 0 0
0 0 0 0 0 0 0 0 0
0 0 0 0 0 0 0 0 0
0 0 0 0 0 0 0 0 0
0 0 0 0 0 0 0 0 0
0 0 0 0 0 0 0 0 0
0 0 0 0 0 0 0 0 0
0 0 0 0 0 0 0 0 0
0 0 0 0 0 0 0 0 0
0 0 0 0 0 0 0 0 0
0 0 0 0 0 0 0 0 0
0 0 0 0 0 0 0 0 0
0 0 0 0 0 0 0 0 0
0 0 0 0 0 0 0 0 0
0 0 0 0 0 0 0 0 0
0 0 0 0 0 0 0 0 0
0 0 0 0 0 0 0 0 0
0 0 0 0 0 0 0 0 0
0 0 0 0 0 0 0 0 0
0 0 0 0 0 0 0 0 0
0 0 0 0 0 0 0 0 0
0 0 0 0 0 0 0 0 0
0 0 0 0 0 0 0 0 0
0 0 0 0 0 0 0 0 0
0 0 0 0 0 0 0 0 0
0 0 0 0 0 0 0 0 0
0 0 0 0 0 0 0 0 0
0 0 0 0 0 0 0 0 0
0 0 0 0 0 0 0 0 0
0 0 0 0 0 0 0 0 0
0 0 0 0 0 0 0 0 0
0 0 0 0 0 0 0 0 0
0 0 0 0 0 0 0 0 0
0 0 0 0 0 0 0 0 0
0 0 0 0 0 0 0 0 0
0 0 0 0 0 0 0 0 0
0 0 0 0 0 0 0 0 0
0 0 0 0 0 0 0 0 0
0 0 0 0 0 0 0 0 0
0 0 0 0 0 0 0 0 0
0 0 0 0 0 0 0 0 0
0 0 0 0 0 0 0 0 0
0 0 0 0 0 0 0 0 0
0 0 0 0 0 0 0 0 0
0 0 0 0 0 0 0 0 0
0 0 0 0 0 0 0 0 0
0 0 0 0 0 0 0 0 0
0 0 0 0 0 0 0 0 0
0 0 0 0 0 0 0 0 0
0 0 0 0 0 0 0 0 0
0 0 0 0 0 0 0 0 0
0 0 0 0 0 0 0 0 0
0 0 0 0 0 0 0 0 0
0 0 0 0 0 0 0 0 0
0 0 0 0 0 0 0 0 0
0 0 0 0 0 0 0 0 0
0 0 0 0 0 0 0 0 0
0 0 0 0 0 0 0 0 0
0 0 0 0 0 0 0 0 0
0 0 0 0 0 0 0 0 0
0 0 0 0 0 0 0 0 0
0 0 0 0 0 0 0 0 0
0 0 0 0 0 0 0 0 0
0 0 0 0 0 0 0 0 0
0 0 0 0 0 0 0 0 0
0 0 0 0 0 0 0 0 0
0 0 0 0 0 0 0 0 0
0 0 0 0 0 0 0 0 0
0 0 0 0 0 0 0 0 0
0 0 0 0 0 0 0 0 0
0 0 0 0 0 0 0 0 0
0 0 0 0 0 0 0 0 0
0 0 0 0 0 0 0 0 0
0 0 0 0 0 0 0 0 0
0 0 0 0 0 0 0 0 0
0 0 0 0 0 0 0 0 0
0 0 0 0 0 0 0 0 0
0 0 0 0 0 0 0 0 0
0 0 0 0 0 0 0 0 0
0 0 0 0 0 0 0 0 0
0 0 0 0 0 0 0 0 0
0 0 0 0 0 0 0 0 0
0 0 0 0 0 0 0 0 0
0 0 0 0 0 0 0 0 0
0 0 0 0 0 0 0 0 0
0 0 0 0 0 0 0 0 0
0 0 0 0 0 0 0 0 0
0 0 0 0 0 0 0 0 0
0 0 0 0 0 0 0 0 0
0 0 0 0 0 0 0 0 0
0 0 0 0 0 0 0 0 0
0 0 0 0 0 0 0 0 0
0 0 0 0 0 0 0 0 0
0 0 0 0 0 0 0 0 0
0 0 0 0 0 0 0 0 0
0 0 0 0 0 0 0 0 0
0 0 0 0 0 0 0 0 0
0 0 0 0 0 0 0 0 0
0 0 0 0 0 0 0 0 0
0 0 0 0 0 0 0 0 0
0 0 0 0 0 0 0 0 0
0 0 0 0 0 0 0 0 0
0 0 0 0 0 0 0 0 0
0 0 0 0 0 0 0 0 0
0 0 0 0 0 0 0 0 0
0 0 0 0 0 0 0 0 0
0 0 0 0 0 0 0 0 0
0 0 0 0 0 0 0 0 0
0 0 0 0 0 0 0 0 0
0 0 0 0 0 0 0 0 0
0 0 0 0 0 0 0 0 0
0 0 0 0 0 0 0 0 0
0 0 0 0 0 0 0 0 0
0 0 0 0 0 0 0 0 0
0 0 0 0 0 0 0 0 0
0 0 0 0 0 0 0 0 0
0 0 0 0 0 0 0 0 0
0 0 0 0 0 0 0 0 0
0 0 0 0 0 0 0 0 0
0 0 0 0 0 0 0 0 0
0 0 0 0 0 0 0 0 0
0 0 0 0 0 0 0 0 0
0 0 0 0 0 0 0 0 0
0 0 0 0 0 0 0 0 0
0 0 0 0 0 0 0 0 0
0 0 0 0 0 0 0 0 0
0 0 0 0 0 0 0 0 0
0 0 0 0 0 0 0 0 0
0 0 0 0 0 0 0 0 0
0 0 0 0 0 0 0 0 0
0 0 0 0 0 0 0 0 0
0 0 0 0 0 0 0 0 0
0 0 0 0 0 0 0 0 0
0 0 0 0 0 0 0 0 0
0 0 0 0 0 0 0 0 0
0 0 0 0 0 0 0 0 0
0 0 0 0 0 0 0 0 0
0 0 0 0 0 0 0 0 0
0 0 0 0 0 0 0 0 0
0 0 0 0 0 0 0 0 0
0 0 0 0 0 0 0 0 0
0 0 0 0 0 0 0 0 0
0 0 0 0 0 0 0 0 0
0 0 0 0 0 0 0 0 0
0 0 0 0 0 0 0 0 0
0 0 0 0 0 0 0 0 0
0 0 0 0 0 0 0 0 0
0 0 0 0 0 0 0 0 0
0 0 0 0 0 0 0 0 0
0 0 0 0 0 0 0 0 0
0 0 0 0 0 0 0 0 0
0 0 0 0 0 0 0 0 0
0 0 0 0 0 0 0 0 0
0 0 0 0 0 0 0 0 0
0 0 0 0 0 0 0 0 0
0 0 0 0 0 0 0 0 0
0 0 0 0 0 0 0 0 0
0 0 0 0 0 0 0 0 0
0 0 0 0 0 0 0 0 0
0 0 0 0 0 0 0 0 0
0 0 0 0 0 0 0 0 0
0 0 0 0 0 0 0 0 0
0 0 0 0 0 0 0 0 0
0 0 0 0 0 0 0 0 0
0 0 0 0 0 0 0 0 0
0 0 0 0 0 0 0 0 0
0 0 0 0 0 0 0 0 0
0 0 0 0 0 0 0 0 0
0 0 0 0 0 0 0 0 0
0 0 0 0 0 0 0 0 0
0 0 0 0 0 0 0 0 0
0 0 0 0 0 0 0 0 0
0 0 0 0 0 0 0 0 0
0 0 0 0 0 0 0 0 0
0 0 0 0 0 0 0 0 0
0 0 0 0 0 0 0 0 0
0 0 0 0 0 0 0 0 0
0 0 0 0 0 0 0 0 0
0 0 0 0 0 0 0 0 0
0 0 0 0 0 0 0 0 0
0 0 0 0 0 0 0 0 0
0 0 0 0 0 0 0 0 0
0 0 0 0 0 0 0 0 0
0 0 0 0 0 0 0 0 0
0 0 0 0 0 0 0 0 0
0 0 0 0 0 0 0 0 0
0 0 0 0 0 0 0 0 0
0 0 0 0 0 0 0 0 0
0 0 0 0 0 0 0 0 0
0 0 0 0 0 0 0 0 0
0 0 0 0 0 0 0 0 0
0 0 0 0 0 0 0 0 0
0 0 0 0 0 0 0 0 0
0 0 0 0 0 0 0 0 0
0 0 0 0 0 0 0 0 0
0 0 0 0 0 0 0 0 0
0 0 0 0 0 0 0 0 0
0 0 0 0 0 0 0 0 0
0 0 0 0 0 0 0 0 0
0 0 0 0 0 0 0 0 0
0 0 0 0 0 0 0 0 0
0 0 0 0 0 0 0 0 0
0 0 0 0 0 0 0 0 0
0 0 0 0 0 0 0 0 0
0 0 0 0 0 0 0 0 0
0 0 0 0 0 0 0 0 0
0 0 0 0 0 0 0 0 0
0 0 0 0 0 0 0 0 0
0 0 0 0 0 0 0 0 0
0 0 0 0 0 0 0 0 0
0 0 0 0 0 0 0 0 0
0 0 0 0 0 0 0 0 0
0 0 0 0 0 0 0 0 0
0 0 0 0 0 0 0 0 0
0 0 0 0 0 0 0 0 0
0 0 0 0 0 0 0 0 0
0 0 0 0 0 0 0 0 0
0 0 0 0 0 0 0 0 0
0 0 0 0 0 0 0 0 0
0 0 0 0 0 0 0 0 0
0 0 0 0 0 0 0 0 0
0 0 0 0 0 0 0 0 0
0 0 0 0 0 0 0 0 0
0 0 0 0 0 0 0 0 0
0 0 0 0 0 0 0 0 0
0 0 0 0 0 0 0 0 0
0 0 0 0 0 0 0 0 0
0 0 0 0 0 0 0 0 0
0 0 0 0 0 0 0 0 0
0 0 0 0 0 0 0 0 0
0 0 0 0 0 0 0 0 0
0 0 0 0 0 0 0 0 0
0 0 0 0 0 0 0 0 0
0 0 0 0 0 0 0 0 0
0 0 0 0 0 0 0 0 0
0 0 0 0 0 0 0 0 0
0 0 0 0 0 0 0 0 0
0 0 0 0 0 0 0 0 0
0 0 0 0 0 0 0 0 0
0 0 0 0 0 0 0 0 0
0 0 0 0 0 0 0 0 0
0 0 0 0 0 0 0 0 0
0 0 0 0 0 0 0 0 0
0 0 0 0 0 0 0 0 0
0 0 0 0 0 0 0 0 0
0 0 0 0 0 0 0 0 0
0 0 0 0 0 0 0 0 0
0 0 0 0 0 0 0 0 0
0 0 0 0 0 0 0 0 0
0 0 0 0 0 0 0 0 0
0 0 0 0 0 0 0 0 0
0 0 0 0 0 0 0 0 0
0 0 0 0 0 0 0 0 0
0 0 0 0 0 0 0 0 0
0 0 0 0 0 0 0 0 0
0 0 0 0 0 0 0 0 0
0 0 0 0 0 0 0 0 0
0 0 0 0 0 0 0 0 0
0 0 0 0 0 0 0 0 0
0 0 0 0 0 0 0 0 0
0 0 0 0 0 0 0 0 0
0 0 0 0 0 0 0 0 0
0 0 0 0 0 0 0 0 0
0 0 0 0 0 0 0 0 0
0 0 0 0 0 0 0 0 0
0 0 0 0 0 0 0 0 0
0 0 0 0 0 0 0 0 0
0 0 0 0 0 0 0 0 0
0 0 0 0 0 0 0 0 0
0 0 0 0 0 0 0 0 0
0 0 0 0 0 0 0 0 0
0 0 0 0 0 0 0 0 0
0 0 0 0 0 0 0 0 0
0 0 0 0 0 0 0 0 0
0 0 0 0 0 0 0 0 0
0 0 0 0 0 0 0 0 0
0 0 0 0 0 0 0 0 0
0 0 0 0 0 0 0 0 0
0 0 0 0 0 0 0 0 0
0 0 0 0 0 0 0 0 0
0 0 0 0 0 0 0 0 0
0 0 0 0 0 0 0 0 0
0 0 0 0 0 0 0 0 0
0 0 0 0 0 0 0 0 0
0 0 0 0 0 0 0 0 0
0 0 0 0 0 0 0 0 0
0 0 0 0 0 0 0 0 0
0 0 0 0 0 0 0 0 0
0 0 0 0 0 0 0 0 0
0 0 0 0 0 0 0 0 0
0 0 0 0 0 0 0 0 0
0 0 0 0 0 0 0 0 0
0 0 0 0 0 0 0 0 0
0 0 0 0 0 0 0 0 0
0 0 0 0 0 0 0 0 0
0 0 0 0 0 0 0 0 0
0 0 0 0 0 0 0 0 0
0 0 0 0 0 0 0 0 0
0 0 0 0 0 0 0 0 0
0 0 0 0 0 0 0 0 0
0 0 0 0 0 0 0 0 0
0 0 0 0 0 0 0 0 0
0 0 0 0 0 0 0 0 0
0 0 0 0 0 0 0 0 0
0 0 0 0 0 0 0 0 0
0 0 0 0 0 0 0 0 0
0 0 0 0 0 0 0 0 0
0 0 0 0 0 0 0 0 0
0 0 0 0 0 0 0 0 0
0 0 0 0 0 0 0 0 0
0 0 0 0 0 0 0 0 0
0 0 0 0 0 0 0 0 0
0 0 0 0 0 0 0 0 0
0 0 0 0 0 0 0 0 0
0 0 0 0 0 0 0 0 0
0 0 0 0 0 0 0 0 0
0 0 0 0 0 0 0 0 0
0 0 0 0 0 0 0 0 0
0 0 0 0 0 0 0 0 0
0 0 0 0 0 0 0 0 0
0 0 0 0 0 0 0 0 0
0 0 0 0 0 0 0 0 0
0 0 0 0 0 0 0 0 0
0 0 0 0 0 0 0 0 0
0 0 0 0 0 0 0 0 0
0 0 0 0 0 0 0 0 0
0 0 0 0 0 0 0 0 0
0 0 0 0 0 0 0 0 0
0 0 0 0 0 0 0 0 0
0 0 0 0 0 0 0 0 0
0 0 0 0 0 0 0 0 0
0 0 0 0 0 0 0 0 0
0 0 0 0 0 0 0 0 0
0 0 0 0 0 0 0 0 0
0 0 0 0 0 0 0 0 0
0 0 0 0 0 0 0 0 0
0 0 0 0 0 0 0 0 0
0 0 0 0 0 0 0 0 0
0 0 0 0 0 0 0 0 0
0 0 0 0 0 0 0 0 0
0 0 0 0 0 0 0 0 0
0 0 0 0 0 0 0 0 0
0 0 0 0 0 0 0 0 0
0 0 0 0 0 0 0 0 0
0 0 0 0 0 0 0 0 0
0 0 0 0 0 0 0 0 0
0 0 0 0 0 0 0 0 0
0 0 0 0 0 0 0 0 0
0 0 0 0 0 0 0 0 0
0 0 0 0 0 0 0 0 0
0 0 0 0 0 0 0 0 0
0 0 0 0 0 0 0 0 0
0 0 0 0 0 0 0 0 0
0 0 0 0 0 0 0 0 0
0 0 0 0 0 0 0 0 0
0 0 0 0 0 0 0 0 0
0 0 0 0 0 0 0 0 0
0 0 0 0 0 0 0 0 0
0 0 0 0 0 0 0 0 0
0 0 0 0 0 0 0 0 0
0 0 0 0 0 0 0 0 0
0 0 0 0 0 0 0 0 0
0 0 0 0 0 0 0 0 0
0 0 0 0 0 0 0 0 0
0 0 0 0 0 0 0 0 0
0 0 0 0 0 0 0 0 0
0 0 0 0 0 0 0 0 0
0 0 0 0 0 0 0 0 0
0 0 0 0 0 0 0 0 0
0 0 0 0 0 0 0 0 0
0 0 0 0 0 0 0 0 0
0 0 0 0 0 0 0 0 0
0 0 0 0 0 0 0 0 0
0 0 0 0 0 0 0 0 0
0 0 0 0 0 0 0 0 0
0 0 0 0 0 0 0 0 0
0 0 0 0 0 0 0 0 0
0 0 0 0 0 0 0 0 0
0 0 0 0 0 0 0 0 0
0 0 0 0 0 0 0 0 0
0 0 0 0 0 0 0 0 0
0 0 0 0 0 0 0 0 0
0 0 0 0 0 0 0 0 0
0 0 0 0 0 0 0 0 0
0 0 0 0 0 0 0 0 0
0 0 0 0 0 0 0 0 0
0 0 0 0 0 0 0 0 0
0 0 0 0 0 0 0 0 0
0 0 0 0 0 0 0 0 0
SCALARS tauS double 9
LOOKUP_TABLE default
0 0 0 0 0 0 0 0 0
0 0 0 0 0 0 0 0 0
0 0 0 0 0 0 0 0 0
0 0 0 0 0 0 0 0 0
0 0 0 0 0 0 0 0 0
0 0 0 0 0 0 0 0 0
0 0 0 0 0 0 0 0 0
0 0 0 0 0 0 0 0 0
0 0 0 0 0 0 0 0 0
0 0 0 0 0 0 0 0 0
0 0 0 0 0 0 0 0 0
0 0 0 0 0 0 0 0 0
0 0 0 0 0 0 0 0 0
0 0 0 0 0 0 0 0 0
0 0 0 0 0 0 0 0 0
0 0 0 0 0 0 0 0 0
0 0 0 0 0 0 0 0 0
0 0 0 0 0 0 0 0 0
0 0 0 0 0 0 0 0 0
0 0 0 0 0 0 0 0 0
0 0 0 0 0 0 0 0 0
0 0 0 0 0 0 0 0 0
0 0 0 0 0 0 0 0 0
0 0 0 0 0 0 0 0 0
0 0 0 0 0 0 0 0 0
0 0 0 0 0 0 0 0 0
0 0 0 0 0 0 0 0 0
0 0 0 0 0 0 0 0 0
0 0 0 0 0 0 0 0 0
0 0 0 0 0 0 0 0 0
0 0 0 0 0 0 0 0 0
0 0 0 0 0 0 0 0 0
0 0 0 0 0 0 0 0 0
0 0 0 0 0 0 0 0 0
0 0 0 0 0 0 0 0 0
0 0 0 0 0 0 0 0 0
0 0 0 0 0 0 0 0 0
0 0 0 0 0 0 0 0 0
0 0 0 0 0 0 0 0 0
0 0 0 0 0 0 0 0 0
0 0 0 0 0 0 0 0 0
0 0 0 0 0 0 0 0 0
0 0 0 0 0 0 0 0 0
0 0 0 0 0 0 0 0 0
0 0 0 0 0 0 0 0 0
0 0 0 0 0 0 0 0 0
0 0 0 0 0 0 0 0 0
0 0 0 0 0 0 0 0 0
0 0 0 0 0 0 0 0 0
0 0 0 0 0 0 0 0 0
0 0 0 0 0 0 0 0 0
0 0 0 0 0 0 0 0 0
0 0 0 0 0 0 0 0 0
0 0 0 0 0 0 0 0 0
0 0 0 0 0 0 0 0 0
0 0 0 0 0 0 0 0 0
0 0 0 0 0 0 0 0 0
0 0 0 0 0 0 0 0 0
0 0 0 0 0 0 0 0 0
0 0 0 0 0 0 0 0 0
0 0 0 0 0 0 0 0 0
0 0 0 0 0 0 0 0 0
0 0 0 0 0 0 0 0 0
0 0 0 0 0 0 0 0 0
0 0 0 0 0 0 0 0 0
0 0 0 0 0 0 0 0 0
0 0 0 0 0 0 0 0 0
0 0 0 0 0 0 0 0 0
0 0 0 0 0 0 0 0 0
0 0 0 0 0 0 0 0 0
0 0 0 0 0 0 0 0 0
0 0 0 0 0 0 0 0 0
0 0 0 0 0 0 0 0 0
0 0 0 0 0 0 0 0 0
0 0 0 0 0 0 0 0 0
0 0 0 0 0 0 0 0 0
0 0 0 0 0 0 0 0 0
0 0 0 0 0 0 0 0 0
0 0 0 0 0 0 0 0 0
0 0 0 0 0 0 0 0 0
0 0 0 0 0 0 0 0 0
0 0 0 0 0 0 0 0 0
0 0 0 0 0 0 0 0 0
0 0 0 0 0 0 0 0 0
0 0 0 0 0 0 0 0 0
0 0 0 0 0 0 0 0 0
0 0 0 0 0 0 0 0 0
0 0 0 0 0 0 0 0 0
0 0 0 0 0 0 0 0 0
0 0 0 0 0 0 0 0 0
0 0 0 0 0 0 0 0 0
0 0 0 0 0 0 0 0 0
0 0 0 0 0 0 0 0 0
0 0 0 0 0 0 0 0 0
0 0 0 0 0 0 0 0 0
0 0 0 0 0 0 0 0 0
0 0 0 0 0 0 0 0 0
0 0 0 0 0 0 0 0 0
0 0 0 0 0 0 0 0 0
0 0 0 0 0 0 0 0 0
0 0 0 0 0 0 0 0 0
0 0 0 0 0 0 0 0 0
0 0 0 0 0 0 0 0 0
0 0 0 0 0 0 0 0 0
0 0 0 0 0 0 0 0 0
0 0 0 0 0 0 0 0 0
0 0 0 0 0 0 0 0 0
0 0 0 0 0 0 0 0 0
0 0 0 0 0 0 0 0 0
0 0 0 0 0 0 0 0 0
0 0 0 0 0 0 0 0 0
0 0 0 0 0 0 0 0 0
0 0 0 0 0 0 0 0 0
0 0 0 0 0 0 0 0 0
0 0 0 0 0 0 0 0 0
0 0 0 0 0 0 0 0 0
0 0 0 0 0 0 0 0 0
0 0 0 0 0 0 0 0 0
0 0 0 0 0 0 0 0 0
0 0 0 0 0 0 0 0 0
0 0 0 0 0 0 0 0 0
0 0 0 0 0 0 0 0 0
0 0 0 0 0 0 0 0 0
0 0 0 0 0 0 0 0 0
0 0 0 0 0 0 0 0 0
0 0 0 0 0 0 0 0 0
0 0 0 0 0 0 0 0 0
0 0 0 0 0 0 0 0 0
0 0 0 0 0 0 0 0 0
0 0 0 0 0 0 0 0 0
0 0 0 0 0 0 0 0 0
0 0 0 0 0 0 0 0 0
0 0 0 0 0 0 0 0 0
0 0 0 0 0 0 0 0 0
0 0 0 0 0 0 0 0 0
0 0 0 0 0 0 0 0 0
0 0 0 0 0 0 0 0 0
0 0 0 0 0 0 0 0 0
0 0 0 0 0 0 0 0 0
0 0 0 0 0 0 0 0 0
0 0 0 0 0 0 0 0 0
0 0 0 0 0 0 0 0 0
0 0 0 0 0 0 0 0 0
0 0 0 0 0 0 0 0 0
0 0 0 0 0 0 0 0 0
0 0 0 0 0 0 0 0 0
0 0 0 0 0 0 0 0 0
0 0 0 0 0 0 0 0 0
0 0 0 0 0 0 0 0 0
0 0 0 0 0 0 0 0 0
0 0 0 0 0 0 0 0 0
0 0 0 0 0 0 0 0 0
0 0 0 0 0 0 0 0 0
0 0 0 0 0 0 0 0 0
0 0 0 0 0 0 0 0 0
0 0 0 0 0 0 0 0 0
0 0 0 0 0 0 0 0 0
0 0 0 0 0 0 0 0 0
0 0 0 0 0 0 0 0 0
0 0 0 0 0 0 0 0 0
0 0 0 0 0 0 0 0 0
0 0 0 0 0 0 0 0 0
0 0 0 0 0 0 0 0 0
0.57045 0.595727 0.558836 0.583525 0.57045 0.595727 0.558836 0.583525 0
0.614408 0.640143 0.601758 0.626861 0.614408 0.640143 0.601758 0.626861 0
0.590438 0.61678 0.578945 0.604667 0.590438 0.61678 0.578945 0.604667 0
0.636284 0.663208 0.623689 0.649914 0.636284 0.663208 0.623689 0.649914 0
0.683115 0.710551 0.6693 0.696011 0.683115 0.710551 0.6693 0.696011 0
0.730809 0.758682 0.715726 0.742842 0.730809 0.758682 0.715726 0.742842 0
0.779216 0.807398 0.762812 0.790208 0.779216 0.807398 0.762812 0.790208 0
0.828083 0.856353 0.810296 0.837719 0.828083 0.856353 0.810296 0.837719 0
0.877012 0.905107 0.857739 0.884931 0.877012 0.905107 0.857739 0.884931 0
0.925525 0.953113 0.904675 0.931324 0.925525 0.953113 0.904675 0.931324 0
0.973064 0.999854 0.950558 0.976327 0.973064 0.999854 0.950558 0.976327 0
0.658006 0.686116 0.645507 0.672937 0.658006 0.686116 0.645507 0.672937 0
0.706921 0.735629 0.693226 0.721199 0.706921 0.735629 0.693226 0.721199 0
0.756845 0.786069 0.74186 0.770299 0.756845 0.786069 0.74186 0.770299 0
0.807622 0.83724 0.791259 0.820038 0.807622 0.83724 0.791259 0.820038 0
0.859013 0.888827 0.841176 0.870089 0.859013 0.888827 0.841176 0.870089 0
0.910656 0.940413 0.891234 0.920018 0.910656 0.940413 0.891234 0.920018 0
0.962086 0.991452 0.940953 0.969272 0.962086 0.991452 0.940953 0.969272 0
0.679518 0.708833 0.667145 0.695761 0.679518 0.708833 0.667145 0.695761 0
0.730557 0.760571 0.716952 0.746209 0.730557 0.760571 0.716952 0.746209 0
0.782779 0.813409 0.767841 0.797653 0.782779 0.813409 0.767841 0.797653 0
0.836027 0.867155 0.819652 0.849901 0.836027 0.867155 0.819652 0.849901 0
0.890076 0.921522 0.872153 0.902648 0.890076 0.921522 0.872153 0.902648 0
0.944587 0.976092 0.924993 0.95548 0.944587 0.976092 0.924993 0.95548 0
0.999104 1.03039 0.977711 1.00787 0.999104 1.03039 0.977711 1.00787 0
0.700752 0.731302 0.688546 0.718381 0.700752 0.731302 0.688546 0.718381 0
0.753971 0.785332 0.740502 0.771082 0.753971 0.785332 0.740502 0.771082 0
0.808566 0.840656 0.79372 0.824962 0.808566 0.840656 0.79372 0.824962 0
0.864387 0.897098 0.848045 0.879835 0.864387 0.897098 0.848045 0.879835 0
0.921226 0.954393 0.90326 0.935424 0.921226 0.954393 0.90326 0.935424 0
0.978773 1.01216 0.959035 0.991319 0.978773 1.01216 0.959035 0.991319 0
0.721617 0.753433 0.709633 0.740716 0.721617 0.753433 0.709633 0.740716 0
0.777071 0.809819 0.763793 0.795737 0.777071 0.809819 0.763793 0.795737 0
0.834115 0.867719 0.819416 0.852141 0.834115 0.867719 0.819416 0.852141 0
0.892609 0.926975 0.876357 0.90976 0.892609 0.926975 0.876357 0.90976 0
0.952371 0.987347 0.934418 0.968341 0.952371 0.987347 0.934418 0.968341 0
1.01311 1.04849 0.993299 1.02751 1.01311 1.04849 0.993299 1.02751 0
0.742002 0.775112 0.730308 0.762668 0.742002 0.775112 0.730308 0.762668 0
0.799746 0.83392 0.786725 0.820073 0.799746 0.83392 0.786725 0.820073 0
0.85931 0.894483 0.844827 0.87909 0.85931 0.894483 0.844827 0.87909 0
0.920577 0.956668 0.904484 0.939573 0.920577 0.956668 0.904484 0.939573 0
0.983391 1.02028 0.965523 1.0013 0.983391 1.02028 0.965523 1.0013 0
1.0475 1.08496 1.02767 1.06392 1.0475 1.08496 1.02767 1.06392 0
0.761773 0.796204 0.750448 0.784115 0.761773 0.796204 0.750448 0.784115 0
0.821855 0.857492 0.809176 0.843966 0.821855 0.857492 0.809176 0.843966 0
0.884009 0.920801 0.869829 0.905682 0.884009 0.920801 0.869829 0.905682 0
0.948142 0.986027 0.932299 0.969141 0.948142 0.986027 0.932299 0.969141 0
1.01413 1.05301 0.996444 1.03416 1.01413 1.05301 0.996444 1.03416 0
0.72052 0.755008 0.71091 0.744713 0.72052 0.755008 0.71091 0.744713 0
0.780735 0.816529 0.7699 0.804902 0.780735 0.816529 0.7699 0.804902 0
0.843224 0.880356 0.830992 0.867259 0.843224 0.880356 0.830992 0.867259 0
0.908028 0.946486 0.894262 0.931754 0.908028 0.946486 0.894262 0.931754 0
0.975116 1.01486 0.959636 0.998299 0.975116 1.01486 0.959636 0.998299 0
1.0444 1.08536 1.02701 1.06676 1.0444 1.08536 1.02701 1.06676 0
0.736363 0.77206 0.727347 0.762343 0.736363 0.77206 0.727347 0.762343 0
0.798727 0.83588 0.788468 0.824839 0.798727 0.83588 0.788468 0.824839 0
0.863629 0.90228 0.85198 0.889752 0.863629 0.90228 0.85198 0.889752 0
0.931131 0.971295 0.917921 0.957097 0.931131 0.971295 0.917921 0.957097 0
1.00125 1.04292 0.986284 1.02683 1.00125 1.04292 0.986284 1.02683 0
1.07396 1.11705 1.057 1.09886 1.07396 1.11705 1.057 1.09886 0
0.573132 0.605695 0.567767 0.599839 0.573132 0.605695 0.567767 0.599839 0
0.630008 0.663872 0.623776 0.657103 0.630008 0.663872 0.623776 0.657103 0
0.689198 0.724527 0.68201 0.716732 0.689198 0.724527 0.68201 0.716732 0
0.750962 0.787853 0.742694 0.778899 0.750962 0.787853 0.742694 0.778899 0
0.815453 0.853967 0.805963 0.843692 0.815453 0.853967 0.805963 0.843692 0
0.882774 0.922958 0.871888 0.911187 0.882774 0.922958 0.871888 0.911187 0
0.953005 0.994901 0.940542 0.981436 0.953005 0.994901 0.940542 0.981436 0
1.02621 1.06986 1.01197 1.05447 1.02621 1.06986 1.01197 1.05447 0
0.581291 0.614648 0.576751 0.609659 0.581291 0.614648 0.576751 0.609659 0
0.639578 0.674332 0.634239 0.668486 0.639578 0.674332 0.634239 0.668486 0
0.700358 0.736708 0.694113 0.729879 0.700358 0.736708 0.694113 0.729879 0
0.763945 0.80201 0.756656 0.794046 0.763945 0.80201 0.756656 0.794046 0
0.830535 0.870402 0.82204 0.861127 0.830535 0.870402 0.82204 0.861127 0
0.900265 0.941986 0.890382 0.931216 0.900265 0.941986 0.890382 0.931216 0
0.973232 1.01688 0.96177 1.00441 0.973232 1.01688 0.96177 1.00441 0
1.04956 1.0952 1.0363 1.08078 1.04956 1.0952 1.0363 1.08078 0
0.587658 0.621747 0.584207 0.617881 0.587658 0.621747 0.584207 0.617881 0
0.647255 0.682862 0.64306 0.678179 0.647255 0.682862 0.64306 0.678179 0
0.70955 0.746861 0.70449 0.741255 0.70955 0.746861 0.70449 0.741255 0
0.774842 0.813983 0.768815 0.80735 0.774842 0.813983 0.768815 0.80735 0
0.843392 0.884602 0.836255 0.876692 0.843392 0.884602 0.836255 0.876692 0
0.915521 0.958785 0.907002 0.949375 0.915521 0.958785 0.907002 0.949375 0
0.991244 1.03666 0.981133 1.02552 0.991244 1.03666 0.981133 1.02552 0
1.07072 1.11837 1.05879 1.10528 1.07072 1.11837 1.05879 1.10528 0
0 0 0 0 0 0 0 0 0
0 0 0 0 0 0 0 0 0
0 0 0 0 0 0 0 0 0
0 0 0 0 0 0 0 0 0
0 0 0 0 0 0 0 0 0
0 0 0 0 0 0 0 0 0
0 0 0 0 0 0 0 0 0
0 0 0 0 0 0 0 0 0
0 0 0 0 0 0 0 0 0
0 0 0 0 0 0 0 0 0
0 0 0 0 0 0 0 0 0
0 0 0 0 0 0 0 0 0
0 0 0 0 0 0 0 0 0
0 0 0 0 0 0 0 0 0
0 0 0 0 0 0 0 0 0
0 0 0 0 0 0 0 0 0
0 0 0 0 0 0 0 0 0
0 0 0 0 0 0 0 0 0
0 0 0 0 0 0 0 0 0
0 0 0 0 0 0 0 0 0
0 0 0 0 0 0 0 0 0
0 0 0 0 0 0 0 0 0
0 0 0 0 0 0 0 0 0
0 0 0 0 0 0 0 0 0
0 0 0 0 0 0 0 0 0
0 0 0 0 0 0 0 0 0
0 0 0 0 0 0 0 0 0
0 0 0 0 0 0 0 0 0
0 0 0 0 0 0 0 0 0
0 0 0 0 0 0 0 0 0
0 0 0 0 0 0 0 0 0
0 0 0 0 0 0 0 0 0
0 0 0 0 0 0 0 0 0
0 0 0 0 0 0 0 0 0
0 0 0 0 0 0 0 0 0
0 0 0 0 0 0 0 0 0
0 0 0 0 0 0 0 0 0
0 0 0 0 0 0 0 0 0
0 0 0 0 0 0 0 0 0
0 0 0 0 0 0 0 0 0
0 0 0 0 0 0 0 0 0
0 0 0 0 0 0 0 0 0
0 0 0 0 0 0 0 0 0
0 0 0 0 0 0 0 0 0
0 0 0 0 0 0 0 0 0
0 0 0 0 0 0 0 0 0
0 0 0 0 0 0 0 0 0
0 0 0 0 0 0 0 0 0
0 0 0 0 0 0 0 0 0
0 0 0 0 0 0 0 0 0
0 0 0 0 0 0 0 0 0
0 0 0 0 0 0 0 0 0
0 0 0 0 0 0 0 0 0
0 0 0 0 0 0 0 0 0
0 0 0 0 0 0 0 0 0
0 0 0 0 0 0 0 0 0
0 0 0 0 0 0 0 0 0
0 0 0 0 0 0 0 0 0
0 0 0 0 0 0 0 0 0
0 0 0 0 0 0 0 0 0
0 0 0 0 0 0 0 0 0
0 0 0 0 0 0 0 0 0
0 0 0 0 0 0 0 0 0
0 0 0 0 0 0 0 0 0
0 0 0 0 0 0 0 0 0
0 0 0 0 0 0 0 0 0
0 0 0 0 0 0 0 0 0
0 0 0 0 0 0 0 0 0
0 0 0 0 0 0 0 0 0
0 0 0 0 0 0 0 0 0
0 0 0 0 0 0 0 0 0
0 0 0 0 0 0 0 0 0
0 0 0 0 0 0 0 0 0
0 0 0 0 0 0 0 0 0
0 0 0 0 0 0 0 0 0
0 0 0 0 0 0 0 0 0
0 0 0 0 0 0 0 0 0
0 0 0 0 0 0 0 0 0
0 0 0 0 0 0 0 0 0
0 0 0 0 0 0 0 0 0
0 0 0 0 0 0 0 0 0
0 0 0 0 0 0 0 0 0
0 0 0 0 0 0 0 0 0
0 0 0 0 0 0 0 0 0
0 0 0 0 0 0 0 0 0
0 0 0 0 0 0 0 0 0
0 0 0 0 0 0 0 0 0
0 0 0 0 0 0 0 0 0
0 0 0 0 0 0 0 0 0
0 0 0 0 0 0 0 0 0
0 0 0 0 0 0 0 0 0
0 0 0 0 0 0 0 0 0
0 0 0 0 0 0 0 0 0
0 0 0 0 0 0 0 0 0
0 0 0 0 0 0 0 0 0
0 0 0 0 0 0 0 0 0
0 0 0 0 0 0 0 0 0
0 0 0 0 0 0 0 0 0
0 0 0 0 0 0 0 0 0
0 0 0 0 0 0 0 0 0
0 0 0 0 0 0 0 0 0
0 0 0 0 0 0 0 0 0
0 0 0 0 0 0 0 0 0
0 0 0 0 0 0 0 0 0
0 0 0 0 0 0 0 0 0
0 0 0 0 0 0 0 0 0
0 0 0 0 0 0 0 0 0
0 0 0 0 0 0 0 0 0
0 0 0 0 0 0 0 0 0
0 0 0 0 0 0 0 0 0
0 0 0 0 0 0 0 0 0
0 0 0 0 0 0 0 0 0
0 0 0 0 0 0 0 0 0
0 0 0 0 0 0 0 0 0
0 0 0 0 0 0 0 0 0
0 0 0 0 0 0 0 0 0
0 0 0 0 0 0 0 0 0
0 0 0 0 0 0 0 0 0
0 0 0 0 0 0 0 0 0
0 0 0 0 0 0 0 0 0
0 0 0 0 0 0 0 0 0
0 0 0 0 0 0 0 0 0
0 0 0 0 0 0 0 0 0
0 0 0 0 0 0 0 0 0
0 0 0 0 0 0 0 0 0
0 0 0 0 0 0 0 0 0
0 0 0 0 0 0 0 0 0
0 0 0 0 0 0 0 0 0
0 0 0 0 0 0 0 0 0
0 0 0 0 0 0 0 0 0
0 0 0 0 0 0 0 0 0
0 0 0 0 0 0 0 0 0
0 0 0 0 0 0 0 0 0
0 0 0 0 0 0 0 0 0
0 0 0 0 0 0 0 0 0
0 0 0 0 0 0 0 0 0
0 0 0 0 0 0 0 0 0
0 0 0 0 0 0 0 0 0
0 0 0 0 0 0 0 0 0
0 0 0 0 0 0 0 0 0
0 0 0 0 0 0 0 0 0
0 0 0 0 0 0 0 0 0
0 0 0 0 0 0 0 0 0
0 0 0 0 0 0 0 0 0
0 0 0 0 0 0 0 0 0
0 0 0 0 0 0 0 0 0
0 0 0 0 0 0 0 0 0
0 0 0 0 0 0 0 0 0
0 0 0 0 0 0 0 0 0
0 0 0 0 0 0 0 0 0
0 0 0 0 0 0 0 0 0
0 0 0 0 0 0 0 0 0
0 0 0 0 0 0 0 0 0
0 0 0 0 0 0 0 0 0
0 0 0 0 0 0 0 0 0
0 0 0 0 0 0 0 0 0
0 0 0 0 0 0 0 0 0
0 0 0 0 0 0 0 0 0
0 0 0 0 0 0 0 0 0
0 0 0 0 0 0 0 0 0
0 0 0 0 0 0 0 0 0
0 0 0 0 0 0 0 0 0
0 0 0 0 0 0 0 0 0
0 0 0 0 0 0 0 0 0
0 0 0 0 0 0 0 0 0
0 0 0 0 0 0 0 0 0
0 0 0 0 0 0 0 0 0
0 0 0 0 0 0 0 0 0
0 0 0 0 0 0 0 0 0
0 0 0 0 0 0 0 0 0
0 0 0 0 0 0 0 0 0
0 0 0 0 0 0 0 0 0
0 0 0 0 0 0 0 0 0
0 0 0 0 0 0 0 0 0
0 0 0 0 0 0 0 0 0
0 0 0 0 0 0 0 0 0
0 0 0 0 0 0 0 0 0
0 0 0 0 0 0 0 0 0
0 0 0 0 0 0 0 0 0
0 0 0 0 0 0 0 0 0
0 0 0 0 0 0 0 0 0
0 0 0 0 0 0 0 0 0
0 0 0 0 0 0 0 0 0
0 0 0 0 0 0 0 0 0
0 0 0 0 0 0 0 0 0
0 0 0 0 0 0 0 0 0
0 0 0 0 0 0 0 0 0
0 0 0 0 0 0 0 0 0
0 0 0 0 0 0 0 0 0
0 0 0 0 0 0 0 0 0
0 0 0 0 0 0 0 0 0
0 0 0 0 0 0 0 0 0
0 0 0 0 0 0 0 0 0
0 0 0 0 0 0 0 0 0
0 0 0 0 0 0 0 0 0
0 0 0 0 0 0 0 0 0
0 0 0 0 0 0 0 0 0
0 0 0 0 0 0 0 0 0
0 0 0 0 0 0 0 0 0
0 0 0 0 0 0 0 0 0
0 0 0 0 0 0 0 0 0
0 0 0 0 0 0 0 0 0
0 0 0 0 0 0 0 0 0
0 0 0 0 0 0 0 0 0
0 0 0 0 0 0 0 0 0
0 0 0 0 0 0 0 0 0
0 0 0 0 0 0 0 0 0
0 0 0 0 0 0 0 0 0
0 0 0 0 0 0 0 0 0
0 0 0 0 0 0 0 0 0
0 0 0 0 0 0 0 0 0
0 0 0 0 0 0 0 0 0
0 0 0 0 0 0 0 0 0
0 0 0 0 0 0 0 0 0
0 0 0 0 0 0 0 0 0
0 0 0 0 0 0 0 0 0
0 0 0 0 0 0 0 0 0
0 0 0 0 0 0 0 0 0
0 0 0 0 0 0 0 0 0
0 0 0 0 0 0 0 0 0
0 0 0 0 0 0 0 0 0
0 0 0 0 0 0 0 0 0
0 0 0 0 0 0 0 0 0
0 0 0 0 0 0 0 0 0
0 0 0 0 0 0 0 0 0
0 0 0 0 0 0 0 0 0
0 0 0 0 0 0 0 0 0
0 0 0 0 0 0 0 0 0
0 0 0 0 0 0 0 0 0
0 0 0 0 0 0 0 0 0
0 0 0 0 0 0 0 0 0
0 0 0 0 0 0 0 0 0
0 0 0 0 0 0 0 0 0
0 0 0 0 0 0 0 0 0
0 0 0 0 0 0 0 0 0
0 0 0 0 0 0 0 0 0
0 0 0 0 0 0 0 0 0
0 0 0 0 0 0 0 0 0
0 0 0 0 0 0 0 0 0
0 0 0 0 0 0 0 0 0
0 0 0 0 0 0 0 0 0
0 0 0 0 0 0 0 0 0
0 0 0 0 0 0 0 0 0
0 0 0 0 0 0 0 0 0
0 0 0 0 0 0 0 0 0
0 0 0 0 0 0 0 0 0
0 0 0 0 0 0 0 0 0
0 0 0 0 0 0 0 0 0
0 0 0 0 0 0 0 0 0
0 0 0 0 0 0 0 0 0
0 0 0 0 0 0 0 0 0
0 0 0 0 0 0 0 0 0
0 0 0 0 0 0 0 0 0
0 0 0 0 0 0 0 0 0
0 0 0 0 0 0 0 0 0
0 0 0 0 0 0 0 0 0
0 0 0 0 0 0 0 0 0
0 0 0 0 0 0 0 0 0
0 0 0 0 0 0 0 0 0
0 0 0 0 0 0 0 0 0
0 0 0 0 0 0 0 0 0
0 0 0 0 0 0 0 0 0
0 0 0 0 0 0 0 0 0
0 0 0 0 0 0 0 0 0
0 0 0 0 0 0 0 0 0
0 0 0 0 0 0 0 0 0
0 0 0 0 0 0 0 0 0
0 0 0 0 0 0 0 0 0
0 0 0 0 0 0 0 0 0
0 0 0 0 0 0 0 0 0
0 0 0 0 0 0 0 0 0
0 0 0 0 0 0 0 0 0
0 0 0 0 0 0 0 0 0
0 0 0 0 0 0 0 0 0
0 0 0 0 0 0 0 0 0
0 0 0 0 0 0 0 0 0
0 0 0 0 0 0 0 0 0
0 0 0 0 0 0 0 0 0
0 0 0 0 0 0 0 0 0
0 0 0 0 0 0 0 0 0
0 0 0 0 0 0 0 0 0
0 0 0 0 0 0 0 0 0
0 0 0 0 0 0 0 0 0
0 0 0 0 0 0 0 0 0
0 0 0 0 0 0 0 0 0
0 0 0 0 0 0 0 0 0
0 0 0 0 0 0 0 0 0
0 0 0 0 0 0 0 0 0
0 0 0 0 0 0 0 0 0
0 0 0 0 0 0 0 0 0
0 0 0 0 0 0 0 0 0
0 0 0 0 0 0 0 0 0
0 0 0 0 0 0 0 0 0
0 0 0 0 0 0 0 0 0
0 0 0 0 0 0 0 0 0
0 0 0 0 0 0 0 0 0
0 0 0 0 0 0 0 0 0
0 0 0 0 0 0 0 0 0
0 0 0 0 0 0 0 0 0
0 0 0 0 0 0 0 0 0
0 0 0 0 0 0 0 0 0
0 0 0 0 0 0 0 0 0
0 0 0 0 0 0 0 0 0
0 0 0 0 0 0 0 0 0
0 0 0 0 0 0 0 0 0
0 0 0 0 0 0 0 0 0
0 0 0 0 0 0 0 0 0
0 0 0 0 0 0 0 0 0
0 0 0 0 0 0 0 0 0
0 0 0 0 0 0 0 0 0
0 0 0 0 0 0 0 0 0
0 0 0 0 0 0 0 0 0
0 0 0 0 0 0 0 0 0
0 0 0 0 0 0 0 0 0
0 0 0 0 0 0 0 0 0
0 0 0 0 0 0 0 0 0
0 0 0 0 0 0 0 0 0
0 0 0 0 0 0 0 0 0
0 0 0 0 0 0 0 0 0
0 0 0 0 0 0 0 0 0
0 0 0 0 0 0 0 0 0
0 0 0 0 0 0 0 0 0
0 0 0 0 0 0 0 0 0
0 0 0 0 0 0 0 0 0
0 0 0 0 0 0 0 0 0
0 0 0 0 0 0 0 0 0
0 0 0 0 0 0 0 0 0
0 0 0 0 0 0 0 0 0
0 0 0 0 0 0 0 0 0
0 0 0 0 0 0 0 0 0
0 0 0 0 0 0 0 0 0
0 0 0 0 0 0 0 0 0
0 0 0 0 0 0 0 0 0
0 0 0 0 0 0 0 0 0
0 0 0 0 0 0 0 0 0
0 0 0 0 0 0 0 0 0
0 0 0 0 0 0 0 0 0
0 0 0 0 0 0 0 0 0
0 0 0 0 0 0 0 0 0
0 0 0 0 0 0 0 0 0
0 0 0 0 0 0 0 0 0
0 0 0 0 0 0 0 0 0
0 0 0 0 0 0 0 0 0
0 0 0 0 0 0 0 0 0
0 0 0 0 0 0 0 0 0
0 0 0 0 0 0 0 0 0
0 0 0 0 0 0 0 0 0
0 0 0 0 0 0 0 0 0
0 0 0 0 0 0 0 0 0
0 0 0 0 0 0 0 0 0
0 0 0 0 0 0 0 0 0
0 0 0 0 0 0 0 0 0
0 0 0 0 0 0 0 0 0
0 0 0 0 0 0 0 0 0
0 0 0 0 0 0 0 0 0
0 0 0 0 0 0 0 0 0
0 0 0 0 0 0 0 0 0
0 0 0 0 0 0 0 0 0
0 0 0 0 0 0 0 0 0
0 0 0 0 0 0 0 0 0
0 0 0 0 0 0 0 0 0
0 0 0 0 0 0 0 0 0
0 0 0 0 0 0 0 0 0
0 0 0 0 0 0 0 0 0
0 0 0 0 0 0 0 0 0
0 0 0 0 0 0 0 0 0
0 0 0 0 0 0 0 0 0
0 0 0 0 0 0 0 0 0
0 0 0 0 0 0 0 0 0
0 0 0 0 0 0 0 0 0
0 0 0 0 0 0 0 0 0
0 0 0 0 0 0 0 0 0
0 0 0 0 0 0 0 0 0
0 0 0 0 0 0 0 0 0
0 0 0 0 0 0 0 0 0
0 0 0 0 0 0 0 0 0
0 0 0 0 0 0 0 0 0
0 0 0 0 0 0 0 0 0
0 0 0 0 0 0 0 0 0
0 0 0 0 0 0 0 0 0
0 0 0 0 0 0 0 0 0
0 0 0 0 0 0 0 0 0
0 0 0 0 0 0 0 0 0
0 0 0 0 0 0 0 0 0
0 0 0 0 0 0 0 0 0
0 0 0 0 0 0 0 0 0
0 0 0 0 0 0 0 0 0
0 0 0 0 0 0 0 0 0
0 0 0 0 0 0 0 0 0
0 0 0 0 0 0 0 0 0
0 0 0 0 0 0 0 0 0
0 0 0 0 0 0 0 0 0
0 0 0 0 0 0 0 0 0
0 0 0 0 0 0 0 0 0
0 0 0 0 0 0 0 0 0
0 0 0 0 0 0 0 0 0
0 0 0 0 0 0 0 0 0
0 0 0 0 0 0 0 0 0
0 0 0 0 0 0 0 0 0
0 0 0 0 0 0 0 0 0
0 0 0 0 0 0 0 0 0
0 0 0 0 0 0 0 0 0
0 0 0 0 0 0 0 0 0
0 0 0 0 0 0 0 0 0
0 0 0 0 0 0 0 0 0
0 0 0 0 0 0 0 0 0
0 0 0 0 0 0 0 0 0
0 0 0 0 0 0 0 0 0
0 0 0 0 0 0 0 0 0
0 0 0 0 0 0 0 0 0
0 0 0 0 0 0 0 0 0
0 0 0 0 0 0 0 0 0
0 0 0 0 0 0 0 0 0
0 0 0 0 0 0 0 0 0
0 0 0 0 0 0 0 0 0
0 0 0 0 0 0 0 0 0
0 0 0 0 0 0 0 0 0
0 0 0 0 0 0 0 0 0
0 0 0 0 0 0 0 0 0
0 0 0 0 0 0 0 0 0
0 0 0 0 0 0 0 0 0
0 0 0 0 0 0 0 0 0
0 0 0 0 0 0 0 0 0
0 0 0 0 0 0 0 0 0
0 0 0 0 0 0 0 0 0
0 0 0 0 0 0 0 0 0
0 0 0 0 0 0 0 0 0
0 0 0 0 0 0 0 0 0
0 0 0 0 0 0 0 0 0
0 0 0 0 0 0 0 0 0
0 0 0 0 0 0 0 0 0
0 0 0 0 0 0 0 0 0
0 0 0 0 0 0 0 0 0
0 0 0 0 0 0 0 0 0
0 0 0 0 0 0 0 0 0
0 0 0 0 0 0 0 0 0
0 0 0 0 0 0 0 0 0
0 0 0 0 0 0 0 0 0
0 0 0 0 0 0 0 0 0
0 0 0 0 0 0 0 0 0
0 0 0 0 0 0 0 0 0
0 0 0 0 0 0 0 0 0
0 0 0 0 0 0 0 0 0
0 0 0 0 0 0 0 0 0
0 0 0 0 0 0 0 0 0
0 0 0 0 0 0 0 0 0
0 0 0 0 0 0 0 0 0
0 0 0 0 0 0 0 0 0
0 0 0 0 0 0 0 0 0
0 0 0 0 0 0 0 0 0
0 0 0 0 0 0 0 0 0
0 0 0 0 0 0 0 0 0
0 0 0 0 0 0 0 0 0
0 0 0 0 0 0 0 0 0
0 0 0 0 0 0 0 0 0
0 0 0 0 0 0 0 0 0
0 0 0 0 0 0 0 0 0
0 0 0 0 0 0 0 0 0
0 0 0 0 0 0 0 0 0
0 0 0 0 0 0 0 0 0
0 0 0 0 0 0 0 0 0
0 0 0 0 0 0 0 0 0
0 0 0 0 0 0 0 0 0
0 0 0 0 0 0 0 0 0
0 0 0 0 0 0 0 0 0
0 0 0 0 0 0 0 0 0
0 0 0 0 0 0 0 0 0
0 0 0 0 0 0 0 0 0
0 0 0 0 0 0 0 0 0
0 0 0 0 0 0 0 0 0
0 0 0 0 0 0 0 0 0
0 0 0 0 0 0 0 0 0
0 0 0 0 0 0 0 0 0
0 0 0 0 0 0 0 0 0
0 0 0 0 0 0 0 0 0
0 0 0 0 0 0 0 0 0
0 0 0 0 0 0 0 0 0
0 0 0 0 0 0 0 0 0
0 0 0 0 0 0 0 0 0
0 0 0 0 0 0 0 0 0
0 0 0 0 0 0 0 0 0
0 0 0 0 0 0 0 0 0
0 0 0 0 0 0 0 0 0
0 0 0 0 0 0 0 0 0
0 0 0 0 0 0 0 0 0
0 0 0 0 0 0 0 0 0
0 0 0 0 0 0 0 0 0
0 0 0 0 0 0 0 0 0
0 0 0 0 0 0 0 0 0
0 0 0 0 0 0 0 0 0
0 0 0 0 0 0 0 0 0
0 0 0 0 0 0 0 0 0
0 0 0 0 0 0 0 0 0
0 0 0 0 0 0 0 0 0
0 0 0 0 0 0 0 0 0
0 0 0 0 0 0 0 0 0
0 0 0 0 0 0 0 0 0
0 0 0 0 0 0 0 0 0
0 0 0 0 0 0 0 0 0
0 0 0 0 0 0 0 0 0
0 0 0 0 0 0 0 0 0
0 0 0 0 0 0 0 0 0
0 0 0 0 0 0 0 0 0
0 0 0 0 0 0 0 0 0
0 0 0 0 0 0 0 0 0
0 0 0 0 0 0 0 0 0
0 0 0 0 0 0 0 0 0
0 0 0 0 0 0 0 0 0
0 0 0 0 0 0 0 0 0
0 0 0 0 0 0 0 0 0
0 0 0 0 0 0 0 0 0
0 0 0 0 0 0 0 0 0
0 0 0 0 0 0 0 0 0
0 0 0 0 0 0 0 0 0
0 0 0 0 0 0 0 0 0
0 0 0 0 0 0 0 0 0
0 0 0 0 0 0 0 0 0
0 0 0 0 0 0 0 0 0
0 0 0 0 0 0 0 0 0
0 0 0 0 0 0 0 0 0
0 0 0 0 0 0 0 0 0
0 0 0 0 0 0 0 0 0
0 0 0 0 0 0 0 0 0
0 0 0 0 0 0 0 0 0
0 0 0 0 0 0 0 0 0
0 0 0 0 0 0 0 0 0
0 0 0 0 0 0 0 0 0
0 0 0 0 0 0 0 0 0
0 0 0 0 0 0 0 0 0
0 0 0 0 0 0 0 0 0
0 0 0 0 0 0 0 0 0
0 0 0 0 0 0 0 0 0
0 0 0 0 0 0 0 0 0
0 0 0 0 0 0 0 0 0
0 0 0 0 0 0 0 0 0
0 0 0 0 0 0 0 0 0
0 0 0 0 0 0 0 0 0
0 0 0 0 0 0 0 0 0
0 0 0 0 0 0 0 0 0
0 0 0 0 0 0 0 0 0
0 0 0 0 0 0 0 0 0
0 0 0 0 0 0 0 0 0
0 0 0 0 0 0 0 0 0
0 0 0 0 0 0 0 0 0
0 0 0 0 0 0 0 0 0
0 0 0 0 0 0 0 0 0
0 0 0 0 0 0 0 0 0
0 0 0 0 0 0 0 0 0
0 0 0 0 0 0 0 0 0
0 0 0 0 0 0 0 0 0
0 0 0 0 0 0 0 0 0
0 0 0 0 0 0 0 0 0
0 0 0 0 0 0 0 0 0
0 0 0 0 0 0 0 0 0
0 0 0 0 0 0 0 0 0
0 0 0 0 0 0 0 0 0
0 0 0 0 0 0 0 0 0
0 0 0 0 0 0 0 0 0
0 0 0 0 0 0 0 0 0
0 0 0 0 0 0 0 0 0
0 0 0 0 0 0 0 0 0
0 0 0 0 0 0 0 0 0
0 0 0 0 0 0 0 0 0
0 0 0 0 0 0 0 0 0
0 0 0 0 0 0 0 0 0
0 0 0 0 0 0 0 0 0
0 0 0 0 0 0 0 0 0
0 0 0 0 0 0 0 0 0
0 0 0 0 0 0 0 0 0
0 0 0 0 0 0 0 0 0
0 0 0 0 0 0 0 0 0
0 0 0 0 0 0 0 0 0
0 0 0 0 0 0 0 0 0
0 0 0 0 0 0 0 0 0
0 0 0 0 0 0 0 0 0
0 0 0 0 0 0 0 0 0
0 0 0 0 0 0 0 0 0
0 0 0 0 0 0 0 0 0
0 0 0 0 0 0 0 0 0
0 0 0 0 0 0 0 0 0
0 0 0 0 0 0 0 0 0
0 0 0 0 0 0 0 0 0
0 0 0 0 0 0 0 0 0
0 0 0 0 0 0 0 0 0
0 0 0 0 0 0 0 0 0
0 0 0 0 0 0 0 0 0
0 0 0 0 0 0 0 0 0
0 0 0 0 0 0 0 0 0
0 0 0 0 0 0 0 0 0
0 0 0 0 0 0 0 0 0
0 0 0 0 0 0 0 0 0
0 0 0 0 0 0 0 0 0
0 0 0 0 0 0 0 0 0
0 0 0 0 0 0 0 0 0
0 0 0 0 0 0 0 0 0
0 0 0 0 0 0 0 0 0
0 0 0 0 0 0 0 0 0
0 0 0 0 0 0 0 0 0
0 0 0 0 0 0 0 0 0
0 0 0 0 0 0 0 0 0
0 0 0 0 0 0 0 0 0
0 0 0 0 0 0 0 0 0
0 0 0 0 0 0 0 0 0
0 0 0 0 0 0 0 0 0
0 0 0 0 0 0 0 0 0
0 0 0 0 0 0 0 0 0
0 0 0 0 0 0 0 0 0
0 0 0 0 0 0 0 0 0
0 0 0 0 0 0 0 0 0
0 0 0 0 0 0 0 0 0
0 0 0 0 0 0 0 0 0
0 0 0 0 0 0 0 0 0
0 0 0 0 0 0 0 0 0
0 0 0 0 0 0 0 0 0
0 0 0 0 0 0 0 0 0
0 0 0 0 0 0 0 0 0
0 0 0 0 0 0 0 0 0
0 0 0 0 0 0 0 0 0
0 0 0 0 0 0 0 0 0
0 0 0 0 0 0 0 0 0
0 0 0 0 0 0 0 0 0
0 0 0 0 0 0 0 0 0
0 0 0 0 0 0 0 0 0
0 0 0 0 0 0 0 0 0
0 0 0 0 0 0 0 0 0
0 0 0 0 0 0 0 0 0
0 0 0 0 0 0 0 0 0
0 0 0 0 0 0 0 0 0
0 0 0 0 0 0 0 0 0
0 0 0 0 0 0 0 0 0
0 0 0 0 0 0 0 0 0
0 0 0 0 0 0 0 0 0
0 0 0 0 0 0 0 0 0
0 0 0 0 0 0 0 0 0
0 0 0 0 0 0 0 0 0
0 0 0 0 0 0 0 0 0
0 0 0 0 0 0 0 0 0
0 0 0 0 0 0 0 0 0
0 0 0 0 0 0 0 0 0
0 0 0 0 0 0 0 0 0
0 0 0 0 0 0 0 0 0
0 0 0 0 0 0 0 0 0
0 0 0 0 0 0 0 0 0
0 0 0 0 0 0 0 0 0
0 0 0 0 0 0 0 0 0
0 0 0 0 0 0 0 0 0
0 0 0 0 0 0 0 0 0
0 0 0 0 0 0 0 0 0
0 0 0 0 0 0 0 0 0
0 0 0 0 0 0 0 0 0
0 0 0 0 0 0 0 0 0
0 0 0 0 0 0 0 0 0
0 0 0 0 0 0 0 0 0
0 0 0 0 0 0 0 0 0
0 0 0 0 0 0 0 0 0
0 0 0 0 0 0 0 0 0
0 0 0 0 0 0 0 0 0
0 0 0 0 0 0 0 0 0
0 0 0 0 0 0 0 0 0
0 0 0 0 0 0 0 0 0
0 0 0 0 0 0 0 0 0
0 0 0 0 0 0 0 0 0
0 0 0 0 0 0 0 0 0
0 0 0 0 0 0 0 0 0
0 0 0 0 0 0 0 0 0
0 0 0 0 0 0 0 0 0
0 0 0 0 0 0 0 0 0
0 0 0 0 0 0 0 0 0
0 0 0 0 0 0 0 0 0
0 0 0 0 0 0 0 0 0
0 0 0 0 0 0 0 0 0
0 0 0 0 0 0 0 0 0
0 0 0 0 0 0 0 0 0
0 0 0 0 0 0 0 0 0
0 0 0 0 0 0 0 0 0
0 0 0 0 0 0 0 0 0
0 0 0 0 0 0 0 0 0
0 0 0 0 0 0 0 0 0
0 0 0 0 0 0 0 0 0
0 0 0 0 0 0 0 0 0
0 0 0 0 0 0 0 0 0
0 0 0 0 0 0 0 0 0
0 0 0 0 0 0 0 0 0
0 0 0 0 0 0 0 0 0
0 0 0 0 0 0 0 0 0
0 0 0 0 0 0 0 0 0
0 0 0 0 0 0 0 0 0
0 0 0 0 0 0 0 0 0
0 0 0 0 0 0 0 0 0
0 0 0 0 0 0 0 0 0
0 0 0 0 0 0 0 0 0
0 0 0 0 0 0 0 0 0
0 0 0 0 0 0 0 0 0
0 0 0 0 0 0 0 0 0
0 0 0 0 0 0 0 0 0
0 0 0 0 0 0 0 0 0
0 0 0 0 0 0 0 0 0
0 0 0 0 0 0 0 0 0
0 0 0 0 0 0 0 0 0
0 0 0 0 0 0 0 0 0
0 0 0 0 0 0 0 0 0
0 0 0 0 0 0 0 0 0
0 0 0 0 0 0 0 0 0
0 0 0 0 0 0 0 0 0
0 0 0 0 0 0 0 0 0
0 0 0 0 0 0 0 0 0
0 0 0 0 0 0 0 0 0
0 0 0 0 0 0 0 0 0
0 0 0 0 0 0 0 0 0
0 0 0 0 0 0 0 0 0
0 0 0 0 0 0 0 0 0
0 0 0 0 0 0 0 0 0
0 0 0 0 0 0 0 0 0
0 0 0 0 0 0 0 0 0
0 0 0 0 0 0 0 0 0
0 0 0 0 0 0 0 0 0
0 0 0 0 0 0 0 0 0
0 0 0 0 0 0 0 0 0
0 0 0 0 0 0 0 0 0
0 0 0 0 0 0 0 0 0
0 0 0 0 0 0 0 0 0
0 0 0 0 0 0 0 0 0
0 0 0 0 0 0 0 0 0
0 0 0 0 0 0 0 0 0
0 0 0 0 0 0 0 0 0
0 0 0 0 0 0 0 0 0
0 0 0 0 0 0 0 0 0
0 0 0 0 0 0 0 0 0
0 0 0 0 0 0 0 0 0
0 0 0 0 0 0 0 0 0
0 0 0 0 0 0 0 0 0
0 0 0 0 0 0 0 0 0
0 0 0 0 0 0 0 0 0
0 0 0 0 0 0 0 0 0
0 0 0 0 0 0 0 0 0
0 0 0 0 0 0 0 0 0
0 0 0 0 0 0 0 0 0
0 0 0 0 0 0 0 0 0
0 0 0 0 0 0 0 0 0
0 0 0 0 0 0 0 0 0
0 0 0 0 0 0 0 0 0
0 0 0 0 0 0 0 0 0
0 0 0 0 0 0 0 0 0
0 0 0 0 0 0 0 0 0
0 0 0 0 0 0 0 0 0
0 0 0 0 0 0 0 0 0
0 0 0 0 0 0 0 0 0
0 0 0 0 0 0 0 0 0
0 0 0 0 0 0 0 0 0
0 0 0 0 0 0 0 0 0
0 0 0 0 0 0 0 0 0
0 0 0 0 0 0 0 0 0
0 0 0 0 0 0 0 0 0
0 0 0 0 0 0 0 0 0
0 0 0 0 0 0 0 0 0
0 0 0 0 0 0 0 0 0
1.03838 1.08475 1.01798 1.06329 1.03838 1.08475 1.01798 1.06329 0
1.11906 1.16638 1.09678 1.14294 1.11906 1.16638 1.09678 1.14294 0
1.07347 1.12181 1.05329 1.10048 1.07347 1.12181 1.05329 1.10048 0
1.15761 1.20704 1.13541 1.18361 1.15761 1.20704 1.13541 1.18361 0
1.24362 1.29408 1.21926 1.26841 1.24362 1.29408 1.21926 1.26841 0
1.33134 1.38264 1.3047 1.35462 1.33134 1.38264 1.3047 1.35462 0
1.42044 1.47234 1.39139 1.44184 1.42044 1.47234 1.39139 1.44184 0
1.51044 1.56254 1.47885 1.52941 1.51044 1.56254 1.47885 1.52941 0
1.60064 1.65249 1.56635 1.61656 1.60064 1.65249 1.56635 1.61656 0
1.69021 1.74125 1.65305 1.70237 1.69021 1.74125 1.65305 1.70237 0
1.77816 1.82777 1.73799 1.78578 1.77816 1.82777 1.73799 1.78578 0
1.19584 1.24742 1.17385 1.22419 1.19584 1.24742 1.17385 1.22419 0
1.28562 1.33838 1.26145 1.31288 1.28562 1.33838 1.26145 1.31288 0
1.37738 1.43114 1.35087 1.4032 1.37738 1.43114 1.35087 1.4032 0
1.47079 1.52531 1.44178 1.49477 1.47079 1.52531 1.44178 1.49477 0
1.5654 1.62032 1.53369 1.58697 1.5654 1.62032 1.53369 1.58697 0
1.66054 1.7154 1.62595 1.67905 1.66054 1.7154 1.62595 1.67905 0
1.75538 1.8096 1.71771 1.77006 1.75538 1.8096 1.71771 1.77006 0
1.23366 1.28744 1.21191 1.26441 1.23366 1.28744 1.21191 1.26441 0
1.32731 1.38244 1.30331 1.35707 1.32731 1.38244 1.30331 1.35707 0
1.42324 1.47956 1.39683 1.45165 1.42324 1.47956 1.39683 1.45165 0
1.52115 1.57842 1.49212 1.54779 1.52115 1.57842 1.49212 1.54779 0
1.6206 1.67848 1.58875 1.6449 1.6206 1.67848 1.58875 1.6449 0
1.72095 1.77898 1.68606 1.74225 1.72095 1.77898 1.68606 1.74225 0
1.82137 1.87903 1.78323 1.83888 1.82137 1.87903 1.78323 1.83888 0
1.27098 1.32701 1.24953 1.30425 1.27098 1.32701 1.24953 1.30425 0
1.3686 1.42617 1.34484 1.401 1.3686 1.42617 1.34484 1.401 0
1.46885 1.52781 1.44259 1.50001 1.46885 1.52781 1.44259 1.50001 0
1.57143 1.63159 1.54246 1.60093 1.57143 1.63159 1.54246 1.60093 0
1.67596 1.73698 1.64402 1.70322 1.67596 1.73698 1.64402 1.70322 0
1.78183 1.84325 1.74668 1.80612 1.78183 1.84325 1.74668 1.80612 0
1.30766 1.36599 1.28659 1.34358 1.30766 1.36599 1.28659 1.34358 0
1.40934 1.46944 1.38591 1.44455 1.40934 1.46944 1.38591 1.44455 0
1.51405 1.57578 1.48803 1.54816 1.51405 1.57578 1.48803 1.54816 0
1.62151 1.68468 1.59266 1.65408 1.62151 1.68468 1.59266 1.65408 0
1.73136 1.79567 1.69942 1.76181 1.73136 1.79567 1.69942 1.76181 0
1.84304 1.90808 1.80771 1.87064 1.84304 1.90808 1.80771 1.87064 0
1.34354 1.40422 1.32295 1.38226 1.34354 1.40422 1.32295 1.38226 0
1.44939 1.51209 1.42638 1.48757 1.44939 1.51209 1.42638 1.48757 0
1.55869 1.62329 1.53302 1.59595 1.55869 1.62329 1.53302 1.59595 0
1.67122 1.73754 1.6426 1.70709 1.67122 1.73754 1.6426 1.70709 0
1.78664 1.85443 1.75478 1.82055 1.78664 1.85443 1.75478 1.82055 0
1.90446 1.9733 1.86903 1.93564 1.90446 1.9733 1.86903 1.93564 0
1.37844 1.44153 1.35843 1.42013 1.37844 1.44153 1.35843 1.42013 0
1.48855 1.55392 1.46607 1.5299 1.48855 1.55392 1.46607 1.5299 0
1.60258 1.67014 1.57736 1.6432 1.60258 1.67014 1.57736 1.6432 0
1.72036 1.78997 1.69209 1.75979 1.72036 1.78997 1.69209 1.75979 0
1.84161 1.91305 1.80995 1.87927 1.84161 1.91305 1.80995 1.87927 0
1.30197 1.36505 1.28492 1.34674 1.30197 1.36505 1.28492 1.34674 0
1.41213 1.47769 1.39285 1.45697 1.41213 1.47769 1.39285 1.45697 0
1.52662 1.59472 1.5048 1.57132 1.52662 1.59472 1.5048 1.57132 0
1.6455 1.71611 1.62086 1.6897 1.6455 1.71611 1.62086 1.6897 0
1.7687 1.84172 1.74091 1.81195 1.7687 1.84172 1.74091 1.81195 0
1.89602 1.97129 1.86471 1.93775 1.89602 1.97129 1.86471 1.93775 0
1.33039 1.39566 1.31416 1.37816 1.33039 1.39566 1.31416 1.37816 0
1.44445 1.5125 1.42597 1.49258 1.44445 1.5125 1.42597 1.49258 0
1.56335 1.63424 1.54232 1.6116 1.56335 1.63424 1.54232 1.6116 0
1.68718 1.76093 1.66329 1.73522 1.68718 1.76093 1.66329 1.73522 0
1.81597 1.89256 1.78883 1.86335 1.81597 1.89256 1.78883 1.86335 0
1.94961 2.02885 1.9188 1.99573 1.94961 2.02885 1.9188 1.99573 0
1.03286 1.09211 1.02286 1.08122 1.03286 1.09211 1.02286 1.08122 0
1.1364 1.19815 1.12483 1.1856 1.1364 1.19815 1.12483 1.1856 0
1.24437 1.30888 1.23106 1.29447 1.24437 1.30888 1.23106 1.29447 0
1.35718 1.42463 1.34191 1.40811 1.35718 1.42463 1.34191 1.40811 0
1.47514 1.54567 1.45763 1.52672 1.47514 1.54567 1.45763 1.52672 0
1.59846 1.67217 1.57839 1.65047 1.59846 1.67217 1.57839 1.65047 0
1.72732 1.80428 1.70435 1.77945 1.72732 1.80428 1.70435 1.77945 0
1.86183 1.94208 1.83554 1.91368 1.86183 1.94208 1.83554 1.91368 0
1.0488 1.10954 1.03979 1.09968 1.0488 1.10954 1.03979 1.09968 0
1.15497 1.21838 1.14446 1.20692 1.15497 1.21838 1.14446 1.20692 0
1.26588 1.33228 1.25369 1.319 1.26588 1.33228 1.25369 1.319 0
1.38206 1.45167 1.36793 1.4363 1.38206 1.45167 1.36793 1.4363 0
1.50387 1.57689 1.48752 1.5591 1.50387 1.57689 1.48752 1.5591 0
1.63163 1.70818 1.61272 1.68763 1.63163 1.70818 1.61272 1.68763 0
1.76556 1.84577 1.74372 1.82206 1.76556 1.84577 1.74372 1.82206 0
1.90588 1.98988 1.88068 1.96251 1.90588 1.98988 1.88068 1.96251 0
1.06293 1.12505 1.05498 1.11631 1.06293 1.12505 1.05498 1.11631 0
1.17158 1.23659 1.16221 1.22631 1.17158 1.23659 1.16221 1.22631 0
1.28536 1.35358 1.27435 1.34153 1.28536 1.35358 1.27435 1.34153 0
1.40478 1.47645 1.39192 1.46242 1.40478 1.47645 1.39192 1.46242 0
1.53031 1.6058 1.51533 1.58939 1.53031 1.6058 1.51533 1.58939 0
1.66248 1.74188 1.64495 1.72271 1.66248 1.74188 1.64495 1.72271 0
1.80151 1.88501 1.78104 1.86264 1.80151 1.88501 1.78104 1.86264 0
1.94771 2.03551 1.92384 2.00944 1.94771 2.03551 1.92384 2.00944 0
0 0 0 0 0 0 0 0 0
0 0 0 0 0 0 0 0 0
0 0 0 0 0 0 0 0 0
0 0 0 0 0 0 0 0 0
0 0 0 0 0 0 0 0 0
0 0 0 0 0 0 0 0 0
0 0 0 0 0 0 0 0 0
0 0 0 0 0 0 0 0 0
0 0 0 0 0 0 0 0 0
0 0 0 0 0 0 0 0 0
0 0 0 0 0 0 0 0 0
0 0 0 0 0 0 0 0 0
0 0 0 0 0 0 0 0 0
0 0 0 0 0 0 0 0 0
0 0 0 0 0 0 0 0 0
0 0 0 0 0 0 0 0 0
0 0 0 0 0 0 0 0 0
0 0 0 0 0 0 0 0 0
0 0 0 0 0 0 0 0 0
0 0 0 0 0 0 0 0 0
0 0 0 0 0 0 0 0 0
0 0 0 0 0 0 0 0 0
0 0 0 0 0 0 0 0 0
0 0 0 0 0 0 0 0 0
0 0 0 0 0 0 0 0 0
0 0 0 0 0 0 0 0 0
0 0 0 0 0 0 0 0 0
0 0 0 0 0 0 0 0 0
0 0 0 0 0 0 0 0 0
0 0 0 0 0 0 0 0 0
0 0 0 0 0 0 0 0 0
0 0 0 0 0 0 0 0 0
0 0 0 0 0 0 0 0 0
0 0 0 0 0 0 0 0 0
0 0 0 0 0 0 0 0 0
0 0 0 0 0 0 0 0 0
0 0 0 0 0 0 0 0 0
0 0 0 0 0 0 0 0 0
0 0 0 0 0 0 0 0 0
0 0 0 0 0 0 0 0 0
0 0 0 0 0 0 0 0 0
0 0 0 0 0 0 0 0 0
0 0 0 0 0 0 0 0 0
0 0 0 0 0 0 0 0 0
0 0 0 0 0 0 0 0 0
0 0 0 0 0 0 0 0 0
0 0 0 0 0 0 0 0 0
0 0 0 0 0 0 0 0 0
0 0 0 0 0 0 0 0 0
0 0 0 0 0 0 0 0 0
0 0 0 0 0 0 0 0 0
0 0 0 0 0 0 0 0 0
0 0 0 0 0 0 0 0 0
0 0 0 0 0 0 0 0 0
0 0 0 0 0 0 0 0 0
0 0 0 0 0 0 0 0 0
0 0 0 0 0 0 0 0 0
0 0 0 0 0 0 0 0 0
0 0 0 0 0 0 0 0 0
0 0 0 0 0 0 0 0 0
0 0 0 0 0 0 0 0 0
0 0 0 0 0 0 0 0 0
0 0 0 0 0 0 0 0 0
0 0 0 0 0 0 0 0 0
0 0 0 0 0 0 0 0 0
0 0 0 0 0 0 0 0 0
0 0 0 0 0 0 0 0 0
0 0 0 0 0 0 0 0 0
0 0 0 0 0 0 0 0 0
0 0 0 0 0 0 0 0 0
0 0 0 0 0 0 0 0 0
0 0 0 0 0 0 0 0 0
0 0 0 0 0 0 0 0 0
0 0 0 0 0 0 0 0 0
0 0 0 0 0 0 0 0 0
0 0 0 0 0 0 0 0 0
0 0 0 0 0 0 0 0 0
0 0 0 0 0 0 0 0 0
0 0 0 0 0 0 0 0 0
0 0 0 0 0 0 0 0 0
0 0 0 0 0 0 0 0 0
0 0 0 0 0 0 0 0 0
0 0 0 0 0 0 0 0 0
0 0 0 0 0 0 0 0 0
0 0 0 0 0 0 0 0 0
0 0 0 0 0 0 0 0 0
0 0 0 0 0 0 0 0 0
0 0 0 0 0 0 0 0 0
0 0 0 0 0 0 0 0 0
0 0 0 0 0 0 0 0 0
0 0 0 0 0 0 0 0 0
0 0 0 0 0 0 0 0 0
0 0 0 0 0 0 0 0 0
0 0 0 0 0 0 0 0 0
0 0 0 0 0 0 0 0 0
0 0 0 0 0 0 0 0 0
0 0 0 0 0 0 0 0 0
0 0 0 0 0 0 0 0 0
0 0 0 0 0 0 0 0 0
0 0 0 0 0 0 0 0 0
0 0 0 0 0 0 0 0 0
0 0 0 0 0 0 0 0 0
0 0 0 0 0 0 0 0 0
0 0 0 0 0 0 0 0 0
0 0 0 0 0 0 0 0 0
0 0 0 0 0 0 0 0 0
0 0 0 0 0 0 0 0 0
0 0 0 0 0 0 0 0 0
0 0 0 0 0 0 0 0 0
0 0 0 0 0 0 0 0 0
0 0 0 0 0 0 0 0 0
0 0 0 0 0 0 0 0 0
0 0 0 0 0 0 0 0 0
0 0 0 0 0 0 0 0 0
0 0 0 0 0 0 0 0 0
0 0 0 0 0 0 0 0 0
0 0 0 0 0 0 0 0 0
0 0 0 0 0 0 0 0 0
0 0 0 0 0 0 0 0 0
0 0 0 0 0 0 0 0 0
0 0 0 0 0 0 0 0 0
0 0 0 0 0 0 0 0 0
0 0 0 0 0 0 0 0 0
0 0 0 0 0 0 0 0 0
0 0 0 0 0 0 0 0 0
0 0 0 0 0 0 0 0 0
0 0 0 0 0 0 0 0 0
0 0 0 0 0 0 0 0 0
0 0 0 0 0 0 0 0 0
0 0 0 0 0 0 0 0 0
0 0 0 0 0 0 0 0 0
0 0 0 0 0 0 0 0 0
0 0 0 0 0 0 0 0 0
0 0 0 0 0 0 0 0 0
0 0 0 0 0 0 0 0 0
0 0 0 0 0 0 0 0 0
0 0 0 0 0 0 0 0 0
0 0 0 0 0 0 0 0 0
0 0 0 0 0 0 0 0 0
0 0 0 0 0 0 0 0 0
0 0 0 0 0 0 0 0 0
0 0 0 0 0 0 0 0 0
0 0 0 0 0 0 0 0 0
0 0 0 0 0 0 0 0 0
0 0 0 0 0 0 0 0 0
0 0 0 0 0 0 0 0 0
0 0 0 0 0 0 0 0 0
0 0 0 0 0 0 0 0 0
0 0 0 0 0 0 0 0 0
0 0 0 0 0 0 0 0 0
0 0 0 0 0 0 0 0 0
0 0 0 0 0 0 0 0 0
0 0 0 0 0 0 0 0 0
0 0 0 0 0 0 0 0 0
0 0 0 0 0 0 0 0 0
0 0 0 0 0 0 0 0 0
0 0 0 0 0 0 0 0 0
0 0 0 0 0 0 0 0 0
0 0 0 0 0 0 0 0 0
0 0 0 0 0 0 0 0 0
0 0 0 0 0 0 0 0 0
0 0 0 0 0 0 0 0 0
0 0 0 0 0 0 0 0 0
0 0 0 0 0 0 0 0 0
0 0 0 0 0 0 0 0 0
0 0 0 0 0 0 0 0 0
0 0 0 0 0 0 0 0 0
0 0 0 0 0 0 0 0 0
0 0 0 0 0 0 0 0 0
0 0 0 0 0 0 0 0 0
0 0 0 0 0 0 0 0 0
0 0 0 0 0 0 0 0 0
0 0 0 0 0 0 0 0 0
0 0 0 0 0 0 0 0 0
0 0 0 0 0 0 0 0 0
0 0 0 0 0 0 0 0 0
0 0 0 0 0 0 0 0 0
0 0 0 0 0 0 0 0 0
0 0 0 0 0 0 0 0 0
0 0 0 0 0 0 0 0 0
0 0 0 0 0 0 0 0 0
0 0 0 0 0 0 0 0 0
0 0 0 0 0 0 0 0 0
0 0 0 0 0 0 0 0 0
0 0 0 0 0 0 0 0 0
0 0 0 0 0 0 0 0 0
0 0 0 0 0 0 0 0 0
0 0 0 0 0 0 0 0 0
0 0 0 0 0 0 0 0 0
0 0 0 0 0 0 0 0 0
0 0 0 0 0 0 0 0 0
0 0 0 0 0 0 0 0 0
0 0 0 0 0 0 0 0 0
0 0 0 0 0 0 0 0 0
0 0 0 0 0 0 0 0 0
0 0 0 0 0 0 0 0 0
0 0 0 0 0 0 0 0 0
0 0 0 0 0 0 0 0 0
0 0 0 0 0 0 0 0 0
0 0 0 0 0 0 0 0 0
0 0 0 0 0 0 0 0 0
0 0 0 0 0 0 0 0 0
0 0 0 0 0 0 0 0 0
0 0 0 0 0 0 0 0 0
0 0 0 0 0 0 0 0 0
0 0 0 0 0 0 0 0 0
0 0 0 0 0 0 0 0 0
0 0 0 0 0 0 0 0 0
0 0 0 0 0 0 0 0 0
0 0 0 0 0 0 0 0 0
0 0 0 0 0 0 0 0 0
0 0 0 0 0 0 0 0 0
0 0 0 0 0 0 0 0 0
0 0 0 0 0 0 0 0 0
0 0 0 0 0 0 0 0 0
0 0 0 0 0 0 0 0 0
0 0 0 0 0 0 0 0 0
0 0 0 0 0 0 0 0 0
0 0 0 0 0 0 0 0 0
0 0 0 0 0 0 0 0 0
0 0 0 0 0 0 0 0 0
0 0 0 0 0 0 0 0 0
0 0 0 0 0 0 0 0 0
0 0 0 0 0 0 0 0 0
0 0 0 0 0 0 0 0 0
0 0 0 0 0 0 0 0 0
0 0 0 0 0 0 0 0 0
0 0 0 0 0 0 0 0 0
0 0 0 0 0 0 0 0 0
0 0 0 0 0 0 0 0 0
0 0 0 0 0 0 0 0 0
0 0 0 0 0 0 0 0 0
0 0 0 0 0 0 0 0 0
0 0 0 0 0 0 0 0 0
0 0 0 0 0 0 0 0 0
0 0 0 0 0 0 0 0 0
0 0 0 0 0 0 0 0 0
0 0 0 0 0 0 0 0 0
0 0 0 0 0 0 0 0 0
0 0 0 0 0 0 0 0 0
0 0 0 0 0 0 0 0 0
0 0 0 0 0 0 0 0 0
0 0 0 0 0 0 0 0 0
0 0 0 0 0 0 0 0 0
0 0 0 0 0 0 0 0 0
0 0 0 0 0 0 0 0 0
0 0 0 0 0 0 0 0 0
0 0 0 0 0 0 0 0 0
0 0 0 0 0 0 0 0 0
0 0 0 0 0 0 0 0 0
0 0 0 0 0 0 0 0 0
0 0 0 0 0 0 0 0 0
0 0 0 0 0 0 0 0 0
0 0 0 0 0 0 0 0 0
0 0 0 0 0 0 0 0 0
0 0 0 0 0 0 0 0 0
0 0 0 0 0 0 0 0 0
0 0 0 0 0 0 0 0 0
0 0 0 0 0 0 0 0 0
0 0 0 0 0 0 0 0 0
0 0 0 0 0 0 0 0 0
0 0 0 0 0 0 0 0 0
0 0 0 0 0 0 0 0 0
0 0 0 0 0 0 0 0 0
0 0 0 0 0 0 0 0 0
0 0 0 0 0 0 0 0 0
0 0 0 0 0 0 0 0 0
0 0 0 0 0 0 0 0 0
0 0 0 0 0 0 0 0 0
0 0 0 0 0 0 0 0 0
0 0 0 0 0 0 0 0 0
0 0 0 0 0 0 0 0 0
0 0 0 0 0 0 0 0 0
0 0 0 0 0 0 0 0 0
0 0 0 0 0 0 0 0 0
0 0 0 0 0 0 0 0 0
0 0 0 0 0 0 0 0 0
0 0 0 0 0 0 0 0 0
0 0 0 0 0 0 0 0 0
0 0 0 0 0 0 0 0 0
0 0 0 0 0 0 0 0 0
0 0 0 0 0 0 0 0 0
0 0 0 0 0 0 0 0 0
0 0 0 0 0 0 0 0 0
0 0 0 0 0 0 0 0 0
0 0 0 0 0 0 0 0 0
0 0 0 0 0 0 0 0 0
0 0 0 0 0 0 0 0 0
0 0 0 0 0 0 0 0 0
0 0 0 0 0 0 0 0 0
0 0 0 0 0 0 0 0 0
0 0 0 0 0 0 0 0 0
0 0 0 0 0 0 0 0 0
0 0 0 0 0 0 0 0 0
0 0 0 0 0 0 0 0 0
0 0 0 0 0 0 0 0 0
0 0 0 0 0 0 0 0 0
0 0 0 0 0 0 0 0 0
0 0 0 0 0 0 0 0 0
0 0 0 0 0 0 0 0 0
0 0 0 0 0 0 0 0 0
0 0 0 0 0 0 0 0 0
0 0 0 0 0 0 0 0 0
0 0 0 0 0 0 0 0 0
0 0 0 0 0 0 0 0 0
0 0 0 0 0 0 0 0 0
0 0 0 0 0 0 0 0 0
0 0 0 0 0 0 0 0 0
0 0 0 0 0 0 0 0 0
0 0 0 0 0 0 0 0 0
0 0 0 0 0 0 0 0 0
0 0 0 0 0 0 0 0 0
0 0 0 0 0 0 0 0 0
0 0 0 0 0 0 0 0 0
0 0 0 0 0 0 0 0 0
0 0 0 0 0 0 0 0 0
0 0 0 0 0 0 0 0 0
0 0 0 0 0 0 0 0 0
0 0 0 0 0 0 0 0 0
0 0 0 0 0 0 0 0 0
0 0 0 0 0 0 0 0 0
0 0 0 0 0 0 0 0 0
0 0 0 0 0 0 0 0 0
0 0 0 0 0 0 0 0 0
0 0 0 0 0 0 0 0 0
0 0 0 0 0 0 0 0 0
0 0 0 0 0 0 0 0 0
0 0 0 0 0 0 0 0 0
0 0 0 0 0 0 0 0 0
0 0 0 0 0 0 0 0 0
0 0 0 0 0 0 0 0 0
0 0 0 0 0 0 0 0 0
0 0 0 0 0 0 0 0 0
0 0 0 0 0 0 0 0 0
0 0 0 0 0 0 0 0 0
0 0 0 0 0 0 0 0 0
0 0 0 0 0 0 0 0 0
0 0 0 0 0 0 0 0 0
0 0 0 0 0 0 0 0 0
0 0 0 0 0 0 0 0 0
0 0 0 0 0 0 0 0 0
0 0 0 0 0 0 0 0 0
0 0 0 0 0 0 0 0 0
0 0 0 0 0 0 0 0 0
0 0 0 0 0 0 0 0 0
0 0 0 0 0 0 0 0 0
0 0 0 0 0 0 0 0 0
0 0 0 0 0 0 0 0 0
0 0 0 0 0 0 0 0 0
0 0 0 0 0 0 0 0 0
0 0 0 0 0 0 0 0 0
0 0 0 0 0 0 0 0 0
0 0 0 0 0 0 0 0 0
0 0 0 0 0 0 0 0 0
0 0 0 0 0 0 0 0 0
0 0 0 0 0 0 0 0 0
0 0 0 0 0 0 0 0 0
0 0 0 0 0 0 0 0 0
0 0 0 0 0 0 0 0 0
0 0 0 0 0 0 0 0 0
0 0 0 0 0 0 0 0 0
0 0 0 0 0 0 0 0 0
0 0 0 0 0 0 0 0 0
0 0 0 0 0 0 0 0 0
0 0 0 0 0 0 0 0 0
0 0 0 0 0 0 0 0 0
0 0 0 0 0 0 0 0 0
0 0 0 0 0 0 0 0 0
0 0 0 0 0 0 0 0 0
0 0 0 0 0 0 0 0 0
0 0 0 0 0 0 0 0 0
0 0 0 0 0 0 0 0 0
0 0 0 0 0 0 0 0 0
0 0 0 0 0 0 0 0 0
0 0 0 0 0 0 0 0 0
0 0 0 0 0 0 0 0 0
0 0 0 0 0 0 0 0 0
0 0 0 0 0 0 0 0 0
0 0 0 0 0 0 0 0 0
0 0 0 0 0 0 0 0 0
0 0 0 0 0 0 0 0 0
0 0 0 0 0 0 0 0 0
0 0 0 0 0 0 0 0 0
0 0 0 0 0 0 0 0 0
0 0 0 0 0 0 0 0 0
0 0 0 0 0 0 0 0 0
0 0 0 0 0 0 0 0 0
0 0 0 0 0 0 0 0 0
0 0 0 0 0 0 0 0 0
0 0 0 0 0 0 0 0 0
0 0 0 0 0 0 0 0 0
0 0 0 0 0 0 0 0 0
0 0 0 0 0 0 0 0 0
0 0 0 0 0 0 0 0 0
0 0 0 0 0 0 0 0 0
0 0 0 0 0 0 0 0 0
0 0 0 0 0 0 0 0 0
0 0 0 0 0 0 0 0 0
0 0 0 0 0 0 0 0 0
0 0 0 0 0 0 0 0 0
0 0 0 0 0 0 0 0 0
0 0 0 0 0 0 0 0 0
0 0 0 0 0 0 0 0 0
0 0 0 0 0 0 0 0 0
0 0 0 0 0 0 0 0 0
0 0 0 0 0 0 0 0 0
0 0 0 0 0 0 0 0 0
0 0 0 0 0 0 0 0 0
0 0 0 0 0 0 0 0 0
0 0 0 0 0 0 0 0 0
0 0 0 0 0 0 0 0 0
0 0 0 0 0 0 0 0 0
0 0 0 0 0 0 0 0 0
0 0 0 0 0 0 0 0 0
0 0 0 0 0 0 0 0 0
0 0 0 0 0 0 0 0 0
0 0 0 0 0 0 0 0 0
0 0 0 0 0 0 0 0 0
0 0 0 0 0 0 0 0 0
0 0 0 0 0 0 0 0 0
0 0 0 0 0 0 0 0 0
0 0 0 0 0 0 0 0 0
0 0 0 0 0 0 0 0 0
0 0 0 0 0 0 0 0 0
0 0 0 0 0 0 0 0 0
0 0 0 0 0 0 0 0 0
0 0 0 0 0 0 0 0 0
0 0 0 0 0 0 0 0 0
0 0 0 0 0 0 0 0 0
0 0 0 0 0 0 0 0 0
0 0 0 0 0 0 0 0 0
0 0 0 0 0 0 0 0 0
0 0 0 0 0 0 0 0 0
0 0 0 0 0 0 0 0 0
0 0 0 0 0 0 0 0 0
0 0 0 0 0 0 0 0 0
0 0 0 0 0 0 0 0 0
0 0 0 0 0 0 0 0 0
0 0 0 0 0 0 0 0 0
0 0 0 0 0 0 0 0 0
0 0 0 0 0 0 0 0 0
0 0 0 0 0 0 0 0 0
0 0 0 0 0 0 0 0 0
0 0 0 0 0 0 0 0 0
0 0 0 0 0 0 0 0 0
0 0 0 0 0 0 0 0 0
0 0 0 0 0 0 0 0 0
0 0 0 0 0 0 0 0 0
0 0 0 0 0 0 0 0 0
0 0 0 0 0 0 0 0 0
0 0 0 0 0 0 0 0 0
0 0 0 0 0 0 0 0 0
0 0 0 0 0 0 0 0 0
0 0 0 0 0 0 0 0 0
0 0 0 0 0 0 0 0 0
0 0 0 0 0 0 0 0 0
0 0 0 0 0 0 0 0 0
0 0 0 0 0 0 0 0 0
0 0 0 0 0 0 0 0 0
0 0 0 0 0 0 0 0 0
0 0 0 0 0 0 0 0 0
0 0 0 0 0 0 0 0 0
0 0 0 0 0 0 0 0 0
0 0 0 0 0 0 0 0 0
0 0 0 0 0 0 0 0 0
0 0 0 0 0 0 0 0 0
0 0 0 0 0 0 0 0 0
0 0 0 0 0 0 0 0 0
0 0 0 0 0 0 0 0 0
0 0 0 0 0 0 0 0 0
0 0 0 0 0 0 0 0 0
0 0 0 0 0 0 0 0 0
0 0 0 0 0 0 0 0 0
0 0 0 0 0 0 0 0 0
0 0 0 0 0 0 0 0 0
0 0 0 0 0 0 0 0 0
0 0 0 0 0 0 0 0 0
0 0 0 0 0 0 0 0 0
0 0 0 0 0 0 0 0 0
0 0 0 0 0 0 0 0 0
0 0 0 0 0 0 0 0 0
0 0 0 0 0 0 0 0 0
0 0 0 0 0 0 0 0 0
0 0 0 0 0 0 0 0 0
0 0 0 0 0 0 0 0 0
0 0 0 0 0 0 0 0 0
0 0 0 0 0 0 0 0 0
0 0 0 0 0 0 0 0 0
0 0 0 0 0 0 0 0 0
0 0 0 0 0 0 0 0 0
0 0 0 0 0 0 0 0 0
0 0 0 0 0 0 0 0 0
0 0 0 0 0 0 0 0 0
0 0 0 0 0 0 0 0 0
0 0 0 0 0 0 0 0 0
0 0 0 0 0 0 0 0 0
0 0 0 0 0 0 0 0 0
0 0 0 0 0 0 0 0 0
0 0 0 0 0 0 0 0 0
0 0 0 0 0 0 0 0 0
0 0 0 0 0 0 0 0 0
0 0 0 0 0 0 0 0 0
0 0 0 0 0 0 0 0 0
0 0 0 0 0 0 0 0 0
0 0 0 0 0 0 0 0 0
0 0 0 0 0 0 0 0 0
0 0 0 0 0 0 0 0 0
0 0 0 0 0 0 0 0 0
0 0 0 0 0 0 0 0 0
0 0 0 0 0 0 0 0 0
0 0 0 0 0 0 0 0 0
0 0 0 0 0 0 0 0 0
0 0 0 0 0 0 0 0 0
0 0 0 0 0 0 0 0 0
0 0 0 0 0 0 0 0 0
0 0 0 0 0 0 0 0 0
0 0 0 0 0 0 0 0 0
0 0 0 0 0 0 0 0 0
0 0 0 0 0 0 0 0 0
0 0 0 0 0 0 0 0 0
0 0 0 0 0 0 0 0 0
0 0 0 0 0 0 0 0 0
0 0 0 0 0 0 0 0 0
0 0 0 0 0 0 0 0 0
0 0 0 0 0 0 0 0 0
0 0 0 0 0 0 0 0 0
0 0 0 0 0 0 0 0 0
0 0 0 0 0 0 0 0 0
0 0 0 0 0 0 0 0 0
0 0 0 0 0 0 0 0 0
0 0 0 0 0 0 0 0 0
0 0 0 0 0 0 0 0 0
0 0 0 0 0 0 0 0 0
0 0 0 0 0 0 0 0 0
0 0 0 0 0 0 0 0 0
0 0 0 0 0 0 0 0 0
0 0 0 0 0 0 0 0 0
0 0 0 0 0 0 0 0 0
0 0 0 0 0 0 0 0 0
0 0 0 0 0 0 0 0 0
0 0 0 0 0 0 0 0 0
0 0 0 0 0 0 0 0 0
0 0 0 0 0 0 0 0 0
0 0 0 0 0 0 0 0 0
0 0 0 0 0 0 0 0 0
0 0 0 0 0 0 0 0 0
0 0 0 0 0 0 0 0 0
0 0 0 0 0 0 0 0 0
0 0 0 0 0 0 0 0 0
0 0 0 0 0 0 0 0 0
0 0 0 0 0 0 0 0 0
0 0 0 0 0 0 0 0 0
0 0 0 0 0 0 0 0 0
0 0 0 0 0 0 0 0 0
0 0 0 0 0 0 0 0 0
0 0 0 0 0 0 0 0 0
0 0 0 0 0 0 0 0 0
0 0 0 0 0 0 0 0 0
0 0 0 0 0 0 0 0 0
0 0 0 0 0 0 0 0 0
0 0 0 0 0 0 0 0 0
0 0 0 0 0 0 0 0 0
0 0 0 0 0 0 0 0 0
0 0 0 0 0 0 0 0 0
0 0 0 0 0 0 0 0 0
0 0 0 0 0 0 0 0 0
0 0 0 0 0 0 0 0 0
0 0 0 0 0 0 0 0 0
0 0 0 0 0 0 0 0 0
0 0 0 0 0 0 0 0 0
0 0 0 0 0 0 0 0 0
0 0 0 0 0 0 0 0 0
0 0 0 0 0 0 0 0 0
0 0 0 0 0 0 0 0 0
0 0 0 0 0 0 0 0 0
0 0 0 0 0 0 0 0 0
0 0 0 0 0 0 0 0 0
0 0 0 0 0 0 0 0 0
0 0 0 0 0 0 0 0 0
0 0 0 0 0 0 0 0 0
0 0 0 0 0 0 0 0 0
0 0 0 0 0 0 0 0 0
0 0 0 0 0 0 0 0 0
0 0 0 0 0 0 0 0 0
0 0 0 0 0 0 0 0 0
0 0 0 0 0 0 0 0 0
0 0 0 0 0 0 0 0 0
0 0 0 0 0 0 0 0 0
0.567018 0.592092 0.555389 0.579891 0.567018 0.592092 0.555389 0.579891 0
0.610634 0.636195 0.597982 0.622886 0.610634 0.636195 0.597982 0.622886 0
0.587066 0.613253 0.575532 0.60106 0.587066 0.613253 0.575532 0.60106 0
0.63262 0.659327 0.619944 0.64599 0.63262 0.659327 0.619944 0.64599 0
0.679071 0.706281 0.665233 0.69173 0.679071 0.706281 0.665233 0.69173 0
0.72636 0.753975 0.711276 0.738142 0.72636 0.753975 0.711276 0.738142 0
0.774314 0.802223 0.757925 0.785061 0.774314 0.802223 0.757925 0.785061 0
0.822695 0.850663 0.804945 0.832077 0.822695 0.850663 0.804945 0.832077 0
0.871098 0.898885 0.851884 0.878793 0.871098 0.898885 0.851884 0.878793 0
0.919104 0.946464 0.898358 0.924805 0.919104 0.946464 0.898358 0.924805 0
0.966275 0.992918 0.943924 0.969589 0.966275 0.992918 0.943924 0.969589 0
0.654482 0.682376 0.641902 0.669105 0.654482 0.682376 0.641902 0.669105 0
0.703019 0.7315 0.689226 0.716969 0.703019 0.7315 0.689226 0.716969 0
0.752536 0.781495 0.737449 0.765626 0.752536 0.781495 0.737449 0.765626 0
0.802842 0.832162 0.786385 0.814881 0.802842 0.832162 0.786385 0.814881 0
0.853703 0.883182 0.835799 0.864398 0.853703 0.883182 0.835799 0.864398 0
0.904758 0.93416 0.885307 0.913764 0.904758 0.93416 0.885307 0.913764 0
0.955588 0.984642 0.934484 0.962545 0.955588 0.984642 0.934484 0.962545 0
0.676181 0.705302 0.663692 0.692102 0.676181 0.705302 0.663692 0.692102 0
0.726874 0.75667 0.713134 0.742168 0.726874 0.75667 0.713134 0.742168 0
0.778699 0.809063 0.763619 0.793166 0.778699 0.809063 0.763619 0.793166 0
0.831466 0.862278 0.814955 0.844898 0.831466 0.862278 0.814955 0.844898 0
0.884948 0.916028 0.866909 0.897056 0.884948 0.916028 0.866909 0.897056 0
0.938809 0.969911 0.919134 0.949247 0.938809 0.969911 0.919134 0.949247 0
0.992628 1.02351 0.97121 1.00102 0.992628 1.02351 0.97121 1.00102 0
0.697674 0.728058 0.685309 0.71496 0.697674 0.728058 0.685309 0.71496 0
0.75059 0.781747 0.736935 0.767302 0.75059 0.781747 0.736935 0.767302 0
0.80481 0.836639 0.789764 0.820741 0.80481 0.836639 0.789764 0.820741 0
0.860155 0.89254 0.843609 0.875077 0.860155 0.89254 0.843609 0.875077 0
0.916405 0.949177 0.898245 0.93003 0.916405 0.949177 0.898245 0.93003 0
0.973245 1.00618 0.953346 0.985206 0.973245 1.00618 0.953346 0.985206 0
0.718903 0.750588 0.706696 0.737626 0.718903 0.750588 0.706696 0.737626 0
0.774111 0.806678 0.760574 0.792322 0.774111 0.806678 0.760574 0.792322 0
0.830817 0.864178 0.815836 0.848306 0.830817 0.864178 0.815836 0.848306 0
0.88886 0.922906 0.872308 0.905387 0.88886 0.922906 0.872308 0.905387 0
0.948033 0.9826 0.929777 0.963298 0.948033 0.9826 0.929777 0.963298 0
1.00803 1.04291 0.987934 1.02167 1.00803 1.04291 0.987934 1.02167 0
0.739804 0.772827 0.727792 0.760039 0.739804 0.772827 0.727792 0.760039 0
0.797373 0.831403 0.783991 0.817172 0.797373 0.831403 0.783991 0.817172 0
0.856662 0.891625 0.841779 0.87581 0.856662 0.891625 0.841779 0.87581 0
0.917531 0.953325 0.901004 0.935779 0.917531 0.953325 0.901004 0.935779 0
0.97979 1.01627 0.961463 0.996826 0.97979 1.01627 0.961463 0.996826 0
1.04315 1.08008 1.02286 1.05859 1.04315 1.08008 1.02286 1.05859 0
0.760318 0.794713 0.748534 0.782134 0.760318 0.794713 0.748534 0.782134 0
0.820315 0.855861 0.807124 0.841789 0.820315 0.855861 0.807124 0.841789 0
0.882285 0.918919 0.867535 0.903197 0.882285 0.918919 0.867535 0.903197 0
0.946109 0.983743 0.92964 0.966202 0.946109 0.983743 0.92964 0.966202 0
1.01162 1.05013 0.993256 1.03058 1.01162 1.05013 0.993256 1.03058 0
0.720089 0.754621 0.709876 0.743679 0.720089 0.754621 0.709876 0.743679 0
0.780371 0.816186 0.768861 0.80385 0.780371 0.816186 0.768861 0.80385 0
0.842881 0.879994 0.829911 0.866113 0.842881 0.879994 0.829911 0.866113 0
0.907629 0.946008 0.893045 0.930409 0.907629 0.946008 0.893045 0.930409 0
0.974544 1.01411 0.958161 0.996603 0.974544 1.01411 0.958161 0.996603 0
1.04348 1.08413 1.0251 1.0645 1.04348 1.08413 1.0251 1.0645 0
0.737373 0.7732 0.727463 0.762538 0.737373 0.7732 0.727463 0.762538 0
0.799953 0.837217 0.78871 0.825136 0.799953 0.837217 0.78871 0.825136 0
0.865034 0.903767 0.852303 0.890096 0.865034 0.903767 0.852303 0.890096 0
0.932657 0.97285 0.918257 0.957395 0.932657 0.97285 0.918257 0.957395 0
1.0028 1.04442 0.986521 1.02695 1.0028 1.04442 0.986521 1.02695 0
1.07536 1.11826 1.05697 1.09856 1.07536 1.11826 1.05697 1.09856 0
0.575297 0.608031 0.568862 0.601057 0.575297 0.608031 0.568862 0.601057 0
0.632479 0.666543 0.62509 0.658558 0.632479 0.666543 0.62509 0.658558 0
0.692021 0.727569 0.683573 0.718451 0.692021 0.727569 0.683573 0.718451 0
0.754169 0.791295 0.744532 0.78091 0.754169 0.791295 0.744532 0.78091 0
0.819066 0.857812 0.808092 0.845979 0.819066 0.857812 0.808092 0.845979 0
0.886782 0.927184 0.874281 0.913713 0.886782 0.927184 0.874281 0.913713 0
0.957373 0.999449 0.943149 0.98413 0.957373 0.999449 0.943149 0.98413 0
1.03087 1.07463 1.0147 1.05721 1.03087 1.07463 1.0147 1.05721 0
0.586069 0.619724 0.579904 0.613029 0.586069 0.619724 0.579904 0.613029 0
0.644886 0.679984 0.63778 0.672282 0.644886 0.679984 0.63778 0.672282 0
0.706267 0.742983 0.698101 0.734142 0.706267 0.742983 0.698101 0.734142 0
0.770497 0.808955 0.761126 0.798811 0.770497 0.808955 0.761126 0.798811 0
0.83777 0.878041 0.82702 0.866406 0.83777 0.878041 0.82702 0.866406 0
0.908198 0.950321 0.895875 0.936999 0.908198 0.950321 0.895875 0.936999 0
0.981852 1.02588 0.967751 1.01064 0.981852 1.02588 0.967751 1.01064 0
1.05882 1.10481 1.0427 1.08739 1.05882 1.10481 1.0427 1.08739 0
0.59644 0.631012 0.590493 0.624536 0.59644 0.631012 0.590493 0.624536 0
0.656903 0.693074 0.650005 0.68555 0.656903 0.693074 0.650005 0.68555 0
0.720187 0.758098 0.71218 0.749399 0.720187 0.758098 0.71218 0.749399 0
0.786531 0.826308 0.777301 0.816321 0.786531 0.826308 0.777301 0.816321 0
0.856173 0.897995 0.84558 0.886505 0.856173 0.897995 0.84558 0.886505 0
0.929368 0.973264 0.917173 0.96004 0.929368 0.973264 0.917173 0.96004 0
1.00619 1.05225 0.992154 1.03703 1.00619 1.05225 0.992154 1.03703 0
1.08679 1.13512 1.07064 1.11761 1.08679 1.13512 1.07064 1.11761 0
0 0 0 0 0 0 0 0 0
0 0 0 0 0 0 0 0 0
0 0 0 0 0 0 0 0 0
0 0 0 0 0 0 0 0 0
0 0 0 0 0 0 0 0 0
0 0 0 0 0 0 0 0 0
0 0 0 0 0 0 0 0 0
0 0 0 0 0 0 0 0 0
0 0 0 0 0 0 0 0 0
0 0 0 0 0 0 0 0 0
0 0 0 0 0 0 0 0 0
0 0 0 0 0 0 0 0 0
0 0 0 0 0 0 0 0 0
0 0 0 0 0 0 0 0 0
0 0 0 0 0 0 0 0 0
0 0 0 0 0 0 0 0 0
0 0 0 0 0 0 0 0 0
0 0 0 0 0 0 0 0 0
0 0 0 0 0 0 0 0 0
0 0 0 0 0 0 0 0 0
0 0 0 0 0 0 0 0 0
0 0 0 0 0 0 0 0 0
0 0 0 0 0 0 0 0 0
0 0 0 0 0 0 0 0 0
0 0 0 0 0 0 0 0 0
0 0 0 0 0 0 0 0 0
0 0 0 0 0 0 0 0 0
0 0 0 0 0 0 0 0 0
0 0 0 0 0 0 0 0 0
0 0 0 0 0 0 0 0 0
0 0 0 0 0 0 0 0 0
0 0 0 0 0 0 0 0 0
0 0 0 0 0 0 0 0 0
0 0 0 0 0 0 0 0 0
0 0 0 0 0 0 0 0 0
0 0 0 0 0 0 0 0 0
0 0 0 0 0 0 0 0 0
0 0 0 0 0 0 0 0 0
0 0 0 0 0 0 0 0 0
0 0 0 0 0 0 0 0 0
0 0 0 0 0 0 0 0 0
0 0 0 0 0 0 0 0 0
0 0 0 0 0 0 0 0 0
0 0 0 0 0 0 0 0 0
0 0 0 0 0 0 0 0 0
0 0 0 0 0 0 0 0 0
0 0 0 0 0 0 0 0 0
0 0 0 0 0 0 0 0 0
0 0 0 0 0 0 0 0 0
0 0 0 0 0 0 0 0 0
0 0 0 0 0 0 0 0 0
0 0 0 0 0 0 0 0 0
0 0 0 0 0 0 0 0 0
0 0 0 0 0 0 0 0 0
0 0 0 0 0 0 0 0 0
0 0 0 0 0 0 0 0 0
0 0 0 0 0 0 0 0 0
0 0 0 0 0 0 0 0 0
0 0 0 0 0 0 0 0 0
0 0 0 0 0 0 0 0 0
0 0 0 0 0 0 0 0 0
0 0 0 0 0 0 0 0 0
0 0 0 0 0 0 0 0 0
0 0 0 0 0 0 0 0 0
0 0 0 0 0 0 0 0 0
0 0 0 0 0 0 0 0 0
0 0 0 0 0 0 0 0 0
0 0 0 0 0 0 0 0 0
0 0 0 0 0 0 0 0 0
0 0 0 0 0 0 0 0 0
0 0 0 0 0 0 0 0 0
0 0 0 0 0 0 0 0 0
0 0 0 0 0 0 0 0 0
0 0 0 0 0 0 0 0 0
0 0 0 0 0 0 0 0 0
0 0 0 0 0 0 0 0 0
0 0 0 0 0 0 0 0 0
0 0 0 0 0 0 0 0 0
0 0 0 0 0 0 0 0 0
0 0 0 0 0 0 0 0 0
0 0 0 0 0 0 0 0 0
0 0 0 0 0 0 0 0 0
0 0 0 0 0 0 0 0 0
0 0 0 0 0 0 0 0 0
0.555173 0.579611 0.543894 0.56778 0.555173 0.579611 0.543894 0.56778 0
0.597683 0.622608 0.585422 0.60972 0.597683 0.622608 0.585422 0.60972 0
0.574614 0.600111 0.56342 0.588291 0.574614 0.600111 0.56342 0.588291 0
0.61897 0.644989 0.60669 0.632076 0.61897 0.644989 0.60669 0.632076 0
0.664226 0.690751 0.650834 0.676681 0.664226 0.690751 0.650834 0.676681 0
0.710329 0.737276 0.695752 0.721988 0.710329 0.737276 0.695752 0.721988 0
0.757133 0.784413 0.741316 0.767858 0.757133 0.784413 0.741316 0.767858 0
0.804436 0.831827 0.787321 0.813919 0.804436 0.831827 0.787321 0.813919 0
0.851855 0.87914 0.833354 0.859809 0.851855 0.87914 0.833354 0.859809 0
0.899018 0.925986 0.879067 0.905167 0.899018 0.925986 0.879067 0.905167 0
0.945543 0.971936 0.924069 0.949535 0.945543 0.971936 0.924069 0.949535 0
0.64015 0.667303 0.627951 0.654444 0.64015 0.667303 0.627951 0.654444 0
0.687397 0.715135 0.67404 0.701073 0.687397 0.715135 0.67404 0.701073 0
0.735625 0.763853 0.721032 0.748514 0.735625 0.763853 0.721032 0.748514 0
0.784667 0.813286 0.76877 0.796608 0.784667 0.813286 0.76877 0.796608 0
0.834322 0.863146 0.817053 0.845042 0.834322 0.863146 0.817053 0.845042 0
0.884257 0.913072 0.865519 0.893438 0.884257 0.913072 0.865519 0.893438 0
0.934095 0.962669 0.913789 0.941422 0.934095 0.962669 0.913789 0.941422 0
0.661186 0.68951 0.649069 0.676713 0.661186 0.68951 0.649069 0.676713 0
0.710492 0.739486 0.69718 0.725444 0.710492 0.739486 0.69718 0.725444 0
0.760924 0.790491 0.746331 0.775118 0.760924 0.790491 0.746331 0.775118 0
0.812312 0.842348 0.796353 0.825563 0.812312 0.842348 0.796353 0.825563 0
0.864456 0.894798 0.847044 0.876501 0.864456 0.894798 0.847044 0.876501 0
0.917054 0.947484 0.898088 0.927578 0.917054 0.947484 0.898088 0.927578 0
0.969728 1.00003 0.949109 0.978399 0.969728 1.00003 0.949109 0.978399 0
0.682034 0.711567 0.670029 0.698861 0.682034 0.711567 0.670029 0.698861 0
0.733467 0.763762 0.720228 0.749767 0.733467 0.763762 0.720228 0.749767 0
0.786187 0.817153 0.771618 0.801769 0.786187 0.817153 0.771618 0.801769 0
0.840034 0.871568 0.824033 0.854693 0.840034 0.871568 0.824033 0.854693 0
0.894812 0.926762 0.877274 0.908286 0.894812 0.926762 0.877274 0.908286 0
0.950239 0.982402 0.931048 0.962196 0.950239 0.982402 0.931048 0.962196 0
0.702635 0.733415 0.690778 0.720835 0.702635 0.733415 0.690778 0.720835 0
0.756265 0.78791 0.743133 0.773993 0.756265 0.78791 0.743133 0.773993 0
0.811365 0.843795 0.796849 0.828427 0.811365 0.843795 0.796849 0.828427 0
0.86779 0.900907 0.851772 0.883967 0.86779 0.900907 0.851772 0.883967 0
0.925353 0.95901 0.907711 0.940372 0.925353 0.95901 0.907711 0.940372 0
0.983785 1.01779 0.964388 0.997319 0.983785 1.01779 0.964388 0.997319 0
0.722928 0.754993 0.711255 0.742574 0.722928 0.754993 0.711255 0.742574 0
0.778826 0.811873 0.765836 0.798068 0.778826 0.811873 0.765836 0.798068 0
0.8364 0.870363 0.821971 0.855042 0.8364 0.870363 0.821971 0.855042 0
0.895528 0.930315 0.879525 0.913339 0.895528 0.930315 0.879525 0.913339 0
0.956039 0.991525 0.938316 0.972732 0.956039 0.991525 0.938316 0.972732 0
1.01768 1.05363 0.99808 1.0329 1.01768 1.05363 0.99808 1.0329 0
0.742854 0.77624 0.731397 0.764017 0.742854 0.77624 0.731397 0.764017 0
0.801087 0.835589 0.788275 0.821931 0.801087 0.835589 0.788275 0.821931 0
0.861235 0.8968 0.846927 0.881559 0.861235 0.8968 0.846927 0.881559 0
0.923196 0.959743 0.907238 0.942759 0.923196 0.959743 0.907238 0.942759 0
0.986818 1.02424 0.969046 1.00534 0.986818 1.02424 0.969046 1.00534 0
0.703856 0.737364 0.693909 0.726712 0.703856 0.737364 0.693909 0.726712 0
0.762345 0.797096 0.751146 0.785103 0.762345 0.797096 0.751146 0.785103 0
0.822994 0.859003 0.810391 0.845524 0.822994 0.859003 0.810391 0.845524 0
0.885813 0.923053 0.871657 0.907923 0.885813 0.923053 0.871657 0.907923 0
0.95074 0.989144 0.934857 0.972179 0.95074 0.989144 0.934857 0.972179 0
1.01765 1.05711 0.999848 1.03812 1.01765 1.05711 0.999848 1.03812 0
0.720676 0.755434 0.711022 0.745055 0.720676 0.755434 0.711022 0.745055 0
0.781384 0.817531 0.770443 0.805782 0.781384 0.817531 0.770443 0.805782 0
0.844509 0.882077 0.832133 0.868796 0.844509 0.882077 0.832133 0.868796 0
0.910095 0.949081 0.896112 0.934083 0.910095 0.949081 0.896112 0.934083 0
0.978128 1.01851 0.962337 1.00156 0.978128 1.01851 0.962337 1.00156 0
1.04852 1.09014 1.03069 1.07106 1.04852 1.09014 1.03069 1.07106 0
0.563523 0.595285 0.557228 0.588469 0.563523 0.595285 0.557228 0.588469 0
0.619 0.652042 0.611782 0.644245 0.619 0.652042 0.611782 0.644245 0
0.676752 0.711233 0.668507 0.702339 0.676752 0.711233 0.668507 0.702339 0
0.73703 0.773041 0.727635 0.762925 0.73703 0.773041 0.727635 0.762925 0
0.799972 0.837549 0.789288 0.826036 0.799972 0.837549 0.789288 0.826036 0
0.865639 0.904817 0.853481 0.891724 0.865639 0.904817 0.853481 0.891724 0
0.934087 0.974886 0.920267 0.960012 0.934087 0.974886 0.920267 0.960012 0
1.00535 1.04779 0.989652 1.03089 1.00535 1.04779 0.989652 1.03089 0
0.574043 0.606695 0.568014 0.600154 0.574043 0.606695 0.568014 0.600154 0
0.631102 0.665144 0.624162 0.657628 0.631102 0.665144 0.624162 0.657628 0
0.690633 0.726242 0.682668 0.717625 0.690633 0.726242 0.682668 0.717625 0
0.752923 0.79022 0.743794 0.780343 0.752923 0.79022 0.743794 0.780343 0
0.818159 0.85721 0.807697 0.845892 0.818159 0.85721 0.807697 0.845892 0
0.886446 0.927286 0.874463 0.914338 0.886446 0.927286 0.874463 0.914338 0
0.957851 1.00053 0.94415 0.985736 0.957851 1.00053 0.94415 0.985736 0
1.03247 1.07705 1.01682 1.06015 1.03247 1.07705 1.01682 1.06015 0
0.584183 0.617724 0.578357 0.611386 0.584183 0.617724 0.578357 0.611386 0
0.642836 0.67792 0.636089 0.670564 0.642836 0.67792 0.636089 0.670564 0
0.704212 0.740978 0.696389 0.732484 0.704212 0.740978 0.696389 0.732484 0
0.768549 0.807123 0.75954 0.79738 0.768549 0.807123 0.75954 0.79738 0
0.83608 0.876636 0.82575 0.865434 0.83608 0.876636 0.82575 0.865434 0
0.907049 0.949602 0.895165 0.936723 0.907049 0.949602 0.895165 0.936723 0
0.981511 1.02615 0.96785 1.01135 0.981511 1.02615 0.96785 1.01135 0
1.05964 1.10648 1.04393 1.08946 1.05964 1.10648 1.04393 1.08946 0
0 0 0 0 0 0 0 0 0
0 0 0 0 0 0 0 0 0
0 0 0 0 0 0 0 0 0
0 0 0 0 0 0 0 0 0
0 0 0 0 0 0 0 0 0
0 0 0 0 0 0 0 0 0
0 0 0 0 0 0 0 0 0
0 0 0 0 0 0 0 0 0
0 0 0 0 0 0 0 0 0
0 0 0 0 0 0 0 0 0
0 0 0 0 0 0 0 0 0
0 0 0 0 0 0 0 0 0
0 0 0 0 0 0 0 0 0
0 0 0 0 0 0 0 0 0
0 0 0 0 0 0 0 0 0
0 0 0 0 0 0 0 0 0
0 0 0 0 0 0 0 0 0
0 0 0 0 0 0 0 0 0
0 0 0 0 0 0 0 0 0
0 0 0 0 0 0 0 0 0
0 0 0 0 0 0 0 0 0
0 0 0 0 0 0 0 0 0
0 0 0 0 0 0 0 0 0
0 0 0 0 0 0 0 0 0
0 0 0 0 0 0 0 0 0
0 0 0 0 0 0 0 0 0
0 0 0 0 0 0 0 0 0
0 0 0 0 0 0 0 0 0
0 0 0 0 0 0 0 0 0
0 0 0 0 0 0 0 0 0
0 0 0 0 0 0 0 0 0
0 0 0 0 0 0 0 0 0
0 0 0 0 0 0 0 0 0
0 0 0 0 0 0 0 0 0
0 0 0 0 0 0 0 0 0
0 0 0 0 0 0 0 0 0
0 0 0 0 0 0 0 0 0
0 0 0 0 0 0 0 0 0
0 0 0 0 0 0 0 0 0
0 0 0 0 0 0 0 0 0
0 0 0 0 0 0 0 0 0
0 0 0 0 0 0 0 0 0
0 0 0 0 0 0 0 0 0
0 0 0 0 0 0 0 0 0
0 0 0 0 0 0 0 0 0
0 0 0 0 0 0 0 0 0
0 0 0 0 0 0 0 0 0
0 0 0 0 0 0 0 0 0
0 0 0 0 0 0 0 0 0
0 0 0 0 0 0 0 0 0
0 0 0 0 0 0 0 0 0
0 0 0 0 0 0 0 0 0
0 0 0 0 0 0 0 0 0
0 0 0 0 0 0 0 0 0
0 0 0 0 0 0 0 0 0
0 0 0 0 0 0 0 0 0
0 0 0 0 0 0 0 0 0
0 0 0 0 0 0 0 0 0
0 0 0 0 0 0 0 0 0
0 0 0 0 0 0 0 0 0
0 0 0 0 0 0 0 0 0
0 0 0 0 0 0 0 0 0
0 0 0 0 0 0 0 0 0
0 0 0 0 0 0 0 0 0
0 0 0 0 0 0 0 0 0
0 0 0 0 0 0 0 0 0
0 0 0 0 0 0 0 0 0
0 0 0 0 0 0 0 0 0
0 0 0 0 0 0 0 0 0
0 0 0 0 0 0 0 0 0
0 0 0 0 0 0 0 0 0
0 0 0 0 0 0 0 0 0
0 0 0 0 0 0 0 0 0
0 0 0 0 0 0 0 0 0
0 0 0 0 0 0 0 0 0
0 0 0 0 0 0 0 0 0
0 0 0 0 0 0 0 0 0
0 0 0 0 0 0 0 0 0
0 0 0 0 0 0 0 0 0
0 0 0 0 0 0 0 0 0
0 0 0 0 0 0 0 0 0
0 0 0 0 0 0 0 0 0
0 0 0 0 0 0 0 0 0
0 0 0 0 0 0 0 0 0
0 0 0 0 0 0 0 0 0
0 0 0 0 0 0 0 0 0
0 0 0 0 0 0 0 0 0
0 0 0 0 0 0 0 0 0
0 0 0 0 0 0 0 0 0
0 0 0 0 0 0 0 0 0
0 0 0 0 0 0 0 0 0
0 0 0 0 0 0 0 0 0
0 0 0 0 0 0 0 0 0
0 0 0 0 0 0 0 0 0
0 0 0 0 0 0 0 0 0
0 0 0 0 0 0 0 0 0
0 0 0 0 0 0 0 0 0
0 0 0 0 0 0 0 0 0
0 0 0 0 0 0 0 0 0
0 0 0 0 0 0 0 0 0
0 0 0 0 0 0 0 0 0
0 0 0 0 0 0 0 0 0
0 0 0 0 0 0 0 0 0
0 0 0 0 0 0 0 0 0
0 0 0 0 0 0 0 0 0
0 0 0 0 0 0 0 0 0
0 0 0 0 0 0 0 0 0
0 0 0 0 0 0 0 0 0
0 0 0 0 0 0 0 0 0
0 0 0 0 0 0 0 0 0
0 0 0 0 0 0 0 0 0
0 0 0 0 0 0 0 0 0
0 0 0 0 0 0 0 0 0
0 0 0 0 0 0 0 0 0
0 0 0 0 0 0 0 0 0
0 0 0 0 0 0 0 0 0
0 0 0 0 0 0 0 0 0
0 0 0 0 0 0 0 0 0
0 0 0 0 0 0 0 0 0
0 0 0 0 0 0 0 0 0
0 0 0 0 0 0 0 0 0
0 0 0 0 0 0 0 0 0
0 0 0 0 0 0 0 0 0
0 0 0 0 0 0 0 0 0
0 0 0 0 0 0 0 0 0
0 0 0 0 0 0 0 0 0
0 0 0 0 0 0 0 0 0
0 0 0 0 0 0 0 0 0
0 0 0 0 0 0 0 0 0
0 0 0 0 0 0 0 0 0
0 0 0 0 0 0 0 0 0
0 0 0 0 0 0 0 0 0
0 0 0 0 0 0 0 0 0
0 0 0 0 0 0 0 0 0
0 0 0 0 0 0 0 0 0
0 0 0 0 0 0 0 0 0
0 0 0 0 0 0 0 0 0
0 0 0 0 0 0 0 0 0
0 0 0 0 0 0 0 0 0
0 0 0 0 0 0 0 0 0
0 0 0 0 0 0 0 0 0
0 0 0 0 0 0 0 0 0
0 0 0 0 0 0 0 0 0
0 0 0 0 0 0 0 0 0
0 0 0 0 0 0 0 0 0
0 0 0 0 0 0 0 0 0
0 0 0 0 0 0 0 0 0
0 0 0 0 0 0 0 0 0
0 0 0 0 0 0 0 0 0
0 0 0 0 0 0 0 0 0
0 0 0 0 0 0 0 0 0
0 0 0 0 0 0 0 0 0
0 0 0 0 0 0 0 0 0
0 0 0 0 0 0 0 0 0
0 0 0 0 0 0 0 0 0
0 0 0 0 0 0 0 0 0
0 0 0 0 0 0 0 0 0
0 0 0 0 0 0 0 0 0
0 0 0 0 0 0 0 0 0
0 0 0 0 0 0 0 0 0
0 0 0 0 0 0 0 0 0
0 0 0 0 0 0 0 0 0
0 0 0 0 0 0 0 0 0
0 0 0 0 0 0 0 0 0
0 0 0 0 0 0 0 0 0
0 0 0 0 0 0 0 0 0
0 0 0 0 0 0 0 0 0
0 0 0 0 0 0 0 0 0
0 0 0 0 0 0 0 0 0
0 0 0 0 0 0 0 0 0
0 0 0 0 0 0 0 0 0
0 0 0 0 0 0 0 0 0
0 0 0 0 0 0 0 0 0
0 0 0 0 0 0 0 0 0
0 0 0 0 0 0 0 0 0
0 0 0 0 0 0 0 0 0
0 0 0 0 0 0 0 0 0
0 0 0 0 0 0 0 0 0
0 0 0 0 0 0 0 0 0
0 0 0 0 0 0 0 0 0
0 0 0 0 0 0 0 0 0
0 0 0 0 0 0 0 0 0
0 0 0 0 0 0 0 0 0
0 0 0 0 0 0 0 0 0
0 0 0 0 0 0 0 0 0
0 0 0 0 0 0 0 0 0
0 0 0 0 0 0 0 0 0
0 0 0 0 0 0 0 0 0
0 0 0 0 0 0 0 0 0
0 0 0 0 0 0 0 0 0
0 0 0 0 0 0 0 0 0
0 0 0 0 0 0 0 0 0
0 0 0 0 0 0 0 0 0
0 0 0 0 0 0 0 0 0
0 0 0 0 0 0 0 0 0
0 0 0 0 0 0 0 0 0
0 0 0 0 0 0 0 0 0
0 0 0 0 0 0 0 0 0
0 0 0 0 0 0 0 0 0
0 0 0 0 0 0 0 0 0
0 0 0 0 0 0 0 0 0
0 0 0 0 0 0 0 0 0
0 0 0 0 0 0 0 0 0
0 0 0 0 0 0 0 0 0
0 0 0 0 0 0 0 0 0
0 0 0 0 0 0 0 0 0
0 0 0 0 0 0 0 0 0
0 0 0 0 0 0 0 0 0
0 0 0 0 0 0 0 0 0
0 0 0 0 0 0 0 0 0
0 0 0 0 0 0 0 0 0
0 0 0 0 0 0 0 0 0
0 0 0 0 0 0 0 0 0
0 0 0 0 0 0 0 0 0
0 0 0 0 0 0 0 0 0
0 0 0 0 0 0 0 0 0
0 0 0 0 0 0 0 0 0
0 0 0 0 0 0 0 0 0
0 0 0 0 0 0 0 0 0
0 0 0 0 0 0 0 0 0
0 0 0 0 0 0 0 0 0
0 0 0 0 0 0 0 0 0
0 0 0 0 0 0 0 0 0
0 0 0 0 0 0 0 0 0
0 0 0 0 0 0 0 0 0
0 0 0 0 0 0 0 0 0
0 0 0 0 0 0 0 0 0
0 0 0 0 0 0 0 0 0
0 0 0 0 0 0 0 0 0
0 0 0 0 0 0 0 0 0
0 0 0 0 0 0 0 0 0
0 0 0 0 0 0 0 0 0
0 0 0 0 0 0 0 0 0
0 0 0 0 0 0 0 0 0
0 0 0 0 0 0 0 0 0
0 0 0 0 0 0 0 0 0
0 0 0 0 0 0 0 0 0
0 0 0 0 0 0 0 0 0
0 0 0 0 0 0 0 0 0
0 0 0 0 0 0 0 0 0
0 0 0 0 0 0 0 0 0
0 0 0 0 0 0 0 0 0
0 0 0 0 0 0 0 0 0
0 0 0 0 0 0 0 0 0
0 0 0 0 0 0 0 0 0
0 0 0 0 0 0 0 0 0
0 0 0 0 0 0 0 0 0
0 0 0 0 0 0 0 0 0
0 0 0 0 0 0 0 0 0
0 0 0 0 0 0 0 0 0
0 0 0 0 0 0 0 0 0
0 0 0 0 0 0 0 0 0
0 0 0 0 0 0 0 0 0
0 0 0 0 0 0 0 0 0
0 0 0 0 0 0 0 0 0
0 0 0 0 0 0 0 0 0
0 0 0 0 0 0 0 0 0
0 0 0 0 0 0 0 0 0
0 0 0 0 0 0 0 0 0
0 0 0 0 0 0 0 0 0
0 0 0 0 0 0 0 0 0
0 0 0 0 0 0 0 0 0
0 0 0 0 0 0 0 0 0
0 0 0 0 0 0 0 0 0
0 0 0 0 0 0 0 0 0
0 0 0 0 0 0 0 0 0
0 0 0 0 0 0 0 0 0
0 0 0 0 0 0 0 0 0
0 0 0 0 0 0 0 0 0
0 0 0 0 0 0 0 0 0
0 0 0 0 0 0 0 0 0
0 0 0 0 0 0 0 0 0
0 0 0 0 0 0 0 0 0
0 0 0 0 0 0 0 0 0
0 0 0 0 0 0 0 0 0
0 0 0 0 0 0 0 0 0
0 0 0 0 0 0 0 0 0
0 0 0 0 0 0 0 0 0
0 0 0 0 0 0 0 0 0
0 0 0 0 0 0 0 0 0
0 0 0 0 0 0 0 0 0
0 0 0 0 0 0 0 0 0
0 0 0 0 0 0 0 0 0
0 0 0 0 0 0 0 0 0
0 0 0 0 0 0 0 0 0
0 0 0 0 0 0 0 0 0
0 0 0 0 0 0 0 0 0
0 0 0 0 0 0 0 0 0
0 0 0 0 0 0 0 0 0
0 0 0 0 0 0 0 0 0
0 0 0 0 0 0 0 0 0
0 0 0 0 0 0 0 0 0
0 0 0 0 0 0 0 0 0
0 0 0 0 0 0 0 0 0
0 0 0 0 0 0 0 0 0
0 0 0 0 0 0 0 0 0
0 0 0 0 0 0 0 0 0
0 0 0 0 0 0 0 0 0
0 0 0 0 0 0 0 0 0
0 0 0 0 0 0 0 0 0
0 0 0 0 0 0 0 0 0
0 0 0 0 0 0 0 0 0
0 0 0 0 0 0 0 0 0
0 0 0 0 0 0 0 0 0
0 0 0 0 0 0 0 0 0
0 0 0 0 0 0 0 0 0
0 0 0 0 0 0 0 0 0
0 0 0 0 0 0 0 0 0
0 0 0 0 0 0 0 0 0
0 0 0 0 0 0 0 0 0
0 0 0 0 0 0 0 0 0
0 0 0 0 0 0 0 0 0
0 0 0 0 0 0 0 0 0
0 0 0 0 0 0 0 0 0
0 0 0 0 0 0 0 0 0
0 0 0 0 0 0 0 0 0
0 0 0 0 0 0 0 0 0
0 0 0 0 0 0 0 0 0
0 0 0 0 0 0 0 0 0
0 0 0 0 0 0 0 0 0
0 0 0 0 0 0 0 0 0
0 0 0 0 0 0 0 0 0
0 0 0 0 0 0 0 0 0
0 0 0 0 0 0 0 0 0
0 0 0 0 0 0 0 0 0
0 0 0 0 0 0 0 0 0
0 0 0 0 0 0 0 0 0
0 0 0 0 0 0 0 0 0
0 0 0 0 0 0 0 0 0
0 0 0 0 0 0 0 0 0
0 0 0 0 0 0 0 0 0
0 0 0 0 0 0 0 0 0
0 0 0 0 0 0 0 0 0
0 0 0 0 0 0 0 0 0
0 0 0 0 0 0 0 0 0
0 0 0 0 0 0 0 0 0
0 0 0 0 0 0 0 0 0
0 0 0 0 0 0 0 0 0
0 0 0 0 0 0 0 0 0
0 0 0 0 0 0 0 0 0
0 0 0 0 0 0 0 0 0
0 0 0 0 0 0 0 0 0
0 0 0 0 0 0 0 0 0
0 0 0 0 0 0 0 0 0
0 0 0 0 0 0 0 0 0
0 0 0 0 0 0 0 0 0
0 0 0 0 0 0 0 0 0
0 0 0 0 0 0 0 0 0
0 0 0 0 0 0 0 0 0
0 0 0 0 0 0 0 0 0
0 0 0 0 0 0 0 0 0
0 0 0 0 0 0 0 0 0
0 0 0 0 0 0 0 0 0
0 0 0 0 0 0 0 0 0
0 0 0 0 0 0 0 0 0
0 0 0 0 0 0 0 0 0
0 0 0 0 0 0 0 0 0
0 0 0 0 0 0 0 0 0
0 0 0 0 0 0 0 0 0
0 0 0 0 0 0 0 0 0
0 0 0 0 0 0 0 0 0
0 0 0 0 0 0 0 0 0
0 0 0 0 0 0 0 0 0
0 0 0 0 0 0 0 0 0
0 0 0 0 0 0 0 0 0
0 0 0 0 0 0 0 0 0
0 0 0 0 0 0 0 0 0
0 0 0 0 0 0 0 0 0
0 0 0 0 0 0 0 0 0
0 0 0 0 0 0 0 0 0
0 0 0 0 0 0 0 0 0
0 0 0 0 0 0 0 0 0
0 0 0 0 0 0 0 0 0
0 0 0 0 0 0 0 0 0
0 0 0 0 0 0 0 0 0
0 0 0 0 0 0 0 0 0
0 0 0 0 0 0 0 0 0
0 0 0 0 0 0 0 0 0
0 0 0 0 0 0 0 0 0
0 0 0 0 0 0 0 0 0
0 0 0 0 0 0 0 0 0
0 0 0 0 0 0 0 0 0
0 0 0 0 0 0 0 0 0
0 0 0 0 0 0 0 0 0
0 0 0 0 0 0 0 0 0
0 0 0 0 0 0 0 0 0
0 0 0 0 0 0 0 0 0
0 0 0 0 0 0 0 0 0
0 0 0 0 0 0 0 0 0
0 0 0 0 0 0 0 0 0
0 0 0 0 0 0 0 0 0
0 0 0 0 0 0 0 0 0
0 0 0 0 0 0 0 0 0
0 0 0 0 0 0 0 0 0
0 0 0 0 0 0 0 0 0
0 0 0 0 0 0 0 0 0
0 0 0 0 0 0 0 0 0
0 0 0 0 0 0 0 0 0
0 0 0 0 0 0 0 0 0
0 0 0 0 0 0 0 0 0
0 0 0 0 0 0 0 0 0
0 0 0 0 0 0 0 0 0
0 0 0 0 0 0 0 0 0
0 0 0 0 0 0 0 0 0
0 0 0 0 0 0 0 0 0
0 0 0 0 0 0 0 0 0
0 0 0 0 0 0 0 0 0
0 0 0 0 0 0 0 0 0
0 0 0 0 0 0 0 0 0
0 0 0 0 0 0 0 0 0
0 0 0 0 0 0 0 0 0
0 0 0 0 0 0 0 0 0
0 0 0 0 0 0 0 0 0
0 0 0 0 0 0 0 0 0
0 0 0 0 0 0 0 0 0
0 0 0 0 0 0 0 0 0
SCALARS tauT double 9
LOOKUP_TABLE default
0 0 0 0 0 0 0 0 0
0 0 0 0 0 0 0 0 0
0 0 0 0 0 0 0 0 0
0 0 0 0 0 0 0 0 0
0 0 0 0 0 0 0 0 0
0 0 0 0 0 0 0 0 0
0 0 0 0 0 0 0 0 0
0 0 0 0 0 0 0 0 0
0 0 0 0 0 0 0 0 0
0 0 0 0 0 0 0 0 0
0 0 0 0 0 0 0 0 0
0 0 0 0 0 0 0 0 0
0 0 0 0 0 0 0 0 0
0 0 0 0 0 0 0 0 0
0 0 0 0 0 0 0 0 0
0 0 0 0 0 0 0 0 0
0 0 0 0 0 0 0 0 0
0 0 0 0 0 0 0 0 0
0 0 0 0 0 0 0 0 0
0 0 0 0 0 0 0 0 0
0 0 0 0 0 0 0 0 0
0 0 0 0 0 0 0 0 0
0 0 0 0 0 0 0 0 0
0 0 0 0 0 0 0 0 0
0 0 0 0 0 0 0 0 0
0 0 0 0 0 0 0 0 0
0 0 0 0 0 0 0 0 0
0 0 0 0 0 0 0 0 0
0 0 0 0 0 0 0 0 0
0 0 0 0 0 0 0 0 0
0 0 0 0 0 0 0 0 0
0 0 0 0 0 0 0 0 0
0 0 0 0 0 0 0 0 0
0 0 0 0 0 0 0 0 0
0 0 0 0 0 0 0 0 0
0 0 0 0 0 0 0 0 0
0 0 0 0 0 0 0 0 0
0 0 0 0 0 0 0 0 0
0 0 0 0 0 0 0 0 0
0 0 0 0 0 0 0 0 0
0 0 0 0 0 0 0 0 0
0 0 0 0 0 0 0 0 0
0 0 0 0 0 0 0 0 0
0 0 0 0 0 0 0 0 0
0 0 0 0 0 0 0 0 0
0 0 0 0 0 0 0 0 0
0 0 0 0 0 0 0 0 0
0 0 0 0 0 0 0 0 0
0 0 0 0 0 0 0 0 0
0 0 0 0 0 0 0 0 0
0 0 0 0 0 0 0 0 0
0 0 0 0 0 0 0 0 0
0 0 0 0 0 0 0 0 0
0 0 0 0 0 0 0 0 0
0 0 0 0 0 0 0 0 0
0 0 0 0 0 0 0 0 0
0 0 0 0 0 0 0 0 0
0 0 0 0 0 0 0 0 0
0 0 0 0 0 0 0 0 0
0 0 0 0 0 0 0 0 0
0 0 0 0 0 0 0 0 0
0 0 0 0 0 0 0 0 0
0 0 0 0 0 0 0 0 0
0 0 0 0 0 0 0 0 0
0 0 0 0 0 0 0 0 0
0 0 0 0 0 0 0 0 0
0 0 0 0 0 0 0 0 0
0 0 0 0 0 0 0 0 0
0 0 0 0 0 0 0 0 0
0 0 0 0 0 0 0 0 0
0 0 0 0 0 0 0 0 0
0 0 0 0 0 0 0 0 0
0 0 0 0 0 0 0 0 0
0 0 0 0 0 0 0 0 0
0 0 0 0 0 0 0 0 0
0 0 0 0 0 0 0 0 0
0 0 0 0 0 0 0 0 0
0 0 0 0 0 0 0 0 0
0 0 0 0 0 0 0 0 0
0 0 0 0 0 0 0 0 0
0 0 0 0 0 0 0 0 0
0 0 0 0 0 0 0 0 0
0 0 0 0 0 0 0 0 0
0 0 0 0 0 0 0 0 0
0 0 0 0 0 0 0 0 0
0 0 0 0 0 0 0 0 0
0 0 0 0 0 0 0 0 0
0 0 0 0 0 0 0 0 0
0 0 0 0 0 0 0 0 0
0 0 0 0 0 0 0 0 0
0 0 0 0 0 0 0 0 0
0 0 0 0 0 0 0 0 0
0 0 0 0 0 0 0 0 0
0 0 0 0 0 0 0 0 0
0 0 0 0 0 0 0 0 0
0 0 0 0 0 0 0 0 0
0 0 0 0 0 0 0 0 0
0 0 0 0 0 0 0 0 0
0 0 0 0 0 0 0 0 0
0 0 0 0 0 0 0 0 0
0 0 0 0 0 0 0 0 0
0 0 0 0 0 0 0 0 0
0 0 0 0 0 0 0 0 0
0 0 0 0 0 0 0 0 0
0 0 0 0 0 0 0 0 0
0 0 0 0 0 0 0 0 0
0 0 0 0 0 0 0 0 0
0 0 0 0 0 0 0 0 0
0 0 0 0 0 0 0 0 0
0 0 0 0 0 0 0 0 0
0 0 0 0 0 0 0 0 0
0 0 0 0 0 0 0 0 0
0 0 0 0 0 0 0 0 0
0 0 0 0 0 0 0 0 0
0 0 0 0 0 0 0 0 0
0 0 0 0 0 0 0 0 0
0 0 0 0 0 0 0 0 0
0 0 0 0 0 0 0 0 0
0 0 0 0 0 0 0 0 0
0 0 0 0 0 0 0 0 0
0 0 0 0 0 0 0 0 0
0 0 0 0 0 0 0 0 0
0 0 0 0 0 0 0 0 0
0 0 0 0 0 0 0 0 0
0 0 0 0 0 0 0 0 0
0 0 0 0 0 0 0 0 0
0 0 0 0 0 0 0 0 0
0 0 0 0 0 0 0 0 0
0 0 0 0 0 0 0 0 0
0 0 0 0 0 0 0 0 0
0 0 0 0 0 0 0 0 0
0 0 0 0 0 0 0 0 0
0 0 0 0 0 0 0 0 0
0 0 0 0 0 0 0 0 0
0 0 0 0 0 0 0 0 0
0 0 0 0 0 0 0 0 0
0 0 0 0 0 0 0 0 0
0 0 0 0 0 0 0 0 0
0 0 0 0 0 0 0 0 0
0 0 0 0 0 0 0 0 0
0 0 0 0 0 0 0 0 0
0 0 0 0 0 0 0 0 0
0 0 0 0 0 0 0 0 0
0 0 0 0 0 0 0 0 0
0 0 0 0 0 0 0 0 0
0 0 0 0 0 0 0 0 0
0 0 0 0 0 0 0 0 0
0 0 0 0 0 0 0 0 0
0 0 0 0 0 0 0 0 0
0 0 0 0 0 0 0 0 0
0 0 0 0 0 0 0 0 0
0 0 0 0 0 0 0 0 0
0 0 0 0 0 0 0 0 0
0 0 0 0 0 0 0 0 0
0 0 0 0 0 0 0 0 0
0 0 0 0 0 0 0 0 0
0 0 0 0 0 0 0 0 0
0 0 0 0 0 0 0 0 0
0 0 0 0 0 0 0 0 0
0 0 0 0 0 0 0 0 0
0 0 0 0 0 0 0 0 0
0 0 0 0 0 0 0 0 0
0 0 0 0 0 0 0 0 0
0.334913 0.35255 0.349978 0.367681 0.334913 0.35255 0.349978 0.367681 0
0.36607 0.385399 0.381277 0.400748 0.36607 0.385399 0.381277 0.400748 0
0.307814 0.325171 0.32357 0.341112 0.307814 0.325171 0.32357 0.341112 0
0.338551 0.357777 0.354573 0.373834 0.338551 0.357777 0.354573 0.373834 0
0.372554 0.393736 0.388653 0.409917 0.372554 0.393736 0.388653 0.409917 0
0.410026 0.4334 0.426256 0.44968 0.410026 0.4334 0.426256 0.44968 0
0.451373 0.477167 0.467674 0.493473 0.451373 0.477167 0.467674 0.493473 0
0.496996 0.52546 0.513283 0.541689 0.496996 0.52546 0.513283 0.541689 0
0.547327 0.578711 0.563484 0.594728 0.547327 0.578711 0.563484 0.594728 0
0.602797 0.637355 0.618658 0.652925 0.602797 0.637355 0.618658 0.652925 0
0.663799 0.701661 0.679121 0.716589 0.663799 0.701661 0.679121 0.716589 0
0.309791 0.3288 0.326501 0.345657 0.309791 0.3288 0.326501 0.345657 0
0.343429 0.364426 0.360382 0.38149 0.343429 0.364426 0.360382 0.38149 0
0.380606 0.403862 0.397736 0.421063 0.380606 0.403862 0.397736 0.421063 0
0.421782 0.447549 0.439015 0.464798 0.421782 0.447549 0.439015 0.464798 0
0.4674 0.495951 0.484637 0.513138 0.4674 0.495951 0.484637 0.513138 0
0.517936 0.549556 0.535056 0.566539 0.517936 0.549556 0.535056 0.566539 0
0.573894 0.608899 0.590735 0.625488 0.573894 0.608899 0.590735 0.625488 0
0.279756 0.298465 0.297212 0.316098 0.279756 0.298465 0.297212 0.316098 0
0.312897 0.333655 0.330648 0.351549 0.312897 0.333655 0.330648 0.351549 0
0.349685 0.372772 0.36767 0.39086 0.349685 0.372772 0.36767 0.39086 0
0.390601 0.416288 0.408746 0.434484 0.390601 0.416288 0.408746 0.434484 0
0.436124 0.464714 0.454333 0.482906 0.436124 0.464714 0.454333 0.482906 0
0.486797 0.518647 0.504935 0.536652 0.486797 0.518647 0.504935 0.536652 0
0.543206 0.578584 0.561086 0.596257 0.543206 0.578584 0.561086 0.596257 0
0.248402 0.266755 0.266622 0.285184 0.248402 0.266755 0.266622 0.285184 0
0.280947 0.301405 0.299519 0.320156 0.280947 0.301405 0.299519 0.320156 0
0.31724 0.340091 0.336109 0.359102 0.31724 0.340091 0.336109 0.359102 0
0.357781 0.383322 0.376878 0.402509 0.357781 0.383322 0.376878 0.402509 0
0.403095 0.431655 0.422324 0.450908 0.403095 0.431655 0.422324 0.450908 0
0.45378 0.485769 0.473017 0.504937 0.45378 0.485769 0.473017 0.504937 0
0.21571 0.233644 0.234702 0.252884 0.21571 0.233644 0.234702 0.252884 0
0.247547 0.267635 0.266959 0.287267 0.247547 0.267635 0.266959 0.287267 0
0.28322 0.305762 0.303002 0.32573 0.28322 0.305762 0.303002 0.32573 0
0.323257 0.348572 0.343343 0.368796 0.323257 0.348572 0.343343 0.368796 0
0.368224 0.396678 0.388525 0.417048 0.368224 0.396678 0.388525 0.417048 0
0.418784 0.450826 0.439172 0.47119 0.418784 0.450826 0.439172 0.47119 0
0.181667 0.199111 0.201439 0.219172 0.181667 0.199111 0.201439 0.219172 0
0.21267 0.232308 0.232936 0.252841 0.21267 0.232308 0.232936 0.252841 0
0.247585 0.269731 0.268302 0.290685 0.247585 0.269731 0.268302 0.290685 0
0.286966 0.311967 0.308077 0.333269 0.286966 0.311967 0.308077 0.333269 0
0.331436 0.359706 0.35285 0.381233 0.331436 0.359706 0.35285 0.381233 0
0.381725 0.413712 0.403311 0.435341 0.381725 0.413712 0.403311 0.435341 0
0.146272 0.163147 0.166822 0.184034 0.146272 0.163147 0.166822 0.184034 0
0.176302 0.195401 0.197428 0.216847 0.176302 0.195401 0.197428 0.216847 0
0.2103 0.231955 0.231971 0.25392 0.2103 0.231955 0.231971 0.25392 0
0.248856 0.273437 0.271021 0.295856 0.248856 0.273437 0.271021 0.295856 0
0.292643 0.320611 0.315224 0.343378 0.292643 0.320611 0.315224 0.343378 0
0.0841728 0.0984197 0.104819 0.119443 0.0841728 0.0984197 0.104819 0.119443 0
0.109556 0.125764 0.130863 0.147467 0.109556 0.125764 0.130863 0.147467 0
0.13844 0.156902 0.160427 0.179266 0.13844 0.156902 0.160427 0.179266 0
0.171348 0.192403 0.193982 0.215394 0.171348 0.192403 0.193982 0.215394 0
0.208888 0.232931 0.232128 0.256494 0.208888 0.232931 0.232128 0.256494 0
0.251781 0.279311 0.27556 0.303358 0.251781 0.279311 0.27556 0.303358 0
0.047441 0.0609469 0.0687377 0.0826821 0.047441 0.0609469 0.0687377 0.0826821 0
0.0715349 0.0869864 0.0935934 0.10949 0.0715349 0.0869864 0.0935934 0.10949 0
0.0991113 0.116824 0.12194 0.140096 0.0991113 0.116824 0.12194 0.140096 0
0.130732 0.151063 0.154324 0.175086 0.130732 0.151063 0.154324 0.175086 0
0.167043 0.190432 0.191367 0.215145 0.167043 0.190432 0.191367 0.215145 0
0.208819 0.235742 0.233811 0.261104 0.208819 0.235742 0.233811 0.261104 0
-0.0413668 -0.0331999 -0.021857 -0.0132701 -0.0413668 -0.0331999 -0.021857 -0.0132701 0
-0.026763 -0.0173278 -0.00651451 0.00337143 -0.026763 -0.0173278 -0.00651451 0.00337143 0
-0.0098789 0.00105695 0.0111596 0.0225717 -0.0098789 0.00105695 0.0111596 0.0225717 0
0.00967956 0.0223267 0.0315547 0.04471 0.00967956 0.0223267 0.0315547 0.04471 0
0.0322852 0.0468771 0.0550403 0.0701392 0.0322852 0.0468771 0.0550403 0.0701392 0
0.0583676 0.075208 0.0820046 0.0993614 0.0583676 0.075208 0.0820046 0.0993614 0
0.0884806 0.10795 0.113011 0.132993 0.0884806 0.10795 0.113011 0.132993 0
0.123319 0.145899 0.148727 0.17179 0.123319 0.145899 0.148727 0.17179 0
-0.0755261 -0.0681778 -0.0557943 -0.047962 -0.0755261 -0.0681778 -0.0557943 -0.047962 0
-0.0623573 -0.053786 -0.041778 -0.0326978 -0.0623573 -0.053786 -0.041778 -0.0326978 0
-0.0469867 -0.0369604 -0.0255163 -0.0149547 -0.0469867 -0.0369604 -0.0255163 -0.0149547 0
-0.0290181 -0.0173188 -0.00661338 0.00564051 -0.0290181 -0.0173188 -0.00661338 0.00564051 0
-0.00806513 0.00555006 0.015308 0.0294991 -0.00806513 0.00555006 0.015308 0.0294991 0
0.0163133 0.0321445 0.0406919 0.0571201 0.0163133 0.0321445 0.0406919 0.0571201 0
0.0446749 0.0631269 0.0700904 0.0891467 0.0446749 0.0631269 0.0700904 0.0891467 0
0.0777601 0.0993472 0.104218 0.126398 0.0777601 0.0993472 0.104218 0.126398 0
-0.109822 -0.103384 -0.0900498 -0.0830779 -0.109822 -0.103384 -0.0900498 -0.0830779 0
-0.0982556 -0.090662 -0.0775425 -0.0693724 -0.0982556 -0.090662 -0.0775425 -0.0693724 0
-0.0845963 -0.0755944 -0.0628746 -0.0532691 -0.0845963 -0.0755944 -0.0628746 -0.0532691 0
-0.0684174 -0.0577829 -0.0456414 -0.0343791 -0.0684174 -0.0577829 -0.0456414 -0.0343791 0
-0.0493144 -0.036778 -0.0254494 -0.0122809 -0.0493144 -0.036778 -0.0254494 -0.0122809 0
-0.026822 -0.0121161 -0.00185165 0.0135146 -0.026822 -0.0121161 -0.00185165 0.0135146 0
-0.000425948 0.0168571 0.0256993 0.0436725 -0.000425948 0.0168571 0.0256993 0.0436725 0
0.0306102 0.0509626 0.0579498 0.0790434 0.0306102 0.0509626 0.0579498 0.0790434 0
0 0 0 0 0 0 0 0 0
0 0 0 0 0 0 0 0 0
0 0 0 0 0 0 0 0 0
0 0 0 0 0 0 0 0 0
0 0 0 0 0 0 0 0 0
0 0 0 0 0 0 0 0 0
0 0 0 0 0 0 0 0 0
0 0 0 0 0 0 0 0 0
0 0 0 0 0 0 0 0 0
0 0 0 0 0 0 0 0 0
0 0 0 0 0 0 0 0 0
0 0 0 0 0 0 0 0 0
0 0 0 0 0 0 0 0 0
0 0 0 0 0 0 0 0 0
0 0 0 0 0 0 0 0 0
0 0 0 0 0 0 0 0 0
0 0 0 0 0 0 0 0 0
0 0 0 0 0 0 0 0 0
0 0 0 0 0 0 0 0 0
0 0 0 0 0 0 0 0 0
0 0 0 0 0 0 0 0 0
0 0 0 0 0 0 0 0 0
0 0 0 0 0 0 0 0 0
0 0 0 0 0 0 0 0 0
0 0 0 0 0 0 0 0 0
0 0 0 0 0 0 0 0 0
0 0 0 0 0 0 0 0 0
0 0 0 0 0 0 0 0 0
0 0 0 0 0 0 0 0 0
0 0 0 0 0 0 0 0 0
0 0 0 0 0 0 0 0 0
0 0 0 0 0 0 0 0 0
0 0 0 0 0 0 0 0 0
0 0 0 0 0 0 0 0 0
0 0 0 0 0 0 0 0 0
0 0 0 0 0 0 0 0 0
0 0 0 0 0 0 0 0 0
0 0 0 0 0 0 0 0 0
0 0 0 0 0 0 0 0 0
0 0 0 0 0 0 0 0 0
0 0 0 0 0 0 0 0 0
0 0 0 0 0 0 0 0 0
0 0 0 0 0 0 0 0 0
0 0 0 0 0 0 0 0 0
0 0 0 0 0 0 0 0 0
0 0 0 0 0 0 0 0 0
0 0 0 0 0 0 0 0 0
0 0 0 0 0 0 0 0 0
0 0 0 0 0 0 0 0 0
0 0 0 0 0 0 0 0 0
0 0 0 0 0 0 0 0 0
0 0 0 0 0 0 0 0 0
0 0 0 0 0 0 0 0 0
0 0 0 0 0 0 0 0 0
0 0 0 0 0 0 0 0 0
0 0 0 0 0 0 0 0 0
0 0 0 0 0 0 0 0 0
0 0 0 0 0 0 0 0 0
0 0 0 0 0 0 0 0 0
0 0 0 0 0 0 0 0 0
0 0 0 0 0 0 0 0 0
0 0 0 0 0 0 0 0 0
0 0 0 0 0 0 0 0 0
0 0 0 0 0 0 0 0 0
0 0 0 0 0 0 0 0 0
0 0 0 0 0 0 0 0 0
0 0 0 0 0 0 0 0 0
0 0 0 0 0 0 0 0 0
0 0 0 0 0 0 0 0 0
0 0 0 0 0 0 0 0 0
0 0 0 0 0 0 0 0 0
0 0 0 0 0 0 0 0 0
0 0 0 0 0 0 0 0 0
0 0 0 0 0 0 0 0 0
0 0 0 0 0 0 0 0 0
0 0 0 0 0 0 0 0 0
0 0 0 0 0 0 0 0 0
0 0 0 0 0 0 0 0 0
0 0 0 0 0 0 0 0 0
0 0 0 0 0 0 0 0 0
0 0 0 0 0 0 0 0 0
0 0 0 0 0 0 0 0 0
0 0 0 0 0 0 0 0 0
0 0 0 0 0 0 0 0 0
0 0 0 0 0 0 0 0 0
0 0 0 0 0 0 0 0 0
0 0 0 0 0 0 0 0 0
0 0 0 0 0 0 0 0 0
0 0 0 0 0 0 0 0 0
0 0 0 0 0 0 0 0 0
0 0 0 0 0 0 0 0 0
0 0 0 0 0 0 0 0 0
0 0 0 0 0 0 0 0 0
0 0 0 0 0 0 0 0 0
0 0 0 0 0 0 0 0 0
0 0 0 0 0 0 0 0 0
0 0 0 0 0 0 0 0 0
0 0 0 0 0 0 0 0 0
0 0 0 0 0 0 0 0 0
0 0 0 0 0 0 0 0 0
0 0 0 0 0 0 0 0 0
0 0 0 0 0 0 0 0 0
0 0 0 0 0 0 0 0 0
0 0 0 0 0 0 0 0 0
0 0 0 0 0 0 0 0 0
0 0 0 0 0 0 0 0 0
0 0 0 0 0 0 0 0 0
0 0 0 0 0 0 0 0 0
0 0 0 0 0 0 0 0 0
0 0 0 0 0 0 0 0 0
0 0 0 0 0 0 0 0 0
0 0 0 0 0 0 0 0 0
0 0 0 0 0 0 0 0 0
0 0 0 0 0 0 0 0 0
0 0 0 0 0 0 0 0 0
0 0 0 0 0 0 0 0 0
0 0 0 0 0 0 0 0 0
0 0 0 0 0 0 0 0 0
0 0 0 0 0 0 0 0 0
0 0 0 0 0 0 0 0 0
0 0 0 0 0 0 0 0 0
0 0 0 0 0 0 0 0 0
0 0 0 0 0 0 0 0 0
0 0 0 0 0 0 0 0 0
0 0 0 0 0 0 0 0 0
0 0 0 0 0 0 0 0 0
0 0 0 0 0 0 0 0 0
0 0 0 0 0 0 0 0 0
0 0 0 0 0 0 0 0 0
0 0 0 0 0 0 0 0 0
0 0 0 0 0 0 0 0 0
0 0 0 0 0 0 0 0 0
0 0 0 0 0 0 0 0 0
0 0 0 0 0 0 0 0 0
0 0 0 0 0 0 0 0 0
0 0 0 0 0 0 0 0 0
0 0 0 0 0 0 0 0 0
0 0 0 0 0 0 0 0 0
0 0 0 0 0 0 0 0 0
0 0 0 0 0 0 0 0 0
0 0 0 0 0 0 0 0 0
0 0 0 0 0 0 0 0 0
0 0 0 0 0 0 0 0 0
0 0 0 0 0 0 0 0 0
0 0 0 0 0 0 0 0 0
0 0 0 0 0 0 0 0 0
0 0 0 0 0 0 0 0 0
0 0 0 0 0 0 0 0 0
0 0 0 0 0 0 0 0 0
0 0 0 0 0 0 0 0 0
0 0 0 0 0 0 0 0 0
0 0 0 0 0 0 0 0 0
0 0 0 0 0 0 0 0 0
0 0 0 0 0 0 0 0 0
0 0 0 0 0 0 0 0 0
0 0 0 0 0 0 0 0 0
0 0 0 0 0 0 0 0 0
0 0 0 0 0 0 0 0 0
0 0 0 0 0 0 0 0 0
0 0 0 0 0 0 0 0 0
0 0 0 0 0 0 0 0 0
0 0 0 0 0 0 0 0 0
0 0 0 0 0 0 0 0 0
0 0 0 0 0 0 0 0 0
0 0 0 0 0 0 0 0 0
0 0 0 0 0 0 0 0 0
0 0 0 0 0 0 0 0 0
0 0 0 0 0 0 0 0 0
0 0 0 0 0 0 0 0 0
0 0 0 0 0 0 0 0 0
0 0 0 0 0 0 0 0 0
0 0 0 0 0 0 0 0 0
0 0 0 0 0 0 0 0 0
0 0 0 0 0 0 0 0 0
0 0 0 0 0 0 0 0 0
0 0 0 0 0 0 0 0 0
0 0 0 0 0 0 0 0 0
0 0 0 0 0 0 0 0 0
0 0 0 0 0 0 0 0 0
0 0 0 0 0 0 0 0 0
0 0 0 0 0 0 0 0 0
0 0 0 0 0 0 0 0 0
0 0 0 0 0 0 0 0 0
0 0 0 0 0 0 0 0 0
0 0 0 0 0 0 0 0 0
0 0 0 0 0 0 0 0 0
0 0 0 0 0 0 0 0 0
0 0 0 0 0 0 0 0 0
0 0 0 0 0 0 0 0 0
0 0 0 0 0 0 0 0 0
0 0 0 0 0 0 0 0 0
0 0 0 0 0 0 0 0 0
0 0 0 0 0 0 0 0 0
0 0 0 0 0 0 0 0 0
0 0 0 0 0 0 0 0 0
0 0 0 0 0 0 0 0 0
0 0 0 0 0 0 0 0 0
0 0 0 0 0 0 0 0 0
0 0 0 0 0 0 0 0 0
0 0 0 0 0 0 0 0 0
0 0 0 0 0 0 0 0 0
0 0 0 0 0 0 0 0 0
0 0 0 0 0 0 0 0 0
0 0 0 0 0 0 0 0 0
0 0 0 0 0 0 0 0 0
0 0 0 0 0 0 0 0 0
0 0 0 0 0 0 0 0 0
0 0 0 0 0 0 0 0 0
0 0 0 0 0 0 0 0 0
0 0 0 0 0 0 0 0 0
0 0 0 0 0 0 0 0 0
0 0 0 0 0 0 0 0 0
0 0 0 0 0 0 0 0 0
0 0 0 0 0 0 0 0 0
0 0 0 0 0 0 0 0 0
0 0 0 0 0 0 0 0 0
0 0 0 0 0 0 0 0 0
0 0 0 0 0 0 0 0 0
0 0 0 0 0 0 0 0 0
0 0 0 0 0 0 0 0 0
0 0 0 0 0 0 0 0 0
0 0 0 0 0 0 0 0 0
0 0 0 0 0 0 0 0 0
0 0 0 0 0 0 0 0 0
0 0 0 0 0 0 0 0 0
0 0 0 0 0 0 0 0 0
0 0 0 0 0 0 0 0 0
0 0 0 0 0 0 0 0 0
0 0 0 0 0 0 0 0 0
0 0 0 0 0 0 0 0 0
0 0 0 0 0 0 0 0 0
0 0 0 0 0 0 0 0 0
0 0 0 0 0 0 0 0 0
0 0 0 0 0 0 0 0 0
0 0 0 0 0 0 0 0 0
0 0 0 0 0 0 0 0 0
0 0 0 0 0 0 0 0 0
0 0 0 0 0 0 0 0 0
0 0 0 0 0 0 0 0 0
0 0 0 0 0 0 0 0 0
0 0 0 0 0 0 0 0 0
0 0 0 0 0 0 0 0 0
0 0 0 0 0 0 0 0 0
0 0 0 0 0 0 0 0 0
0 0 0 0 0 0 0 0 0
0 0 0 0 0 0 0 0 0
0 0 0 0 0 0 0 0 0
0 0 0 0 0 0 0 0 0
0 0 0 0 0 0 0 0 0
0 0 0 0 0 0 0 0 0
0 0 0 0 0 0 0 0 0
0 0 0 0 0 0 0 0 0
0 0 0 0 0 0 0 0 0
0 0 0 0 0 0 0 0 0
0 0 0 0 0 0 0 0 0
0 0 0 0 0 0 0 0 0
0 0 0 0 0 0 0 0 0
0 0 0 0 0 0 0 0 0
0 0 0 0 0 0 0 0 0
0 0 0 0 0 0 0 0 0
0 0 0 0 0 0 0 0 0
0 0 0 0 0 0 0 0 0
0 0 0 0 0 0 0 0 0
0 0 0 0 0 0 0 0 0
0 0 0 0 0 0 0 0 0
0 0 0 0 0 0 0 0 0
0 0 0 0 0 0 0 0 0
0 0 0 0 0 0 0 0 0
0 0 0 0 0 0 0 0 0
0 0 0 0 0 0 0 0 0
0 0 0 0 0 0 0 0 0
0 0 0 0 0 0 0 0 0
0 0 0 0 0 0 0 0 0
0 0 0 0 0 0 0 0 0
0 0 0 0 0 0 0 0 0
0 0 0 0 0 0 0 0 0
0 0 0 0 0 0 0 0 0
0 0 0 0 0 0 0 0 0
0 0 0 0 0 0 0 0 0
0 0 0 0 0 0 0 0 0
0 0 0 0 0 0 0 0 0
0 0 0 0 0 0 0 0 0
0 0 0 0 0 0 0 0 0
0 0 0 0 0 0 0 0 0
0 0 0 0 0 0 0 0 0
0 0 0 0 0 0 0 0 0
0 0 0 0 0 0 0 0 0
0 0 0 0 0 0 0 0 0
0 0 0 0 0 0 0 0 0
0 0 0 0 0 0 0 0 0
0 0 0 0 0 0 0 0 0
0 0 0 0 0 0 0 0 0
0 0 0 0 0 0 0 0 0
0 0 0 0 0 0 0 0 0
0 0 0 0 0 0 0 0 0
0 0 0 0 0 0 0 0 0
0 0 0 0 0 0 0 0 0
0 0 0 0 0 0 0 0 0
0 0 0 0 0 0 0 0 0
0 0 0 0 0 0 0 0 0
0 0 0 0 0 0 0 0 0
0 0 0 0 0 0 0 0 0
0 0 0 0 0 0 0 0 0
0 0 0 0 0 0 0 0 0
0 0 0 0 0 0 0 0 0
0 0 0 0 0 0 0 0 0
0 0 0 0 0 0 0 0 0
0 0 0 0 0 0 0 0 0
0 0 0 0 0 0 0 0 0
0 0 0 0 0 0 0 0 0
0 0 0 0 0 0 0 0 0
0 0 0 0 0 0 0 0 0
0 0 0 0 0 0 0 0 0
0 0 0 0 0 0 0 0 0
0 0 0 0 0 0 0 0 0
0 0 0 0 0 0 0 0 0
0 0 0 0 0 0 0 0 0
0 0 0 0 0 0 0 0 0
0 0 0 0 0 0 0 0 0
0 0 0 0 0 0 0 0 0
0 0 0 0 0 0 0 0 0
0 0 0 0 0 0 0 0 0
0 0 0 0 0 0 0 0 0
0 0 0 0 0 0 0 0 0
0 0 0 0 0 0 0 0 0
0 0 0 0 0 0 0 0 0
0 0 0 0 0 0 0 0 0
0 0 0 0 0 0 0 0 0
0 0 0 0 0 0 0 0 0
0 0 0 0 0 0 0 0 0
0 0 0 0 0 0 0 0 0
0 0 0 0 0 0 0 0 0
0 0 0 0 0 0 0 0 0
0 0 0 0 0 0 0 0 0
0 0 0 0 0 0 0 0 0
0 0 0 0 0 0 0 0 0
0 0 0 0 0 0 0 0 0
0 0 0 0 0 0 0 0 0
0 0 0 0 0 0 0 0 0
0 0 0 0 0 0 0 0 0
0 0 0 0 0 0 0 0 0
0 0 0 0 0 0 0 0 0
0 0 0 0 0 0 0 0 0
0 0 0 0 0 0 0 0 0
0 0 0 0 0 0 0 0 0
0 0 0 0 0 0 0 0 0
0 0 0 0 0 0 0 0 0
0 0 0 0 0 0 0 0 0
0 0 0 0 0 0 0 0 0
0 0 0 0 0 0 0 0 0
0 0 0 0 0 0 0 0 0
0 0 0 0 0 0 0 0 0
0 0 0 0 0 0 0 0 0
0 0 0 0 0 0 0 0 0
0 0 0 0 0 0 0 0 0
0 0 0 0 0 0 0 0 0
0 0 0 0 0 0 0 0 0
0 0 0 0 0 0 0 0 0
0 0 0 0 0 0 0 0 0
0 0 0 0 0 0 0 0 0
0 0 0 0 0 0 0 0 0
0 0 0 0 0 0 0 0 0
0 0 0 0 0 0 0 0 0
0 0 0 0 0 0 0 0 0
0 0 0 0 0 0 0 0 0
0 0 0 0 0 0 0 0 0
0 0 0 0 0 0 0 0 0
0 0 0 0 0 0 0 0 0
0 0 0 0 0 0 0 0 0
0 0 0 0 0 0 0 0 0
0 0 0 0 0 0 0 0 0
0 0 0 0 0 0 0 0 0
0 0 0 0 0 0 0 0 0
0 0 0 0 0 0 0 0 0
0 0 0 0 0 0 0 0 0
0 0 0 0 0 0 0 0 0
0 0 0 0 0 0 0 0 0
0 0 0 0 0 0 0 0 0
0 0 0 0 0 0 0 0 0
0 0 0 0 0 0 0 0 0
0 0 0 0 0 0 0 0 0
0 0 0 0 0 0 0 0 0
0 0 0 0 0 0 0 0 0
0 0 0 0 0 0 0 0 0
0 0 0 0 0 0 0 0 0
0 0 0 0 0 0 0 0 0
0 0 0 0 0 0 0 0 0
0 0 0 0 0 0 0 0 0
0 0 0 0 0 0 0 0 0
0 0 0 0 0 0 0 0 0
0 0 0 0 0 0 0 0 0
0 0 0 0 0 0 0 0 0
0 0 0 0 0 0 0 0 0
0 0 0 0 0 0 0 0 0
0 0 0 0 0 0 0 0 0
0 0 0 0 0 0 0 0 0
0 0 0 0 0 0 0 0 0
0 0 0 0 0 0 0 0 0
0 0 0 0 0 0 0 0 0
0 0 0 0 0 0 0 0 0
0 0 0 0 0 0 0 0 0
0 0 0 0 0 0 0 0 0
0 0 0 0 0 0 0 0 0
0 0 0 0 0 0 0 0 0
0 0 0 0 0 0 0 0 0
0 0 0 0 0 0 0 0 0
0 0 0 0 0 0 0 0 0
0 0 0 0 0 0 0 0 0
0 0 0 0 0 0 0 0 0
0 0 0 0 0 0 0 0 0
0 0 0 0 0 0 0 0 0
0 0 0 0 0 0 0 0 0
0 0 0 0 0 0 0 0 0
0 0 0 0 0 0 0 0 0
0 0 0 0 0 0 0 0 0
0 0 0 0 0 0 0 0 0
0 0 0 0 0 0 0 0 0
0 0 0 0 0 0 0 0 0
0 0 0 0 0 0 0 0 0
0 0 0 0 0 0 0 0 0
0 0 0 0 0 0 0 0 0
0 0 0 0 0 0 0 0 0
0 0 0 0 0 0 0 0 0
0 0 0 0 0 0 0 0 0
0 0 0 0 0 0 0 0 0
0 0 0 0 0 0 0 0 0
0 0 0 0 0 0 0 0 0
0 0 0 0 0 0 0 0 0
0 0 0 0 0 0 0 0 0
0 0 0 0 0 0 0 0 0
0 0 0 0 0 0 0 0 0
0 0 0 0 0 0 0 0 0
0 0 0 0 0 0 0 0 0
0 0 0 0 0 0 0 0 0
0 0 0 0 0 0 0 0 0
0 0 0 0 0 0 0 0 0
0 0 0 0 0 0 0 0 0
0 0 0 0 0 0 0 0 0
0 0 0 0 0 0 0 0 0
0 0 0 0 0 0 0 0 0
0 0 0 0 0 0 0 0 0
0 0 0 0 0 0 0 0 0
0 0 0 0 0 0 0 0 0
0 0 0 0 0 0 0 0 0
0 0 0 0 0 0 0 0 0
0 0 0 0 0 0 0 0 0
0 0 0 0 0 0 0 0 0
0 0 0 0 0 0 0 0 0
0 0 0 0 0 0 0 0 0
0 0 0 0 0 0 0 0 0
0 0 0 0 0 0 0 0 0
0 0 0 0 0 0 0 0 0
0 0 0 0 0 0 0 0 0
0 0 0 0 0 0 0 0 0
0 0 0 0 0 0 0 0 0
0 0 0 0 0 0 0 0 0
0 0 0 0 0 0 0 0 0
0 0 0 0 0 0 0 0 0
0 0 0 0 0 0 0 0 0
0 0 0 0 0 0 0 0 0
0 0 0 0 0 0 0 0 0
0 0 0 0 0 0 0 0 0
0 0 0 0 0 0 0 0 0
0 0 0 0 0 0 0 0 0
0 0 0 0 0 0 0 0 0
0 0 0 0 0 0 0 0 0
0 0 0 0 0 0 0 0 0
0 0 0 0 0 0 0 0 0
0 0 0 0 0 0 0 0 0
0 0 0 0 0 0 0 0 0
0 0 0 0 0 0 0 0 0
0 0 0 0 0 0 0 0 0
0 0 0 0 0 0 0 0 0
0 0 0 0 0 0 0 0 0
0 0 0 0 0 0 0 0 0
0 0 0 0 0 0 0 0 0
0 0 0 0 0 0 0 0 0
0 0 0 0 0 0 0 0 0
0 0 0 0 0 0 0 0 0
0 0 0 0 0 0 0 0 0
0 0 0 0 0 0 0 0 0
0 0 0 0 0 0 0 0 0
0 0 0 0 0 0 0 0 0
0 0 0 0 0 0 0 0 0
0 0 0 0 0 0 0 0 0
0 0 0 0 0 0 0 0 0
0 0 0 0 0 0 0 0 0
0 0 0 0 0 0 0 0 0
0 0 0 0 0 0 0 0 0
0 0 0 0 0 0 0 0 0
0 0 0 0 0 0 0 0 0
0 0 0 0 0 0 0 0 0
0 0 0 0 0 0 0 0 0
0 0 0 0 0 0 0 0 0
0 0 0 0 0 0 0 0 0
0 0 0 0 0 0 0 0 0
0 0 0 0 0 0 0 0 0
0 0 0 0 0 0 0 0 0
0 0 0 0 0 0 0 0 0
0 0 0 0 0 0 0 0 0
0 0 0 0 0 0 0 0 0
0 0 0 0 0 0 0 0 0
0 0 0 0 0 0 0 0 0
0 0 0 0 0 0 0 0 0
0 0 0 0 0 0 0 0 0
0 0 0 0 0 0 0 0 0
0 0 0 0 0 0 0 0 0
0 0 0 0 0 0 0 0 0
0 0 0 0 0 0 0 0 0
0 0 0 0 0 0 0 0 0
0 0 0 0 0 0 0 0 0
0 0 0 0 0 0 0 0 0
0 0 0 0 0 0 0 0 0
0 0 0 0 0 0 0 0 0
0 0 0 0 0 0 0 0 0
0 0 0 0 0 0 0 0 0
0 0 0 0 0 0 0 0 0
0 0 0 0 0 0 0 0 0
0 0 0 0 0 0 0 0 0
0 0 0 0 0 0 0 0 0
0 0 0 0 0 0 0 0 0
0 0 0 0 0 0 0 0 0
0 0 0 0 0 0 0 0 0
0 0 0 0 0 0 0 0 0
0 0 0 0 0 0 0 0 0
0 0 0 0 0 0 0 0 0
0 0 0 0 0 0 0 0 0
0 0 0 0 0 0 0 0 0
0 0 0 0 0 0 0 0 0
0 0 0 0 0 0 0 0 0
0 0 0 0 0 0 0 0 0
0 0 0 0 0 0 0 0 0
0 0 0 0 0 0 0 0 0
0 0 0 0 0 0 0 0 0
0 0 0 0 0 0 0 0 0
0 0 0 0 0 0 0 0 0
0 0 0 0 0 0 0 0 0
0 0 0 0 0 0 0 0 0
0 0 0 0 0 0 0 0 0
0 0 0 0 0 0 0 0 0
0 0 0 0 0 0 0 0 0
0 0 0 0 0 0 0 0 0
0 0 0 0 0 0 0 0 0
0 0 0 0 0 0 0 0 0
0 0 0 0 0 0 0 0 0
0 0 0 0 0 0 0 0 0
0 0 0 0 0 0 0 0 0
0 0 0 0 0 0 0 0 0
0 0 0 0 0 0 0 0 0
0 0 0 0 0 0 0 0 0
0 0 0 0 0 0 0 0 0
0 0 0 0 0 0 0 0 0
0 0 0 0 0 0 0 0 0
0 0 0 0 0 0 0 0 0
0 0 0 0 0 0 0 0 0
0 0 0 0 0 0 0 0 0
0 0 0 0 0 0 0 0 0
0 0 0 0 0 0 0 0 0
0 0 0 0 0 0 0 0 0
0 0 0 0 0 0 0 0 0
0 0 0 0 0 0 0 0 0
0 0 0 0 0 0 0 0 0
0 0 0 0 0 0 0 0 0
0 0 0 0 0 0 0 0 0
0 0 0 0 0 0 0 0 0
0 0 0 0 0 0 0 0 0
0 0 0 0 0 0 0 0 0
0 0 0 0 0 0 0 0 0
0 0 0 0 0 0 0 0 0
0 0 0 0 0 0 0 0 0
0 0 0 0 0 0 0 0 0
0 0 0 0 0 0 0 0 0
0 0 0 0 0 0 0 0 0
0 0 0 0 0 0 0 0 0
0 0 0 0 0 0 0 0 0
0 0 0 0 0 0 0 0 0
0 0 0 0 0 0 0 0 0
0 0 0 0 0 0 0 0 0
0 0 0 0 0 0 0 0 0
0 0 0 0 0 0 0 0 0
0 0 0 0 0 0 0 0 0
0 0 0 0 0 0 0 0 0
0 0 0 0 0 0 0 0 0
0 0 0 0 0 0 0 0 0
0 0 0 0 0 0 0 0 0
0 0 0 0 0 0 0 0 0
0 0 0 0 0 0 0 0 0
0 0 0 0 0 0 0 0 0
0 0 0 0 0 0 0 0 0
0 0 0 0 0 0 0 0 0
0 0 0 0 0 0 0 0 0
0 0 0 0 0 0 0 0 0
0 0 0 0 0 0 0 0 0
0 0 0 0 0 0 0 0 0
0 0 0 0 0 0 0 0 0
0 0 0 0 0 0 0 0 0
0 0 0 0 0 0 0 0 0
0 0 0 0 0 0 0 0 0
0 0 0 0 0 0 0 0 0
0 0 0 0 0 0 0 0 0
0 0 0 0 0 0 0 0 0
0 0 0 0 0 0 0 0 0
0 0 0 0 0 0 0 0 0
0 0 0 0 0 0 0 0 0
0 0 0 0 0 0 0 0 0
0 0 0 0 0 0 0 0 0
0 0 0 0 0 0 0 0 0
0 0 0 0 0 0 0 0 0
0 0 0 0 0 0 0 0 0
0 0 0 0 0 0 0 0 0
0 0 0 0 0 0 0 0 0
0 0 0 0 0 0 0 0 0
0 0 0 0 0 0 0 0 0
0 0 0 0 0 0 0 0 0
0 0 0 0 0 0 0 0 0
0 0 0 0 0 0 0 0 0
0 0 0 0 0 0 0 0 0
0 0 0 0 0 0 0 0 0
0 0 0 0 0 0 0 0 0
0 0 0 0 0 0 0 0 0
0 0 0 0 0 0 0 0 0
0 0 0 0 0 0 0 0 0
0 0 0 0 0 0 0 0 0
0 0 0 0 0 0 0 0 0
0 0 0 0 0 0 0 0 0
0 0 0 0 0 0 0 0 0
0 0 0 0 0 0 0 0 0
0 0 0 0 0 0 0 0 0
0 0 0 0 0 0 0 0 0
0 0 0 0 0 0 0 0 0
0 0 0 0 0 0 0 0 0
0 0 0 0 0 0 0 0 0
0 0 0 0 0 0 0 0 0
0 0 0 0 0 0 0 0 0
0 0 0 0 0 0 0 0 0
0 0 0 0 0 0 0 0 0
0 0 0 0 0 0 0 0 0
0 0 0 0 0 0 0 0 0
0 0 0 0 0 0 0 0 0
0 0 0 0 0 0 0 0 0
0 0 0 0 0 0 0 0 0
0 0 0 0 0 0 0 0 0
0 0 0 0 0 0 0 0 0
0 0 0 0 0 0 0 0 0
0 0 0 0 0 0 0 0 0
0 0 0 0 0 0 0 0 0
0 0 0 0 0 0 0 0 0
0 0 0 0 0 0 0 0 0
0 0 0 0 0 0 0 0 0
0 0 0 0 0 0 0 0 0
0 0 0 0 0 0 0 0 0
0 0 0 0 0 0 0 0 0
0 0 0 0 0 0 0 0 0
0 0 0 0 0 0 0 0 0
0 0 0 0 0 0 0 0 0
0 0 0 0 0 0 0 0 0
0 0 0 0 0 0 0 0 0
0 0 0 0 0 0 0 0 0
0 0 0 0 0 0 0 0 0
0 0 0 0 0 0 0 0 0
0 0 0 0 0 0 0 0 0
0 0 0 0 0 0 0 0 0
0 0 0 0 0 0 0 0 0
0 0 0 0 0 0 0 0 0
0 0 0 0 0 0 0 0 0
0 0 0 0 0 0 0 0 0
0 0 0 0 0 0 0 0 0
0 0 0 0 0 0 0 0 0
0 0 0 0 0 0 0 0 0
0 0 0 0 0 0 0 0 0
0 0 0 0 0 0 0 0 0
0 0 0 0 0 0 0 0 0
0 0 0 0 0 0 0 0 0
0 0 0 0 0 0 0 0 0
0 0 0 0 0 0 0 0 0
0 0 0 0 0 0 0 0 0
0 0 0 0 0 0 0 0 0
0 0 0 0 0 0 0 0 0
0 0 0 0 0 0 0 0 0
0 0 0 0 0 0 0 0 0
0 0 0 0 0 0 0 0 0
0 0 0 0 0 0 0 0 0
0 0 0 0 0 0 0 0 0
0 0 0 0 0 0 0 0 0
0 0 0 0 0 0 0 0 0
0 0 0 0 0 0 0 0 0
0 0 0 0 0 0 0 0 0
0 0 0 0 0 0 0 0 0
0 0 0 0 0 0 0 0 0
0 0 0 0 0 0 0 0 0
0 0 0 0 0 0 0 0 0
0 0 0 0 0 0 0 0 0
0 0 0 0 0 0 0 0 0
0 0 0 0 0 0 0 0 0
0 0 0 0 0 0 0 0 0
0 0 0 0 0 0 0 0 0
0 0 0 0 0 0 0 0 0
0 0 0 0 0 0 0 0 0
0 0 0 0 0 0 0 0 0
0 0 0 0 0 0 0 0 0
0 0 0 0 0 0 0 0 0
0 0 0 0 0 0 0 0 0
0 0 0 0 0 0 0 0 0
0 0 0 0 0 0 0 0 0
0 0 0 0 0 0 0 0 0
0 0 0 0 0 0 0 0 0
0 0 0 0 0 0 0 0 0
0 0 0 0 0 0 0 0 0
0 0 0 0 0 0 0 0 0
0 0 0 0 0 0 0 0 0
0 0 0 0 0 0 0 0 0
0 0 0 0 0 0 0 0 0
0 0 0 0 0 0 0 0 0
0 0 0 0 0 0 0 0 0
0 0 0 0 0 0 0 0 0
0 0 0 0 0 0 0 0 0
0 0 0 0 0 0 0 0 0
0 0 0 0 0 0 0 0 0
0 0 0 0 0 0 0 0 0
0 0 0 0 0 0 0 0 0
0 0 0 0 0 0 0 0 0
0 0 0 0 0 0 0 0 0
0 0 0 0 0 0 0 0 0
0 0 0 0 0 0 0 0 0
0 0 0 0 0 0 0 0 0
0 0 0 0 0 0 0 0 0
0 0 0 0 0 0 0 0 0
0 0 0 0 0 0 0 0 0
0 0 0 0 0 0 0 0 0
0 0 0 0 0 0 0 0 0
0 0 0 0 0 0 0 0 0
0 0 0 0 0 0 0 0 0
0 0 0 0 0 0 0 0 0
0 0 0 0 0 0 0 0 0
0 0 0 0 0 0 0 0 0
0 0 0 0 0 0 0 0 0
0 0 0 0 0 0 0 0 0
0 0 0 0 0 0 0 0 0
0 0 0 0 0 0 0 0 0
0 0 0 0 0 0 0 0 0
0 0 0 0 0 0 0 0 0
0 0 0 0 0 0 0 0 0
0 0 0 0 0 0 0 0 0
0 0 0 0 0 0 0 0 0
0 0 0 0 0 0 0 0 0
0 0 0 0 0 0 0 0 0
0 0 0 0 0 0 0 0 0
0 0 0 0 0 0 0 0 0
0 0 0 0 0 0 0 0 0
0 0 0 0 0 0 0 0 0
0 0 0 0 0 0 0 0 0
0 0 0 0 0 0 0 0 0
0 0 0 0 0 0 0 0 0
0 0 0 0 0 0 0 0 0
0 0 0 0 0 0 0 0 0
0 0 0 0 0 0 0 0 0
0.564745 0.597007 0.595119 0.627476 0.564745 0.597007 0.595119 0.627476 0
0.621745 0.657118 0.652295 0.687794 0.621745 0.657118 0.652295 0.687794 0
0.510032 0.541973 0.541862 0.574009 0.510032 0.541973 0.541862 0.574009 0
0.566564 0.601857 0.598684 0.633998 0.566564 0.601857 0.598684 0.633998 0
0.628963 0.667791 0.661121 0.699974 0.628963 0.667791 0.661121 0.699974 0
0.697584 0.740239 0.729755 0.772352 0.697584 0.740239 0.729755 0.772352 0
0.772912 0.819636 0.804947 0.851515 0.772912 0.819636 0.804947 0.851515 0
0.855366 0.90641 0.887088 0.937853 0.855366 0.90641 0.887088 0.937853 0
0.945391 1.00104 0.976572 1.03178 0.945391 1.00104 0.976572 1.03178 0
1.04344 1.10388 1.07377 1.13352 1.04344 1.10388 1.07377 1.13352 0
1.14977 1.21499 1.17882 1.24313 1.14977 1.21499 1.17882 1.24313 0
0.508729 0.543772 0.542367 0.577583 0.508729 0.543772 0.542367 0.577583 0
0.57073 0.609403 0.604642 0.643418 0.57073 0.609403 0.604642 0.643418 0
0.639142 0.681806 0.673198 0.715867 0.639142 0.681806 0.673198 0.715867 0
0.714565 0.761513 0.748582 0.795404 0.714565 0.761513 0.748582 0.795404 0
0.797508 0.849045 0.831246 0.882493 0.797508 0.849045 0.831246 0.882493 0
0.888499 0.944944 0.92167 0.977644 0.888499 0.944944 0.92167 0.977644 0
0.988074 1.0497 1.02035 1.0813 0.988074 1.0497 1.02035 1.0813 0
0.448189 0.482831 0.483396 0.51828 0.448189 0.482831 0.483396 0.51828 0
0.509542 0.547943 0.545142 0.583711 0.509542 0.547943 0.545142 0.583711 0
0.577547 0.620112 0.613401 0.656033 0.577547 0.620112 0.613401 0.656033 0
0.652884 0.699965 0.688805 0.735819 0.652884 0.699965 0.688805 0.735819 0
0.736162 0.788119 0.771906 0.82363 0.736162 0.788119 0.771906 0.82363 0
0.828017 0.885247 0.863277 0.920053 0.828017 0.885247 0.863277 0.920053 0
0.929077 0.991829 0.963484 1.02559 0.929077 0.991829 0.963484 1.02559 0
0.384882 0.418992 0.42169 0.456119 0.384882 0.418992 0.42169 0.456119 0
0.445361 0.483361 0.482696 0.52094 0.445361 0.483361 0.482696 0.52094 0
0.512737 0.555077 0.550457 0.59294 0.512737 0.555077 0.550457 0.59294 0
0.58777 0.63486 0.625688 0.672785 0.58777 0.63486 0.625688 0.672785 0
0.671173 0.723436 0.709041 0.761139 0.671173 0.723436 0.709041 0.761139 0
0.763694 0.821598 0.801199 0.858727 0.763694 0.821598 0.801199 0.858727 0
0.318768 0.352196 0.357198 0.391034 0.318768 0.352196 0.357198 0.391034 0
0.378115 0.415564 0.417225 0.455007 0.378115 0.415564 0.417225 0.455007 0
0.4446 0.486564 0.484251 0.526447 0.4446 0.486564 0.484251 0.526447 0
0.519068 0.566016 0.559072 0.606118 0.519068 0.566016 0.559072 0.606118 0
0.602338 0.654764 0.642447 0.694793 0.602338 0.654764 0.642447 0.694793 0
0.695281 0.753729 0.735172 0.793318 0.695281 0.753729 0.735172 0.793318 0
0.249825 0.282403 0.289888 0.322974 0.249825 0.282403 0.289888 0.322974 0
0.307746 0.344471 0.348662 0.385823 0.307746 0.344471 0.348662 0.385823 0
0.373039 0.414446 0.414675 0.456422 0.373039 0.414446 0.414675 0.456422 0
0.446629 0.493254 0.488804 0.535635 0.446629 0.493254 0.488804 0.535635 0
0.529458 0.581884 0.571921 0.624364 0.529458 0.581884 0.571921 0.624364 0
0.622539 0.68136 0.664953 0.723577 0.622539 0.68136 0.664953 0.723577 0
0.178054 0.209594 0.219746 0.251905 0.178054 0.209594 0.219746 0.251905 0
0.23422 0.270024 0.276959 0.313316 0.23422 0.270024 0.276959 0.313316 0
0.297975 0.338617 0.341639 0.382744 0.297975 0.338617 0.341639 0.382744 0
0.370322 0.416407 0.414742 0.461162 0.370322 0.416407 0.414742 0.461162 0
0.452333 0.504536 0.497268 0.549624 0.452333 0.504536 0.497268 0.549624 0
0.0562957 0.0827416 0.098307 0.125494 0.0562957 0.0827416 0.098307 0.125494 0
0.103491 0.133785 0.146787 0.177822 0.103491 0.133785 0.146787 0.177822 0
0.157537 0.192199 0.202095 0.23744 0.157537 0.192199 0.202095 0.23744 0
0.219363 0.258999 0.265076 0.305319 0.219363 0.258999 0.265076 0.305319 0
0.290043 0.33533 0.336765 0.382541 0.290043 0.33533 0.336765 0.382541 0
0.370783 0.422488 0.418289 0.470312 0.370783 0.422488 0.418289 0.470312 0
-0.0184458 0.00651898 0.0249019 0.0507469 -0.0184458 0.00651898 0.0249019 0.0507469 0
0.0261947 0.0550395 0.0710588 0.100761 0.0261947 0.0550395 0.0710588 0.100761 0
0.0777505 0.111022 0.12409 0.158191 0.0777505 0.111022 0.12409 0.158191 0
0.137207 0.175559 0.184962 0.224085 0.137207 0.175559 0.184962 0.224085 0
0.205732 0.249921 0.254785 0.299641 0.205732 0.249921 0.254785 0.299641 0
0.284671 0.335555 0.334822 0.386216 0.284671 0.335555 0.334822 0.386216 0
-0.188035 -0.17344 -0.148229 -0.132766 -0.188035 -0.17344 -0.148229 -0.132766 0
-0.161856 -0.144774 -0.120524 -0.102513 -0.161856 -0.144774 -0.120524 -0.102513 0
-0.131222 -0.111242 -0.0882694 -0.0673307 -0.131222 -0.111242 -0.0882694 -0.0673307 0
-0.0954149 -0.0721094 -0.0507965 -0.0265177 -0.0954149 -0.0721094 -0.0507965 -0.0265177 0
-0.0536595 -0.0265024 -0.00734532 0.0208118 -0.0536595 -0.0265024 -0.00734532 0.0208118 0
-0.00501986 0.0265848 0.0430238 0.0756203 -0.00501986 0.0265848 0.0430238 0.0756203 0
0.0515749 0.0883316 0.101324 0.139036 0.0515749 0.0883316 0.101324 0.139036 0
0.117392 0.160136 0.168765 0.212382 0.117392 0.160136 0.168765 0.212382 0
-0.257752 -0.244794 -0.217467 -0.203548 -0.257752 -0.244794 -0.217467 -0.203548 0
-0.234449 -0.219112 -0.192476 -0.176116 -0.234449 -0.219112 -0.192476 -0.176116 0
-0.206872 -0.188728 -0.163105 -0.143879 -0.206872 -0.188728 -0.163105 -0.143879 0
-0.17427 -0.152865 -0.128613 -0.106083 -0.17427 -0.152865 -0.128613 -0.106083 0
-0.135827 -0.110621 -0.0882097 -0.0618493 -0.135827 -0.110621 -0.0882097 -0.0618493 0
-0.0905736 -0.0609363 -0.0409514 -0.0101459 -0.0905736 -0.0609363 -0.0409514 -0.0101459 0
-0.0373785 -0.0025659 0.0142647 0.050238 -0.0373785 -0.0025659 0.0142647 0.050238 0
0.0251021 0.0659881 0.0787412 0.120747 0.0251021 0.0659881 0.0787412 0.120747 0
-0.327813 -0.316654 -0.287404 -0.275191 -0.327813 -0.316654 -0.287404 -0.275191 0
-0.307684 -0.294301 -0.265414 -0.250879 -0.307684 -0.294301 -0.265414 -0.250879 0
-0.283534 -0.267459 -0.239245 -0.221951 -0.283534 -0.267459 -0.239245 -0.221951 0
-0.25454 -0.235268 -0.208126 -0.187601 -0.25454 -0.235268 -0.208126 -0.187601 0
-0.219833 -0.196873 -0.17122 -0.146931 -0.219833 -0.196873 -0.17122 -0.146931 0
-0.178488 -0.151145 -0.127562 -0.0988592 -0.178488 -0.151145 -0.127562 -0.0988592 0
-0.129277 -0.0967832 -0.0759876 -0.0421142 -0.129277 -0.0967832 -0.0759876 -0.0421142 0
-0.0708157 -0.0322546 -0.0151305 0.0248255 -0.0708157 -0.0322546 -0.0151305 0.0248255 0
0 0 0 0 0 0 0 0 0
0 0 0 0 0 0 0 0 0
0 0 0 0 0 0 0 0 0
0 0 0 0 0 0 0 0 0
0 0 0 0 0 0 0 0 0
0 0 0 0 0 0 0 0 0
0 0 0 0 0 0 0 0 0
0 0 0 0 0 0 0 0 0
0 0 0 0 0 0 0 0 0
0 0 0 0 0 0 0 0 0
0 0 0 0 0 0 0 0 0
0 0 0 0 0 0 0 0 0
0 0 0 0 0 0 0 0 0
0 0 0 0 0 0 0 0 0
0 0 0 0 0 0 0 0 0
0 0 0 0 0 0 0 0 0
0 0 0 0 0 0 0 0 0
0 0 0 0 0 0 0 0 0
0 0 0 0 0 0 0 0 0
0 0 0 0 0 0 0 0 0
0 0 0 0 0 0 0 0 0
0 0 0 0 0 0 0 0 0
0 0 0 0 0 0 0 0 0
0 0 0 0 0 0 0 0 0
0 0 0 0 0 0 0 0 0
0 0 0 0 0 0 0 0 0
0 0 0 0 0 0 0 0 0
0 0 0 0 0 0 0 0 0
0 0 0 0 0 0 0 0 0
0 0 0 0 0 0 0 0 0
0 0 0 0 0 0 0 0 0
0 0 0 0 0 0 0 0 0
0 0 0 0 0 0 0 0 0
0 0 0 0 0 0 0 0 0
0 0 0 0 0 0 0 0 0
0 0 0 0 0 0 0 0 0
0 0 0 0 0 0 0 0 0
0 0 0 0 0 0 0 0 0
0 0 0 0 0 0 0 0 0
0 0 0 0 0 0 0 0 0
0 0 0 0 0 0 0 0 0
0 0 0 0 0 0 0 0 0
0 0 0 0 0 0 0 0 0
0 0 0 0 0 0 0 0 0
0 0 0 0 0 0 0 0 0
0 0 0 0 0 0 0 0 0
0 0 0 0 0 0 0 0 0
0 0 0 0 0 0 0 0 0
0 0 0 0 0 0 0 0 0
0 0 0 0 0 0 0 0 0
0 0 0 0 0 0 0 0 0
0 0 0 0 0 0 0 0 0
0 0 0 0 0 0 0 0 0
0 0 0 0 0 0 0 0 0
0 0 0 0 0 0 0 0 0
0 0 0 0 0 0 0 0 0
0 0 0 0 0 0 0 0 0
0 0 0 0 0 0 0 0 0
0 0 0 0 0 0 0 0 0
0 0 0 0 0 0 0 0 0
0 0 0 0 0 0 0 0 0
0 0 0 0 0 0 0 0 0
0 0 0 0 0 0 0 0 0
0 0 0 0 0 0 0 0 0
0 0 0 0 0 0 0 0 0
0 0 0 0 0 0 0 0 0
0 0 0 0 0 0 0 0 0
0 0 0 0 0 0 0 0 0
0 0 0 0 0 0 0 0 0
0 0 0 0 0 0 0 0 0
0 0 0 0 0 0 0 0 0
0 0 0 0 0 0 0 0 0
0 0 0 0 0 0 0 0 0
0 0 0 0 0 0 0 0 0
0 0 0 0 0 0 0 0 0
0 0 0 0 0 0 0 0 0
0 0 0 0 0 0 0 0 0
0 0 0 0 0 0 0 0 0
0 0 0 0 0 0 0 0 0
0 0 0 0 0 0 0 0 0
0 0 0 0 0 0 0 0 0
0 0 0 0 0 0 0 0 0
0 0 0 0 0 0 0 0 0
0 0 0 0 0 0 0 0 0
0 0 0 0 0 0 0 0 0
0 0 0 0 0 0 0 0 0
0 0 0 0 0 0 0 0 0
0 0 0 0 0 0 0 0 0
0 0 0 0 0 0 0 0 0
0 0 0 0 0 0 0 0 0
0 0 0 0 0 0 0 0 0
0 0 0 0 0 0 0 0 0
0 0 0 0 0 0 0 0 0
0 0 0 0 0 0 0 0 0
0 0 0 0 0 0 0 0 0
0 0 0 0 0 0 0 0 0
0 0 0 0 0 0 0 0 0
0 0 0 0 0 0 0 0 0
0 0 0 0 0 0 0 0 0
0 0 0 0 0 0 0 0 0
0 0 0 0 0 0 0 0 0
0 0 0 0 0 0 0 0 0
0 0 0 0 0 0 0 0 0
0 0 0 0 0 0 0 0 0
0 0 0 0 0 0 0 0 0
0 0 0 0 0 0 0 0 0
0 0 0 0 0 0 0 0 0
0 0 0 0 0 0 0 0 0
0 0 0 0 0 0 0 0 0
0 0 0 0 0 0 0 0 0
0 0 0 0 0 0 0 0 0
0 0 0 0 0 0 0 0 0
0 0 0 0 0 0 0 0 0
0 0 0 0 0 0 0 0 0
0 0 0 0 0 0 0 0 0
0 0 0 0 0 0 0 0 0
0 0 0 0 0 0 0 0 0
0 0 0 0 0 0 0 0 0
0 0 0 0 0 0 0 0 0
0 0 0 0 0 0 0 0 0
0 0 0 0 0 0 0 0 0
0 0 0 0 0 0 0 0 0
0 0 0 0 0 0 0 0 0
0 0 0 0 0 0 0 0 0
0 0 0 0 0 0 0 0 0
0 0 0 0 0 0 0 0 0
0 0 0 0 0 0 0 0 0
0 0 0 0 0 0 0 0 0
0 0 0 0 0 0 0 0 0
0 0 0 0 0 0 0 0 0
0 0 0 0 0 0 0 0 0
0 0 0 0 0 0 0 0 0
0 0 0 0 0 0 0 0 0
0 0 0 0 0 0 0 0 0
0 0 0 0 0 0 0 0 0
0 0 0 0 0 0 0 0 0
0 0 0 0 0 0 0 0 0
0 0 0 0 0 0 0 0 0
0 0 0 0 0 0 0 0 0
0 0 0 0 0 0 0 0 0
0 0 0 0 0 0 0 0 0
0 0 0 0 0 0 0 0 0
0 0 0 0 0 0 0 0 0
0 0 0 0 0 0 0 0 0
0 0 0 0 0 0 0 0 0
0 0 0 0 0 0 0 0 0
0 0 0 0 0 0 0 0 0
0 0 0 0 0 0 0 0 0
0 0 0 0 0 0 0 0 0
0 0 0 0 0 0 0 0 0
0 0 0 0 0 0 0 0 0
0 0 0 0 0 0 0 0 0
0 0 0 0 0 0 0 0 0
0 0 0 0 0 0 0 0 0
0 0 0 0 0 0 0 0 0
0 0 0 0 0 0 0 0 0
0 0 0 0 0 0 0 0 0
0 0 0 0 0 0 0 0 0
0 0 0 0 0 0 0 0 0
0 0 0 0 0 0 0 0 0
0 0 0 0 0 0 0 0 0
0 0 0 0 0 0 0 0 0
0 0 0 0 0 0 0 0 0
0 0 0 0 0 0 0 0 0
0 0 0 0 0 0 0 0 0
0 0 0 0 0 0 0 0 0
0 0 0 0 0 0 0 0 0
0 0 0 0 0 0 0 0 0
0 0 0 0 0 0 0 0 0
0 0 0 0 0 0 0 0 0
0 0 0 0 0 0 0 0 0
0 0 0 0 0 0 0 0 0
0 0 0 0 0 0 0 0 0
0 0 0 0 0 0 0 0 0
0 0 0 0 0 0 0 0 0
0 0 0 0 0 0 0 0 0
0 0 0 0 0 0 0 0 0
0 0 0 0 0 0 0 0 0
0 0 0 0 0 0 0 0 0
0 0 0 0 0 0 0 0 0
0 0 0 0 0 0 0 0 0
0 0 0 0 0 0 0 0 0
0 0 0 0 0 0 0 0 0
0 0 0 0 0 0 0 0 0
0 0 0 0 0 0 0 0 0
0 0 0 0 0 0 0 0 0
0 0 0 0 0 0 0 0 0
0 0 0 0 0 0 0 0 0
0 0 0 0 0 0 0 0 0
0 0 0 0 0 0 0 0 0
0 0 0 0 0 0 0 0 0
0 0 0 0 0 0 0 0 0
0 0 0 0 0 0 0 0 0
0 0 0 0 0 0 0 0 0
0 0 0 0 0 0 0 0 0
0 0 0 0 0 0 0 0 0
0 0 0 0 0 0 0 0 0
0 0 0 0 0 0 0 0 0
0 0 0 0 0 0 0 0 0
0 0 0 0 0 0 0 0 0
0 0 0 0 0 0 0 0 0
0 0 0 0 0 0 0 0 0
0 0 0 0 0 0 0 0 0
0 0 0 0 0 0 0 0 0
0 0 0 0 0 0 0 0 0
0 0 0 0 0 0 0 0 0
0 0 0 0 0 0 0 0 0
0 0 0 0 0 0 0 0 0
0 0 0 0 0 0 0 0 0
0 0 0 0 0 0 0 0 0
0 0 0 0 0 0 0 0 0
0 0 0 0 0 0 0 0 0
0 0 0 0 0 0 0 0 0
0 0 0 0 0 0 0 0 0
0 0 0 0 0 0 0 0 0
0 0 0 0 0 0 0 0 0
0 0 0 0 0 0 0 0 0
0 0 0 0 0 0 0 0 0
0 0 0 0 0 0 0 0 0
0 0 0 0 0 0 0 0 0
0 0 0 0 0 0 0 0 0
0 0 0 0 0 0 0 0 0
0 0 0 0 0 0 0 0 0
0 0 0 0 0 0 0 0 0
0 0 0 0 0 0 0 0 0
0 0 0 0 0 0 0 0 0
0 0 0 0 0 0 0 0 0
0 0 0 0 0 0 0 0 0
0 0 0 0 0 0 0 0 0
0 0 0 0 0 0 0 0 0
0 0 0 0 0 0 0 0 0
0 0 0 0 0 0 0 0 0
0 0 0 0 0 0 0 0 0
0 0 0 0 0 0 0 0 0
0 0 0 0 0 0 0 0 0
0 0 0 0 0 0 0 0 0
0 0 0 0 0 0 0 0 0
0 0 0 0 0 0 0 0 0
0 0 0 0 0 0 0 0 0
0 0 0 0 0 0 0 0 0
0 0 0 0 0 0 0 0 0
0 0 0 0 0 0 0 0 0
0 0 0 0 0 0 0 0 0
0 0 0 0 0 0 0 0 0
0 0 0 0 0 0 0 0 0
0 0 0 0 0 0 0 0 0
0 0 0 0 0 0 0 0 0
0 0 0 0 0 0 0 0 0
0 0 0 0 0 0 0 0 0
0 0 0 0 0 0 0 0 0
0 0 0 0 0 0 0 0 0
0 0 0 0 0 0 0 0 0
0 0 0 0 0 0 0 0 0
0 0 0 0 0 0 0 0 0
0 0 0 0 0 0 0 0 0
0 0 0 0 0 0 0 0 0
0 0 0 0 0 0 0 0 0
0 0 0 0 0 0 0 0 0
0 0 0 0 0 0 0 0 0
0 0 0 0 0 0 0 0 0
0 0 0 0 0 0 0 0 0
0 0 0 0 0 0 0 0 0
0 0 0 0 0 0 0 0 0
0 0 0 0 0 0 0 0 0
0 0 0 0 0 0 0 0 0
0 0 0 0 0 0 0 0 0
0 0 0 0 0 0 0 0 0
0 0 0 0 0 0 0 0 0
0 0 0 0 0 0 0 0 0
0 0 0 0 0 0 0 0 0
0 0 0 0 0 0 0 0 0
0 0 0 0 0 0 0 0 0
0 0 0 0 0 0 0 0 0
0 0 0 0 0 0 0 0 0
0 0 0 0 0 0 0 0 0
0 0 0 0 0 0 0 0 0
0 0 0 0 0 0 0 0 0
0 0 0 0 0 0 0 0 0
0 0 0 0 0 0 0 0 0
0 0 0 0 0 0 0 0 0
0 0 0 0 0 0 0 0 0
0 0 0 0 0 0 0 0 0
0 0 0 0 0 0 0 0 0
0 0 0 0 0 0 0 0 0
0 0 0 0 0 0 0 0 0
0 0 0 0 0 0 0 0 0
0 0 0 0 0 0 0 0 0
0 0 0 0 0 0 0 0 0
0 0 0 0 0 0 0 0 0
0 0 0 0 0 0 0 0 0
0 0 0 0 0 0 0 0 0
0 0 0 0 0 0 0 0 0
0 0 0 0 0 0 0 0 0
0 0 0 0 0 0 0 0 0
0 0 0 0 0 0 0 0 0
0 0 0 0 0 0 0 0 0
0 0 0 0 0 0 0 0 0
0 0 0 0 0 0 0 0 0
0 0 0 0 0 0 0 0 0
0 0 0 0 0 0 0 0 0
0 0 0 0 0 0 0 0 0
0 0 0 0 0 0 0 0 0
0 0 0 0 0 0 0 0 0
0 0 0 0 0 0 0 0 0
0 0 0 0 0 0 0 0 0
0 0 0 0 0 0 0 0 0
0 0 0 0 0 0 0 0 0
0 0 0 0 0 0 0 0 0
0 0 0 0 0 0 0 0 0
0 0 0 0 0 0 0 0 0
0 0 0 0 0 0 0 0 0
0 0 0 0 0 0 0 0 0
0 0 0 0 0 0 0 0 0
0 0 0 0 0 0 0 0 0
0 0 0 0 0 0 0 0 0
0 0 0 0 0 0 0 0 0
0 0 0 0 0 0 0 0 0
0 0 0 0 0 0 0 0 0
0 0 0 0 0 0 0 0 0
0 0 0 0 0 0 0 0 0
0 0 0 0 0 0 0 0 0
0 0 0 0 0 0 0 0 0
0 0 0 0 0 0 0 0 0
0 0 0 0 0 0 0 0 0
0 0 0 0 0 0 0 0 0
0 0 0 0 0 0 0 0 0
0 0 0 0 0 0 0 0 0
0 0 0 0 0 0 0 0 0
0 0 0 0 0 0 0 0 0
0 0 0 0 0 0 0 0 0
0 0 0 0 0 0 0 0 0
0 0 0 0 0 0 0 0 0
0 0 0 0 0 0 0 0 0
0 0 0 0 0 0 0 0 0
0 0 0 0 0 0 0 0 0
0 0 0 0 0 0 0 0 0
0 0 0 0 0 0 0 0 0
0 0 0 0 0 0 0 0 0
0 0 0 0 0 0 0 0 0
0 0 0 0 0 0 0 0 0
0 0 0 0 0 0 0 0 0
0 0 0 0 0 0 0 0 0
0 0 0 0 0 0 0 0 0
0 0 0 0 0 0 0 0 0
0 0 0 0 0 0 0 0 0
0 0 0 0 0 0 0 0 0
0 0 0 0 0 0 0 0 0
0 0 0 0 0 0 0 0 0
0 0 0 0 0 0 0 0 0
0 0 0 0 0 0 0 0 0
0 0 0 0 0 0 0 0 0
0 0 0 0 0 0 0 0 0
0 0 0 0 0 0 0 0 0
0 0 0 0 0 0 0 0 0
0 0 0 0 0 0 0 0 0
0 0 0 0 0 0 0 0 0
0 0 0 0 0 0 0 0 0
0 0 0 0 0 0 0 0 0
0 0 0 0 0 0 0 0 0
0 0 0 0 0 0 0 0 0
0 0 0 0 0 0 0 0 0
0 0 0 0 0 0 0 0 0
0 0 0 0 0 0 0 0 0
0 0 0 0 0 0 0 0 0
0 0 0 0 0 0 0 0 0
0 0 0 0 0 0 0 0 0
0 0 0 0 0 0 0 0 0
0 0 0 0 0 0 0 0 0
0 0 0 0 0 0 0 0 0
0 0 0 0 0 0 0 0 0
0 0 0 0 0 0 0 0 0
0 0 0 0 0 0 0 0 0
0 0 0 0 0 0 0 0 0
0 0 0 0 0 0 0 0 0
0 0 0 0 0 0 0 0 0
0 0 0 0 0 0 0 0 0
0 0 0 0 0 0 0 0 0
0 0 0 0 0 0 0 0 0
0 0 0 0 0 0 0 0 0
0 0 0 0 0 0 0 0 0
0 0 0 0 0 0 0 0 0
0 0 0 0 0 0 0 0 0
0 0 0 0 0 0 0 0 0
0 0 0 0 0 0 0 0 0
0 0 0 0 0 0 0 0 0
0 0 0 0 0 0 0 0 0
0 0 0 0 0 0 0 0 0
0 0 0 0 0 0 0 0 0
0 0 0 0 0 0 0 0 0
0 0 0 0 0 0 0 0 0
0 0 0 0 0 0 0 0 0
0 0 0 0 0 0 0 0 0
0 0 0 0 0 0 0 0 0
0 0 0 0 0 0 0 0 0
0 0 0 0 0 0 0 0 0
0 0 0 0 0 0 0 0 0
0 0 0 0 0 0 0 0 0
0 0 0 0 0 0 0 0 0
0 0 0 0 0 0 0 0 0
0 0 0 0 0 0 0 0 0
0 0 0 0 0 0 0 0 0
0 0 0 0 0 0 0 0 0
0 0 0 0 0 0 0 0 0
0 0 0 0 0 0 0 0 0
0 0 0 0 0 0 0 0 0
0 0 0 0 0 0 0 0 0
0 0 0 0 0 0 0 0 0
0 0 0 0 0 0 0 0 0
0 0 0 0 0 0 0 0 0
0 0 0 0 0 0 0 0 0
0 0 0 0 0 0 0 0 0
0 0 0 0 0 0 0 0 0
0 0 0 0 0 0 0 0 0
0 0 0 0 0 0 0 0 0
0 0 0 0 0 0 0 0 0
0 0 0 0 0 0 0 0 0
0 0 0 0 0 0 0 0 0
0 0 0 0 0 0 0 0 0
0 0 0 0 0 0 0 0 0
0 0 0 0 0 0 0 0 0
0 0 0 0 0 0 0 0 0
0 0 0 0 0 0 0 0 0
0 0 0 0 0 0 0 0 0
0 0 0 0 0 0 0 0 0
0 0 0 0 0 0 0 0 0
0 0 0 0 0 0 0 0 0
0 0 0 0 0 0 0 0 0
0 0 0 0 0 0 0 0 0
0 0 0 0 0 0 0 0 0
0 0 0 0 0 0 0 0 0
0 0 0 0 0 0 0 0 0
0 0 0 0 0 0 0 0 0
0 0 0 0 0 0 0 0 0
0 0 0 0 0 0 0 0 0
0 0 0 0 0 0 0 0 0
0 0 0 0 0 0 0 0 0
0 0 0 0 0 0 0 0 0
0 0 0 0 0 0 0 0 0
0 0 0 0 0 0 0 0 0
0 0 0 0 0 0 0 0 0
0 0 0 0 0 0 0 0 0
0 0 0 0 0 0 0 0 0
0 0 0 0 0 0 0 0 0
0 0 0 0 0 0 0 0 0
0 0 0 0 0 0 0 0 0
0 0 0 0 0 0 0 0 0
0 0 0 0 0 0 0 0 0
0 0 0 0 0 0 0 0 0
0 0 0 0 0 0 0 0 0
0 0 0 0 0 0 0 0 0
0 0 0 0 0 0 0 0 0
0 0 0 0 0 0 0 0 0
0 0 0 0 0 0 0 0 0
0 0 0 0 0 0 0 0 0
0 0 0 0 0 0 0 0 0
0 0 0 0 0 0 0 0 0
0 0 0 0 0 0 0 0 0
0 0 0 0 0 0 0 0 0
0 0 0 0 0 0 0 0 0
0 0 0 0 0 0 0 0 0
0 0 0 0 0 0 0 0 0
0 0 0 0 0 0 0 0 0
0 0 0 0 0 0 0 0 0
0 0 0 0 0 0 0 0 0
0 0 0 0 0 0 0 0 0
0 0 0 0 0 0 0 0 0
0 0 0 0 0 0 0 0 0
0 0 0 0 0 0 0 0 0
0 0 0 0 0 0 0 0 0
0 0 0 0 0 0 0 0 0
0 0 0 0 0 0 0 0 0
0 0 0 0 0 0 0 0 0
0 0 0 0 0 0 0 0 0
0 0 0 0 0 0 0 0 0
0 0 0 0 0 0 0 0 0
0 0 0 0 0 0 0 0 0
0 0 0 0 0 0 0 0 0
0 0 0 0 0 0 0 0 0
0 0 0 0 0 0 0 0 0
0 0 0 0 0 0 0 0 0
0 0 0 0 0 0 0 0 0
0 0 0 0 0 0 0 0 0
0 0 0 0 0 0 0 0 0
0 0 0 0 0 0 0 0 0
0 0 0 0 0 0 0 0 0
0 0 0 0 0 0 0 0 0
0 0 0 0 0 0 0 0 0
0 0 0 0 0 0 0 0 0
0 0 0 0 0 0 0 0 0
0 0 0 0 0 0 0 0 0
0 0 0 0 0 0 0 0 0
0 0 0 0 0 0 0 0 0
0 0 0 0 0 0 0 0 0
0 0 0 0 0 0 0 0 0
0 0 0 0 0 0 0 0 0
0 0 0 0 0 0 0 0 0
0 0 0 0 0 0 0 0 0
0 0 0 0 0 0 0 0 0
0 0 0 0 0 0 0 0 0
0 0 0 0 0 0 0 0 0
0 0 0 0 0 0 0 0 0
0 0 0 0 0 0 0 0 0
0 0 0 0 0 0 0 0 0
0 0 0 0 0 0 0 0 0
0 0 0 0 0 0 0 0 0
0 0 0 0 0 0 0 0 0
0 0 0 0 0 0 0 0 0
0 0 0 0 0 0 0 0 0
0 0 0 0 0 0 0 0 0
0 0 0 0 0 0 0 0 0
0 0 0 0 0 0 0 0 0
0 0 0 0 0 0 0 0 0
0 0 0 0 0 0 0 0 0
0 0 0 0 0 0 0 0 0
0 0 0 0 0 0 0 0 0
0 0 0 0 0 0 0 0 0
0 0 0 0 0 0 0 0 0
0 0 0 0 0 0 0 0 0
0 0 0 0 0 0 0 0 0
0 0 0 0 0 0 0 0 0
0 0 0 0 0 0 0 0 0
0 0 0 0 0 0 0 0 0
0 0 0 0 0 0 0 0 0
0 0 0 0 0 0 0 0 0
0 0 0 0 0 0 0 0 0
0 0 0 0 0 0 0 0 0
0 0 0 0 0 0 0 0 0
0 0 0 0 0 0 0 0 0
0 0 0 0 0 0 0 0 0
0 0 0 0 0 0 0 0 0
0 0 0 0 0 0 0 0 0
0 0 0 0 0 0 0 0 0
0 0 0 0 0 0 0 0 0
0 0 0 0 0 0 0 0 0
0 0 0 0 0 0 0 0 0
0 0 0 0 0 0 0 0 0
0 0 0 0 0 0 0 0 0
0 0 0 0 0 0 0 0 0
0 0 0 0 0 0 0 0 0
0 0 0 0 0 0 0 0 0
0 0 0 0 0 0 0 0 0
0 0 0 0 0 0 0 0 0
0 0 0 0 0 0 0 0 0
0 0 0 0 0 0 0 0 0
0 0 0 0 0 0 0 0 0
0 0 0 0 0 0 0 0 0
0 0 0 0 0 0 0 0 0
0 0 0 0 0 0 0 0 0
0 0 0 0 0 0 0 0 0
0 0 0 0 0 0 0 0 0
0 0 0 0 0 0 0 0 0
0 0 0 0 0 0 0 0 0
0 0 0 0 0 0 0 0 0
0 0 0 0 0 0 0 0 0
0 0 0 0 0 0 0 0 0
0 0 0 0 0 0 0 0 0
0 0 0 0 0 0 0 0 0
0 0 0 0 0 0 0 0 0
0 0 0 0 0 0 0 0 0
0 0 0 0 0 0 0 0 0
0 0 0 0 0 0 0 0 0
0 0 0 0 0 0 0 0 0
0 0 0 0 0 0 0 0 0
0 0 0 0 0 0 0 0 0
0 0 0 0 0 0 0 0 0
0 0 0 0 0 0 0 0 0
0 0 0 0 0 0 0 0 0
0 0 0 0 0 0 0 0 0
0 0 0 0 0 0 0 0 0
0 0 0 0 0 0 0 0 0
0 0 0 0 0 0 0 0 0
0 0 0 0 0 0 0 0 0
0 0 0 0 0 0 0 0 0
0 0 0 0 0 0 0 0 0
0 0 0 0 0 0 0 0 0
0 0 0 0 0 0 0 0 0
0 0 0 0 0 0 0 0 0
0 0 0 0 0 0 0 0 0
0 0 0 0 0 0 0 0 0
0 0 0 0 0 0 0 0 0
0 0 0 0 0 0 0 0 0
0 0 0 0 0 0 0 0 0
0 0 0 0 0 0 0 0 0
0 0 0 0 0 0 0 0 0
0 0 0 0 0 0 0 0 0
0 0 0 0 0 0 0 0 0
0 0 0 0 0 0 0 0 0
0 0 0 0 0 0 0 0 0
0.333246 0.350671 0.348192 0.365682 0.333246 0.350671 0.348192 0.365682 0
0.364029 0.383127 0.379108 0.398325 0.364029 0.383127 0.379108 0.398325 0
0.306353 0.323522 0.321989 0.339326 0.306353 0.323522 0.321989 0.339326 0
0.336754 0.35576 0.352631 0.371671 0.336754 0.35576 0.352631 0.371671 0
0.370352 0.391247 0.386303 0.407275 0.370352 0.391247 0.386303 0.407275 0
0.407296 0.430294 0.423365 0.446398 0.407296 0.430294 0.423365 0.446398 0
0.447962 0.473296 0.46408 0.489416 0.447962 0.473296 0.46408 0.489416 0
0.492738 0.520598 0.508836 0.536634 0.492738 0.520598 0.508836 0.536634 0
0.541947 0.572517 0.55792 0.588377 0.541947 0.572517 0.55792 0.588377 0
0.595956 0.629553 0.611687 0.645041 0.595956 0.629553 0.611687 0.645041 0
0.655284 0.692149 0.670563 0.707097 0.655284 0.692149 0.670563 0.707097 0
0.308252 0.327062 0.324811 0.343754 0.308252 0.327062 0.324811 0.343754 0
0.341522 0.362254 0.358298 0.379127 0.341522 0.362254 0.358298 0.379127 0
0.378209 0.401116 0.395138 0.4181 0.378209 0.401116 0.395138 0.4181 0
0.418743 0.444057 0.435753 0.461079 0.418743 0.444057 0.435753 0.461079 0
0.463519 0.491454 0.480531 0.508426 0.463519 0.491454 0.480531 0.508426 0
0.512911 0.543699 0.529821 0.560477 0.512911 0.543699 0.529821 0.560477 0
0.56736 0.601344 0.58401 0.617774 0.56736 0.601344 0.58401 0.617774 0
0.278478 0.297015 0.295784 0.314482 0.278478 0.297015 0.295784 0.314482 0
0.311299 0.331821 0.328871 0.349519 0.311299 0.331821 0.328871 0.349519 0
0.347648 0.370413 0.365423 0.388275 0.347648 0.370413 0.365423 0.388275 0
0.387965 0.413214 0.405874 0.431165 0.387965 0.413214 0.405874 0.431165 0
0.432667 0.460645 0.450626 0.478582 0.432667 0.460645 0.450626 0.478582 0
0.482198 0.513205 0.500081 0.530961 0.482198 0.513205 0.500081 0.530961 0
0.537063 0.571365 0.554709 0.588835 0.537063 0.571365 0.554709 0.588835 0
0.247377 0.26559 0.265451 0.283856 0.247377 0.26559 0.265451 0.283856 0
0.279658 0.299915 0.298052 0.318467 0.279658 0.299915 0.298052 0.318467 0
0.315572 0.338138 0.334227 0.356913 0.315572 0.338138 0.334227 0.356913 0
0.355573 0.380703 0.37442 0.399623 0.355573 0.380703 0.37442 0.399623 0
0.400109 0.428077 0.41906 0.44704 0.400109 0.428077 0.41906 0.44704 0
0.449681 0.480834 0.46862 0.499698 0.449681 0.480834 0.46862 0.499698 0
0.214918 0.23275 0.233778 0.251836 0.214918 0.23275 0.233778 0.251836 0
0.246558 0.266483 0.265798 0.285921 0.246558 0.266483 0.265798 0.285921 0
0.281922 0.304222 0.30149 0.32395 0.281922 0.304222 0.30149 0.32395 0
0.321493 0.346441 0.341321 0.36638 0.321493 0.346441 0.341321 0.36638 0
0.365754 0.39365 0.385752 0.413695 0.365754 0.39365 0.385752 0.413695 0
0.415253 0.446475 0.435304 0.466493 0.415253 0.446475 0.435304 0.466493 0
0.181081 0.198464 0.200737 0.218386 0.181081 0.198464 0.200737 0.218386 0
0.211959 0.23148 0.232067 0.251829 0.211959 0.23148 0.232067 0.251829 0
0.246644 0.2686 0.267157 0.289319 0.246644 0.2686 0.267157 0.289319 0
0.285652 0.310342 0.306503 0.331349 0.285652 0.310342 0.306503 0.331349 0
0.329514 0.357281 0.350608 0.378454 0.329514 0.357281 0.350608 0.378454 0
0.37883 0.410034 0.40004 0.431263 0.37883 0.410034 0.40004 0.431263 0
0.145854 0.162711 0.166313 0.183481 0.145854 0.162711 0.166313 0.183481 0
0.175833 0.194862 0.196824 0.216146 0.175833 0.194862 0.196824 0.216146 0
0.209688 0.231211 0.231174 0.252955 0.209688 0.231211 0.231174 0.252955 0
0.247976 0.272315 0.269893 0.294444 0.247976 0.272315 0.269893 0.294444 0
0.291277 0.318818 0.313536 0.341218 0.291277 0.318818 0.313536 0.341218 0
0.0839042 0.0981445 0.104512 0.119102 0.0839042 0.0981445 0.104512 0.119102 0
0.109279 0.125488 0.130507 0.147104 0.109279 0.125488 0.130507 0.147104 0
0.138156 0.156597 0.160043 0.178833 0.138156 0.156597 0.160043 0.178833 0
0.171011 0.191999 0.193493 0.214801 0.171011 0.191999 0.193493 0.214801 0
0.208401 0.232283 0.23142 0.255577 0.208401 0.232283 0.23142 0.255577 0
0.250952 0.278146 0.274424 0.301832 0.250952 0.278146 0.274424 0.301832 0
0.0471683 0.060691 0.0684783 0.0824295 0.0471683 0.060691 0.0684783 0.0824295 0
0.0712966 0.0867791 0.0933475 0.109254 0.0712966 0.0867791 0.0933475 0.109254 0
0.098925 0.116664 0.121708 0.139864 0.098925 0.116664 0.121708 0.139864 0
0.130582 0.150914 0.154077 0.174801 0.130582 0.150914 0.154077 0.174801 0
0.166872 0.190195 0.191023 0.214679 0.166872 0.190195 0.191023 0.214679 0
0.208479 0.235182 0.233195 0.260198 0.208479 0.235182 0.233195 0.260198 0
-0.0417624 -0.0335766 -0.0221203 -0.0135117 -0.0417624 -0.0335766 -0.0221203 -0.0135117 0
-0.0271408 -0.0177274 -0.00676118 0.00308917 -0.0271408 -0.0177274 -0.00676118 0.00308917 0
-0.0102863 0.000650156 0.0108596 0.0222585 -0.0102863 0.000650156 0.0108596 0.0222585 0
0.00928621 0.0219693 0.0312458 0.0444257 0.00928621 0.0219693 0.0312458 0.0444257 0
0.0319627 0.0466136 0.0547811 0.069924 0.0319627 0.0466136 0.0547811 0.069924 0
0.0581522 0.0750646 0.0818222 0.0992247 0.0581522 0.0750646 0.0818222 0.0992247 0
0.0883877 0.107923 0.112902 0.132913 0.0883877 0.107923 0.112902 0.132913 0
0.123327 0.145934 0.148648 0.171687 0.123327 0.145934 0.148648 0.171687 0
-0.076286 -0.0689029 -0.0563233 -0.0484686 -0.076286 -0.0689029 -0.0563233 -0.0484686 0
-0.0630734 -0.0545121 -0.0422819 -0.0332167 -0.0630734 -0.0545121 -0.0422819 -0.0332167 0
-0.0477124 -0.0376746 -0.0260382 -0.0154694 -0.0477124 -0.0376746 -0.0260382 -0.0154694 0
-0.0297098 -0.0179603 -0.00710979 0.00518694 -0.0297098 -0.0179603 -0.00710979 0.00518694 0
-0.00865804 0.0050399 0.0148956 0.0291561 -0.00865804 0.0050399 0.0148956 0.0291561 0
0.0158748 0.031819 0.0404072 0.0569255 0.0158748 0.031819 0.0404072 0.0569255 0
0.0444374 0.0630172 0.0699624 0.0891108 0.0444374 0.0630172 0.0699624 0.0891108 0
0.0777415 0.0994499 0.104241 0.126488 0.0777415 0.0994499 0.104241 0.126488 0
-0.11126 -0.104757 -0.0910539 -0.0840356 -0.11126 -0.104757 -0.0910539 -0.0840356 0
-0.0995925 -0.0919674 -0.0784824 -0.0703098 -0.0995925 -0.0919674 -0.0784824 -0.0703098 0
-0.0858831 -0.0768617 -0.0638059 -0.0541858 -0.0858831 -0.0768617 -0.0638059 -0.0541858 0
-0.0696546 -0.0589566 -0.0465324 -0.0352144 -0.0696546 -0.0589566 -0.0465324 -0.0352144 0
-0.050431 -0.0378014 -0.0262318 -0.0129743 -0.050431 -0.0378014 -0.0262318 -0.0129743 0
-0.0277685 -0.0129451 -0.0024685 0.013018 -0.0277685 -0.0129451 -0.0024685 0.013018 0
-0.00115237 0.0162936 0.0253004 0.0434203 -0.00115237 0.0162936 0.0253004 0.0434203 0
0.0301887 0.0507667 0.0578111 0.0790683 0.0301887 0.0507667 0.0578111 0.0790683 0
0 0 0 0 0 0 0 0 0
0 0 0 0 0 0 0 0 0
0 0 0 0 0 0 0 0 0
0 0 0 0 0 0 0 0 0
0 0 0 0 0 0 0 0 0
0 0 0 0 0 0 0 0 0
0 0 0 0 0 0 0 0 0
0 0 0 0 0 0 0 0 0
0 0 0 0 0 0 0 0 0
0 0 0 0 0 0 0 0 0
0 0 0 0 0 0 0 0 0
0 0 0 0 0 0 0 0 0
0 0 0 0 0 0 0 0 0
0 0 0 0 0 0 0 0 0
0 0 0 0 0 0 0 0 0
0 0 0 0 0 0 0 0 0
0 0 0 0 0 0 0 0 0
0 0 0 0 0 0 0 0 0
0 0 0 0 0 0 0 0 0
0 0 0 0 0 0 0 0 0
0 0 0 0 0 0 0 0 0
0 0 0 0 0 0 0 0 0
0 0 0 0 0 0 0 0 0
0 0 0 0 0 0 0 0 0
0 0 0 0 0 0 0 0 0
0 0 0 0 0 0 0 0 0
0 0 0 0 0 0 0 0 0
0 0 0 0 0 0 0 0 0
0 0 0 0 0 0 0 0 0
0 0 0 0 0 0 0 0 0
0 0 0 0 0 0 0 0 0
0 0 0 0 0 0 0 0 0
0 0 0 0 0 0 0 0 0
0 0 0 0 0 0 0 0 0
0 0 0 0 0 0 0 0 0
0 0 0 0 0 0 0 0 0
0 0 0 0 0 0 0 0 0
0 0 0 0 0 0 0 0 0
0 0 0 0 0 0 0 0 0
0 0 0 0 0 0 0 0 0
0 0 0 0 0 0 0 0 0
0 0 0 0 0 0 0 0 0
0 0 0 0 0 0 0 0 0
0 0 0 0 0 0 0 0 0
0 0 0 0 0 0 0 0 0
0 0 0 0 0 0 0 0 0
0 0 0 0 0 0 0 0 0
0 0 0 0 0 0 0 0 0
0 0 0 0 0 0 0 0 0
0 0 0 0 0 0 0 0 0
0 0 0 0 0 0 0 0 0
0 0 0 0 0 0 0 0 0
0 0 0 0 0 0 0 0 0
0 0 0 0 0 0 0 0 0
0 0 0 0 0 0 0 0 0
0 0 0 0 0 0 0 0 0
0 0 0 0 0 0 0 0 0
0 0 0 0 0 0 0 0 0
0 0 0 0 0 0 0 0 0
0 0 0 0 0 0 0 0 0
0 0 0 0 0 0 0 0 0
0 0 0 0 0 0 0 0 0
0 0 0 0 0 0 0 0 0
0 0 0 0 0 0 0 0 0
0 0 0 0 0 0 0 0 0
0 0 0 0 0 0 0 0 0
0 0 0 0 0 0 0 0 0
0 0 0 0 0 0 0 0 0
0 0 0 0 0 0 0 0 0
0 0 0 0 0 0 0 0 0
0 0 0 0 0 0 0 0 0
0 0 0 0 0 0 0 0 0
0 0 0 0 0 0 0 0 0
0 0 0 0 0 0 0 0 0
0 0 0 0 0 0 0 0 0
0 0 0 0 0 0 0 0 0
0 0 0 0 0 0 0 0 0
0 0 0 0 0 0 0 0 0
0 0 0 0 0 0 0 0 0
0 0 0 0 0 0 0 0 0
0 0 0 0 0 0 0 0 0
0 0 0 0 0 0 0 0 0
0 0 0 0 0 0 0 0 0
0 0 0 0 0 0 0 0 0
0.202353 0.213918 0.217546 0.229075 0.202353 0.213918 0.217546 0.229075 0
0.222738 0.235295 0.237844 0.250297 0.222738 0.235295 0.237844 0.250297 0
0.174863 0.186541 0.190872 0.202474 0.174863 0.186541 0.190872 0.202474 0
0.195457 0.208166 0.211333 0.223956 0.195457 0.208166 0.211333 0.223956 0
0.217863 0.231683 0.233568 0.247239 0.217863 0.231683 0.233568 0.247239 0
0.242175 0.257064 0.257604 0.272299 0.242175 0.257064 0.257604 0.272299 0
0.268307 0.284192 0.283378 0.299015 0.268307 0.284192 0.283378 0.299015 0
0.296121 0.312903 0.310741 0.327215 0.296121 0.312903 0.310741 0.327215 0
0.32546 0.343085 0.339522 0.356769 0.32546 0.343085 0.339522 0.356769 0
0.356201 0.374536 0.369579 0.387455 0.356201 0.374536 0.369579 0.387455 0
0.388111 0.407024 0.400661 0.419025 0.388111 0.407024 0.400661 0.419025 0
0.166658 0.179489 0.183437 0.196199 0.166658 0.179489 0.183437 0.196199 0
0.189301 0.203312 0.205949 0.219857 0.189301 0.203312 0.205949 0.219857 0
0.213979 0.229156 0.230428 0.245445 0.213979 0.229156 0.230428 0.245445 0
0.240654 0.256953 0.256799 0.27286 0.240654 0.256953 0.256799 0.27286 0
0.269241 0.286591 0.284938 0.301953 0.269241 0.286591 0.284938 0.301953 0
0.299616 0.317951 0.314702 0.332617 0.299616 0.317951 0.314702 0.332617 0
0.331637 0.350823 0.345967 0.364652 0.331637 0.350823 0.345967 0.364652 0
0.136318 0.149211 0.15398 0.166844 0.136318 0.149211 0.15398 0.166844 0
0.159095 0.17324 0.176691 0.190763 0.159095 0.17324 0.176691 0.190763 0
0.184046 0.199468 0.201491 0.216774 0.184046 0.199468 0.201491 0.216774 0
0.2112 0.227888 0.228373 0.244838 0.2112 0.227888 0.228373 0.244838 0
0.240523 0.258431 0.257274 0.274862 0.240523 0.258431 0.257274 0.274862 0
0.271921 0.290967 0.288085 0.30672 0.271921 0.290967 0.288085 0.30672 0
0.305246 0.325336 0.320655 0.340216 0.305246 0.325336 0.320655 0.340216 0
0.104404 0.117287 0.122979 0.135875 0.104404 0.117287 0.122979 0.135875 0
0.127194 0.141414 0.145774 0.159956 0.127194 0.141414 0.145774 0.159956 0
0.152318 0.167937 0.170807 0.186318 0.152318 0.167937 0.170807 0.186318 0
0.179868 0.196906 0.198137 0.214976 0.179868 0.196906 0.198137 0.214976 0
0.209862 0.228298 0.227749 0.245882 0.209862 0.228298 0.227749 0.245882 0
0.242246 0.262015 0.259566 0.278914 0.242246 0.262015 0.259566 0.278914 0
0.07088 0.0836677 0.0903873 0.103238 0.07088 0.0836677 0.0903873 0.103238 0
0.0935408 0.107762 0.113137 0.127365 0.0935408 0.107762 0.113137 0.127365 0
0.118714 0.134461 0.138295 0.153975 0.118714 0.134461 0.138295 0.153975 0
0.146546 0.163872 0.165975 0.183141 0.146546 0.163872 0.165975 0.183141 0
0.177112 0.196032 0.196221 0.214865 0.177112 0.196032 0.196221 0.214865 0
0.210412 0.230876 0.229 0.249065 0.210412 0.230876 0.229 0.249065 0
0.0357164 0.0483137 0.0561718 0.068889 0.0357164 0.0483137 0.0561718 0.068889 0
0.058085 0.0722189 0.0787262 0.0929197 0.058085 0.0722189 0.0787262 0.0929197 0
0.0831547 0.0989437 0.103872 0.119646 0.0831547 0.0989437 0.103872 0.119646 0
0.111119 0.128653 0.131775 0.149198 0.111119 0.128653 0.131775 0.149198 0
0.142114 0.16143 0.162538 0.181636 0.142114 0.16143 0.162538 0.181636 0
0.176203 0.197342 0.196187 0.216935 0.176203 0.197342 0.196187 0.216935 0
-0.00110337 0.0111956 0.0203085 0.032791 -0.00110337 0.0111956 0.0203085 0.032791 0
0.0207867 0.034727 0.0424945 0.0565578 0.0207867 0.034727 0.0424945 0.0565578 0
0.0455684 0.0612933 0.0674622 0.0832353 0.0455684 0.0612933 0.0674622 0.0832353 0
0.0734834 0.0911204 0.0954256 0.113014 0.0734834 0.0911204 0.0954256 0.113014 0
0.104737 0.124374 0.126548 0.146005 0.104737 0.124374 0.126548 0.146005 0
-0.0580782 -0.0477354 -0.0361672 -0.0255422 -0.0580782 -0.0477354 -0.0361672 -0.0255422 0
-0.0396054 -0.0277079 -0.0172201 -0.00508073 -0.0396054 -0.0277079 -0.0172201 -0.00508073 0
-0.0183793 -0.00475434 0.00440791 0.0182278 -0.0183793 -0.00475434 0.00440791 0.0182278 0
0.00590051 0.0214311 0.0290005 0.0446574 0.00590051 0.0214311 0.0290005 0.0446574 0
0.033541 0.0511532 0.0568242 0.0744646 0.033541 0.0511532 0.0568242 0.0744646 0
0.0648305 0.0846578 0.088118 0.107851 0.0648305 0.0846578 0.088118 0.107851 0
-0.0972262 -0.0874776 -0.0744984 -0.0643932 -0.0972262 -0.0874776 -0.0744984 -0.0643932 0
-0.0797577 -0.0683855 -0.0564267 -0.0447378 -0.0797577 -0.0683855 -0.0564267 -0.0447378 0
-0.0594151 -0.0462423 -0.0355502 -0.0221017 -0.0594151 -0.0462423 -0.0355502 -0.0221017 0
-0.0358806 -0.0206979 -0.0115591 0.00384134 -0.0358806 -0.0206979 -0.0115591 0.00384134 0
-0.00879141 0.00861304 0.0158796 0.0334253 -0.00879141 0.00861304 0.0158796 0.0334253 0
0.0222335 0.0421128 0.0470921 0.0669554 0.0222335 0.0421128 0.0470921 0.0669554 0
-0.172897 -0.167521 -0.151474 -0.145696 -0.172897 -0.167521 -0.151474 -0.145696 0
-0.163201 -0.156758 -0.141073 -0.134206 -0.163201 -0.156758 -0.141073 -0.134206 0
-0.151601 -0.143934 -0.128743 -0.120666 -0.151601 -0.143934 -0.128743 -0.120666 0
-0.137816 -0.128742 -0.114253 -0.104783 -0.137816 -0.128742 -0.114253 -0.104783 0
-0.121511 -0.110801 -0.097263 -0.0861559 -0.121511 -0.110801 -0.097263 -0.0861559 0
-0.102294 -0.0897244 -0.0773702 -0.0644362 -0.102294 -0.0897244 -0.0773702 -0.0644362 0
-0.0797745 -0.0651129 -0.0542356 -0.0392542 -0.0797745 -0.0651129 -0.0542356 -0.0392542 0
-0.0535424 -0.0365344 -0.0274751 -0.0102181 -0.0535424 -0.0365344 -0.0274751 -0.0102181 0
-0.210595 -0.205972 -0.188785 -0.183721 -0.210595 -0.205972 -0.188785 -0.183721 0
-0.20222 -0.196578 -0.179637 -0.173524 -0.20222 -0.196578 -0.179637 -0.173524 0
-0.192016 -0.185175 -0.168611 -0.161278 -0.192016 -0.185175 -0.168611 -0.161278 0
-0.179662 -0.171416 -0.155404 -0.146661 -0.179662 -0.171416 -0.155404 -0.146661 0
-0.164786 -0.154885 -0.139671 -0.129287 -0.164786 -0.154885 -0.139671 -0.129287 0
-0.146956 -0.135154 -0.121012 -0.108749 -0.146956 -0.135154 -0.121012 -0.108749 0
-0.125747 -0.111799 -0.0990145 -0.0846332 -0.125747 -0.111799 -0.0990145 -0.0846332 0
-0.100725 -0.0843587 -0.0732539 -0.0564881 -0.100725 -0.0843587 -0.0732539 -0.0564881 0
-0.248757 -0.24498 -0.226711 -0.222435 -0.248757 -0.24498 -0.226711 -0.222435 0
-0.241869 -0.237131 -0.218947 -0.213675 -0.241869 -0.237131 -0.218947 -0.213675 0
-0.233246 -0.227348 -0.209392 -0.202938 -0.233246 -0.227348 -0.209392 -0.202938 0
-0.222532 -0.215243 -0.197711 -0.189858 -0.222532 -0.215243 -0.197711 -0.189858 0
-0.209341 -0.200474 -0.183522 -0.174031 -0.209341 -0.200474 -0.183522 -0.174031 0
-0.193287 -0.182477 -0.166396 -0.154987 -0.193287 -0.182477 -0.166396 -0.154987 0
-0.173779 -0.160774 -0.14586 -0.132285 -0.173779 -0.160774 -0.14586 -0.132285 0
-0.150358 -0.134847 -0.121471 -0.105445 -0.150358 -0.134847 -0.121471 -0.105445 0
0 0 0 0 0 0 0 0 0
0 0 0 0 0 0 0 0 0
0 0 0 0 0 0 0 0 0
0 0 0 0 0 0 0 0 0
0 0 0 0 0 0 0 0 0
0 0 0 0 0 0 0 0 0
0 0 0 0 0 0 0 0 0
0 0 0 0 0 0 0 0 0
0 0 0 0 0 0 0 0 0
0 0 0 0 0 0 0 0 0
0 0 0 0 0 0 0 0 0
0 0 0 0 0 0 0 0 0
0 0 0 0 0 0 0 0 0
0 0 0 0 0 0 0 0 0
0 0 0 0 0 0 0 0 0
0 0 0 0 0 0 0 0 0
0 0 0 0 0 0 0 0 0
0 0 0 0 0 0 0 0 0
0 0 0 0 0 0 0 0 0
0 0 0 0 0 0 0 0 0
0 0 0 0 0 0 0 0 0
0 0 0 0 0 0 0 0 0
0 0 0 0 0 0 0 0 0
0 0 0 0 0 0 0 0 0
0 0 0 0 0 0 0 0 0
0 0 0 0 0 0 0 0 0
0 0 0 0 0 0 0 0 0
0 0 0 0 0 0 0 0 0
0 0 0 0 0 0 0 0 0
0 0 0 0 0 0 0 0 0
0 0 0 0 0 0 0 0 0
0 0 0 0 0 0 0 0 0
0 0 0 0 0 0 0 0 0
0 0 0 0 0 0 0 0 0
0 0 0 0 0 0 0 0 0
0 0 0 0 0 0 0 0 0
0 0 0 0 0 0 0 0 0
0 0 0 0 0 0 0 0 0
0 0 0 0 0 0 0 0 0
0 0 0 0 0 0 0 0 0
0 0 0 0 0 0 0 0 0
0 0 0 0 0 0 0 0 0
0 0 0 0 0 0 0 0 0
0 0 0 0 0 0 0 0 0
0 0 0 0 0 0 0 0 0
0 0 0 0 0 0 0 0 0
0 0 0 0 0 0 0 0 0
0 0 0 0 0 0 0 0 0
0 0 0 0 0 0 0 0 0
0 0 0 0 0 0 0 0 0
0 0 0 0 0 0 0 0 0
0 0 0 0 0 0 0 0 0
0 0 0 0 0 0 0 0 0
0 0 0 0 0 0 0 0 0
0 0 0 0 0 0 0 0 0
0 0 0 0 0 0 0 0 0
0 0 0 0 0 0 0 0 0
0 0 0 0 0 0 0 0 0
0 0 0 0 0 0 0 0 0
0 0 0 0 0 0 0 0 0
0 0 0 0 0 0 0 0 0
0 0 0 0 0 0 0 0 0
0 0 0 0 0 0 0 0 0
0 0 0 0 0 0 0 0 0
0 0 0 0 0 0 0 0 0
0 0 0 0 0 0 0 0 0
0 0 0 0 0 0 0 0 0
0 0 0 0 0 0 0 0 0
0 0 0 0 0 0 0 0 0
0 0 0 0 0 0 0 0 0
0 0 0 0 0 0 0 0 0
0 0 0 0 0 0 0 0 0
0 0 0 0 0 0 0 0 0
0 0 0 0 0 0 0 0 0
0 0 0 0 0 0 0 0 0
0 0 0 0 0 0 0 0 0
0 0 0 0 0 0 0 0 0
0 0 0 0 0 0 0 0 0
0 0 0 0 0 0 0 0 0
0 0 0 0 0 0 0 0 0
0 0 0 0 0 0 0 0 0
0 0 0 0 0 0 0 0 0
0 0 0 0 0 0 0 0 0
0 0 0 0 0 0 0 0 0
0 0 0 0 0 0 0 0 0
0 0 0 0 0 0 0 0 0
0 0 0 0 0 0 0 0 0
0 0 0 0 0 0 0 0 0
0 0 0 0 0 0 0 0 0
0 0 0 0 0 0 0 0 0
0 0 0 0 0 0 0 0 0
0 0 0 0 0 0 0 0 0
0 0 0 0 0 0 0 0 0
0 0 0 0 0 0 0 0 0
0 0 0 0 0 0 0 0 0
0 0 0 0 0 0 0 0 0
0 0 0 0 0 0 0 0 0
0 0 0 0 0 0 0 0 0
0 0 0 0 0 0 0 0 0
0 0 0 0 0 0 0 0 0
0 0 0 0 0 0 0 0 0
0 0 0 0 0 0 0 0 0
0 0 0 0 0 0 0 0 0
0 0 0 0 0 0 0 0 0
0 0 0 0 0 0 0 0 0
0 0 0 0 0 0 0 0 0
0 0 0 0 0 0 0 0 0
0 0 0 0 0 0 0 0 0
0 0 0 0 0 0 0 0 0
0 0 0 0 0 0 0 0 0
0 0 0 0 0 0 0 0 0
0 0 0 0 0 0 0 0 0
0 0 0 0 0 0 0 0 0
0 0 0 0 0 0 0 0 0
0 0 0 0 0 0 0 0 0
0 0 0 0 0 0 0 0 0
0 0 0 0 0 0 0 0 0
0 0 0 0 0 0 0 0 0
0 0 0 0 0 0 0 0 0
0 0 0 0 0 0 0 0 0
0 0 0 0 0 0 0 0 0
0 0 0 0 0 0 0 0 0
0 0 0 0 0 0 0 0 0
0 0 0 0 0 0 0 0 0
0 0 0 0 0 0 0 0 0
0 0 0 0 0 0 0 0 0
0 0 0 0 0 0 0 0 0
0 0 0 0 0 0 0 0 0
0 0 0 0 0 0 0 0 0
0 0 0 0 0 0 0 0 0
0 0 0 0 0 0 0 0 0
0 0 0 0 0 0 0 0 0
0 0 0 0 0 0 0 0 0
0 0 0 0 0 0 0 0 0
0 0 0 0 0 0 0 0 0
0 0 0 0 0 0 0 0 0
0 0 0 0 0 0 0 0 0
0 0 0 0 0 0 0 0 0
0 0 0 0 0 0 0 0 0
0 0 0 0 0 0 0 0 0
0 0 0 0 0 0 0 0 0
0 0 0 0 0 0 0 0 0
0 0 0 0 0 0 0 0 0
0 0 0 0 0 0 0 0 0
0 0 0 0 0 0 0 0 0
0 0 0 0 0 0 0 0 0
0 0 0 0 0 0 0 0 0
0 0 0 0 0 0 0 0 0
0 0 0 0 0 0 0 0 0
0 0 0 0 0 0 0 0 0
0 0 0 0 0 0 0 0 0
0 0 0 0 0 0 0 0 0
0 0 0 0 0 0 0 0 0
0 0 0 0 0 0 0 0 0
0 0 0 0 0 0 0 0 0
0 0 0 0 0 0 0 0 0
0 0 0 0 0 0 0 0 0
0 0 0 0 0 0 0 0 0
0 0 0 0 0 0 0 0 0
0 0 0 0 0 0 0 0 0
0 0 0 0 0 0 0 0 0
0 0 0 0 0 0 0 0 0
0 0 0 0 0 0 0 0 0
0 0 0 0 0 0 0 0 0
0 0 0 0 0 0 0 0 0
0 0 0 0 0 0 0 0 0
0 0 0 0 0 0 0 0 0
0 0 0 0 0 0 0 0 0
0 0 0 0 0 0 0 0 0
0 0 0 0 0 0 0 0 0
0 0 0 0 0 0 0 0 0
0 0 0 0 0 0 0 0 0
0 0 0 0 0 0 0 0 0
0 0 0 0 0 0 0 0 0
0 0 0 0 0 0 0 0 0
0 0 0 0 0 0 0 0 0
0 0 0 0 0 0 0 0 0
0 0 0 0 0 0 0 0 0
0 0 0 0 0 0 0 0 0
0 0 0 0 0 0 0 0 0
0 0 0 0 0 0 0 0 0
0 0 0 0 0 0 0 0 0
0 0 0 0 0 0 0 0 0
0 0 0 0 0 0 0 0 0
0 0 0 0 0 0 0 0 0
0 0 0 0 0 0 0 0 0
0 0 0 0 0 0 0 0 0
0 0 0 0 0 0 0 0 0
0 0 0 0 0 0 0 0 0
0 0 0 0 0 0 0 0 0
0 0 0 0 0 0 0 0 0
0 0 0 0 0 0 0 0 0
0 0 0 0 0 0 0 0 0
0 0 0 0 0 0 0 0 0
0 0 0 0 0 0 0 0 0
0 0 0 0 0 0 0 0 0
0 0 0 0 0 0 0 0 0
0 0 0 0 0 0 0 0 0
0 0 0 0 0 0 0 0 0
0 0 0 0 0 0 0 0 0
0 0 0 0 0 0 0 0 0
0 0 0 0 0 0 0 0 0
0 0 0 0 0 0 0 0 0
0 0 0 0 0 0 0 0 0
0 0 0 0 0 0 0 0 0
0 0 0 0 0 0 0 0 0
0 0 0 0 0 0 0 0 0
0 0 0 0 0 0 0 0 0
0 0 0 0 0 0 0 0 0
0 0 0 0 0 0 0 0 0
0 0 0 0 0 0 0 0 0
0 0 0 0 0 0 0 0 0
0 0 0 0 0 0 0 0 0
0 0 0 0 0 0 0 0 0
0 0 0 0 0 0 0 0 0
0 0 0 0 0 0 0 0 0
0 0 0 0 0 0 0 0 0
0 0 0 0 0 0 0 0 0
0 0 0 0 0 0 0 0 0
0 0 0 0 0 0 0 0 0
0 0 0 0 0 0 0 0 0
0 0 0 0 0 0 0 0 0
0 0 0 0 0 0 0 0 0
0 0 0 0 0 0 0 0 0
0 0 0 0 0 0 0 0 0
0 0 0 0 0 0 0 0 0
0 0 0 0 0 0 0 0 0
0 0 0 0 0 0 0 0 0
0 0 0 0 0 0 0 0 0
0 0 0 0 0 0 0 0 0
0 0 0 0 0 0 0 0 0
0 0 0 0 0 0 0 0 0
0 0 0 0 0 0 0 0 0
0 0 0 0 0 0 0 0 0
0 0 0 0 0 0 0 0 0
0 0 0 0 0 0 0 0 0
0 0 0 0 0 0 0 0 0
0 0 0 0 0 0 0 0 0
0 0 0 0 0 0 0 0 0
0 0 0 0 0 0 0 0 0
0 0 0 0 0 0 0 0 0
0 0 0 0 0 0 0 0 0
0 0 0 0 0 0 0 0 0
0 0 0 0 0 0 0 0 0
0 0 0 0 0 0 0 0 0
0 0 0 0 0 0 0 0 0
0 0 0 0 0 0 0 0 0
0 0 0 0 0 0 0 0 0
0 0 0 0 0 0 0 0 0
0 0 0 0 0 0 0 0 0
0 0 0 0 0 0 0 0 0
0 0 0 0 0 0 0 0 0
0 0 0 0 0 0 0 0 0
0 0 0 0 0 0 0 0 0
0 0 0 0 0 0 0 0 0
0 0 0 0 0 0 0 0 0
0 0 0 0 0 0 0 0 0
0 0 0 0 0 0 0 0 0
0 0 0 0 0 0 0 0 0
0 0 0 0 0 0 0 0 0
0 0 0 0 0 0 0 0 0
0 0 0 0 0 0 0 0 0
0 0 0 0 0 0 0 0 0
0 0 0 0 0 0 0 0 0
0 0 0 0 0 0 0 0 0
0 0 0 0 0 0 0 0 0
0 0 0 0 0 0 0 0 0
0 0 0 0 0 0 0 0 0
0 0 0 0 0 0 0 0 0
0 0 0 0 0 0 0 0 0
0 0 0 0 0 0 0 0 0
0 0 0 0 0 0 0 0 0
0 0 0 0 0 0 0 0 0
0 0 0 0 0 0 0 0 0
0 0 0 0 0 0 0 0 0
0 0 0 0 0 0 0 0 0
0 0 0 0 0 0 0 0 0
0 0 0 0 0 0 0 0 0
0 0 0 0 0 0 0 0 0
0 0 0 0 0 0 0 0 0
0 0 0 0 0 0 0 0 0
0 0 0 0 0 0 0 0 0
0 0 0 0 0 0 0 0 0
0 0 0 0 0 0 0 0 0
0 0 0 0 0 0 0 0 0
0 0 0 0 0 0 0 0 0
0 0 0 0 0 0 0 0 0
0 0 0 0 0 0 0 0 0
0 0 0 0 0 0 0 0 0
0 0 0 0 0 0 0 0 0
0 0 0 0 0 0 0 0 0
0 0 0 0 0 0 0 0 0
0 0 0 0 0 0 0 0 0
0 0 0 0 0 0 0 0 0
0 0 0 0 0 0 0 0 0
0 0 0 0 0 0 0 0 0
0 0 0 0 0 0 0 0 0
0 0 0 0 0 0 0 0 0
0 0 0 0 0 0 0 0 0
0 0 0 0 0 0 0 0 0
0 0 0 0 0 0 0 0 0
0 0 0 0 0 0 0 0 0
0 0 0 0 0 0 0 0 0
0 0 0 0 0 0 0 0 0
0 0 0 0 0 0 0 0 0
0 0 0 0 0 0 0 0 0
0 0 0 0 0 0 0 0 0
0 0 0 0 0 0 0 0 0
0 0 0 0 0 0 0 0 0
0 0 0 0 0 0 0 0 0
0 0 0 0 0 0 0 0 0
0 0 0 0 0 0 0 0 0
0 0 0 0 0 0 0 0 0
0 0 0 0 0 0 0 0 0
0 0 0 0 0 0 0 0 0
0 0 0 0 0 0 0 0 0
0 0 0 0 0 0 0 0 0
0 0 0 0 0 0 0 0 0
0 0 0 0 0 0 0 0 0
0 0 0 0 0 0 0 0 0
0 0 0 0 0 0 0 0 0
0 0 0 0 0 0 0 0 0
0 0 0 0 0 0 0 0 0
0 0 0 0 0 0 0 0 0
0 0 0 0 0 0 0 0 0
0 0 0 0 0 0 0 0 0
0 0 0 0 0 0 0 0 0
0 0 0 0 0 0 0 0 0
0 0 0 0 0 0 0 0 0
0 0 0 0 0 0 0 0 0
0 0 0 0 0 0 0 0 0
0 0 0 0 0 0 0 0 0
0 0 0 0 0 0 0 0 0
0 0 0 0 0 0 0 0 0
0 0 0 0 0 0 0 0 0
0 0 0 0 0 0 0 0 0
0 0 0 0 0 0 0 0 0
0 0 0 0 0 0 0 0 0
0 0 0 0 0 0 0 0 0
0 0 0 0 0 0 0 0 0
0 0 0 0 0 0 0 0 0
0 0 0 0 0 0 0 0 0
0 0 0 0 0 0 0 0 0
0 0 0 0 0 0 0 0 0
0 0 0 0 0 0 0 0 0
0 0 0 0 0 0 0 0 0
0 0 0 0 0 0 0 0 0
0 0 0 0 0 0 0 0 0
0 0 0 0 0 0 0 0 0
0 0 0 0 0 0 0 0 0
0 0 0 0 0 0 0 0 0
0 0 0 0 0 0 0 0 0
0 0 0 0 0 0 0 0 0
0 0 0 0 0 0 0 0 0
0 0 0 0 0 0 0 0 0
0 0 0 0 0 0 0 0 0
0 0 0 0 0 0 0 0 0
0 0 0 0 0 0 0 0 0
0 0 0 0 0 0 0 0 0
0 0 0 0 0 0 0 0 0
0 0 0 0 0 0 0 0 0
0 0 0 0 0 0 0 0 0
0 0 0 0 0 0 0 0 0
0 0 0 0 0 0 0 0 0
0 0 0 0 0 0 0 0 0
0 0 0 0 0 0 0 0 0
0 0 0 0 0 0 0 0 0
0 0 0 0 0 0 0 0 0
0 0 0 0 0 0 0 0 0
0 0 0 0 0 0 0 0 0
0 0 0 0 0 0 0 0 0
0 0 0 0 0 0 0 0 0
0 0 0 0 0 0 0 0 0
0 0 0 0 0 0 0 0 0
0 0 0 0 0 0 0 0 0
0 0 0 0 0 0 0 0 0
0 0 0 0 0 0 0 0 0
0 0 0 0 0 0 0 0 0
0 0 0 0 0 0 0 0 0
0 0 0 0 0 0 0 0 0
0 0 0 0 0 0 0 0 0
0 0 0 0 0 0 0 0 0
0 0 0 0 0 0 0 0 0
0 0 0 0 0 0 0 0 0
0 0 0 0 0 0 0 0 0
0 0 0 0 0 0 0 0 0
0 0 0 0 0 0 0 0 0
0 0 0 0 0 0 0 0 0
0 0 0 0 0 0 0 0 0
0 0 0 0 0 0 0 0 0
0 0 0 0 0 0 0 0 0
0 0 0 0 0 0 0 0 0
0 0 0 0 0 0 0 0 0
0 0 0 0 0 0 0 0 0
0 0 0 0 0 0 0 0 0
0 0 0 0 0 0 0 0 0
0 0 0 0 0 0 0 0 0
0 0 0 0 0 0 0 0 0
0 0 0 0 0 0 0 0 0
0 0 0 0 0 0 0 0 0
0 0 0 0 0 0 0 0 0
0 0 0 0 0 0 0 0 0
0 0 0 0 0 0 0 0 0
0 0 0 0 0 0 0 0 0
0 0 0 0 0 0 0 0 0
0 0 0 0 0 0 0 0 0
0 0 0 0 0 0 0 0 0
0 0 0 0 0 0 0 0 0
0 0 0 0 0 0 0 0 0
0 0 0 0 0 0 0 0 0
0 0 0 0 0 0 0 0 0
0 0 0 0 0 0 0 0 0
0 0 0 0 0 0 0 0 0
0 0 0 0 0 0 0 0 0
0 0 0 0 0 0 0 0 0
0 0 0 0 0 0 0 0 0
SCALARS F_CZ double 9
LOOKUP_TABLE default
0 0 0 0 0 0 0 0 0
0 0 0 0 0 0 0 0 0
0 0 0 0 0 0 0 0 0
0 0 0 0 0 0 0 0 0
0 0 0 0 0 0 0 0 0
0 0 0 0 0 0 0 0 0
0 0 0 0 0 0 0 0 0
0 0 0 0 0 0 0 0 0
0 0 0 0 0 0 0 0 0
0 0 0 0 0 0 0 0 0
0 0 0 0 0 0 0 0 0
0 0 0 0 0 0 0 0 0
0 0 0 0 0 0 0 0 0
0 0 0 0 0 0 0 0 0
0 0 0 0 0 0 0 0 0
0 0 0 0 0 0 0 0 0
0 0 0 0 0 0 0 0 0
0 0 0 0 0 0 0 0 0
0 0 0 0 0 0 0 0 0
0 0 0 0 0 0 0 0 0
0 0 0 0 0 0 0 0 0
0 0 0 0 0 0 0 0 0
0 0 0 0 0 0 0 0 0
0 0 0 0 0 0 0 0 0
0 0 0 0 0 0 0 0 0
0 0 0 0 0 0 0 0 0
0 0 0 0 0 0 0 0 0
0 0 0 0 0 0 0 0 0
0 0 0 0 0 0 0 0 0
0 0 0 0 0 0 0 0 0
0 0 0 0 0 0 0 0 0
0 0 0 0 0 0 0 0 0
0 0 0 0 0 0 0 0 0
0 0 0 0 0 0 0 0 0
0 0 0 0 0 0 0 0 0
0 0 0 0 0 0 0 0 0
0 0 0 0 0 0 0 0 0
0 0 0 0 0 0 0 0 0
0 0 0 0 0 0 0 0 0
0 0 0 0 0 0 0 0 0
0 0 0 0 0 0 0 0 0
0 0 0 0 0 0 0 0 0
0 0 0 0 0 0 0 0 0
0 0 0 0 0 0 0 0 0
0 0 0 0 0 0 0 0 0
0 0 0 0 0 0 0 0 0
0 0 0 0 0 0 0 0 0
0 0 0 0 0 0 0 0 0
0 0 0 0 0 0 0 0 0
0 0 0 0 0 0 0 0 0
0 0 0 0 0 0 0 0 0
0 0 0 0 0 0 0 0 0
0 0 0 0 0 0 0 0 0
0 0 0 0 0 0 0 0 0
0 0 0 0 0 0 0 0 0
0 0 0 0 0 0 0 0 0
0 0 0 0 0 0 0 0 0
0 0 0 0 0 0 0 0 0
0 0 0 0 0 0 0 0 0
0 0 0 0 0 0 0 0 0
0 0 0 0 0 0 0 0 0
0 0 0 0 0 0 0 0 0
0 0 0 0 0 0 0 0 0
0 0 0 0 0 0 0 0 0
0 0 0 0 0 0 0 0 0
0 0 0 0 0 0 0 0 0
0 0 0 0 0 0 0 0 0
0 0 0 0 0 0 0 0 0
0 0 0 0 0 0 0 0 0
0 0 0 0 0 0 0 0 0
0 0 0 0 0 0 0 0 0
0 0 0 0 0 0 0 0 0
0 0 0 0 0 0 0 0 0
0 0 0 0 0 0 0 0 0
0 0 0 0 0 0 0 0 0
0 0 0 0 0 0 0 0 0
0 0 0 0 0 0 0 0 0
0 0 0 0 0 0 0 0 0
0 0 0 0 0 0 0 0 0
0 0 0 0 0 0 0 0 0
0 0 0 0 0 0 0 0 0
0 0 0 0 0 0 0 0 0
0 0 0 0 0 0 0 0 0
0 0 0 0 0 0 0 0 0
0 0 0 0 0 0 0 0 0
0 0 0 0 0 0 0 0 0
0 0 0 0 0 0 0 0 0
0 0 0 0 0 0 0 0 0
0 0 0 0 0 0 0 0 0
0 0 0 0 0 0 0 0 0
0 0 0 0 0 0 0 0 0
0 0 0 0 0 0 0 0 0
0 0 0 0 0 0 0 0 0
0 0 0 0 0 0 0 0 0
0 0 0 0 0 0 0 0 0
0 0 0 0 0 0 0 0 0
0 0 0 0 0 0 0 0 0
0 0 0 0 0 0 0 0 0
0 0 0 0 0 0 0 0 0
0 0 0 0 0 0 0 0 0
0 0 0 0 0 0 0 0 0
0 0 0 0 0 0 0 0 0
0 0 0 0 0 0 0 0 0
0 0 0 0 0 0 0 0 0
0 0 0 0 0 0 0 0 0
0 0 0 0 0 0 0 0 0
0 0 0 0 0 0 0 0 0
0 0 0 0 0 0 0 0 0
0 0 0 0 0 0 0 0 0
0 0 0 0 0 0 0 0 0
0 0 0 0 0 0 0 0 0
0 0 0 0 0 0 0 0 0
0 0 0 0 0 0 0 0 0
0 0 0 0 0 0 0 0 0
0 0 0 0 0 0 0 0 0
0 0 0 0 0 0 0 0 0
0 0 0 0 0 0 0 0 0
0 0 0 0 0 0 0 0 0
0 0 0 0 0 0 0 0 0
0 0 0 0 0 0 0 0 0
0 0 0 0 0 0 0 0 0
0 0 0 0 0 0 0 0 0
0 0 0 0 0 0 0 0 0
0 0 0 0 0 0 0 0 0
0 0 0 0 0 0 0 0 0
0 0 0 0 0 0 0 0 0
0 0 0 0 0 0 0 0 0
0 0 0 0 0 0 0 0 0
0 0 0 0 0 0 0 0 0
0 0 0 0 0 0 0 0 0
0 0 0 0 0 0 0 0 0
0 0 0 0 0 0 0 0 0
0 0 0 0 0 0 0 0 0
0 0 0 0 0 0 0 0 0
0 0 0 0 0 0 0 0 0
0 0 0 0 0 0 0 0 0
0 0 0 0 0 0 0 0 0
0 0 0 0 0 0 0 0 0
0 0 0 0 0 0 0 0 0
0 0 0 0 0 0 0 0 0
0 0 0 0 0 0 0 0 0
0 0 0 0 0 0 0 0 0
0 0 0 0 0 0 0 0 0
0 0 0 0 0 0 0 0 0
0 0 0 0 0 0 0 0 0
0 0 0 0 0 0 0 0 0
0 0 0 0 0 0 0 0 0
0 0 0 0 0 0 0 0 0
0 0 0 0 0 0 0 0 0
0 0 0 0 0 0 0 0 0
0 0 0 0 0 0 0 0 0
0 0 0 0 0 0 0 0 0
0 0 0 0 0 0 0 0 0
0 0 0 0 0 0 0 0 0
0 0 0 0 0 0 0 0 0
0 0 0 0 0 0 0 0 0
0 0 0 0 0 0 0 0 0
0 0 0 0 0 0 0 0 0
0 0 0 0 0 0 0 0 0
0 0 0 0 0 0 0 0 0
0 0 0 0 0 0 0 0 0
0 0 0 0 0 0 0 0 0
0 0 0 0 0 0 0 0 0
0.00733299 0.00766942 0.00727574 0.00760687 0.00733299 0.00766942 0.00727574 0.00760687 0
0.00792009 0.00826847 0.0078537 0.00819691 0.00792009 0.00826847 0.0078537 0.00819691 0
0.00743823 0.00778361 0.0073766 0.00771684 0.00743823 0.00778361 0.0073766 0.00771684 0
0.00804138 0.00840026 0.00797044 0.00832304 0.00804138 0.00840026 0.00797044 0.00832304 0
0.00866787 0.00904014 0.00858612 0.00895227 0.00866787 0.00904014 0.00858612 0.00895227 0
0.00931773 0.00970387 0.00922534 0.0096052 0.00931773 0.00970387 0.00922534 0.0096052 0
0.00999163 0.0103917 0.0098883 0.0102819 0.00999163 0.0103917 0.0098883 0.0102819 0
0.0106894 0.0111027 0.0105747 0.010981 0.0106894 0.0111027 0.0105747 0.010981 0
0.0114098 0.0118354 0.0112828 0.0117009 0.0114098 0.0118354 0.0112828 0.0117009 0
0.0121511 0.0125879 0.0120109 0.0124395 0.0121511 0.0125879 0.0120109 0.0124395 0
0.0129113 0.0133581 0.0127567 0.0131945 0.0129113 0.0133581 0.0127567 0.0131945 0
0.00817115 0.00854001 0.00809523 0.00845847 0.00817115 0.00854001 0.00809523 0.00845847 0
0.00881514 0.00919797 0.00872931 0.00910606 0.00881514 0.00919797 0.00872931 0.00910606 0
0.0094835 0.00988078 0.00938699 0.0097778 0.0094835 0.00988078 0.00938699 0.0097778 0
0.0101769 0.0105888 0.0100691 0.010474 0.0101769 0.0105888 0.0100691 0.010474 0
0.0108955 0.0113216 0.0107754 0.011194 0.0108955 0.0113216 0.0107754 0.011194 0
0.0116384 0.012078 0.0115052 0.0119366 0.0116384 0.012078 0.0115052 0.0119366 0
0.0124044 0.0128564 0.0122567 0.0126997 0.0124044 0.0128564 0.0122567 0.0126997 0
0.00830931 0.00868803 0.00822858 0.00860159 0.00830931 0.00868803 0.00822858 0.00860159 0
0.00897069 0.00936424 0.00887989 0.00926723 0.00897069 0.00936424 0.00887989 0.00926723 0
0.00965789 0.0100667 0.00955617 0.00995827 0.00965789 0.0100667 0.00955617 0.00995827 0
0.0103716 0.0107958 0.0102581 0.0106751 0.0103716 0.0107958 0.0102581 0.0106751 0
0.011112 0.0115515 0.0109858 0.0114175 0.011112 0.0115515 0.0109858 0.0114175 0
0.0118787 0.012333 0.0117386 0.0121844 0.0118787 0.012333 0.0117386 0.0121844 0
0.0126707 0.013139 0.0125154 0.0129743 0.0126707 0.013139 0.0125154 0.0129743 0
0.00845554 0.00884428 0.00837018 0.00875312 0.00845554 0.00884428 0.00837018 0.00875312 0
0.00913459 0.00953907 0.009039 0.00943715 0.00913459 0.00953907 0.009039 0.00943715 0
0.00984106 0.0102617 0.0097343 0.0101481 0.00984106 0.0102617 0.0097343 0.0101481 0
0.0105757 0.0110128 0.0104567 0.0108864 0.0105757 0.0110128 0.0104567 0.0108864 0
0.0113388 0.0117925 0.0112067 0.0116521 0.0113388 0.0117925 0.0112067 0.0116521 0
0.0121305 0.0126005 0.0119838 0.0124446 0.0121305 0.0126005 0.0119838 0.0124446 0
0.00860941 0.00900827 0.0085197 0.0089127 0.00860941 0.00900827 0.0085197 0.0089127 0
0.00930637 0.00972201 0.00920629 0.00961546 0.00930637 0.00972201 0.00920629 0.00961546 0
0.0100325 0.0104654 0.00992104 0.0103468 0.0100325 0.0104654 0.00992104 0.0103468 0
0.0107887 0.0112393 0.0106647 0.0111074 0.0107887 0.0112393 0.0106647 0.0111074 0
0.0115756 0.0120441 0.0114378 0.0118976 0.0115756 0.0120441 0.0114378 0.0118976 0
0.0123935 0.01288 0.0122404 0.0127173 0.0123935 0.01288 0.0122404 0.0127173 0
0.00877022 0.00917934 0.00867658 0.00907976 0.00877022 0.00917934 0.00867658 0.00907976 0
0.00948535 0.00991237 0.00938119 0.00980162 0.00948535 0.00991237 0.00938119 0.00980162 0
0.0102317 0.0106771 0.0101158 0.010554 0.0102317 0.0106771 0.0101158 0.010554 0
0.0110101 0.0114746 0.0108814 0.0113377 0.0110101 0.0114746 0.0108814 0.0113377 0
0.0118217 0.0123058 0.0116786 0.0121535 0.0118217 0.0123058 0.0116786 0.0121535 0
0.0126672 0.0131708 0.012508 0.0130016 0.0126672 0.0131708 0.012508 0.0130016 0
0.00893698 0.00935648 0.00884003 0.00925352 0.00893698 0.00935648 0.00884003 0.00925352 0
0.00967054 0.0101092 0.00956292 0.00999482 0.00967054 0.0101092 0.00956292 0.00999482 0
0.0104374 0.0108958 0.0103179 0.0107688 0.0104374 0.0108958 0.0103179 0.0107688 0
0.0112388 0.0117177 0.011106 0.0115765 0.0112388 0.0117177 0.011106 0.0115765 0
0.0120761 0.0125764 0.0119283 0.0124192 0.0120761 0.0125764 0.0119283 0.0124192 0
0.00838882 0.00880008 0.00829905 0.00870506 0.00838882 0.00880008 0.00829905 0.00870506 0
0.00910803 0.00953826 0.00900881 0.00943281 0.00910803 0.00953826 0.00900881 0.00943281 0
0.00986055 0.010311 0.00975032 0.0101939 0.00986055 0.010311 0.00975032 0.0101939 0
0.0106484 0.0111201 0.0105261 0.01099 0.0106484 0.0111201 0.0105261 0.01099 0
0.0114734 0.0119673 0.0113373 0.0118225 0.0114734 0.0119673 0.0113373 0.0118225 0
0.0123372 0.0128544 0.0121857 0.0126931 0.0123372 0.0128544 0.0121857 0.0126931 0
0.0085463 0.00896681 0.00845508 0.00887022 0.0085463 0.00896681 0.00845508 0.00887022 0
0.00928203 0.00972286 0.00918126 0.00961599 0.00928203 0.00972286 0.00918126 0.00961599 0
0.0100534 0.0105158 0.00994178 0.0103973 0.0100534 0.0105158 0.00994178 0.0103973 0
0.0108626 0.0113479 0.0107387 0.011216 0.0108626 0.0113479 0.0107387 0.011216 0
0.0117119 0.0122213 0.0115738 0.0120742 0.0117119 0.0122213 0.0115738 0.0120742 0
0.0126033 0.0131378 0.0124492 0.0129736 0.0126033 0.0131378 0.0124492 0.0129736 0
0.00665417 0.00702706 0.00658371 0.0069533 0.00665417 0.00702706 0.00658371 0.0069533 0
0.00730622 0.00769605 0.00722986 0.00761592 0.00730622 0.00769605 0.00722986 0.00761592 0
0.00798838 0.00839731 0.00790523 0.00830971 0.00798838 0.00839731 0.00790523 0.00830971 0
0.00870417 0.0091337 0.00861304 0.00903741 0.00870417 0.0091337 0.00861304 0.00903741 0
0.00945609 0.00990748 0.00935568 0.00980097 0.00945609 0.00990748 0.00935568 0.00980097 0
0.0102463 0.0107208 0.010135 0.0106025 0.0102463 0.0107208 0.010135 0.0106025 0
0.0110771 0.0115762 0.0109533 0.0114444 0.0110771 0.0115762 0.0109533 0.0114444 0
0.0119511 0.0124764 0.011813 0.0123291 0.0119511 0.0124764 0.011813 0.0123291 0
0.00677505 0.00715299 0.00670543 0.00708056 0.00677505 0.00715299 0.00670543 0.00708056 0
0.00743621 0.00783211 0.0073615 0.00775397 0.00743621 0.00783211 0.0073615 0.00775397 0
0.00812936 0.00854564 0.00804843 0.00846052 0.00812936 0.00854564 0.00804843 0.00846052 0
0.00885842 0.00929678 0.0087699 0.00920319 0.00885842 0.00929678 0.0087699 0.00920319 0
0.00962624 0.0100881 0.00952858 0.00998442 0.00962624 0.0100881 0.00952858 0.00998442 0
0.0104353 0.0109219 0.0103268 0.0108064 0.0104353 0.0109219 0.0103268 0.0108064 0
0.0112878 0.0118008 0.0111667 0.0116717 0.0112878 0.0118008 0.0111667 0.0116717 0
0.0121867 0.0127283 0.0120512 0.0125834 0.0121867 0.0127283 0.0120512 0.0125834 0
0.0068899 0.00727224 0.00682446 0.00720434 0.0068899 0.00727224 0.00682446 0.00720434 0
0.00755917 0.00796079 0.00748916 0.00788752 0.00755917 0.00796079 0.00748916 0.00788752 0
0.00826261 0.00868566 0.00818673 0.00860595 0.00826261 0.00868566 0.00818673 0.00860595 0
0.00900377 0.00944992 0.00892107 0.00936288 0.00900377 0.00944992 0.00892107 0.00936288 0
0.00978608 0.0102585 0.00969522 0.0101616 0.00978608 0.0102585 0.00969522 0.0101616 0
0.010614 0.011113 0.0105122 0.0110041 0.010614 0.011113 0.0105122 0.0110041 0
0.0114886 0.012016 0.011374 0.0118931 0.0114886 0.012016 0.011374 0.0118931 0
0.0124131 0.012971 0.0122837 0.0128321 0.0124131 0.012971 0.0122837 0.0128321 0
0 0 0 0 0 0 0 0 0
0 0 0 0 0 0 0 0 0
0 0 0 0 0 0 0 0 0
0 0 0 0 0 0 0 0 0
0 0 0 0 0 0 0 0 0
0 0 0 0 0 0 0 0 0
0 0 0 0 0 0 0 0 0
0 0 0 0 0 0 0 0 0
0 0 0 0 0 0 0 0 0
0 0 0 0 0 0 0 0 0
0 0 0 0 0 0 0 0 0
0 0 0 0 0 0 0 0 0
0 0 0 0 0 0 0 0 0
0 0 0 0 0 0 0 0 0
0 0 0 0 0 0 0 0 0
0 0 0 0 0 0 0 0 0
0 0 0 0 0 0 0 0 0
0 0 0 0 0 0 0 0 0
0 0 0 0 0 0 0 0 0
0 0 0 0 0 0 0 0 0
0 0 0 0 0 0 0 0 0
0 0 0 0 0 0 0 0 0
0 0 0 0 0 0 0 0 0
0 0 0 0 0 0 0 0 0
0 0 0 0 0 0 0 0 0
0 0 0 0 0 0 0 0 0
0 0 0 0 0 0 0 0 0
0 0 0 0 0 0 0 0 0
0 0 0 0 0 0 0 0 0
0 0 0 0 0 0 0 0 0
0 0 0 0 0 0 0 0 0
0 0 0 0 0 0 0 0 0
0 0 0 0 0 0 0 0 0
0 0 0 0 0 0 0 0 0
0 0 0 0 0 0 0 0 0
0 0 0 0 0 0 0 0 0
0 0 0 0 0 0 0 0 0
0 0 0 0 0 0 0 0 0
0 0 0 0 0 0 0 0 0
0 0 0 0 0 0 0 0 0
0 0 0 0 0 0 0 0 0
0 0 0 0 0 0 0 0 0
0 0 0 0 0 0 0 0 0
0 0 0 0 0 0 0 0 0
0 0 0 0 0 0 0 0 0
0 0 0 0 0 0 0 0 0
0 0 0 0 0 0 0 0 0
0 0 0 0 0 0 0 0 0
0 0 0 0 0 0 0 0 0
0 0 0 0 0 0 0 0 0
0 0 0 0 0 0 0 0 0
0 0 0 0 0 0 0 0 0
0 0 0 0 0 0 0 0 0
0 0 0 0 0 0 0 0 0
0 0 0 0 0 0 0 0 0
0 0 0 0 0 0 0 0 0
0 0 0 0 0 0 0 0 0
0 0 0 0 0 0 0 0 0
0 0 0 0 0 0 0 0 0
0 0 0 0 0 0 0 0 0
0 0 0 0 0 0 0 0 0
0 0 0 0 0 0 0 0 0
0 0 0 0 0 0 0 0 0
0 0 0 0 0 0 0 0 0
0 0 0 0 0 0 0 0 0
0 0 0 0 0 0 0 0 0
0 0 0 0 0 0 0 0 0
0 0 0 0 0 0 0 0 0
0 0 0 0 0 0 0 0 0
0 0 0 0 0 0 0 0 0
0 0 0 0 0 0 0 0 0
0 0 0 0 0 0 0 0 0
0 0 0 0 0 0 0 0 0
0 0 0 0 0 0 0 0 0
0 0 0 0 0 0 0 0 0
0 0 0 0 0 0 0 0 0
0 0 0 0 0 0 0 0 0
0 0 0 0 0 0 0 0 0
0 0 0 0 0 0 0 0 0
0 0 0 0 0 0 0 0 0
0 0 0 0 0 0 0 0 0
0 0 0 0 0 0 0 0 0
0 0 0 0 0 0 0 0 0
0 0 0 0 0 0 0 0 0
0 0 0 0 0 0 0 0 0
0 0 0 0 0 0 0 0 0
0 0 0 0 0 0 0 0 0
0 0 0 0 0 0 0 0 0
0 0 0 0 0 0 0 0 0
0 0 0 0 0 0 0 0 0
0 0 0 0 0 0 0 0 0
0 0 0 0 0 0 0 0 0
0 0 0 0 0 0 0 0 0
0 0 0 0 0 0 0 0 0
0 0 0 0 0 0 0 0 0
0 0 0 0 0 0 0 0 0
0 0 0 0 0 0 0 0 0
0 0 0 0 0 0 0 0 0
0 0 0 0 0 0 0 0 0
0 0 0 0 0 0 0 0 0
0 0 0 0 0 0 0 0 0
0 0 0 0 0 0 0 0 0
0 0 0 0 0 0 0 0 0
0 0 0 0 0 0 0 0 0
0 0 0 0 0 0 0 0 0
0 0 0 0 0 0 0 0 0
0 0 0 0 0 0 0 0 0
0 0 0 0 0 0 0 0 0
0 0 0 0 0 0 0 0 0
0 0 0 0 0 0 0 0 0
0 0 0 0 0 0 0 0 0
0 0 0 0 0 0 0 0 0
0 0 0 0 0 0 0 0 0
0 0 0 0 0 0 0 0 0
0 0 0 0 0 0 0 0 0
0 0 0 0 0 0 0 0 0
0 0 0 0 0 0 0 0 0
0 0 0 0 0 0 0 0 0
0 0 0 0 0 0 0 0 0
0 0 0 0 0 0 0 0 0
0 0 0 0 0 0 0 0 0
0 0 0 0 0 0 0 0 0
0 0 0 0 0 0 0 0 0
0 0 0 0 0 0 0 0 0
0 0 0 0 0 0 0 0 0
0 0 0 0 0 0 0 0 0
0 0 0 0 0 0 0 0 0
0 0 0 0 0 0 0 0 0
0 0 0 0 0 0 0 0 0
0 0 0 0 0 0 0 0 0
0 0 0 0 0 0 0 0 0
0 0 0 0 0 0 0 0 0
0 0 0 0 0 0 0 0 0
0 0 0 0 0 0 0 0 0
0 0 0 0 0 0 0 0 0
0 0 0 0 0 0 0 0 0
0 0 0 0 0 0 0 0 0
0 0 0 0 0 0 0 0 0
0 0 0 0 0 0 0 0 0
0 0 0 0 0 0 0 0 0
0 0 0 0 0 0 0 0 0
0 0 0 0 0 0 0 0 0
0 0 0 0 0 0 0 0 0
0 0 0 0 0 0 0 0 0
0 0 0 0 0 0 0 0 0
0 0 0 0 0 0 0 0 0
0 0 0 0 0 0 0 0 0
0 0 0 0 0 0 0 0 0
0 0 0 0 0 0 0 0 0
0 0 0 0 0 0 0 0 0
0 0 0 0 0 0 0 0 0
0 0 0 0 0 0 0 0 0
0 0 0 0 0 0 0 0 0
0 0 0 0 0 0 0 0 0
0 0 0 0 0 0 0 0 0
0 0 0 0 0 0 0 0 0
0 0 0 0 0 0 0 0 0
0 0 0 0 0 0 0 0 0
0 0 0 0 0 0 0 0 0
0 0 0 0 0 0 0 0 0
0 0 0 0 0 0 0 0 0
0 0 0 0 0 0 0 0 0
0 0 0 0 0 0 0 0 0
0 0 0 0 0 0 0 0 0
0 0 0 0 0 0 0 0 0
0 0 0 0 0 0 0 0 0
0 0 0 0 0 0 0 0 0
0 0 0 0 0 0 0 0 0
0 0 0 0 0 0 0 0 0
0 0 0 0 0 0 0 0 0
0 0 0 0 0 0 0 0 0
0 0 0 0 0 0 0 0 0
0 0 0 0 0 0 0 0 0
0 0 0 0 0 0 0 0 0
0 0 0 0 0 0 0 0 0
0 0 0 0 0 0 0 0 0
0 0 0 0 0 0 0 0 0
0 0 0 0 0 0 0 0 0
0 0 0 0 0 0 0 0 0
0 0 0 0 0 0 0 0 0
0 0 0 0 0 0 0 0 0
0 0 0 0 0 0 0 0 0
0 0 0 0 0 0 0 0 0
0 0 0 0 0 0 0 0 0
0 0 0 0 0 0 0 0 0
0 0 0 0 0 0 0 0 0
0 0 0 0 0 0 0 0 0
0 0 0 0 0 0 0 0 0
0 0 0 0 0 0 0 0 0
0 0 0 0 0 0 0 0 0
0 0 0 0 0 0 0 0 0
0 0 0 0 0 0 0 0 0
0 0 0 0 0 0 0 0 0
0 0 0 0 0 0 0 0 0
0 0 0 0 0 0 0 0 0
0 0 0 0 0 0 0 0 0
0 0 0 0 0 0 0 0 0
0 0 0 0 0 0 0 0 0
0 0 0 0 0 0 0 0 0
0 0 0 0 0 0 0 0 0
0 0 0 0 0 0 0 0 0
0 0 0 0 0 0 0 0 0
0 0 0 0 0 0 0 0 0
0 0 0 0 0 0 0 0 0
0 0 0 0 0 0 0 0 0
0 0 0 0 0 0 0 0 0
0 0 0 0 0 0 0 0 0
0 0 0 0 0 0 0 0 0
0 0 0 0 0 0 0 0 0
0 0 0 0 0 0 0 0 0
0 0 0 0 0 0 0 0 0
0 0 0 0 0 0 0 0 0
0 0 0 0 0 0 0 0 0
0 0 0 0 0 0 0 0 0
0 0 0 0 0 0 0 0 0
0 0 0 0 0 0 0 0 0
0 0 0 0 0 0 0 0 0
0 0 0 0 0 0 0 0 0
0 0 0 0 0 0 0 0 0
0 0 0 0 0 0 0 0 0
0 0 0 0 0 0 0 0 0
0 0 0 0 0 0 0 0 0
0 0 0 0 0 0 0 0 0
0 0 0 0 0 0 0 0 0
0 0 0 0 0 0 0 0 0
0 0 0 0 0 0 0 0 0
0 0 0 0 0 0 0 0 0
0 0 0 0 0 0 0 0 0
0 0 0 0 0 0 0 0 0
0 0 0 0 0 0 0 0 0
0 0 0 0 0 0 0 0 0
0 0 0 0 0 0 0 0 0
0 0 0 0 0 0 0 0 0
0 0 0 0 0 0 0 0 0
0 0 0 0 0 0 0 0 0
0 0 0 0 0 0 0 0 0
0 0 0 0 0 0 0 0 0
0 0 0 0 0 0 0 0 0
0 0 0 0 0 0 0 0 0
0 0 0 0 0 0 0 0 0
0 0 0 0 0 0 0 0 0
0 0 0 0 0 0 0 0 0
0 0 0 0 0 0 0 0 0
0 0 0 0 0 0 0 0 0
0 0 0 0 0 0 0 0 0
0 0 0 0 0 0 0 0 0
0 0 0 0 0 0 0 0 0
0 0 0 0 0 0 0 0 0
0 0 0 0 0 0 0 0 0
0 0 0 0 0 0 0 0 0
0 0 0 0 0 0 0 0 0
0 0 0 0 0 0 0 0 0
0 0 0 0 0 0 0 0 0
0 0 0 0 0 0 0 0 0
0 0 0 0 0 0 0 0 0
0 0 0 0 0 0 0 0 0
0 0 0 0 0 0 0 0 0
0 0 0 0 0 0 0 0 0
0 0 0 0 0 0 0 0 0
0 0 0 0 0 0 0 0 0
0 0 0 0 0 0 0 0 0
0 0 0 0 0 0 0 0 0
0 0 0 0 0 0 0 0 0
0 0 0 0 0 0 0 0 0
0 0 0 0 0 0 0 0 0
0 0 0 0 0 0 0 0 0
0 0 0 0 0 0 0 0 0
0 0 0 0 0 0 0 0 0
0 0 0 0 0 0 0 0 0
0 0 0 0 0 0 0 0 0
0 0 0 0 0 0 0 0 0
0 0 0 0 0 0 0 0 0
0 0 0 0 0 0 0 0 0
0 0 0 0 0 0 0 0 0
0 0 0 0 0 0 0 0 0
0 0 0 0 0 0 0 0 0
0 0 0 0 0 0 0 0 0
0 0 0 0 0 0 0 0 0
0 0 0 0 0 0 0 0 0
0 0 0 0 0 0 0 0 0
0 0 0 0 0 0 0 0 0
0 0 0 0 0 0 0 0 0
0 0 0 0 0 0 0 0 0
0 0 0 0 0 0 0 0 0
0 0 0 0 0 0 0 0 0
0 0 0 0 0 0 0 0 0
0 0 0 0 0 0 0 0 0
0 0 0 0 0 0 0 0 0
0 0 0 0 0 0 0 0 0
0 0 0 0 0 0 0 0 0
0 0 0 0 0 0 0 0 0
0 0 0 0 0 0 0 0 0
0 0 0 0 0 0 0 0 0
0 0 0 0 0 0 0 0 0
0 0 0 0 0 0 0 0 0
0 0 0 0 0 0 0 0 0
0 0 0 0 0 0 0 0 0
0 0 0 0 0 0 0 0 0
0 0 0 0 0 0 0 0 0
0 0 0 0 0 0 0 0 0
0 0 0 0 0 0 0 0 0
0 0 0 0 0 0 0 0 0
0 0 0 0 0 0 0 0 0
0 0 0 0 0 0 0 0 0
0 0 0 0 0 0 0 0 0
0 0 0 0 0 0 0 0 0
0 0 0 0 0 0 0 0 0
0 0 0 0 0 0 0 0 0
0 0 0 0 0 0 0 0 0
0 0 0 0 0 0 0 0 0
0 0 0 0 0 0 0 0 0
0 0 0 0 0 0 0 0 0
0 0 0 0 0 0 0 0 0
0 0 0 0 0 0 0 0 0
0 0 0 0 0 0 0 0 0
0 0 0 0 0 0 0 0 0
0 0 0 0 0 0 0 0 0
0 0 0 0 0 0 0 0 0
0 0 0 0 0 0 0 0 0
0 0 0 0 0 0 0 0 0
0 0 0 0 0 0 0 0 0
0 0 0 0 0 0 0 0 0
0 0 0 0 0 0 0 0 0
0 0 0 0 0 0 0 0 0
0 0 0 0 0 0 0 0 0
0 0 0 0 0 0 0 0 0
0 0 0 0 0 0 0 0 0
0 0 0 0 0 0 0 0 0
0 0 0 0 0 0 0 0 0
0 0 0 0 0 0 0 0 0
0 0 0 0 0 0 0 0 0
0 0 0 0 0 0 0 0 0
0 0 0 0 0 0 0 0 0
0 0 0 0 0 0 0 0 0
0 0 0 0 0 0 0 0 0
0 0 0 0 0 0 0 0 0
0 0 0 0 0 0 0 0 0
0 0 0 0 0 0 0 0 0
0 0 0 0 0 0 0 0 0
0 0 0 0 0 0 0 0 0
0 0 0 0 0 0 0 0 0
0 0 0 0 0 0 0 0 0
0 0 0 0 0 0 0 0 0
0 0 0 0 0 0 0 0 0
0 0 0 0 0 0 0 0 0
0 0 0 0 0 0 0 0 0
0 0 0 0 0 0 0 0 0
0 0 0 0 0 0 0 0 0
0 0 0 0 0 0 0 0 0
0 0 0 0 0 0 0 0 0
0 0 0 0 0 0 0 0 0
0 0 0 0 0 0 0 0 0
0 0 0 0 0 0 0 0 0
0 0 0 0 0 0 0 0 0
0 0 0 0 0 0 0 0 0
0 0 0 0 0 0 0 0 0
0 0 0 0 0 0 0 0 0
0 0 0 0 0 0 0 0 0
0 0 0 0 0 0 0 0 0
0 0 0 0 0 0 0 0 0
0 0 0 0 0 0 0 0 0
0 0 0 0 0 0 0 0 0
0 0 0 0 0 0 0 0 0
0 0 0 0 0 0 0 0 0
0 0 0 0 0 0 0 0 0
0 0 0 0 0 0 0 0 0
0 0 0 0 0 0 0 0 0
0 0 0 0 0 0 0 0 0
0 0 0 0 0 0 0 0 0
0 0 0 0 0 0 0 0 0
0 0 0 0 0 0 0 0 0
0 0 0 0 0 0 0 0 0
0 0 0 0 0 0 0 0 0
0 0 0 0 0 0 0 0 0
0 0 0 0 0 0 0 0 0
0 0 0 0 0 0 0 0 0
0 0 0 0 0 0 0 0 0
0 0 0 0 0 0 0 0 0
0 0 0 0 0 0 0 0 0
0 0 0 0 0 0 0 0 0
0 0 0 0 0 0 0 0 0
0 0 0 0 0 0 0 0 0
0 0 0 0 0 0 0 0 0
0 0 0 0 0 0 0 0 0
0 0 0 0 0 0 0 0 0
0 0 0 0 0 0 0 0 0
0 0 0 0 0 0 0 0 0
0 0 0 0 0 0 0 0 0
0 0 0 0 0 0 0 0 0
0 0 0 0 0 0 0 0 0
0 0 0 0 0 0 0 0 0
0 0 0 0 0 0 0 0 0
0 0 0 0 0 0 0 0 0
0 0 0 0 0 0 0 0 0
0 0 0 0 0 0 0 0 0
0 0 0 0 0 0 0 0 0
0 0 0 0 0 0 0 0 0
0 0 0 0 0 0 0 0 0
0 0 0 0 0 0 0 0 0
0 0 0 0 0 0 0 0 0
0 0 0 0 0 0 0 0 0
0 0 0 0 0 0 0 0 0
0 0 0 0 0 0 0 0 0
0 0 0 0 0 0 0 0 0
0 0 0 0 0 0 0 0 0
0 0 0 0 0 0 0 0 0
0 0 0 0 0 0 0 0 0
0 0 0 0 0 0 0 0 0
0 0 0 0 0 0 0 0 0
0 0 0 0 0 0 0 0 0
0 0 0 0 0 0 0 0 0
0 0 0 0 0 0 0 0 0
0 0 0 0 0 0 0 0 0
0 0 0 0 0 0 0 0 0
0 0 0 0 0 0 0 0 0
0 0 0 0 0 0 0 0 0
0 0 0 0 0 0 0 0 0
0 0 0 0 0 0 0 0 0
0 0 0 0 0 0 0 0 0
0 0 0 0 0 0 0 0 0
0 0 0 0 0 0 0 0 0
0 0 0 0 0 0 0 0 0
0 0 0 0 0 0 0 0 0
0 0 0 0 0 0 0 0 0
0 0 0 0 0 0 0 0 0
0 0 0 0 0 0 0 0 0
0 0 0 0 0 0 0 0 0
0 0 0 0 0 0 0 0 0
0 0 0 0 0 0 0 0 0
0 0 0 0 0 0 0 0 0
0 0 0 0 0 0 0 0 0
0 0 0 0 0 0 0 0 0
0 0 0 0 0 0 0 0 0
0 0 0 0 0 0 0 0 0
0 0 0 0 0 0 0 0 0
0 0 0 0 0 0 0 0 0
0 0 0 0 0 0 0 0 0
0 0 0 0 0 0 0 0 0
0 0 0 0 0 0 0 0 0
0 0 0 0 0 0 0 0 0
0 0 0 0 0 0 0 0 0
0 0 0 0 0 0 0 0 0
0 0 0 0 0 0 0 0 0
0 0 0 0 0 0 0 0 0
0 0 0 0 0 0 0 0 0
0 0 0 0 0 0 0 0 0
0 0 0 0 0 0 0 0 0
0 0 0 0 0 0 0 0 0
0 0 0 0 0 0 0 0 0
0 0 0 0 0 0 0 0 0
0 0 0 0 0 0 0 0 0
0 0 0 0 0 0 0 0 0
0 0 0 0 0 0 0 0 0
0 0 0 0 0 0 0 0 0
0 0 0 0 0 0 0 0 0
0 0 0 0 0 0 0 0 0
0 0 0 0 0 0 0 0 0
0 0 0 0 0 0 0 0 0
0 0 0 0 0 0 0 0 0
0 0 0 0 0 0 0 0 0
0 0 0 0 0 0 0 0 0
0 0 0 0 0 0 0 0 0
0 0 0 0 0 0 0 0 0
0 0 0 0 0 0 0 0 0
0 0 0 0 0 0 0 0 0
0 0 0 0 0 0 0 0 0
0 0 0 0 0 0 0 0 0
0 0 0 0 0 0 0 0 0
0 0 0 0 0 0 0 0 0
0 0 0 0 0 0 0 0 0
0 0 0 0 0 0 0 0 0
0 0 0 0 0 0 0 0 0
0 0 0 0 0 0 0 0 0
0 0 0 0 0 0 0 0 0
0 0 0 0 0 0 0 0 0
0 0 0 0 0 0 0 0 0
0 0 0 0 0 0 0 0 0
0 0 0 0 0 0 0 0 0
0 0 0 0 0 0 0 0 0
0 0 0 0 0 0 0 0 0
0 0 0 0 0 0 0 0 0
0 0 0 0 0 0 0 0 0
0 0 0 0 0 0 0 0 0
0 0 0 0 0 0 0 0 0
0 0 0 0 0 0 0 0 0
0 0 0 0 0 0 0 0 0
0 0 0 0 0 0 0 0 0
0 0 0 0 0 0 0 0 0
0 0 0 0 0 0 0 0 0
0 0 0 0 0 0 0 0 0
0 0 0 0 0 0 0 0 0
0 0 0 0 0 0 0 0 0
0 0 0 0 0 0 0 0 0
0 0 0 0 0 0 0 0 0
0 0 0 0 0 0 0 0 0
0 0 0 0 0 0 0 0 0
0 0 0 0 0 0 0 0 0
0 0 0 0 0 0 0 0 0
0 0 0 0 0 0 0 0 0
0 0 0 0 0 0 0 0 0
0 0 0 0 0 0 0 0 0
0 0 0 0 0 0 0 0 0
0 0 0 0 0 0 0 0 0
0 0 0 0 0 0 0 0 0
0 0 0 0 0 0 0 0 0
0 0 0 0 0 0 0 0 0
0 0 0 0 0 0 0 0 0
0 0 0 0 0 0 0 0 0
0 0 0 0 0 0 0 0 0
0 0 0 0 0 0 0 0 0
0 0 0 0 0 0 0 0 0
0 0 0 0 0 0 0 0 0
0 0 0 0 0 0 0 0 0
0 0 0 0 0 0 0 0 0
0 0 0 0 0 0 0 0 0
0 0 0 0 0 0 0 0 0
0 0 0 0 0 0 0 0 0
0 0 0 0 0 0 0 0 0
0 0 0 0 0 0 0 0 0
0 0 0 0 0 0 0 0 0
0 0 0 0 0 0 0 0 0
0 0 0 0 0 0 0 0 0
0 0 0 0 0 0 0 0 0
0 0 0 0 0 0 0 0 0
0 0 0 0 0 0 0 0 0
0 0 0 0 0 0 0 0 0
0 0 0 0 0 0 0 0 0
0 0 0 0 0 0 0 0 0
0 0 0 0 0 0 0 0 0
0 0 0 0 0 0 0 0 0
0 0 0 0 0 0 0 0 0
0 0 0 0 0 0 0 0 0
0 0 0 0 0 0 0 0 0
0 0 0 0 0 0 0 0 0
0 0 0 0 0 0 0 0 0
0 0 0 0 0 0 0 0 0
0 0 0 0 0 0 0 0 0
0 0 0 0 0 0 0 0 0
0 0 0 0 0 0 0 0 0
0 0 0 0 0 0 0 0 0
0 0 0 0 0 0 0 0 0
0 0 0 0 0 0 0 0 0
0 0 0 0 0 0 0 0 0
0 0 0 0 0 0 0 0 0
0 0 0 0 0 0 0 0 0
0 0 0 0 0 0 0 0 0
0 0 0 0 0 0 0 0 0
0 0 0 0 0 0 0 0 0
0 0 0 0 0 0 0 0 0
0 0 0 0 0 0 0 0 0
0 0 0 0 0 0 0 0 0
0 0 0 0 0 0 0 0 0
0 0 0 0 0 0 0 0 0
0 0 0 0 0 0 0 0 0
0 0 0 0 0 0 0 0 0
0 0 0 0 0 0 0 0 0
0 0 0 0 0 0 0 0 0
0 0 0 0 0 0 0 0 0
0 0 0 0 0 0 0 0 0
0 0 0 0 0 0 0 0 0
0 0 0 0 0 0 0 0 0
0 0 0 0 0 0 0 0 0
0 0 0 0 0 0 0 0 0
0 0 0 0 0 0 0 0 0
0 0 0 0 0 0 0 0 0
0 0 0 0 0 0 0 0 0
0 0 0 0 0 0 0 0 0
0 0 0 0 0 0 0 0 0
0 0 0 0 0 0 0 0 0
0 0 0 0 0 0 0 0 0
0 0 0 0 0 0 0 0 0
0 0 0 0 0 0 0 0 0
0 0 0 0 0 0 0 0 0
0 0 0 0 0 0 0 0 0
0 0 0 0 0 0 0 0 0
0 0 0 0 0 0 0 0 0
0 0 0 0 0 0 0 0 0
0 0 0 0 0 0 0 0 0
0 0 0 0 0 0 0 0 0
0 0 0 0 0 0 0 0 0
0 0 0 0 0 0 0 0 0
0 0 0 0 0 0 0 0 0
0 0 0 0 0 0 0 0 0
0 0 0 0 0 0 0 0 0
0 0 0 0 0 0 0 0 0
0 0 0 0 0 0 0 0 0
0 0 0 0 0 0 0 0 0
0 0 0 0 0 0 0 0 0
0 0 0 0 0 0 0 0 0
0 0 0 0 0 0 0 0 0
0 0 0 0 0 0 0 0 0
0 0 0 0 0 0 0 0 0
0 0 0 0 0 0 0 0 0
0 0 0 0 0 0 0 0 0
0 0 0 0 0 0 0 0 0
0 0 0 0 0 0 0 0 0
0 0 0 0 0 0 0 0 0
0 0 0 0 0 0 0 0 0
0 0 0 0 0 0 0 0 0
0 0 0 0 0 0 0 0 0
0 0 0 0 0 0 0 0 0
0 0 0 0 0 0 0 0 0
0 0 0 0 0 0 0 0 0
0 0 0 0 0 0 0 0 0
0 0 0 0 0 0 0 0 0
0 0 0 0 0 0 0 0 0
0 0 0 0 0 0 0 0 0
0 0 0 0 0 0 0 0 0
0 0 0 0 0 0 0 0 0
0 0 0 0 0 0 0 0 0
0 0 0 0 0 0 0 0 0
0 0 0 0 0 0 0 0 0
0 0 0 0 0 0 0 0 0
0 0 0 0 0 0 0 0 0
0 0 0 0 0 0 0 0 0
0 0 0 0 0 0 0 0 0
0 0 0 0 0 0 0 0 0
0 0 0 0 0 0 0 0 0
0 0 0 0 0 0 0 0 0
0 0 0 0 0 0 0 0 0
0 0 0 0 0 0 0 0 0
0 0 0 0 0 0 0 0 0
0 0 0 0 0 0 0 0 0
0 0 0 0 0 0 0 0 0
0 0 0 0 0 0 0 0 0
0 0 0 0 0 0 0 0 0
0 0 0 0 0 0 0 0 0
0 0 0 0 0 0 0 0 0
0 0 0 0 0 0 0 0 0
0 0 0 0 0 0 0 0 0
0 0 0 0 0 0 0 0 0
0 0 0 0 0 0 0 0 0
0 0 0 0 0 0 0 0 0
0 0 0 0 0 0 0 0 0
0 0 0 0 0 0 0 0 0
0 0 0 0 0 0 0 0 0
0 0 0 0 0 0 0 0 0
0 0 0 0 0 0 0 0 0
0 0 0 0 0 0 0 0 0
0 0 0 0 0 0 0 0 0
0 0 0 0 0 0 0 0 0
0 0 0 0 0 0 0 0 0
0 0 0 0 0 0 0 0 0
0 0 0 0 0 0 0 0 0
0 0 0 0 0 0 0 0 0
0 0 0 0 0 0 0 0 0
0 0 0 0 0 0 0 0 0
0 0 0 0 0 0 0 0 0
0 0 0 0 0 0 0 0 0
0 0 0 0 0 0 0 0 0
0 0 0 0 0 0 0 0 0
0 0 0 0 0 0 0 0 0
0 0 0 0 0 0 0 0 0
0 0 0 0 0 0 0 0 0
0 0 0 0 0 0 0 0 0
0 0 0 0 0 0 0 0 0
0 0 0 0 0 0 0 0 0
0 0 0 0 0 0 0 0 0
0 0 0 0 0 0 0 0 0
0 0 0 0 0 0 0 0 0
0 0 0 0 0 0 0 0 0
0 0 0 0 0 0 0 0 0
0 0 0 0 0 0 0 0 0
0 0 0 0 0 0 0 0 0
0 0 0 0 0 0 0 0 0
0 0 0 0 0 0 0 0 0
0 0 0 0 0 0 0 0 0
0 0 0 0 0 0 0 0 0
0 0 0 0 0 0 0 0 0
0 0 0 0 0 0 0 0 0
0 0 0 0 0 0 0 0 0
0 0 0 0 0 0 0 0 0
0 0 0 0 0 0 0 0 0
0 0 0 0 0 0 0 0 0
0 0 0 0 0 0 0 0 0
0 0 0 0 0 0 0 0 0
0 0 0 0 0 0 0 0 0
0 0 0 0 0 0 0 0 0
0 0 0 0 0 0 0 0 0
0 0 0 0 0 0 0 0 0
0 0 0 0 0 0 0 0 0
0 0 0 0 0 0 0 0 0
0 0 0 0 0 0 0 0 0
0 0 0 0 0 0 0 0 0
0 0 0 0 0 0 0 0 0
0 0 0 0 0 0 0 0 0
0 0 0 0 0 0 0 0 0
0 0 0 0 0 0 0 0 0
0 0 0 0 0 0 0 0 0
0 0 0 0 0 0 0 0 0
0 0 0 0 0 0 0 0 0
0 0 0 0 0 0 0 0 0
0 0 0 0 0 0 0 0 0
0 0 0 0 0 0 0 0 0
0 0 0 0 0 0 0 0 0
0 0 0 0 0 0 0 0 0
0 0 0 0 0 0 0 0 0
0 0 0 0 0 0 0 0 0
0 0 0 0 0 0 0 0 0
0 0 0 0 0 0 0 0 0
0 0 0 0 0 0 0 0 0
0 0 0 0 0 0 0 0 0
0 0 0 0 0 0 0 0 0
0 0 0 0 0 0 0 0 0
0 0 0 0 0 0 0 0 0
0 0 0 0 0 0 0 0 0
0 0 0 0 0 0 0 0 0
0 0 0 0 0 0 0 0 0
0 0 0 0 0 0 0 0 0
0 0 0 0 0 0 0 0 0
0 0 0 0 0 0 0 0 0
0 0 0 0 0 0 0 0 0
0 0 0 0 0 0 0 0 0
0 0 0 0 0 0 0 0 0
0 0 0 0 0 0 0 0 0
0 0 0 0 0 0 0 0 0
0 0 0 0 0 0 0 0 0
0 0 0 0 0 0 0 0 0
0 0 0 0 0 0 0 0 0
0 0 0 0 0 0 0 0 0
0 0 0 0 0 0 0 0 0
0 0 0 0 0 0 0 0 0
0 0 0 0 0 0 0 0 0
0 0 0 0 0 0 0 0 0
0 0 0 0 0 0 0 0 0
0 0 0 0 0 0 0 0 0
0 0 0 0 0 0 0 0 0
0 0 0 0 0 0 0 0 0
0 0 0 0 0 0 0 0 0
0 0 0 0 0 0 0 0 0
0 0 0 0 0 0 0 0 0
0 0 0 0 0 0 0 0 0
0 0 0 0 0 0 0 0 0
0 0 0 0 0 0 0 0 0
0 0 0 0 0 0 0 0 0
0 0 0 0 0 0 0 0 0
0 0 0 0 0 0 0 0 0
0 0 0 0 0 0 0 0 0
0 0 0 0 0 0 0 0 0
0 0 0 0 0 0 0 0 0
0 0 0 0 0 0 0 0 0
0 0 0 0 0 0 0 0 0
0 0 0 0 0 0 0 0 0
0 0 0 0 0 0 0 0 0
0 0 0 0 0 0 0 0 0
0 0 0 0 0 0 0 0 0
0 0 0 0 0 0 0 0 0
0 0 0 0 0 0 0 0 0
0 0 0 0 0 0 0 0 0
0 0 0 0 0 0 0 0 0
0 0 0 0 0 0 0 0 0
0 0 0 0 0 0 0 0 0
0 0 0 0 0 0 0 0 0
0 0 0 0 0 0 0 0 0
0 0 0 0 0 0 0 0 0
0 0 0 0 0 0 0 0 0
0.0131683 0.0137836 0.0130739 0.0136799 0.0131683 0.0137836 0.0130739 0.0136799 0
0.0142424 0.0148805 0.0141317 0.0147599 0.0142424 0.0148805 0.0141317 0.0147599 0
0.013345 0.0139769 0.013241 0.0138633 0.013345 0.0139769 0.013241 0.0138633 0
0.0144484 0.0151047 0.0143274 0.014973 0.0144484 0.0151047 0.0143274 0.014973 0
0.0155943 0.0162756 0.0154546 0.0161247 0.0155943 0.0162756 0.0154546 0.0161247 0
0.0167834 0.0174894 0.0166242 0.0173186 0.0167834 0.0174894 0.0166242 0.0173186 0
0.0180151 0.0187451 0.0178355 0.0185532 0.0180151 0.0187451 0.0178355 0.0185532 0
0.0192875 0.0200394 0.0190862 0.0198248 0.0192875 0.0200394 0.0190862 0.0198248 0
0.020597 0.0213684 0.0203721 0.021129 0.020597 0.0213684 0.0203721 0.021129 0
0.0219389 0.0227263 0.0216885 0.02246 0.0219389 0.0227263 0.0216885 0.02246 0
0.0233069 0.0241055 0.0230284 0.0238097 0.0233069 0.0241055 0.0230284 0.0238097 0
0.014672 0.015346 0.0145409 0.0152048 0.014672 0.015346 0.0145409 0.0152048 0
0.015849 0.0165492 0.0157001 0.0163894 0.015849 0.0165492 0.0157001 0.0163894 0
0.0170713 0.0177978 0.0169033 0.0176179 0.0170713 0.0177978 0.0169033 0.0176179 0
0.0183389 0.019091 0.0181501 0.0188893 0.0183389 0.019091 0.0181501 0.0188893 0
0.0196504 0.0204266 0.0194388 0.0202009 0.0196504 0.0204266 0.0194388 0.0202009 0
0.0210028 0.0218008 0.0207661 0.0215486 0.0210028 0.0218008 0.0207661 0.0215486 0
0.0223917 0.0232081 0.0221275 0.0229269 0.0223917 0.0232081 0.0221275 0.0229269 0
0.0149138 0.0156051 0.014772 0.0154533 0.0149138 0.0156051 0.014772 0.0154533 0
0.0161213 0.0168405 0.0159619 0.0166701 0.0161213 0.0168405 0.0159619 0.0166701 0
0.0173771 0.0181243 0.0171984 0.0179336 0.0173771 0.0181243 0.0171984 0.0179336 0
0.0186813 0.0194562 0.0184814 0.0192431 0.0186813 0.0194562 0.0184814 0.0192431 0
0.0200331 0.0208345 0.0198098 0.0205965 0.0200331 0.0208345 0.0198098 0.0205965 0
0.02143 0.0222557 0.0211808 0.0219904 0.02143 0.0222557 0.0211808 0.0219904 0
0.022868 0.0237152 0.0225903 0.0234195 0.022868 0.0237152 0.0225903 0.0234195 0
0.0151741 0.0158826 0.0150216 0.0157202 0.0151741 0.0158826 0.0150216 0.0157202 0
0.0164121 0.0171503 0.016242 0.0169693 0.0164121 0.0171503 0.016242 0.0169693 0
0.0177017 0.0184699 0.0175121 0.0182681 0.0177017 0.0184699 0.0175121 0.0182681 0
0.0190431 0.0198414 0.018832 0.0196166 0.0190431 0.0198414 0.018832 0.0196166 0
0.0204363 0.0212638 0.0202011 0.0210134 0.0204363 0.0212638 0.0202011 0.0210134 0
0.0218794 0.0227343 0.0216174 0.0224552 0.0218794 0.0227343 0.0216174 0.0224552 0
0.0154528 0.0161786 0.0152897 0.0160055 0.0154528 0.0161786 0.0152897 0.0160055 0
0.0167213 0.0174787 0.0165406 0.0172869 0.0167213 0.0174787 0.0165406 0.0172869 0
0.0180449 0.0188345 0.0178445 0.0186217 0.0180449 0.0188345 0.0178445 0.0186217 0
0.0194243 0.0202465 0.019202 0.0200102 0.0194243 0.0202465 0.019202 0.0200102 0
0.0208601 0.0217144 0.020613 0.0214517 0.0208601 0.0217144 0.020613 0.0214517 0
0.0223511 0.0232363 0.0220762 0.0229437 0.0223511 0.0232363 0.0220762 0.0229437 0
0.0157499 0.0164927 0.0155762 0.0163092 0.0157499 0.0164927 0.0155762 0.0163092 0
0.0170488 0.0178255 0.0168576 0.0176231 0.0170488 0.0178255 0.0168576 0.0176231 0
0.0184066 0.019218 0.0181956 0.0189943 0.0184066 0.019218 0.0181956 0.0189943 0
0.0198249 0.0206717 0.0195913 0.0204238 0.0198249 0.0206717 0.0195913 0.0204238 0
0.0213044 0.0221868 0.0210454 0.0219115 0.0213044 0.0221868 0.0210454 0.0219115 0
0.0228451 0.0237618 0.0225572 0.0234556 0.0228451 0.0237618 0.0225572 0.0234556 0
0.0160647 0.0168246 0.0158808 0.0166308 0.0160647 0.0168246 0.0158808 0.0166308 0
0.017394 0.0181902 0.0171926 0.0179775 0.017394 0.0181902 0.0171926 0.0179775 0
0.0187866 0.0196201 0.018565 0.0193858 0.0187866 0.0196201 0.018565 0.0193858 0
0.0202443 0.0211163 0.0199999 0.0208573 0.0202443 0.0211163 0.0199999 0.0208573 0
0.0217689 0.0226802 0.0214983 0.0223928 0.0217689 0.0226802 0.0214983 0.0223928 0
0.0150995 0.0158404 0.0149213 0.0156539 0.0150995 0.0158404 0.0149213 0.0156539 0
0.016396 0.0171732 0.0162027 0.0169699 0.016396 0.0171732 0.0162027 0.0169699 0
0.0177562 0.0185721 0.0175451 0.0183495 0.0177562 0.0185721 0.0175451 0.0183495 0
0.0191839 0.0200401 0.0189524 0.0197955 0.0191839 0.0200401 0.0189524 0.0197955 0
0.020682 0.02158 0.0204271 0.02131 0.020682 0.02158 0.0204271 0.02131 0
0.0222529 0.0231941 0.0219711 0.022895 0.0222529 0.0231941 0.0219711 0.022895 0
0.0154205 0.0161761 0.0152332 0.0159803 0.0154205 0.0161761 0.0152332 0.0159803 0
0.0167433 0.0175378 0.0165408 0.0173254 0.0167433 0.0175378 0.0165408 0.0173254 0
0.0181343 0.01897 0.0179141 0.0187383 0.0181343 0.01897 0.0179141 0.0187383 0
0.0195975 0.0204767 0.0193568 0.0202226 0.0195975 0.0204767 0.0193568 0.0202226 0
0.0211369 0.0220618 0.0208721 0.0217814 0.0211369 0.0220618 0.0208721 0.0217814 0
0.0227558 0.0237277 0.0224632 0.0234173 0.0227558 0.0237277 0.0224632 0.0234173 0
0.0121032 0.0127643 0.0119384 0.0125949 0.0121032 0.0127643 0.0119384 0.0125949 0
0.0132604 0.0139547 0.0130872 0.0137759 0.0132604 0.0139547 0.0130872 0.0137759 0
0.0144762 0.015207 0.0142929 0.0150169 0.0144762 0.015207 0.0142929 0.0150169 0
0.0157561 0.0165261 0.0155606 0.0163223 0.0157561 0.0165261 0.0155606 0.0163223 0
0.0171048 0.0179164 0.0168944 0.0176961 0.0171048 0.0179164 0.0168944 0.0176961 0
0.0185265 0.0193823 0.0182984 0.0191425 0.0185265 0.0193823 0.0182984 0.0191425 0
0.0200258 0.0209284 0.0197768 0.0206658 0.0200258 0.0209284 0.0197768 0.0206658 0
0.0216073 0.0225597 0.0213338 0.0222703 0.0216073 0.0225597 0.0213338 0.0222703 0
0.012399 0.0130675 0.0122266 0.0128909 0.012399 0.0130675 0.0122266 0.0128909 0
0.0135696 0.0142732 0.0133896 0.0140879 0.0135696 0.0142732 0.0133896 0.0140879 0
0.0148024 0.0155448 0.0146127 0.0153483 0.0148024 0.0155448 0.0146127 0.0153483 0
0.0161034 0.0168876 0.0159015 0.0166775 0.0161034 0.0168876 0.0159015 0.0166775 0
0.0174778 0.0183066 0.0172611 0.0180799 0.0174778 0.0183066 0.0172611 0.0180799 0
0.0189305 0.0198066 0.0186958 0.0195602 0.0189305 0.0198066 0.0186958 0.0195602 0
0.0204662 0.0213928 0.0202105 0.0211232 0.0204662 0.0213928 0.0202105 0.0211232 0
0.0220906 0.0230714 0.02181 0.0227743 0.0220906 0.0230714 0.02181 0.0227743 0
0.012705 0.0133802 0.0125271 0.0131985 0.012705 0.0133802 0.0125271 0.0131985 0
0.0138882 0.0146011 0.0137032 0.0144107 0.0138882 0.0146011 0.0137032 0.0144107 0
0.0151378 0.0158916 0.0149431 0.0156903 0.0151378 0.0158916 0.0149431 0.0156903 0
0.0164593 0.017257 0.0162528 0.0170428 0.0164593 0.017257 0.0162528 0.0170428 0
0.0178585 0.0187047 0.0176378 0.0184739 0.0178585 0.0187047 0.0176378 0.0184739 0
0.0193426 0.0202395 0.0191037 0.0199885 0.0193426 0.0202395 0.0191037 0.0199885 0
0.0209157 0.0218668 0.0206551 0.021592 0.0209157 0.0218668 0.0206551 0.021592 0
0.0225842 0.0235938 0.022298 0.0232909 0.0225842 0.0235938 0.022298 0.0232909 0
0 0 0 0 0 0 0 0 0
0 0 0 0 0 0 0 0 0
0 0 0 0 0 0 0 0 0
0 0 0 0 0 0 0 0 0
0 0 0 0 0 0 0 0 0
0 0 0 0 0 0 0 0 0
0 0 0 0 0 0 0 0 0
0 0 0 0 0 0 0 0 0
0 0 0 0 0 0 0 0 0
0 0 0 0 0 0 0 0 0
0 0 0 0 0 0 0 0 0
0 0 0 0 0 0 0 0 0
0 0 0 0 0 0 0 0 0
0 0 0 0 0 0 0 0 0
0 0 0 0 0 0 0 0 0
0 0 0 0 0 0 0 0 0
0 0 0 0 0 0 0 0 0
0 0 0 0 0 0 0 0 0
0 0 0 0 0 0 0 0 0
0 0 0 0 0 0 0 0 0
0 0 0 0 0 0 0 0 0
0 0 0 0 0 0 0 0 0
0 0 0 0 0 0 0 0 0
0 0 0 0 0 0 0 0 0
0 0 0 0 0 0 0 0 0
0 0 0 0 0 0 0 0 0
0 0 0 0 0 0 0 0 0
0 0 0 0 0 0 0 0 0
0 0 0 0 0 0 0 0 0
0 0 0 0 0 0 0 0 0
0 0 0 0 0 0 0 0 0
0 0 0 0 0 0 0 0 0
0 0 0 0 0 0 0 0 0
0 0 0 0 0 0 0 0 0
0 0 0 0 0 0 0 0 0
0 0 0 0 0 0 0 0 0
0 0 0 0 0 0 0 0 0
0 0 0 0 0 0 0 0 0
0 0 0 0 0 0 0 0 0
0 0 0 0 0 0 0 0 0
0 0 0 0 0 0 0 0 0
0 0 0 0 0 0 0 0 0
0 0 0 0 0 0 0 0 0
0 0 0 0 0 0 0 0 0
0 0 0 0 0 0 0 0 0
0 0 0 0 0 0 0 0 0
0 0 0 0 0 0 0 0 0
0 0 0 0 0 0 0 0 0
0 0 0 0 0 0 0 0 0
0 0 0 0 0 0 0 0 0
0 0 0 0 0 0 0 0 0
0 0 0 0 0 0 0 0 0
0 0 0 0 0 0 0 0 0
0 0 0 0 0 0 0 0 0
0 0 0 0 0 0 0 0 0
0 0 0 0 0 0 0 0 0
0 0 0 0 0 0 0 0 0
0 0 0 0 0 0 0 0 0
0 0 0 0 0 0 0 0 0
0 0 0 0 0 0 0 0 0
0 0 0 0 0 0 0 0 0
0 0 0 0 0 0 0 0 0
0 0 0 0 0 0 0 0 0
0 0 0 0 0 0 0 0 0
0 0 0 0 0 0 0 0 0
0 0 0 0 0 0 0 0 0
0 0 0 0 0 0 0 0 0
0 0 0 0 0 0 0 0 0
0 0 0 0 0 0 0 0 0
0 0 0 0 0 0 0 0 0
0 0 0 0 0 0 0 0 0
0 0 0 0 0 0 0 0 0
0 0 0 0 0 0 0 0 0
0 0 0 0 0 0 0 0 0
0 0 0 0 0 0 0 0 0
0 0 0 0 0 0 0 0 0
0 0 0 0 0 0 0 0 0
0 0 0 0 0 0 0 0 0
0 0 0 0 0 0 0 0 0
0 0 0 0 0 0 0 0 0
0 0 0 0 0 0 0 0 0
0 0 0 0 0 0 0 0 0
0 0 0 0 0 0 0 0 0
0 0 0 0 0 0 0 0 0
0 0 0 0 0 0 0 0 0
0 0 0 0 0 0 0 0 0
0 0 0 0 0 0 0 0 0
0 0 0 0 0 0 0 0 0
0 0 0 0 0 0 0 0 0
0 0 0 0 0 0 0 0 0
0 0 0 0 0 0 0 0 0
0 0 0 0 0 0 0 0 0
0 0 0 0 0 0 0 0 0
0 0 0 0 0 0 0 0 0
0 0 0 0 0 0 0 0 0
0 0 0 0 0 0 0 0 0
0 0 0 0 0 0 0 0 0
0 0 0 0 0 0 0 0 0
0 0 0 0 0 0 0 0 0
0 0 0 0 0 0 0 0 0
0 0 0 0 0 0 0 0 0
0 0 0 0 0 0 0 0 0
0 0 0 0 0 0 0 0 0
0 0 0 0 0 0 0 0 0
0 0 0 0 0 0 0 0 0
0 0 0 0 0 0 0 0 0
0 0 0 0 0 0 0 0 0
0 0 0 0 0 0 0 0 0
0 0 0 0 0 0 0 0 0
0 0 0 0 0 0 0 0 0
0 0 0 0 0 0 0 0 0
0 0 0 0 0 0 0 0 0
0 0 0 0 0 0 0 0 0
0 0 0 0 0 0 0 0 0
0 0 0 0 0 0 0 0 0
0 0 0 0 0 0 0 0 0
0 0 0 0 0 0 0 0 0
0 0 0 0 0 0 0 0 0
0 0 0 0 0 0 0 0 0
0 0 0 0 0 0 0 0 0
0 0 0 0 0 0 0 0 0
0 0 0 0 0 0 0 0 0
0 0 0 0 0 0 0 0 0
0 0 0 0 0 0 0 0 0
0 0 0 0 0 0 0 0 0
0 0 0 0 0 0 0 0 0
0 0 0 0 0 0 0 0 0
0 0 0 0 0 0 0 0 0
0 0 0 0 0 0 0 0 0
0 0 0 0 0 0 0 0 0
0 0 0 0 0 0 0 0 0
0 0 0 0 0 0 0 0 0
0 0 0 0 0 0 0 0 0
0 0 0 0 0 0 0 0 0
0 0 0 0 0 0 0 0 0
0 0 0 0 0 0 0 0 0
0 0 0 0 0 0 0 0 0
0 0 0 0 0 0 0 0 0
0 0 0 0 0 0 0 0 0
0 0 0 0 0 0 0 0 0
0 0 0 0 0 0 0 0 0
0 0 0 0 0 0 0 0 0
0 0 0 0 0 0 0 0 0
0 0 0 0 0 0 0 0 0
0 0 0 0 0 0 0 0 0
0 0 0 0 0 0 0 0 0
0 0 0 0 0 0 0 0 0
0 0 0 0 0 0 0 0 0
0 0 0 0 0 0 0 0 0
0 0 0 0 0 0 0 0 0
0 0 0 0 0 0 0 0 0
0 0 0 0 0 0 0 0 0
0 0 0 0 0 0 0 0 0
0 0 0 0 0 0 0 0 0
0 0 0 0 0 0 0 0 0
0 0 0 0 0 0 0 0 0
0 0 0 0 0 0 0 0 0
0 0 0 0 0 0 0 0 0
0 0 0 0 0 0 0 0 0
0 0 0 0 0 0 0 0 0
0 0 0 0 0 0 0 0 0
0 0 0 0 0 0 0 0 0
0 0 0 0 0 0 0 0 0
0 0 0 0 0 0 0 0 0
0 0 0 0 0 0 0 0 0
0 0 0 0 0 0 0 0 0
0 0 0 0 0 0 0 0 0
0 0 0 0 0 0 0 0 0
0 0 0 0 0 0 0 0 0
0 0 0 0 0 0 0 0 0
0 0 0 0 0 0 0 0 0
0 0 0 0 0 0 0 0 0
0 0 0 0 0 0 0 0 0
0 0 0 0 0 0 0 0 0
0 0 0 0 0 0 0 0 0
0 0 0 0 0 0 0 0 0
0 0 0 0 0 0 0 0 0
0 0 0 0 0 0 0 0 0
0 0 0 0 0 0 0 0 0
0 0 0 0 0 0 0 0 0
0 0 0 0 0 0 0 0 0
0 0 0 0 0 0 0 0 0
0 0 0 0 0 0 0 0 0
0 0 0 0 0 0 0 0 0
0 0 0 0 0 0 0 0 0
0 0 0 0 0 0 0 0 0
0 0 0 0 0 0 0 0 0
0 0 0 0 0 0 0 0 0
0 0 0 0 0 0 0 0 0
0 0 0 0 0 0 0 0 0
0 0 0 0 0 0 0 0 0
0 0 0 0 0 0 0 0 0
0 0 0 0 0 0 0 0 0
0 0 0 0 0 0 0 0 0
0 0 0 0 0 0 0 0 0
0 0 0 0 0 0 0 0 0
0 0 0 0 0 0 0 0 0
0 0 0 0 0 0 0 0 0
0 0 0 0 0 0 0 0 0
0 0 0 0 0 0 0 0 0
0 0 0 0 0 0 0 0 0
0 0 0 0 0 0 0 0 0
0 0 0 0 0 0 0 0 0
0 0 0 0 0 0 0 0 0
0 0 0 0 0 0 0 0 0
0 0 0 0 0 0 0 0 0
0 0 0 0 0 0 0 0 0
0 0 0 0 0 0 0 0 0
0 0 0 0 0 0 0 0 0
0 0 0 0 0 0 0 0 0
0 0 0 0 0 0 0 0 0
0 0 0 0 0 0 0 0 0
0 0 0 0 0 0 0 0 0
0 0 0 0 0 0 0 0 0
0 0 0 0 0 0 0 0 0
0 0 0 0 0 0 0 0 0
0 0 0 0 0 0 0 0 0
0 0 0 0 0 0 0 0 0
0 0 0 0 0 0 0 0 0
0 0 0 0 0 0 0 0 0
0 0 0 0 0 0 0 0 0
0 0 0 0 0 0 0 0 0
0 0 0 0 0 0 0 0 0
0 0 0 0 0 0 0 0 0
0 0 0 0 0 0 0 0 0
0 0 0 0 0 0 0 0 0
0 0 0 0 0 0 0 0 0
0 0 0 0 0 0 0 0 0
0 0 0 0 0 0 0 0 0
0 0 0 0 0 0 0 0 0
0 0 0 0 0 0 0 0 0
0 0 0 0 0 0 0 0 0
0 0 0 0 0 0 0 0 0
0 0 0 0 0 0 0 0 0
0 0 0 0 0 0 0 0 0
0 0 0 0 0 0 0 0 0
0 0 0 0 0 0 0 0 0
0 0 0 0 0 0 0 0 0
0 0 0 0 0 0 0 0 0
0 0 0 0 0 0 0 0 0
0 0 0 0 0 0 0 0 0
0 0 0 0 0 0 0 0 0
0 0 0 0 0 0 0 0 0
0 0 0 0 0 0 0 0 0
0 0 0 0 0 0 0 0 0
0 0 0 0 0 0 0 0 0
0 0 0 0 0 0 0 0 0
0 0 0 0 0 0 0 0 0
0 0 0 0 0 0 0 0 0
0 0 0 0 0 0 0 0 0
0 0 0 0 0 0 0 0 0
0 0 0 0 0 0 0 0 0
0 0 0 0 0 0 0 0 0
0 0 0 0 0 0 0 0 0
0 0 0 0 0 0 0 0 0
0 0 0 0 0 0 0 0 0
0 0 0 0 0 0 0 0 0
0 0 0 0 0 0 0 0 0
0 0 0 0 0 0 0 0 0
0 0 0 0 0 0 0 0 0
0 0 0 0 0 0 0 0 0
0 0 0 0 0 0 0 0 0
0 0 0 0 0 0 0 0 0
0 0 0 0 0 0 0 0 0
0 0 0 0 0 0 0 0 0
0 0 0 0 0 0 0 0 0
0 0 0 0 0 0 0 0 0
0 0 0 0 0 0 0 0 0
0 0 0 0 0 0 0 0 0
0 0 0 0 0 0 0 0 0
0 0 0 0 0 0 0 0 0
0 0 0 0 0 0 0 0 0
0 0 0 0 0 0 0 0 0
0 0 0 0 0 0 0 0 0
0 0 0 0 0 0 0 0 0
0 0 0 0 0 0 0 0 0
0 0 0 0 0 0 0 0 0
0 0 0 0 0 0 0 0 0
0 0 0 0 0 0 0 0 0
0 0 0 0 0 0 0 0 0
0 0 0 0 0 0 0 0 0
0 0 0 0 0 0 0 0 0
0 0 0 0 0 0 0 0 0
0 0 0 0 0 0 0 0 0
0 0 0 0 0 0 0 0 0
0 0 0 0 0 0 0 0 0
0 0 0 0 0 0 0 0 0
0 0 0 0 0 0 0 0 0
0 0 0 0 0 0 0 0 0
0 0 0 0 0 0 0 0 0
0 0 0 0 0 0 0 0 0
0 0 0 0 0 0 0 0 0
0 0 0 0 0 0 0 0 0
0 0 0 0 0 0 0 0 0
0 0 0 0 0 0 0 0 0
0 0 0 0 0 0 0 0 0
0 0 0 0 0 0 0 0 0
0 0 0 0 0 0 0 0 0
0 0 0 0 0 0 0 0 0
0 0 0 0 0 0 0 0 0
0 0 0 0 0 0 0 0 0
0 0 0 0 0 0 0 0 0
0 0 0 0 0 0 0 0 0
0 0 0 0 0 0 0 0 0
0 0 0 0 0 0 0 0 0
0 0 0 0 0 0 0 0 0
0 0 0 0 0 0 0 0 0
0 0 0 0 0 0 0 0 0
0 0 0 0 0 0 0 0 0
0 0 0 0 0 0 0 0 0
0 0 0 0 0 0 0 0 0
0 0 0 0 0 0 0 0 0
0 0 0 0 0 0 0 0 0
0 0 0 0 0 0 0 0 0
0 0 0 0 0 0 0 0 0
0 0 0 0 0 0 0 0 0
0 0 0 0 0 0 0 0 0
0 0 0 0 0 0 0 0 0
0 0 0 0 0 0 0 0 0
0 0 0 0 0 0 0 0 0
0 0 0 0 0 0 0 0 0
0 0 0 0 0 0 0 0 0
0 0 0 0 0 0 0 0 0
0 0 0 0 0 0 0 0 0
0 0 0 0 0 0 0 0 0
0 0 0 0 0 0 0 0 0
0 0 0 0 0 0 0 0 0
0 0 0 0 0 0 0 0 0
0 0 0 0 0 0 0 0 0
0 0 0 0 0 0 0 0 0
0 0 0 0 0 0 0 0 0
0 0 0 0 0 0 0 0 0
0 0 0 0 0 0 0 0 0
0 0 0 0 0 0 0 0 0
0 0 0 0 0 0 0 0 0
0 0 0 0 0 0 0 0 0
0 0 0 0 0 0 0 0 0
0 0 0 0 0 0 0 0 0
0 0 0 0 0 0 0 0 0
0 0 0 0 0 0 0 0 0
0 0 0 0 0 0 0 0 0
0 0 0 0 0 0 0 0 0
0 0 0 0 0 0 0 0 0
0 0 0 0 0 0 0 0 0
0 0 0 0 0 0 0 0 0
0 0 0 0 0 0 0 0 0
0 0 0 0 0 0 0 0 0
0 0 0 0 0 0 0 0 0
0 0 0 0 0 0 0 0 0
0 0 0 0 0 0 0 0 0
0 0 0 0 0 0 0 0 0
0 0 0 0 0 0 0 0 0
0 0 0 0 0 0 0 0 0
0 0 0 0 0 0 0 0 0
0 0 0 0 0 0 0 0 0
0 0 0 0 0 0 0 0 0
0 0 0 0 0 0 0 0 0
0 0 0 0 0 0 0 0 0
0 0 0 0 0 0 0 0 0
0 0 0 0 0 0 0 0 0
0 0 0 0 0 0 0 0 0
0 0 0 0 0 0 0 0 0
0 0 0 0 0 0 0 0 0
0 0 0 0 0 0 0 0 0
0 0 0 0 0 0 0 0 0
0 0 0 0 0 0 0 0 0
0 0 0 0 0 0 0 0 0
0 0 0 0 0 0 0 0 0
0 0 0 0 0 0 0 0 0
0 0 0 0 0 0 0 0 0
0 0 0 0 0 0 0 0 0
0 0 0 0 0 0 0 0 0
0 0 0 0 0 0 0 0 0
0 0 0 0 0 0 0 0 0
0 0 0 0 0 0 0 0 0
0 0 0 0 0 0 0 0 0
0 0 0 0 0 0 0 0 0
0 0 0 0 0 0 0 0 0
0 0 0 0 0 0 0 0 0
0 0 0 0 0 0 0 0 0
0 0 0 0 0 0 0 0 0
0 0 0 0 0 0 0 0 0
0 0 0 0 0 0 0 0 0
0 0 0 0 0 0 0 0 0
0 0 0 0 0 0 0 0 0
0 0 0 0 0 0 0 0 0
0 0 0 0 0 0 0 0 0
0 0 0 0 0 0 0 0 0
0 0 0 0 0 0 0 0 0
0 0 0 0 0 0 0 0 0
0 0 0 0 0 0 0 0 0
0 0 0 0 0 0 0 0 0
0 0 0 0 0 0 0 0 0
0 0 0 0 0 0 0 0 0
0 0 0 0 0 0 0 0 0
0 0 0 0 0 0 0 0 0
0 0 0 0 0 0 0 0 0
0 0 0 0 0 0 0 0 0
0 0 0 0 0 0 0 0 0
0 0 0 0 0 0 0 0 0
0 0 0 0 0 0 0 0 0
0 0 0 0 0 0 0 0 0
0 0 0 0 0 0 0 0 0
0 0 0 0 0 0 0 0 0
0 0 0 0 0 0 0 0 0
0 0 0 0 0 0 0 0 0
0 0 0 0 0 0 0 0 0
0 0 0 0 0 0 0 0 0
0 0 0 0 0 0 0 0 0
0 0 0 0 0 0 0 0 0
0 0 0 0 0 0 0 0 0
0 0 0 0 0 0 0 0 0
0 0 0 0 0 0 0 0 0
0 0 0 0 0 0 0 0 0
0 0 0 0 0 0 0 0 0
0 0 0 0 0 0 0 0 0
0 0 0 0 0 0 0 0 0
0 0 0 0 0 0 0 0 0
0 0 0 0 0 0 0 0 0
0 0 0 0 0 0 0 0 0
0 0 0 0 0 0 0 0 0
0 0 0 0 0 0 0 0 0
0 0 0 0 0 0 0 0 0
0 0 0 0 0 0 0 0 0
0 0 0 0 0 0 0 0 0
0 0 0 0 0 0 0 0 0
0 0 0 0 0 0 0 0 0
0 0 0 0 0 0 0 0 0
0 0 0 0 0 0 0 0 0
0 0 0 0 0 0 0 0 0
0 0 0 0 0 0 0 0 0
0 0 0 0 0 0 0 0 0
0 0 0 0 0 0 0 0 0
0 0 0 0 0 0 0 0 0
0 0 0 0 0 0 0 0 0
0 0 0 0 0 0 0 0 0
0 0 0 0 0 0 0 0 0
0 0 0 0 0 0 0 0 0
0 0 0 0 0 0 0 0 0
0 0 0 0 0 0 0 0 0
0 0 0 0 0 0 0 0 0
0 0 0 0 0 0 0 0 0
0 0 0 0 0 0 0 0 0
0 0 0 0 0 0 0 0 0
0 0 0 0 0 0 0 0 0
0 0 0 0 0 0 0 0 0
0 0 0 0 0 0 0 0 0
0 0 0 0 0 0 0 0 0
0 0 0 0 0 0 0 0 0
0 0 0 0 0 0 0 0 0
0 0 0 0 0 0 0 0 0
0 0 0 0 0 0 0 0 0
0 0 0 0 0 0 0 0 0
0 0 0 0 0 0 0 0 0
0 0 0 0 0 0 0 0 0
0 0 0 0 0 0 0 0 0
0 0 0 0 0 0 0 0 0
0 0 0 0 0 0 0 0 0
0 0 0 0 0 0 0 0 0
0 0 0 0 0 0 0 0 0
0 0 0 0 0 0 0 0 0
0 0 0 0 0 0 0 0 0
0 0 0 0 0 0 0 0 0
0 0 0 0 0 0 0 0 0
0 0 0 0 0 0 0 0 0
0 0 0 0 0 0 0 0 0
0 0 0 0 0 0 0 0 0
0 0 0 0 0 0 0 0 0
0 0 0 0 0 0 0 0 0
0 0 0 0 0 0 0 0 0
0 0 0 0 0 0 0 0 0
0 0 0 0 0 0 0 0 0
0 0 0 0 0 0 0 0 0
0 0 0 0 0 0 0 0 0
0 0 0 0 0 0 0 0 0
0 0 0 0 0 0 0 0 0
0 0 0 0 0 0 0 0 0
0 0 0 0 0 0 0 0 0
0 0 0 0 0 0 0 0 0
0 0 0 0 0 0 0 0 0
0 0 0 0 0 0 0 0 0
0 0 0 0 0 0 0 0 0
0 0 0 0 0 0 0 0 0
0 0 0 0 0 0 0 0 0
0 0 0 0 0 0 0 0 0
0 0 0 0 0 0 0 0 0
0 0 0 0 0 0 0 0 0
0 0 0 0 0 0 0 0 0
0 0 0 0 0 0 0 0 0
0 0 0 0 0 0 0 0 0
0 0 0 0 0 0 0 0 0
0 0 0 0 0 0 0 0 0
0 0 0 0 0 0 0 0 0
0 0 0 0 0 0 0 0 0
0 0 0 0 0 0 0 0 0
0 0 0 0 0 0 0 0 0
0 0 0 0 0 0 0 0 0
0 0 0 0 0 0 0 0 0
0 0 0 0 0 0 0 0 0
0 0 0 0 0 0 0 0 0
0 0 0 0 0 0 0 0 0
0 0 0 0 0 0 0 0 0
0 0 0 0 0 0 0 0 0
0 0 0 0 0 0 0 0 0
0 0 0 0 0 0 0 0 0
0 0 0 0 0 0 0 0 0
0 0 0 0 0 0 0 0 0
0 0 0 0 0 0 0 0 0
0 0 0 0 0 0 0 0 0
0 0 0 0 0 0 0 0 0
0 0 0 0 0 0 0 0 0
0 0 0 0 0 0 0 0 0
0 0 0 0 0 0 0 0 0
0 0 0 0 0 0 0 0 0
0 0 0 0 0 0 0 0 0
0 0 0 0 0 0 0 0 0
0 0 0 0 0 0 0 0 0
0 0 0 0 0 0 0 0 0
0 0 0 0 0 0 0 0 0
0 0 0 0 0 0 0 0 0
0 0 0 0 0 0 0 0 0
0 0 0 0 0 0 0 0 0
0 0 0 0 0 0 0 0 0
0 0 0 0 0 0 0 0 0
0 0 0 0 0 0 0 0 0
0 0 0 0 0 0 0 0 0
0 0 0 0 0 0 0 0 0
0 0 0 0 0 0 0 0 0
0 0 0 0 0 0 0 0 0
0 0 0 0 0 0 0 0 0
0 0 0 0 0 0 0 0 0
0 0 0 0 0 0 0 0 0
0 0 0 0 0 0 0 0 0
0 0 0 0 0 0 0 0 0
0 0 0 0 0 0 0 0 0
0 0 0 0 0 0 0 0 0
0 0 0 0 0 0 0 0 0
0 0 0 0 0 0 0 0 0
0 0 0 0 0 0 0 0 0
0 0 0 0 0 0 0 0 0
0 0 0 0 0 0 0 0 0
0 0 0 0 0 0 0 0 0
0 0 0 0 0 0 0 0 0
0 0 0 0 0 0 0 0 0
0 0 0 0 0 0 0 0 0
0 0 0 0 0 0 0 0 0
0 0 0 0 0 0 0 0 0
0 0 0 0 0 0 0 0 0
0 0 0 0 0 0 0 0 0
0 0 0 0 0 0 0 0 0
0 0 0 0 0 0 0 0 0
0 0 0 0 0 0 0 0 0
0 0 0 0 0 0 0 0 0
0 0 0 0 0 0 0 0 0
0 0 0 0 0 0 0 0 0
0 0 0 0 0 0 0 0 0
0 0 0 0 0 0 0 0 0
0 0 0 0 0 0 0 0 0
0 0 0 0 0 0 0 0 0
0 0 0 0 0 0 0 0 0
0 0 0 0 0 0 0 0 0
0 0 0 0 0 0 0 0 0
0 0 0 0 0 0 0 0 0
0 0 0 0 0 0 0 0 0
0 0 0 0 0 0 0 0 0
0 0 0 0 0 0 0 0 0
0 0 0 0 0 0 0 0 0
0 0 0 0 0 0 0 0 0
0 0 0 0 0 0 0 0 0
0 0 0 0 0 0 0 0 0
0 0 0 0 0 0 0 0 0
0 0 0 0 0 0 0 0 0
0 0 0 0 0 0 0 0 0
0 0 0 0 0 0 0 0 0
0 0 0 0 0 0 0 0 0
0 0 0 0 0 0 0 0 0
0 0 0 0 0 0 0 0 0
0 0 0 0 0 0 0 0 0
0 0 0 0 0 0 0 0 0
0 0 0 0 0 0 0 0 0
0 0 0 0 0 0 0 0 0
0 0 0 0 0 0 0 0 0
0 0 0 0 0 0 0 0 0
0 0 0 0 0 0 0 0 0
0 0 0 0 0 0 0 0 0
0 0 0 0 0 0 0 0 0
0 0 0 0 0 0 0 0 0
0 0 0 0 0 0 0 0 0
0.00728921 0.00762264 0.00723136 0.00755963 0.00728921 0.00762264 0.00723136 0.00755963 0
0.00787118 0.00821678 0.00780425 0.0081443 0.00787118 0.00821678 0.00780425 0.0081443 0
0.00739585 0.00773884 0.00733335 0.00767072 0.00739585 0.00773884 0.00733335 0.00767072 0
0.00799459 0.00835031 0.00792224 0.00827206 0.00799459 0.00835031 0.00792224 0.00827206 0
0.00861547 0.00898421 0.00853286 0.00889558 0.00861547 0.00898421 0.00853286 0.00889558 0
0.00925897 0.00964087 0.00916583 0.00954144 0.00925897 0.00964087 0.00916583 0.00954144 0
0.00992533 0.0103206 0.00982128 0.0102102 0.00992533 0.0103206 0.00982128 0.0102102 0
0.0106145 0.011022 0.0104992 0.0108998 0.0106145 0.011022 0.0104992 0.0108998 0
0.0113245 0.0117434 0.0111971 0.0116087 0.0113245 0.0117434 0.0111971 0.0116087 0
0.0120541 0.0124841 0.011914 0.0123361 0.0120541 0.0124841 0.011914 0.0123361 0
0.0128027 0.0132431 0.0126488 0.0130808 0.0128027 0.0132431 0.0126488 0.0130808 0
0.00812683 0.00849264 0.00804948 0.00840948 0.00812683 0.00849264 0.00804948 0.00840948 0
0.00876541 0.00914483 0.00867786 0.00905108 0.00876541 0.00914483 0.00867786 0.00905108 0
0.0094276 0.00982074 0.00932919 0.00971579 0.0094276 0.00982074 0.00932919 0.00971579 0
0.0101136 0.0105206 0.0100037 0.0104039 0.0101136 0.0105206 0.0100037 0.0104039 0
0.0108233 0.0112433 0.0107014 0.0111142 0.0108233 0.0112433 0.0107014 0.0111142 0
0.0115554 0.0119878 0.0114207 0.0118451 0.0115554 0.0119878 0.0114207 0.0118451 0
0.0123087 0.012753 0.01216 0.0125959 0.0123087 0.012753 0.01216 0.0125959 0
0.00826791 0.00864394 0.00818542 0.00855553 0.00826791 0.00864394 0.00818542 0.00855553 0
0.00892445 0.00931482 0.00883155 0.00921558 0.00892445 0.00931482 0.00883155 0.00921558 0
0.00960585 0.0100106 0.00950181 0.00989983 0.00960585 0.0100106 0.00950181 0.00989983 0
0.0103122 0.0107315 0.0101963 0.0106084 0.0103122 0.0107315 0.0101963 0.0106084 0
0.0110436 0.0114769 0.010915 0.0113406 0.0110436 0.0114769 0.010915 0.0113406 0
0.011799 0.0122458 0.0116569 0.0120952 0.011799 0.0122458 0.0116569 0.0120952 0
0.0125775 0.0130372 0.0124207 0.0128713 0.0125775 0.0130372 0.0124207 0.0128713 0
0.00841783 0.00880428 0.00833024 0.00871066 0.00841783 0.00880428 0.00833024 0.00871066 0
0.00909271 0.00949432 0.00899449 0.00938958 0.00909271 0.00949432 0.00899449 0.00938958 0
0.00979387 0.0102107 0.00968418 0.010094 0.00979387 0.0102107 0.00968418 0.010094 0
0.0105215 0.0109538 0.0103995 0.0108241 0.0105215 0.0109538 0.0103995 0.0108241 0
0.0112757 0.011723 0.0111403 0.0115795 0.0112757 0.011723 0.0111403 0.0115795 0
0.0120559 0.0125179 0.011906 0.0123591 0.0120559 0.0125179 0.011906 0.0123591 0
0.00857647 0.00897355 0.00848386 0.00887478 0.00857647 0.00897355 0.00848386 0.00887478 0
0.00927009 0.00968325 0.00916661 0.00957307 0.00927009 0.00968325 0.00916661 0.00957307 0
0.00999164 0.0104211 0.00987632 0.0102985 0.00999164 0.0104211 0.00987632 0.0102985 0
0.0107415 0.0111874 0.0106132 0.0110512 0.0107415 0.0111874 0.0106132 0.0110512 0
0.0115197 0.0119819 0.0113774 0.011831 0.0115197 0.0119819 0.0113774 0.011831 0
0.0123261 0.0128043 0.0121685 0.0126373 0.0123261 0.0128043 0.0121685 0.0126373 0
0.00874369 0.00915162 0.00864613 0.00904778 0.00874369 0.00915162 0.00864613 0.00904778 0
0.00945649 0.00988156 0.00934781 0.00976597 0.00945649 0.00988156 0.00934781 0.00976597 0
0.0101991 0.0106417 0.0100782 0.0105131 0.0101991 0.0106417 0.0100782 0.0105131 0
0.0109721 0.0114324 0.0108377 0.0112896 0.0109721 0.0114324 0.0108377 0.0112896 0
0.0117758 0.012254 0.0116265 0.0120953 0.0117758 0.012254 0.0116265 0.0120953 0
0.0126102 0.0131055 0.0124445 0.0129299 0.0126102 0.0131055 0.0124445 0.0129299 0
0.00891941 0.00933839 0.00881695 0.00922953 0.00891941 0.00933839 0.00881695 0.00922953 0
0.0096518 0.0100892 0.00953798 0.00996821 0.0096518 0.0100892 0.00953798 0.00996821 0
0.0104162 0.0108725 0.0102897 0.010738 0.0104162 0.0108725 0.0102897 0.010738 0
0.0112134 0.0116889 0.0110728 0.0115394 0.0112134 0.0116889 0.0110728 0.0115394 0
0.012044 0.012539 0.0118877 0.0123729 0.012044 0.012539 0.0118877 0.0123729 0
0.00838357 0.00879525 0.00828667 0.00869257 0.00838357 0.00879525 0.00828667 0.00869257 0
0.00910342 0.00953379 0.0089962 0.00941994 0.00910342 0.00953379 0.0089962 0.00941994 0
0.00985602 0.0103061 0.00973704 0.0101797 0.00985602 0.0103061 0.00973704 0.0101797 0
0.010643 0.0111136 0.0105109 0.0109731 0.010643 0.0111136 0.0105109 0.0109731 0
0.0114656 0.0119571 0.0113187 0.0118009 0.0114656 0.0119571 0.0113187 0.0118009 0
0.0123247 0.0128375 0.0121612 0.0126636 0.0123247 0.0128375 0.0121612 0.0126636 0
0.00855799 0.00897992 0.00845628 0.00887225 0.00855799 0.00897992 0.00845628 0.00887225 0
0.0092961 0.00973811 0.00918378 0.00961906 0.0092961 0.00973811 0.00918378 0.00961906 0
0.0100694 0.0105327 0.00994509 0.0104007 0.0100694 0.0105327 0.00994509 0.0104007 0
0.0108799 0.0113653 0.0107419 0.0112187 0.0108799 0.0113653 0.0107419 0.0112187 0
0.0117291 0.0122378 0.0115756 0.0120742 0.0117291 0.0122378 0.0115756 0.0120742 0
0.0126185 0.0131502 0.0124472 0.0129679 0.0126185 0.0131502 0.0124472 0.0129679 0
0.00667996 0.00705475 0.00659691 0.00696785 0.00667996 0.00705475 0.00659691 0.00696785 0
0.00733541 0.00772749 0.00724548 0.00763309 0.00733541 0.00772749 0.00724548 0.00763309 0
0.00802153 0.00843289 0.0079236 0.00832979 0.00802153 0.00843289 0.0079236 0.00832979 0
0.0087416 0.00917376 0.00863444 0.00906071 0.0087416 0.00917376 0.00863444 0.00906071 0
0.00949806 0.00995204 0.00938031 0.00982734 0.00949806 0.00995204 0.00938031 0.00982734 0
0.0102927 0.0107697 0.0101626 0.0106315 0.0102927 0.0107697 0.0101626 0.0106315 0
0.0111276 0.0116286 0.0109832 0.0114752 0.0111276 0.0116286 0.0109832 0.0114752 0
0.0120047 0.0125313 0.0118441 0.0123603 0.0120047 0.0125313 0.0118441 0.0123603 0
0.00683151 0.00721279 0.00674281 0.00712037 0.00683151 0.00721279 0.00674281 0.00712037 0
0.00749866 0.00789845 0.00740325 0.00779858 0.00749866 0.00789845 0.00740325 0.00779858 0
0.00819864 0.00861906 0.00809521 0.00851039 0.00819864 0.00861906 0.00809521 0.00851039 0
0.00893497 0.00937776 0.00882211 0.0092587 0.00893497 0.00937776 0.00882211 0.0092587 0
0.00971051 0.010177 0.00958653 0.0100457 0.00971051 0.010177 0.00958653 0.0100457 0
0.0105274 0.0110186 0.0103905 0.0108734 0.0105274 0.0110186 0.0103905 0.0108734 0
0.0113877 0.011905 0.0112359 0.0117438 0.0113877 0.011905 0.0112359 0.0117438 0
0.012294 0.0128394 0.0121252 0.0126596 0.012294 0.0128394 0.0121252 0.0126596 0
0.00699329 0.00738109 0.00689861 0.00728264 0.00699329 0.00738109 0.00689861 0.00728264 0
0.00767238 0.00808044 0.00757076 0.00797397 0.00767238 0.00808044 0.00757076 0.00797397 0
0.00838712 0.00881703 0.00827684 0.00870121 0.00838712 0.00881703 0.00827684 0.00870121 0
0.0091403 0.00959369 0.00902021 0.00946751 0.0091403 0.00959369 0.00902021 0.00946751 0
0.00993504 0.0104144 0.00980388 0.0102757 0.00993504 0.0104144 0.00980388 0.0102757 0
0.010775 0.0112812 0.0106304 0.0111279 0.010775 0.0112812 0.0106304 0.0111279 0
0.0116621 0.0121968 0.0115019 0.0120264 0.0116621 0.0121968 0.0115019 0.0120264 0
0.0125995 0.0131651 0.012421 0.0129748 0.0125995 0.0131651 0.012421 0.0129748 0
0 0 0 0 0 0 0 0 0
0 0 0 0 0 0 0 0 0
0 0 0 0 0 0 0 0 0
0 0 0 0 0 0 0 0 0
0 0 0 0 0 0 0 0 0
0 0 0 0 0 0 0 0 0
0 0 0 0 0 0 0 0 0
0 0 0 0 0 0 0 0 0
0 0 0 0 0 0 0 0 0
0 0 0 0 0 0 0 0 0
0 0 0 0 0 0 0 0 0
0 0 0 0 0 0 0 0 0
0 0 0 0 0 0 0 0 0
0 0 0 0 0 0 0 0 0
0 0 0 0 0 0 0 0 0
0 0 0 0 0 0 0 0 0
0 0 0 0 0 0 0 0 0
0 0 0 0 0 0 0 0 0
0 0 0 0 0 0 0 0 0
0 0 0 0 0 0 0 0 0
0 0 0 0 0 0 0 0 0
0 0 0 0 0 0 0 0 0
0 0 0 0 0 0 0 0 0
0 0 0 0 0 0 0 0 0
0 0 0 0 0 0 0 0 0
0 0 0 0 0 0 0 0 0
0 0 0 0 0 0 0 0 0
0 0 0 0 0 0 0 0 0
0 0 0 0 0 0 0 0 0
0 0 0 0 0 0 0 0 0
0 0 0 0 0 0 0 0 0
0 0 0 0 0 0 0 0 0
0 0 0 0 0 0 0 0 0
0 0 0 0 0 0 0 0 0
0 0 0 0 0 0 0 0 0
0 0 0 0 0 0 0 0 0
0 0 0 0 0 0 0 0 0
0 0 0 0 0 0 0 0 0
0 0 0 0 0 0 0 0 0
0 0 0 0 0 0 0 0 0
0 0 0 0 0 0 0 0 0
0 0 0 0 0 0 0 0 0
0 0 0 0 0 0 0 0 0
0 0 0 0 0 0 0 0 0
0 0 0 0 0 0 0 0 0
0 0 0 0 0 0 0 0 0
0 0 0 0 0 0 0 0 0
0 0 0 0 0 0 0 0 0
0 0 0 0 0 0 0 0 0
0 0 0 0 0 0 0 0 0
0 0 0 0 0 0 0 0 0
0 0 0 0 0 0 0 0 0
0 0 0 0 0 0 0 0 0
0 0 0 0 0 0 0 0 0
0 0 0 0 0 0 0 0 0
0 0 0 0 0 0 0 0 0
0 0 0 0 0 0 0 0 0
0 0 0 0 0 0 0 0 0
0 0 0 0 0 0 0 0 0
0 0 0 0 0 0 0 0 0
0 0 0 0 0 0 0 0 0
0 0 0 0 0 0 0 0 0
0 0 0 0 0 0 0 0 0
0 0 0 0 0 0 0 0 0
0 0 0 0 0 0 0 0 0
0 0 0 0 0 0 0 0 0
0 0 0 0 0 0 0 0 0
0 0 0 0 0 0 0 0 0
0 0 0 0 0 0 0 0 0
0 0 0 0 0 0 0 0 0
0 0 0 0 0 0 0 0 0
0 0 0 0 0 0 0 0 0
0 0 0 0 0 0 0 0 0
0 0 0 0 0 0 0 0 0
0 0 0 0 0 0 0 0 0
0 0 0 0 0 0 0 0 0
0 0 0 0 0 0 0 0 0
0 0 0 0 0 0 0 0 0
0 0 0 0 0 0 0 0 0
0 0 0 0 0 0 0 0 0
0 0 0 0 0 0 0 0 0
0 0 0 0 0 0 0 0 0
0 0 0 0 0 0 0 0 0
0 0 0 0 0 0 0 0 0
0.00671304 0.00701577 0.00663105 0.00692811 0.00671304 0.00701577 0.00663105 0.00692811 0
0.00724041 0.00755142 0.00714828 0.00745272 0.00724041 0.00755142 0.00714828 0.00745272 0
0.00686203 0.00717553 0.00677496 0.0070821 0.00686203 0.00717553 0.00677496 0.0070821 0
0.00740819 0.00773032 0.00731009 0.00762584 0.00740819 0.00773032 0.00731009 0.00762584 0
0.00796935 0.00830027 0.00786 0.00818395 0.00796935 0.00830027 0.00786 0.00818395 0
0.00854541 0.00888422 0.00842385 0.00875528 0.00854541 0.00888422 0.00842385 0.00875528 0
0.00913478 0.00948046 0.00900028 0.00933818 0.00913478 0.00948046 0.00900028 0.00933818 0
0.0097351 0.010085 0.00958685 0.00992826 0.0097351 0.010085 0.00958685 0.00992826 0
0.0103419 0.0106937 0.0101787 0.0105214 0.0103419 0.0106937 0.0101787 0.0105214 0
0.0109511 0.0113021 0.0107718 0.0111131 0.0109511 0.0113021 0.0107718 0.0111131 0
0.0115578 0.011905 0.0113612 0.0116977 0.0115578 0.011905 0.0113612 0.0116977 0
0.00758491 0.00791813 0.00748185 0.00780866 0.00758491 0.00791813 0.00748185 0.00780866 0
0.0081656 0.00850852 0.00805127 0.00838727 0.0081656 0.00850852 0.00805127 0.00838727 0
0.00876277 0.00911447 0.00863626 0.0089805 0.00876277 0.00911447 0.00863626 0.0089805 0
0.00937478 0.00973425 0.00923516 0.00958663 0.00937478 0.00973425 0.00923516 0.00958663 0
0.00999949 0.0103646 0.00984572 0.010202 0.00999949 0.0103646 0.00984572 0.010202 0
0.0106332 0.0110016 0.0104638 0.0108225 0.0106332 0.0110016 0.0104638 0.0108225 0
0.0112716 0.0116405 0.011085 0.0114435 0.0112716 0.0116405 0.011085 0.0114435 0
0.00777087 0.00811508 0.00766237 0.00800025 0.00777087 0.00811508 0.00766237 0.00800025 0
0.00837096 0.00872584 0.00825129 0.00859927 0.00837096 0.00872584 0.00825129 0.00859927 0
0.00898924 0.00935398 0.00885738 0.00921458 0.00898924 0.00935398 0.00885738 0.00921458 0
0.00962424 0.00999788 0.00947908 0.00984448 0.00962424 0.00999788 0.00947908 0.00984448 0
0.010274 0.0106548 0.0101143 0.010486 0.010274 0.0106548 0.0101143 0.010486 0
0.0109354 0.011321 0.0107596 0.0111352 0.0109354 0.011321 0.0107596 0.0111352 0
0.0116041 0.011992 0.0114107 0.0117875 0.0116041 0.011992 0.0114107 0.0117875 0
0.00796634 0.00832142 0.00785233 0.00820115 0.00796634 0.00832142 0.00785233 0.00820115 0
0.00858566 0.00895252 0.00846056 0.00882051 0.00858566 0.00895252 0.00846056 0.00882051 0
0.00922512 0.00960308 0.00908779 0.0094581 0.00922512 0.00960308 0.00908779 0.0094581 0
0.0098835 0.0102717 0.00973263 0.0101124 0.0098835 0.0102717 0.00973263 0.0101124 0
0.0105591 0.010956 0.0103932 0.0107808 0.0105591 0.010956 0.0103932 0.0107808 0
0.011249 0.0116526 0.0110666 0.0114596 0.011249 0.0116526 0.0110666 0.0114596 0
0.00817136 0.00853726 0.00805182 0.00841149 0.00817136 0.00853726 0.00805182 0.00841149 0
0.00880985 0.00918874 0.00867925 0.00905119 0.00880985 0.00918874 0.00867925 0.00905119 0
0.00947065 0.00986202 0.00932772 0.00971132 0.00947065 0.00986202 0.00932772 0.00971132 0
0.0101528 0.010556 0.0099961 0.0103906 0.0101528 0.010556 0.0099961 0.0103906 0
0.0108549 0.0112685 0.0106828 0.0110867 0.0108549 0.0112685 0.0106828 0.0110867 0
0.0115744 0.0119966 0.0113851 0.0117965 0.0115744 0.0119966 0.0113851 0.0117965 0
0.00838601 0.0087627 0.0082609 0.00863136 0.00838601 0.0087627 0.0082609 0.00863136 0
0.00904367 0.00943468 0.00890749 0.00929149 0.00904367 0.00943468 0.00890749 0.00929149 0
0.00972602 0.0101311 0.00957737 0.00997448 0.00972602 0.0101311 0.00957737 0.00997448 0
0.0104325 0.0108509 0.0102697 0.0106793 0.0104325 0.0108509 0.0102697 0.0106793 0
0.0111618 0.0115928 0.0109833 0.0114041 0.0111618 0.0115928 0.0109833 0.0114041 0
0.0119121 0.0123535 0.0117156 0.0121459 0.0119121 0.0123535 0.0117156 0.0121459 0
0.00861039 0.00899787 0.00847964 0.00886089 0.00861039 0.00899787 0.00847964 0.00886089 0
0.00928727 0.00969056 0.00914541 0.00954159 0.00928727 0.00969056 0.00914541 0.00954159 0
0.0099915 0.0104105 0.00983697 0.0102479 0.0099915 0.0104105 0.00983697 0.0102479 0
0.0107228 0.0111571 0.0105538 0.0109789 0.0107228 0.0111571 0.0105538 0.0109789 0
0.0114803 0.0119292 0.011295 0.0117335 0.0114803 0.0119292 0.011295 0.0117335 0
0.00817726 0.00855897 0.00805061 0.00842691 0.00817726 0.00855897 0.00805061 0.00842691 0
0.00884449 0.00924295 0.00870812 0.00910021 0.00884449 0.00924295 0.00870812 0.00910021 0
0.00954093 0.00995671 0.00939322 0.00980176 0.00954093 0.00995671 0.00939322 0.00980176 0
0.0102674 0.0107008 0.0101068 0.0105318 0.0102674 0.0107008 0.0101068 0.0105318 0
0.0110242 0.0114749 0.0108488 0.0112899 0.0110242 0.0114749 0.0108488 0.0112899 0
0.0118109 0.0122785 0.0116185 0.0120752 0.0118109 0.0122785 0.0116185 0.0120752 0
0.00840451 0.00879581 0.00827204 0.00865777 0.00840451 0.00879581 0.00827204 0.00865777 0
0.00908888 0.00949841 0.00894647 0.0093496 0.00908888 0.00949841 0.00894647 0.0093496 0
0.00980511 0.0102337 0.00965125 0.0100724 0.00980511 0.0102337 0.00965125 0.0100724 0
0.0105545 0.0110025 0.0103874 0.0108268 0.0105545 0.0110025 0.0103874 0.0108268 0
0.0113377 0.0118056 0.0111552 0.011613 0.0113377 0.0118056 0.0111552 0.011613 0
0.0121549 0.0126417 0.0119546 0.0124302 0.0121549 0.0126417 0.0119546 0.0124302 0
0.00673505 0.00708104 0.00661726 0.00696006 0.00673505 0.00708104 0.00661726 0.00696006 0
0.00734043 0.00770317 0.00721684 0.00757566 0.00734043 0.00770317 0.00721684 0.00757566 0
0.00797543 0.00835663 0.00784479 0.00822132 0.00797543 0.00835663 0.00784479 0.00822132 0
0.0086428 0.00904355 0.00850379 0.00889912 0.0086428 0.00904355 0.00850379 0.00889912 0
0.00934423 0.0097651 0.0091954 0.00960969 0.00934423 0.0097651 0.0091954 0.00960969 0
0.0100808 0.0105225 0.00992015 0.0103542 0.0100808 0.0105225 0.00992015 0.0103542 0
0.0108536 0.0113169 0.0106793 0.0111338 0.0108536 0.0113169 0.0106793 0.0111338 0
0.0116642 0.0121498 0.011474 0.0119493 0.0116642 0.0121498 0.011474 0.0119493 0
0.00694748 0.00729892 0.00682348 0.00717179 0.00694748 0.00729892 0.00682348 0.00717179 0
0.0075628 0.00793234 0.00743308 0.00779869 0.0075628 0.00793234 0.00743308 0.00779869 0
0.00821011 0.00859956 0.00807327 0.00845793 0.00821011 0.00859956 0.00807327 0.00845793 0
0.00889236 0.00930301 0.00874686 0.00915171 0.00889236 0.00930301 0.00874686 0.00915171 0
0.00961162 0.0100443 0.00945569 0.00988149 0.00961162 0.0100443 0.00945569 0.00988149 0
0.0103693 0.0108247 0.010201 0.0106485 0.0103693 0.0108247 0.010201 0.0106485 0
0.0111666 0.0116457 0.0109841 0.011454 0.0111666 0.0116457 0.0109841 0.011454 0
0.0120056 0.0125099 0.0118065 0.0122999 0.0120056 0.0125099 0.0118065 0.0122999 0
0.00717072 0.0075278 0.00704048 0.00739427 0.00717072 0.0075278 0.00704048 0.00739427 0
0.00779649 0.00817353 0.00766013 0.00803273 0.00779649 0.00817353 0.00766013 0.00803273 0
0.00845726 0.00885549 0.00831295 0.00870603 0.00845726 0.00885549 0.00831295 0.00870603 0
0.00915516 0.0095758 0.00900171 0.00941659 0.00915516 0.0095758 0.00900171 0.00941659 0
0.00989262 0.0103377 0.00972864 0.0101665 0.00989262 0.0103377 0.00972864 0.0101665 0
0.0106725 0.0111424 0.0104956 0.0109569 0.0106725 0.0111424 0.0104956 0.0109569 0
0.0114958 0.0119917 0.0113037 0.0117897 0.0114958 0.0119917 0.0113037 0.0117897 0
0.012365 0.0128891 0.0121552 0.0126676 0.012365 0.0128891 0.0121552 0.0126676 0
0 0 0 0 0 0 0 0 0
0 0 0 0 0 0 0 0 0
0 0 0 0 0 0 0 0 0
0 0 0 0 0 0 0 0 0
0 0 0 0 0 0 0 0 0
0 0 0 0 0 0 0 0 0
0 0 0 0 0 0 0 0 0
0 0 0 0 0 0 0 0 0
0 0 0 0 0 0 0 0 0
0 0 0 0 0 0 0 0 0
0 0 0 0 0 0 0 0 0
0 0 0 0 0 0 0 0 0
0 0 0 0 0 0 0 0 0
0 0 0 0 0 0 0 0 0
0 0 0 0 0 0 0 0 0
0 0 0 0 0 0 0 0 0
0 0 0 0 0 0 0 0 0
0 0 0 0 0 0 0 0 0
0 0 0 0 0 0 0 0 0
0 0 0 0 0 0 0 0 0
0 0 0 0 0 0 0 0 0
0 0 0 0 0 0 0 0 0
0 0 0 0 0 0 0 0 0
0 0 0 0 0 0 0 0 0
0 0 0 0 0 0 0 0 0
0 0 0 0 0 0 0 0 0
0 0 0 0 0 0 0 0 0
0 0 0 0 0 0 0 0 0
0 0 0 0 0 0 0 0 0
0 0 0 0 0 0 0 0 0
0 0 0 0 0 0 0 0 0
0 0 0 0 0 0 0 0 0
0 0 0 0 0 0 0 0 0
0 0 0 0 0 0 0 0 0
0 0 0 0 0 0 0 0 0
0 0 0 0 0 0 0 0 0
0 0 0 0 0 0 0 0 0
0 0 0 0 0 0 0 0 0
0 0 0 0 0 0 0 0 0
0 0 0 0 0 0 0 0 0
0 0 0 0 0 0 0 0 0
0 0 0 0 0 0 0 0 0
0 0 0 0 0 0 0 0 0
0 0 0 0 0 0 0 0 0
0 0 0 0 0 0 0 0 0
0 0 0 0 0 0 0 0 0
0 0 0 0 0 0 0 0 0
0 0 0 0 0 0 0 0 0
0 0 0 0 0 0 0 0 0
0 0 0 0 0 0 0 0 0
0 0 0 0 0 0 0 0 0
0 0 0 0 0 0 0 0 0
0 0 0 0 0 0 0 0 0
0 0 0 0 0 0 0 0 0
0 0 0 0 0 0 0 0 0
0 0 0 0 0 0 0 0 0
0 0 0 0 0 0 0 0 0
0 0 0 0 0 0 0 0 0
0 0 0 0 0 0 0 0 0
0 0 0 0 0 0 0 0 0
0 0 0 0 0 0 0 0 0
0 0 0 0 0 0 0 0 0
0 0 0 0 0 0 0 0 0
0 0 0 0 0 0 0 0 0
0 0 0 0 0 0 0 0 0
0 0 0 0 0 0 0 0 0
0 0 0 0 0 0 0 0 0
0 0 0 0 0 0 0 0 0
0 0 0 0 0 0 0 0 0
0 0 0 0 0 0 0 0 0
0 0 0 0 0 0 0 0 0
0 0 0 0 0 0 0 0 0
0 0 0 0 0 0 0 0 0
0 0 0 0 0 0 0 0 0
0 0 0 0 0 0 0 0 0
0 0 0 0 0 0 0 0 0
0 0 0 0 0 0 0 0 0
0 0 0 0 0 0 0 0 0
0 0 0 0 0 0 0 0 0
0 0 0 0 0 0 0 0 0
0 0 0 0 0 0 0 0 0
0 0 0 0 0 0 0 0 0
0 0 0 0 0 0 0 0 0
0 0 0 0 0 0 0 0 0
0 0 0 0 0 0 0 0 0
0 0 0 0 0 0 0 0 0
0 0 0 0 0 0 0 0 0
0 0 0 0 0 0 0 0 0
0 0 0 0 0 0 0 0 0
0 0 0 0 0 0 0 0 0
0 0 0 0 0 0 0 0 0
0 0 0 0 0 0 0 0 0
0 0 0 0 0 0 0 0 0
0 0 0 0 0 0 0 0 0
0 0 0 0 0 0 0 0 0
0 0 0 0 0 0 0 0 0
0 0 0 0 0 0 0 0 0
0 0 0 0 0 0 0 0 0
0 0 0 0 0 0 0 0 0
0 0 0 0 0 0 0 0 0
0 0 0 0 0 0 0 0 0
0 0 0 0 0 0 0 0 0
0 0 0 0 0 0 0 0 0
0 0 0 0 0 0 0 0 0
0 0 0 0 0 0 0 0 0
0 0 0 0 0 0 0 0 0
0 0 0 0 0 0 0 0 0
0 0 0 0 0 0 0 0 0
0 0 0 0 0 0 0 0 0
0 0 0 0 0 0 0 0 0
0 0 0 0 0 0 0 0 0
0 0 0 0 0 0 0 0 0
0 0 0 0 0 0 0 0 0
0 0 0 0 0 0 0 0 0
0 0 0 0 0 0 0 0 0
0 0 0 0 0 0 0 0 0
0 0 0 0 0 0 0 0 0
0 0 0 0 0 0 0 0 0
0 0 0 0 0 0 0 0 0
0 0 0 0 0 0 0 0 0
0 0 0 0 0 0 0 0 0
0 0 0 0 0 0 0 0 0
0 0 0 0 0 0 0 0 0
0 0 0 0 0 0 0 0 0
0 0 0 0 0 0 0 0 0
0 0 0 0 0 0 0 0 0
0 0 0 0 0 0 0 0 0
0 0 0 0 0 0 0 0 0
0 0 0 0 0 0 0 0 0
0 0 0 0 0 0 0 0 0
0 0 0 0 0 0 0 0 0
0 0 0 0 0 0 0 0 0
0 0 0 0 0 0 0 0 0
0 0 0 0 0 0 0 0 0
0 0 0 0 0 0 0 0 0
0 0 0 0 0 0 0 0 0
0 0 0 0 0 0 0 0 0
0 0 0 0 0 0 0 0 0
0 0 0 0 0 0 0 0 0
0 0 0 0 0 0 0 0 0
0 0 0 0 0 0 0 0 0
0 0 0 0 0 0 0 0 0
0 0 0 0 0 0 0 0 0
0 0 0 0 0 0 0 0 0
0 0 0 0 0 0 0 0 0
0 0 0 0 0 0 0 0 0
0 0 0 0 0 0 0 0 0
0 0 0 0 0 0 0 0 0
0 0 0 0 0 0 0 0 0
0 0 0 0 0 0 0 0 0
0 0 0 0 0 0 0 0 0
0 0 0 0 0 0 0 0 0
0 0 0 0 0 0 0 0 0
0 0 0 0 0 0 0 0 0
0 0 0 0 0 0 0 0 0
0 0 0 0 0 0 0 0 0
0 0 0 0 0 0 0 0 0
0 0 0 0 0 0 0 0 0
0 0 0 0 0 0 0 0 0
0 0 0 0 0 0 0 0 0
0 0 0 0 0 0 0 0 0
0 0 0 0 0 0 0 0 0
0 0 0 0 0 0 0 0 0
0 0 0 0 0 0 0 0 0
0 0 0 0 0 0 0 0 0
0 0 0 0 0 0 0 0 0
0 0 0 0 0 0 0 0 0
0 0 0 0 0 0 0 0 0
0 0 0 0 0 0 0 0 0
0 0 0 0 0 0 0 0 0
0 0 0 0 0 0 0 0 0
0 0 0 0 0 0 0 0 0
0 0 0 0 0 0 0 0 0
0 0 0 0 0 0 0 0 0
0 0 0 0 0 0 0 0 0
0 0 0 0 0 0 0 0 0
0 0 0 0 0 0 0 0 0
0 0 0 0 0 0 0 0 0
0 0 0 0 0 0 0 0 0
0 0 0 0 0 0 0 0 0
0 0 0 0 0 0 0 0 0
0 0 0 0 0 0 0 0 0
0 0 0 0 0 0 0 0 0
0 0 0 0 0 0 0 0 0
0 0 0 0 0 0 0 0 0
0 0 0 0 0 0 0 0 0
0 0 0 0 0 0 0 0 0
0 0 0 0 0 0 0 0 0
0 0 0 0 0 0 0 0 0
0 0 0 0 0 0 0 0 0
0 0 0 0 0 0 0 0 0
0 0 0 0 0 0 0 0 0
0 0 0 0 0 0 0 0 0
0 0 0 0 0 0 0 0 0
0 0 0 0 0 0 0 0 0
0 0 0 0 0 0 0 0 0
0 0 0 0 0 0 0 0 0
0 0 0 0 0 0 0 0 0
0 0 0 0 0 0 0 0 0
0 0 0 0 0 0 0 0 0
0 0 0 0 0 0 0 0 0
0 0 0 0 0 0 0 0 0
0 0 0 0 0 0 0 0 0
0 0 0 0 0 0 0 0 0
0 0 0 0 0 0 0 0 0
0 0 0 0 0 0 0 0 0
0 0 0 0 0 0 0 0 0
0 0 0 0 0 0 0 0 0
0 0 0 0 0 0 0 0 0
0 0 0 0 0 0 0 0 0
0 0 0 0 0 0 0 0 0
0 0 0 0 0 0 0 0 0
0 0 0 0 0 0 0 0 0
0 0 0 0 0 0 0 0 0
0 0 0 0 0 0 0 0 0
0 0 0 0 0 0 0 0 0
0 0 0 0 0 0 0 0 0
0 0 0 0 0 0 0 0 0
0 0 0 0 0 0 0 0 0
0 0 0 0 0 0 0 0 0
0 0 0 0 0 0 0 0 0
0 0 0 0 0 0 0 0 0
0 0 0 0 0 0 0 0 0
0 0 0 0 0 0 0 0 0
0 0 0 0 0 0 0 0 0
0 0 0 0 0 0 0 0 0
0 0 0 0 0 0 0 0 0
0 0 0 0 0 0 0 0 0
0 0 0 0 0 0 0 0 0
0 0 0 0 0 0 0 0 0
0 0 0 0 0 0 0 0 0
0 0 0 0 0 0 0 0 0
0 0 0 0 0 0 0 0 0
0 0 0 0 0 0 0 0 0
0 0 0 0 0 0 0 0 0
0 0 0 0 0 0 0 0 0
0 0 0 0 0 0 0 0 0
0 0 0 0 0 0 0 0 0
0 0 0 0 0 0 0 0 0
0 0 0 0 0 0 0 0 0
0 0 0 0 0 0 0 0 0
0 0 0 0 0 0 0 0 0
0 0 0 0 0 0 0 0 0
0 0 0 0 0 0 0 0 0
0 0 0 0 0 0 0 0 0
0 0 0 0 0 0 0 0 0
0 0 0 0 0 0 0 0 0
0 0 0 0 0 0 0 0 0
0 0 0 0 0 0 0 0 0
0 0 0 0 0 0 0 0 0
0 0 0 0 0 0 0 0 0
0 0 0 0 0 0 0 0 0
0 0 0 0 0 0 0 0 0
0 0 0 0 0 0 0 0 0
0 0 0 0 0 0 0 0 0
0 0 0 0 0 0 0 0 0
0 0 0 0 0 0 0 0 0
0 0 0 0 0 0 0 0 0
0 0 0 0 0 0 0 0 0
0 0 0 0 0 0 0 0 0
0 0 0 0 0 0 0 0 0
0 0 0 0 0 0 0 0 0
0 0 0 0 0 0 0 0 0
0 0 0 0 0 0 0 0 0
0 0 0 0 0 0 0 0 0
0 0 0 0 0 0 0 0 0
0 0 0 0 0 0 0 0 0
0 0 0 0 0 0 0 0 0
0 0 0 0 0 0 0 0 0
0 0 0 0 0 0 0 0 0
0 0 0 0 0 0 0 0 0
0 0 0 0 0 0 0 0 0
0 0 0 0 0 0 0 0 0
0 0 0 0 0 0 0 0 0
0 0 0 0 0 0 0 0 0
0 0 0 0 0 0 0 0 0
0 0 0 0 0 0 0 0 0
0 0 0 0 0 0 0 0 0
0 0 0 0 0 0 0 0 0
0 0 0 0 0 0 0 0 0
0 0 0 0 0 0 0 0 0
0 0 0 0 0 0 0 0 0
0 0 0 0 0 0 0 0 0
0 0 0 0 0 0 0 0 0
0 0 0 0 0 0 0 0 0
0 0 0 0 0 0 0 0 0
0 0 0 0 0 0 0 0 0
0 0 0 0 0 0 0 0 0
0 0 0 0 0 0 0 0 0
0 0 0 0 0 0 0 0 0
0 0 0 0 0 0 0 0 0
0 0 0 0 0 0 0 0 0
0 0 0 0 0 0 0 0 0
0 0 0 0 0 0 0 0 0
0 0 0 0 0 0 0 0 0
0 0 0 0 0 0 0 0 0
0 0 0 0 0 0 0 0 0
0 0 0 0 0 0 0 0 0
0 0 0 0 0 0 0 0 0
0 0 0 0 0 0 0 0 0
0 0 0 0 0 0 0 0 0
0 0 0 0 0 0 0 0 0
0 0 0 0 0 0 0 0 0
0 0 0 0 0 0 0 0 0
0 0 0 0 0 0 0 0 0
0 0 0 0 0 0 0 0 0
0 0 0 0 0 0 0 0 0
0 0 0 0 0 0 0 0 0
0 0 0 0 0 0 0 0 0
0 0 0 0 0 0 0 0 0
0 0 0 0 0 0 0 0 0
0 0 0 0 0 0 0 0 0
0 0 0 0 0 0 0 0 0
0 0 0 0 0 0 0 0 0
0 0 0 0 0 0 0 0 0
0 0 0 0 0 0 0 0 0
0 0 0 0 0 0 0 0 0
0 0 0 0 0 0 0 0 0
0 0 0 0 0 0 0 0 0
0 0 0 0 0 0 0 0 0
0 0 0 0 0 0 0 0 0
0 0 0 0 0 0 0 0 0
0 0 0 0 0 0 0 0 0
0 0 0 0 0 0 0 0 0
0 0 0 0 0 0 0 0 0
0 0 0 0 0 0 0 0 0
0 0 0 0 0 0 0 0 0
0 0 0 0 0 0 0 0 0
0 0 0 0 0 0 0 0 0
0 0 0 0 0 0 0 0 0
0 0 0 0 0 0 0 0 0
0 0 0 0 0 0 0 0 0
0 0 0 0 0 0 0 0 0
0 0 0 0 0 0 0 0 0
0 0 0 0 0 0 0 0 0
0 0 0 0 0 0 0 0 0
0 0 0 0 0 0 0 0 0
0 0 0 0 0 0 0 0 0
0 0 0 0 0 0 0 0 0
0 0 0 0 0 0 0 0 0
0 0 0 0 0 0 0 0 0
0 0 0 0 0 0 0 0 0
0 0 0 0 0 0 0 0 0
0 0 0 0 0 0 0 0 0
0 0 0 0 0 0 0 0 0
0 0 0 0 0 0 0 0 0
0 0 0 0 0 0 0 0 0
0 0 0 0 0 0 0 0 0
0 0 0 0 0 0 0 0 0
0 0 0 0 0 0 0 0 0
0 0 0 0 0 0 0 0 0
0 0 0 0 0 0 0 0 0
0 0 0 0 0 0 0 0 0
0 0 0 0 0 0 0 0 0
0 0 0 0 0 0 0 0 0
0 0 0 0 0 0 0 0 0
0 0 0 0 0 0 0 0 0
0 0 0 0 0 0 0 0 0
0 0 0 0 0 0 0 0 0
0 0 0 0 0 0 0 0 0
0 0 0 0 0 0 0 0 0
0 0 0 0 0 0 0 0 0
0 0 0 0 0 0 0 0 0
0 0 0 0 0 0 0 0 0
0 0 0 0 0 0 0 0 0
0 0 0 0 0 0 0 0 0
0 0 0 0 0 0 0 0 0
0 0 0 0 0 0 0 0 0
0 0 0 0 0 0 0 0 0
0 0 0 0 0 0 0 0 0
0 0 0 0 0 0 0 0 0
0 0 0 0 0 0 0 0 0
0 0 0 0 0 0 0 0 0
0 0 0 0 0 0 0 0 0
0 0 0 0 0 0 0 0 0
0 0 0 0 0 0 0 0 0
0 0 0 0 0 0 0 0 0
0 0 0 0 0 0 0 0 0
0 0 0 0 0 0 0 0 0
0 0 0 0 0 0 0 0 0
0 0 0 0 0 0 0 0 0
0 0 0 0 0 0 0 0 0
0 0 0 0 0 0 0 0 0
0 0 0 0 0 0 0 0 0
0 0 0 0 0 0 0 0 0
0 0 0 0 0 0 0 0 0
0 0 0 0 0 0 0 0 0
0 0 0 0 0 0 0 0 0
0 0 0 0 0 0 0 0 0
0 0 0 0 0 0 0 0 0
0 0 0 0 0 0 0 0 0
0 0 0 0 0 0 0 0 0
0 0 0 0 0 0 0 0 0
0 0 0 0 0 0 0 0 0
0 0 0 0 0 0 0 0 0
0 0 0 0 0 0 0 0 0
0 0 0 0 0 0 0 0 0
0 0 0 0 0 0 0 0 0
0 0 0 0 0 0 0 0 0
0 0 0 0 0 0 0 0 0
0 0 0 0 0 0 0 0 0
0 0 0 0 0 0 0 0 0
0 0 0 0 0 0 0 0 0
0 0 0 0 0 0 0 0 0
0 0 0 0 0 0 0 0 0
0 0 0 0 0 0 0 0 0
0 0 0 0 0 0 0 0 0
0 0 0 0 0 0 0 0 0
0 0 0 0 0 0 0 0 0
0 0 0 0 0 0 0 0 0
0 0 0 0 0 0 0 0 0
0 0 0 0 0 0 0 0 0
0 0 0 0 0 0 0 0 0
0 0 0 0 0 0 0 0 0
0 0 0 0 0 0 0 0 0
0 0 0 0 0 0 0 0 0
SCALARS F_MT double 1
LOOKUP_TABLE default
0
0
0
0
0
0
0
0
0
0
0
0
0
0
0
0
0
0
0
0
0
0
0
0
0
0
0
0
0
0
0
0
0
0
0
0
0
0
0
0
0
0
0
0
0
0
0
0
0
0
0
0
0
0
0
0
0
0
0
0
0
0
0
0
0
0
0
0
0
0
0
0
0
0
0
0
0
0
0
0
0
0
0
0
0
0
0
0
0
0
0
0
0
0
0
0
0
0
0
0
0
0
0
0
0
0
0
0
0
0
0
0
0
0
0
0
0
0
0
0
0
0
0
0
0
0
0
0
0
0
0
0
0
0
0
0
0
0
0
0
0
0
0
0
0
0
0
0
0
0
0
0
0
0
0
0
0
0
0
0
0
0
0
0
0
0
0
0
0
0
0
0
0
0
0
0
0
0
0
0
0
0
0
0
0
0
0
0
0
0
0
0
0
0
0
0
0
0
0
0
0
0
0
0
0
0
0
0
0
0
0
0
0
0
0
0
0
0
0
0
0
0
0
0
0
0
0
0
0
0
0
0
0
0
0
0
0
0
0
0
0
0
0
0
0
0
0
0
0
0
0
0
0
0
0
0
0
0
0
0
0
0
0
0
0
0
0
0
0
0
0
0
0
0
0
0
0
0
0
0
0
0
0
0
0
0
0
0
0
0
0
0
0
0
0
0
0
0
0
0
0
0
0
0
0
0
0
0
0
0
0
0
0
0
0
0
0
0
0
0
0
0
0
0
0
0
0
0
0
0
0
0
0
0
0
0
0
0
0
0
0
0
0
0
0
0
0
0
0
0
0
0
0
0
0
0
0
0
0
0
0
0
0
0
0
0
0
0
0
0
0
0
0
0
0
0
0
0
0
0
0
0
0
0
0
0
0
0
0
0
0
0
0
0
0
0
0
0
0
0
0
0
0
0
0
0
0
0
0
0
0
0
0
0
0
0
0
0
0
0
0
0
0
0
0
0
0
0
0
0
0
0
0
0
0
0
0
0
0
0
0
0
0
0
0
0
0
0
0
0
0
0
0
0
0
0
0
0
0
0
0
0
0
0
0
0
0
0
0
0
0
0
0
0
0
0
0
0
0
0
0
0
0
0
0
0
0
0
0
0
0
0
0
0
0
0
0
0
0
7.77533e-05
7.26946e-05
0
0
0
0
0
0
0
0
0
0
0
0
0
0
0
0
0
0
0
0
0
0
0
0
0
0
0
0
0
0
0
0
0
0
0
0
0
0
0
0
0
0
0
0
0
0
0
0
0
0
0
0
0
0
0
0
0
0
0
0
0
0
0
0
0
0
0
0
0
0
0
0
0
0
0
0
0
0
0
0
0
0
0
0
0
0
0
0
0
0
0
0
0
0
0
0
0
0
0
0
0
0
0
0
0
0
0
0
0
0
0
0
0
0
0
0
0
0
0
0
0
0
0
0
0
0
0
0
0
0
0
0
0
0
0
0
0
0
0
0
0
0
0
0
0
0
0
0
0
0
0
0
0
0
0
0
0
0
0
0
0
0
0
0
0
0
0
0
0
0
0
0
0
0
0
0
0
0
0
0
0
0
0
0
0
0
0
0
0
0
0
0
0
0
0
0
0
0
0
0
0
0
0
0
0
0
0
0
0
0
0
0
0
0
0
0
0
0
0
0
0
0
0
0
0
0
0
0
0
0
0
0
0
0
0
0
0
0
0
0
0
0
0
0
0
0
0
0
0
0
0
0
0
0
0
0
0
0
0
0
0
0
0
0
0
0
0
0
0
0
0
0
0
0
0
0
0
0
0
0
0
0
0
0
0
0
0
0
0
0
0
0
0
0
0
0
0
0
0
0
0
0
0
0
0
0
0
0
0
0
0
0
0
0
0
0
0
0
0
0
0
0
0
0
0
0
0
0
0
0
0
0
0
0
0
0
0
0
0
0
0
0
0
0
0
0
0
0
0
0
0
0
0
0
0
0
0
0
0
0
0
0
0
0
0
0
0
0
0
0
0
0
0
0
0
0
0
0
0
0
0
0
0
0
0
0
0
0
0
0
0
0
0
0
0
0
0
0
0
0
0
0
0
0
0
0
0
0
0
0
0
0
0
0
0
0
0
0
0
0
0
0
0
0
0
0
0
0
0
0
0
0
0
0
0
0
0
0
0
0
0
0
0
0
0
0
0
0
0
0
0
0
0
0
0
0
0
0
0
0
0
0
0
0
0
0
0
0
0
0
0
0
0
0
0
0
0
0
0
0
0
0
0
0
0
0
0
0
0
0
0
0
0
0
0
0
0
0
0
0
0
0
0
0
0
0
0
0
0
0
0
0
0
0
0
0
0
0
0
0
0
0
0
0
0
0
0
0
0
0
0
0
0
0
0
0
0
0
0
0
0
0
0
0
0
0
0
0
0
0
0
0
0
0
0
0
0
0
0
0
0
0
0
0
0
0
0
0
0
0
0
0
0
0
0
0
0
0
0
0
0
0
0
0
0
0
0
0
0
0
0
0
0
0
0
0
0
0
0
0
0
0
0
0
0
0
0
0
0
0
0
0
0
0
0
0
0
0
0
0
0
0
0
0
0
0
0
0
0
0
0
0
0
0
0
0
0
0
0
0
0
0
0
0
0
0
0
0
0
0
0
0
0
0
0
0
0
0
0
0
0
0
0
0
0
0
0
0
0
0
0
0
0
0
0
0
0
0
0
0
0
0
0
0
0
0
0
0
0
0
0
0
0
0
0
0
0
0
0
0
0
0
0
0
0
0
0
0
0
0
0
0
0
0
0
0
0
0
0
0
0
0
0
0
0
0
0
0
0
0
0
0
0
0
0
0
0
0
0
0
0
0
0
0
0
0
0
0
0
0
0
0
0
0
0
0
0
0
0
0
0
0
0
0
0
0
0
0
0
0
0
0
0
0
0
0
0
0
0
0
0
0
0
0
0
0
0
0
0
0
0
0
0
0
0
0
0
0
0
0
0
0
0
0
0
0
0
0
0
0
0
0
0
0
0
0
0
0
0
0
0
0
0
0
0
0
0
0
0
0
0
0
0
0
0
0
0
0
0
0
0
0
0
0
0
0
0
0
0
0
0
0
0
0
0
0
0
0
0
0
0
0
0
0
0
0
0
0
0
0
0
0
0
0
0
0
0
0
0
0
0
0
0
0
0
0
0
0
0
0
0
0
0
0
0
0
0
0
0
0
0
0
0
0
0
0
0
0
0
0
0
0
0
0
0
0
0
0
0
0
0
0
0
0
0
0
0
0
0
0
0
0
0
0
0
0
0
0
0
0
0
0
0
0
0
0
0
0
0
0
0
0
0
0
0
0
0
0
0
0
0
0
0
0
0
0
0
0
0
0
0
0
0
0
0
0
0
0
0
0
0
0
0
0
0
0
0
0
0
0
0
0
0
0
0
0
0
0
0
0
0
0
0
0
0
0
0
0
0
0
0
0
0
0
0
0
0
0
0
0
0
0
0
0
0
0
0
0
0
0
0
0
0
0
0
0
0
0
0
0
0
0
0
0
0
0
0
0
0
0
0
0
0
0
0
0
0
0
0
0
0
0
0
0
0
0
0
0
0
0
0
0
0
0
0
0
0
0
0
0
0
0
0
0
0
0
0
0
0
0
0
0
0
0
0
0
0
0
0
0
0
0
0
0
0
0
0
0
0
0
0
0
0
0
0
0
0
0
0
0
0
0
0
0
0
0
0
0
0
0
0
0
0
0
0
0
0
0
0
0
0
0
0
0
0
0
0
0
0
0
0
0
0
0
0
0
0
0
0
0
0
0
0
0
0
0
0
0
0
0
0
0
0
0
0
0
0
0
0
0
0
0
0
0
0
0
0
0
0
0
0
0
0
0
0
0
0
0
0
0
0
0
0
0
0
0
0
0
0
0
0
0
0
0
0
0
0
0
0
0
0
0
0
0
0
0
0
0
0
0
0
0
0
0
0
0
0
0
0
0
0
0
0
0
0
0
0
0
0
0
0
0
0
0
0
0
0
0
0
0
0
0
0
0
0
0
0
0
0
0
0
0
0
0
0
0
0
0
0
0
0
0
0
0
0
0
0
0
0
0
0
0
0
0
0
0
0
0
0
0
0
0
0
0
0
0
0
0
0
0
0
0
0
0
0
0
0
0
0
0
0
0
0
0
0
0
0
0
0
0
0
0
0
0
0
0
0
0
0
0
0
0
0
0
0
0
0
0
0
0
0
0
0
0
0
0
0
0
0
0
0
0
0
0
0
0
0
0
0
0
0
0
0
0
0
0
0
0
0
0
0
0
0
0
0
0
0
0
0
0
0
0
0
0
0
0
0
0
0
0
0
0
0
0
0
0
0
0
0
0
0
0
0
0
0
0
0
0
0
0
0
0
0
0
0
0
0
0
0
0
0
0
0
0
0
0
0
0
0
0
0
0
0
0
0
0
0
0
0
0
0
0
0
0
0
0
0
0
0
0
0
0
0
0
0
0
0
0
0
0
0
0
0
0
0
0
0
0
0
0
0
0
0
0
0
0
0
0
0
0
0
0
0
0
0
0
0
0
0
0
0
0
0
0
0
0
0
0
0
0
0
0
0
0
0
0
0
0
0
0
0
0
0
0
0
0
0
0
0
0
0
0
0
0
0
0
0
0
0
0
0
0
0
0
0
0
0
0
0
0
0
0
0
0
0
0
0
0
0
0
0
0
0
0
0
0
0
0
0
0
0
0
0
0
0
0
0
0
0
0
0
0
0
0
0
0
0
0
0
0
0
0
0
0
0
0
0
0
0
0
0
0
0
0
0
0
0
0
0
0
0
0
0
0
0
0
0
0
0
0
0
0
0
0
0
0
0
0
0
0
0
0
0
0
0
0
0
0
0
0
0
0
0
0
0
0
0
0
0
0
0
0
0
0
0
0
0
0
0
0
0
0
0
0
0
0
0
0
0
0
0
0
0
0
0
0
0
0
0
0
0
0
0
0
0
0
0
0
0
0
0
0
0
0
0
0
0
0
0
0
0
0
0
0
0
0
0
0
0
0
0
0
0
0
0
0
0
0
0
0
0
0
0
0
0
0
0
0
0
0
0
0
0
0
0
0
0
0
0
0
0
0
0
0
0
0
0
0
0
0
0
0
0
0
0
0
0
0
0.000306353
0.00029842
0.00031072
0.000301424
0.000291671
0.000281539
0.000271287
0.000261164
0.000251486
0.00024264
0.000235145
0.000305525
0.000294396
0.000282711
0.000270668
0.000258499
0.000246492
0.000235023
0.00031098
0.000298688
0.000285675
0.000272087
0.000258122
0.00024405
0.0002302
0.000317825
0.000304626
0.000290551
0.0002757
0.000260235
0.000244401
0.000326167
0.000312344
0.000297507
0.00028171
0.000265079
0.00024782
0.000336113
0.000321977
0.000306711
0.000290323
0.000272927
0.000254623
0.000347764
0
0
0
0
0
0
0
0
0
0
0
0
0
0
0
0
0
0
0
0
0
0
0
0
0
0
0
0
0
0
0
0
0
0
0
0
0
0
0
0
SCALARS F_MC double 1
LOOKUP_TABLE default
-0.000626787
-0.000571688
-0.000825763
-0.000791836
-0.000751193
-0.000702685
-0.00064425
-0.000573815
-0.000488578
-0.000385114
-0.000258162
-0.00102683
-0.00100863
-0.000983469
-0.00094941
-0.000904289
-0.000845397
-0.000769089
-0.00127448
-0.00127966
-0.00127843
-0.00126922
-0.00125
-0.00121809
-0.00116981
-0.00153581
-0.0015648
-0.00158803
-0.00160422
-0.00161147
-0.0016071
-0.00181089
-0.00186413
-0.00191237
-0.00195451
-0.00198882
-0.00201268
-0.00209975
-0.00217772
-0.00225151
-0.00232018
-0.00238169
-0.00243489
-0.00240239
-0.0025056
-0.00260551
-0.00270128
-0.00279114
-0.00258764
-0.00271817
-0.00284774
-0.00297436
-0.00309784
-0.00321666
-0.00289222
-0.00304861
-0.00320402
-0.003358
-0.00350911
-0.00365813
-0.00266381
-0.00284443
-0.0030263
-0.00320886
-0.00339164
-0.00357423
-0.00375624
-0.00393682
-0.00291721
-0.00312241
-0.00332825
-0.00353737
-0.00374748
-0.00395753
-0.00416829
-0.00437936
-0.00387621
-0.00411421
-0.00435498
-0.0191796
-0.0190983
-0.0193479
-0.0192843
-0.0191979
-0.0190864
-0.0189455
-0.0187711
-0.018558
-0.0183008
-0.0179929
-0.0194738
-0.0194068
-0.0193152
-0.0191952
-0.0190425
-0.0188518
-0.0186173
-0.0196663
-0.0196189
-0.0195478
-0.0194493
-0.0193189
-0.0191514
-0.0189405
-0.0198616
-0.0198341
-0.0197839
-0.0197075
-0.0196002
-0.0194566
-0.0200593
-0.0200521
-0.0200233
-0.0199694
-0.0198859
-0.019767
-0.0202593
-0.0202724
-0.0202654
-0.0202346
-0.0201752
-0.0200825
-0.0204611
-0.0204948
-0.0205099
-0.0205027
-0.0204682
-0.0205952
-0.020664
-0.0207188
-0.0207563
-0.0207731
-0.0207643
-0.02078
-0.0208684
-0.0209441
-0.0210042
-0.0210449
-0.021063
-0.0205921
-0.0207226
-0.0208474
-0.0209651
-0.0210732
-0.0211701
-0.0212531
-0.0213184
-0.0207258
-0.0208722
-0.0210136
-0.02115
-0.0212783
-0.0213965
-0.0215021
-0.0215928
-0.0208587
-0.0210212
-0.02118
-0.0213341
-0.0214829
-0.0216229
-0.0217517
-0.0218675
0
0
0
0
0
0
0
0
0
0
0
0
0
0
0
0
0
0
0
0
0
0
0
0
0
0
0
0
0
0
0
0
0
0
0
0
0
0
0
0
0
0
0
0
0
0
0
0
0
0
0
0
0
0
0
0
0
0
0
0
0
0
0
0
0
0
0
0
0
0
0
0
0
0
0
0
0
0
0
0
0
0
0
0
-0.00368302
-0.00369541
-0.0037978
-0.00382562
-0.0038486
-0.00386593
-0.00387544
-0.0038752
-0.00386266
-0.00383467
-0.00378705
-0.00396353
-0.00400306
-0.00403756
-0.00406527
-0.00408414
-0.00409169
-0.00408469
-0.00410775
-0.00416428
-0.00421642
-0.00426269
-0.00430114
-0.00432917
-0.00434377
-0.00425887
-0.00433263
-0.00440271
-0.00446787
-0.0045263
-0.00457549
-0.00441685
-0.00450804
-0.00459638
-0.00468077
-0.00475955
-0.00483025
-0.00458165
-0.00469049
-0.00479736
-0.00490131
-0.00500041
-0.00509344
-0.00475318
-0.00487989
-0.00500558
-0.00512939
-0.0052497
-0.00478673
-0.00493087
-0.00507616
-0.00522094
-0.00536491
-0.00550671
-0.00495407
-0.00511593
-0.00527916
-0.00544331
-0.00560729
-0.0057713
-0.00460315
-0.00477482
-0.00494949
-0.00512689
-0.0053067
-0.00548868
-0.00567249
-0.00585756
-0.00473128
-0.00491918
-0.00511051
-0.00530534
-0.00550342
-0.00570448
-0.00590825
-0.00611461
-0.00486314
-0.00506754
-0.00527577
-0.00548726
-0.00570468
-0.00592619
-0.00615059
-0.00637826
-0.00910855
-0.00902126
-0.00933105
-0.00925556
-0.00916677
-0.00906337
-0.00894445
-0.00880903
-0.00865594
-0.0084838
-0.00829113
-0.00949462
-0.00941806
-0.00932727
-0.00922123
-0.00909885
-0.00895903
-0.00880063
-0.00973796
-0.00967431
-0.00959665
-0.00950397
-0.00939515
-0.00926894
-0.0091242
-0.00998547
-0.00993519
-0.00987117
-0.00979237
-0.00969763
-0.00958589
-0.0102369
-0.0102005
-0.0101506
-0.0100863
-0.0100062
-0.00990913
-0.0104921
-0.01047
-0.0104349
-0.0103855
-0.0103205
-0.010239
-0.0107508
-0.0107435
-0.0107236
-0.0106899
-0.0106407
-0.0109921
-0.0110118
-0.0110206
-0.0110167
-0.0109991
-0.0109665
-0.0112414
-0.0112764
-0.011301
-0.0113136
-0.0113129
-0.0112977
-0.0112878
-0.011363
-0.0114311
-0.0114917
-0.0115431
-0.0115844
-0.0116142
-0.0116309
-0.0114934
-0.0115835
-0.0116673
-0.0117437
-0.0118117
-0.0118702
-0.0119178
-0.011953
-0.0116988
-0.0118043
-0.0119039
-0.0119963
-0.0120819
-0.012159
-0.0122253
-0.0122792
-0.0201568
-0.0201388
-0.0202963
-0.0202916
-0.0202716
-0.0202351
-0.0201794
-0.0201017
-0.0199991
-0.0198685
-0.019706
-0.0204466
-0.020441
-0.020419
-0.0203784
-0.0203161
-0.0202292
-0.0201144
-0.0206035
-0.0206125
-0.0206055
-0.0205804
-0.0205342
-0.0204636
-0.0203649
-0.020762
-0.0207858
-0.0207943
-0.0207852
-0.0207556
-0.020702
-0.0209218
-0.0209607
-0.020985
-0.0209925
-0.02098
-0.020944
-0.0210825
-0.0211367
-0.0211772
-0.0212017
-0.0212067
-0.0211893
-0.0212437
-0.0213135
-0.0213706
-0.0214125
-0.0214358
-0.0213096
-0.0214048
-0.0214906
-0.0215645
-0.0216243
-0.0216665
-0.0214558
-0.0215659
-0.0216675
-0.0217586
-0.0218364
-0.0218985
-0.0211941
-0.0213333
-0.0214692
-0.0216007
-0.021726
-0.0218439
-0.0219523
-0.0220487
-0.0212977
-0.0214494
-0.0215987
-0.0217442
-0.0218849
-0.0220191
-0.0221451
-0.0222605
-0.0213994
-0.0215636
-0.0217261
-0.0218854
-0.0220418
-0.0221928
-0.0223365
-0.0224711
0
0
2.57582e-05
2.69129e-06
-1.60076e-05
-2.97122e-05
-3.72729e-05
-3.77682e-05
-2.99149e-05
-1.20324e-05
1.80499e-05
-0.000113501
-0.000142683
-0.000167431
-0.000186752
-0.000199626
-0.000204862
-0.000201059
-0.000232421
-0.000272473
-0.000308549
-0.000339838
-0.000365396
-0.000383903
-0.000394168
-0.000354454
-0.00040552
-0.000453119
-0.000496579
-0.000535043
-0.000567487
-0.000479543
-0.000541754
-0.000601063
-0.00065689
-0.000708474
-0.000754796
-0.000607621
-0.000681103
-0.000752302
-0.000820683
-0.000885312
-0.000945942
-0.000738603
-0.000823489
-0.000906754
-0.000987873
-0.00106618
-0.000774353
-0.000871803
-0.000968825
-0.00106433
-0.00115837
-0.0012504
-0.000899889
-0.00100854
-0.00111702
-0.00122495
-0.00133191
-0.00143807
-0.000669981
-0.000788247
-0.000907326
-0.00102718
-0.00114745
-0.00126796
-0.0013885
-0.0015089
-0.000767595
-0.000896074
-0.00102587
-0.00115683
-0.00128879
-0.00142154
-0.0015549
-0.00168892
-0.00086624
-0.00100538
-0.00114614
-0.00128777
-0.00143196
-0.00157802
-0.00172464
-0.00187204
-0.00659918
-0.00667369
-0.00663167
-0.00671581
-0.00679707
-0.00687486
-0.00694712
-0.00701216
-0.00706776
-0.0071113
-0.00713932
-0.00675895
-0.00685072
-0.00693956
-0.00702384
-0.00710174
-0.00717104
-0.00722917
-0.00680186
-0.00690427
-0.0070044
-0.00710083
-0.00719182
-0.00727509
-0.00734811
-0.00684495
-0.00695797
-0.00706942
-0.00717809
-0.00728235
-0.00738005
-0.00688807
-0.00701163
-0.00713443
-0.0072554
-0.00737304
-0.00748521
-0.00693108
-0.0070651
-0.00719921
-0.00733251
-0.00746328
-0.00759034
-0.00697386
-0.0071182
-0.00726358
-0.00740917
-0.00755358
-0.00686383
-0.0070159
-0.00717079
-0.00732733
-0.00748514
-0.00764307
-0.00689654
-0.00705798
-0.00722271
-0.00739029
-0.00756
-0.00773157
-0.00644101
-0.00659919
-0.00676167
-0.00692837
-0.00709909
-0.00727382
-0.00745228
-0.00763416
-0.00644831
-0.00661389
-0.00678428
-0.00695948
-0.00713942
-0.00732401
-0.00751316
-0.00770697
-0.00645465
-0.00662776
-0.00680606
-0.00698893
-0.00717824
-0.00737317
-0.00757301
-0.00777819
-0.00920051
-0.00918968
-0.00931276
-0.00930704
-0.00929646
-0.00928103
-0.00926044
-0.00923463
-0.00920349
-0.0091666
-0.00912343
-0.00942789
-0.00942265
-0.00941278
-0.0093981
-0.00937846
-0.00935383
-0.00932433
-0.00955201
-0.00955227
-0.00954808
-0.00953933
-0.00952596
-0.00950782
-0.00948508
-0.00967955
-0.00968538
-0.00968695
-0.00968422
-0.00967716
-0.00966603
-0.0098105
-0.00982198
-0.00982943
-0.00983279
-0.0098321
-0.00982755
-0.00994488
-0.00996208
-0.00997552
-0.00998507
-0.00999067
-0.00999282
-0.0100827
-0.0101057
-0.0101252
-0.0101411
-0.0101533
-0.0101903
-0.0102232
-0.0102528
-0.0102786
-0.0103009
-0.0103198
-0.010329
-0.0103678
-0.0104035
-0.0104357
-0.0104646
-0.0104903
-0.0103173
-0.0103708
-0.0104217
-0.0104701
-0.0105155
-0.0105576
-0.0105965
-0.0106321
-0.0104435
-0.0105028
-0.01056
-0.0106146
-0.0106664
-0.0107153
-0.0107611
-0.0108037
-0.0105716
-0.0106373
-0.0107011
-0.010762
-0.0108205
-0.0108768
-0.0109299
-0.0109795
-0.0210318
-0.02108
-0.0211398
-0.0211967
-0.0212467
-0.0212895
-0.0213238
-0.0213486
-0.0213628
-0.0213653
-0.0213548
-0.0213149
-0.0213742
-0.0214263
-0.0214701
-0.0215043
-0.0215279
-0.0215399
-0.0214339
-0.0215028
-0.0215646
-0.0216182
-0.0216623
-0.0216958
-0.0217172
-0.0215537
-0.0216324
-0.0217042
-0.021768
-0.0218225
-0.0218665
-0.0216739
-0.0217626
-0.0218447
-0.0219191
-0.0219844
-0.0220391
-0.0217943
-0.0218931
-0.0219859
-0.0220713
-0.0221476
-0.0222137
-0.0219143
-0.0220235
-0.0221272
-0.0222239
-0.022312
-0.0219091
-0.0220332
-0.0221534
-0.0222683
-0.0223767
-0.0224769
-0.0220169
-0.0221511
-0.0222821
-0.0224085
-0.0225289
-0.0226419
-0.0216792
-0.0218275
-0.0219755
-0.0221225
-0.0222672
-0.0224093
-0.0225474
-0.0226801
-0.0217547
-0.0219117
-0.022069
-0.0222257
-0.0223811
-0.0225342
-0.0226842
-0.0228298
-0.0218273
-0.021993
-0.0221596
-0.022326
-0.022492
-0.0226565
-0.0228186
-0.022977
-0.0016836
-0.00176345
-0.00167282
-0.00175533
-0.0018378
-0.00192022
-0.00200166
-0.00208153
-0.00215897
-0.00223263
-0.00230075
-0.00174633
-0.00183187
-0.00191785
-0.00200367
-0.00208864
-0.00217193
-0.00225276
-0.00173551
-0.00182403
-0.0019135
-0.00200347
-0.00209342
-0.00218245
-0.00226992
-0.00172329
-0.00181454
-0.00190726
-0.00200118
-0.00209589
-0.00219094
-0.00170964
-0.00180333
-0.00189906
-0.00199667
-0.00209589
-0.00219635
-0.00169452
-0.00179037
-0.00188883
-0.00198983
-0.00209303
-0.00219867
-0.00167795
-0.00177563
-0.00187652
-0.00198059
-0.00208788
-0.00156344
-0.00165951
-0.00175912
-0.00186211
-0.0019689
-0.00207969
-0.00154328
-0.00164014
-0.00174088
-0.00184563
-0.00195474
-0.00206867
-0.0012498
-0.00133706
-0.00142752
-0.00152154
-0.00161923
-0.00172097
-0.00182713
-0.00193825
-0.00122737
-0.00131427
-0.00140478
-0.00149894
-0.00159706
-0.00169951
-0.00180672
-0.00191946
-0.00120404
-0.00129089
-0.00138151
-0.00147531
-0.00157353
-0.0016768
-0.00178486
-0.00189839
-0.00211592
-0.00221231
-0.00207683
-0.00217411
-0.0022725
-0.00237211
-0.00247206
-0.00257185
-0.00267069
-0.00276733
-0.00286009
-0.00213391
-0.00223353
-0.00233487
-0.0024374
-0.00254054
-0.00264352
-0.00274567
-0.0020908
-0.00219146
-0.00229435
-0.00239914
-0.00250538
-0.00261228
-0.0027193
-0.00204519
-0.00214653
-0.00225065
-0.00235736
-0.00246638
-0.00257736
-0.00199706
-0.0020987
-0.00220367
-0.00231193
-0.00242335
-0.00253768
-0.00194639
-0.00204791
-0.00215334
-0.00226273
-0.00237589
-0.00249318
-0.00189321
-0.00199417
-0.00209963
-0.00220969
-0.00232455
-0.00174142
-0.00183716
-0.0019375
-0.00204252
-0.00215275
-0.00226856
-0.00168516
-0.00177908
-0.00187795
-0.00198205
-0.00209193
-0.00220815
-0.00137647
-0.00145583
-0.00153904
-0.00162652
-0.00171854
-0.00181563
-0.00191832
-0.00202732
-0.00132445
-0.00140081
-0.00148136
-0.00156622
-0.00165582
-0.0017507
-0.00185147
-0.00195906
-0.00127106
-0.00134466
-0.00142256
-0.00150427
-0.00159094
-0.00168349
-0.00178198
-0.00188717
0
0
0
0
0
0
0
0
0
0
0
0
0
0
0
0
0
0
0
0
0
0
0
0
0
0
0
0
0
0
0
0
0
0
0
0
0
0
0
0
0
0
0
0
0
0
0
0
0
0
0
0
0
0
0
0
0
0
0
0
0
0
0
0
0
0
0
0
0
0
0
0
0
0
0
0
0
0
0
0
0
0
0
0
-0.0216202
-0.0217189
-0.0217031
-0.0218074
-0.0219112
-0.0220151
-0.0221187
-0.0222221
-0.0223256
-0.0224296
-0.0225343
-0.0218969
-0.0220063
-0.0221157
-0.0222247
-0.0223334
-0.0224419
-0.0225511
-0.0219866
-0.022102
-0.0222172
-0.0223319
-0.0224462
-0.0225602
-0.022674
-0.0220768
-0.0221982
-0.0223194
-0.0224402
-0.0225604
-0.0226803
-0.022167
-0.0222947
-0.0224222
-0.0225492
-0.0226756
-0.0228014
-0.0222568
-0.0223909
-0.022525
-0.0226587
-0.0227915
-0.0229236
-0.022346
-0.0224867
-0.0226276
-0.0227681
-0.0229079
-0.0222866
-0.0224337
-0.0225814
-0.0227293
-0.022877
-0.0230241
-0.0223662
-0.0225199
-0.0226746
-0.0228297
-0.0229849
-0.0231397
-0.0219708
-0.0221262
-0.0222838
-0.0224432
-0.0226038
-0.0227657
-0.0229283
-0.0230912
-0.0220267
-0.0221878
-0.0223517
-0.0225175
-0.022685
-0.0228541
-0.0230243
-0.0231953
-0.022079
-0.0222461
-0.0224161
-0.0225884
-0.0227628
-0.0229392
-0.0231171
-0.0232962
-0.00932292
-0.00940827
-0.00930057
-0.00938286
-0.00947092
-0.009566
-0.00966857
-0.00977954
-0.00989989
-0.0100302
-0.0101708
-0.0093593
-0.00944424
-0.00953636
-0.00963643
-0.00974536
-0.00986418
-0.00999421
-0.00933737
-0.00941876
-0.0095075
-0.00960452
-0.00971091
-0.00982769
-0.00995629
-0.00931749
-0.00939492
-0.00947982
-0.0095733
-0.00967657
-0.00979125
-0.00929992
-0.00937292
-0.00945352
-0.00954292
-0.00964249
-0.00975394
-0.00928488
-0.009353
-0.00942882
-0.00951359
-0.0096087
-0.00971613
-0.00927264
-0.00933543
-0.00940598
-0.00948556
-0.0095759
-0.00921204
-0.00926317
-0.0093205
-0.00938531
-0.00945913
-0.00954379
-0.00921219
-0.00925729
-0.00930855
-0.00936715
-0.0094347
-0.00951305
-0.00912304
-0.00915072
-0.00918143
-0.00921598
-0.00925508
-0.00929993
-0.00935188
-0.00941255
-0.00914889
-0.00917086
-0.00919584
-0.00922423
-0.00925692
-0.00929504
-0.00933993
-0.00939329
-0.00917895
-0.00919554
-0.00921499
-0.0092372
-0.00926303
-0.00929429
-0.00933194
-0.00937729
-0.0115021
-0.0116787
-0.011398
-0.0115746
-0.0117518
-0.0119291
-0.0121048
-0.0122775
-0.0124455
-0.012607
-0.0127596
-0.01146
-0.0116374
-0.0118155
-0.0119928
-0.0121679
-0.0123391
-0.0125045
-0.0113338
-0.011511
-0.0116897
-0.0118684
-0.0120457
-0.0122198
-0.0123889
-0.0111958
-0.0113725
-0.0115512
-0.0117308
-0.0119099
-0.012087
-0.0110457
-0.0112211
-0.0113994
-0.0115794
-0.01176
-0.0119395
-0.0108831
-0.0110565
-0.0112337
-0.0114135
-0.0115948
-0.0117763
-0.0107075
-0.0108782
-0.0110534
-0.0112323
-0.0114139
-0.0103568
-0.0105186
-0.0106858
-0.0108582
-0.0110353
-0.0112163
-0.0101596
-0.0103161
-0.0104788
-0.0106474
-0.0108218
-0.0110011
-0.00953631
-0.00966777
-0.00980549
-0.00994951
-0.0100999
-0.010257
-0.0104207
-0.0105912
-0.00933668
-0.0094601
-0.00959011
-0.00972664
-0.00986995
-0.0100203
-0.0101779
-0.0103431
-0.009127
-0.00924194
-0.00936356
-0.00949153
-0.0096263
-0.00976872
-0.00991893
-0.0100771
-0.00377626
-0.00393992
-0.00362385
-0.00378151
-0.00394527
-0.00411551
-0.00429172
-0.00447365
-0.00466081
-0.00485226
-0.00504663
-0.00361676
-0.00377452
-0.00393941
-0.00411127
-0.00428989
-0.00447477
-0.00466547
-0.00344494
-0.00359611
-0.00375504
-0.00392177
-0.00409629
-0.00427817
-0.00446713
-0.00326637
-0.00341016
-0.00356234
-0.00372315
-0.00389276
-0.00407127
-0.00308104
-0.00321663
-0.00336119
-0.00351519
-0.003679
-0.00385291
-0.00288899
-0.00301546
-0.00315149
-0.00329771
-0.00345457
-0.00362281
-0.00269025
-0.00280666
-0.00293318
-0.00307057
-0.00321974
-0.00238862
-0.0024848
-0.00259028
-0.00270624
-0.00283367
-0.00297372
-0.0021889
-0.00227283
-0.00236643
-0.00247072
-0.00258714
-0.00271671
-0.00181774
-0.00186611
-0.00192119
-0.00198371
-0.00205467
-0.00213526
-0.00222676
-0.00233069
-0.0016486
-0.00168331
-0.00172475
-0.00177348
-0.00183049
-0.00189705
-0.00197457
-0.00206477
-0.0014763
-0.00149722
-0.00152471
-0.0015589
-0.00160072
-0.00165227
-0.0017148
-0.00178964
-0.0222978
-0.0224639
-0.0223459
-0.0225133
-0.0226891
-0.0228748
-0.0230712
-0.0232798
-0.0235026
-0.0237419
-0.0239997
-0.0225634
-0.02274
-0.0229262
-0.0231229
-0.0233315
-0.0235539
-0.0237927
-0.0226136
-0.0227912
-0.0229782
-0.0231753
-0.0233839
-0.0236061
-0.0238437
-0.0226639
-0.0228428
-0.0230306
-0.0232282
-0.023437
-0.0236591
-0.0227141
-0.0228943
-0.0230831
-0.0232814
-0.0234905
-0.0237124
-0.0227639
-0.0229456
-0.0231355
-0.0233347
-0.0235442
-0.0237658
-0.022813
-0.0229961
-0.0231874
-0.0233875
-0.0235979
-0.0226827
-0.0228607
-0.0230455
-0.0232383
-0.0234396
-0.0236508
-0.0227268
-0.0229065
-0.0230933
-0.0232877
-0.0234905
-0.0237027
-0.0222585
-0.0224228
-0.0225927
-0.0227684
-0.0229502
-0.0231389
-0.023335
-0.0235394
-0.0222913
-0.0224574
-0.0226294
-0.022807
-0.0229909
-0.0231815
-0.0233794
-0.0235856
-0.0223204
-0.0224885
-0.0226626
-0.0228424
-0.0230279
-0.0232205
-0.0234204
-0.0236282
-0.00940371
-0.00956708
-0.00927477
-0.00942872
-0.00959716
-0.00978198
-0.00998443
-0.0102061
-0.0104488
-0.0107137
-0.0110019
-0.00929064
-0.00944922
-0.00962445
-0.00981791
-0.0100313
-0.0102664
-0.0105253
-0.00915265
-0.00930056
-0.00946533
-0.00964874
-0.00985276
-0.0100793
-0.0103306
-0.00901526
-0.00915164
-0.00930501
-0.00947738
-0.00967094
-0.00988826
-0.00887884
-0.00900278
-0.00914377
-0.00930403
-0.00948598
-0.00969242
-0.00874379
-0.00885434
-0.00898195
-0.00912897
-0.00929797
-0.00949201
-0.00861052
-0.00870674
-0.00881991
-0.00895253
-0.00910762
-0.00841258
-0.00847947
-0.00856043
-0.0086581
-0.0087751
-0.00891464
-0.0082999
-0.00835104
-0.00841593
-0.00849702
-0.0085973
-0.00871984
-0.00814562
-0.00815282
-0.0081676
-0.00819135
-0.00822601
-0.00827379
-0.00833722
-0.00841933
-0.00808921
-0.00808106
-0.00808006
-0.00808738
-0.00810484
-0.00813462
-0.00817934
-0.00824213
-0.00803858
-0.00801511
-0.00799826
-0.00798879
-0.007988
-0.00799904
-0.00802433
-0.00806644
-0.0142604
-0.0144943
-0.0140845
-0.0143136
-0.0145453
-0.0147789
-0.0150128
-0.0152459
-0.0154765
-0.0157031
-0.0159237
-0.0141157
-0.0143422
-0.0145712
-0.0148014
-0.0150316
-0.0152601
-0.0154851
-0.0138998
-0.0141205
-0.0143445
-0.0145705
-0.0147973
-0.015023
-0.0152461
-0.0136652
-0.0138794
-0.0140977
-0.0143188
-0.0145414
-0.0147642
-0.0134114
-0.0136182
-0.0138297
-0.014045
-0.0142629
-0.0144819
-0.0131377
-0.0133359
-0.0135397
-0.0137482
-0.0139604
-0.0141747
-0.0128435
-0.0130318
-0.0132267
-0.0134272
-0.0136327
-0.012358
-0.0125281
-0.0127052
-0.0128897
-0.013081
-0.0132783
-0.0120339
-0.0121907
-0.0123555
-0.0125281
-0.0127087
-0.0128961
-0.01131
-0.0114289
-0.0115553
-0.0116894
-0.0118315
-0.0119819
-0.0121408
-0.0123085
-0.0109945
-0.0110967
-0.0112065
-0.0113241
-0.0114498
-0.0115841
-0.0117274
-0.0118802
-0.010663
-0.0107474
-0.0108394
-0.010939
-0.0110459
-0.0111619
-0.0112876
-0.011423
0
0
0
0
0
0
0
0
0
0
0
0
0
0
0
0
0
0
0
0
0
0
0
0
0
0
0
0
0
0
0
0
0
0
0
0
0
0
0
0
0
0
0
0
0
0
0
0
0
0
0
0
0
0
0
0
0
0
0
0
0
0
0
0
0
0
0
0
0
0
0
0
0
0
0
0
0
0
0
0
0
0
0
0
-0.00532962
-0.00556259
-0.00506387
-0.00528428
-0.00551637
-0.00576067
-0.00601713
-0.00628582
-0.00656658
-0.00685867
-0.00716102
-0.00499543
-0.00521449
-0.00544665
-0.00569227
-0.00595148
-0.00622411
-0.00650988
-0.00469576
-0.00490082
-0.00511981
-0.00535327
-0.00560161
-0.00586479
-0.00614285
-0.00438533
-0.00457517
-0.00477969
-0.00499968
-0.00523584
-0.00548872
-0.00406417
-0.00423745
-0.00442611
-0.00463121
-0.00485372
-0.00509451
-0.0037323
-0.00388761
-0.00405893
-0.00424758
-0.00445475
-0.00468165
-0.0033898
-0.00352563
-0.00367803
-0.00384853
-0.00403888
-0.00293705
-0.00303689
-0.00315154
-0.00328333
-0.00343387
-0.0036052
-0.00259599
-0.00267312
-0.00276541
-0.0028748
-0.00300372
-0.00315381
-0.00215906
-0.00217783
-0.00220653
-0.00224641
-0.00229935
-0.00236733
-0.00245245
-0.0025572
-0.00187522
-0.00186947
-0.00187342
-0.00188819
-0.0019155
-0.00195742
-0.00201632
-0.00209487
-0.00158646
-0.00155561
-0.00153401
-0.00152247
-0.00152204
-0.00153608
-0.00156703
-0.00161691
0
0
0
0
0
0
0
0
0
0
0
0
0
0
0
0
0
0
0
0
0
0
0
0
0
0
0
0
0
0
0
0
0
0
0
0
0
0
0
0
0
0
0
0
0
0
0
0
0
0
0
0
0
0
0
0
0
0
0
0
0
0
0
0
0
0
0
0
0
0
0
0
0
0
0
0
0
0
0
0
0
0
0
0
-0.0228335
-0.0230647
-0.0228452
-0.0230734
-0.023319
-0.0235842
-0.023871
-0.0241825
-0.0245221
-0.0248938
-0.0253016
-0.023083
-0.0233246
-0.0235854
-0.0238674
-0.0241736
-0.0245074
-0.0248729
-0.0230931
-0.0233309
-0.0235873
-0.0238644
-0.0241652
-0.0244929
-0.0248517
-0.0231037
-0.0233377
-0.0235898
-0.023862
-0.0241571
-0.0244789
-0.0231146
-0.023345
-0.0235927
-0.0238599
-0.0241494
-0.0244648
-0.0231257
-0.0233524
-0.0235959
-0.0238581
-0.0241419
-0.0244505
-0.0231366
-0.0233597
-0.023599
-0.0238563
-0.0241346
-0.0229407
-0.0231469
-0.0233665
-0.0236016
-0.023854
-0.0241266
-0.0229527
-0.023156
-0.0233724
-0.0236033
-0.0238512
-0.024118
-0.0224236
-0.0225943
-0.0227739
-0.0229632
-0.0231637
-0.0233766
-0.0236036
-0.0238467
-0.0224379
-0.0226067
-0.0227843
-0.0229713
-0.023169
-0.0233786
-0.0236015
-0.02384
-0.0224492
-0.0226161
-0.0227918
-0.0229768
-0.023171
-0.0233773
-0.0235966
-0.0238304
-0.00944853
-0.00969096
-0.00921305
-0.00943995
-0.00969027
-0.00996638
-0.0102704
-0.0106048
-0.010972
-0.0113741
-0.0118128
-0.00918716
-0.00942094
-0.00968097
-0.00996974
-0.0102898
-0.0106438
-0.0110343
-0.00893283
-0.00914886
-0.00939143
-0.00966328
-0.00996732
-0.0103063
-0.0106834
-0.00867728
-0.00887423
-0.00909789
-0.00935129
-0.00963765
-0.00996049
-0.00842098
-0.00859744
-0.00880065
-0.00903395
-0.00930087
-0.0096053
-0.00816445
-0.00831893
-0.0085001
-0.00871155
-0.00895707
-0.00924083
-0.00790824
-0.00803923
-0.00819668
-0.00838442
-0.00860682
-0.00756978
-0.00765322
-0.00775891
-0.0078909
-0.008053
-0.00824983
-0.00734168
-0.00739935
-0.00747864
-0.00758338
-0.00771806
-0.00788699
-0.00712026
-0.00710668
-0.00710513
-0.0071178
-0.00714801
-0.00719908
-0.00727475
-0.00737948
-0.0069794
-0.00694034
-0.00691248
-0.006898
-0.00689972
-0.00692096
-0.00696569
-0.00703848
-0.00684581
-0.0067809
-0.00672629
-0.00668366
-0.00665501
-0.00664498
-0.00665738
-0.00669605
-0.0170315
-0.0173236
-0.0167906
-0.0170735
-0.017361
-0.017652
-0.0179451
-0.0182391
-0.0185326
-0.0188237
-0.0191113
-0.0167993
-0.0170769
-0.0173585
-0.0176433
-0.0179298
-0.0182163
-0.0185012
-0.0165009
-0.0167677
-0.0170394
-0.017315
-0.0175931
-0.017872
-0.01815
-0.016177
-0.016432
-0.0166927
-0.0169582
-0.0172272
-0.017498
-0.0158267
-0.0160685
-0.0163171
-0.0165713
-0.0168301
-0.0170918
-0.0154489
-0.0156762
-0.0159111
-0.0161528
-0.0164002
-0.0166516
-0.0150427
-0.0152538
-0.0154735
-0.015701
-0.0159356
-0.0144236
-0.0146074
-0.0148003
-0.0150029
-0.0152144
-0.0154343
-0.0139783
-0.0141414
-0.0143146
-0.0144979
-0.0146917
-0.0148944
-0.0131417
-0.0132534
-0.0133742
-0.0135044
-0.0136447
-0.0137955
-0.0139572
-0.01413
-0.0127138
-0.0128003
-0.0128961
-0.0130012
-0.0131163
-0.0132422
-0.0133795
-0.0135286
-0.0122631
-0.0123229
-0.0123918
-0.0124697
-0.0125561
-0.0126539
-0.0127638
-0.012886
-0.00902575
-0.00886115
-0.00936208
-0.00921601
-0.00904806
-0.00885568
-0.00863715
-0.00839047
-0.00811329
-0.00780309
-0.00745703
-0.00957702
-0.00942839
-0.00925584
-0.00905732
-0.00883066
-0.00857356
-0.00828352
-0.00994299
-0.00981486
-0.00966304
-0.00948544
-0.00927979
-0.00904361
-0.00877423
-0.0103137
-0.0102069
-0.0100768
-0.00992104
-0.00973737
-0.00952323
-0.0106889
-0.0106042
-0.0104966
-0.0103638
-0.0102031
-0.0100119
-0.0110678
-0.0110063
-0.0109222
-0.0108133
-0.0106766
-0.0105099
-0.0114501
-0.0114125
-0.011353
-0.011269
-0.0111576
-0.0118275
-0.0118343
-0.0118223
-0.0117884
-0.0117306
-0.0116456
-0.0121897
-0.0122213
-0.0122349
-0.0122277
-0.0121969
-0.0121401
-0.0122949
-0.0123921
-0.0124781
-0.0125512
-0.0126091
-0.0126496
-0.0126701
-0.0126677
-0.0125822
-0.0127034
-0.0128137
-0.0129124
-0.0129971
-0.0130648
-0.0131143
-0.0131424
-0.0132718
-0.0133843
-0.0134815
-0.0135605
0
0
0
0
0
0
0
0
0
0
0
0
0
0
0
0
0
0
0
0
0
0
0
0
0
0
0
0
0
0
0
0
0
0
0
0
0
0
0
0
0
0
0
0
0.000283627
0.000219841
0.000163225
0.000115084
0.000162089
6.56754e-05
-2.64932e-05
-0.000112497
-0.000192023
-0.000263876
-0.000112706
-0.000230631
-0.00034445
-0.000453334
-0.000556106
-0.000652752
4.16576e-05
-0.000104894
-0.000249927
-0.000392964
-0.000533209
-0.000669903
-0.000802359
-0.000929694
-0.000180509
-0.000347831
-0.000514162
-0.000679135
-0.000842131
-0.00100239
-0.00115914
-0.00131174
-0.000405657
-0.000594271
-0.00078229
-0.000968866
-0.00115607
-0.00134188
-0.001524
-0.00170219
SCALARS F_FT double 1
LOOKUP_TABLE default
0
0
0
0
0
0
0
0
0
0
0
0
0
0
0
0
0
0
0
0
0
0
0
0
0
0
0
0
0
0
0
0
0
0
0
0
0
0
0
0
0
0
0
0
0
0
0
0
0
0
0
0
0
0
0
0
0
0
0
0
0
0
0
0
0
0
0
0
0
0
0
0
0
0
0
0
0
0
0
0.000766599
0.000760354
0.000763458
0.000755534
0.000746684
0.000736951
0.000726478
0.000715382
0.000703827
0.000692038
0.000680343
0.000750193
0.000739603
0.000727998
0.00071551
0.000702261
0.000688408
0.000674187
0.00074457
0.000732244
0.000718812
0.000704362
0.000689
0.000672892
0.000656244
0.000738545
0.000724549
0.000709354
0.000693011
0.000675605
0.000657293
0.00073211
0.000716521
0.000699642
0.000681486
0.000662119
0.000641676
0.000725254
0.00070816
0.00068969
0.00066982
0.00064863
0.000626142
0.000717971
0.000699469
0.000679515
0.000658045
0.000635081
0.000728501
0.000710262
0.000690454
0.000669135
0.000646195
0.000621618
0.000721448
0.00070204
0.000681123
0.000658572
0.000634358
0.000608311
0.000766749
0.000750388
0.000732774
0.000713847
0.000693448
0.00067149
0.000647853
0.000622411
0.000761284
0.000744037
0.000725625
0.000705772
0.000684447
0.000661579
0.00063702
0.000610578
0.00075528
0.000737179
0.000717893
0.000697374
0.000675264
0.000651537
0.000626136
0.000598887
0
0
0
0
0
0
0
0
0
0
0
0
0
0
0
0
0
0
0
0
0
0
0
0
0
0
0
0
0
0
0
0
0
0
0
0
0
0
0
0
0
0
0
0
0
0
0
0
0
0
0
0
0
0
0
0
0
0
0
0
0
0
0
0
0
0
0
0
0
0
0
0
0
0
0
0
0
0
0
0
0
0
0
0
0
0
0
0
0
0
0
0
0
0
0
0
0
0
0
0
0
0
0
0
0
0
0
0
0
0
0
0
0
0
0
0
0
0
0
0
0
0
0
0
0
0
0
0
0
0
0
0
0
0
0
0
0
0
0
0
0
0
0
0
0
0
0
0
0
0
0
0
0
0
0
0
0
0
0
0
0
0
0
0
0
0
0
0
0
0
0
0
0
0
0
0
0
0
0
0
0
0
0
0
0
0
0
0
0
0
0
0
0
0
0
0
0
0
0
0
0
0
0
0
0
0
0
0
0
0
0
0
0
0
0
0
0
0
0
0
0
0
0
0
0
0
0
0
0
0
0
0
0
0
0
0
0
0
0
0
0
0
0
0
0
0
0
0
0
0
0
0
0.00040865
0.000403155
0.00040881
0.000402449
0.000395878
0.000389155
0.000382394
0.000375688
0.000369152
0.000362937
0.000357224
0.00040172
0.000394229
0.000386523
0.000378707
0.00037088
0.000363156
0.000355687
0.000401109
0.00039268
0.000383985
0.000375111
0.000366152
0.000357236
0.000348485
0.000400568
0.000391209
0.000381531
0.000371605
0.000361517
0.000351389
0.000400105
0.000389831
0.000379182
0.000368212
0.000357002
0.000345667
0.000399732
0.00038856
0.000376956
0.000364959
0.000352663
0.000340119
0.000399456
0.000387409
0.000374873
0.00036187
0.000348465
0.000411579
0.000399298
0.000386392
0.000372952
0.000358971
0.000344497
0.000412268
0.000399205
0.000385523
0.000371213
0.000356306
0.000340793
0.000450408
0.000438593
0.000426139
0.000413047
0.00039927
0.000384814
0.000369672
0.00035383
0.000453155
0.000440754
0.0004277
0.000413942
0.000399468
0.000384275
0.000368347
0.00035164
0.000455981
0.000443007
0.00042937
0.000415064
0.000399902
0.000383958
0.000367272
0.000349766
0
0
0
0
0
0
0
0
0
0
0
0
0
0
0
0
0
0
0
0
0
0
0
0
0
0
0
0
0
0
0
0
0
0
0
0
0
0
0
0
0
0
0
0
0
0
0
0
0
0
0
0
0
0
0
0
0
0
0
0
0
0
0
0
0
0
0
0
0
0
0
0
0
0
0
0
0
0
0
0
0
0
0
0
0
0
0
0
0
0
0
0
0
0
0
0
0
0
0
0
0
0
0
0
0
0
0
0
0
0
0
0
0
0
0
0
0
0
0
0
0
0
0
0
0
0
0
0
0
0
0
0
0
0
0
0
0
0
0
0
0
0
0
0
0
0
0
0
0
0
0
0
0
0
0
0
0
0
0
0
0
0
0
0
0
0
0
0
0
0
0
0
0
0
0
0
0
0
0
0
0
0
0
0
0
0
0
0
0
0
0
0
0
0
0
0
0
0
0
0
0
0
0
0
0
0
0
0
0
0
0
0
0
0
0
0
0
0
0
0
0
0
0
0
0
0
0
0
0
0
0
0
0
0
0
0
0
0
0
0
0
0
0
0
0
0
0
0
0
0
0
0
0.000196766
0.000192738
0.000199656
0.000195374
0.000191148
0.000187009
0.000183002
0.000179153
0.000175505
0.000172115
0.000169046
0.000198232
0.000193718
0.000189263
0.000184904
0.000180676
0.000176619
0.000172778
0.000201401
0.000196581
0.000191795
0.000187074
0.000182451
0.000177974
0.000173664
0.00020488
0.000199748
0.000194622
0.000189529
0.0001845
0.000179568
0.000208698
0.000203249
0.000197776
0.000192302
0.000186853
0.000181462
0.000212887
0.000207117
0.000201291
0.000195428
0.000189561
0.000183693
0.00021748
0.000211387
0.000205203
0.000198943
0.000192625
0.000228787
0.000222521
0.000216093
0.000209549
0.000202888
0.000196121
0.00023456
0.000228005
0.000221272
0.000214369
0.000207305
0.000200083
0.000259935
0.000253799
0.000247431
0.000240838
0.000234009
0.000226962
0.000219702
0.000212223
0.000267332
0.000261039
0.00025448
0.000247648
0.000240551
0.000233196
0.000225587
0.000217704
0.000275271
0.000268814
0.000262066
0.000255051
0.000247693
0.000240012
0.000232055
0.000223796
0
0
0
0
0
0
0
0
0
0
0
0
0
0
0
0
0
0
0
0
0
0
0
0
0
0
0
0
0
0
0
0
0
0
0
0
0
0
0
0
0
0
0
0
0
0
0
0
0
0
0
0
0
0
0
0
0
0
0
0
0
0
0
0
0
0
0
0
0
0
0
0
0
0
0
0
0
0
0
0
0
0
0
0
0
0
0
0
0
0
0
0
0
0
0
0
0
0
0
0
0
0
0
0
0
0
0
0
0
0
0
0
0
0
0
0
0
0
0
0
0
0
0
0
0
0
0
0
0
0
0
0
0
0
0
0
0
0
0
0
0
0
0
0
0
0
0
0
0
0
0
0
0
0
0
0
0
0
0
0
0
0
0
0
0
0
0
0
0
0
0
0
0
0
0
0
0
0
0
0
0
0
0
0
0
0
0
0
0
0
0
0
0
0
0
0
0
0
0
0
0
0
0
0
0
0
0
0
0
0
0
0
0
0
0
0
0
0
0
0
0
0
0
0
0
0
0
0
0
0
0
0
0
0
0
0
0
0
0
0
0
0
0
0
0
0
0
0
0
0
0
0
0.000126303
0.000123592
0.000130649
0.000127997
0.000125325
0.000122605
0.000119815
0.000116923
0.000113896
0.000110728
0.000107411
0.000132658
0.000130027
0.000127333
0.000124544
0.000121631
0.000118558
0.000115291
0.000137633
0.000135049
0.000132386
0.000129608
0.000126679
0.000123569
0.000120219
0.000142955
0.000140425
0.000137799
0.00013504
0.000132102
0.000128937
0.00014867
0.000146203
0.000143622
0.000140888
0.000137951
0.000134754
0.000154832
0.000152436
0.000149911
0.000147211
0.000144292
0.000141075
0.000161498
0.000159186
0.000156726
0.000154072
0.000151164
0.000170842
0.000168745
0.000166519
0.000164137
0.000161542
0.000158669
0.000178581
0.000176613
0.000174505
0.000172218
0.000169696
0.000166874
0.000191815
0.000190308
0.000188716
0.000187022
0.000185198
0.000183222
0.000181049
0.000178621
0.000200407
0.000199121
0.00019773
0.000196219
0.000194569
0.000192748
0.000190714
0.000188403
0.000209769
0.00020871
0.000207532
0.000206249
0.000204808
0.000203159
0.000201288
0.000199141
0
0
0
0
0
0
0
0
0
0
0
0
0
0
0
0
0
0
0
0
0
0
0
0
0
0
0
0
0
0
0
0
0
0
0
0
0
0
0
0
0
0
0
0
0
0
0
0
0
0
0
0
0
0
0
0
0
0
0
0
0
0
0
0
0
0
0
0
0
0
0
0
0
0
0
0
0
0
0
0
0
0
0
0
0
0
0
0
0
0
0
0
0
0
0
0
0
0
0
0
0
0
0
0
0
0
0
0
0
0
0
0
0
0
0
0
0
0
0
0
0
0
0
0
0
0
0
0
0
0
0
0
0
0
0
0
0
0
0
0
0
0
0
0
0
0
0
0
0
0
0
0
0
0
0
0
0
0
0
0
0
0
0
0
0
0
0
0
0
0
0
0
0
0
0
0
0
0
0
0
0
0
0
0
0
0
0
0
0
0
0
0
0
0
0
0
0
0
0
0
0
0
0
0
0
0
0
0
0
0
0
0
0
0
0
0
0
0
0
0
0
0
0
0
0
0
0
0
0
0
0
0
0
0
0
0
0
0
0
0
0
0
0
0
0
0
0
0
0
0
0
0
0.000148145
0.000147448
0.000153529
0.000153116
0.000152211
0.000150668
0.000148351
0.000145124
0.000140838
0.000135387
0.000128702
0.000158858
0.000158236
0.000156958
0.000154873
0.000151834
0.000147686
0.000142287
0.00016473
0.000164453
0.000163505
0.000161721
0.000158937
0.000154996
0.000149722
0.000170793
0.000170919
0.00017036
0.000168941
0.000166482
0.00016279
0.000177124
0.000177712
0.000177606
0.000176623
0.000174567
0.000171228
0.000183812
0.000184926
0.000185343
0.000184872
0.000183311
0.000180421
0.000190961
0.000192671
0.000193687
0.000193811
0.000192817
0.000195813
0.000198698
0.000201075
0.000202772
0.000203583
0.00020327
0.000203544
0.000207155
0.000210285
0.000212753
0.000214349
0.000214826
0.000197417
0.00020243
0.000207345
0.000212073
0.000216494
0.000220465
0.000223805
0.000226302
0.000204423
0.000210234
0.000215974
0.00022156
0.000226884
0.000231798
0.000236119
0.000239633
0.000212351
0.000219017
0.000225644
0.000232178
0.000238516
0.000244478
0.000249891
0.000254567
0
0
0
0
0
0
0
0
0
0
0
0
0
0
0
0
0
0
0
0
0
0
0
0
0
0
0
0
0
0
0
0
0
0
0
0
0
0
0
0
0
0
0
0
0
0
0
0
0
0
0
0
0
0
0
0
0
0
0
0
0
0
0
0
0
0
0
0
0
0
0
0
0
0
0
0
0
0
0
0
0
0
0
0
0
0
0
0
0
0
0
0
0
0
0
0
0
0
0
0
0
0
0
0
0
0
0
0
0
0
0
0
0
0
0
0
0
0
0
0
0
0
0
0
0
0
0
0
0
0
0
0
0
0
0
0
0
0
0
0
0
0
0
0
0
0
0
0
0
0
0
0
0
0
0
0
0
0
0
0
0
0
0
0
0
0
0
0
0
0
0
0
0
0
0
0
0
0
0
0
0
0
0
0
0
0
0
0
0
0
0
0
0
0
0
0
0
0
0
0
0
0
0
0
0
0
0
0
0
0
0
0
0
0
0
0
0
0
0
0
0
0
0
0
0
0
0
0
0
0
0
0
0
0
0
0
0
0
0
0
0
0
0
0
0
0
0
0
0
0
0
0
0
0
0
0
0
0
0
0
0
0
0
0
0
0
0
0
0
0
0
0
0
0
0
0
0
0
0
0
0
0
0
0
0
0
0
0
0
0
0
0
0
0
0
0
0
0
0
0
0
0
0
0
0
0
0
0
0
0
0
0
0
0
0
0
0
0
0
0
0
0
0
0
0
0
0
0
0
0
0
0
0
0
0
0
0
0
0
0
0
0
0
0
0
0
0
0
0
0
0
0
0
0
0
0
0
0
0
0
0
0
0
0
0
0
0
0
0
0
0
0
0
0
0
0
0
0
0
0
0
0
0
0
0
0
0
0
0
0
0
0
0
0
0
0
0
0
0
0
0
0
0
0
0
0
0
0
0
0
0
0
0
0
0
0
0
0
0
0
0.000310323
0.000312267
0.000315915
0.000318159
0.000319007
0.000318143
0.000315266
0.000310089
0.000302305
0.000291671
0.00027807
0.000323653
0.000324819
0.000324222
0.000321542
0.000316467
0.000308671
0.000297871
0.000328846
0.000330475
0.00033031
0.000327999
0.000323192
0.000315549
0.000304742
0.000333816
0.000336048
0.000336464
0.000334684
0.000330324
0.000322988
0.000338665
0.000341649
0.000342808
0.000341737
0.000338021
0.000331222
0.00034352
0.000347417
0.000349495
0.000349327
0.000346478
0.000340457
0.000348541
0.000353522
0.000356709
0.000357654
0.000355875
0.000346284
0.000353911
0.000360171
0.000364672
0.000366959
0.000366524
0.000350869
0.000359874
0.000367606
0.000373645
0.00037753
0.000378703
0.000320344
0.000332652
0.000344639
0.000356089
0.000366698
0.000376118
0.000383938
0.000389691
0.000321859
0.000335628
0.00034918
0.000362292
0.000374694
0.000386042
0.000395912
0.000403821
0.000324191
0.000339568
0.000354841
0.000369823
0.000384253
0.000397772
0.000409955
0.000420353
0
0
0
0
0
0
0
0
0
0
0
0
0
0
0
0
0
0
0
0
0
0
0
0
0
0
0
0
0
0
0
0
0
0
0
0
0
0
0
0
0
0
0
0
0
0
0
0
0
0
0
0
0
0
0
0
0
0
0
0
0
0
0
0
0
0
0
0
0
0
0
0
0
0
0
0
0
0
0
0
0
0
0
0
0
0
0
0
0
0
0
0
0
0
0
0
0
0
0
0
0
0
0
0
0
0
0
0
0
0
0
0
0
0
0
0
0
0
0
0
0
0
0
0
0
0
0
0
0
0
0
0
0
0
0
0
0
0
0
0
0
0
0
0
0
0
0
0
0
0
0
0
0
0
0
0
0
0
0
0
0
0
0
0
0
0
0
0
0
0
0
0
0
0
0
0
0
0
0
0
0
0
0
0
0
0
0
0
0
0
0
0
0
0
0
0
0
0
0
0
0
0
0
0
0
0
0
0
0
0
0
0
0
0
0
0
0
0
0
0
0
0
0
0
0
0
0
0
0
0
0
0
0
0
0
0
0
0
0
0
0
0
0
0
0
0
0
0
0
0
0
0
0
0
0
0
0
0
0
0
0
0
0
0
0
0
0
0
0
0
0
0
0
0
0
0
0
0
0
0
0
0
0
0
0
0
0
0
0
0
0
0
0
0
0
0
0
0
0
0
0
0
0
0
0
0
0
0
0
0
0
0
0
0
0
0
0
0
0
0
0
0
0
0
0
0
0
0
0
0
0
0
SCALARS F_FC double 1
LOOKUP_TABLE default
0.00173859
0.00167973
0.00183508
0.00177908
0.00171545
0.00164384
0.00156423
0.00147667
0.00138134
0.00127861
0.00116919
0.00188177
0.00182111
0.00175204
0.00167439
0.00158809
0.00149323
0.00139012
0.00198775
0.00193064
0.0018647
0.00178962
0.00170519
0.00161138
0.00150832
0.00209681
0.00204386
0.00198168
0.00190982
0.00182794
0.00173584
0.00220877
0.0021606
0.00210287
0.00203496
0.00195636
0.00186669
0.00232341
0.00228069
0.00222813
0.00216494
0.00209045
0.0020041
0.00244047
0.00240389
0.00235727
0.00229962
0.00223004
0.00257968
0.00255943
0.0025299
0.00249003
0.00243882
0.00237515
0.00269303
0.00268028
0.00265838
0.00262611
0.00258227
0.00252563
0.00277644
0.00279277
0.00280316
0.00280679
0.00280242
0.00278893
0.0027651
0.0027295
0.00286564
0.00289001
0.00290876
0.00292093
0.00292539
0.00292107
0.00290666
0.00288043
0.00303484
0.00304905
0.00305467
0
0
0
0
0
0
0
0
0
0
0
0
0
0
0
0
0
0
0
0
0
0
0
0
0
0
0
0
0
0
0
0
0
0
0
0
0
0
0
0
0
0
0
0
0
0
0
0
0
0
0
0
0
0
0
0
0
0
0
0
0
0
0
0
0
0
0
0
0
0
0
0
0
0
0
0
0
0
0
0
0
0
0
0
0
0
0
0
0
0
0
0
0
0
0
0
0
0
0
0
0
0
0
0
0
0
0
0
0
0
0
0
0
0
0
0
0
0
0
0
0
0
0
0
0
0
0
0
0
0
0
0
0
0
0
0
0
0
0
0
0
0
0
0
0
0
0
0
0
0
0
0
0
0
0
0
0
0
0
0
0
0
0
0
0
0
0
0
0.00143065
0.00139457
0.0014954
0.0014612
0.00142236
0.00137865
0.00133009
0.00127668
0.0012185
0.00115571
0.0010886
0.00153016
0.00149322
0.00145121
0.00140408
0.00135177
0.00129434
0.00123193
0.00160155
0.00156682
0.00152683
0.00148144
0.00143053
0.00137409
0.0013122
0.00167527
0.00164308
0.00160543
0.00156211
0.00151294
0.00145787
0.00175127
0.00172195
0.00168702
0.00164614
0.00159908
0.00154569
0.00182948
0.00180341
0.00177157
0.00173355
0.00168903
0.00163776
0.00190984
0.00188737
0.00185905
0.00182432
0.00178275
0.0020048
0.00199204
0.00197376
0.0019494
0.00191845
0.00188035
0.00208464
0.00207627
0.00206246
0.00204253
0.00201587
0.00198187
0.00214903
0.00215846
0.00216411
0.0021656
0.0021622
0.00215332
0.00213832
0.00211641
0.00221632
0.00223059
0.00224129
0.00224783
0.00224968
0.00224618
0.00223661
0.00222011
0.0022838
0.00230316
0.00231914
0.00233117
0.00233874
0.00234119
0.00233759
0.00232698
0.000181366
0.000185758
0.000184233
0.000189765
0.00019507
0.000200074
0.000204529
0.000208201
0.000210796
0.000211974
0.000211312
0.000194235
0.000200854
0.000207251
0.000213218
0.000218505
0.000222801
0.000225722
0.000199085
0.000207071
0.000214942
0.000222512
0.000229531
0.00023567
0.00024053
0.000204372
0.000213779
0.000223198
0.000232464
0.000241335
0.000249465
0.000210107
0.00022099
0.000232034
0.000243094
0.000253938
0.00026422
0.000216303
0.00022872
0.000241465
0.000254419
0.000267327
0.000279955
0.000222971
0.000236981
0.000251507
0.000266456
0.000281607
0.000215272
0.000230115
0.000245789
0.000262177
0.000279223
0.000296747
0.000221401
0.000237792
0.000255157
0.00027349
0.000292697
0.00031276
0.000180762
0.000195424
0.000211151
0.000227975
0.000245942
0.0002651
0.000285462
0.000307011
0.000183876
0.000199687
0.00021669
0.000234977
0.000254606
0.000275631
0.000298106
0.000322094
0.000187248
0.00020424
0.00022257
0.000242284
0.000263682
0.000286705
0.00031141
0.000337934
0
0
0
0
0
0
0
0
0
0
0
0
0
0
0
0
0
0
0
0
0
0
0
0
0
0
0
0
0
0
0
0
0
0
0
0
0
0
0
0
0
0
0
0
0
0
0
0
0
0
0
0
0
0
0
0
0
0
0
0
0
0
0
0
0
0
0
0
0
0
0
0
0
0
0
0
0
0
0
0
0
0
0
0
0.00613678
0.00612582
0.00620863
0.00620351
0.00619036
0.00616871
0.0061373
0.00609502
0.00604069
0.00597325
0.0058915
0.00628265
0.00627588
0.00626046
0.00623529
0.00619914
0.00615073
0.00608884
0.00636332
0.0063631
0.0063543
0.00633578
0.00630621
0.0062642
0.0062082
0.00644529
0.00645192
0.0064501
0.00643865
0.00641613
0.006381
0.00652839
0.00654216
0.0065477
0.00654375
0.00652878
0.00650104
0.00661243
0.00663362
0.00664689
0.0066509
0.00664392
0.00662432
0.0066972
0.00672608
0.00674746
0.00675986
0.00676143
0.00673963
0.00678237
0.00681928
0.00684913
0.0068704
0.00688115
0.00681727
0.00686771
0.00691295
0.00695164
0.00698212
0.00700281
0.00669982
0.00676701
0.00683214
0.00689453
0.006953
0.00700681
0.00705465
0.00709485
0.00675536
0.00682913
0.00690135
0.00697123
0.00703795
0.00710055
0.00715783
0.00720828
0.0068099
0.00689023
0.00696957
0.00704706
0.00712228
0.00719383
0.00726086
0.00732191
0.0011681
0.00115143
0.00120687
0.00119111
0.00117331
0.00115345
0.00113159
0.00110782
0.00108226
0.00105503
0.00102629
0.00123251
0.00121563
0.00119662
0.00117552
0.0011524
0.00112739
0.00110069
0.00127578
0.00125993
0.00124188
0.00122163
0.00119927
0.00117487
0.00114864
0.00132092
0.00130624
0.00128926
0.00127
0.0012485
0.00122489
0.00136798
0.0013546
0.00133886
0.00132072
0.0013002
0.00127742
0.00141701
0.00140509
0.00139073
0.00137387
0.00135449
0.00133269
0.00146805
0.00145775
0.00144497
0.00142956
0.0014115
0.00152689
0.001521
0.00151263
0.00150163
0.00148788
0.00147132
0.00157999
0.00157612
0.00156979
0.00156078
0.00154893
0.00153414
0.0016263
0.0016311
0.00163397
0.00163482
0.00163331
0.00162927
0.00162249
0.00161275
0.00167577
0.00168297
0.00168834
0.00169161
0.0016926
0.00169109
0.00168682
0.00167951
0.00172656
0.00173635
0.0017444
0.00175038
0.00175411
0.00175544
0.00175398
0.00174936
0.000563755
0.000578901
0.000562947
0.000579434
0.000595699
0.000611599
0.000626733
0.000640733
0.000653138
0.00066344
0.000670994
0.000579716
0.000597504
0.000615041
0.000631986
0.000647953
0.000662462
0.000674958
0.000579563
0.000598884
0.000618102
0.000636905
0.000654908
0.000671621
0.000686461
0.000579007
0.000599859
0.000620773
0.000641467
0.000661564
0.00068056
0.000578012
0.000600379
0.000622994
0.000645603
0.000667844
0.000689211
0.000576537
0.000600396
0.000624707
0.000649245
0.000673627
0.000697474
0.000574547
0.000599864
0.000625854
0.000652322
0.000678928
0.000546323
0.000571998
0.000598739
0.000626378
0.000654762
0.000683599
0.000542035
0.000568891
0.000596979
0.000626226
0.000656472
0.000687556
0.000461791
0.000485537
0.000510667
0.000537198
0.00056515
0.000594551
0.000625348
0.000657473
0.000454138
0.000478493
0.000504346
0.000531763
0.000560782
0.000591427
0.000623705
0.000657636
0.000446069
0.000470987
0.000497511
0.00052566
0.000555696
0.000587552
0.000621249
0.000656877
0
0
0
0
0
0
0
0
0
0
0
0
0
0
0
0
0
0
0
0
0
0
0
0
0
0
0
0
0
0
0
0
0
0
0
0
0
0
0
0
0
0
0
0
0
0
0
0
0
0
0
0
0
0
0
0
0
0
0
0
0
0
0
0
0
0
0
0
0
0
0
0
0
0
0
0
0
0
0
0
0
0
0
0
0.00634798
0.00637181
0.00641721
0.00644562
0.0064709
0.00649312
0.00651175
0.00652651
0.0065372
0.00654383
0.00654614
0.00652111
0.00655119
0.00657806
0.00660124
0.00662037
0.00663516
0.00664564
0.00659815
0.00663332
0.00666519
0.00669327
0.00671713
0.00673646
0.00675085
0.00667667
0.00671721
0.00675441
0.00678776
0.00681674
0.00684097
0.00675651
0.0068027
0.00684558
0.00688459
0.0069191
0.00694858
0.00683749
0.00688961
0.00693854
0.0069836
0.00702408
0.00705936
0.00691939
0.00697773
0.00703307
0.00708463
0.00713155
0.0069347
0.00700188
0.00706681
0.00712894
0.00718743
0.00724135
0.00701106
0.00708469
0.00715657
0.00722586
0.00729171
0.00735325
0.00684147
0.00692344
0.00700546
0.00708713
0.00716763
0.00724669
0.00732351
0.00739721
0.00689838
0.00698621
0.00707451
0.0071627
0.00725032
0.00733682
0.0074215
0.00750357
0.00695416
0.00704791
0.00714256
0.00723753
0.00733244
0.00742658
0.00751946
0.00761028
0.00640186
0.00643468
0.00647041
0.0065075
0.00654274
0.00657636
0.00660803
0.0066377
0.00666545
0.0066916
0.0067162
0.00658203
0.00662169
0.00665956
0.00669534
0.00672893
0.0067603
0.00678984
0.00665813
0.0067025
0.00674496
0.00678521
0.00682305
0.00685848
0.00689139
0.00673574
0.0067851
0.00683248
0.00687754
0.00692001
0.00695983
0.00681471
0.00686935
0.00692199
0.00697224
0.00701974
0.00706426
0.00689485
0.00695505
0.00701331
0.00706915
0.0071221
0.00717184
0.00697594
0.007042
0.00710625
0.0071681
0.00722698
0.00698408
0.00705765
0.00712994
0.00720055
0.00726886
0.0073342
0.00706001
0.00713972
0.00721859
0.00729595
0.00737115
0.00744352
0.00687674
0.00696256
0.00704896
0.00713565
0.00722193
0.00730763
0.0073921
0.00747468
0.00693389
0.00702537
0.00711784
0.00721081
0.0073039
0.00739669
0.00748862
0.00757908
0.00698987
0.0070871
0.00718571
0.00728523
0.00738529
0.00748538
0.0075851
0.00768383
0
0
0
0
0
0
0
0
0
0
0
0
0
0
0
0
0
0
0
0
0
0
0
0
0
0
0
0
0
0
0
0
0
0
0
0
0
0
0
0
0
0
0
0
0
0
0
0
0
0
0
0
0
0
0
0
0
0
0
0
0
0
0
0
0
0
0
0
0
0
0
0
0
0
0
0
0
0
0
0
0
0
0
0
0
0
0
0
0
0
0
0
0
0
0
0
0
0
0
0
0
0
0
0
0
0
0
0
0
0
0
0
0
0
0
0
0
0
0
0
0
0
0
0
0
0
0
0
0
0
0
0
0
0
0
0
0
0
0
0
0
0
0
0
0
0
0
0
0
0
0
0
0
0
0
0
0
0
0
0
0
0
0
0
0
0
0
0
0.00132913
0.00136651
0.0013163
0.00135447
0.00139268
0.00143066
0.00146789
0.00150389
0.00153808
0.00156987
0.00159853
0.00134021
0.00137925
0.00141822
0.00145664
0.001494
0.00152968
0.00156306
0.00132347
0.00136333
0.00140328
0.00144287
0.00148158
0.00151881
0.00155382
0.00130425
0.00134485
0.00138572
0.00142643
0.00146647
0.00150522
0.00128251
0.00132372
0.00136542
0.00140718
0.00144852
0.00148879
0.00125817
0.00129988
0.00134228
0.001385
0.00142754
0.00146933
0.0012312
0.00127325
0.00131622
0.00135977
0.00140344
0.00116072
0.00120158
0.00124379
0.00128716
0.00133139
0.00137607
0.00112866
0.0011693
0.0012115
0.00125507
0.00129981
0.0013453
0.000984034
0.00101898
0.0010557
0.00109419
0.00113443
0.00117639
0.00121995
0.00126497
0.000949678
0.000983724
0.00101963
0.00105739
0.00109703
0.00113853
0.00118183
0.00122687
0.000913712
0.000946735
0.000981652
0.00101846
0.00105725
0.00109805
0.00114083
0.00118555
0.000784799
0.000794387
0.000789018
0.000797866
0.000808463
0.000821243
0.000836595
0.000855012
0.000877086
0.00090342
0.000934639
0.000802757
0.000812573
0.000824525
0.000839029
0.000856587
0.000877811
0.000903436
0.000809134
0.000818119
0.000829185
0.000842771
0.000859407
0.000879705
0.000904418
0.000817111
0.000825236
0.00083538
0.000847999
0.00086364
0.000883012
0.0008268
0.000834038
0.000843228
0.00085483
0.000869408
0.000887681
0.000838317
0.000844647
0.000852854
0.000863398
0.000876838
0.0008939
0.000851785
0.000857194
0.0008644
0.000873848
0.000886136
0.000864061
0.000867295
0.000871822
0.000878017
0.000886344
0.000897394
0.000882639
0.000885057
0.000888682
0.000893867
0.000901063
0.000910851
0.000902462
0.000902348
0.000902636
0.000903515
0.000905183
0.000907935
0.000912126
0.000918187
0.000927535
0.000926912
0.000926659
0.000926894
0.000927834
0.00092975
0.00093298
0.000937941
0.000954909
0.000953878
0.000953182
0.00095288
0.000953123
0.00095428
0.000956633
0.000960525
0.00661767
0.00668713
0.0066835
0.00675596
0.00683195
0.00691228
0.00699754
0.00708874
0.00718716
0.00729449
0.00741238
0.00682665
0.00690547
0.00698842
0.00707601
0.0071692
0.0072692
0.00737781
0.00689895
0.00698095
0.00706683
0.00715707
0.00725255
0.00735451
0.0074643
0.00697287
0.00705835
0.00714746
0.00724067
0.00733875
0.00744294
0.00704826
0.00713751
0.00723019
0.0073267
0.00742773
0.0075344
0.00712494
0.00721826
0.00731486
0.00741505
0.00751946
0.00762894
0.00720269
0.00730039
0.00740126
0.00750554
0.00761377
0.00718149
0.00728117
0.00738363
0.00748916
0.00759795
0.00771045
0.00725552
0.00736012
0.00746768
0.00757824
0.00769202
0.00780926
0.00701655
0.00711799
0.00722224
0.00732935
0.00743927
0.00755218
0.00766815
0.00778738
0.00707455
0.00718087
0.00729031
0.00740272
0.00751817
0.00763674
0.00775847
0.00788358
0.00713126
0.00724259
0.00735731
0.00747529
0.00759639
0.00772086
0.00784873
0.0079801
0
0
0
0
0
0
0
0
0
0
0
0
0
0
0
0
0
0
0
0
0
0
0
0
0
0
0
0
0
0
0
0
0
0
0
0
0
0
0
0
0
0
0
0
0
0
0
0
0
0
0
0
0
0
0
0
0
0
0
0
0
0
0
0
0
0
0
0
0
0
0
0
0
0
0
0
0
0
0
0
0
0
0
0
0.00218192
0.00224455
0.00215402
0.0022164
0.00227924
0.00234208
0.00240432
0.00246543
0.00252474
0.00258163
0.0026355
0.00218354
0.00224598
0.00230859
0.0023708
0.00243203
0.00249155
0.00254869
0.00214575
0.00220777
0.00227013
0.00233225
0.00239352
0.00245324
0.0025106
0.00210302
0.00216445
0.00222642
0.00228834
0.00234959
0.00240945
0.00205527
0.00211592
0.00217732
0.0022389
0.00230004
0.00235998
0.00200245
0.00206211
0.00212274
0.00218379
0.00224467
0.00230461
0.00194456
0.00200298
0.0020626
0.00212291
0.00218334
0.00182637
0.00188165
0.00193854
0.00199687
0.00205617
0.00211593
0.00176048
0.00181373
0.00186887
0.00192559
0.00198364
0.00204237
0.00154986
0.00159445
0.00164122
0.00169012
0.0017411
0.00179408
0.00184886
0.00190522
0.00148342
0.00152527
0.00156933
0.00161556
0.00166393
0.00171441
0.00176687
0.00182114
0.001414
0.00145293
0.00149405
0.00153732
0.00158266
0.00163023
0.00167996
0.00173167
0.000594796
0.000614728
0.000584745
0.000602973
0.000624729
0.000650721
0.000681689
0.000718546
0.000762397
0.000814476
0.000876132
0.000592817
0.000612762
0.000636814
0.000665725
0.00070041
0.000741974
0.000791751
0.000584267
0.000602361
0.000624416
0.000651197
0.000683634
0.000722831
0.00077014
0.000577418
0.000593636
0.000613662
0.000638268
0.00066839
0.000705206
0.000572356
0.000586674
0.000604641
0.000627028
0.000654769
0.000689048
0.000569174
0.000581569
0.00059745
0.000617576
0.000642865
0.000674487
0.000567975
0.000578427
0.000592196
0.000610023
0.00063285
0.000562921
0.000568867
0.000577362
0.000588997
0.000604492
0.000624766
0.000567823
0.000571971
0.000578499
0.000587983
0.000601123
0.000618804
0.000577428
0.00057543
0.000574562
0.000575097
0.000577423
0.000581975
0.000589295
0.000600054
0.000591867
0.000588389
0.000585966
0.000584845
0.000585363
0.000587935
0.000593084
0.000601457
0.000608775
0.000603856
0.000599925
0.000597174
0.000595871
0.000596502
0.00059953
0.000605515
0
0
0
0
0
0
0
0
0
0
0
0
0
0
0
0
0
0
0
0
0
0
0
0
0
0
0
0
0
0
0
0
0
0
0
0
0
0
0
0
0
0
0
0
0
0
0
0
0
0
0
0
0
0
0
0
0
0
0
0
0
0
0
0
0
0
0
0
0
0
0
0
0
0
0
0
0
0
0
0
0
0
0
0
0.00681948
0.00692463
0.0068829
0.00698966
0.00710542
0.00723167
0.00737002
0.00752268
0.00769241
0.0078826
0.00809717
0.00705671
0.00717364
0.00730068
0.00743932
0.0075917
0.0077605
0.00794923
0.00712557
0.00724402
0.00737214
0.00751135
0.0076637
0.00783188
0.008019
0.00719623
0.00731651
0.00744601
0.00758609
0.00773868
0.00790646
0.00726856
0.00739099
0.0075222
0.00766347
0.00781662
0.00798419
0.00734239
0.0074673
0.00760058
0.00774341
0.00789755
0.0080651
0.00741751
0.00754524
0.00768095
0.00782574
0.0079813
0.00736933
0.00749359
0.00762453
0.00776308
0.00791028
0.00806764
0.00744239
0.00757035
0.00770486
0.00784666
0.0079968
0.00815637
0.00715225
0.0072683
0.00738924
0.00751545
0.00764748
0.00778587
0.00793132
0.00808484
0.00721205
0.00733229
0.00745759
0.00758817
0.0077245
0.00786711
0.0080166
0.00817391
0.00727053
0.00739513
0.00752493
0.00766014
0.00780083
0.00794799
0.00810197
0.00826352
0
0
0
0
0
0
0
0
0
0
0
0
0
0
0
0
0
0
0
0
0
0
0
0
0
0
0
0
0
0
0
0
0
0
0
0
0
0
0
0
0
0
0
0
0
0
0
0
0
0
0
0
0
0
0
0
0
0
0
0
0
0
0
0
0
0
0
0
0
0
0
0
0
0
0
0
0
0
0
0
0
0
0
0
0
0
0
0
0
0
0
0
0
0
0
0
0
0
0
0
0
0
0
0
0
0
0
0
0
0
0
0
0
0
0
0
0
0
0
0
0
0
0
0
0
0
0
0
0
0
0
0
0
0
0
0
0
0
0
0
0
0
0
0
0
0
0
0
0
0
0
0
0
0
0
0
0
0
0
0
0
0
0
0
0
0
0
0
0.00327226
0.00336757
0.00322537
0.00331896
0.0034135
0.00350832
0.00360269
0.00369596
0.00378739
0.00387623
0.00396216
0.00326221
0.00335469
0.00344755
0.00354012
0.00363168
0.00372139
0.00380846
0.0031974
0.00328769
0.00337856
0.00346926
0.00355901
0.00364693
0.00373216
0.00312438
0.00321226
0.00330092
0.00338959
0.00347744
0.00356356
0.00304306
0.00312829
0.00321449
0.00330092
0.00338673
0.00347097
0.00295345
0.0030357
0.00311917
0.00320311
0.00328674
0.00336895
0.00285559
0.00293453
0.00301493
0.00309608
0.00317723
0.00267636
0.00274961
0.00282484
0.0029018
0.00297981
0.00305817
0.00256668
0.0026356
0.00270683
0.00277991
0.0028545
0.00292958
0.00227273
0.00232905
0.00238808
0.0024498
0.00251409
0.00258076
0.00264951
0.00272001
0.00216452
0.00221571
0.00226965
0.00232622
0.00238538
0.00244704
0.00251096
0.00257683
0.0020514
0.00209723
0.00214574
0.00219684
0.00225022
0.00230625
0.00236477
0.00242543
0.000420727
0.000447103
0.000400545
0.00042426
0.00045292
0.000487526
0.000529281
0.000579656
0.000640449
0.000713774
0.000802081
0.000403454
0.00042924
0.000460684
0.000498955
0.000545498
0.000602087
0.000670858
0.000384634
0.000407592
0.000435888
0.000470671
0.000513365
0.000565711
0.000629857
0.000367812
0.000387993
0.00041319
0.000444524
0.000483386
0.000531536
0.000353008
0.000370463
0.000392614
0.000420544
0.000455601
0.000499509
0.000340246
0.000355026
0.000374185
0.000398761
0.000430042
0.000469693
0.000329557
0.00034171
0.000357931
0.000379206
0.000406794
0.00031452
0.000321006
0.000330551
0.000343887
0.000361918
0.000385833
0.000310382
0.000314586
0.000321591
0.000332092
0.000346942
0.00036725
0.000314013
0.000310705
0.000308774
0.000308514
0.000310394
0.000314884
0.000322593
0.000334303
0.000320369
0.000315151
0.000311223
0.000308885
0.000308494
0.000310492
0.000315444
0.000324074
0.000329058
0.000321929
0.000316027
0.000311582
0.000308896
0.000308456
0.000310734
0.00031634
8.66061e-06
8.67767e-06
9.9964e-06
1.03435e-05
1.06206e-05
1.08112e-05
1.08598e-05
1.07146e-05
1.03148e-05
9.5983e-06
8.50023e-06
1.24062e-05
1.31115e-05
1.37531e-05
1.4275e-05
1.46089e-05
1.46712e-05
1.43592e-05
1.49005e-05
1.61283e-05
1.73317e-05
1.84562e-05
1.94249e-05
2.01329e-05
2.04466e-05
1.7915e-05
1.97683e-05
2.16574e-05
2.35317e-05
2.53097e-05
2.68675e-05
2.1533e-05
2.41286e-05
2.68424e-05
2.96308e-05
3.24121e-05
3.50517e-05
2.58474e-05
2.93168e-05
3.30098e-05
3.6894e-05
4.08752e-05
4.48651e-05
3.0961e-05
3.54507e-05
4.02942e-05
4.54737e-05
5.09103e-05
3.18386e-05
3.69814e-05
4.26592e-05
4.88415e-05
5.55346e-05
6.26814e-05
3.77023e-05
4.40573e-05
5.10809e-05
5.8809e-05
6.72223e-05
7.63816e-05
2.59983e-05
3.14583e-05
3.76288e-05
4.455e-05
5.22762e-05
6.08631e-05
7.03635e-05
8.08091e-05
3.03205e-05
3.68259e-05
4.41574e-05
5.24791e-05
6.17887e-05
7.21475e-05
8.36585e-05
9.64274e-05
6.15609e-05
7.26494e-05
8.50901e-05
9.89394e-05
0.00594209
0.00589901
0.00601623
0.00598023
0.00593184
0.00587016
0.00579336
0.00569969
0.00558729
0.00545433
0.00529896
0.00606271
0.00602217
0.00596822
0.00589926
0.00581338
0.00570854
0.00558264
0.00614656
0.00611403
0.00606826
0.00600761
0.00593004
0.00583334
0.00571511
0.00623151
0.00620727
0.00617009
0.00611823
0.00604956
0.0059616
0.00631734
0.00630169
0.00627349
0.00623093
0.00617173
0.00609318
0.00640385
0.00639706
0.00637824
0.00634547
0.00629622
0.00622806
0.00649081
0.00649314
0.00648408
0.00646157
0.00642289
0.00655716
0.00657791
0.00658967
0.00659072
0.00657893
0.00655155
0.00663528
0.00666492
0.00668637
0.00669785
0.00669708
0.00668191
0.0065641
0.00661787
0.00666777
0.00671284
0.00675161
0.00678296
0.00680516
0.00681588
0.00661748
0.0066785
0.00673624
0.00678968
0.00683775
0.00687915
0.00691231
0.00693507
0.00666995
0.00673808
0.0068036
0.00686542
0.00692312
0.00697468
0.00701901
0.00705415
SCALARS F_3 double 1
LOOKUP_TABLE default
0.0016259
0.00175711
0.00159674
0.00173115
0.00187109
0.00201615
0.0021672
0.00232408
0.00248657
0.00265373
0.00282363
0.00170091
0.00184385
0.00199391
0.00215052
0.00231301
0.00248073
0.00265324
0.00166766
0.00181354
0.00196722
0.00212819
0.00229587
0.0024695
0.0026484
0.00163012
0.00177883
0.00193608
0.00210143
0.00227436
0.00245453
0.00158807
0.00173944
0.00190016
0.00206983
0.00224804
0.00243455
0.00154129
0.0016951
0.0018591
0.00203298
0.00221615
0.00240842
0.00148959
0.00164552
0.00181253
0.00199042
0.00217972
0.00128523
0.00143225
0.00159043
0.00176008
0.00194169
0.00213586
0.00122313
0.00137032
0.00152957
0.0017014
0.00188595
0.00208411
0.000779816
0.000893676
0.00101936
0.00115551
0.00130287
0.00146272
0.00163612
0.00182437
0.000713237
0.000825242
0.000948047
0.00108278
0.00122995
0.00138919
0.00156264
0.00175329
0.00100728
0.00115408
0.00131302
0.00458532
0.00493605
0.00462124
0.00498478
0.00536066
0.00574694
0.00614408
0.00655078
0.0069652
0.00738424
0.00780366
0.00503506
0.00542394
0.00582608
0.00624012
0.00666418
0.00709597
0.00753289
0.00508807
0.00549012
0.00590667
0.00633649
0.00677789
0.00722837
0.00768542
0.00514297
0.00555811
0.00598918
0.00643512
0.0068944
0.00736503
0.00519973
0.00562779
0.00607339
0.00653567
0.0070133
0.00750446
0.0052583
0.00569899
0.006159
0.00663772
0.00713348
0.00764558
0.0053186
0.0057715
0.00624567
0.0067408
0.00725649
0.00493718
0.00537984
0.00584499
0.00633294
0.00684429
0.007379
0.00499122
0.00544306
0.00591898
0.00642016
0.00694667
0.00750016
0.00380268
0.00419536
0.00460964
0.00504609
0.0055065
0.00599265
0.00650636
0.00704903
0.00384608
0.00424217
0.0046578
0.00509987
0.00556921
0.00606467
0.00659048
0.00714763
0.00388842
0.00428713
0.00470638
0.00515436
0.00563165
0.00613558
0.00667168
0.00724063
0
0
0
0
0
0
0
0
0
0
0
0
0
0
0
0
0
0
0
0
0
0
0
0
0
0
0
0
0
0
0
0
0
0
0
0
0
0
0
0
0
0
0
0
0
0
0
0
0
0
0
0
0
0
0
0
0
0
0
0
0
0
0
0
0
0
0
0
0
0
0
0
0
0
0
0
0
0
0
0
0
0
0
0
0.00713164
0.0076959
0.00715227
0.00772949
0.00833138
0.00895794
0.00961139
0.0102922
0.0110004
0.011735
0.0124938
0.00776675
0.00838202
0.00902463
0.0096953
0.0103941
0.0111207
0.0118751
0.00780949
0.00843797
0.00909519
0.00978193
0.0104985
0.0112448
0.012021
0.00785706
0.00849868
0.00917059
0.00987367
0.0106086
0.0113759
0.00790965
0.00856427
0.00925087
0.00997051
0.0107241
0.0115127
0.00796736
0.00863475
0.00933598
0.0100723
0.0108445
0.0116546
0.00803015
0.00871
0.0094257
0.0101788
0.0109714
0.00744043
0.00809722
0.00878967
0.00951961
0.0102894
0.0111016
0.00750308
0.00816932
0.00887307
0.0096169
0.0104028
0.0112345
0.00575402
0.00632677
0.00693108
0.00756925
0.0082443
0.00895899
0.00971625
0.0105193
0.00580985
0.00638569
0.00699372
0.00763766
0.00832056
0.00904545
0.00981552
0.0106344
0.00586832
0.00644521
0.00705583
0.00770607
0.00839791
0.00913226
0.00991298
0.0107454
0.0084429
0.00909693
0.00846128
0.00913207
0.00983039
0.0105557
0.0113091
0.0120902
0.0128981
0.013731
0.0145855
0.00917028
0.0098861
0.0106318
0.0114072
0.0122111
0.0130424
0.0139001
0.00921328
0.00994644
0.0107112
0.0115075
0.0123346
0.0131912
0.0140762
0.00926049
0.010011
0.010795
0.0116128
0.0124637
0.0133474
0.00931208
0.0100797
0.0108831
0.0117227
0.0125982
0.0135095
0.00936819
0.0101526
0.0109753
0.011837
0.0127373
0.0136767
0.00942881
0.0102296
0.0110714
0.0119552
0.0128822
0.00871786
0.00949325
0.0103103
0.0111707
0.0120767
0.0130296
0.00877484
0.00956233
0.010394
0.0112725
0.0121998
0.0131787
0.00668799
0.00736544
0.00808054
0.0088356
0.00963416
0.0104797
0.0113755
0.0123247
0.00673572
0.00741699
0.00813686
0.00889912
0.00970741
0.0105656
0.0114775
0.0124472
0.00678826
0.007471
0.00819405
0.00896364
0.00978225
0.0106518
0.0115775
0.0125648
0.00900389
0.00970412
0.00907048
0.00979072
0.0105385
0.0113132
0.012116
0.0129463
0.013803
0.0146837
0.0155849
0.0098847
0.0106533
0.0114517
0.0122797
0.013136
0.0140192
0.0149276
0.00998769
0.0107772
0.0115983
0.0124506
0.0133335
0.0142451
0.0151842
0.0100989
0.0109096
0.0117537
0.0126312
0.0135417
0.014484
0.0102184
0.0110502
0.0119178
0.0128212
0.0137603
0.0147343
0.0103459
0.0111989
0.0120902
0.0130202
0.0139884
0.0149953
0.0104811
0.0113552
0.0122703
0.0132274
0.0142273
0.00976947
0.0106229
0.0115183
0.0124574
0.013442
0.0144735
0.00990065
0.0107715
0.0116872
0.0126502
0.013662
0.0147257
0.00762917
0.00839219
0.009194
0.010037
0.0109247
0.0118603
0.0128469
0.0138874
0.00773685
0.00850872
0.00932075
0.0101769
0.0110806
0.0120355
0.0130452
0.0141134
0.00784858
0.00862733
0.00944848
0.0103182
0.0112389
0.0122126
0.0132437
0.0143377
0.00947518
0.0102279
0.00955452
0.0103269
0.0111303
0.0119648
0.0128327
0.0137343
0.0146693
0.0156359
0.0166311
0.0104365
0.0112602
0.0121179
0.0130104
0.0139376
0.0148988
0.0158933
0.0105584
0.0114025
0.0122823
0.0131985
0.0141514
0.0151405
0.0161656
0.010692
0.0115567
0.0124589
0.0133995
0.0143792
0.0153982
0.0108374
0.0117228
0.0126477
0.0136134
0.0146208
0.0156706
0.0109945
0.0119006
0.0128487
0.01384
0.0148755
0.0159571
0.0111629
0.0120898
0.0130612
0.0140789
0.015145
0.0104377
0.0113414
0.0122896
0.0132847
0.0143293
0.0154259
0.0106085
0.0115302
0.012499
0.013518
0.0145895
0.0157176
0.00823779
0.0090464
0.00989528
0.0107875
0.0117268
0.0127163
0.0137593
0.0148596
0.0083878
0.0092061
0.0100662
0.0109727
0.0119293
0.0129393
0.0140065
0.0151352
0.00854341
0.00936974
0.0102405
0.0111621
0.0121374
0.0131681
0.0142583
0.0154141
0.0103043
0.0111166
0.0103651
0.0111969
0.0120632
0.0129644
0.0139028
0.0148788
0.0158923
0.0169419
0.0180246
0.0112872
0.0121737
0.013098
0.014061
0.0150627
0.0161027
0.0171807
0.0113896
0.0122962
0.0132424
0.0142291
0.0152568
0.016325
0.017434
0.0115036
0.0124305
0.0133989
0.0144099
0.0154644
0.0165628
0.0116296
0.0125767
0.0135676
0.0146035
0.0156856
0.016815
0.0117677
0.012735
0.0137485
0.0148099
0.0159201
0.0170813
0.0119177
0.0129051
0.0139415
0.0150288
0.0161695
0.0111196
0.0120787
0.0130866
0.014146
0.0152597
0.0164307
0.0112754
0.0122512
0.0132786
0.0143611
0.0155013
0.0167034
0.00875698
0.00960673
0.0105003
0.011441
0.012433
0.0134799
0.0145854
0.0157536
0.00890044
0.00975822
0.0106613
0.0116147
0.0126225
0.0136886
0.0148171
0.0160127
0.00905214
0.00991617
0.0108281
0.011795
0.0128199
0.0139049
0.0150551
0.0162768
0.011098
0.0119519
0.011166
0.0120421
0.0129525
0.0138969
0.014877
0.0158923
0.0169421
0.0180247
0.0191368
0.0121407
0.0130743
0.0140449
0.0150527
0.0160968
0.0171758
0.0182893
0.0122494
0.0132064
0.0142023
0.0152373
0.0163108
0.0174215
0.0185687
0.0123677
0.0133483
0.0143701
0.0154332
0.0165375
0.0176824
0.0124955
0.0135
0.0145481
0.0156404
0.0167768
0.0179571
0.0126327
0.0136613
0.0147363
0.0158585
0.0170279
0.018245
0.0127791
0.0138317
0.0149339
0.016087
0.0172921
0.0119076
0.0129338
0.0140106
0.0151403
0.0163249
0.0175661
0.0120509
0.013097
0.0141971
0.0153543
0.0165706
0.0178489
0.00931385
0.0102287
0.0111901
0.0122014
0.0132667
0.0143898
0.0155743
0.0168237
0.00943378
0.0103584
0.0113314
0.0123576
0.0134414
0.0145869
0.0157984
0.0170803
0.00956116
0.0104935
0.0114768
0.0125184
0.0136217
0.0147889
0.0160258
0.0173384
0.0110747
0.011939
0.0111505
0.0120378
0.0129605
0.0139183
0.0149133
0.0159453
0.0170135
0.0181165
0.019251
0.0121463
0.0130929
0.0140778
0.0151013
0.0161627
0.0172611
0.0183957
0.0122663
0.0132372
0.0142482
0.0152996
0.0163913
0.017522
0.0186913
0.0123972
0.0133927
0.0144304
0.0155108
0.016634
0.0177997
0.0125389
0.0135593
0.0146243
0.0157348
0.016891
0.018093
0.0126914
0.0137368
0.0148298
0.0159712
0.0171614
0.0184013
0.0128544
0.013925
0.0150463
0.0162197
0.0174467
0.0119822
0.0130271
0.0141233
0.0152733
0.0164795
0.0177438
0.0121434
0.0132097
0.0143308
0.0155098
0.0167491
0.0180519
0.00936408
0.010299
0.011281
0.0123134
0.0134006
0.0145463
0.0157543
0.0170283
0.00949998
0.0104463
0.0114415
0.0124907
0.0135982
0.0147683
0.0160051
0.0173134
0.00964476
0.0106004
0.0116079
0.0126744
0.0138033
0.0149972
0.0162615
0.0176026
0.0108822
0.0117538
0.0109504
0.0118438
0.012775
0.0137443
0.0147542
0.015805
0.0168966
0.0180272
0.0191936
0.011946
0.0128997
0.0138946
0.0149316
0.016011
0.017132
0.0182941
0.0120627
0.0130388
0.0140581
0.0151215
0.0162295
0.0173817
0.018578
0.0121934
0.0131922
0.0142361
0.0153265
0.0164641
0.0176496
0.0123386
0.01336
0.014429
0.015547
0.0167153
0.0179349
0.0124986
0.0135427
0.014637
0.0157833
0.0169827
0.0182376
0.0126736
0.0137403
0.0148602
0.0160354
0.0172684
0.0118261
0.0128629
0.0139528
0.0150985
0.0163032
0.01757
0.0120115
0.0130676
0.0141797
0.0153514
0.016586
0.0178876
0.00930257
0.0102234
0.0111917
0.012211
0.0132858
0.0144203
0.0156183
0.0168842
0.00947806
0.0104088
0.0113888
0.0124233
0.0135168
0.0146735
0.0158978
0.017195
0.00966685
0.0106058
0.0115971
0.0126477
0.0137611
0.0149399
0.0161896
0.0175168
0.0107291
0.0116067
0.0107943
0.0116921
0.0126285
0.0136036
0.0146198
0.0156773
0.0167753
0.0179114
0.0190814
0.0117933
0.0127502
0.0137493
0.0147914
0.0158765
0.0170035
0.0181712
0.0119127
0.0128899
0.0139113
0.014978
0.0160904
0.0172476
0.0184492
0.0120506
0.0130478
0.0140914
0.0151828
0.0163229
0.0175121
0.0122079
0.0132247
0.0142903
0.0154067
0.016575
0.0177965
0.0123852
0.0134212
0.0145089
0.0156503
0.0168469
0.0181011
0.0125831
0.013638
0.0147476
0.0159143
0.017141
0.0117811
0.0128012
0.0138754
0.0150068
0.0161991
0.0174557
0.012005
0.0130406
0.0141332
0.0152866
0.0165045
0.0177915
0.0094176
0.0103122
0.0112548
0.0122493
0.0133
0.014411
0.0155865
0.0168313
0.00965316
0.0105545
0.0115058
0.0125122
0.0135781
0.0147078
0.0159057
0.0171774
0.00990606
0.010813
0.0117729
0.0127927
0.0138756
0.0150241
0.0162437
0.0175415
0
0
0
0
0
0
0
0
0
0
0
0
0
0
0
0
0
0
0
0
0
0
0
0
0
0
0
0
0
0
0
0
0
0
0
0
0
0
0
0
0
0
0
0
0
0
0
0
0
0
0
0
0
0
0
0
0
0
0
0
0
0
0
0
0
0
0
0
0
0
0
0
0
0
0
0
0
0
0
0
0
0
0
0
0.0101476
0.0110081
0.0101891
0.0110674
0.011987
0.0129483
0.0139542
0.0150053
0.0161013
0.0172396
0.0184154
0.0111454
0.0120825
0.0130651
0.0140944
0.0151709
0.0162944
0.0174632
0.0112451
0.0121991
0.0132006
0.0142513
0.0153523
0.0165036
0.0177047
0.0113675
0.0123375
0.0133572
0.0144288
0.015554
0.016734
0.0115141
0.0124993
0.0135365
0.0146285
0.0157775
0.0169857
0.0116863
0.0126858
0.0137399
0.0148518
0.0160239
0.0172599
0.0118852
0.0128984
0.0139689
0.0151003
0.0162965
0.0111399
0.0121112
0.0131382
0.0142247
0.0153753
0.0165946
0.011384
0.0123658
0.0134057
0.0145082
0.0156777
0.0169203
0.0090002
0.0098361
0.0107201
0.011656
0.0126482
0.0137013
0.0148199
0.0160096
0.0092812
0.0101209
0.0110102
0.0119543
0.0129576
0.0140244
0.0151599
0.0163699
0.00958502
0.0104281
0.0113236
0.0122781
0.0132948
0.0143763
0.0155283
0.0167583
0.00960627
0.0104457
0.00961529
0.0104712
0.0113705
0.0123142
0.0133051
0.0143448
0.0154335
0.0165689
0.0177467
0.0105131
0.0114286
0.012392
0.013405
0.0144689
0.0155841
0.0167494
0.0105745
0.0115053
0.012486
0.013519
0.014606
0.0157476
0.0169443
0.0106565
0.0116016
0.0125988
0.013651
0.0147605
0.0159293
0.0107609
0.0117192
0.0127321
0.0138027
0.0149342
0.0161294
0.0108894
0.01186
0.0128876
0.0139758
0.0151281
0.016349
0.0110436
0.0120256
0.0130671
0.0141723
0.0153461
0.0102881
0.0112242
0.0122175
0.0132724
0.0143939
0.0155879
0.0104896
0.0114337
0.0124371
0.0135049
0.0146423
0.015856
0.00818815
0.00898247
0.00982525
0.01072
0.0116717
0.0126854
0.0137661
0.01492
0.00843706
0.00923278
0.0100783
0.0109787
0.0119386
0.0129628
0.0140569
0.0152273
0.0087118
0.00950851
0.0103577
0.0112658
0.0122361
0.0132717
0.0143786
0.015565
0.00957211
0.0103759
0.00960749
0.0104289
0.0112883
0.0121862
0.0131254
0.0141068
0.0151306
0.0161952
0.0172977
0.010495
0.011372
0.0122909
0.0132529
0.0142588
0.0153083
0.0164012
0.0105764
0.011471
0.0124093
0.0133927
0.0144224
0.0154986
0.0166217
0.0106734
0.0115853
0.0125428
0.0135476
0.0146016
0.0157059
0.010787
0.0117158
0.0126923
0.0137188
0.0147973
0.0159298
0.0109183
0.0118636
0.012859
0.0139071
0.01501
0.016171
0.011068
0.0120294
0.0130436
0.0141134
0.0152424
0.0103101
0.0112364
0.0122143
0.0132471
0.0143389
0.0154936
0.010486
0.0114253
0.0124187
0.0134703
0.0145841
0.015765
0.00812722
0.0089327
0.00978332
0.0106824
0.0116344
0.0126435
0.013714
0.0148508
0.0083215
0.00913226
0.0099898
0.010899
0.011864
0.012889
0.0139787
0.0151386
0.00853605
0.00935114
0.0102157
0.0111364
0.0121162
0.0131574
0.0142657
0.0154479
0.00929817
0.0100499
0.00937785
0.0101481
0.0109493
0.011781
0.0126454
0.0135422
0.0144706
0.0154288
0.0164136
0.010261
0.0110807
0.0119343
0.0128222
0.0137439
0.0146981
0.0156838
0.0103904
0.011229
0.0121032
0.0130134
0.0139596
0.0149407
0.0159562
0.0105364
0.0113938
0.0122886
0.0132215
0.0141929
0.0152026
0.0106996
0.0115757
0.0124913
0.0134474
0.0144447
0.0154835
0.0108808
0.0117754
0.0127119
0.0136916
0.0147151
0.0157838
0.0110802
0.0119935
0.0129512
0.013955
0.0150068
0.0104105
0.0112979
0.0122303
0.0132095
0.0142382
0.0153185
0.0106318
0.0115353
0.0124863
0.0134875
0.0145414
0.0156513
0.00838562
0.00917245
0.0100003
0.0108721
0.0117915
0.0127616
0.0137853
0.0148661
0.00861231
0.00940749
0.0102454
0.0111306
0.0120665
0.0130562
0.0141031
0.0152114
0.00885628
0.00965903
0.0105073
0.0114076
0.0123621
0.0133721
0.0144418
0.0155772
0.00805163
0.00874181
0.00808782
0.0087931
0.00953106
0.0103013
0.0111059
0.011945
0.0128178
0.0137215
0.014652
0.00886164
0.00961404
0.0104024
0.0112273
0.0120884
0.012985
0.013915
0.00895018
0.00971655
0.0105207
0.0113636
0.0122456
0.0131659
0.0141236
0.00905968
0.00983904
0.0106582
0.0115185
0.0124208
0.0133654
0.0091918
0.00998319
0.0108165
0.0116935
0.0126156
0.0135838
0.0093481
0.0101506
0.0109973
0.0118903
0.0128312
0.0138224
0.00952997
0.010343
0.0112024
0.0121109
0.0130714
0.00896028
0.00973816
0.0105617
0.0114335
0.0123572
0.0133361
0.00918935
0.00997499
0.0108081
0.0116923
0.0126308
0.0136282
0.00733027
0.00799511
0.00869972
0.0094469
0.0102403
0.0110835
0.0119803
0.0129348
0.00760251
0.00827024
0.00897887
0.00973261
0.0105348
0.011389
0.0122992
0.0132702
0.00789929
0.00857009
0.00928403
0.010047
0.0108609
0.0117275
0.0126514
0.0136389
0.00692314
0.00755818
0.00688108
0.00752769
0.00821044
0.00892959
0.00968764
0.0104856
0.0113238
0.0121998
0.0131097
0.0075083
0.00820177
0.00893542
0.00971024
0.0105272
0.0113863
0.0122864
0.00750311
0.00820639
0.00895172
0.00974072
0.0105749
0.0114545
0.0123797
0.00751364
0.00822524
0.00898093
0.00978289
0.0106332
0.0115334
0.00754225
0.0082606
0.00902519
0.00983873
0.010704
0.0116232
0.00759137
0.00831488
0.00908683
0.00991045
0.0107886
0.0117254
0.00766345
0.00839059
0.00916838
0.0100005
0.0108914
0.00707888
0.00776033
0.00849031
0.00927256
0.0101118
0.0110131
0.00720483
0.00788569
0.00861671
0.00940232
0.0102472
0.0111574
0.00559041
0.00613942
0.0067288
0.00736116
0.00804083
0.00877252
0.00956082
0.0104111
0.00579018
0.00633414
0.00691907
0.00754914
0.00822815
0.00896057
0.00975148
0.0106066
0.00601995
0.00655918
0.007141
0.00777116
0.00845202
0.00918616
0.00997924
0.0108383
0.00638025
0.00693153
0.0063757
0.00693842
0.00752894
0.00814715
0.00879572
0.00947552
0.0101868
0.0109286
0.0116991
0.00695184
0.00755334
0.00818583
0.00885023
0.00954709
0.0102764
0.011038
0.00697382
0.00758642
0.00823142
0.00890995
0.00962297
0.0103706
0.0111536
0.00700445
0.00762769
0.00828485
0.00897734
0.00970651
0.0104735
0.00704478
0.00767813
0.00834705
0.00905327
0.00979851
0.0105845
0.00709588
0.00773878
0.00841903
0.0091387
0.00989944
0.0107041
0.00715888
0.00781076
0.00850191
0.00923472
0.0100121
0.00661203
0.00723447
0.00789531
0.00859694
0.00934265
0.0101356
0.0066967
0.00732527
0.00799386
0.00870566
0.00946374
0.0102723
0.00511499
0.0056421
0.00620226
0.00679764
0.00743183
0.00810818
0.00882995
0.00960098
0.00522763
0.00575534
0.00631702
0.00691633
0.00755641
0.00824053
0.00897229
0.00975593
0.00535993
0.00588761
0.00645105
0.0070558
0.00770376
0.00839605
0.00913698
0.00993226
0
0
0
0
0
0
0
0
0
0
0
0
0
0
0
0
0
0
0
0
0
0
0
0
0
0
0
0
0
0
0
0
0
0
0
0
0
0
0
0
0
0
0
0
0
0
0
0
0
0
0
0
0
0
0
0
0
0
0
0
0
0
0
0
0
0
0
0
0
0
0
0
0
0
0
0
0
0
0
0
0
0
0
0
0.00555285
0.00599581
0.00562491
0.00608047
0.00655178
0.00703717
0.00753851
0.00805516
0.0085858
0.0091286
0.00968095
0.00617436
0.00665772
0.00715849
0.00767635
0.00821029
0.00875851
0.00931955
0.00627895
0.00677515
0.00728993
0.00782294
0.00837346
0.00893977
0.00952087
0.00639382
0.00690279
0.00743162
0.00798008
0.00854767
0.00913344
0.00651937
0.00704106
0.00758404
0.00814827
0.00873344
0.00933894
0.00665599
0.0071904
0.00774767
0.00832801
0.00893082
0.00955655
0.00680405
0.00735121
0.007923
0.00851987
0.0091422
0.00642889
0.00696354
0.00752399
0.0081106
0.00872451
0.0093663
0.00659022
0.00713614
0.00770934
0.00831119
0.00894248
0.00960462
0.00525387
0.00573227
0.0062352
0.00676424
0.0073214
0.00790813
0.00852577
0.00917591
0.00541724
0.00590213
0.00641259
0.00695157
0.00752079
0.0081217
0.00875589
0.00942542
0.00559367
0.00608472
0.00660321
0.00715412
0.00773808
0.00835426
0.00900488
0.00969365
0
0
0
0
0
0
0
0
0
0
0
0
0
0
0
0
0
0
0
0
0
0
0
0
0
0
0
0
0
0
0
0
0
0
0
0
0
0
0
0
0
0
0
0
0
0
0
0
0
0
0
0
0
0
0
0
0
0
0
0
0
0
0
0
0
0
0
0
0
0
0
0
0
0
0
0
0
0
0
0
0
0
0
0
0.00364064
0.00397856
0.00365194
0.00399786
0.00436076
0.0047388
0.00513343
0.00554419
0.00596979
0.00640689
0.00685105
0.00402969
0.00439907
0.00478743
0.00519418
0.00561862
0.00605915
0.00651303
0.00407663
0.00445189
0.00484762
0.00526369
0.00569978
0.00615431
0.00662554
0.00413972
0.00451933
0.00492104
0.00534512
0.00579165
0.00625993
0.00422069
0.00460318
0.0050094
0.00544007
0.00589569
0.00637613
0.00432117
0.00470518
0.00511453
0.00555035
0.00601301
0.00650402
0.00444264
0.00482706
0.0052383
0.00567792
0.00614744
0.00422805
0.00458594
0.00497042
0.00538263
0.00582493
0.0062993
0.00439706
0.00475342
0.00513683
0.0055495
0.00599339
0.00647163
0.00366972
0.00395416
0.0042603
0.00458979
0.00494483
0.00532775
0.00574093
0.00618701
0.00388929
0.00417265
0.00447732
0.00480633
0.0051614
0.00554473
0.00595911
0.00640761
0.00412747
0.00441059
0.00471564
0.00504734
0.00540607
0.00579199
0.0062081
0.00665885
0.0019624
0.00221242
0.0018423
0.00209641
0.00237078
0.00266526
0.00298081
0.00331768
0.00367546
0.0040511
0.00444037
0.00197928
0.00225663
0.00255754
0.00288163
0.00322901
0.00359912
0.00398967
0.00186451
0.00214313
0.0024472
0.00277697
0.00313291
0.00351442
0.00392014
0.00175476
0.00203191
0.0023368
0.00267017
0.00303282
0.00342496
0.00165481
0.00192676
0.00222926
0.00256333
0.00293017
0.00333053
0.00157088
0.0018327
0.0021285
0.00245948
0.00282662
0.00323189
0.00151054
0.00175612
0.00203975
0.00236273
0.00272692
0.00129998
0.00148154
0.00170458
0.00196959
0.00227858
0.00263359
0.00134314
0.00149267
0.00168605
0.00192573
0.00221355
0.00255281
0.00128224
0.00130556
0.00135254
0.00143097
0.00154733
0.00170754
0.00191619
0.00217692
0.00146854
0.00147911
0.00150667
0.00156018
0.00164666
0.00177355
0.00194808
0.0021762
0.00167093
0.00167353
0.00168871
0.00172562
0.00178968
0.00188751
0.00202778
0.0022195
0.000883834
0.00100302
0.000821233
0.00094269
0.00107362
0.00121359
0.00136383
0.00152464
0.001696
0.00187639
0.00206355
0.000877963
0.00101046
0.00115468
0.00131028
0.00147722
0.00165513
0.00184298
0.000810194
0.000944227
0.00109096
0.00125026
0.00142227
0.00160655
0.00180251
0.000738425
0.000873495
0.0010223
0.00118489
0.0013616
0.00155259
0.000662901
0.000798359
0.000948651
0.00111398
0.00129488
0.00149191
0.000584073
0.000719048
0.000870053
0.00103741
0.00122157
0.00142354
0.000502783
0.000636015
0.000786709
0.000955189
0.00114272
0.000310582
0.000420102
0.000550133
0.000699088
0.000867515
0.00105657
0.000245804
0.000340718
0.000463074
0.000608126
0.000774621
0.000963705
0.000289552
0.000235468
0.000197623
0.000205607
0.00027067
0.000378186
0.000515605
0.000678406
0.000369697
0.000307841
0.000247625
0.000209924
0.000225108
0.000302529
0.00042501
0.000579823
0.000456034
0.000391157
0.000322291
0.000260089
0.000226241
0.000253058
0.000344785
0.000483125
0.00347006
0.00373643
0.00342549
0.00369937
0.00398509
0.00428164
0.00458897
0.00490605
0.00523172
0.00556382
0.00589875
0.00365678
0.00395024
0.00425702
0.0045757
0.00490468
0.00524239
0.00558725
0.0036099
0.00391083
0.00422633
0.00455521
0.00489603
0.00524699
0.00560611
0.00355774
0.0038659
0.00419001
0.00452912
0.00488194
0.00524709
0.0035003
0.00381527
0.00414773
0.00449696
0.00486184
0.00524105
0.00343763
0.00375886
0.00409923
0.00445828
0.00483471
0.00522768
0.00336995
0.00369665
0.00404427
0.00441265
0.00480178
0.00298703
0.00329705
0.00362876
0.00398272
0.00435969
0.00475995
0.00290921
0.00322074
0.00355541
0.00391455
0.00429851
0.00470875
0.00202017
0.00226925
0.00253886
0.0028287
0.00314064
0.00347697
0.00383981
0.00423089
0.0019497
0.00219469
0.0024594
0.00274674
0.00305775
0.00339381
0.00375795
0.00415337
0.00266701
0.00297568
0.00331026
0.00367315
0.00572539
0.00617316
0.00579465
0.00625587
0.00673317
0.00722553
0.00773493
0.00826114
0.00880335
0.00935965
0.00992747
0.00634384
0.00683487
0.00734366
0.00787033
0.00841421
0.00897409
0.00954872
0.00643844
0.00694346
0.0074674
0.0080103
0.00857172
0.00915045
0.00974577
0.00653863
0.0070578
0.00759716
0.00815681
0.00873649
0.0093357
0.00664424
0.00717765
0.00773271
0.00830957
0.00890823
0.00952847
0.00675495
0.00730267
0.00787365
0.00846819
0.0090859
0.00972778
0.00687026
0.00743234
0.00801944
0.00863206
0.00927101
0.00643755
0.00698888
0.00756586
0.00816924
0.0088003
0.00946011
0.00654736
0.00711109
0.0077021
0.00832184
0.00897101
0.00965211
0.00508865
0.00558728
0.00610993
0.00665823
0.00723419
0.00783933
0.00847543
0.00914439
0.00517451
0.00568011
0.00621042
0.00676837
0.00735598
0.00797502
0.00862736
0.00931529
0.00525832
0.00576924
0.0063064
0.00687482
0.00747551
0.00810821
0.00877515
0.00948031
SCALARS DeltaMax double 9
LOOKUP_TABLE default
0 0 0 0 0 0 0 0 0
0 0 0 0 0 0 0 0 0
0 0 0 0 0 0 0 0 0
0 0 0 0 0 0 0 0 0
0 0 0 0 0 0 0 0 0
0 0 0 0 0 0 0 0 0
0 0 0 0 0 0 0 0 0
0 0 0 0 0 0 0 0 0
0 0 0 0 0 0 0 0 0
0 0 0 0 0 0 0 0 0
0 0 0 0 0 0 0 0 0
0 0 0 0 0 0 0 0 0
0 0 0 0 0 0 0 0 0
0 0 0 0 0 0 0 0 0
0 0 0 0 0 0 0 0 0
0 0 0 0 0 0 0 0 0
0 0 0 0 0 0 0 0 0
0 0 0 0 0 0 0 0 0
0 0 0 0 0 0 0 0 0
0 0 0 0 0 0 0 0 0
0 0 0 0 0 0 0 0 0
0 0 0 0 0 0 0 0 0
0 0 0 0 0 0 0 0 0
0 0 0 0 0 0 0 0 0
0 0 0 0 0 0 0 0 0
0 0 0 0 0 0 0 0 0
0 0 0 0 0 0 0 0 0
0 0 0 0 0 0 0 0 0
0 0 0 0 0 0 0 0 0
0 0 0 0 0 0 0 0 0
0 0 0 0 0 0 0 0 0
0 0 0 0 0 0 0 0 0
0 0 0 0 0 0 0 0 0
0 0 0 0 0 0 0 0 0
0 0 0 0 0 0 0 0 0
0 0 0 0 0 0 0 0 0
0 0 0 0 0 0 0 0 0
0 0 0 0 0 0 0 0 0
0 0 0 0 0 0 0 0 0
0 0 0 0 0 0 0 0 0
0 0 0 0 0 0 0 0 0
0 0 0 0 0 0 0 0 0
0 0 0 0 0 0 0 0 0
0 0 0 0 0 0 0 0 0
0 0 0 0 0 0 0 0 0
0 0 0 0 0 0 0 0 0
0 0 0 0 0 0 0 0 0
0 0 0 0 0 0 0 0 0
0 0 0 0 0 0 0 0 0
0 0 0 0 0 0 0 0 0
0 0 0 0 0 0 0 0 0
0 0 0 0 0 0 0 0 0
0 0 0 0 0 0 0 0 0
0 0 0 0 0 0 0 0 0
0 0 0 0 0 0 0 0 0
0 0 0 0 0 0 0 0 0
0 0 0 0 0 0 0 0 0
0 0 0 0 0 0 0 0 0
0 0 0 0 0 0 0 0 0
0 0 0 0 0 0 0 0 0
0 0 0 0 0 0 0 0 0
0 0 0 0 0 0 0 0 0
0 0 0 0 0 0 0 0 0
0 0 0 0 0 0 0 0 0
0 0 0 0 0 0 0 0 0
0 0 0 0 0 0 0 0 0
0 0 0 0 0 0 0 0 0
0 0 0 0 0 0 0 0 0
0 0 0 0 0 0 0 0 0
0 0 0 0 0 0 0 0 0
0 0 0 0 0 0 0 0 0
0 0 0 0 0 0 0 0 0
0 0 0 0 0 0 0 0 0
0 0 0 0 0 0 0 0 0
0 0 0 0 0 0 0 0 0
0 0 0 0 0 0 0 0 0
0 0 0 0 0 0 0 0 0
0 0 0 0 0 0 0 0 0
0 0 0 0 0 0 0 0 0
0 0 0 0 0 0 0 0 0
0 0 0 0 0 0 0 0 0
0 0 0 0 0 0 0 0 0
0 0 0 0 0 0 0 0 0
0 0 0 0 0 0 0 0 0
0 0 0 0 0 0 0 0 0
0 0 0 0 0 0 0 0 0
0 0 0 0 0 0 0 0 0
0 0 0 0 0 0 0 0 0
0 0 0 0 0 0 0 0 0
0 0 0 0 0 0 0 0 0
0 0 0 0 0 0 0 0 0
0 0 0 0 0 0 0 0 0
0 0 0 0 0 0 0 0 0
0 0 0 0 0 0 0 0 0
0 0 0 0 0 0 0 0 0
0 0 0 0 0 0 0 0 0
0 0 0 0 0 0 0 0 0
0 0 0 0 0 0 0 0 0
0 0 0 0 0 0 0 0 0
0 0 0 0 0 0 0 0 0
0 0 0 0 0 0 0 0 0
0 0 0 0 0 0 0 0 0
0 0 0 0 0 0 0 0 0
0 0 0 0 0 0 0 0 0
0 0 0 0 0 0 0 0 0
0 0 0 0 0 0 0 0 0
0 0 0 0 0 0 0 0 0
0 0 0 0 0 0 0 0 0
0 0 0 0 0 0 0 0 0
0 0 0 0 0 0 0 0 0
0 0 0 0 0 0 0 0 0
0 0 0 0 0 0 0 0 0
0 0 0 0 0 0 0 0 0
0 0 0 0 0 0 0 0 0
0 0 0 0 0 0 0 0 0
0 0 0 0 0 0 0 0 0
0 0 0 0 0 0 0 0 0
0 0 0 0 0 0 0 0 0
0 0 0 0 0 0 0 0 0
0 0 0 0 0 0 0 0 0
0 0 0 0 0 0 0 0 0
0 0 0 0 0 0 0 0 0
0 0 0 0 0 0 0 0 0
0 0 0 0 0 0 0 0 0
0 0 0 0 0 0 0 0 0
0 0 0 0 0 0 0 0 0
0 0 0 0 0 0 0 0 0
0 0 0 0 0 0 0 0 0
0 0 0 0 0 0 0 0 0
0 0 0 0 0 0 0 0 0
0 0 0 0 0 0 0 0 0
0 0 0 0 0 0 0 0 0
0 0 0 0 0 0 0 0 0
0 0 0 0 0 0 0 0 0
0 0 0 0 0 0 0 0 0
0 0 0 0 0 0 0 0 0
0 0 0 0 0 0 0 0 0
0 0 0 0 0 0 0 0 0
0 0 0 0 0 0 0 0 0
0 0 0 0 0 0 0 0 0
0 0 0 0 0 0 0 0 0
0 0 0 0 0 0 0 0 0
0 0 0 0 0 0 0 0 0
0 0 0 0 0 0 0 0 0
0 0 0 0 0 0 0 0 0
0 0 0 0 0 0 0 0 0
0 0 0 0 0 0 0 0 0
0 0 0 0 0 0 0 0 0
0 0 0 0 0 0 0 0 0
0 0 0 0 0 0 0 0 0
0 0 0 0 0 0 0 0 0
0 0 0 0 0 0 0 0 0
0 0 0 0 0 0 0 0 0
0 0 0 0 0 0 0 0 0
0 0 0 0 0 0 0 0 0
0 0 0 0 0 0 0 0 0
0 0 0 0 0 0 0 0 0
0 0 0 0 0 0 0 0 0
0 0 0 0 0 0 0 0 0
0 0 0 0 0 0 0 0 0
0 0 0 0 0 0 0 0 0
0 0 0 0 0 0 0 0 0
0 0 0 0 0 0 0 0 0
6.61667e-07 6.92409e-07 6.59565e-07 6.89898e-07 6.61667e-07 6.92409e-07 6.59565e-07 6.89898e-07 0
7.1538e-07 7.47402e-07 7.12582e-07 7.44226e-07 7.1538e-07 7.47402e-07 7.12582e-07 7.44226e-07 0
6.65998e-07 6.97397e-07 6.63386e-07 6.94413e-07 6.65998e-07 6.97397e-07 6.63386e-07 6.94413e-07 0
7.20901e-07 7.53725e-07 7.17604e-07 7.49943e-07 7.20901e-07 7.53725e-07 7.17604e-07 7.49943e-07 0
7.78275e-07 8.12535e-07 7.7415e-07 8.07955e-07 7.78275e-07 8.12535e-07 7.7415e-07 8.07955e-07 0
8.38169e-07 8.73954e-07 8.33252e-07 8.68572e-07 8.38169e-07 8.73954e-07 8.33252e-07 8.68572e-07 0
9.00724e-07 9.38091e-07 8.94997e-07 9.31885e-07 9.00724e-07 9.38091e-07 8.94997e-07 9.31885e-07 0
9.66018e-07 1.00497e-06 9.59446e-07 9.97876e-07 9.66018e-07 1.00497e-06 9.59446e-07 9.97876e-07 0
1.03406e-06 1.07459e-06 1.02656e-06 1.06652e-06 1.03406e-06 1.07459e-06 1.02656e-06 1.06652e-06 0
1.10482e-06 1.14691e-06 1.09631e-06 1.13775e-06 1.10482e-06 1.14691e-06 1.09631e-06 1.13775e-06 0
1.17826e-06 1.22187e-06 1.1686e-06 1.21148e-06 1.17826e-06 1.22187e-06 1.1686e-06 1.21148e-06 0
7.27412e-07 7.60969e-07 7.23525e-07 7.56675e-07 7.27412e-07 7.60969e-07 7.23525e-07 7.56675e-07 0
7.86071e-07 8.21105e-07 7.81465e-07 8.16054e-07 7.86071e-07 8.21105e-07 7.81465e-07 8.16054e-07 0
8.4732e-07 8.83924e-07 8.41933e-07 8.78062e-07 8.4732e-07 8.83924e-07 8.41933e-07 8.78062e-07 0
9.11312e-07 9.49551e-07 9.0509e-07 9.42819e-07 9.11312e-07 9.49551e-07 9.0509e-07 9.42819e-07 0
9.78147e-07 1.01806e-06 9.71024e-07 1.01037e-06 9.78147e-07 1.01806e-06 9.71024e-07 1.01037e-06 0
1.04788e-06 1.08947e-06 1.03976e-06 1.08074e-06 1.04788e-06 1.08947e-06 1.03976e-06 1.08074e-06 0
1.12052e-06 1.16379e-06 1.11131e-06 1.15388e-06 1.12052e-06 1.16379e-06 1.11131e-06 1.15388e-06 0
7.34955e-07 7.69219e-07 7.3047e-07 7.64326e-07 7.34955e-07 7.69219e-07 7.3047e-07 7.64326e-07 0
7.94861e-07 8.30667e-07 7.89656e-07 8.25016e-07 7.94861e-07 8.30667e-07 7.89656e-07 8.25016e-07 0
8.57469e-07 8.94905e-07 8.51478e-07 8.88432e-07 8.57469e-07 8.94905e-07 8.51478e-07 8.88432e-07 0
9.22927e-07 9.62068e-07 9.16086e-07 9.54704e-07 9.22927e-07 9.62068e-07 9.16086e-07 9.54704e-07 0
9.91357e-07 1.03226e-06 9.8359e-07 1.02391e-06 9.91357e-07 1.03226e-06 9.8359e-07 1.02391e-06 0
1.06285e-06 1.10555e-06 1.05406e-06 1.09611e-06 1.06285e-06 1.10555e-06 1.05406e-06 1.09611e-06 0
1.13746e-06 1.18198e-06 1.12752e-06 1.17131e-06 1.13746e-06 1.18198e-06 1.12752e-06 1.17131e-06 0
7.43555e-07 7.78523e-07 7.38457e-07 7.73018e-07 7.43555e-07 7.78523e-07 7.38457e-07 7.73018e-07 0
8.04706e-07 8.41287e-07 7.98889e-07 8.35022e-07 8.04706e-07 8.41287e-07 7.98889e-07 8.35022e-07 0
8.68682e-07 9.06963e-07 8.62074e-07 8.99865e-07 8.68682e-07 9.06963e-07 8.62074e-07 8.99865e-07 0
9.35632e-07 9.757e-07 9.28159e-07 9.67689e-07 9.35632e-07 9.757e-07 9.28159e-07 9.67689e-07 0
1.0057e-06 1.04763e-06 9.97276e-07 1.03861e-06 1.0057e-06 1.04763e-06 9.97276e-07 1.03861e-06 0
1.07902e-06 1.12288e-06 1.06953e-06 1.11271e-06 1.07902e-06 1.12288e-06 1.06953e-06 1.11271e-06 0
7.53226e-07 7.88894e-07 7.47508e-07 7.82773e-07 7.53226e-07 7.88894e-07 7.47508e-07 7.82773e-07 0
8.15619e-07 8.52978e-07 8.09185e-07 8.46094e-07 8.15619e-07 8.52978e-07 8.09185e-07 8.46094e-07 0
8.80971e-07 9.2011e-07 8.7374e-07 9.12382e-07 8.80971e-07 9.2011e-07 8.7374e-07 9.12382e-07 0
9.4944e-07 9.90458e-07 9.41329e-07 9.81796e-07 9.4944e-07 9.90458e-07 9.41329e-07 9.81796e-07 0
1.0212e-06 1.06419e-06 1.01211e-06 1.05448e-06 1.0212e-06 1.06419e-06 1.01211e-06 1.05448e-06 0
1.0964e-06 1.14146e-06 1.08621e-06 1.13057e-06 1.0964e-06 1.14146e-06 1.08621e-06 1.13057e-06 0
7.63958e-07 8.00325e-07 7.5763e-07 7.93593e-07 7.63958e-07 8.00325e-07 7.5763e-07 7.93593e-07 0
8.2759e-07 8.65732e-07 8.20546e-07 8.58235e-07 8.2759e-07 8.65732e-07 8.20546e-07 8.58235e-07 0
8.94329e-07 9.34339e-07 8.86483e-07 9.25988e-07 8.94329e-07 9.34339e-07 8.86483e-07 9.25988e-07 0
9.64345e-07 1.00634e-06 9.55602e-07 9.97029e-07 9.64345e-07 1.00634e-06 9.55602e-07 9.97029e-07 0
1.03784e-06 1.08193e-06 1.02808e-06 1.07154e-06 1.03784e-06 1.08193e-06 1.02808e-06 1.07154e-06 0
1.115e-06 1.16129e-06 1.10411e-06 1.14968e-06 1.115e-06 1.16129e-06 1.10411e-06 1.14968e-06 0
7.75715e-07 8.12778e-07 7.688e-07 8.05462e-07 7.75715e-07 8.12778e-07 7.688e-07 8.05462e-07 0
8.40587e-07 8.79515e-07 8.32956e-07 8.71429e-07 8.40587e-07 8.79515e-07 8.32956e-07 8.71429e-07 0
9.08724e-07 9.4962e-07 9.00284e-07 9.40667e-07 9.08724e-07 9.4962e-07 9.00284e-07 9.40667e-07 0
9.80314e-07 1.0233e-06 9.70961e-07 1.01337e-06 9.80314e-07 1.0233e-06 9.70961e-07 1.01337e-06 0
1.05559e-06 1.10082e-06 1.0452e-06 1.08978e-06 1.05559e-06 1.10082e-06 1.0452e-06 1.08978e-06 0
7.25429e-07 7.61408e-07 7.1861e-07 7.54249e-07 7.25429e-07 7.61408e-07 7.1861e-07 7.54249e-07 0
7.88399e-07 8.26176e-07 7.80963e-07 8.18325e-07 7.88399e-07 8.26176e-07 7.80963e-07 8.18325e-07 0
8.54535e-07 8.94255e-07 8.46365e-07 8.85627e-07 8.54535e-07 8.94255e-07 8.46365e-07 8.85627e-07 0
9.24084e-07 9.65881e-07 9.15097e-07 9.56371e-07 9.24084e-07 9.65881e-07 9.15097e-07 9.56371e-07 0
9.97279e-07 1.04129e-06 9.87361e-07 1.03078e-06 9.97279e-07 1.04129e-06 9.87361e-07 1.03078e-06 0
1.07438e-06 1.12078e-06 1.0634e-06 1.10913e-06 1.07438e-06 1.12078e-06 1.0634e-06 1.10913e-06 0
7.37892e-07 7.74467e-07 7.30594e-07 7.66823e-07 7.37892e-07 7.74467e-07 7.30594e-07 7.66823e-07 0
8.0193e-07 8.40404e-07 7.94014e-07 8.32089e-07 8.0193e-07 8.40404e-07 7.94014e-07 8.32089e-07 0
8.69309e-07 9.09827e-07 8.60679e-07 9.00736e-07 8.69309e-07 9.09827e-07 8.60679e-07 9.00736e-07 0
9.40282e-07 9.82995e-07 9.30828e-07 9.7301e-07 9.40282e-07 9.82995e-07 9.30828e-07 9.7301e-07 0
1.01512e-06 1.0602e-06 1.00471e-06 1.04917e-06 1.01512e-06 1.0602e-06 1.00471e-06 1.04917e-06 0
1.09411e-06 1.1417e-06 1.0826e-06 1.12951e-06 1.09411e-06 1.1417e-06 1.0826e-06 1.12951e-06 0
5.74623e-07 6.06604e-07 5.68188e-07 5.99986e-07 5.74623e-07 6.06604e-07 5.68188e-07 5.99986e-07 0
6.30576e-07 6.64098e-07 6.2381e-07 6.57111e-07 6.30576e-07 6.64098e-07 6.2381e-07 6.57111e-07 0
6.89269e-07 7.24528e-07 6.82102e-07 7.17088e-07 6.89269e-07 7.24528e-07 6.82102e-07 7.17088e-07 0
7.51024e-07 7.8817e-07 7.43365e-07 7.80184e-07 7.51024e-07 7.8817e-07 7.43365e-07 7.80184e-07 0
8.16094e-07 8.55256e-07 8.07844e-07 8.46609e-07 8.16094e-07 8.55256e-07 8.07844e-07 8.46609e-07 0
8.84706e-07 9.26025e-07 8.75744e-07 9.166e-07 8.84706e-07 9.26025e-07 8.75744e-07 9.166e-07 0
9.57112e-07 1.00075e-06 9.47321e-07 9.90425e-07 9.57112e-07 1.00075e-06 9.47321e-07 9.90425e-07 0
1.03361e-06 1.07978e-06 1.02286e-06 1.06839e-06 1.03361e-06 1.07978e-06 1.02286e-06 1.06839e-06 0
5.86177e-07 6.18418e-07 5.79444e-07 6.11543e-07 5.86177e-07 6.18418e-07 5.79444e-07 6.11543e-07 0
6.4261e-07 6.76474e-07 6.35613e-07 6.69286e-07 6.4261e-07 6.76474e-07 6.35613e-07 6.69286e-07 0
7.01932e-07 7.37635e-07 6.94582e-07 7.30032e-07 7.01932e-07 7.37635e-07 6.94582e-07 7.30032e-07 0
7.64496e-07 8.02197e-07 7.56685e-07 7.94067e-07 7.64496e-07 8.02197e-07 7.56685e-07 7.94067e-07 0
8.30574e-07 8.7042e-07 8.22183e-07 8.61634e-07 8.30574e-07 8.7042e-07 8.22183e-07 8.61634e-07 0
9.00414e-07 9.42536e-07 8.91314e-07 9.32972e-07 9.00414e-07 9.42536e-07 8.91314e-07 9.32972e-07 0
9.74261e-07 1.01884e-06 9.64327e-07 1.00836e-06 9.74261e-07 1.01884e-06 9.64327e-07 1.00836e-06 0
1.05244e-06 1.09971e-06 1.04154e-06 1.08816e-06 1.05244e-06 1.09971e-06 1.04154e-06 1.08816e-06 0
5.97832e-07 6.30305e-07 5.91107e-07 6.23441e-07 5.97832e-07 6.30305e-07 5.91107e-07 6.23441e-07 0
6.54697e-07 6.88868e-07 6.47721e-07 6.81718e-07 6.54697e-07 6.88868e-07 6.47721e-07 6.81718e-07 0
7.14575e-07 7.50676e-07 7.0729e-07 7.43166e-07 7.14575e-07 7.50676e-07 7.0729e-07 7.43166e-07 0
7.77857e-07 8.16031e-07 7.70169e-07 8.08082e-07 7.77857e-07 8.16031e-07 7.70169e-07 8.08082e-07 0
8.44832e-07 8.85366e-07 8.36642e-07 8.76778e-07 8.44832e-07 8.85366e-07 8.36642e-07 8.76778e-07 0
9.15914e-07 9.58862e-07 9.07004e-07 9.49472e-07 9.15914e-07 9.58862e-07 9.07004e-07 9.49472e-07 0
9.91245e-07 1.0368e-06 9.81471e-07 1.02646e-06 9.91245e-07 1.0368e-06 9.81471e-07 1.02646e-06 0
1.07116e-06 1.11954e-06 1.06038e-06 1.10811e-06 1.07116e-06 1.11954e-06 1.06038e-06 1.10811e-06 0
0 0 0 0 0 0 0 0 0
0 0 0 0 0 0 0 0 0
0 0 0 0 0 0 0 0 0
0 0 0 0 0 0 0 0 0
0 0 0 0 0 0 0 0 0
0 0 0 0 0 0 0 0 0
0 0 0 0 0 0 0 0 0
0 0 0 0 0 0 0 0 0
0 0 0 0 0 0 0 0 0
0 0 0 0 0 0 0 0 0
0 0 0 0 0 0 0 0 0
0 0 0 0 0 0 0 0 0
0 0 0 0 0 0 0 0 0
0 0 0 0 0 0 0 0 0
0 0 0 0 0 0 0 0 0
0 0 0 0 0 0 0 0 0
0 0 0 0 0 0 0 0 0
0 0 0 0 0 0 0 0 0
0 0 0 0 0 0 0 0 0
0 0 0 0 0 0 0 0 0
0 0 0 0 0 0 0 0 0
0 0 0 0 0 0 0 0 0
0 0 0 0 0 0 0 0 0
0 0 0 0 0 0 0 0 0
0 0 0 0 0 0 0 0 0
0 0 0 0 0 0 0 0 0
0 0 0 0 0 0 0 0 0
0 0 0 0 0 0 0 0 0
0 0 0 0 0 0 0 0 0
0 0 0 0 0 0 0 0 0
0 0 0 0 0 0 0 0 0
0 0 0 0 0 0 0 0 0
0 0 0 0 0 0 0 0 0
0 0 0 0 0 0 0 0 0
0 0 0 0 0 0 0 0 0
0 0 0 0 0 0 0 0 0
0 0 0 0 0 0 0 0 0
0 0 0 0 0 0 0 0 0
0 0 0 0 0 0 0 0 0
0 0 0 0 0 0 0 0 0
0 0 0 0 0 0 0 0 0
0 0 0 0 0 0 0 0 0
0 0 0 0 0 0 0 0 0
0 0 0 0 0 0 0 0 0
0 0 0 0 0 0 0 0 0
0 0 0 0 0 0 0 0 0
0 0 0 0 0 0 0 0 0
0 0 0 0 0 0 0 0 0
0 0 0 0 0 0 0 0 0
0 0 0 0 0 0 0 0 0
0 0 0 0 0 0 0 0 0
0 0 0 0 0 0 0 0 0
0 0 0 0 0 0 0 0 0
0 0 0 0 0 0 0 0 0
0 0 0 0 0 0 0 0 0
0 0 0 0 0 0 0 0 0
0 0 0 0 0 0 0 0 0
0 0 0 0 0 0 0 0 0
0 0 0 0 0 0 0 0 0
0 0 0 0 0 0 0 0 0
0 0 0 0 0 0 0 0 0
0 0 0 0 0 0 0 0 0
0 0 0 0 0 0 0 0 0
0 0 0 0 0 0 0 0 0
0 0 0 0 0 0 0 0 0
0 0 0 0 0 0 0 0 0
0 0 0 0 0 0 0 0 0
0 0 0 0 0 0 0 0 0
0 0 0 0 0 0 0 0 0
0 0 0 0 0 0 0 0 0
0 0 0 0 0 0 0 0 0
0 0 0 0 0 0 0 0 0
0 0 0 0 0 0 0 0 0
0 0 0 0 0 0 0 0 0
0 0 0 0 0 0 0 0 0
0 0 0 0 0 0 0 0 0
0 0 0 0 0 0 0 0 0
0 0 0 0 0 0 0 0 0
0 0 0 0 0 0 0 0 0
0 0 0 0 0 0 0 0 0
0 0 0 0 0 0 0 0 0
0 0 0 0 0 0 0 0 0
0 0 0 0 0 0 0 0 0
0 0 0 0 0 0 0 0 0
0 0 0 0 0 0 0 0 0
0 0 0 0 0 0 0 0 0
0 0 0 0 0 0 0 0 0
0 0 0 0 0 0 0 0 0
0 0 0 0 0 0 0 0 0
0 0 0 0 0 0 0 0 0
0 0 0 0 0 0 0 0 0
0 0 0 0 0 0 0 0 0
0 0 0 0 0 0 0 0 0
0 0 0 0 0 0 0 0 0
0 0 0 0 0 0 0 0 0
0 0 0 0 0 0 0 0 0
0 0 0 0 0 0 0 0 0
0 0 0 0 0 0 0 0 0
0 0 0 0 0 0 0 0 0
0 0 0 0 0 0 0 0 0
0 0 0 0 0 0 0 0 0
0 0 0 0 0 0 0 0 0
0 0 0 0 0 0 0 0 0
0 0 0 0 0 0 0 0 0
0 0 0 0 0 0 0 0 0
0 0 0 0 0 0 0 0 0
0 0 0 0 0 0 0 0 0
0 0 0 0 0 0 0 0 0
0 0 0 0 0 0 0 0 0
0 0 0 0 0 0 0 0 0
0 0 0 0 0 0 0 0 0
0 0 0 0 0 0 0 0 0
0 0 0 0 0 0 0 0 0
0 0 0 0 0 0 0 0 0
0 0 0 0 0 0 0 0 0
0 0 0 0 0 0 0 0 0
0 0 0 0 0 0 0 0 0
0 0 0 0 0 0 0 0 0
0 0 0 0 0 0 0 0 0
0 0 0 0 0 0 0 0 0
0 0 0 0 0 0 0 0 0
0 0 0 0 0 0 0 0 0
0 0 0 0 0 0 0 0 0
0 0 0 0 0 0 0 0 0
0 0 0 0 0 0 0 0 0
0 0 0 0 0 0 0 0 0
0 0 0 0 0 0 0 0 0
0 0 0 0 0 0 0 0 0
0 0 0 0 0 0 0 0 0
0 0 0 0 0 0 0 0 0
0 0 0 0 0 0 0 0 0
0 0 0 0 0 0 0 0 0
0 0 0 0 0 0 0 0 0
0 0 0 0 0 0 0 0 0
0 0 0 0 0 0 0 0 0
0 0 0 0 0 0 0 0 0
0 0 0 0 0 0 0 0 0
0 0 0 0 0 0 0 0 0
0 0 0 0 0 0 0 0 0
0 0 0 0 0 0 0 0 0
0 0 0 0 0 0 0 0 0
0 0 0 0 0 0 0 0 0
0 0 0 0 0 0 0 0 0
0 0 0 0 0 0 0 0 0
0 0 0 0 0 0 0 0 0
0 0 0 0 0 0 0 0 0
0 0 0 0 0 0 0 0 0
0 0 0 0 0 0 0 0 0
0 0 0 0 0 0 0 0 0
0 0 0 0 0 0 0 0 0
0 0 0 0 0 0 0 0 0
0 0 0 0 0 0 0 0 0
0 0 0 0 0 0 0 0 0
0 0 0 0 0 0 0 0 0
0 0 0 0 0 0 0 0 0
0 0 0 0 0 0 0 0 0
0 0 0 0 0 0 0 0 0
0 0 0 0 0 0 0 0 0
0 0 0 0 0 0 0 0 0
0 0 0 0 0 0 0 0 0
0 0 0 0 0 0 0 0 0
0 0 0 0 0 0 0 0 0
0 0 0 0 0 0 0 0 0
0 0 0 0 0 0 0 0 0
0 0 0 0 0 0 0 0 0
0 0 0 0 0 0 0 0 0
0 0 0 0 0 0 0 0 0
0 0 0 0 0 0 0 0 0
0 0 0 0 0 0 0 0 0
0 0 0 0 0 0 0 0 0
0 0 0 0 0 0 0 0 0
0 0 0 0 0 0 0 0 0
0 0 0 0 0 0 0 0 0
0 0 0 0 0 0 0 0 0
0 0 0 0 0 0 0 0 0
0 0 0 0 0 0 0 0 0
0 0 0 0 0 0 0 0 0
0 0 0 0 0 0 0 0 0
0 0 0 0 0 0 0 0 0
0 0 0 0 0 0 0 0 0
0 0 0 0 0 0 0 0 0
0 0 0 0 0 0 0 0 0
0 0 0 0 0 0 0 0 0
0 0 0 0 0 0 0 0 0
0 0 0 0 0 0 0 0 0
0 0 0 0 0 0 0 0 0
0 0 0 0 0 0 0 0 0
0 0 0 0 0 0 0 0 0
0 0 0 0 0 0 0 0 0
0 0 0 0 0 0 0 0 0
0 0 0 0 0 0 0 0 0
0 0 0 0 0 0 0 0 0
0 0 0 0 0 0 0 0 0
0 0 0 0 0 0 0 0 0
0 0 0 0 0 0 0 0 0
0 0 0 0 0 0 0 0 0
0 0 0 0 0 0 0 0 0
0 0 0 0 0 0 0 0 0
0 0 0 0 0 0 0 0 0
0 0 0 0 0 0 0 0 0
0 0 0 0 0 0 0 0 0
0 0 0 0 0 0 0 0 0
0 0 0 0 0 0 0 0 0
0 0 0 0 0 0 0 0 0
0 0 0 0 0 0 0 0 0
0 0 0 0 0 0 0 0 0
0 0 0 0 0 0 0 0 0
0 0 0 0 0 0 0 0 0
0 0 0 0 0 0 0 0 0
0 0 0 0 0 0 0 0 0
0 0 0 0 0 0 0 0 0
0 0 0 0 0 0 0 0 0
0 0 0 0 0 0 0 0 0
0 0 0 0 0 0 0 0 0
0 0 0 0 0 0 0 0 0
0 0 0 0 0 0 0 0 0
0 0 0 0 0 0 0 0 0
0 0 0 0 0 0 0 0 0
0 0 0 0 0 0 0 0 0
0 0 0 0 0 0 0 0 0
0 0 0 0 0 0 0 0 0
0 0 0 0 0 0 0 0 0
0 0 0 0 0 0 0 0 0
0 0 0 0 0 0 0 0 0
0 0 0 0 0 0 0 0 0
0 0 0 0 0 0 0 0 0
0 0 0 0 0 0 0 0 0
0 0 0 0 0 0 0 0 0
0 0 0 0 0 0 0 0 0
0 0 0 0 0 0 0 0 0
0 0 0 0 0 0 0 0 0
0 0 0 0 0 0 0 0 0
0 0 0 0 0 0 0 0 0
0 0 0 0 0 0 0 0 0
0 0 0 0 0 0 0 0 0
0 0 0 0 0 0 0 0 0
0 0 0 0 0 0 0 0 0
0 0 0 0 0 0 0 0 0
0 0 0 0 0 0 0 0 0
0 0 0 0 0 0 0 0 0
0 0 0 0 0 0 0 0 0
0 0 0 0 0 0 0 0 0
0 0 0 0 0 0 0 0 0
0 0 0 0 0 0 0 0 0
0 0 0 0 0 0 0 0 0
0 0 0 0 0 0 0 0 0
0 0 0 0 0 0 0 0 0
0 0 0 0 0 0 0 0 0
0 0 0 0 0 0 0 0 0
0 0 0 0 0 0 0 0 0
0 0 0 0 0 0 0 0 0
0 0 0 0 0 0 0 0 0
0 0 0 0 0 0 0 0 0
0 0 0 0 0 0 0 0 0
0 0 0 0 0 0 0 0 0
0 0 0 0 0 0 0 0 0
0 0 0 0 0 0 0 0 0
0 0 0 0 0 0 0 0 0
0 0 0 0 0 0 0 0 0
0 0 0 0 0 0 0 0 0
0 0 0 0 0 0 0 0 0
0 0 0 0 0 0 0 0 0
0 0 0 0 0 0 0 0 0
0 0 0 0 0 0 0 0 0
0 0 0 0 0 0 0 0 0
0 0 0 0 0 0 0 0 0
0 0 0 0 0 0 0 0 0
0 0 0 0 0 0 0 0 0
0 0 0 0 0 0 0 0 0
0 0 0 0 0 0 0 0 0
0 0 0 0 0 0 0 0 0
0 0 0 0 0 0 0 0 0
0 0 0 0 0 0 0 0 0
0 0 0 0 0 0 0 0 0
0 0 0 0 0 0 0 0 0
0 0 0 0 0 0 0 0 0
0 0 0 0 0 0 0 0 0
0 0 0 0 0 0 0 0 0
0 0 0 0 0 0 0 0 0
0 0 0 0 0 0 0 0 0
0 0 0 0 0 0 0 0 0
0 0 0 0 0 0 0 0 0
0 0 0 0 0 0 0 0 0
0 0 0 0 0 0 0 0 0
0 0 0 0 0 0 0 0 0
0 0 0 0 0 0 0 0 0
0 0 0 0 0 0 0 0 0
0 0 0 0 0 0 0 0 0
0 0 0 0 0 0 0 0 0
0 0 0 0 0 0 0 0 0
0 0 0 0 0 0 0 0 0
0 0 0 0 0 0 0 0 0
0 0 0 0 0 0 0 0 0
0 0 0 0 0 0 0 0 0
0 0 0 0 0 0 0 0 0
0 0 0 0 0 0 0 0 0
0 0 0 0 0 0 0 0 0
0 0 0 0 0 0 0 0 0
0 0 0 0 0 0 0 0 0
0 0 0 0 0 0 0 0 0
0 0 0 0 0 0 0 0 0
0 0 0 0 0 0 0 0 0
0 0 0 0 0 0 0 0 0
0 0 0 0 0 0 0 0 0
0 0 0 0 0 0 0 0 0
0 0 0 0 0 0 0 0 0
0 0 0 0 0 0 0 0 0
0 0 0 0 0 0 0 0 0
0 0 0 0 0 0 0 0 0
0 0 0 0 0 0 0 0 0
0 0 0 0 0 0 0 0 0
0 0 0 0 0 0 0 0 0
0 0 0 0 0 0 0 0 0
0 0 0 0 0 0 0 0 0
0 0 0 0 0 0 0 0 0
0 0 0 0 0 0 0 0 0
0 0 0 0 0 0 0 0 0
0 0 0 0 0 0 0 0 0
0 0 0 0 0 0 0 0 0
0 0 0 0 0 0 0 0 0
0 0 0 0 0 0 0 0 0
0 0 0 0 0 0 0 0 0
0 0 0 0 0 0 0 0 0
0 0 0 0 0 0 0 0 0
0 0 0 0 0 0 0 0 0
0 0 0 0 0 0 0 0 0
0 0 0 0 0 0 0 0 0
0 0 0 0 0 0 0 0 0
0 0 0 0 0 0 0 0 0
0 0 0 0 0 0 0 0 0
0 0 0 0 0 0 0 0 0
0 0 0 0 0 0 0 0 0
0 0 0 0 0 0 0 0 0
0 0 0 0 0 0 0 0 0
0 0 0 0 0 0 0 0 0
0 0 0 0 0 0 0 0 0
0 0 0 0 0 0 0 0 0
0 0 0 0 0 0 0 0 0
0 0 0 0 0 0 0 0 0
0 0 0 0 0 0 0 0 0
0 0 0 0 0 0 0 0 0
0 0 0 0 0 0 0 0 0
0 0 0 0 0 0 0 0 0
0 0 0 0 0 0 0 0 0
0 0 0 0 0 0 0 0 0
0 0 0 0 0 0 0 0 0
0 0 0 0 0 0 0 0 0
0 0 0 0 0 0 0 0 0
0 0 0 0 0 0 0 0 0
0 0 0 0 0 0 0 0 0
0 0 0 0 0 0 0 0 0
0 0 0 0 0 0 0 0 0
0 0 0 0 0 0 0 0 0
0 0 0 0 0 0 0 0 0
0 0 0 0 0 0 0 0 0
0 0 0 0 0 0 0 0 0
0 0 0 0 0 0 0 0 0
0 0 0 0 0 0 0 0 0
0 0 0 0 0 0 0 0 0
0 0 0 0 0 0 0 0 0
0 0 0 0 0 0 0 0 0
0 0 0 0 0 0 0 0 0
0 0 0 0 0 0 0 0 0
0 0 0 0 0 0 0 0 0
0 0 0 0 0 0 0 0 0
0 0 0 0 0 0 0 0 0
0 0 0 0 0 0 0 0 0
0 0 0 0 0 0 0 0 0
0 0 0 0 0 0 0 0 0
0 0 0 0 0 0 0 0 0
0 0 0 0 0 0 0 0 0
0 0 0 0 0 0 0 0 0
0 0 0 0 0 0 0 0 0
0 0 0 0 0 0 0 0 0
0 0 0 0 0 0 0 0 0
0 0 0 0 0 0 0 0 0
0 0 0 0 0 0 0 0 0
0 0 0 0 0 0 0 0 0
0 0 0 0 0 0 0 0 0
0 0 0 0 0 0 0 0 0
0 0 0 0 0 0 0 0 0
0 0 0 0 0 0 0 0 0
0 0 0 0 0 0 0 0 0
0 0 0 0 0 0 0 0 0
0 0 0 0 0 0 0 0 0
0 0 0 0 0 0 0 0 0
0 0 0 0 0 0 0 0 0
0 0 0 0 0 0 0 0 0
0 0 0 0 0 0 0 0 0
0 0 0 0 0 0 0 0 0
0 0 0 0 0 0 0 0 0
0 0 0 0 0 0 0 0 0
0 0 0 0 0 0 0 0 0
0 0 0 0 0 0 0 0 0
0 0 0 0 0 0 0 0 0
0 0 0 0 0 0 0 0 0
0 0 0 0 0 0 0 0 0
0 0 0 0 0 0 0 0 0
0 0 0 0 0 0 0 0 0
0 0 0 0 0 0 0 0 0
0 0 0 0 0 0 0 0 0
0 0 0 0 0 0 0 0 0
0 0 0 0 0 0 0 0 0
0 0 0 0 0 0 0 0 0
0 0 0 0 0 0 0 0 0
0 0 0 0 0 0 0 0 0
0 0 0 0 0 0 0 0 0
0 0 0 0 0 0 0 0 0
0 0 0 0 0 0 0 0 0
0 0 0 0 0 0 0 0 0
0 0 0 0 0 0 0 0 0
0 0 0 0 0 0 0 0 0
0 0 0 0 0 0 0 0 0
0 0 0 0 0 0 0 0 0
0 0 0 0 0 0 0 0 0
0 0 0 0 0 0 0 0 0
0 0 0 0 0 0 0 0 0
0 0 0 0 0 0 0 0 0
0 0 0 0 0 0 0 0 0
0 0 0 0 0 0 0 0 0
0 0 0 0 0 0 0 0 0
0 0 0 0 0 0 0 0 0
0 0 0 0 0 0 0 0 0
0 0 0 0 0 0 0 0 0
0 0 0 0 0 0 0 0 0
0 0 0 0 0 0 0 0 0
0 0 0 0 0 0 0 0 0
0 0 0 0 0 0 0 0 0
0 0 0 0 0 0 0 0 0
0 0 0 0 0 0 0 0 0
0 0 0 0 0 0 0 0 0
0 0 0 0 0 0 0 0 0
0 0 0 0 0 0 0 0 0
0 0 0 0 0 0 0 0 0
0 0 0 0 0 0 0 0 0
0 0 0 0 0 0 0 0 0
0 0 0 0 0 0 0 0 0
0 0 0 0 0 0 0 0 0
0 0 0 0 0 0 0 0 0
0 0 0 0 0 0 0 0 0
0 0 0 0 0 0 0 0 0
0 0 0 0 0 0 0 0 0
0 0 0 0 0 0 0 0 0
0 0 0 0 0 0 0 0 0
0 0 0 0 0 0 0 0 0
0 0 0 0 0 0 0 0 0
0 0 0 0 0 0 0 0 0
0 0 0 0 0 0 0 0 0
0 0 0 0 0 0 0 0 0
0 0 0 0 0 0 0 0 0
0 0 0 0 0 0 0 0 0
0 0 0 0 0 0 0 0 0
0 0 0 0 0 0 0 0 0
0 0 0 0 0 0 0 0 0
0 0 0 0 0 0 0 0 0
0 0 0 0 0 0 0 0 0
0 0 0 0 0 0 0 0 0
0 0 0 0 0 0 0 0 0
0 0 0 0 0 0 0 0 0
0 0 0 0 0 0 0 0 0
0 0 0 0 0 0 0 0 0
0 0 0 0 0 0 0 0 0
0 0 0 0 0 0 0 0 0
0 0 0 0 0 0 0 0 0
0 0 0 0 0 0 0 0 0
0 0 0 0 0 0 0 0 0
0 0 0 0 0 0 0 0 0
0 0 0 0 0 0 0 0 0
0 0 0 0 0 0 0 0 0
0 0 0 0 0 0 0 0 0
0 0 0 0 0 0 0 0 0
0 0 0 0 0 0 0 0 0
0 0 0 0 0 0 0 0 0
0 0 0 0 0 0 0 0 0
0 0 0 0 0 0 0 0 0
0 0 0 0 0 0 0 0 0
0 0 0 0 0 0 0 0 0
0 0 0 0 0 0 0 0 0
0 0 0 0 0 0 0 0 0
0 0 0 0 0 0 0 0 0
0 0 0 0 0 0 0 0 0
0 0 0 0 0 0 0 0 0
0 0 0 0 0 0 0 0 0
0 0 0 0 0 0 0 0 0
0 0 0 0 0 0 0 0 0
0 0 0 0 0 0 0 0 0
0 0 0 0 0 0 0 0 0
0 0 0 0 0 0 0 0 0
0 0 0 0 0 0 0 0 0
0 0 0 0 0 0 0 0 0
0 0 0 0 0 0 0 0 0
0 0 0 0 0 0 0 0 0
0 0 0 0 0 0 0 0 0
0 0 0 0 0 0 0 0 0
0 0 0 0 0 0 0 0 0
0 0 0 0 0 0 0 0 0
0 0 0 0 0 0 0 0 0
0 0 0 0 0 0 0 0 0
0 0 0 0 0 0 0 0 0
0 0 0 0 0 0 0 0 0
0 0 0 0 0 0 0 0 0
0 0 0 0 0 0 0 0 0
0 0 0 0 0 0 0 0 0
0 0 0 0 0 0 0 0 0
0 0 0 0 0 0 0 0 0
0 0 0 0 0 0 0 0 0
0 0 0 0 0 0 0 0 0
0 0 0 0 0 0 0 0 0
0 0 0 0 0 0 0 0 0
0 0 0 0 0 0 0 0 0
0 0 0 0 0 0 0 0 0
0 0 0 0 0 0 0 0 0
0 0 0 0 0 0 0 0 0
0 0 0 0 0 0 0 0 0
0 0 0 0 0 0 0 0 0
0 0 0 0 0 0 0 0 0
0 0 0 0 0 0 0 0 0
0 0 0 0 0 0 0 0 0
0 0 0 0 0 0 0 0 0
0 0 0 0 0 0 0 0 0
0 0 0 0 0 0 0 0 0
0 0 0 0 0 0 0 0 0
0 0 0 0 0 0 0 0 0
0 0 0 0 0 0 0 0 0
0 0 0 0 0 0 0 0 0
0 0 0 0 0 0 0 0 0
0 0 0 0 0 0 0 0 0
0 0 0 0 0 0 0 0 0
0 0 0 0 0 0 0 0 0
0 0 0 0 0 0 0 0 0
0 0 0 0 0 0 0 0 0
0 0 0 0 0 0 0 0 0
0 0 0 0 0 0 0 0 0
0 0 0 0 0 0 0 0 0
0 0 0 0 0 0 0 0 0
0 0 0 0 0 0 0 0 0
0 0 0 0 0 0 0 0 0
0 0 0 0 0 0 0 0 0
0 0 0 0 0 0 0 0 0
0 0 0 0 0 0 0 0 0
0 0 0 0 0 0 0 0 0
0 0 0 0 0 0 0 0 0
0 0 0 0 0 0 0 0 0
0 0 0 0 0 0 0 0 0
0 0 0 0 0 0 0 0 0
0 0 0 0 0 0 0 0 0
0 0 0 0 0 0 0 0 0
0 0 0 0 0 0 0 0 0
0 0 0 0 0 0 0 0 0
0 0 0 0 0 0 0 0 0
0 0 0 0 0 0 0 0 0
0 0 0 0 0 0 0 0 0
0 0 0 0 0 0 0 0 0
0 0 0 0 0 0 0 0 0
0 0 0 0 0 0 0 0 0
0 0 0 0 0 0 0 0 0
0 0 0 0 0 0 0 0 0
0 0 0 0 0 0 0 0 0
0 0 0 0 0 0 0 0 0
0 0 0 0 0 0 0 0 0
0 0 0 0 0 0 0 0 0
0 0 0 0 0 0 0 0 0
0 0 0 0 0 0 0 0 0
0 0 0 0 0 0 0 0 0
0 0 0 0 0 0 0 0 0
0 0 0 0 0 0 0 0 0
0 0 0 0 0 0 0 0 0
0 0 0 0 0 0 0 0 0
0 0 0 0 0 0 0 0 0
0 0 0 0 0 0 0 0 0
0 0 0 0 0 0 0 0 0
0 0 0 0 0 0 0 0 0
0 0 0 0 0 0 0 0 0
0 0 0 0 0 0 0 0 0
0 0 0 0 0 0 0 0 0
0 0 0 0 0 0 0 0 0
0 0 0 0 0 0 0 0 0
0 0 0 0 0 0 0 0 0
0 0 0 0 0 0 0 0 0
0 0 0 0 0 0 0 0 0
0 0 0 0 0 0 0 0 0
0 0 0 0 0 0 0 0 0
0 0 0 0 0 0 0 0 0
0 0 0 0 0 0 0 0 0
0 0 0 0 0 0 0 0 0
0 0 0 0 0 0 0 0 0
0 0 0 0 0 0 0 0 0
0 0 0 0 0 0 0 0 0
0 0 0 0 0 0 0 0 0
0 0 0 0 0 0 0 0 0
0 0 0 0 0 0 0 0 0
0 0 0 0 0 0 0 0 0
0 0 0 0 0 0 0 0 0
0 0 0 0 0 0 0 0 0
0 0 0 0 0 0 0 0 0
0 0 0 0 0 0 0 0 0
0 0 0 0 0 0 0 0 0
0 0 0 0 0 0 0 0 0
0 0 0 0 0 0 0 0 0
0 0 0 0 0 0 0 0 0
0 0 0 0 0 0 0 0 0
0 0 0 0 0 0 0 0 0
0 0 0 0 0 0 0 0 0
0 0 0 0 0 0 0 0 0
0 0 0 0 0 0 0 0 0
0 0 0 0 0 0 0 0 0
0 0 0 0 0 0 0 0 0
0 0 0 0 0 0 0 0 0
0 0 0 0 0 0 0 0 0
0 0 0 0 0 0 0 0 0
0 0 0 0 0 0 0 0 0
0 0 0 0 0 0 0 0 0
0 0 0 0 0 0 0 0 0
0 0 0 0 0 0 0 0 0
0 0 0 0 0 0 0 0 0
0 0 0 0 0 0 0 0 0
0 0 0 0 0 0 0 0 0
0 0 0 0 0 0 0 0 0
0 0 0 0 0 0 0 0 0
0 0 0 0 0 0 0 0 0
0 0 0 0 0 0 0 0 0
0 0 0 0 0 0 0 0 0
0 0 0 0 0 0 0 0 0
0 0 0 0 0 0 0 0 0
0 0 0 0 0 0 0 0 0
0 0 0 0 0 0 0 0 0
0 0 0 0 0 0 0 0 0
0 0 0 0 0 0 0 0 0
0 0 0 0 0 0 0 0 0
0 0 0 0 0 0 0 0 0
0 0 0 0 0 0 0 0 0
0 0 0 0 0 0 0 0 0
0 0 0 0 0 0 0 0 0
0 0 0 0 0 0 0 0 0
0 0 0 0 0 0 0 0 0
0 0 0 0 0 0 0 0 0
0 0 0 0 0 0 0 0 0
0 0 0 0 0 0 0 0 0
0 0 0 0 0 0 0 0 0
0 0 0 0 0 0 0 0 0
0 0 0 0 0 0 0 0 0
0 0 0 0 0 0 0 0 0
0 0 0 0 0 0 0 0 0
0 0 0 0 0 0 0 0 0
0 0 0 0 0 0 0 0 0
0 0 0 0 0 0 0 0 0
0 0 0 0 0 0 0 0 0
0 0 0 0 0 0 0 0 0
0 0 0 0 0 0 0 0 0
0 0 0 0 0 0 0 0 0
0 0 0 0 0 0 0 0 0
0 0 0 0 0 0 0 0 0
0 0 0 0 0 0 0 0 0
0 0 0 0 0 0 0 0 0
0 0 0 0 0 0 0 0 0
0 0 0 0 0 0 0 0 0
0 0 0 0 0 0 0 0 0
0 0 0 0 0 0 0 0 0
0 0 0 0 0 0 0 0 0
0 0 0 0 0 0 0 0 0
0 0 0 0 0 0 0 0 0
0 0 0 0 0 0 0 0 0
0 0 0 0 0 0 0 0 0
0 0 0 0 0 0 0 0 0
0 0 0 0 0 0 0 0 0
0 0 0 0 0 0 0 0 0
0 0 0 0 0 0 0 0 0
0 0 0 0 0 0 0 0 0
0 0 0 0 0 0 0 0 0
0 0 0 0 0 0 0 0 0
0 0 0 0 0 0 0 0 0
0 0 0 0 0 0 0 0 0
0 0 0 0 0 0 0 0 0
0 0 0 0 0 0 0 0 0
0 0 0 0 0 0 0 0 0
0 0 0 0 0 0 0 0 0
0 0 0 0 0 0 0 0 0
0 0 0 0 0 0 0 0 0
0 0 0 0 0 0 0 0 0
0 0 0 0 0 0 0 0 0
0 0 0 0 0 0 0 0 0
0 0 0 0 0 0 0 0 0
0 0 0 0 0 0 0 0 0
0 0 0 0 0 0 0 0 0
0 0 0 0 0 0 0 0 0
0 0 0 0 0 0 0 0 0
0 0 0 0 0 0 0 0 0
0 0 0 0 0 0 0 0 0
0 0 0 0 0 0 0 0 0
0 0 0 0 0 0 0 0 0
0 0 0 0 0 0 0 0 0
0 0 0 0 0 0 0 0 0
0 0 0 0 0 0 0 0 0
0 0 0 0 0 0 0 0 0
0 0 0 0 0 0 0 0 0
0 0 0 0 0 0 0 0 0
0 0 0 0 0 0 0 0 0
0 0 0 0 0 0 0 0 0
0 0 0 0 0 0 0 0 0
0 0 0 0 0 0 0 0 0
0 0 0 0 0 0 0 0 0
0 0 0 0 0 0 0 0 0
0 0 0 0 0 0 0 0 0
0 0 0 0 0 0 0 0 0
0 0 0 0 0 0 0 0 0
0 0 0 0 0 0 0 0 0
0 0 0 0 0 0 0 0 0
0 0 0 0 0 0 0 0 0
0 0 0 0 0 0 0 0 0
0 0 0 0 0 0 0 0 0
0 0 0 0 0 0 0 0 0
0 0 0 0 0 0 0 0 0
0 0 0 0 0 0 0 0 0
0 0 0 0 0 0 0 0 0
0 0 0 0 0 0 0 0 0
0 0 0 0 0 0 0 0 0
0 0 0 0 0 0 0 0 0
0 0 0 0 0 0 0 0 0
0 0 0 0 0 0 0 0 0
0 0 0 0 0 0 0 0 0
0 0 0 0 0 0 0 0 0
0 0 0 0 0 0 0 0 0
0 0 0 0 0 0 0 0 0
0 0 0 0 0 0 0 0 0
0 0 0 0 0 0 0 0 0
0 0 0 0 0 0 0 0 0
0 0 0 0 0 0 0 0 0
0 0 0 0 0 0 0 0 0
0 0 0 0 0 0 0 0 0
0 0 0 0 0 0 0 0 0
0 0 0 0 0 0 0 0 0
0 0 0 0 0 0 0 0 0
0 0 0 0 0 0 0 0 0
0 0 0 0 0 0 0 0 0
0 0 0 0 0 0 0 0 0
0 0 0 0 0 0 0 0 0
0 0 0 0 0 0 0 0 0
0 0 0 0 0 0 0 0 0
0 0 0 0 0 0 0 0 0
0 0 0 0 0 0 0 0 0
0 0 0 0 0 0 0 0 0
0 0 0 0 0 0 0 0 0
0 0 0 0 0 0 0 0 0
0 0 0 0 0 0 0 0 0
0 0 0 0 0 0 0 0 0
0 0 0 0 0 0 0 0 0
0 0 0 0 0 0 0 0 0
0 0 0 0 0 0 0 0 0
0 0 0 0 0 0 0 0 0
0 0 0 0 0 0 0 0 0
0 0 0 0 0 0 0 0 0
0 0 0 0 0 0 0 0 0
0 0 0 0 0 0 0 0 0
0 0 0 0 0 0 0 0 0
0 0 0 0 0 0 0 0 0
0 0 0 0 0 0 0 0 0
1.18216e-06 1.23834e-06 1.17934e-06 1.23481e-06 1.18216e-06 1.23834e-06 1.17934e-06 1.23481e-06 0
1.28035e-06 1.33894e-06 1.27629e-06 1.33415e-06 1.28035e-06 1.33894e-06 1.27629e-06 1.33415e-06 0
1.18858e-06 1.24599e-06 1.18462e-06 1.24133e-06 1.18858e-06 1.24599e-06 1.18462e-06 1.24133e-06 0
1.28894e-06 1.34891e-06 1.28373e-06 1.34288e-06 1.28894e-06 1.34891e-06 1.28373e-06 1.34288e-06 0
1.39377e-06 1.45639e-06 1.38714e-06 1.44893e-06 1.39377e-06 1.45639e-06 1.38714e-06 1.44893e-06 0
1.50321e-06 1.56853e-06 1.49512e-06 1.55957e-06 1.50321e-06 1.56853e-06 1.49512e-06 1.55957e-06 0
1.61732e-06 1.68534e-06 1.6077e-06 1.67479e-06 1.61732e-06 1.68534e-06 1.6077e-06 1.67479e-06 0
1.73608e-06 1.8067e-06 1.7248e-06 1.79439e-06 1.73608e-06 1.8067e-06 1.7248e-06 1.79439e-06 0
1.85929e-06 1.9324e-06 1.84619e-06 1.91816e-06 1.85929e-06 1.9324e-06 1.84619e-06 1.91816e-06 0
1.98673e-06 2.0621e-06 1.9716e-06 2.04569e-06 1.98673e-06 2.0621e-06 1.9716e-06 2.04569e-06 0
2.11797e-06 2.19528e-06 2.10056e-06 2.17643e-06 2.11797e-06 2.19528e-06 2.10056e-06 2.17643e-06 0
1.29964e-06 1.36088e-06 1.2932e-06 1.35372e-06 1.29964e-06 1.36088e-06 1.2932e-06 1.35372e-06 0
1.40671e-06 1.47071e-06 1.399e-06 1.46221e-06 1.40671e-06 1.47071e-06 1.399e-06 1.46221e-06 0
1.51858e-06 1.5854e-06 1.50948e-06 1.57544e-06 1.51858e-06 1.5854e-06 1.50948e-06 1.57544e-06 0
1.63535e-06 1.70502e-06 1.62472e-06 1.69343e-06 1.63535e-06 1.70502e-06 1.62472e-06 1.69343e-06 0
1.75704e-06 1.82952e-06 1.7447e-06 1.8161e-06 1.75704e-06 1.82952e-06 1.7447e-06 1.8161e-06 0
1.88355e-06 1.95873e-06 1.86929e-06 1.94326e-06 1.88355e-06 1.95873e-06 1.86929e-06 1.94326e-06 0
2.01467e-06 2.09237e-06 1.99826e-06 2.0746e-06 2.01467e-06 2.09237e-06 1.99826e-06 2.0746e-06 0
1.31261e-06 1.37506e-06 1.30483e-06 1.36659e-06 1.31261e-06 1.37506e-06 1.30483e-06 1.36659e-06 0
1.42182e-06 1.48715e-06 1.41282e-06 1.47738e-06 1.42182e-06 1.48715e-06 1.41282e-06 1.47738e-06 0
1.53605e-06 1.60436e-06 1.52569e-06 1.59314e-06 1.53605e-06 1.60436e-06 1.52569e-06 1.59314e-06 0
1.65546e-06 1.7268e-06 1.64357e-06 1.71395e-06 1.65546e-06 1.7268e-06 1.64357e-06 1.71395e-06 0
1.78011e-06 1.85448e-06 1.76652e-06 1.83979e-06 1.78011e-06 1.85448e-06 1.76652e-06 1.83979e-06 0
1.90998e-06 1.98729e-06 1.89444e-06 1.97052e-06 1.90998e-06 1.98729e-06 1.89444e-06 1.97052e-06 0
2.04489e-06 2.12501e-06 2.02715e-06 2.10587e-06 2.04489e-06 2.12501e-06 2.02715e-06 2.10587e-06 0
1.32801e-06 1.39162e-06 1.31881e-06 1.38175e-06 1.32801e-06 1.39162e-06 1.31881e-06 1.38175e-06 0
1.43928e-06 1.50591e-06 1.4289e-06 1.49478e-06 1.43928e-06 1.50591e-06 1.4289e-06 1.49478e-06 0
1.55582e-06 1.62559e-06 1.54412e-06 1.61304e-06 1.55582e-06 1.62559e-06 1.54412e-06 1.61304e-06 0
1.67784e-06 1.75084e-06 1.66463e-06 1.73667e-06 1.67784e-06 1.75084e-06 1.66463e-06 1.73667e-06 0
1.80546e-06 1.88173e-06 1.79053e-06 1.8657e-06 1.80546e-06 1.88173e-06 1.79053e-06 1.8657e-06 0
1.93873e-06 2.01824e-06 1.92183e-06 2.00006e-06 1.93873e-06 2.01824e-06 1.92183e-06 2.00006e-06 0
1.34596e-06 1.41068e-06 1.33528e-06 1.39936e-06 1.34596e-06 1.41068e-06 1.33528e-06 1.39936e-06 0
1.4592e-06 1.5271e-06 1.44738e-06 1.51456e-06 1.4592e-06 1.5271e-06 1.44738e-06 1.51456e-06 0
1.57801e-06 1.64923e-06 1.56489e-06 1.63528e-06 1.57801e-06 1.64923e-06 1.56489e-06 1.63528e-06 0
1.70261e-06 1.77728e-06 1.688e-06 1.76171e-06 1.70261e-06 1.77728e-06 1.688e-06 1.76171e-06 0
1.83321e-06 1.91141e-06 1.81688e-06 1.89397e-06 1.83321e-06 1.91141e-06 1.81688e-06 1.89397e-06 0
1.96992e-06 2.05167e-06 1.9516e-06 2.03205e-06 1.96992e-06 2.05167e-06 1.9516e-06 2.03205e-06 0
1.36657e-06 1.43234e-06 1.35434e-06 1.41951e-06 1.36657e-06 1.43234e-06 1.35434e-06 1.41951e-06 0
1.48171e-06 1.55084e-06 1.46839e-06 1.53681e-06 1.48171e-06 1.55084e-06 1.46839e-06 1.53681e-06 0
1.60272e-06 1.67538e-06 1.58813e-06 1.65996e-06 1.60272e-06 1.67538e-06 1.58813e-06 1.65996e-06 0
1.72989e-06 1.80623e-06 1.71382e-06 1.7892e-06 1.72989e-06 1.80623e-06 1.71382e-06 1.7892e-06 0
1.86348e-06 1.94363e-06 1.84568e-06 1.9247e-06 1.86348e-06 1.94363e-06 1.84568e-06 1.9247e-06 0
2.00369e-06 2.0877e-06 1.98387e-06 2.06656e-06 2.00369e-06 2.0877e-06 1.98387e-06 2.06656e-06 0
1.38989e-06 1.45669e-06 1.37609e-06 1.4423e-06 1.38989e-06 1.45669e-06 1.37609e-06 1.4423e-06 0
1.50687e-06 1.57721e-06 1.49201e-06 1.56166e-06 1.50687e-06 1.57721e-06 1.49201e-06 1.56166e-06 0
1.63005e-06 1.70413e-06 1.61394e-06 1.6872e-06 1.63005e-06 1.70413e-06 1.61394e-06 1.6872e-06 0
1.75977e-06 1.83778e-06 1.74219e-06 1.81923e-06 1.75977e-06 1.83778e-06 1.74219e-06 1.81923e-06 0
1.89636e-06 1.97849e-06 1.87705e-06 1.95803e-06 1.89636e-06 1.97849e-06 1.87705e-06 1.95803e-06 0
1.30319e-06 1.36755e-06 1.28867e-06 1.35258e-06 1.30319e-06 1.36755e-06 1.28867e-06 1.35258e-06 0
1.41592e-06 1.48374e-06 1.40056e-06 1.46778e-06 1.41592e-06 1.48374e-06 1.40056e-06 1.46778e-06 0
1.53473e-06 1.60626e-06 1.51831e-06 1.58915e-06 1.53473e-06 1.60626e-06 1.51831e-06 1.58915e-06 0
1.66006e-06 1.73555e-06 1.6424e-06 1.71707e-06 1.66006e-06 1.73555e-06 1.6424e-06 1.71707e-06 0
1.79232e-06 1.87201e-06 1.77319e-06 1.8519e-06 1.79232e-06 1.87201e-06 1.77319e-06 1.8519e-06 0
1.93194e-06 2.01606e-06 1.91106e-06 1.99403e-06 1.93194e-06 2.01606e-06 1.91106e-06 1.99403e-06 0
1.33051e-06 1.39567e-06 1.3144e-06 1.37909e-06 1.33051e-06 1.39567e-06 1.3144e-06 1.37909e-06 0
1.44469e-06 1.5135e-06 1.42774e-06 1.49598e-06 1.44469e-06 1.5135e-06 1.42774e-06 1.49598e-06 0
1.56528e-06 1.638e-06 1.54731e-06 1.61934e-06 1.56528e-06 1.638e-06 1.54731e-06 1.61934e-06 0
1.69275e-06 1.76966e-06 1.67354e-06 1.74963e-06 1.69275e-06 1.76966e-06 1.67354e-06 1.74963e-06 0
1.82758e-06 1.90899e-06 1.80688e-06 1.88729e-06 1.82758e-06 1.90899e-06 1.80688e-06 1.88729e-06 0
1.97028e-06 2.05642e-06 1.94779e-06 2.03277e-06 1.97028e-06 2.05642e-06 1.94779e-06 2.03277e-06 0
1.04983e-06 1.1058e-06 1.03355e-06 1.08934e-06 1.04983e-06 1.1058e-06 1.03355e-06 1.08934e-06 0
1.14787e-06 1.20687e-06 1.13127e-06 1.19003e-06 1.14787e-06 1.20687e-06 1.13127e-06 1.19003e-06 0
1.25127e-06 1.3136e-06 1.23422e-06 1.29622e-06 1.25127e-06 1.3136e-06 1.23422e-06 1.29622e-06 0
1.36053e-06 1.42646e-06 1.34287e-06 1.40836e-06 1.36053e-06 1.42646e-06 1.34287e-06 1.40836e-06 0
1.47611e-06 1.54589e-06 1.45765e-06 1.52686e-06 1.47611e-06 1.54589e-06 1.45765e-06 1.52686e-06 0
1.59847e-06 1.67238e-06 1.57898e-06 1.65221e-06 1.59847e-06 1.67238e-06 1.57898e-06 1.65221e-06 0
1.72809e-06 1.80644e-06 1.70736e-06 1.78487e-06 1.72809e-06 1.80644e-06 1.70736e-06 1.78487e-06 0
1.86552e-06 1.94867e-06 1.84328e-06 1.92542e-06 1.86552e-06 1.94867e-06 1.84328e-06 1.92542e-06 0
1.08001e-06 1.13622e-06 1.06229e-06 1.11836e-06 1.08001e-06 1.13622e-06 1.06229e-06 1.11836e-06 0
1.17853e-06 1.23792e-06 1.16054e-06 1.2197e-06 1.17853e-06 1.23792e-06 1.16054e-06 1.2197e-06 0
1.28267e-06 1.34558e-06 1.26425e-06 1.32682e-06 1.28267e-06 1.34558e-06 1.26425e-06 1.32682e-06 0
1.393e-06 1.4597e-06 1.37396e-06 1.44021e-06 1.393e-06 1.4597e-06 1.37396e-06 1.44021e-06 0
1.51e-06 1.58076e-06 1.49014e-06 1.56033e-06 1.51e-06 1.58076e-06 1.49014e-06 1.56033e-06 0
1.63414e-06 1.70927e-06 1.61324e-06 1.68766e-06 1.63414e-06 1.70927e-06 1.61324e-06 1.68766e-06 0
1.76595e-06 1.84577e-06 1.74378e-06 1.82275e-06 1.76595e-06 1.84577e-06 1.74378e-06 1.82275e-06 0
1.90604e-06 1.99097e-06 1.88233e-06 1.96622e-06 1.90604e-06 1.99097e-06 1.88233e-06 1.96622e-06 0
1.11233e-06 1.16876e-06 1.09343e-06 1.14973e-06 1.11233e-06 1.16876e-06 1.09343e-06 1.14973e-06 0
1.21131e-06 1.27113e-06 1.19214e-06 1.25171e-06 1.21131e-06 1.27113e-06 1.19214e-06 1.25171e-06 0
1.31626e-06 1.37975e-06 1.29661e-06 1.35976e-06 1.31626e-06 1.37975e-06 1.29661e-06 1.35976e-06 0
1.42765e-06 1.49508e-06 1.40739e-06 1.4744e-06 1.42765e-06 1.49508e-06 1.40739e-06 1.4744e-06 0
1.54602e-06 1.61782e-06 1.52497e-06 1.59617e-06 1.54602e-06 1.61782e-06 1.52497e-06 1.59617e-06 0
1.67204e-06 1.74843e-06 1.64989e-06 1.72555e-06 1.67204e-06 1.74843e-06 1.64989e-06 1.72555e-06 0
1.80614e-06 1.88749e-06 1.78266e-06 1.86311e-06 1.80614e-06 1.88749e-06 1.78266e-06 1.86311e-06 0
1.949e-06 2.03577e-06 1.9239e-06 2.0096e-06 1.949e-06 2.03577e-06 1.9239e-06 2.0096e-06 0
0 0 0 0 0 0 0 0 0
0 0 0 0 0 0 0 0 0
0 0 0 0 0 0 0 0 0
0 0 0 0 0 0 0 0 0
0 0 0 0 0 0 0 0 0
0 0 0 0 0 0 0 0 0
0 0 0 0 0 0 0 0 0
0 0 0 0 0 0 0 0 0
0 0 0 0 0 0 0 0 0
0 0 0 0 0 0 0 0 0
0 0 0 0 0 0 0 0 0
0 0 0 0 0 0 0 0 0
0 0 0 0 0 0 0 0 0
0 0 0 0 0 0 0 0 0
0 0 0 0 0 0 0 0 0
0 0 0 0 0 0 0 0 0
0 0 0 0 0 0 0 0 0
0 0 0 0 0 0 0 0 0
0 0 0 0 0 0 0 0 0
0 0 0 0 0 0 0 0 0
0 0 0 0 0 0 0 0 0
0 0 0 0 0 0 0 0 0
0 0 0 0 0 0 0 0 0
0 0 0 0 0 0 0 0 0
0 0 0 0 0 0 0 0 0
0 0 0 0 0 0 0 0 0
0 0 0 0 0 0 0 0 0
0 0 0 0 0 0 0 0 0
0 0 0 0 0 0 0 0 0
0 0 0 0 0 0 0 0 0
0 0 0 0 0 0 0 0 0
0 0 0 0 0 0 0 0 0
0 0 0 0 0 0 0 0 0
0 0 0 0 0 0 0 0 0
0 0 0 0 0 0 0 0 0
0 0 0 0 0 0 0 0 0
0 0 0 0 0 0 0 0 0
0 0 0 0 0 0 0 0 0
0 0 0 0 0 0 0 0 0
0 0 0 0 0 0 0 0 0
0 0 0 0 0 0 0 0 0
0 0 0 0 0 0 0 0 0
0 0 0 0 0 0 0 0 0
0 0 0 0 0 0 0 0 0
0 0 0 0 0 0 0 0 0
0 0 0 0 0 0 0 0 0
0 0 0 0 0 0 0 0 0
0 0 0 0 0 0 0 0 0
0 0 0 0 0 0 0 0 0
0 0 0 0 0 0 0 0 0
0 0 0 0 0 0 0 0 0
0 0 0 0 0 0 0 0 0
0 0 0 0 0 0 0 0 0
0 0 0 0 0 0 0 0 0
0 0 0 0 0 0 0 0 0
0 0 0 0 0 0 0 0 0
0 0 0 0 0 0 0 0 0
0 0 0 0 0 0 0 0 0
0 0 0 0 0 0 0 0 0
0 0 0 0 0 0 0 0 0
0 0 0 0 0 0 0 0 0
0 0 0 0 0 0 0 0 0
0 0 0 0 0 0 0 0 0
0 0 0 0 0 0 0 0 0
0 0 0 0 0 0 0 0 0
0 0 0 0 0 0 0 0 0
0 0 0 0 0 0 0 0 0
0 0 0 0 0 0 0 0 0
0 0 0 0 0 0 0 0 0
0 0 0 0 0 0 0 0 0
0 0 0 0 0 0 0 0 0
0 0 0 0 0 0 0 0 0
0 0 0 0 0 0 0 0 0
0 0 0 0 0 0 0 0 0
0 0 0 0 0 0 0 0 0
0 0 0 0 0 0 0 0 0
0 0 0 0 0 0 0 0 0
0 0 0 0 0 0 0 0 0
0 0 0 0 0 0 0 0 0
0 0 0 0 0 0 0 0 0
0 0 0 0 0 0 0 0 0
0 0 0 0 0 0 0 0 0
0 0 0 0 0 0 0 0 0
0 0 0 0 0 0 0 0 0
0 0 0 0 0 0 0 0 0
0 0 0 0 0 0 0 0 0
0 0 0 0 0 0 0 0 0
0 0 0 0 0 0 0 0 0
0 0 0 0 0 0 0 0 0
0 0 0 0 0 0 0 0 0
0 0 0 0 0 0 0 0 0
0 0 0 0 0 0 0 0 0
0 0 0 0 0 0 0 0 0
0 0 0 0 0 0 0 0 0
0 0 0 0 0 0 0 0 0
0 0 0 0 0 0 0 0 0
0 0 0 0 0 0 0 0 0
0 0 0 0 0 0 0 0 0
0 0 0 0 0 0 0 0 0
0 0 0 0 0 0 0 0 0
0 0 0 0 0 0 0 0 0
0 0 0 0 0 0 0 0 0
0 0 0 0 0 0 0 0 0
0 0 0 0 0 0 0 0 0
0 0 0 0 0 0 0 0 0
0 0 0 0 0 0 0 0 0
0 0 0 0 0 0 0 0 0
0 0 0 0 0 0 0 0 0
0 0 0 0 0 0 0 0 0
0 0 0 0 0 0 0 0 0
0 0 0 0 0 0 0 0 0
0 0 0 0 0 0 0 0 0
0 0 0 0 0 0 0 0 0
0 0 0 0 0 0 0 0 0
0 0 0 0 0 0 0 0 0
0 0 0 0 0 0 0 0 0
0 0 0 0 0 0 0 0 0
0 0 0 0 0 0 0 0 0
0 0 0 0 0 0 0 0 0
0 0 0 0 0 0 0 0 0
0 0 0 0 0 0 0 0 0
0 0 0 0 0 0 0 0 0
0 0 0 0 0 0 0 0 0
0 0 0 0 0 0 0 0 0
0 0 0 0 0 0 0 0 0
0 0 0 0 0 0 0 0 0
0 0 0 0 0 0 0 0 0
0 0 0 0 0 0 0 0 0
0 0 0 0 0 0 0 0 0
0 0 0 0 0 0 0 0 0
0 0 0 0 0 0 0 0 0
0 0 0 0 0 0 0 0 0
0 0 0 0 0 0 0 0 0
0 0 0 0 0 0 0 0 0
0 0 0 0 0 0 0 0 0
0 0 0 0 0 0 0 0 0
0 0 0 0 0 0 0 0 0
0 0 0 0 0 0 0 0 0
0 0 0 0 0 0 0 0 0
0 0 0 0 0 0 0 0 0
0 0 0 0 0 0 0 0 0
0 0 0 0 0 0 0 0 0
0 0 0 0 0 0 0 0 0
0 0 0 0 0 0 0 0 0
0 0 0 0 0 0 0 0 0
0 0 0 0 0 0 0 0 0
0 0 0 0 0 0 0 0 0
0 0 0 0 0 0 0 0 0
0 0 0 0 0 0 0 0 0
0 0 0 0 0 0 0 0 0
0 0 0 0 0 0 0 0 0
0 0 0 0 0 0 0 0 0
0 0 0 0 0 0 0 0 0
0 0 0 0 0 0 0 0 0
0 0 0 0 0 0 0 0 0
0 0 0 0 0 0 0 0 0
0 0 0 0 0 0 0 0 0
0 0 0 0 0 0 0 0 0
0 0 0 0 0 0 0 0 0
0 0 0 0 0 0 0 0 0
0 0 0 0 0 0 0 0 0
0 0 0 0 0 0 0 0 0
0 0 0 0 0 0 0 0 0
0 0 0 0 0 0 0 0 0
0 0 0 0 0 0 0 0 0
0 0 0 0 0 0 0 0 0
0 0 0 0 0 0 0 0 0
0 0 0 0 0 0 0 0 0
0 0 0 0 0 0 0 0 0
0 0 0 0 0 0 0 0 0
0 0 0 0 0 0 0 0 0
0 0 0 0 0 0 0 0 0
0 0 0 0 0 0 0 0 0
0 0 0 0 0 0 0 0 0
0 0 0 0 0 0 0 0 0
0 0 0 0 0 0 0 0 0
0 0 0 0 0 0 0 0 0
0 0 0 0 0 0 0 0 0
0 0 0 0 0 0 0 0 0
0 0 0 0 0 0 0 0 0
0 0 0 0 0 0 0 0 0
0 0 0 0 0 0 0 0 0
0 0 0 0 0 0 0 0 0
0 0 0 0 0 0 0 0 0
0 0 0 0 0 0 0 0 0
0 0 0 0 0 0 0 0 0
0 0 0 0 0 0 0 0 0
0 0 0 0 0 0 0 0 0
0 0 0 0 0 0 0 0 0
0 0 0 0 0 0 0 0 0
0 0 0 0 0 0 0 0 0
0 0 0 0 0 0 0 0 0
0 0 0 0 0 0 0 0 0
0 0 0 0 0 0 0 0 0
0 0 0 0 0 0 0 0 0
0 0 0 0 0 0 0 0 0
0 0 0 0 0 0 0 0 0
0 0 0 0 0 0 0 0 0
0 0 0 0 0 0 0 0 0
0 0 0 0 0 0 0 0 0
0 0 0 0 0 0 0 0 0
0 0 0 0 0 0 0 0 0
0 0 0 0 0 0 0 0 0
0 0 0 0 0 0 0 0 0
0 0 0 0 0 0 0 0 0
0 0 0 0 0 0 0 0 0
0 0 0 0 0 0 0 0 0
0 0 0 0 0 0 0 0 0
0 0 0 0 0 0 0 0 0
0 0 0 0 0 0 0 0 0
0 0 0 0 0 0 0 0 0
0 0 0 0 0 0 0 0 0
0 0 0 0 0 0 0 0 0
0 0 0 0 0 0 0 0 0
0 0 0 0 0 0 0 0 0
0 0 0 0 0 0 0 0 0
0 0 0 0 0 0 0 0 0
0 0 0 0 0 0 0 0 0
0 0 0 0 0 0 0 0 0
0 0 0 0 0 0 0 0 0
0 0 0 0 0 0 0 0 0
0 0 0 0 0 0 0 0 0
0 0 0 0 0 0 0 0 0
0 0 0 0 0 0 0 0 0
0 0 0 0 0 0 0 0 0
0 0 0 0 0 0 0 0 0
0 0 0 0 0 0 0 0 0
0 0 0 0 0 0 0 0 0
0 0 0 0 0 0 0 0 0
0 0 0 0 0 0 0 0 0
0 0 0 0 0 0 0 0 0
0 0 0 0 0 0 0 0 0
0 0 0 0 0 0 0 0 0
0 0 0 0 0 0 0 0 0
0 0 0 0 0 0 0 0 0
0 0 0 0 0 0 0 0 0
0 0 0 0 0 0 0 0 0
0 0 0 0 0 0 0 0 0
0 0 0 0 0 0 0 0 0
0 0 0 0 0 0 0 0 0
0 0 0 0 0 0 0 0 0
0 0 0 0 0 0 0 0 0
0 0 0 0 0 0 0 0 0
0 0 0 0 0 0 0 0 0
0 0 0 0 0 0 0 0 0
0 0 0 0 0 0 0 0 0
0 0 0 0 0 0 0 0 0
0 0 0 0 0 0 0 0 0
0 0 0 0 0 0 0 0 0
0 0 0 0 0 0 0 0 0
0 0 0 0 0 0 0 0 0
0 0 0 0 0 0 0 0 0
0 0 0 0 0 0 0 0 0
0 0 0 0 0 0 0 0 0
0 0 0 0 0 0 0 0 0
0 0 0 0 0 0 0 0 0
0 0 0 0 0 0 0 0 0
0 0 0 0 0 0 0 0 0
0 0 0 0 0 0 0 0 0
0 0 0 0 0 0 0 0 0
0 0 0 0 0 0 0 0 0
0 0 0 0 0 0 0 0 0
0 0 0 0 0 0 0 0 0
0 0 0 0 0 0 0 0 0
0 0 0 0 0 0 0 0 0
0 0 0 0 0 0 0 0 0
0 0 0 0 0 0 0 0 0
0 0 0 0 0 0 0 0 0
0 0 0 0 0 0 0 0 0
0 0 0 0 0 0 0 0 0
0 0 0 0 0 0 0 0 0
0 0 0 0 0 0 0 0 0
0 0 0 0 0 0 0 0 0
0 0 0 0 0 0 0 0 0
0 0 0 0 0 0 0 0 0
0 0 0 0 0 0 0 0 0
0 0 0 0 0 0 0 0 0
0 0 0 0 0 0 0 0 0
0 0 0 0 0 0 0 0 0
0 0 0 0 0 0 0 0 0
0 0 0 0 0 0 0 0 0
0 0 0 0 0 0 0 0 0
0 0 0 0 0 0 0 0 0
0 0 0 0 0 0 0 0 0
0 0 0 0 0 0 0 0 0
0 0 0 0 0 0 0 0 0
0 0 0 0 0 0 0 0 0
0 0 0 0 0 0 0 0 0
0 0 0 0 0 0 0 0 0
0 0 0 0 0 0 0 0 0
0 0 0 0 0 0 0 0 0
0 0 0 0 0 0 0 0 0
0 0 0 0 0 0 0 0 0
0 0 0 0 0 0 0 0 0
0 0 0 0 0 0 0 0 0
0 0 0 0 0 0 0 0 0
0 0 0 0 0 0 0 0 0
0 0 0 0 0 0 0 0 0
0 0 0 0 0 0 0 0 0
0 0 0 0 0 0 0 0 0
0 0 0 0 0 0 0 0 0
0 0 0 0 0 0 0 0 0
0 0 0 0 0 0 0 0 0
0 0 0 0 0 0 0 0 0
0 0 0 0 0 0 0 0 0
0 0 0 0 0 0 0 0 0
0 0 0 0 0 0 0 0 0
0 0 0 0 0 0 0 0 0
0 0 0 0 0 0 0 0 0
0 0 0 0 0 0 0 0 0
0 0 0 0 0 0 0 0 0
0 0 0 0 0 0 0 0 0
0 0 0 0 0 0 0 0 0
0 0 0 0 0 0 0 0 0
0 0 0 0 0 0 0 0 0
0 0 0 0 0 0 0 0 0
0 0 0 0 0 0 0 0 0
0 0 0 0 0 0 0 0 0
0 0 0 0 0 0 0 0 0
0 0 0 0 0 0 0 0 0
0 0 0 0 0 0 0 0 0
0 0 0 0 0 0 0 0 0
0 0 0 0 0 0 0 0 0
0 0 0 0 0 0 0 0 0
0 0 0 0 0 0 0 0 0
0 0 0 0 0 0 0 0 0
0 0 0 0 0 0 0 0 0
0 0 0 0 0 0 0 0 0
0 0 0 0 0 0 0 0 0
0 0 0 0 0 0 0 0 0
0 0 0 0 0 0 0 0 0
0 0 0 0 0 0 0 0 0
0 0 0 0 0 0 0 0 0
0 0 0 0 0 0 0 0 0
0 0 0 0 0 0 0 0 0
0 0 0 0 0 0 0 0 0
0 0 0 0 0 0 0 0 0
0 0 0 0 0 0 0 0 0
0 0 0 0 0 0 0 0 0
0 0 0 0 0 0 0 0 0
0 0 0 0 0 0 0 0 0
0 0 0 0 0 0 0 0 0
0 0 0 0 0 0 0 0 0
0 0 0 0 0 0 0 0 0
0 0 0 0 0 0 0 0 0
0 0 0 0 0 0 0 0 0
0 0 0 0 0 0 0 0 0
0 0 0 0 0 0 0 0 0
0 0 0 0 0 0 0 0 0
0 0 0 0 0 0 0 0 0
0 0 0 0 0 0 0 0 0
0 0 0 0 0 0 0 0 0
0 0 0 0 0 0 0 0 0
0 0 0 0 0 0 0 0 0
0 0 0 0 0 0 0 0 0
0 0 0 0 0 0 0 0 0
0 0 0 0 0 0 0 0 0
0 0 0 0 0 0 0 0 0
0 0 0 0 0 0 0 0 0
0 0 0 0 0 0 0 0 0
0 0 0 0 0 0 0 0 0
0 0 0 0 0 0 0 0 0
0 0 0 0 0 0 0 0 0
0 0 0 0 0 0 0 0 0
0 0 0 0 0 0 0 0 0
0 0 0 0 0 0 0 0 0
0 0 0 0 0 0 0 0 0
0 0 0 0 0 0 0 0 0
0 0 0 0 0 0 0 0 0
0 0 0 0 0 0 0 0 0
0 0 0 0 0 0 0 0 0
0 0 0 0 0 0 0 0 0
0 0 0 0 0 0 0 0 0
0 0 0 0 0 0 0 0 0
0 0 0 0 0 0 0 0 0
0 0 0 0 0 0 0 0 0
0 0 0 0 0 0 0 0 0
0 0 0 0 0 0 0 0 0
0 0 0 0 0 0 0 0 0
0 0 0 0 0 0 0 0 0
0 0 0 0 0 0 0 0 0
0 0 0 0 0 0 0 0 0
0 0 0 0 0 0 0 0 0
0 0 0 0 0 0 0 0 0
0 0 0 0 0 0 0 0 0
0 0 0 0 0 0 0 0 0
0 0 0 0 0 0 0 0 0
0 0 0 0 0 0 0 0 0
0 0 0 0 0 0 0 0 0
0 0 0 0 0 0 0 0 0
0 0 0 0 0 0 0 0 0
0 0 0 0 0 0 0 0 0
0 0 0 0 0 0 0 0 0
0 0 0 0 0 0 0 0 0
0 0 0 0 0 0 0 0 0
0 0 0 0 0 0 0 0 0
0 0 0 0 0 0 0 0 0
0 0 0 0 0 0 0 0 0
0 0 0 0 0 0 0 0 0
0 0 0 0 0 0 0 0 0
0 0 0 0 0 0 0 0 0
0 0 0 0 0 0 0 0 0
0 0 0 0 0 0 0 0 0
0 0 0 0 0 0 0 0 0
0 0 0 0 0 0 0 0 0
0 0 0 0 0 0 0 0 0
0 0 0 0 0 0 0 0 0
0 0 0 0 0 0 0 0 0
0 0 0 0 0 0 0 0 0
0 0 0 0 0 0 0 0 0
0 0 0 0 0 0 0 0 0
0 0 0 0 0 0 0 0 0
0 0 0 0 0 0 0 0 0
0 0 0 0 0 0 0 0 0
0 0 0 0 0 0 0 0 0
0 0 0 0 0 0 0 0 0
0 0 0 0 0 0 0 0 0
0 0 0 0 0 0 0 0 0
0 0 0 0 0 0 0 0 0
0 0 0 0 0 0 0 0 0
0 0 0 0 0 0 0 0 0
0 0 0 0 0 0 0 0 0
0 0 0 0 0 0 0 0 0
0 0 0 0 0 0 0 0 0
0 0 0 0 0 0 0 0 0
0 0 0 0 0 0 0 0 0
0 0 0 0 0 0 0 0 0
0 0 0 0 0 0 0 0 0
0 0 0 0 0 0 0 0 0
0 0 0 0 0 0 0 0 0
0 0 0 0 0 0 0 0 0
0 0 0 0 0 0 0 0 0
0 0 0 0 0 0 0 0 0
0 0 0 0 0 0 0 0 0
0 0 0 0 0 0 0 0 0
0 0 0 0 0 0 0 0 0
0 0 0 0 0 0 0 0 0
0 0 0 0 0 0 0 0 0
0 0 0 0 0 0 0 0 0
0 0 0 0 0 0 0 0 0
0 0 0 0 0 0 0 0 0
0 0 0 0 0 0 0 0 0
0 0 0 0 0 0 0 0 0
0 0 0 0 0 0 0 0 0
0 0 0 0 0 0 0 0 0
0 0 0 0 0 0 0 0 0
0 0 0 0 0 0 0 0 0
0 0 0 0 0 0 0 0 0
0 0 0 0 0 0 0 0 0
0 0 0 0 0 0 0 0 0
0 0 0 0 0 0 0 0 0
0 0 0 0 0 0 0 0 0
0 0 0 0 0 0 0 0 0
0 0 0 0 0 0 0 0 0
0 0 0 0 0 0 0 0 0
0 0 0 0 0 0 0 0 0
0 0 0 0 0 0 0 0 0
0 0 0 0 0 0 0 0 0
0 0 0 0 0 0 0 0 0
0 0 0 0 0 0 0 0 0
0 0 0 0 0 0 0 0 0
0 0 0 0 0 0 0 0 0
0 0 0 0 0 0 0 0 0
0 0 0 0 0 0 0 0 0
0 0 0 0 0 0 0 0 0
0 0 0 0 0 0 0 0 0
0 0 0 0 0 0 0 0 0
0 0 0 0 0 0 0 0 0
0 0 0 0 0 0 0 0 0
0 0 0 0 0 0 0 0 0
0 0 0 0 0 0 0 0 0
0 0 0 0 0 0 0 0 0
0 0 0 0 0 0 0 0 0
0 0 0 0 0 0 0 0 0
0 0 0 0 0 0 0 0 0
0 0 0 0 0 0 0 0 0
0 0 0 0 0 0 0 0 0
0 0 0 0 0 0 0 0 0
0 0 0 0 0 0 0 0 0
0 0 0 0 0 0 0 0 0
0 0 0 0 0 0 0 0 0
0 0 0 0 0 0 0 0 0
0 0 0 0 0 0 0 0 0
0 0 0 0 0 0 0 0 0
0 0 0 0 0 0 0 0 0
0 0 0 0 0 0 0 0 0
0 0 0 0 0 0 0 0 0
0 0 0 0 0 0 0 0 0
0 0 0 0 0 0 0 0 0
0 0 0 0 0 0 0 0 0
0 0 0 0 0 0 0 0 0
0 0 0 0 0 0 0 0 0
0 0 0 0 0 0 0 0 0
0 0 0 0 0 0 0 0 0
0 0 0 0 0 0 0 0 0
0 0 0 0 0 0 0 0 0
0 0 0 0 0 0 0 0 0
0 0 0 0 0 0 0 0 0
0 0 0 0 0 0 0 0 0
0 0 0 0 0 0 0 0 0
0 0 0 0 0 0 0 0 0
0 0 0 0 0 0 0 0 0
0 0 0 0 0 0 0 0 0
0 0 0 0 0 0 0 0 0
0 0 0 0 0 0 0 0 0
0 0 0 0 0 0 0 0 0
0 0 0 0 0 0 0 0 0
0 0 0 0 0 0 0 0 0
0 0 0 0 0 0 0 0 0
0 0 0 0 0 0 0 0 0
0 0 0 0 0 0 0 0 0
0 0 0 0 0 0 0 0 0
0 0 0 0 0 0 0 0 0
0 0 0 0 0 0 0 0 0
0 0 0 0 0 0 0 0 0
0 0 0 0 0 0 0 0 0
0 0 0 0 0 0 0 0 0
0 0 0 0 0 0 0 0 0
0 0 0 0 0 0 0 0 0
0 0 0 0 0 0 0 0 0
0 0 0 0 0 0 0 0 0
0 0 0 0 0 0 0 0 0
0 0 0 0 0 0 0 0 0
0 0 0 0 0 0 0 0 0
0 0 0 0 0 0 0 0 0
0 0 0 0 0 0 0 0 0
0 0 0 0 0 0 0 0 0
0 0 0 0 0 0 0 0 0
0 0 0 0 0 0 0 0 0
0 0 0 0 0 0 0 0 0
0 0 0 0 0 0 0 0 0
0 0 0 0 0 0 0 0 0
0 0 0 0 0 0 0 0 0
0 0 0 0 0 0 0 0 0
0 0 0 0 0 0 0 0 0
0 0 0 0 0 0 0 0 0
0 0 0 0 0 0 0 0 0
0 0 0 0 0 0 0 0 0
0 0 0 0 0 0 0 0 0
0 0 0 0 0 0 0 0 0
0 0 0 0 0 0 0 0 0
0 0 0 0 0 0 0 0 0
0 0 0 0 0 0 0 0 0
0 0 0 0 0 0 0 0 0
0 0 0 0 0 0 0 0 0
0 0 0 0 0 0 0 0 0
0 0 0 0 0 0 0 0 0
0 0 0 0 0 0 0 0 0
0 0 0 0 0 0 0 0 0
0 0 0 0 0 0 0 0 0
0 0 0 0 0 0 0 0 0
0 0 0 0 0 0 0 0 0
0 0 0 0 0 0 0 0 0
0 0 0 0 0 0 0 0 0
0 0 0 0 0 0 0 0 0
0 0 0 0 0 0 0 0 0
0 0 0 0 0 0 0 0 0
0 0 0 0 0 0 0 0 0
0 0 0 0 0 0 0 0 0
0 0 0 0 0 0 0 0 0
0 0 0 0 0 0 0 0 0
0 0 0 0 0 0 0 0 0
0 0 0 0 0 0 0 0 0
0 0 0 0 0 0 0 0 0
0 0 0 0 0 0 0 0 0
0 0 0 0 0 0 0 0 0
0 0 0 0 0 0 0 0 0
0 0 0 0 0 0 0 0 0
0 0 0 0 0 0 0 0 0
0 0 0 0 0 0 0 0 0
0 0 0 0 0 0 0 0 0
0 0 0 0 0 0 0 0 0
0 0 0 0 0 0 0 0 0
0 0 0 0 0 0 0 0 0
0 0 0 0 0 0 0 0 0
0 0 0 0 0 0 0 0 0
0 0 0 0 0 0 0 0 0
0 0 0 0 0 0 0 0 0
0 0 0 0 0 0 0 0 0
0 0 0 0 0 0 0 0 0
0 0 0 0 0 0 0 0 0
0 0 0 0 0 0 0 0 0
0 0 0 0 0 0 0 0 0
0 0 0 0 0 0 0 0 0
0 0 0 0 0 0 0 0 0
0 0 0 0 0 0 0 0 0
0 0 0 0 0 0 0 0 0
0 0 0 0 0 0 0 0 0
6.57772e-07 6.88231e-07 6.55604e-07 6.85664e-07 6.57772e-07 6.88231e-07 6.55604e-07 6.85664e-07 0
7.11e-07 7.42753e-07 7.08136e-07 7.39476e-07 7.11e-07 7.42753e-07 7.08136e-07 7.39476e-07 0
6.62248e-07 6.93421e-07 6.59548e-07 6.90304e-07 6.62248e-07 6.93421e-07 6.59548e-07 6.90304e-07 0
7.16734e-07 7.4926e-07 7.13298e-07 7.4537e-07 7.16734e-07 7.4926e-07 7.13298e-07 7.4537e-07 0
7.73578e-07 8.07499e-07 7.69358e-07 8.0283e-07 7.73578e-07 8.07499e-07 7.69358e-07 8.0283e-07 0
8.32858e-07 8.68231e-07 8.27853e-07 8.62756e-07 8.32858e-07 8.68231e-07 8.27853e-07 8.62756e-07 0
8.94678e-07 9.31572e-07 8.88857e-07 9.25277e-07 8.94678e-07 9.31572e-07 8.88857e-07 9.25277e-07 0
9.59116e-07 9.97491e-07 9.52456e-07 9.90306e-07 9.59116e-07 9.97491e-07 9.52456e-07 9.90306e-07 0
1.02611e-06 1.06594e-06 1.01853e-06 1.05781e-06 1.02611e-06 1.06594e-06 1.01853e-06 1.05781e-06 0
1.09564e-06 1.13698e-06 1.08709e-06 1.12782e-06 1.09564e-06 1.13698e-06 1.08709e-06 1.12782e-06 0
1.1678e-06 1.21068e-06 1.15817e-06 1.20039e-06 1.1678e-06 1.21068e-06 1.15817e-06 1.20039e-06 0
7.23486e-07 7.5676e-07 7.1946e-07 7.52307e-07 7.23486e-07 7.5676e-07 7.1946e-07 7.52307e-07 0
7.81641e-07 8.16351e-07 7.76864e-07 8.11117e-07 7.81641e-07 8.16351e-07 7.76864e-07 8.11117e-07 0
8.42303e-07 8.78507e-07 8.36725e-07 8.72447e-07 8.42303e-07 8.78507e-07 8.36725e-07 8.72447e-07 0
9.05574e-07 9.43335e-07 8.99152e-07 9.36406e-07 9.05574e-07 9.43335e-07 8.99152e-07 9.36406e-07 0
9.71536e-07 1.01085e-06 9.64223e-07 1.00299e-06 9.71536e-07 1.01085e-06 9.64223e-07 1.00299e-06 0
1.04018e-06 1.08103e-06 1.0319e-06 1.07215e-06 1.04018e-06 1.08103e-06 1.0319e-06 1.07215e-06 0
1.11151e-06 1.15397e-06 1.10218e-06 1.14398e-06 1.11151e-06 1.15397e-06 1.10218e-06 1.14398e-06 0
7.31308e-07 7.65324e-07 7.26657e-07 7.60244e-07 7.31308e-07 7.65324e-07 7.26657e-07 7.60244e-07 0
7.90766e-07 8.26274e-07 7.85361e-07 8.20408e-07 7.90766e-07 8.26274e-07 7.85361e-07 8.20408e-07 0
8.52828e-07 8.89884e-07 8.46613e-07 8.83175e-07 8.52828e-07 8.89884e-07 8.46613e-07 8.83175e-07 0
9.17591e-07 9.56251e-07 9.1051e-07 9.48647e-07 9.17591e-07 9.56251e-07 9.1051e-07 9.48647e-07 0
9.85141e-07 1.02543e-06 9.77136e-07 1.01685e-06 9.85141e-07 1.02543e-06 9.77136e-07 1.01685e-06 0
1.05552e-06 1.09745e-06 1.0465e-06 1.08781e-06 1.05552e-06 1.09745e-06 1.0465e-06 1.08781e-06 0
1.12875e-06 1.17237e-06 1.11863e-06 1.16157e-06 1.12875e-06 1.17237e-06 1.11863e-06 1.16157e-06 0
7.40248e-07 7.75007e-07 7.34945e-07 7.69275e-07 7.40248e-07 7.75007e-07 7.34945e-07 7.69275e-07 0
8.01017e-07 8.37331e-07 7.94957e-07 8.30804e-07 8.01017e-07 8.37331e-07 7.94957e-07 8.30804e-07 0
8.64498e-07 9.02425e-07 8.57616e-07 8.95037e-07 8.64498e-07 9.02425e-07 8.57616e-07 8.95037e-07 0
9.30794e-07 9.70395e-07 9.23021e-07 9.62073e-07 9.30794e-07 9.70395e-07 9.23021e-07 9.62073e-07 0
1e-06 1.04132e-06 9.91262e-07 1.03198e-06 1e-06 1.04132e-06 9.91262e-07 1.03198e-06 0
1.07219e-06 1.11526e-06 1.0624e-06 1.1048e-06 1.07219e-06 1.11526e-06 1.0624e-06 1.1048e-06 0
7.50346e-07 7.85855e-07 7.4437e-07 7.79445e-07 7.50346e-07 7.85855e-07 7.4437e-07 7.79445e-07 0
8.12437e-07 8.49569e-07 8.05696e-07 8.42354e-07 8.12437e-07 8.49569e-07 8.05696e-07 8.42354e-07 0
8.77363e-07 9.16185e-07 8.69785e-07 9.08087e-07 8.77363e-07 9.16185e-07 8.69785e-07 9.08087e-07 0
9.4524e-07 9.85821e-07 9.36743e-07 9.76752e-07 9.4524e-07 9.85821e-07 9.36743e-07 9.76752e-07 0
1.01618e-06 1.05857e-06 1.00667e-06 1.04843e-06 1.01618e-06 1.05857e-06 1.00667e-06 1.04843e-06 0
1.09027e-06 1.13453e-06 1.07966e-06 1.12322e-06 1.09027e-06 1.13453e-06 1.07966e-06 1.12322e-06 0
7.61644e-07 7.97905e-07 7.54971e-07 7.90797e-07 7.61644e-07 7.97905e-07 7.54971e-07 7.90797e-07 0
8.25067e-07 8.63031e-07 8.17623e-07 8.55104e-07 8.25067e-07 8.63031e-07 8.17623e-07 8.55104e-07 0
8.91468e-07 9.31214e-07 8.83168e-07 9.22377e-07 8.91468e-07 9.31214e-07 8.83168e-07 9.22377e-07 0
9.6098e-07 1.00258e-06 9.51729e-07 9.92737e-07 9.6098e-07 1.00258e-06 9.51729e-07 9.92737e-07 0
1.03374e-06 1.07727e-06 1.02343e-06 1.06629e-06 1.03374e-06 1.07727e-06 1.02343e-06 1.06629e-06 0
1.10985e-06 1.15534e-06 1.09835e-06 1.14313e-06 1.10985e-06 1.15534e-06 1.09835e-06 1.14313e-06 0
7.74182e-07 8.11199e-07 7.66788e-07 8.03368e-07 7.74182e-07 8.11199e-07 7.66788e-07 8.03368e-07 0
8.38949e-07 8.77764e-07 8.30777e-07 8.69098e-07 8.38949e-07 8.77764e-07 8.30777e-07 8.69098e-07 0
9.06861e-07 9.47563e-07 8.97811e-07 9.37957e-07 9.06861e-07 9.47563e-07 8.97811e-07 9.37957e-07 0
9.78071e-07 1.02075e-06 9.68033e-07 1.01008e-06 9.78071e-07 1.02075e-06 9.68033e-07 1.01008e-06 0
1.05273e-06 1.09747e-06 1.04158e-06 1.08562e-06 1.05273e-06 1.09747e-06 1.04158e-06 1.08562e-06 0
7.24961e-07 7.60976e-07 7.17528e-07 7.53156e-07 7.24961e-07 7.60976e-07 7.17528e-07 7.53156e-07 0
7.87985e-07 8.25776e-07 7.79858e-07 8.17199e-07 7.87985e-07 8.25776e-07 7.79858e-07 8.17199e-07 0
8.54129e-07 8.93819e-07 8.45202e-07 8.84383e-07 8.54129e-07 8.93819e-07 8.45202e-07 8.84383e-07 0
9.23599e-07 9.65295e-07 9.13766e-07 9.54883e-07 9.23599e-07 9.65295e-07 9.13766e-07 9.54883e-07 0
9.96577e-07 1.04038e-06 9.85714e-07 1.02886e-06 9.96577e-07 1.04038e-06 9.85714e-07 1.02886e-06 0
1.07324e-06 1.11925e-06 1.0612e-06 1.10647e-06 1.07324e-06 1.11925e-06 1.0612e-06 1.10647e-06 0
7.3888e-07 7.75578e-07 7.30679e-07 7.66981e-07 7.3888e-07 7.75578e-07 7.30679e-07 7.66981e-07 0
8.03124e-07 8.41702e-07 7.94215e-07 8.32338e-07 8.03124e-07 8.41702e-07 7.94215e-07 8.32338e-07 0
8.70673e-07 9.11265e-07 8.60949e-07 9.01017e-07 8.70673e-07 9.11265e-07 8.60949e-07 9.01017e-07 0
9.41754e-07 9.84486e-07 9.31094e-07 9.73222e-07 9.41754e-07 9.84486e-07 9.31094e-07 9.73222e-07 0
1.01659e-06 1.0616e-06 1.00485e-06 1.04914e-06 1.01659e-06 1.0616e-06 1.00485e-06 1.04914e-06 0
1.09539e-06 1.14273e-06 1.08239e-06 1.12895e-06 1.09539e-06 1.14273e-06 1.08239e-06 1.12895e-06 0
5.76811e-07 6.08957e-07 5.69292e-07 6.01209e-07 5.76811e-07 6.08957e-07 5.69292e-07 6.01209e-07 0
6.33061e-07 6.66779e-07 6.25127e-07 6.58565e-07 6.33061e-07 6.66779e-07 6.25127e-07 6.58565e-07 0
6.92098e-07 7.2757e-07 6.83659e-07 7.18795e-07 6.92098e-07 7.2757e-07 6.83659e-07 7.18795e-07 0
7.54226e-07 7.916e-07 7.45187e-07 7.82172e-07 7.54226e-07 7.916e-07 7.45187e-07 7.82172e-07 0
8.19689e-07 8.59078e-07 8.09947e-07 8.48864e-07 8.19689e-07 8.59078e-07 8.09947e-07 8.48864e-07 0
8.88687e-07 9.30218e-07 8.78101e-07 9.19085e-07 8.88687e-07 9.30218e-07 8.78101e-07 9.19085e-07 0
9.61445e-07 1.00526e-06 9.49882e-07 9.93065e-07 9.61445e-07 1.00526e-06 9.49882e-07 9.93065e-07 0
1.03822e-06 1.08449e-06 1.02553e-06 1.07106e-06 1.03822e-06 1.08449e-06 1.02553e-06 1.07106e-06 0
5.91013e-07 6.23542e-07 5.82633e-07 6.14942e-07 5.91013e-07 6.23542e-07 5.82633e-07 6.14942e-07 0
6.47963e-07 6.82165e-07 6.3918e-07 6.73102e-07 6.47963e-07 6.82165e-07 6.3918e-07 6.73102e-07 0
7.07877e-07 7.43938e-07 6.98586e-07 7.34305e-07 7.07877e-07 7.43938e-07 6.98586e-07 7.34305e-07 0
7.7107e-07 8.09154e-07 7.6116e-07 7.98828e-07 7.7107e-07 8.09154e-07 7.6116e-07 7.98828e-07 0
8.37815e-07 8.78055e-07 8.27154e-07 8.66897e-07 8.37815e-07 8.78055e-07 8.27154e-07 8.66897e-07 0
9.08337e-07 9.50853e-07 8.96785e-07 9.38726e-07 9.08337e-07 9.50853e-07 8.96785e-07 9.38726e-07 0
9.82857e-07 1.02781e-06 9.70276e-07 1.01456e-06 9.82857e-07 1.02781e-06 9.70276e-07 1.01456e-06 0
1.06167e-06 1.10928e-06 1.0479e-06 1.09473e-06 1.06167e-06 1.10928e-06 1.0479e-06 1.09473e-06 0
6.06728e-07 6.39649e-07 5.97472e-07 6.30165e-07 6.06728e-07 6.39649e-07 5.97472e-07 6.30165e-07 0
6.6441e-07 6.99149e-07 6.54726e-07 6.89146e-07 6.6441e-07 6.99149e-07 6.54726e-07 6.89146e-07 0
7.2529e-07 7.61984e-07 7.15033e-07 7.51355e-07 7.2529e-07 7.61984e-07 7.15033e-07 7.51355e-07 0
7.89609e-07 8.28408e-07 7.78693e-07 8.1708e-07 7.89609e-07 8.28408e-07 7.78693e-07 8.1708e-07 0
8.57657e-07 8.9879e-07 8.45987e-07 8.866e-07 8.57657e-07 8.9879e-07 8.45987e-07 8.866e-07 0
9.29783e-07 9.7335e-07 9.17176e-07 9.60128e-07 9.29783e-07 9.7335e-07 9.17176e-07 9.60128e-07 0
1.00619e-06 1.05237e-06 9.92477e-07 1.03794e-06 1.00619e-06 1.05237e-06 9.92477e-07 1.03794e-06 0
1.08721e-06 1.13626e-06 1.0722e-06 1.1204e-06 1.08721e-06 1.13626e-06 1.0722e-06 1.1204e-06 0
0 0 0 0 0 0 0 0 0
0 0 0 0 0 0 0 0 0
0 0 0 0 0 0 0 0 0
0 0 0 0 0 0 0 0 0
0 0 0 0 0 0 0 0 0
0 0 0 0 0 0 0 0 0
0 0 0 0 0 0 0 0 0
0 0 0 0 0 0 0 0 0
0 0 0 0 0 0 0 0 0
0 0 0 0 0 0 0 0 0
0 0 0 0 0 0 0 0 0
0 0 0 0 0 0 0 0 0
0 0 0 0 0 0 0 0 0
0 0 0 0 0 0 0 0 0
0 0 0 0 0 0 0 0 0
0 0 0 0 0 0 0 0 0
0 0 0 0 0 0 0 0 0
0 0 0 0 0 0 0 0 0
0 0 0 0 0 0 0 0 0
0 0 0 0 0 0 0 0 0
0 0 0 0 0 0 0 0 0
0 0 0 0 0 0 0 0 0
0 0 0 0 0 0 0 0 0
0 0 0 0 0 0 0 0 0
0 0 0 0 0 0 0 0 0
0 0 0 0 0 0 0 0 0
0 0 0 0 0 0 0 0 0
0 0 0 0 0 0 0 0 0
0 0 0 0 0 0 0 0 0
0 0 0 0 0 0 0 0 0
0 0 0 0 0 0 0 0 0
0 0 0 0 0 0 0 0 0
0 0 0 0 0 0 0 0 0
0 0 0 0 0 0 0 0 0
0 0 0 0 0 0 0 0 0
0 0 0 0 0 0 0 0 0
0 0 0 0 0 0 0 0 0
0 0 0 0 0 0 0 0 0
0 0 0 0 0 0 0 0 0
0 0 0 0 0 0 0 0 0
0 0 0 0 0 0 0 0 0
0 0 0 0 0 0 0 0 0
0 0 0 0 0 0 0 0 0
0 0 0 0 0 0 0 0 0
0 0 0 0 0 0 0 0 0
0 0 0 0 0 0 0 0 0
0 0 0 0 0 0 0 0 0
0 0 0 0 0 0 0 0 0
0 0 0 0 0 0 0 0 0
0 0 0 0 0 0 0 0 0
0 0 0 0 0 0 0 0 0
0 0 0 0 0 0 0 0 0
0 0 0 0 0 0 0 0 0
0 0 0 0 0 0 0 0 0
0 0 0 0 0 0 0 0 0
0 0 0 0 0 0 0 0 0
0 0 0 0 0 0 0 0 0
0 0 0 0 0 0 0 0 0
0 0 0 0 0 0 0 0 0
0 0 0 0 0 0 0 0 0
0 0 0 0 0 0 0 0 0
0 0 0 0 0 0 0 0 0
0 0 0 0 0 0 0 0 0
0 0 0 0 0 0 0 0 0
0 0 0 0 0 0 0 0 0
0 0 0 0 0 0 0 0 0
0 0 0 0 0 0 0 0 0
0 0 0 0 0 0 0 0 0
0 0 0 0 0 0 0 0 0
0 0 0 0 0 0 0 0 0
0 0 0 0 0 0 0 0 0
0 0 0 0 0 0 0 0 0
0 0 0 0 0 0 0 0 0
0 0 0 0 0 0 0 0 0
0 0 0 0 0 0 0 0 0
0 0 0 0 0 0 0 0 0
0 0 0 0 0 0 0 0 0
0 0 0 0 0 0 0 0 0
0 0 0 0 0 0 0 0 0
0 0 0 0 0 0 0 0 0
0 0 0 0 0 0 0 0 0
0 0 0 0 0 0 0 0 0
0 0 0 0 0 0 0 0 0
0 0 0 0 0 0 0 0 0
5.90906e-07 6.17834e-07 5.85796e-07 6.12262e-07 5.90906e-07 6.17834e-07 5.85796e-07 6.12262e-07 0
6.37846e-07 6.65595e-07 6.31906e-07 6.59111e-07 6.37846e-07 6.65595e-07 6.31906e-07 6.59111e-07 0
6.00632e-07 6.28436e-07 5.94876e-07 6.22163e-07 6.00632e-07 6.28436e-07 5.94876e-07 6.22163e-07 0
6.49099e-07 6.77752e-07 6.42448e-07 6.70586e-07 6.49099e-07 6.77752e-07 6.42448e-07 6.70586e-07 0
6.99046e-07 7.28575e-07 6.91483e-07 7.20443e-07 6.99046e-07 7.28575e-07 6.91483e-07 7.20443e-07 0
7.50484e-07 7.80815e-07 7.41922e-07 7.71645e-07 7.50484e-07 7.80815e-07 7.41922e-07 7.71645e-07 0
8.03279e-07 8.34323e-07 7.9365e-07 8.24047e-07 8.03279e-07 8.34323e-07 7.9365e-07 8.24047e-07 0
8.57226e-07 8.88756e-07 8.4645e-07 8.7727e-07 8.57226e-07 8.88756e-07 8.4645e-07 8.7727e-07 0
9.11938e-07 9.43748e-07 8.999e-07 9.30934e-07 9.11938e-07 9.43748e-07 8.999e-07 9.30934e-07 0
9.67052e-07 9.98913e-07 9.53647e-07 9.84667e-07 9.67052e-07 9.98913e-07 9.53647e-07 9.84667e-07 0
1.02215e-06 1.05379e-06 1.00726e-06 1.03796e-06 1.02215e-06 1.05379e-06 1.00726e-06 1.03796e-06 0
6.61489e-07 6.91021e-07 6.54196e-07 6.83222e-07 6.61489e-07 6.91021e-07 6.54196e-07 6.83222e-07 0
7.12987e-07 7.43475e-07 7.04803e-07 7.34741e-07 7.12987e-07 7.43475e-07 7.04803e-07 7.34741e-07 0
7.66115e-07 7.97488e-07 7.56961e-07 7.87734e-07 7.66115e-07 7.97488e-07 7.56961e-07 7.87734e-07 0
8.20746e-07 8.52919e-07 8.10534e-07 8.42054e-07 8.20746e-07 8.52919e-07 8.10534e-07 8.42054e-07 0
8.76697e-07 9.09493e-07 8.65325e-07 8.97387e-07 8.76697e-07 9.09493e-07 8.65325e-07 8.97387e-07 0
9.33653e-07 9.66867e-07 9.20978e-07 9.53372e-07 9.33653e-07 9.66867e-07 9.20978e-07 9.53372e-07 0
9.91244e-07 1.02463e-06 9.77122e-07 1.00962e-06 9.91244e-07 1.02463e-06 9.77122e-07 1.00962e-06 0
6.75092e-07 7.0547e-07 6.67083e-07 6.96977e-07 6.75092e-07 7.0547e-07 6.67083e-07 6.96977e-07 0
7.28087e-07 7.59507e-07 7.19221e-07 7.50106e-07 7.28087e-07 7.59507e-07 7.19221e-07 7.50106e-07 0
7.82865e-07 8.15269e-07 7.73051e-07 8.04861e-07 7.82865e-07 8.15269e-07 7.73051e-07 8.04861e-07 0
8.39319e-07 8.72631e-07 8.28454e-07 8.61107e-07 8.39319e-07 8.72631e-07 8.28454e-07 8.61107e-07 0
8.97295e-07 9.31374e-07 8.85259e-07 9.18595e-07 8.97295e-07 9.31374e-07 8.85259e-07 9.18595e-07 0
9.56525e-07 9.91164e-07 9.43173e-07 9.76989e-07 9.56525e-07 9.91164e-07 9.43173e-07 9.76989e-07 0
1.01665e-06 1.05164e-06 1.00183e-06 1.03589e-06 1.01665e-06 1.05164e-06 1.00183e-06 1.03589e-06 0
6.89978e-07 7.21168e-07 6.81222e-07 7.11947e-07 6.89978e-07 7.21168e-07 6.81222e-07 7.11947e-07 0
7.44414e-07 7.76743e-07 7.34832e-07 7.66639e-07 7.44414e-07 7.76743e-07 7.34832e-07 7.66639e-07 0
8.00807e-07 8.34231e-07 7.90297e-07 8.23133e-07 8.00807e-07 8.34231e-07 7.90297e-07 8.23133e-07 0
8.59075e-07 8.93534e-07 8.47519e-07 8.81315e-07 8.59075e-07 8.93534e-07 8.47519e-07 8.81315e-07 0
9.19092e-07 9.54468e-07 9.06355e-07 9.40981e-07 9.19092e-07 9.54468e-07 9.06355e-07 9.40981e-07 0
9.80632e-07 1.01675e-06 9.66557e-07 1.00181e-06 9.80632e-07 1.01675e-06 9.66557e-07 1.00181e-06 0
7.06201e-07 7.38172e-07 6.96667e-07 7.2819e-07 7.06201e-07 7.38172e-07 6.96667e-07 7.2819e-07 0
7.62028e-07 7.95245e-07 7.51696e-07 7.84402e-07 7.62028e-07 7.95245e-07 7.51696e-07 7.84402e-07 0
8.20003e-07 8.54441e-07 8.08761e-07 8.42614e-07 8.20003e-07 8.54441e-07 8.08761e-07 8.42614e-07 0
8.80076e-07 9.15689e-07 8.67793e-07 9.02739e-07 8.80076e-07 9.15689e-07 8.67793e-07 9.02739e-07 0
9.4215e-07 9.78841e-07 9.28677e-07 9.64607e-07 9.4215e-07 9.78841e-07 9.28677e-07 9.64607e-07 0
1.00603e-06 1.04365e-06 9.91204e-07 1.02795e-06 1.00603e-06 1.04365e-06 9.91204e-07 1.02795e-06 0
7.2381e-07 7.56538e-07 7.13469e-07 7.45763e-07 7.2381e-07 7.56538e-07 7.13469e-07 7.45763e-07 0
7.80989e-07 8.15078e-07 7.69872e-07 8.03459e-07 7.80989e-07 8.15078e-07 7.69872e-07 8.03459e-07 0
8.40524e-07 8.75969e-07 8.28508e-07 8.63372e-07 8.40524e-07 8.75969e-07 8.28508e-07 8.63372e-07 0
9.02396e-07 9.39169e-07 8.89342e-07 9.25444e-07 9.02396e-07 9.39169e-07 8.89342e-07 9.25444e-07 0
9.66544e-07 1.00458e-06 9.5229e-07 9.89545e-07 9.66544e-07 1.00458e-06 9.5229e-07 9.89545e-07 0
1.03282e-06 1.07196e-06 1.01718e-06 1.05543e-06 1.03282e-06 1.07196e-06 1.01718e-06 1.05543e-06 0
7.42855e-07 7.76321e-07 7.31679e-07 7.64721e-07 7.42855e-07 7.76321e-07 7.31679e-07 7.64721e-07 0
8.01357e-07 8.3631e-07 7.8942e-07 8.23875e-07 8.01357e-07 8.3631e-07 7.8942e-07 8.23875e-07 0
8.62439e-07 8.98892e-07 8.49609e-07 8.8548e-07 8.62439e-07 8.98892e-07 8.49609e-07 8.8548e-07 0
9.26116e-07 9.64059e-07 9.12243e-07 9.49509e-07 9.26116e-07 9.64059e-07 9.12243e-07 9.49509e-07 0
9.92361e-07 1.03176e-06 9.77274e-07 1.01588e-06 9.92361e-07 1.03176e-06 9.77274e-07 1.01588e-06 0
7.06248e-07 7.38907e-07 6.94851e-07 7.27161e-07 7.06248e-07 7.38907e-07 6.94851e-07 7.27161e-07 0
7.63373e-07 7.97578e-07 7.51343e-07 7.8512e-07 7.63373e-07 7.97578e-07 7.51343e-07 7.8512e-07 0
8.23199e-07 8.59016e-07 8.10403e-07 8.45721e-07 8.23199e-07 8.59016e-07 8.10403e-07 8.45721e-07 0
8.85832e-07 9.23302e-07 8.72139e-07 9.0902e-07 8.85832e-07 9.23302e-07 8.72139e-07 9.0902e-07 0
9.51332e-07 9.90466e-07 9.36583e-07 9.75027e-07 9.51332e-07 9.90466e-07 9.36583e-07 9.75027e-07 0
1.01971e-06 1.0605e-06 1.00372e-06 1.04371e-06 1.01971e-06 1.0605e-06 1.00372e-06 1.04371e-06 0
7.27204e-07 7.60482e-07 7.14914e-07 7.47832e-07 7.27204e-07 7.60482e-07 7.14914e-07 7.47832e-07 0
7.85444e-07 8.20386e-07 7.72507e-07 8.07023e-07 7.85444e-07 8.20386e-07 7.72507e-07 8.07023e-07 0
8.46596e-07 8.83289e-07 8.32892e-07 8.69077e-07 8.46596e-07 8.83289e-07 8.32892e-07 8.69077e-07 0
9.10802e-07 9.49307e-07 8.96186e-07 9.34091e-07 9.10802e-07 9.49307e-07 8.96186e-07 9.34091e-07 0
9.78168e-07 1.01854e-06 9.62468e-07 1.00212e-06 9.78168e-07 1.01854e-06 9.62468e-07 1.00212e-06 0
1.04876e-06 1.09096e-06 1.03177e-06 1.07315e-06 1.04876e-06 1.09096e-06 1.03177e-06 1.07315e-06 0
5.89451e-07 6.18407e-07 5.77449e-07 6.06237e-07 5.89451e-07 6.18407e-07 5.77449e-07 6.06237e-07 0
6.40153e-07 6.7062e-07 6.27837e-07 6.58075e-07 6.40153e-07 6.7062e-07 6.27837e-07 6.58075e-07 0
6.93525e-07 7.25651e-07 6.80791e-07 7.12629e-07 6.93525e-07 7.25651e-07 6.80791e-07 7.12629e-07 0
7.49804e-07 7.83688e-07 7.36551e-07 7.70087e-07 7.49804e-07 7.83688e-07 7.36551e-07 7.70087e-07 0
8.09148e-07 8.44847e-07 7.95259e-07 8.30517e-07 8.09148e-07 8.44847e-07 7.95259e-07 8.30517e-07 0
8.71662e-07 9.09255e-07 8.5698e-07 8.94049e-07 8.71662e-07 9.09255e-07 8.5698e-07 8.94049e-07 0
9.37487e-07 9.77058e-07 9.21863e-07 9.60814e-07 9.37487e-07 9.77058e-07 9.21863e-07 9.60814e-07 0
1.00677e-06 1.04842e-06 9.90033e-07 1.03094e-06 1.00677e-06 1.04842e-06 9.90033e-07 1.03094e-06 0
6.11453e-07 6.40706e-07 5.98565e-07 6.27645e-07 6.11453e-07 6.40706e-07 5.98565e-07 6.27645e-07 0
6.62709e-07 6.93584e-07 6.49498e-07 6.80136e-07 6.62709e-07 6.93584e-07 6.49498e-07 6.80136e-07 0
7.16829e-07 7.49478e-07 7.03182e-07 7.35525e-07 7.16829e-07 7.49478e-07 7.03182e-07 7.35525e-07 0
7.74061e-07 8.08598e-07 7.59855e-07 7.94005e-07 7.74061e-07 8.08598e-07 7.59855e-07 7.94005e-07 0
8.34589e-07 8.7109e-07 8.19684e-07 8.55715e-07 8.34589e-07 8.7109e-07 8.19684e-07 8.55715e-07 0
8.98545e-07 9.37084e-07 8.82796e-07 9.20782e-07 8.98545e-07 9.37084e-07 8.82796e-07 9.20782e-07 0
9.66069e-07 1.00676e-06 9.49327e-07 9.89363e-07 9.66069e-07 1.00676e-06 9.49327e-07 9.89363e-07 0
1.03737e-06 1.08035e-06 1.01945e-06 1.06166e-06 1.03737e-06 1.08035e-06 1.01945e-06 1.06166e-06 0
6.34941e-07 6.64529e-07 6.21205e-07 6.50592e-07 6.34941e-07 6.64529e-07 6.21205e-07 6.50592e-07 0
6.86833e-07 7.18196e-07 6.72716e-07 7.03785e-07 6.86833e-07 7.18196e-07 6.72716e-07 7.03785e-07 0
7.41834e-07 7.75072e-07 7.27188e-07 7.60077e-07 7.41834e-07 7.75072e-07 7.27188e-07 7.60077e-07 0
8.00117e-07 8.35331e-07 7.84851e-07 8.19672e-07 8.00117e-07 8.35331e-07 7.84851e-07 8.19672e-07 0
8.6189e-07 8.99266e-07 8.45898e-07 8.82759e-07 8.6189e-07 8.99266e-07 8.45898e-07 8.82759e-07 0
9.27414e-07 9.66976e-07 9.10499e-07 9.49459e-07 9.27414e-07 9.66976e-07 9.10499e-07 9.49459e-07 0
9.96776e-07 1.03867e-06 9.7878e-07 1.01996e-06 9.96776e-07 1.03867e-06 9.7878e-07 1.01996e-06 0
1.07025e-06 1.11467e-06 1.05097e-06 1.09455e-06 1.07025e-06 1.11467e-06 1.05097e-06 1.09455e-06 0
0 0 0 0 0 0 0 0 0
0 0 0 0 0 0 0 0 0
0 0 0 0 0 0 0 0 0
0 0 0 0 0 0 0 0 0
0 0 0 0 0 0 0 0 0
0 0 0 0 0 0 0 0 0
0 0 0 0 0 0 0 0 0
0 0 0 0 0 0 0 0 0
0 0 0 0 0 0 0 0 0
0 0 0 0 0 0 0 0 0
0 0 0 0 0 0 0 0 0
0 0 0 0 0 0 0 0 0
0 0 0 0 0 0 0 0 0
0 0 0 0 0 0 0 0 0
0 0 0 0 0 0 0 0 0
0 0 0 0 0 0 0 0 0
0 0 0 0 0 0 0 0 0
0 0 0 0 0 0 0 0 0
0 0 0 0 0 0 0 0 0
0 0 0 0 0 0 0 0 0
0 0 0 0 0 0 0 0 0
0 0 0 0 0 0 0 0 0
0 0 0 0 0 0 0 0 0
0 0 0 0 0 0 0 0 0
0 0 0 0 0 0 0 0 0
0 0 0 0 0 0 0 0 0
0 0 0 0 0 0 0 0 0
0 0 0 0 0 0 0 0 0
0 0 0 0 0 0 0 0 0
0 0 0 0 0 0 0 0 0
0 0 0 0 0 0 0 0 0
0 0 0 0 0 0 0 0 0
0 0 0 0 0 0 0 0 0
0 0 0 0 0 0 0 0 0
0 0 0 0 0 0 0 0 0
0 0 0 0 0 0 0 0 0
0 0 0 0 0 0 0 0 0
0 0 0 0 0 0 0 0 0
0 0 0 0 0 0 0 0 0
0 0 0 0 0 0 0 0 0
0 0 0 0 0 0 0 0 0
0 0 0 0 0 0 0 0 0
0 0 0 0 0 0 0 0 0
0 0 0 0 0 0 0 0 0
0 0 0 0 0 0 0 0 0
0 0 0 0 0 0 0 0 0
0 0 0 0 0 0 0 0 0
0 0 0 0 0 0 0 0 0
0 0 0 0 0 0 0 0 0
0 0 0 0 0 0 0 0 0
0 0 0 0 0 0 0 0 0
0 0 0 0 0 0 0 0 0
0 0 0 0 0 0 0 0 0
0 0 0 0 0 0 0 0 0
0 0 0 0 0 0 0 0 0
0 0 0 0 0 0 0 0 0
0 0 0 0 0 0 0 0 0
0 0 0 0 0 0 0 0 0
0 0 0 0 0 0 0 0 0
0 0 0 0 0 0 0 0 0
0 0 0 0 0 0 0 0 0
0 0 0 0 0 0 0 0 0
0 0 0 0 0 0 0 0 0
0 0 0 0 0 0 0 0 0
0 0 0 0 0 0 0 0 0
0 0 0 0 0 0 0 0 0
0 0 0 0 0 0 0 0 0
0 0 0 0 0 0 0 0 0
0 0 0 0 0 0 0 0 0
0 0 0 0 0 0 0 0 0
0 0 0 0 0 0 0 0 0
0 0 0 0 0 0 0 0 0
0 0 0 0 0 0 0 0 0
0 0 0 0 0 0 0 0 0
0 0 0 0 0 0 0 0 0
0 0 0 0 0 0 0 0 0
0 0 0 0 0 0 0 0 0
0 0 0 0 0 0 0 0 0
0 0 0 0 0 0 0 0 0
0 0 0 0 0 0 0 0 0
0 0 0 0 0 0 0 0 0
0 0 0 0 0 0 0 0 0
0 0 0 0 0 0 0 0 0
0 0 0 0 0 0 0 0 0
0 0 0 0 0 0 0 0 0
0 0 0 0 0 0 0 0 0
0 0 0 0 0 0 0 0 0
0 0 0 0 0 0 0 0 0
0 0 0 0 0 0 0 0 0
0 0 0 0 0 0 0 0 0
0 0 0 0 0 0 0 0 0
0 0 0 0 0 0 0 0 0
0 0 0 0 0 0 0 0 0
0 0 0 0 0 0 0 0 0
0 0 0 0 0 0 0 0 0
0 0 0 0 0 0 0 0 0
0 0 0 0 0 0 0 0 0
0 0 0 0 0 0 0 0 0
0 0 0 0 0 0 0 0 0
0 0 0 0 0 0 0 0 0
0 0 0 0 0 0 0 0 0
0 0 0 0 0 0 0 0 0
0 0 0 0 0 0 0 0 0
0 0 0 0 0 0 0 0 0
0 0 0 0 0 0 0 0 0
0 0 0 0 0 0 0 0 0
0 0 0 0 0 0 0 0 0
0 0 0 0 0 0 0 0 0
0 0 0 0 0 0 0 0 0
0 0 0 0 0 0 0 0 0
0 0 0 0 0 0 0 0 0
0 0 0 0 0 0 0 0 0
0 0 0 0 0 0 0 0 0
0 0 0 0 0 0 0 0 0
0 0 0 0 0 0 0 0 0
0 0 0 0 0 0 0 0 0
0 0 0 0 0 0 0 0 0
0 0 0 0 0 0 0 0 0
0 0 0 0 0 0 0 0 0
0 0 0 0 0 0 0 0 0
0 0 0 0 0 0 0 0 0
0 0 0 0 0 0 0 0 0
0 0 0 0 0 0 0 0 0
0 0 0 0 0 0 0 0 0
0 0 0 0 0 0 0 0 0
0 0 0 0 0 0 0 0 0
0 0 0 0 0 0 0 0 0
0 0 0 0 0 0 0 0 0
0 0 0 0 0 0 0 0 0
0 0 0 0 0 0 0 0 0
0 0 0 0 0 0 0 0 0
0 0 0 0 0 0 0 0 0
0 0 0 0 0 0 0 0 0
0 0 0 0 0 0 0 0 0
0 0 0 0 0 0 0 0 0
0 0 0 0 0 0 0 0 0
0 0 0 0 0 0 0 0 0
0 0 0 0 0 0 0 0 0
0 0 0 0 0 0 0 0 0
0 0 0 0 0 0 0 0 0
0 0 0 0 0 0 0 0 0
0 0 0 0 0 0 0 0 0
0 0 0 0 0 0 0 0 0
0 0 0 0 0 0 0 0 0
0 0 0 0 0 0 0 0 0
0 0 0 0 0 0 0 0 0
0 0 0 0 0 0 0 0 0
0 0 0 0 0 0 0 0 0
0 0 0 0 0 0 0 0 0
0 0 0 0 0 0 0 0 0
0 0 0 0 0 0 0 0 0
0 0 0 0 0 0 0 0 0
0 0 0 0 0 0 0 0 0
0 0 0 0 0 0 0 0 0
0 0 0 0 0 0 0 0 0
0 0 0 0 0 0 0 0 0
0 0 0 0 0 0 0 0 0
0 0 0 0 0 0 0 0 0
0 0 0 0 0 0 0 0 0
0 0 0 0 0 0 0 0 0
0 0 0 0 0 0 0 0 0
0 0 0 0 0 0 0 0 0
0 0 0 0 0 0 0 0 0
0 0 0 0 0 0 0 0 0
0 0 0 0 0 0 0 0 0
0 0 0 0 0 0 0 0 0
0 0 0 0 0 0 0 0 0
0 0 0 0 0 0 0 0 0
0 0 0 0 0 0 0 0 0
0 0 0 0 0 0 0 0 0
0 0 0 0 0 0 0 0 0
0 0 0 0 0 0 0 0 0
0 0 0 0 0 0 0 0 0
0 0 0 0 0 0 0 0 0
0 0 0 0 0 0 0 0 0
0 0 0 0 0 0 0 0 0
0 0 0 0 0 0 0 0 0
0 0 0 0 0 0 0 0 0
0 0 0 0 0 0 0 0 0
0 0 0 0 0 0 0 0 0
0 0 0 0 0 0 0 0 0
0 0 0 0 0 0 0 0 0
0 0 0 0 0 0 0 0 0
0 0 0 0 0 0 0 0 0
0 0 0 0 0 0 0 0 0
0 0 0 0 0 0 0 0 0
0 0 0 0 0 0 0 0 0
0 0 0 0 0 0 0 0 0
0 0 0 0 0 0 0 0 0
0 0 0 0 0 0 0 0 0
0 0 0 0 0 0 0 0 0
0 0 0 0 0 0 0 0 0
0 0 0 0 0 0 0 0 0
0 0 0 0 0 0 0 0 0
0 0 0 0 0 0 0 0 0
0 0 0 0 0 0 0 0 0
0 0 0 0 0 0 0 0 0
0 0 0 0 0 0 0 0 0
0 0 0 0 0 0 0 0 0
0 0 0 0 0 0 0 0 0
0 0 0 0 0 0 0 0 0
0 0 0 0 0 0 0 0 0
0 0 0 0 0 0 0 0 0
0 0 0 0 0 0 0 0 0
0 0 0 0 0 0 0 0 0
0 0 0 0 0 0 0 0 0
0 0 0 0 0 0 0 0 0
0 0 0 0 0 0 0 0 0
0 0 0 0 0 0 0 0 0
0 0 0 0 0 0 0 0 0
0 0 0 0 0 0 0 0 0
0 0 0 0 0 0 0 0 0
0 0 0 0 0 0 0 0 0
0 0 0 0 0 0 0 0 0
0 0 0 0 0 0 0 0 0
0 0 0 0 0 0 0 0 0
0 0 0 0 0 0 0 0 0
0 0 0 0 0 0 0 0 0
0 0 0 0 0 0 0 0 0
0 0 0 0 0 0 0 0 0
0 0 0 0 0 0 0 0 0
0 0 0 0 0 0 0 0 0
0 0 0 0 0 0 0 0 0
0 0 0 0 0 0 0 0 0
0 0 0 0 0 0 0 0 0
0 0 0 0 0 0 0 0 0
0 0 0 0 0 0 0 0 0
0 0 0 0 0 0 0 0 0
0 0 0 0 0 0 0 0 0
0 0 0 0 0 0 0 0 0
0 0 0 0 0 0 0 0 0
0 0 0 0 0 0 0 0 0
0 0 0 0 0 0 0 0 0
0 0 0 0 0 0 0 0 0
0 0 0 0 0 0 0 0 0
0 0 0 0 0 0 0 0 0
0 0 0 0 0 0 0 0 0
0 0 0 0 0 0 0 0 0
0 0 0 0 0 0 0 0 0
0 0 0 0 0 0 0 0 0
0 0 0 0 0 0 0 0 0
0 0 0 0 0 0 0 0 0
0 0 0 0 0 0 0 0 0
0 0 0 0 0 0 0 0 0
0 0 0 0 0 0 0 0 0
0 0 0 0 0 0 0 0 0
0 0 0 0 0 0 0 0 0
0 0 0 0 0 0 0 0 0
0 0 0 0 0 0 0 0 0
0 0 0 0 0 0 0 0 0
0 0 0 0 0 0 0 0 0
0 0 0 0 0 0 0 0 0
0 0 0 0 0 0 0 0 0
0 0 0 0 0 0 0 0 0
0 0 0 0 0 0 0 0 0
0 0 0 0 0 0 0 0 0
0 0 0 0 0 0 0 0 0
0 0 0 0 0 0 0 0 0
0 0 0 0 0 0 0 0 0
0 0 0 0 0 0 0 0 0
0 0 0 0 0 0 0 0 0
0 0 0 0 0 0 0 0 0
0 0 0 0 0 0 0 0 0
0 0 0 0 0 0 0 0 0
0 0 0 0 0 0 0 0 0
0 0 0 0 0 0 0 0 0
0 0 0 0 0 0 0 0 0
0 0 0 0 0 0 0 0 0
0 0 0 0 0 0 0 0 0
0 0 0 0 0 0 0 0 0
0 0 0 0 0 0 0 0 0
0 0 0 0 0 0 0 0 0
0 0 0 0 0 0 0 0 0
0 0 0 0 0 0 0 0 0
0 0 0 0 0 0 0 0 0
0 0 0 0 0 0 0 0 0
0 0 0 0 0 0 0 0 0
0 0 0 0 0 0 0 0 0
0 0 0 0 0 0 0 0 0
0 0 0 0 0 0 0 0 0
0 0 0 0 0 0 0 0 0
0 0 0 0 0 0 0 0 0
0 0 0 0 0 0 0 0 0
0 0 0 0 0 0 0 0 0
0 0 0 0 0 0 0 0 0
0 0 0 0 0 0 0 0 0
0 0 0 0 0 0 0 0 0
0 0 0 0 0 0 0 0 0
0 0 0 0 0 0 0 0 0
0 0 0 0 0 0 0 0 0
0 0 0 0 0 0 0 0 0
0 0 0 0 0 0 0 0 0
0 0 0 0 0 0 0 0 0
0 0 0 0 0 0 0 0 0
0 0 0 0 0 0 0 0 0
0 0 0 0 0 0 0 0 0
0 0 0 0 0 0 0 0 0
0 0 0 0 0 0 0 0 0
0 0 0 0 0 0 0 0 0
0 0 0 0 0 0 0 0 0
0 0 0 0 0 0 0 0 0
0 0 0 0 0 0 0 0 0
0 0 0 0 0 0 0 0 0
0 0 0 0 0 0 0 0 0
0 0 0 0 0 0 0 0 0
0 0 0 0 0 0 0 0 0
0 0 0 0 0 0 0 0 0
0 0 0 0 0 0 0 0 0
0 0 0 0 0 0 0 0 0
0 0 0 0 0 0 0 0 0
0 0 0 0 0 0 0 0 0
0 0 0 0 0 0 0 0 0
0 0 0 0 0 0 0 0 0
0 0 0 0 0 0 0 0 0
0 0 0 0 0 0 0 0 0
0 0 0 0 0 0 0 0 0
0 0 0 0 0 0 0 0 0
0 0 0 0 0 0 0 0 0
0 0 0 0 0 0 0 0 0
0 0 0 0 0 0 0 0 0
0 0 0 0 0 0 0 0 0
0 0 0 0 0 0 0 0 0
0 0 0 0 0 0 0 0 0
0 0 0 0 0 0 0 0 0
0 0 0 0 0 0 0 0 0
0 0 0 0 0 0 0 0 0
0 0 0 0 0 0 0 0 0
0 0 0 0 0 0 0 0 0
0 0 0 0 0 0 0 0 0
0 0 0 0 0 0 0 0 0
0 0 0 0 0 0 0 0 0
0 0 0 0 0 0 0 0 0
0 0 0 0 0 0 0 0 0
0 0 0 0 0 0 0 0 0
0 0 0 0 0 0 0 0 0
0 0 0 0 0 0 0 0 0
0 0 0 0 0 0 0 0 0
0 0 0 0 0 0 0 0 0
0 0 0 0 0 0 0 0 0
0 0 0 0 0 0 0 0 0
0 0 0 0 0 0 0 0 0
0 0 0 0 0 0 0 0 0
0 0 0 0 0 0 0 0 0
0 0 0 0 0 0 0 0 0
0 0 0 0 0 0 0 0 0
0 0 0 0 0 0 0 0 0
0 0 0 0 0 0 0 0 0
0 0 0 0 0 0 0 0 0
0 0 0 0 0 0 0 0 0
0 0 0 0 0 0 0 0 0
0 0 0 0 0 0 0 0 0
0 0 0 0 0 0 0 0 0
0 0 0 0 0 0 0 0 0
0 0 0 0 0 0 0 0 0
0 0 0 0 0 0 0 0 0
0 0 0 0 0 0 0 0 0
0 0 0 0 0 0 0 0 0
0 0 0 0 0 0 0 0 0
0 0 0 0 0 0 0 0 0
0 0 0 0 0 0 0 0 0
0 0 0 0 0 0 0 0 0
0 0 0 0 0 0 0 0 0
0 0 0 0 0 0 0 0 0
0 0 0 0 0 0 0 0 0
0 0 0 0 0 0 0 0 0
0 0 0 0 0 0 0 0 0
0 0 0 0 0 0 0 0 0
0 0 0 0 0 0 0 0 0
0 0 0 0 0 0 0 0 0
0 0 0 0 0 0 0 0 0
0 0 0 0 0 0 0 0 0
0 0 0 0 0 0 0 0 0
0 0 0 0 0 0 0 0 0
0 0 0 0 0 0 0 0 0
0 0 0 0 0 0 0 0 0
0 0 0 0 0 0 0 0 0
0 0 0 0 0 0 0 0 0
0 0 0 0 0 0 0 0 0
0 0 0 0 0 0 0 0 0
0 0 0 0 0 0 0 0 0
0 0 0 0 0 0 0 0 0
0 0 0 0 0 0 0 0 0
0 0 0 0 0 0 0 0 0
0 0 0 0 0 0 0 0 0
0 0 0 0 0 0 0 0 0
0 0 0 0 0 0 0 0 0
0 0 0 0 0 0 0 0 0
0 0 0 0 0 0 0 0 0
0 0 0 0 0 0 0 0 0
0 0 0 0 0 0 0 0 0
0 0 0 0 0 0 0 0 0
0 0 0 0 0 0 0 0 0
0 0 0 0 0 0 0 0 0
0 0 0 0 0 0 0 0 0
0 0 0 0 0 0 0 0 0
0 0 0 0 0 0 0 0 0
0 0 0 0 0 0 0 0 0
0 0 0 0 0 0 0 0 0
0 0 0 0 0 0 0 0 0
0 0 0 0 0 0 0 0 0
0 0 0 0 0 0 0 0 0
0 0 0 0 0 0 0 0 0
0 0 0 0 0 0 0 0 0
0 0 0 0 0 0 0 0 0
0 0 0 0 0 0 0 0 0
0 0 0 0 0 0 0 0 0
0 0 0 0 0 0 0 0 0
0 0 0 0 0 0 0 0 0
0 0 0 0 0 0 0 0 0
0 0 0 0 0 0 0 0 0
0 0 0 0 0 0 0 0 0
0 0 0 0 0 0 0 0 0
0 0 0 0 0 0 0 0 0
0 0 0 0 0 0 0 0 0
0 0 0 0 0 0 0 0 0
0 0 0 0 0 0 0 0 0
SCALARS Dshear double 9
LOOKUP_TABLE default
0 0 0 0 0 0 0 0 0
0 0 0 0 0 0 0 0 0
0 0 0 0 0 0 0 0 0
0 0 0 0 0 0 0 0 0
0 0 0 0 0 0 0 0 0
0 0 0 0 0 0 0 0 0
0 0 0 0 0 0 0 0 0
0 0 0 0 0 0 0 0 0
0 0 0 0 0 0 0 0 0
0 0 0 0 0 0 0 0 0
0 0 0 0 0 0 0 0 0
0 0 0 0 0 0 0 0 0
0 0 0 0 0 0 0 0 0
0 0 0 0 0 0 0 0 0
0 0 0 0 0 0 0 0 0
0 0 0 0 0 0 0 0 0
0 0 0 0 0 0 0 0 0
0 0 0 0 0 0 0 0 0
0 0 0 0 0 0 0 0 0
0 0 0 0 0 0 0 0 0
0 0 0 0 0 0 0 0 0
0 0 0 0 0 0 0 0 0
0 0 0 0 0 0 0 0 0
0 0 0 0 0 0 0 0 0
0 0 0 0 0 0 0 0 0
0 0 0 0 0 0 0 0 0
0 0 0 0 0 0 0 0 0
0 0 0 0 0 0 0 0 0
0 0 0 0 0 0 0 0 0
0 0 0 0 0 0 0 0 0
0 0 0 0 0 0 0 0 0
0 0 0 0 0 0 0 0 0
0 0 0 0 0 0 0 0 0
0 0 0 0 0 0 0 0 0
0 0 0 0 0 0 0 0 0
0 0 0 0 0 0 0 0 0
0 0 0 0 0 0 0 0 0
0 0 0 0 0 0 0 0 0
0 0 0 0 0 0 0 0 0
0 0 0 0 0 0 0 0 0
0 0 0 0 0 0 0 0 0
0 0 0 0 0 0 0 0 0
0 0 0 0 0 0 0 0 0
0 0 0 0 0 0 0 0 0
0 0 0 0 0 0 0 0 0
0 0 0 0 0 0 0 0 0
0 0 0 0 0 0 0 0 0
0 0 0 0 0 0 0 0 0
0 0 0 0 0 0 0 0 0
0 0 0 0 0 0 0 0 0
0 0 0 0 0 0 0 0 0
0 0 0 0 0 0 0 0 0
0 0 0 0 0 0 0 0 0
0 0 0 0 0 0 0 0 0
0 0 0 0 0 0 0 0 0
0 0 0 0 0 0 0 0 0
0 0 0 0 0 0 0 0 0
0 0 0 0 0 0 0 0 0
0 0 0 0 0 0 0 0 0
0 0 0 0 0 0 0 0 0
0 0 0 0 0 0 0 0 0
0 0 0 0 0 0 0 0 0
0 0 0 0 0 0 0 0 0
0 0 0 0 0 0 0 0 0
0 0 0 0 0 0 0 0 0
0 0 0 0 0 0 0 0 0
0 0 0 0 0 0 0 0 0
0 0 0 0 0 0 0 0 0
0 0 0 0 0 0 0 0 0
0 0 0 0 0 0 0 0 0
0 0 0 0 0 0 0 0 0
0 0 0 0 0 0 0 0 0
0 0 0 0 0 0 0 0 0
0 0 0 0 0 0 0 0 0
0 0 0 0 0 0 0 0 0
0 0 0 0 0 0 0 0 0
0 0 0 0 0 0 0 0 0
0 0 0 0 0 0 0 0 0
0 0 0 0 0 0 0 0 0
0 0 0 0 0 0 0 0 0
0 0 0 0 0 0 0 0 0
0 0 0 0 0 0 0 0 0
0 0 0 0 0 0 0 0 0
0 0 0 0 0 0 0 0 0
0 0 0 0 0 0 0 0 0
0 0 0 0 0 0 0 0 0
0 0 0 0 0 0 0 0 0
0 0 0 0 0 0 0 0 0
0 0 0 0 0 0 0 0 0
0 0 0 0 0 0 0 0 0
0 0 0 0 0 0 0 0 0
0 0 0 0 0 0 0 0 0
0 0 0 0 0 0 0 0 0
0 0 0 0 0 0 0 0 0
0 0 0 0 0 0 0 0 0
0 0 0 0 0 0 0 0 0
0 0 0 0 0 0 0 0 0
0 0 0 0 0 0 0 0 0
0 0 0 0 0 0 0 0 0
0 0 0 0 0 0 0 0 0
0 0 0 0 0 0 0 0 0
0 0 0 0 0 0 0 0 0
0 0 0 0 0 0 0 0 0
0 0 0 0 0 0 0 0 0
0 0 0 0 0 0 0 0 0
0 0 0 0 0 0 0 0 0
0 0 0 0 0 0 0 0 0
0 0 0 0 0 0 0 0 0
0 0 0 0 0 0 0 0 0
0 0 0 0 0 0 0 0 0
0 0 0 0 0 0 0 0 0
0 0 0 0 0 0 0 0 0
0 0 0 0 0 0 0 0 0
0 0 0 0 0 0 0 0 0
0 0 0 0 0 0 0 0 0
0 0 0 0 0 0 0 0 0
0 0 0 0 0 0 0 0 0
0 0 0 0 0 0 0 0 0
0 0 0 0 0 0 0 0 0
0 0 0 0 0 0 0 0 0
0 0 0 0 0 0 0 0 0
0 0 0 0 0 0 0 0 0
0 0 0 0 0 0 0 0 0
0 0 0 0 0 0 0 0 0
0 0 0 0 0 0 0 0 0
0 0 0 0 0 0 0 0 0
0 0 0 0 0 0 0 0 0
0 0 0 0 0 0 0 0 0
0 0 0 0 0 0 0 0 0
0 0 0 0 0 0 0 0 0
0 0 0 0 0 0 0 0 0
0 0 0 0 0 0 0 0 0
0 0 0 0 0 0 0 0 0
0 0 0 0 0 0 0 0 0
0 0 0 0 0 0 0 0 0
0 0 0 0 0 0 0 0 0
0 0 0 0 0 0 0 0 0
0 0 0 0 0 0 0 0 0
0 0 0 0 0 0 0 0 0
0 0 0 0 0 0 0 0 0
0 0 0 0 0 0 0 0 0
0 0 0 0 0 0 0 0 0
0 0 0 0 0 0 0 0 0
0 0 0 0 0 0 0 0 0
0 0 0 0 0 0 0 0 0
0 0 0 0 0 0 0 0 0
0 0 0 0 0 0 0 0 0
0 0 0 0 0 0 0 0 0
0 0 0 0 0 0 0 0 0
0 0 0 0 0 0 0 0 0
0 0 0 0 0 0 0 0 0
0 0 0 0 0 0 0 0 0
0 0 0 0 0 0 0 0 0
0 0 0 0 0 0 0 0 0
0 0 0 0 0 0 0 0 0
0 0 0 0 0 0 0 0 0
0 0 0 0 0 0 0 0 0
0 0 0 0 0 0 0 0 0
0 0 0 0 0 0 0 0 0
0 0 0 0 0 0 0 0 0
0 0 0 0 0 0 0 0 0
0 0 0 0 0 0 0 0 0
0 0 0 0 0 0 0 0 0
6.61498e-07 6.9223e-07 6.5938e-07 6.89703e-07 6.61498e-07 6.9223e-07 6.5938e-07 6.89703e-07 0
7.15195e-07 7.47205e-07 7.1238e-07 7.44012e-07 7.15195e-07 7.47205e-07 7.1238e-07 7.44012e-07 0
6.65858e-07 6.97247e-07 6.6323e-07 6.94247e-07 6.65858e-07 6.97247e-07 6.6323e-07 6.94247e-07 0
7.20746e-07 7.53558e-07 7.17433e-07 7.49759e-07 7.20746e-07 7.53558e-07 7.17433e-07 7.49759e-07 0
7.78102e-07 8.12349e-07 7.7396e-07 8.07752e-07 7.78102e-07 8.12349e-07 7.7396e-07 8.07752e-07 0
8.37976e-07 8.73747e-07 8.33042e-07 8.68347e-07 8.37976e-07 8.73747e-07 8.33042e-07 8.68347e-07 0
9.00508e-07 9.37859e-07 8.94764e-07 9.31635e-07 9.00508e-07 9.37859e-07 8.94764e-07 9.31635e-07 0
9.65777e-07 1.00471e-06 9.59187e-07 9.97598e-07 9.65777e-07 1.00471e-06 9.59187e-07 9.97598e-07 0
1.03379e-06 1.0743e-06 1.02627e-06 1.06621e-06 1.03379e-06 1.0743e-06 1.02627e-06 1.06621e-06 0
1.10452e-06 1.14658e-06 1.09598e-06 1.1374e-06 1.10452e-06 1.14658e-06 1.09598e-06 1.1374e-06 0
1.17791e-06 1.22149e-06 1.16823e-06 1.21108e-06 1.17791e-06 1.22149e-06 1.16823e-06 1.21108e-06 0
7.27284e-07 7.60831e-07 7.23383e-07 7.56521e-07 7.27284e-07 7.60831e-07 7.23383e-07 7.56521e-07 0
7.85927e-07 8.20949e-07 7.81305e-07 8.15881e-07 7.85927e-07 8.20949e-07 7.81305e-07 8.15881e-07 0
8.47158e-07 8.83748e-07 8.41754e-07 8.77869e-07 8.47158e-07 8.83748e-07 8.41754e-07 8.77869e-07 0
9.11128e-07 9.49353e-07 9.04889e-07 9.42603e-07 9.11128e-07 9.49353e-07 9.04889e-07 9.42603e-07 0
9.7794e-07 1.01783e-06 9.70799e-07 1.01013e-06 9.7794e-07 1.01783e-06 9.70799e-07 1.01013e-06 0
1.04764e-06 1.08921e-06 1.03951e-06 1.08046e-06 1.04764e-06 1.08921e-06 1.03951e-06 1.08046e-06 0
1.12025e-06 1.1635e-06 1.11102e-06 1.15357e-06 1.12025e-06 1.1635e-06 1.11102e-06 1.15357e-06 0
7.34853e-07 7.69107e-07 7.30354e-07 7.642e-07 7.34853e-07 7.69107e-07 7.30354e-07 7.642e-07 0
7.94744e-07 8.30539e-07 7.89524e-07 8.24872e-07 7.94744e-07 8.30539e-07 7.89524e-07 8.24872e-07 0
8.57335e-07 8.94758e-07 8.51329e-07 8.88269e-07 8.57335e-07 8.94758e-07 8.51329e-07 8.88269e-07 0
9.22773e-07 9.61901e-07 9.15916e-07 9.54519e-07 9.22773e-07 9.61901e-07 9.15916e-07 9.54519e-07 0
9.91181e-07 1.03207e-06 9.83397e-07 1.0237e-06 9.91181e-07 1.03207e-06 9.83397e-07 1.0237e-06 0
1.06265e-06 1.10533e-06 1.05384e-06 1.09587e-06 1.06265e-06 1.10533e-06 1.05384e-06 1.09587e-06 0
1.13723e-06 1.18172e-06 1.12727e-06 1.17104e-06 1.13723e-06 1.18172e-06 1.12727e-06 1.17104e-06 0
7.43476e-07 7.78435e-07 7.38365e-07 7.72917e-07 7.43476e-07 7.78435e-07 7.38365e-07 7.72917e-07 0
8.04614e-07 8.41185e-07 7.98783e-07 8.34906e-07 8.04614e-07 8.41185e-07 7.98783e-07 8.34906e-07 0
8.68574e-07 9.06843e-07 8.61952e-07 8.99731e-07 8.68574e-07 9.06843e-07 8.61952e-07 8.99731e-07 0
9.35506e-07 9.75561e-07 9.28018e-07 9.67534e-07 9.35506e-07 9.75561e-07 9.28018e-07 9.67534e-07 0
1.00556e-06 1.04747e-06 9.97114e-07 1.03843e-06 1.00556e-06 1.04747e-06 9.97114e-07 1.03843e-06 0
1.07885e-06 1.12269e-06 1.06934e-06 1.11251e-06 1.07885e-06 1.12269e-06 1.06934e-06 1.11251e-06 0
7.53167e-07 7.88828e-07 7.47439e-07 7.82695e-07 7.53167e-07 7.88828e-07 7.47439e-07 7.82695e-07 0
8.15548e-07 8.52898e-07 8.09102e-07 8.46002e-07 8.15548e-07 8.52898e-07 8.09102e-07 8.46002e-07 0
8.80886e-07 9.20015e-07 8.73643e-07 9.12274e-07 8.80886e-07 9.20015e-07 8.73643e-07 9.12274e-07 0
9.4934e-07 9.90346e-07 9.41215e-07 9.81669e-07 9.4934e-07 9.90346e-07 9.41215e-07 9.81669e-07 0
1.02108e-06 1.06405e-06 1.01197e-06 1.05433e-06 1.02108e-06 1.06405e-06 1.01197e-06 1.05433e-06 0
1.09626e-06 1.1413e-06 1.08605e-06 1.1304e-06 1.09626e-06 1.1413e-06 1.08605e-06 1.1304e-06 0
7.63918e-07 8.00278e-07 7.57579e-07 7.93536e-07 7.63918e-07 8.00278e-07 7.57579e-07 7.93536e-07 0
8.27539e-07 8.65673e-07 8.20485e-07 8.58165e-07 8.27539e-07 8.65673e-07 8.20485e-07 8.58165e-07 0
8.94266e-07 9.34267e-07 8.86408e-07 9.25904e-07 8.94266e-07 9.34267e-07 8.86408e-07 9.25904e-07 0
9.64267e-07 1.00625e-06 9.55512e-07 9.96928e-07 9.64267e-07 1.00625e-06 9.55512e-07 9.96928e-07 0
1.03774e-06 1.08183e-06 1.02798e-06 1.07142e-06 1.03774e-06 1.08183e-06 1.02798e-06 1.07142e-06 0
1.11489e-06 1.16116e-06 1.10398e-06 1.14954e-06 1.11489e-06 1.16116e-06 1.10398e-06 1.14954e-06 0
7.75689e-07 8.12747e-07 7.68767e-07 8.05422e-07 7.75689e-07 8.12747e-07 7.68767e-07 8.05422e-07 0
8.40552e-07 8.79474e-07 8.32913e-07 8.71379e-07 8.40552e-07 8.79474e-07 8.32913e-07 8.71379e-07 0
9.08679e-07 9.49567e-07 9.00229e-07 9.40603e-07 9.08679e-07 9.49567e-07 9.00229e-07 9.40603e-07 0
9.80257e-07 1.02324e-06 9.70893e-07 1.01329e-06 9.80257e-07 1.02324e-06 9.70893e-07 1.01329e-06 0
1.05551e-06 1.10074e-06 1.04512e-06 1.08968e-06 1.05551e-06 1.10074e-06 1.04512e-06 1.08968e-06 0
7.2542e-07 7.61396e-07 7.18596e-07 7.5423e-07 7.2542e-07 7.61396e-07 7.18596e-07 7.5423e-07 0
7.88384e-07 8.26157e-07 7.80942e-07 8.183e-07 7.88384e-07 8.26157e-07 7.80942e-07 8.183e-07 0
8.54513e-07 8.94229e-07 8.46336e-07 8.85593e-07 8.54513e-07 8.94229e-07 8.46336e-07 8.85593e-07 0
9.24054e-07 9.65844e-07 9.15059e-07 9.56326e-07 9.24054e-07 9.65844e-07 9.15059e-07 9.56326e-07 0
9.97239e-07 1.04125e-06 9.87311e-07 1.03072e-06 9.97239e-07 1.04125e-06 9.87311e-07 1.03072e-06 0
1.07432e-06 1.12072e-06 1.06333e-06 1.10905e-06 1.07432e-06 1.12072e-06 1.06333e-06 1.10905e-06 0
7.37889e-07 7.74462e-07 7.30588e-07 7.66814e-07 7.37889e-07 7.74462e-07 7.30588e-07 7.66814e-07 0
8.01923e-07 8.40394e-07 7.94003e-07 8.32074e-07 8.01923e-07 8.40394e-07 7.94003e-07 8.32074e-07 0
8.69298e-07 9.09812e-07 8.60662e-07 9.00714e-07 8.69298e-07 9.09812e-07 8.60662e-07 9.00714e-07 0
9.40264e-07 9.82972e-07 9.30804e-07 9.72979e-07 9.40264e-07 9.82972e-07 9.30804e-07 9.72979e-07 0
1.01509e-06 1.06017e-06 1.00468e-06 1.04913e-06 1.01509e-06 1.06017e-06 1.00468e-06 1.04913e-06 0
1.09407e-06 1.14166e-06 1.08255e-06 1.12945e-06 1.09407e-06 1.14166e-06 1.08255e-06 1.12945e-06 0
5.74623e-07 6.06604e-07 5.68188e-07 5.99986e-07 5.74623e-07 6.06604e-07 5.68188e-07 5.99986e-07 0
6.30576e-07 6.64098e-07 6.2381e-07 6.57111e-07 6.30576e-07 6.64098e-07 6.2381e-07 6.57111e-07 0
6.89269e-07 7.24528e-07 6.82101e-07 7.17087e-07 6.89269e-07 7.24528e-07 6.82101e-07 7.17087e-07 0
7.51024e-07 7.88169e-07 7.43364e-07 7.80182e-07 7.51024e-07 7.88169e-07 7.43364e-07 7.80182e-07 0
8.16092e-07 8.55253e-07 8.0784e-07 8.46602e-07 8.16092e-07 8.55253e-07 8.0784e-07 8.46602e-07 0
8.84701e-07 9.26018e-07 8.75736e-07 9.16588e-07 8.84701e-07 9.26018e-07 8.75736e-07 9.16588e-07 0
9.57103e-07 1.00074e-06 9.47307e-07 9.90406e-07 9.57103e-07 1.00074e-06 9.47307e-07 9.90406e-07 0
1.0336e-06 1.07976e-06 1.02284e-06 1.06837e-06 1.0336e-06 1.07976e-06 1.02284e-06 1.06837e-06 0
5.86177e-07 6.18418e-07 5.79444e-07 6.11543e-07 5.86177e-07 6.18418e-07 5.79444e-07 6.11543e-07 0
6.4261e-07 6.76474e-07 6.35613e-07 6.69286e-07 6.4261e-07 6.76474e-07 6.35613e-07 6.69286e-07 0
7.01932e-07 7.37635e-07 6.94582e-07 7.30032e-07 7.01932e-07 7.37635e-07 6.94582e-07 7.30032e-07 0
7.64496e-07 8.02197e-07 7.56685e-07 7.94067e-07 7.64496e-07 8.02197e-07 7.56685e-07 7.94067e-07 0
8.30574e-07 8.7042e-07 8.22182e-07 8.61632e-07 8.30574e-07 8.7042e-07 8.22182e-07 8.61632e-07 0
9.00413e-07 9.42534e-07 8.91311e-07 9.32967e-07 9.00413e-07 9.42534e-07 8.91311e-07 9.32967e-07 0
9.74257e-07 1.01883e-06 9.64321e-07 1.00835e-06 9.74257e-07 1.01883e-06 9.64321e-07 1.00835e-06 0
1.05244e-06 1.0997e-06 1.04152e-06 1.08815e-06 1.05244e-06 1.0997e-06 1.04152e-06 1.08815e-06 0
5.97832e-07 6.30284e-07 5.91107e-07 6.23441e-07 5.97832e-07 6.30284e-07 5.91107e-07 6.23441e-07 0
6.54671e-07 6.88854e-07 6.47718e-07 6.81718e-07 6.54671e-07 6.88854e-07 6.47718e-07 6.81718e-07 0
7.14575e-07 7.50676e-07 7.0729e-07 7.43166e-07 7.14575e-07 7.50676e-07 7.0729e-07 7.43166e-07 0
7.77857e-07 8.16031e-07 7.70169e-07 8.08082e-07 7.77857e-07 8.16031e-07 7.70169e-07 8.08082e-07 0
8.44832e-07 8.85366e-07 8.36642e-07 8.76778e-07 8.44832e-07 8.85366e-07 8.36642e-07 8.76778e-07 0
9.15914e-07 9.58862e-07 9.07004e-07 9.49471e-07 9.15914e-07 9.58862e-07 9.07004e-07 9.49471e-07 0
9.91244e-07 1.0368e-06 9.81469e-07 1.02645e-06 9.91244e-07 1.0368e-06 9.81469e-07 1.02645e-06 0
1.07116e-06 1.11953e-06 1.06037e-06 1.1081e-06 1.07116e-06 1.11953e-06 1.06037e-06 1.1081e-06 0
0 0 0 0 0 0 0 0 0
0 0 0 0 0 0 0 0 0
0 0 0 0 0 0 0 0 0
0 0 0 0 0 0 0 0 0
0 0 0 0 0 0 0 0 0
0 0 0 0 0 0 0 0 0
0 0 0 0 0 0 0 0 0
0 0 0 0 0 0 0 0 0
0 0 0 0 0 0 0 0 0
0 0 0 0 0 0 0 0 0
0 0 0 0 0 0 0 0 0
0 0 0 0 0 0 0 0 0
0 0 0 0 0 0 0 0 0
0 0 0 0 0 0 0 0 0
0 0 0 0 0 0 0 0 0
0 0 0 0 0 0 0 0 0
0 0 0 0 0 0 0 0 0
0 0 0 0 0 0 0 0 0
0 0 0 0 0 0 0 0 0
0 0 0 0 0 0 0 0 0
0 0 0 0 0 0 0 0 0
0 0 0 0 0 0 0 0 0
0 0 0 0 0 0 0 0 0
0 0 0 0 0 0 0 0 0
0 0 0 0 0 0 0 0 0
0 0 0 0 0 0 0 0 0
0 0 0 0 0 0 0 0 0
0 0 0 0 0 0 0 0 0
0 0 0 0 0 0 0 0 0
0 0 0 0 0 0 0 0 0
0 0 0 0 0 0 0 0 0
0 0 0 0 0 0 0 0 0
0 0 0 0 0 0 0 0 0
0 0 0 0 0 0 0 0 0
0 0 0 0 0 0 0 0 0
0 0 0 0 0 0 0 0 0
0 0 0 0 0 0 0 0 0
0 0 0 0 0 0 0 0 0
0 0 0 0 0 0 0 0 0
0 0 0 0 0 0 0 0 0
0 0 0 0 0 0 0 0 0
0 0 0 0 0 0 0 0 0
0 0 0 0 0 0 0 0 0
0 0 0 0 0 0 0 0 0
0 0 0 0 0 0 0 0 0
0 0 0 0 0 0 0 0 0
0 0 0 0 0 0 0 0 0
0 0 0 0 0 0 0 0 0
0 0 0 0 0 0 0 0 0
0 0 0 0 0 0 0 0 0
0 0 0 0 0 0 0 0 0
0 0 0 0 0 0 0 0 0
0 0 0 0 0 0 0 0 0
0 0 0 0 0 0 0 0 0
0 0 0 0 0 0 0 0 0
0 0 0 0 0 0 0 0 0
0 0 0 0 0 0 0 0 0
0 0 0 0 0 0 0 0 0
0 0 0 0 0 0 0 0 0
0 0 0 0 0 0 0 0 0
0 0 0 0 0 0 0 0 0
0 0 0 0 0 0 0 0 0
0 0 0 0 0 0 0 0 0
0 0 0 0 0 0 0 0 0
0 0 0 0 0 0 0 0 0
0 0 0 0 0 0 0 0 0
0 0 0 0 0 0 0 0 0
0 0 0 0 0 0 0 0 0
0 0 0 0 0 0 0 0 0
0 0 0 0 0 0 0 0 0
0 0 0 0 0 0 0 0 0
0 0 0 0 0 0 0 0 0
0 0 0 0 0 0 0 0 0
0 0 0 0 0 0 0 0 0
0 0 0 0 0 0 0 0 0
0 0 0 0 0 0 0 0 0
0 0 0 0 0 0 0 0 0
0 0 0 0 0 0 0 0 0
0 0 0 0 0 0 0 0 0
0 0 0 0 0 0 0 0 0
0 0 0 0 0 0 0 0 0
0 0 0 0 0 0 0 0 0
0 0 0 0 0 0 0 0 0
0 0 0 0 0 0 0 0 0
0 0 0 0 0 0 0 0 0
0 0 0 0 0 0 0 0 0
0 0 0 0 0 0 0 0 0
0 0 0 0 0 0 0 0 0
0 0 0 0 0 0 0 0 0
0 0 0 0 0 0 0 0 0
0 0 0 0 0 0 0 0 0
0 0 0 0 0 0 0 0 0
0 0 0 0 0 0 0 0 0
0 0 0 0 0 0 0 0 0
0 0 0 0 0 0 0 0 0
0 0 0 0 0 0 0 0 0
0 0 0 0 0 0 0 0 0
0 0 0 0 0 0 0 0 0
0 0 0 0 0 0 0 0 0
0 0 0 0 0 0 0 0 0
0 0 0 0 0 0 0 0 0
0 0 0 0 0 0 0 0 0
0 0 0 0 0 0 0 0 0
0 0 0 0 0 0 0 0 0
0 0 0 0 0 0 0 0 0
0 0 0 0 0 0 0 0 0
0 0 0 0 0 0 0 0 0
0 0 0 0 0 0 0 0 0
0 0 0 0 0 0 0 0 0
0 0 0 0 0 0 0 0 0
0 0 0 0 0 0 0 0 0
0 0 0 0 0 0 0 0 0
0 0 0 0 0 0 0 0 0
0 0 0 0 0 0 0 0 0
0 0 0 0 0 0 0 0 0
0 0 0 0 0 0 0 0 0
0 0 0 0 0 0 0 0 0
0 0 0 0 0 0 0 0 0
0 0 0 0 0 0 0 0 0
0 0 0 0 0 0 0 0 0
0 0 0 0 0 0 0 0 0
0 0 0 0 0 0 0 0 0
0 0 0 0 0 0 0 0 0
0 0 0 0 0 0 0 0 0
0 0 0 0 0 0 0 0 0
0 0 0 0 0 0 0 0 0
0 0 0 0 0 0 0 0 0
0 0 0 0 0 0 0 0 0
0 0 0 0 0 0 0 0 0
0 0 0 0 0 0 0 0 0
0 0 0 0 0 0 0 0 0
0 0 0 0 0 0 0 0 0
0 0 0 0 0 0 0 0 0
0 0 0 0 0 0 0 0 0
0 0 0 0 0 0 0 0 0
0 0 0 0 0 0 0 0 0
0 0 0 0 0 0 0 0 0
0 0 0 0 0 0 0 0 0
0 0 0 0 0 0 0 0 0
0 0 0 0 0 0 0 0 0
0 0 0 0 0 0 0 0 0
0 0 0 0 0 0 0 0 0
0 0 0 0 0 0 0 0 0
0 0 0 0 0 0 0 0 0
0 0 0 0 0 0 0 0 0
0 0 0 0 0 0 0 0 0
0 0 0 0 0 0 0 0 0
0 0 0 0 0 0 0 0 0
0 0 0 0 0 0 0 0 0
0 0 0 0 0 0 0 0 0
0 0 0 0 0 0 0 0 0
0 0 0 0 0 0 0 0 0
0 0 0 0 0 0 0 0 0
0 0 0 0 0 0 0 0 0
0 0 0 0 0 0 0 0 0
0 0 0 0 0 0 0 0 0
0 0 0 0 0 0 0 0 0
0 0 0 0 0 0 0 0 0
0 0 0 0 0 0 0 0 0
0 0 0 0 0 0 0 0 0
0 0 0 0 0 0 0 0 0
0 0 0 0 0 0 0 0 0
0 0 0 0 0 0 0 0 0
0 0 0 0 0 0 0 0 0
0 0 0 0 0 0 0 0 0
0 0 0 0 0 0 0 0 0
0 0 0 0 0 0 0 0 0
0 0 0 0 0 0 0 0 0
0 0 0 0 0 0 0 0 0
0 0 0 0 0 0 0 0 0
0 0 0 0 0 0 0 0 0
0 0 0 0 0 0 0 0 0
0 0 0 0 0 0 0 0 0
0 0 0 0 0 0 0 0 0
0 0 0 0 0 0 0 0 0
0 0 0 0 0 0 0 0 0
0 0 0 0 0 0 0 0 0
0 0 0 0 0 0 0 0 0
0 0 0 0 0 0 0 0 0
0 0 0 0 0 0 0 0 0
0 0 0 0 0 0 0 0 0
0 0 0 0 0 0 0 0 0
0 0 0 0 0 0 0 0 0
0 0 0 0 0 0 0 0 0
0 0 0 0 0 0 0 0 0
0 0 0 0 0 0 0 0 0
0 0 0 0 0 0 0 0 0
0 0 0 0 0 0 0 0 0
0 0 0 0 0 0 0 0 0
0 0 0 0 0 0 0 0 0
0 0 0 0 0 0 0 0 0
0 0 0 0 0 0 0 0 0
0 0 0 0 0 0 0 0 0
0 0 0 0 0 0 0 0 0
0 0 0 0 0 0 0 0 0
0 0 0 0 0 0 0 0 0
0 0 0 0 0 0 0 0 0
0 0 0 0 0 0 0 0 0
0 0 0 0 0 0 0 0 0
0 0 0 0 0 0 0 0 0
0 0 0 0 0 0 0 0 0
0 0 0 0 0 0 0 0 0
0 0 0 0 0 0 0 0 0
0 0 0 0 0 0 0 0 0
0 0 0 0 0 0 0 0 0
0 0 0 0 0 0 0 0 0
0 0 0 0 0 0 0 0 0
0 0 0 0 0 0 0 0 0
0 0 0 0 0 0 0 0 0
0 0 0 0 0 0 0 0 0
0 0 0 0 0 0 0 0 0
0 0 0 0 0 0 0 0 0
0 0 0 0 0 0 0 0 0
0 0 0 0 0 0 0 0 0
0 0 0 0 0 0 0 0 0
0 0 0 0 0 0 0 0 0
0 0 0 0 0 0 0 0 0
0 0 0 0 0 0 0 0 0
0 0 0 0 0 0 0 0 0
0 0 0 0 0 0 0 0 0
0 0 0 0 0 0 0 0 0
0 0 0 0 0 0 0 0 0
0 0 0 0 0 0 0 0 0
0 0 0 0 0 0 0 0 0
0 0 0 0 0 0 0 0 0
0 0 0 0 0 0 0 0 0
0 0 0 0 0 0 0 0 0
0 0 0 0 0 0 0 0 0
0 0 0 0 0 0 0 0 0
0 0 0 0 0 0 0 0 0
0 0 0 0 0 0 0 0 0
0 0 0 0 0 0 0 0 0
0 0 0 0 0 0 0 0 0
0 0 0 0 0 0 0 0 0
0 0 0 0 0 0 0 0 0
0 0 0 0 0 0 0 0 0
0 0 0 0 0 0 0 0 0
0 0 0 0 0 0 0 0 0
0 0 0 0 0 0 0 0 0
0 0 0 0 0 0 0 0 0
0 0 0 0 0 0 0 0 0
0 0 0 0 0 0 0 0 0
0 0 0 0 0 0 0 0 0
0 0 0 0 0 0 0 0 0
0 0 0 0 0 0 0 0 0
0 0 0 0 0 0 0 0 0
0 0 0 0 0 0 0 0 0
0 0 0 0 0 0 0 0 0
0 0 0 0 0 0 0 0 0
0 0 0 0 0 0 0 0 0
0 0 0 0 0 0 0 0 0
0 0 0 0 0 0 0 0 0
0 0 0 0 0 0 0 0 0
0 0 0 0 0 0 0 0 0
0 0 0 0 0 0 0 0 0
0 0 0 0 0 0 0 0 0
0 0 0 0 0 0 0 0 0
0 0 0 0 0 0 0 0 0
0 0 0 0 0 0 0 0 0
0 0 0 0 0 0 0 0 0
0 0 0 0 0 0 0 0 0
0 0 0 0 0 0 0 0 0
0 0 0 0 0 0 0 0 0
0 0 0 0 0 0 0 0 0
0 0 0 0 0 0 0 0 0
0 0 0 0 0 0 0 0 0
0 0 0 0 0 0 0 0 0
0 0 0 0 0 0 0 0 0
0 0 0 0 0 0 0 0 0
0 0 0 0 0 0 0 0 0
0 0 0 0 0 0 0 0 0
0 0 0 0 0 0 0 0 0
0 0 0 0 0 0 0 0 0
0 0 0 0 0 0 0 0 0
0 0 0 0 0 0 0 0 0
0 0 0 0 0 0 0 0 0
0 0 0 0 0 0 0 0 0
0 0 0 0 0 0 0 0 0
0 0 0 0 0 0 0 0 0
0 0 0 0 0 0 0 0 0
0 0 0 0 0 0 0 0 0
0 0 0 0 0 0 0 0 0
0 0 0 0 0 0 0 0 0
0 0 0 0 0 0 0 0 0
0 0 0 0 0 0 0 0 0
0 0 0 0 0 0 0 0 0
0 0 0 0 0 0 0 0 0
0 0 0 0 0 0 0 0 0
0 0 0 0 0 0 0 0 0
0 0 0 0 0 0 0 0 0
0 0 0 0 0 0 0 0 0
0 0 0 0 0 0 0 0 0
0 0 0 0 0 0 0 0 0
0 0 0 0 0 0 0 0 0
0 0 0 0 0 0 0 0 0
0 0 0 0 0 0 0 0 0
0 0 0 0 0 0 0 0 0
0 0 0 0 0 0 0 0 0
0 0 0 0 0 0 0 0 0
0 0 0 0 0 0 0 0 0
0 0 0 0 0 0 0 0 0
0 0 0 0 0 0 0 0 0
0 0 0 0 0 0 0 0 0
0 0 0 0 0 0 0 0 0
0 0 0 0 0 0 0 0 0
0 0 0 0 0 0 0 0 0
0 0 0 0 0 0 0 0 0
0 0 0 0 0 0 0 0 0
0 0 0 0 0 0 0 0 0
0 0 0 0 0 0 0 0 0
0 0 0 0 0 0 0 0 0
0 0 0 0 0 0 0 0 0
0 0 0 0 0 0 0 0 0
0 0 0 0 0 0 0 0 0
0 0 0 0 0 0 0 0 0
0 0 0 0 0 0 0 0 0
0 0 0 0 0 0 0 0 0
0 0 0 0 0 0 0 0 0
0 0 0 0 0 0 0 0 0
0 0 0 0 0 0 0 0 0
0 0 0 0 0 0 0 0 0
0 0 0 0 0 0 0 0 0
0 0 0 0 0 0 0 0 0
0 0 0 0 0 0 0 0 0
0 0 0 0 0 0 0 0 0
0 0 0 0 0 0 0 0 0
0 0 0 0 0 0 0 0 0
0 0 0 0 0 0 0 0 0
0 0 0 0 0 0 0 0 0
0 0 0 0 0 0 0 0 0
0 0 0 0 0 0 0 0 0
0 0 0 0 0 0 0 0 0
0 0 0 0 0 0 0 0 0
0 0 0 0 0 0 0 0 0
0 0 0 0 0 0 0 0 0
0 0 0 0 0 0 0 0 0
0 0 0 0 0 0 0 0 0
0 0 0 0 0 0 0 0 0
0 0 0 0 0 0 0 0 0
0 0 0 0 0 0 0 0 0
0 0 0 0 0 0 0 0 0
0 0 0 0 0 0 0 0 0
0 0 0 0 0 0 0 0 0
0 0 0 0 0 0 0 0 0
0 0 0 0 0 0 0 0 0
0 0 0 0 0 0 0 0 0
0 0 0 0 0 0 0 0 0
0 0 0 0 0 0 0 0 0
0 0 0 0 0 0 0 0 0
0 0 0 0 0 0 0 0 0
0 0 0 0 0 0 0 0 0
0 0 0 0 0 0 0 0 0
0 0 0 0 0 0 0 0 0
0 0 0 0 0 0 0 0 0
0 0 0 0 0 0 0 0 0
0 0 0 0 0 0 0 0 0
0 0 0 0 0 0 0 0 0
0 0 0 0 0 0 0 0 0
0 0 0 0 0 0 0 0 0
0 0 0 0 0 0 0 0 0
0 0 0 0 0 0 0 0 0
0 0 0 0 0 0 0 0 0
0 0 0 0 0 0 0 0 0
0 0 0 0 0 0 0 0 0
0 0 0 0 0 0 0 0 0
0 0 0 0 0 0 0 0 0
0 0 0 0 0 0 0 0 0
0 0 0 0 0 0 0 0 0
0 0 0 0 0 0 0 0 0
0 0 0 0 0 0 0 0 0
0 0 0 0 0 0 0 0 0
0 0 0 0 0 0 0 0 0
0 0 0 0 0 0 0 0 0
0 0 0 0 0 0 0 0 0
0 0 0 0 0 0 0 0 0
0 0 0 0 0 0 0 0 0
0 0 0 0 0 0 0 0 0
0 0 0 0 0 0 0 0 0
0 0 0 0 0 0 0 0 0
0 0 0 0 0 0 0 0 0
0 0 0 0 0 0 0 0 0
0 0 0 0 0 0 0 0 0
0 0 0 0 0 0 0 0 0
0 0 0 0 0 0 0 0 0
0 0 0 0 0 0 0 0 0
0 0 0 0 0 0 0 0 0
0 0 0 0 0 0 0 0 0
0 0 0 0 0 0 0 0 0
0 0 0 0 0 0 0 0 0
0 0 0 0 0 0 0 0 0
0 0 0 0 0 0 0 0 0
0 0 0 0 0 0 0 0 0
0 0 0 0 0 0 0 0 0
0 0 0 0 0 0 0 0 0
0 0 0 0 0 0 0 0 0
0 0 0 0 0 0 0 0 0
0 0 0 0 0 0 0 0 0
0 0 0 0 0 0 0 0 0
0 0 0 0 0 0 0 0 0
0 0 0 0 0 0 0 0 0
0 0 0 0 0 0 0 0 0
0 0 0 0 0 0 0 0 0
0 0 0 0 0 0 0 0 0
0 0 0 0 0 0 0 0 0
0 0 0 0 0 0 0 0 0
0 0 0 0 0 0 0 0 0
0 0 0 0 0 0 0 0 0
0 0 0 0 0 0 0 0 0
0 0 0 0 0 0 0 0 0
0 0 0 0 0 0 0 0 0
0 0 0 0 0 0 0 0 0
0 0 0 0 0 0 0 0 0
0 0 0 0 0 0 0 0 0
0 0 0 0 0 0 0 0 0
0 0 0 0 0 0 0 0 0
0 0 0 0 0 0 0 0 0
0 0 0 0 0 0 0 0 0
0 0 0 0 0 0 0 0 0
0 0 0 0 0 0 0 0 0
0 0 0 0 0 0 0 0 0
0 0 0 0 0 0 0 0 0
0 0 0 0 0 0 0 0 0
0 0 0 0 0 0 0 0 0
0 0 0 0 0 0 0 0 0
0 0 0 0 0 0 0 0 0
0 0 0 0 0 0 0 0 0
0 0 0 0 0 0 0 0 0
0 0 0 0 0 0 0 0 0
0 0 0 0 0 0 0 0 0
0 0 0 0 0 0 0 0 0
0 0 0 0 0 0 0 0 0
0 0 0 0 0 0 0 0 0
0 0 0 0 0 0 0 0 0
0 0 0 0 0 0 0 0 0
0 0 0 0 0 0 0 0 0
0 0 0 0 0 0 0 0 0
0 0 0 0 0 0 0 0 0
0 0 0 0 0 0 0 0 0
0 0 0 0 0 0 0 0 0
0 0 0 0 0 0 0 0 0
0 0 0 0 0 0 0 0 0
0 0 0 0 0 0 0 0 0
0 0 0 0 0 0 0 0 0
0 0 0 0 0 0 0 0 0
0 0 0 0 0 0 0 0 0
0 0 0 0 0 0 0 0 0
0 0 0 0 0 0 0 0 0
0 0 0 0 0 0 0 0 0
0 0 0 0 0 0 0 0 0
0 0 0 0 0 0 0 0 0
0 0 0 0 0 0 0 0 0
0 0 0 0 0 0 0 0 0
0 0 0 0 0 0 0 0 0
0 0 0 0 0 0 0 0 0
0 0 0 0 0 0 0 0 0
0 0 0 0 0 0 0 0 0
0 0 0 0 0 0 0 0 0
0 0 0 0 0 0 0 0 0
0 0 0 0 0 0 0 0 0
0 0 0 0 0 0 0 0 0
0 0 0 0 0 0 0 0 0
0 0 0 0 0 0 0 0 0
0 0 0 0 0 0 0 0 0
0 0 0 0 0 0 0 0 0
0 0 0 0 0 0 0 0 0
0 0 0 0 0 0 0 0 0
0 0 0 0 0 0 0 0 0
0 0 0 0 0 0 0 0 0
0 0 0 0 0 0 0 0 0
0 0 0 0 0 0 0 0 0
0 0 0 0 0 0 0 0 0
0 0 0 0 0 0 0 0 0
0 0 0 0 0 0 0 0 0
0 0 0 0 0 0 0 0 0
0 0 0 0 0 0 0 0 0
0 0 0 0 0 0 0 0 0
0 0 0 0 0 0 0 0 0
0 0 0 0 0 0 0 0 0
0 0 0 0 0 0 0 0 0
0 0 0 0 0 0 0 0 0
0 0 0 0 0 0 0 0 0
0 0 0 0 0 0 0 0 0
0 0 0 0 0 0 0 0 0
0 0 0 0 0 0 0 0 0
0 0 0 0 0 0 0 0 0
0 0 0 0 0 0 0 0 0
0 0 0 0 0 0 0 0 0
0 0 0 0 0 0 0 0 0
0 0 0 0 0 0 0 0 0
0 0 0 0 0 0 0 0 0
0 0 0 0 0 0 0 0 0
0 0 0 0 0 0 0 0 0
0 0 0 0 0 0 0 0 0
0 0 0 0 0 0 0 0 0
0 0 0 0 0 0 0 0 0
0 0 0 0 0 0 0 0 0
0 0 0 0 0 0 0 0 0
0 0 0 0 0 0 0 0 0
0 0 0 0 0 0 0 0 0
0 0 0 0 0 0 0 0 0
0 0 0 0 0 0 0 0 0
0 0 0 0 0 0 0 0 0
0 0 0 0 0 0 0 0 0
0 0 0 0 0 0 0 0 0
0 0 0 0 0 0 0 0 0
0 0 0 0 0 0 0 0 0
0 0 0 0 0 0 0 0 0
0 0 0 0 0 0 0 0 0
0 0 0 0 0 0 0 0 0
0 0 0 0 0 0 0 0 0
0 0 0 0 0 0 0 0 0
0 0 0 0 0 0 0 0 0
0 0 0 0 0 0 0 0 0
0 0 0 0 0 0 0 0 0
0 0 0 0 0 0 0 0 0
0 0 0 0 0 0 0 0 0
0 0 0 0 0 0 0 0 0
0 0 0 0 0 0 0 0 0
0 0 0 0 0 0 0 0 0
0 0 0 0 0 0 0 0 0
0 0 0 0 0 0 0 0 0
0 0 0 0 0 0 0 0 0
0 0 0 0 0 0 0 0 0
0 0 0 0 0 0 0 0 0
0 0 0 0 0 0 0 0 0
0 0 0 0 0 0 0 0 0
0 0 0 0 0 0 0 0 0
0 0 0 0 0 0 0 0 0
0 0 0 0 0 0 0 0 0
0 0 0 0 0 0 0 0 0
0 0 0 0 0 0 0 0 0
0 0 0 0 0 0 0 0 0
0 0 0 0 0 0 0 0 0
0 0 0 0 0 0 0 0 0
0 0 0 0 0 0 0 0 0
0 0 0 0 0 0 0 0 0
0 0 0 0 0 0 0 0 0
0 0 0 0 0 0 0 0 0
0 0 0 0 0 0 0 0 0
0 0 0 0 0 0 0 0 0
0 0 0 0 0 0 0 0 0
0 0 0 0 0 0 0 0 0
0 0 0 0 0 0 0 0 0
0 0 0 0 0 0 0 0 0
0 0 0 0 0 0 0 0 0
0 0 0 0 0 0 0 0 0
0 0 0 0 0 0 0 0 0
0 0 0 0 0 0 0 0 0
0 0 0 0 0 0 0 0 0
0 0 0 0 0 0 0 0 0
0 0 0 0 0 0 0 0 0
0 0 0 0 0 0 0 0 0
0 0 0 0 0 0 0 0 0
0 0 0 0 0 0 0 0 0
0 0 0 0 0 0 0 0 0
0 0 0 0 0 0 0 0 0
0 0 0 0 0 0 0 0 0
0 0 0 0 0 0 0 0 0
0 0 0 0 0 0 0 0 0
0 0 0 0 0 0 0 0 0
0 0 0 0 0 0 0 0 0
0 0 0 0 0 0 0 0 0
0 0 0 0 0 0 0 0 0
0 0 0 0 0 0 0 0 0
0 0 0 0 0 0 0 0 0
0 0 0 0 0 0 0 0 0
0 0 0 0 0 0 0 0 0
0 0 0 0 0 0 0 0 0
0 0 0 0 0 0 0 0 0
0 0 0 0 0 0 0 0 0
0 0 0 0 0 0 0 0 0
0 0 0 0 0 0 0 0 0
0 0 0 0 0 0 0 0 0
0 0 0 0 0 0 0 0 0
0 0 0 0 0 0 0 0 0
0 0 0 0 0 0 0 0 0
0 0 0 0 0 0 0 0 0
0 0 0 0 0 0 0 0 0
0 0 0 0 0 0 0 0 0
0 0 0 0 0 0 0 0 0
0 0 0 0 0 0 0 0 0
0 0 0 0 0 0 0 0 0
0 0 0 0 0 0 0 0 0
0 0 0 0 0 0 0 0 0
0 0 0 0 0 0 0 0 0
0 0 0 0 0 0 0 0 0
0 0 0 0 0 0 0 0 0
0 0 0 0 0 0 0 0 0
0 0 0 0 0 0 0 0 0
0 0 0 0 0 0 0 0 0
0 0 0 0 0 0 0 0 0
0 0 0 0 0 0 0 0 0
0 0 0 0 0 0 0 0 0
0 0 0 0 0 0 0 0 0
0 0 0 0 0 0 0 0 0
0 0 0 0 0 0 0 0 0
0 0 0 0 0 0 0 0 0
0 0 0 0 0 0 0 0 0
0 0 0 0 0 0 0 0 0
0 0 0 0 0 0 0 0 0
0 0 0 0 0 0 0 0 0
0 0 0 0 0 0 0 0 0
0 0 0 0 0 0 0 0 0
0 0 0 0 0 0 0 0 0
0 0 0 0 0 0 0 0 0
0 0 0 0 0 0 0 0 0
0 0 0 0 0 0 0 0 0
0 0 0 0 0 0 0 0 0
0 0 0 0 0 0 0 0 0
0 0 0 0 0 0 0 0 0
0 0 0 0 0 0 0 0 0
0 0 0 0 0 0 0 0 0
0 0 0 0 0 0 0 0 0
0 0 0 0 0 0 0 0 0
0 0 0 0 0 0 0 0 0
0 0 0 0 0 0 0 0 0
0 0 0 0 0 0 0 0 0
0 0 0 0 0 0 0 0 0
0 0 0 0 0 0 0 0 0
0 0 0 0 0 0 0 0 0
0 0 0 0 0 0 0 0 0
0 0 0 0 0 0 0 0 0
0 0 0 0 0 0 0 0 0
0 0 0 0 0 0 0 0 0
0 0 0 0 0 0 0 0 0
0 0 0 0 0 0 0 0 0
0 0 0 0 0 0 0 0 0
0 0 0 0 0 0 0 0 0
0 0 0 0 0 0 0 0 0
0 0 0 0 0 0 0 0 0
0 0 0 0 0 0 0 0 0
0 0 0 0 0 0 0 0 0
0 0 0 0 0 0 0 0 0
0 0 0 0 0 0 0 0 0
0 0 0 0 0 0 0 0 0
0 0 0 0 0 0 0 0 0
0 0 0 0 0 0 0 0 0
0 0 0 0 0 0 0 0 0
0 0 0 0 0 0 0 0 0
0 0 0 0 0 0 0 0 0
0 0 0 0 0 0 0 0 0
0 0 0 0 0 0 0 0 0
0 0 0 0 0 0 0 0 0
0 0 0 0 0 0 0 0 0
0 0 0 0 0 0 0 0 0
0 0 0 0 0 0 0 0 0
0 0 0 0 0 0 0 0 0
0 0 0 0 0 0 0 0 0
0 0 0 0 0 0 0 0 0
0 0 0 0 0 0 0 0 0
0 0 0 0 0 0 0 0 0
0 0 0 0 0 0 0 0 0
0 0 0 0 0 0 0 0 0
0 0 0 0 0 0 0 0 0
0 0 0 0 0 0 0 0 0
0 0 0 0 0 0 0 0 0
0 0 0 0 0 0 0 0 0
0 0 0 0 0 0 0 0 0
0 0 0 0 0 0 0 0 0
0 0 0 0 0 0 0 0 0
0 0 0 0 0 0 0 0 0
0 0 0 0 0 0 0 0 0
0 0 0 0 0 0 0 0 0
0 0 0 0 0 0 0 0 0
0 0 0 0 0 0 0 0 0
0 0 0 0 0 0 0 0 0
0 0 0 0 0 0 0 0 0
0 0 0 0 0 0 0 0 0
0 0 0 0 0 0 0 0 0
0 0 0 0 0 0 0 0 0
0 0 0 0 0 0 0 0 0
0 0 0 0 0 0 0 0 0
0 0 0 0 0 0 0 0 0
0 0 0 0 0 0 0 0 0
0 0 0 0 0 0 0 0 0
0 0 0 0 0 0 0 0 0
0 0 0 0 0 0 0 0 0
0 0 0 0 0 0 0 0 0
0 0 0 0 0 0 0 0 0
0 0 0 0 0 0 0 0 0
0 0 0 0 0 0 0 0 0
0 0 0 0 0 0 0 0 0
0 0 0 0 0 0 0 0 0
0 0 0 0 0 0 0 0 0
0 0 0 0 0 0 0 0 0
0 0 0 0 0 0 0 0 0
0 0 0 0 0 0 0 0 0
0 0 0 0 0 0 0 0 0
0 0 0 0 0 0 0 0 0
0 0 0 0 0 0 0 0 0
0 0 0 0 0 0 0 0 0
0 0 0 0 0 0 0 0 0
0 0 0 0 0 0 0 0 0
0 0 0 0 0 0 0 0 0
0 0 0 0 0 0 0 0 0
0 0 0 0 0 0 0 0 0
0 0 0 0 0 0 0 0 0
0 0 0 0 0 0 0 0 0
0 0 0 0 0 0 0 0 0
0 0 0 0 0 0 0 0 0
0 0 0 0 0 0 0 0 0
0 0 0 0 0 0 0 0 0
0 0 0 0 0 0 0 0 0
0 0 0 0 0 0 0 0 0
0 0 0 0 0 0 0 0 0
0 0 0 0 0 0 0 0 0
0 0 0 0 0 0 0 0 0
0 0 0 0 0 0 0 0 0
0 0 0 0 0 0 0 0 0
0 0 0 0 0 0 0 0 0
0 0 0 0 0 0 0 0 0
0 0 0 0 0 0 0 0 0
0 0 0 0 0 0 0 0 0
0 0 0 0 0 0 0 0 0
0 0 0 0 0 0 0 0 0
0 0 0 0 0 0 0 0 0
0 0 0 0 0 0 0 0 0
0 0 0 0 0 0 0 0 0
0 0 0 0 0 0 0 0 0
0 0 0 0 0 0 0 0 0
0 0 0 0 0 0 0 0 0
0 0 0 0 0 0 0 0 0
0 0 0 0 0 0 0 0 0
0 0 0 0 0 0 0 0 0
0 0 0 0 0 0 0 0 0
0 0 0 0 0 0 0 0 0
0 0 0 0 0 0 0 0 0
0 0 0 0 0 0 0 0 0
0 0 0 0 0 0 0 0 0
0 0 0 0 0 0 0 0 0
0 0 0 0 0 0 0 0 0
0 0 0 0 0 0 0 0 0
0 0 0 0 0 0 0 0 0
0 0 0 0 0 0 0 0 0
0 0 0 0 0 0 0 0 0
0 0 0 0 0 0 0 0 0
0 0 0 0 0 0 0 0 0
0 0 0 0 0 0 0 0 0
0 0 0 0 0 0 0 0 0
0 0 0 0 0 0 0 0 0
0 0 0 0 0 0 0 0 0
0 0 0 0 0 0 0 0 0
0 0 0 0 0 0 0 0 0
0 0 0 0 0 0 0 0 0
0 0 0 0 0 0 0 0 0
0 0 0 0 0 0 0 0 0
0 0 0 0 0 0 0 0 0
0 0 0 0 0 0 0 0 0
0 0 0 0 0 0 0 0 0
0 0 0 0 0 0 0 0 0
0 0 0 0 0 0 0 0 0
0 0 0 0 0 0 0 0 0
0 0 0 0 0 0 0 0 0
0 0 0 0 0 0 0 0 0
0 0 0 0 0 0 0 0 0
0 0 0 0 0 0 0 0 0
1.18202e-06 1.23819e-06 1.17917e-06 1.23463e-06 1.18202e-06 1.23819e-06 1.17917e-06 1.23463e-06 0
1.28018e-06 1.33875e-06 1.27609e-06 1.33393e-06 1.28018e-06 1.33875e-06 1.27609e-06 1.33393e-06 0
1.18848e-06 1.24587e-06 1.1845e-06 1.24119e-06 1.18848e-06 1.24587e-06 1.1845e-06 1.24119e-06 0
1.28882e-06 1.34877e-06 1.28358e-06 1.34272e-06 1.28882e-06 1.34877e-06 1.28358e-06 1.34272e-06 0
1.39362e-06 1.45622e-06 1.38697e-06 1.44874e-06 1.39362e-06 1.45622e-06 1.38697e-06 1.44874e-06 0
1.50303e-06 1.56833e-06 1.49492e-06 1.55934e-06 1.50303e-06 1.56833e-06 1.49492e-06 1.55934e-06 0
1.61711e-06 1.6851e-06 1.60746e-06 1.67451e-06 1.61711e-06 1.6851e-06 1.60746e-06 1.67451e-06 0
1.73582e-06 1.80641e-06 1.72451e-06 1.79407e-06 1.73582e-06 1.80641e-06 1.72451e-06 1.79407e-06 0
1.85898e-06 1.93205e-06 1.84584e-06 1.91777e-06 1.85898e-06 1.93205e-06 1.84584e-06 1.91777e-06 0
1.98635e-06 2.06167e-06 1.97118e-06 2.04522e-06 1.98635e-06 2.06167e-06 1.97118e-06 2.04522e-06 0
2.11751e-06 2.19475e-06 2.10005e-06 2.17586e-06 2.11751e-06 2.19475e-06 2.10005e-06 2.17586e-06 0
1.29955e-06 1.36079e-06 1.29309e-06 1.3536e-06 1.29955e-06 1.36079e-06 1.29309e-06 1.3536e-06 0
1.40661e-06 1.47059e-06 1.39888e-06 1.46207e-06 1.40661e-06 1.47059e-06 1.39888e-06 1.46207e-06 0
1.51845e-06 1.58525e-06 1.50932e-06 1.57526e-06 1.51845e-06 1.58525e-06 1.50932e-06 1.57526e-06 0
1.63519e-06 1.70484e-06 1.62453e-06 1.69322e-06 1.63519e-06 1.70484e-06 1.62453e-06 1.69322e-06 0
1.75684e-06 1.82929e-06 1.74447e-06 1.81584e-06 1.75684e-06 1.82929e-06 1.74447e-06 1.81584e-06 0
1.8833e-06 1.95845e-06 1.86901e-06 1.94294e-06 1.8833e-06 1.95845e-06 1.86901e-06 1.94294e-06 0
2.01436e-06 2.09202e-06 1.99791e-06 2.0742e-06 2.01436e-06 2.09202e-06 1.99791e-06 2.0742e-06 0
1.31256e-06 1.375e-06 1.30476e-06 1.36651e-06 1.31256e-06 1.375e-06 1.30476e-06 1.36651e-06 0
1.42175e-06 1.48707e-06 1.41273e-06 1.47728e-06 1.42175e-06 1.48707e-06 1.41273e-06 1.47728e-06 0
1.53596e-06 1.60425e-06 1.52558e-06 1.59301e-06 1.53596e-06 1.60425e-06 1.52558e-06 1.59301e-06 0
1.65534e-06 1.72666e-06 1.64343e-06 1.71379e-06 1.65534e-06 1.72666e-06 1.64343e-06 1.71379e-06 0
1.77996e-06 1.8543e-06 1.76634e-06 1.83959e-06 1.77996e-06 1.8543e-06 1.76634e-06 1.83959e-06 0
1.90979e-06 1.98707e-06 1.89422e-06 1.97026e-06 1.90979e-06 1.98707e-06 1.89422e-06 1.97026e-06 0
2.04465e-06 2.12473e-06 2.02687e-06 2.10554e-06 2.04465e-06 2.12473e-06 2.02687e-06 2.10554e-06 0
1.32798e-06 1.39158e-06 1.31877e-06 1.38171e-06 1.32798e-06 1.39158e-06 1.31877e-06 1.38171e-06 0
1.43924e-06 1.50586e-06 1.42884e-06 1.49472e-06 1.43924e-06 1.50586e-06 1.42884e-06 1.49472e-06 0
1.55577e-06 1.62552e-06 1.54404e-06 1.61295e-06 1.55577e-06 1.62552e-06 1.54404e-06 1.61295e-06 0
1.67776e-06 1.75075e-06 1.66453e-06 1.73655e-06 1.67776e-06 1.75075e-06 1.66453e-06 1.73655e-06 0
1.80536e-06 1.88161e-06 1.79041e-06 1.86555e-06 1.80536e-06 1.88161e-06 1.79041e-06 1.86555e-06 0
1.93859e-06 2.01807e-06 1.92166e-06 1.99987e-06 1.93859e-06 2.01807e-06 1.92166e-06 1.99987e-06 0
1.34595e-06 1.41066e-06 1.33526e-06 1.39933e-06 1.34595e-06 1.41066e-06 1.33526e-06 1.39933e-06 0
1.45918e-06 1.52708e-06 1.44735e-06 1.51452e-06 1.45918e-06 1.52708e-06 1.44735e-06 1.51452e-06 0
1.57798e-06 1.64919e-06 1.56485e-06 1.63522e-06 1.57798e-06 1.64919e-06 1.56485e-06 1.63522e-06 0
1.70256e-06 1.77722e-06 1.68794e-06 1.76163e-06 1.70256e-06 1.77722e-06 1.68794e-06 1.76163e-06 0
1.83315e-06 1.91132e-06 1.8168e-06 1.89386e-06 1.83315e-06 1.91132e-06 1.8168e-06 1.89386e-06 0
1.96983e-06 2.05155e-06 1.95149e-06 2.03191e-06 1.96983e-06 2.05155e-06 1.95149e-06 2.03191e-06 0
1.36657e-06 1.43234e-06 1.35433e-06 1.4195e-06 1.36657e-06 1.43234e-06 1.35433e-06 1.4195e-06 0
1.4817e-06 1.55083e-06 1.46838e-06 1.53679e-06 1.4817e-06 1.55083e-06 1.46838e-06 1.53679e-06 0
1.60271e-06 1.67536e-06 1.58811e-06 1.65993e-06 1.60271e-06 1.67536e-06 1.58811e-06 1.65993e-06 0
1.72987e-06 1.80619e-06 1.71379e-06 1.78915e-06 1.72987e-06 1.80619e-06 1.71379e-06 1.78915e-06 0
1.86344e-06 1.94358e-06 1.84563e-06 1.92463e-06 1.86344e-06 1.94358e-06 1.84563e-06 1.92463e-06 0
2.00363e-06 2.08762e-06 1.98379e-06 2.06647e-06 2.00363e-06 2.08762e-06 1.98379e-06 2.06647e-06 0
1.38989e-06 1.45669e-06 1.37609e-06 1.4423e-06 1.38989e-06 1.45669e-06 1.37609e-06 1.4423e-06 0
1.50687e-06 1.57721e-06 1.49201e-06 1.56165e-06 1.50687e-06 1.57721e-06 1.49201e-06 1.56165e-06 0
1.63005e-06 1.70412e-06 1.61394e-06 1.68719e-06 1.63005e-06 1.70412e-06 1.61394e-06 1.68719e-06 0
1.75976e-06 1.83776e-06 1.74217e-06 1.81921e-06 1.75976e-06 1.83776e-06 1.74217e-06 1.81921e-06 0
1.89635e-06 1.97847e-06 1.87702e-06 1.95799e-06 1.89635e-06 1.97847e-06 1.87702e-06 1.95799e-06 0
1.30319e-06 1.36755e-06 1.28867e-06 1.35258e-06 1.30319e-06 1.36755e-06 1.28867e-06 1.35258e-06 0
1.41592e-06 1.48374e-06 1.40056e-06 1.46778e-06 1.41592e-06 1.48374e-06 1.40056e-06 1.46778e-06 0
1.53473e-06 1.60626e-06 1.51831e-06 1.58915e-06 1.53473e-06 1.60626e-06 1.51831e-06 1.58915e-06 0
1.66006e-06 1.73555e-06 1.6424e-06 1.71707e-06 1.66006e-06 1.73555e-06 1.6424e-06 1.71707e-06 0
1.79232e-06 1.872e-06 1.77319e-06 1.8519e-06 1.79232e-06 1.872e-06 1.77319e-06 1.8519e-06 0
1.93193e-06 2.01605e-06 1.91104e-06 1.99401e-06 1.93193e-06 2.01605e-06 1.91104e-06 1.99401e-06 0
1.33051e-06 1.39567e-06 1.3144e-06 1.37909e-06 1.33051e-06 1.39567e-06 1.3144e-06 1.37909e-06 0
1.44469e-06 1.5135e-06 1.42774e-06 1.49598e-06 1.44469e-06 1.5135e-06 1.42774e-06 1.49598e-06 0
1.56528e-06 1.638e-06 1.54731e-06 1.61934e-06 1.56528e-06 1.638e-06 1.54731e-06 1.61934e-06 0
1.69275e-06 1.76966e-06 1.67354e-06 1.74963e-06 1.69275e-06 1.76966e-06 1.67354e-06 1.74963e-06 0
1.82758e-06 1.90899e-06 1.80688e-06 1.88729e-06 1.82758e-06 1.90899e-06 1.80688e-06 1.88729e-06 0
1.97028e-06 2.05642e-06 1.94779e-06 2.03276e-06 1.97028e-06 2.05642e-06 1.94779e-06 2.03276e-06 0
1.04983e-06 1.1058e-06 1.03355e-06 1.08934e-06 1.04983e-06 1.1058e-06 1.03355e-06 1.08934e-06 0
1.14787e-06 1.20687e-06 1.13127e-06 1.19003e-06 1.14787e-06 1.20687e-06 1.13127e-06 1.19003e-06 0
1.25127e-06 1.3136e-06 1.23422e-06 1.29622e-06 1.25127e-06 1.3136e-06 1.23422e-06 1.29622e-06 0
1.36053e-06 1.42646e-06 1.34287e-06 1.40836e-06 1.36053e-06 1.42646e-06 1.34287e-06 1.40836e-06 0
1.47611e-06 1.54589e-06 1.45765e-06 1.52686e-06 1.47611e-06 1.54589e-06 1.45765e-06 1.52686e-06 0
1.59847e-06 1.67238e-06 1.57898e-06 1.65221e-06 1.59847e-06 1.67238e-06 1.57898e-06 1.65221e-06 0
1.72809e-06 1.80644e-06 1.70736e-06 1.78487e-06 1.72809e-06 1.80644e-06 1.70736e-06 1.78487e-06 0
1.86552e-06 1.94867e-06 1.84328e-06 1.92542e-06 1.86552e-06 1.94867e-06 1.84328e-06 1.92542e-06 0
1.08001e-06 1.13622e-06 1.06229e-06 1.11836e-06 1.08001e-06 1.13622e-06 1.06229e-06 1.11836e-06 0
1.17853e-06 1.23792e-06 1.16054e-06 1.2197e-06 1.17853e-06 1.23792e-06 1.16054e-06 1.2197e-06 0
1.28267e-06 1.34558e-06 1.26425e-06 1.32682e-06 1.28267e-06 1.34558e-06 1.26425e-06 1.32682e-06 0
1.393e-06 1.4597e-06 1.37396e-06 1.44021e-06 1.393e-06 1.4597e-06 1.37396e-06 1.44021e-06 0
1.51e-06 1.58076e-06 1.49014e-06 1.56033e-06 1.51e-06 1.58076e-06 1.49014e-06 1.56033e-06 0
1.63414e-06 1.70927e-06 1.61324e-06 1.68766e-06 1.63414e-06 1.70927e-06 1.61324e-06 1.68766e-06 0
1.76595e-06 1.84577e-06 1.74378e-06 1.82275e-06 1.76595e-06 1.84577e-06 1.74378e-06 1.82275e-06 0
1.90604e-06 1.99097e-06 1.88233e-06 1.96622e-06 1.90604e-06 1.99097e-06 1.88233e-06 1.96622e-06 0
1.11233e-06 1.16876e-06 1.09343e-06 1.14973e-06 1.11233e-06 1.16876e-06 1.09343e-06 1.14973e-06 0
1.21131e-06 1.27113e-06 1.19214e-06 1.25171e-06 1.21131e-06 1.27113e-06 1.19214e-06 1.25171e-06 0
1.31626e-06 1.37975e-06 1.29661e-06 1.35976e-06 1.31626e-06 1.37975e-06 1.29661e-06 1.35976e-06 0
1.42765e-06 1.49508e-06 1.40739e-06 1.4744e-06 1.42765e-06 1.49508e-06 1.40739e-06 1.4744e-06 0
1.54602e-06 1.61782e-06 1.52497e-06 1.59617e-06 1.54602e-06 1.61782e-06 1.52497e-06 1.59617e-06 0
1.67204e-06 1.74843e-06 1.64989e-06 1.72555e-06 1.67204e-06 1.74843e-06 1.64989e-06 1.72555e-06 0
1.80614e-06 1.88749e-06 1.78266e-06 1.86311e-06 1.80614e-06 1.88749e-06 1.78266e-06 1.86311e-06 0
1.949e-06 2.03577e-06 1.9239e-06 2.0096e-06 1.949e-06 2.03577e-06 1.9239e-06 2.0096e-06 0
0 0 0 0 0 0 0 0 0
0 0 0 0 0 0 0 0 0
0 0 0 0 0 0 0 0 0
0 0 0 0 0 0 0 0 0
0 0 0 0 0 0 0 0 0
0 0 0 0 0 0 0 0 0
0 0 0 0 0 0 0 0 0
0 0 0 0 0 0 0 0 0
0 0 0 0 0 0 0 0 0
0 0 0 0 0 0 0 0 0
0 0 0 0 0 0 0 0 0
0 0 0 0 0 0 0 0 0
0 0 0 0 0 0 0 0 0
0 0 0 0 0 0 0 0 0
0 0 0 0 0 0 0 0 0
0 0 0 0 0 0 0 0 0
0 0 0 0 0 0 0 0 0
0 0 0 0 0 0 0 0 0
0 0 0 0 0 0 0 0 0
0 0 0 0 0 0 0 0 0
0 0 0 0 0 0 0 0 0
0 0 0 0 0 0 0 0 0
0 0 0 0 0 0 0 0 0
0 0 0 0 0 0 0 0 0
0 0 0 0 0 0 0 0 0
0 0 0 0 0 0 0 0 0
0 0 0 0 0 0 0 0 0
0 0 0 0 0 0 0 0 0
0 0 0 0 0 0 0 0 0
0 0 0 0 0 0 0 0 0
0 0 0 0 0 0 0 0 0
0 0 0 0 0 0 0 0 0
0 0 0 0 0 0 0 0 0
0 0 0 0 0 0 0 0 0
0 0 0 0 0 0 0 0 0
0 0 0 0 0 0 0 0 0
0 0 0 0 0 0 0 0 0
0 0 0 0 0 0 0 0 0
0 0 0 0 0 0 0 0 0
0 0 0 0 0 0 0 0 0
0 0 0 0 0 0 0 0 0
0 0 0 0 0 0 0 0 0
0 0 0 0 0 0 0 0 0
0 0 0 0 0 0 0 0 0
0 0 0 0 0 0 0 0 0
0 0 0 0 0 0 0 0 0
0 0 0 0 0 0 0 0 0
0 0 0 0 0 0 0 0 0
0 0 0 0 0 0 0 0 0
0 0 0 0 0 0 0 0 0
0 0 0 0 0 0 0 0 0
0 0 0 0 0 0 0 0 0
0 0 0 0 0 0 0 0 0
0 0 0 0 0 0 0 0 0
0 0 0 0 0 0 0 0 0
0 0 0 0 0 0 0 0 0
0 0 0 0 0 0 0 0 0
0 0 0 0 0 0 0 0 0
0 0 0 0 0 0 0 0 0
0 0 0 0 0 0 0 0 0
0 0 0 0 0 0 0 0 0
0 0 0 0 0 0 0 0 0
0 0 0 0 0 0 0 0 0
0 0 0 0 0 0 0 0 0
0 0 0 0 0 0 0 0 0
0 0 0 0 0 0 0 0 0
0 0 0 0 0 0 0 0 0
0 0 0 0 0 0 0 0 0
0 0 0 0 0 0 0 0 0
0 0 0 0 0 0 0 0 0
0 0 0 0 0 0 0 0 0
0 0 0 0 0 0 0 0 0
0 0 0 0 0 0 0 0 0
0 0 0 0 0 0 0 0 0
0 0 0 0 0 0 0 0 0
0 0 0 0 0 0 0 0 0
0 0 0 0 0 0 0 0 0
0 0 0 0 0 0 0 0 0
0 0 0 0 0 0 0 0 0
0 0 0 0 0 0 0 0 0
0 0 0 0 0 0 0 0 0
0 0 0 0 0 0 0 0 0
0 0 0 0 0 0 0 0 0
0 0 0 0 0 0 0 0 0
0 0 0 0 0 0 0 0 0
0 0 0 0 0 0 0 0 0
0 0 0 0 0 0 0 0 0
0 0 0 0 0 0 0 0 0
0 0 0 0 0 0 0 0 0
0 0 0 0 0 0 0 0 0
0 0 0 0 0 0 0 0 0
0 0 0 0 0 0 0 0 0
0 0 0 0 0 0 0 0 0
0 0 0 0 0 0 0 0 0
0 0 0 0 0 0 0 0 0
0 0 0 0 0 0 0 0 0
0 0 0 0 0 0 0 0 0
0 0 0 0 0 0 0 0 0
0 0 0 0 0 0 0 0 0
0 0 0 0 0 0 0 0 0
0 0 0 0 0 0 0 0 0
0 0 0 0 0 0 0 0 0
0 0 0 0 0 0 0 0 0
0 0 0 0 0 0 0 0 0
0 0 0 0 0 0 0 0 0
0 0 0 0 0 0 0 0 0
0 0 0 0 0 0 0 0 0
0 0 0 0 0 0 0 0 0
0 0 0 0 0 0 0 0 0
0 0 0 0 0 0 0 0 0
0 0 0 0 0 0 0 0 0
0 0 0 0 0 0 0 0 0
0 0 0 0 0 0 0 0 0
0 0 0 0 0 0 0 0 0
0 0 0 0 0 0 0 0 0
0 0 0 0 0 0 0 0 0
0 0 0 0 0 0 0 0 0
0 0 0 0 0 0 0 0 0
0 0 0 0 0 0 0 0 0
0 0 0 0 0 0 0 0 0
0 0 0 0 0 0 0 0 0
0 0 0 0 0 0 0 0 0
0 0 0 0 0 0 0 0 0
0 0 0 0 0 0 0 0 0
0 0 0 0 0 0 0 0 0
0 0 0 0 0 0 0 0 0
0 0 0 0 0 0 0 0 0
0 0 0 0 0 0 0 0 0
0 0 0 0 0 0 0 0 0
0 0 0 0 0 0 0 0 0
0 0 0 0 0 0 0 0 0
0 0 0 0 0 0 0 0 0
0 0 0 0 0 0 0 0 0
0 0 0 0 0 0 0 0 0
0 0 0 0 0 0 0 0 0
0 0 0 0 0 0 0 0 0
0 0 0 0 0 0 0 0 0
0 0 0 0 0 0 0 0 0
0 0 0 0 0 0 0 0 0
0 0 0 0 0 0 0 0 0
0 0 0 0 0 0 0 0 0
0 0 0 0 0 0 0 0 0
0 0 0 0 0 0 0 0 0
0 0 0 0 0 0 0 0 0
0 0 0 0 0 0 0 0 0
0 0 0 0 0 0 0 0 0
0 0 0 0 0 0 0 0 0
0 0 0 0 0 0 0 0 0
0 0 0 0 0 0 0 0 0
0 0 0 0 0 0 0 0 0
0 0 0 0 0 0 0 0 0
0 0 0 0 0 0 0 0 0
0 0 0 0 0 0 0 0 0
0 0 0 0 0 0 0 0 0
0 0 0 0 0 0 0 0 0
0 0 0 0 0 0 0 0 0
0 0 0 0 0 0 0 0 0
0 0 0 0 0 0 0 0 0
0 0 0 0 0 0 0 0 0
0 0 0 0 0 0 0 0 0
0 0 0 0 0 0 0 0 0
0 0 0 0 0 0 0 0 0
0 0 0 0 0 0 0 0 0
0 0 0 0 0 0 0 0 0
0 0 0 0 0 0 0 0 0
0 0 0 0 0 0 0 0 0
0 0 0 0 0 0 0 0 0
0 0 0 0 0 0 0 0 0
0 0 0 0 0 0 0 0 0
0 0 0 0 0 0 0 0 0
0 0 0 0 0 0 0 0 0
0 0 0 0 0 0 0 0 0
0 0 0 0 0 0 0 0 0
0 0 0 0 0 0 0 0 0
0 0 0 0 0 0 0 0 0
0 0 0 0 0 0 0 0 0
0 0 0 0 0 0 0 0 0
0 0 0 0 0 0 0 0 0
0 0 0 0 0 0 0 0 0
0 0 0 0 0 0 0 0 0
0 0 0 0 0 0 0 0 0
0 0 0 0 0 0 0 0 0
0 0 0 0 0 0 0 0 0
0 0 0 0 0 0 0 0 0
0 0 0 0 0 0 0 0 0
0 0 0 0 0 0 0 0 0
0 0 0 0 0 0 0 0 0
0 0 0 0 0 0 0 0 0
0 0 0 0 0 0 0 0 0
0 0 0 0 0 0 0 0 0
0 0 0 0 0 0 0 0 0
0 0 0 0 0 0 0 0 0
0 0 0 0 0 0 0 0 0
0 0 0 0 0 0 0 0 0
0 0 0 0 0 0 0 0 0
0 0 0 0 0 0 0 0 0
0 0 0 0 0 0 0 0 0
0 0 0 0 0 0 0 0 0
0 0 0 0 0 0 0 0 0
0 0 0 0 0 0 0 0 0
0 0 0 0 0 0 0 0 0
0 0 0 0 0 0 0 0 0
0 0 0 0 0 0 0 0 0
0 0 0 0 0 0 0 0 0
0 0 0 0 0 0 0 0 0
0 0 0 0 0 0 0 0 0
0 0 0 0 0 0 0 0 0
0 0 0 0 0 0 0 0 0
0 0 0 0 0 0 0 0 0
0 0 0 0 0 0 0 0 0
0 0 0 0 0 0 0 0 0
0 0 0 0 0 0 0 0 0
0 0 0 0 0 0 0 0 0
0 0 0 0 0 0 0 0 0
0 0 0 0 0 0 0 0 0
0 0 0 0 0 0 0 0 0
0 0 0 0 0 0 0 0 0
0 0 0 0 0 0 0 0 0
0 0 0 0 0 0 0 0 0
0 0 0 0 0 0 0 0 0
0 0 0 0 0 0 0 0 0
0 0 0 0 0 0 0 0 0
0 0 0 0 0 0 0 0 0
0 0 0 0 0 0 0 0 0
0 0 0 0 0 0 0 0 0
0 0 0 0 0 0 0 0 0
0 0 0 0 0 0 0 0 0
0 0 0 0 0 0 0 0 0
0 0 0 0 0 0 0 0 0
0 0 0 0 0 0 0 0 0
0 0 0 0 0 0 0 0 0
0 0 0 0 0 0 0 0 0
0 0 0 0 0 0 0 0 0
0 0 0 0 0 0 0 0 0
0 0 0 0 0 0 0 0 0
0 0 0 0 0 0 0 0 0
0 0 0 0 0 0 0 0 0
0 0 0 0 0 0 0 0 0
0 0 0 0 0 0 0 0 0
0 0 0 0 0 0 0 0 0
0 0 0 0 0 0 0 0 0
0 0 0 0 0 0 0 0 0
0 0 0 0 0 0 0 0 0
0 0 0 0 0 0 0 0 0
0 0 0 0 0 0 0 0 0
0 0 0 0 0 0 0 0 0
0 0 0 0 0 0 0 0 0
0 0 0 0 0 0 0 0 0
0 0 0 0 0 0 0 0 0
0 0 0 0 0 0 0 0 0
0 0 0 0 0 0 0 0 0
0 0 0 0 0 0 0 0 0
0 0 0 0 0 0 0 0 0
0 0 0 0 0 0 0 0 0
0 0 0 0 0 0 0 0 0
0 0 0 0 0 0 0 0 0
0 0 0 0 0 0 0 0 0
0 0 0 0 0 0 0 0 0
0 0 0 0 0 0 0 0 0
0 0 0 0 0 0 0 0 0
0 0 0 0 0 0 0 0 0
0 0 0 0 0 0 0 0 0
0 0 0 0 0 0 0 0 0
0 0 0 0 0 0 0 0 0
0 0 0 0 0 0 0 0 0
0 0 0 0 0 0 0 0 0
0 0 0 0 0 0 0 0 0
0 0 0 0 0 0 0 0 0
0 0 0 0 0 0 0 0 0
0 0 0 0 0 0 0 0 0
0 0 0 0 0 0 0 0 0
0 0 0 0 0 0 0 0 0
0 0 0 0 0 0 0 0 0
0 0 0 0 0 0 0 0 0
0 0 0 0 0 0 0 0 0
0 0 0 0 0 0 0 0 0
0 0 0 0 0 0 0 0 0
0 0 0 0 0 0 0 0 0
0 0 0 0 0 0 0 0 0
0 0 0 0 0 0 0 0 0
0 0 0 0 0 0 0 0 0
0 0 0 0 0 0 0 0 0
0 0 0 0 0 0 0 0 0
0 0 0 0 0 0 0 0 0
0 0 0 0 0 0 0 0 0
0 0 0 0 0 0 0 0 0
0 0 0 0 0 0 0 0 0
0 0 0 0 0 0 0 0 0
0 0 0 0 0 0 0 0 0
0 0 0 0 0 0 0 0 0
0 0 0 0 0 0 0 0 0
0 0 0 0 0 0 0 0 0
0 0 0 0 0 0 0 0 0
0 0 0 0 0 0 0 0 0
0 0 0 0 0 0 0 0 0
0 0 0 0 0 0 0 0 0
0 0 0 0 0 0 0 0 0
0 0 0 0 0 0 0 0 0
0 0 0 0 0 0 0 0 0
0 0 0 0 0 0 0 0 0
0 0 0 0 0 0 0 0 0
0 0 0 0 0 0 0 0 0
0 0 0 0 0 0 0 0 0
0 0 0 0 0 0 0 0 0
0 0 0 0 0 0 0 0 0
0 0 0 0 0 0 0 0 0
0 0 0 0 0 0 0 0 0
0 0 0 0 0 0 0 0 0
0 0 0 0 0 0 0 0 0
0 0 0 0 0 0 0 0 0
0 0 0 0 0 0 0 0 0
0 0 0 0 0 0 0 0 0
0 0 0 0 0 0 0 0 0
0 0 0 0 0 0 0 0 0
0 0 0 0 0 0 0 0 0
0 0 0 0 0 0 0 0 0
0 0 0 0 0 0 0 0 0
0 0 0 0 0 0 0 0 0
0 0 0 0 0 0 0 0 0
0 0 0 0 0 0 0 0 0
0 0 0 0 0 0 0 0 0
0 0 0 0 0 0 0 0 0
0 0 0 0 0 0 0 0 0
0 0 0 0 0 0 0 0 0
0 0 0 0 0 0 0 0 0
0 0 0 0 0 0 0 0 0
0 0 0 0 0 0 0 0 0
0 0 0 0 0 0 0 0 0
0 0 0 0 0 0 0 0 0
0 0 0 0 0 0 0 0 0
0 0 0 0 0 0 0 0 0
0 0 0 0 0 0 0 0 0
0 0 0 0 0 0 0 0 0
0 0 0 0 0 0 0 0 0
0 0 0 0 0 0 0 0 0
0 0 0 0 0 0 0 0 0
0 0 0 0 0 0 0 0 0
0 0 0 0 0 0 0 0 0
0 0 0 0 0 0 0 0 0
0 0 0 0 0 0 0 0 0
0 0 0 0 0 0 0 0 0
0 0 0 0 0 0 0 0 0
0 0 0 0 0 0 0 0 0
0 0 0 0 0 0 0 0 0
0 0 0 0 0 0 0 0 0
0 0 0 0 0 0 0 0 0
0 0 0 0 0 0 0 0 0
0 0 0 0 0 0 0 0 0
0 0 0 0 0 0 0 0 0
0 0 0 0 0 0 0 0 0
0 0 0 0 0 0 0 0 0
0 0 0 0 0 0 0 0 0
0 0 0 0 0 0 0 0 0
0 0 0 0 0 0 0 0 0
0 0 0 0 0 0 0 0 0
0 0 0 0 0 0 0 0 0
0 0 0 0 0 0 0 0 0
0 0 0 0 0 0 0 0 0
0 0 0 0 0 0 0 0 0
0 0 0 0 0 0 0 0 0
0 0 0 0 0 0 0 0 0
0 0 0 0 0 0 0 0 0
0 0 0 0 0 0 0 0 0
0 0 0 0 0 0 0 0 0
0 0 0 0 0 0 0 0 0
0 0 0 0 0 0 0 0 0
0 0 0 0 0 0 0 0 0
0 0 0 0 0 0 0 0 0
0 0 0 0 0 0 0 0 0
0 0 0 0 0 0 0 0 0
0 0 0 0 0 0 0 0 0
0 0 0 0 0 0 0 0 0
0 0 0 0 0 0 0 0 0
0 0 0 0 0 0 0 0 0
0 0 0 0 0 0 0 0 0
0 0 0 0 0 0 0 0 0
0 0 0 0 0 0 0 0 0
0 0 0 0 0 0 0 0 0
0 0 0 0 0 0 0 0 0
0 0 0 0 0 0 0 0 0
0 0 0 0 0 0 0 0 0
0 0 0 0 0 0 0 0 0
0 0 0 0 0 0 0 0 0
0 0 0 0 0 0 0 0 0
0 0 0 0 0 0 0 0 0
0 0 0 0 0 0 0 0 0
0 0 0 0 0 0 0 0 0
0 0 0 0 0 0 0 0 0
0 0 0 0 0 0 0 0 0
0 0 0 0 0 0 0 0 0
0 0 0 0 0 0 0 0 0
0 0 0 0 0 0 0 0 0
0 0 0 0 0 0 0 0 0
0 0 0 0 0 0 0 0 0
0 0 0 0 0 0 0 0 0
0 0 0 0 0 0 0 0 0
0 0 0 0 0 0 0 0 0
0 0 0 0 0 0 0 0 0
0 0 0 0 0 0 0 0 0
0 0 0 0 0 0 0 0 0
0 0 0 0 0 0 0 0 0
0 0 0 0 0 0 0 0 0
0 0 0 0 0 0 0 0 0
0 0 0 0 0 0 0 0 0
0 0 0 0 0 0 0 0 0
0 0 0 0 0 0 0 0 0
0 0 0 0 0 0 0 0 0
0 0 0 0 0 0 0 0 0
0 0 0 0 0 0 0 0 0
0 0 0 0 0 0 0 0 0
0 0 0 0 0 0 0 0 0
0 0 0 0 0 0 0 0 0
0 0 0 0 0 0 0 0 0
0 0 0 0 0 0 0 0 0
0 0 0 0 0 0 0 0 0
0 0 0 0 0 0 0 0 0
0 0 0 0 0 0 0 0 0
0 0 0 0 0 0 0 0 0
0 0 0 0 0 0 0 0 0
0 0 0 0 0 0 0 0 0
0 0 0 0 0 0 0 0 0
0 0 0 0 0 0 0 0 0
0 0 0 0 0 0 0 0 0
0 0 0 0 0 0 0 0 0
0 0 0 0 0 0 0 0 0
0 0 0 0 0 0 0 0 0
0 0 0 0 0 0 0 0 0
0 0 0 0 0 0 0 0 0
0 0 0 0 0 0 0 0 0
0 0 0 0 0 0 0 0 0
0 0 0 0 0 0 0 0 0
0 0 0 0 0 0 0 0 0
0 0 0 0 0 0 0 0 0
0 0 0 0 0 0 0 0 0
0 0 0 0 0 0 0 0 0
0 0 0 0 0 0 0 0 0
0 0 0 0 0 0 0 0 0
0 0 0 0 0 0 0 0 0
0 0 0 0 0 0 0 0 0
0 0 0 0 0 0 0 0 0
0 0 0 0 0 0 0 0 0
0 0 0 0 0 0 0 0 0
0 0 0 0 0 0 0 0 0
0 0 0 0 0 0 0 0 0
0 0 0 0 0 0 0 0 0
0 0 0 0 0 0 0 0 0
0 0 0 0 0 0 0 0 0
0 0 0 0 0 0 0 0 0
0 0 0 0 0 0 0 0 0
0 0 0 0 0 0 0 0 0
0 0 0 0 0 0 0 0 0
0 0 0 0 0 0 0 0 0
0 0 0 0 0 0 0 0 0
0 0 0 0 0 0 0 0 0
0 0 0 0 0 0 0 0 0
0 0 0 0 0 0 0 0 0
0 0 0 0 0 0 0 0 0
0 0 0 0 0 0 0 0 0
0 0 0 0 0 0 0 0 0
0 0 0 0 0 0 0 0 0
0 0 0 0 0 0 0 0 0
0 0 0 0 0 0 0 0 0
0 0 0 0 0 0 0 0 0
0 0 0 0 0 0 0 0 0
0 0 0 0 0 0 0 0 0
0 0 0 0 0 0 0 0 0
0 0 0 0 0 0 0 0 0
0 0 0 0 0 0 0 0 0
0 0 0 0 0 0 0 0 0
0 0 0 0 0 0 0 0 0
0 0 0 0 0 0 0 0 0
0 0 0 0 0 0 0 0 0
0 0 0 0 0 0 0 0 0
0 0 0 0 0 0 0 0 0
0 0 0 0 0 0 0 0 0
0 0 0 0 0 0 0 0 0
0 0 0 0 0 0 0 0 0
0 0 0 0 0 0 0 0 0
0 0 0 0 0 0 0 0 0
0 0 0 0 0 0 0 0 0
0 0 0 0 0 0 0 0 0
0 0 0 0 0 0 0 0 0
0 0 0 0 0 0 0 0 0
0 0 0 0 0 0 0 0 0
0 0 0 0 0 0 0 0 0
0 0 0 0 0 0 0 0 0
0 0 0 0 0 0 0 0 0
0 0 0 0 0 0 0 0 0
0 0 0 0 0 0 0 0 0
0 0 0 0 0 0 0 0 0
0 0 0 0 0 0 0 0 0
0 0 0 0 0 0 0 0 0
0 0 0 0 0 0 0 0 0
0 0 0 0 0 0 0 0 0
0 0 0 0 0 0 0 0 0
0 0 0 0 0 0 0 0 0
0 0 0 0 0 0 0 0 0
0 0 0 0 0 0 0 0 0
0 0 0 0 0 0 0 0 0
0 0 0 0 0 0 0 0 0
0 0 0 0 0 0 0 0 0
0 0 0 0 0 0 0 0 0
0 0 0 0 0 0 0 0 0
0 0 0 0 0 0 0 0 0
0 0 0 0 0 0 0 0 0
0 0 0 0 0 0 0 0 0
0 0 0 0 0 0 0 0 0
0 0 0 0 0 0 0 0 0
0 0 0 0 0 0 0 0 0
0 0 0 0 0 0 0 0 0
0 0 0 0 0 0 0 0 0
0 0 0 0 0 0 0 0 0
0 0 0 0 0 0 0 0 0
0 0 0 0 0 0 0 0 0
0 0 0 0 0 0 0 0 0
0 0 0 0 0 0 0 0 0
0 0 0 0 0 0 0 0 0
0 0 0 0 0 0 0 0 0
0 0 0 0 0 0 0 0 0
0 0 0 0 0 0 0 0 0
0 0 0 0 0 0 0 0 0
0 0 0 0 0 0 0 0 0
0 0 0 0 0 0 0 0 0
0 0 0 0 0 0 0 0 0
0 0 0 0 0 0 0 0 0
0 0 0 0 0 0 0 0 0
0 0 0 0 0 0 0 0 0
0 0 0 0 0 0 0 0 0
0 0 0 0 0 0 0 0 0
0 0 0 0 0 0 0 0 0
0 0 0 0 0 0 0 0 0
0 0 0 0 0 0 0 0 0
0 0 0 0 0 0 0 0 0
0 0 0 0 0 0 0 0 0
0 0 0 0 0 0 0 0 0
0 0 0 0 0 0 0 0 0
0 0 0 0 0 0 0 0 0
0 0 0 0 0 0 0 0 0
0 0 0 0 0 0 0 0 0
0 0 0 0 0 0 0 0 0
0 0 0 0 0 0 0 0 0
0 0 0 0 0 0 0 0 0
0 0 0 0 0 0 0 0 0
0 0 0 0 0 0 0 0 0
0 0 0 0 0 0 0 0 0
0 0 0 0 0 0 0 0 0
0 0 0 0 0 0 0 0 0
0 0 0 0 0 0 0 0 0
0 0 0 0 0 0 0 0 0
0 0 0 0 0 0 0 0 0
0 0 0 0 0 0 0 0 0
0 0 0 0 0 0 0 0 0
0 0 0 0 0 0 0 0 0
0 0 0 0 0 0 0 0 0
0 0 0 0 0 0 0 0 0
0 0 0 0 0 0 0 0 0
0 0 0 0 0 0 0 0 0
0 0 0 0 0 0 0 0 0
0 0 0 0 0 0 0 0 0
0 0 0 0 0 0 0 0 0
0 0 0 0 0 0 0 0 0
0 0 0 0 0 0 0 0 0
0 0 0 0 0 0 0 0 0
0 0 0 0 0 0 0 0 0
0 0 0 0 0 0 0 0 0
0 0 0 0 0 0 0 0 0
0 0 0 0 0 0 0 0 0
0 0 0 0 0 0 0 0 0
0 0 0 0 0 0 0 0 0
0 0 0 0 0 0 0 0 0
0 0 0 0 0 0 0 0 0
0 0 0 0 0 0 0 0 0
0 0 0 0 0 0 0 0 0
0 0 0 0 0 0 0 0 0
0 0 0 0 0 0 0 0 0
0 0 0 0 0 0 0 0 0
0 0 0 0 0 0 0 0 0
0 0 0 0 0 0 0 0 0
0 0 0 0 0 0 0 0 0
0 0 0 0 0 0 0 0 0
0 0 0 0 0 0 0 0 0
0 0 0 0 0 0 0 0 0
0 0 0 0 0 0 0 0 0
0 0 0 0 0 0 0 0 0
0 0 0 0 0 0 0 0 0
0 0 0 0 0 0 0 0 0
0 0 0 0 0 0 0 0 0
0 0 0 0 0 0 0 0 0
6.57694e-07 6.88144e-07 6.55511e-07 6.85563e-07 6.57694e-07 6.88144e-07 6.55511e-07 6.85563e-07 0
7.10908e-07 7.42651e-07 7.08029e-07 7.39358e-07 7.10908e-07 7.42651e-07 7.08029e-07 7.39358e-07 0
6.62193e-07 6.93359e-07 6.5948e-07 6.90228e-07 6.62193e-07 6.93359e-07 6.5948e-07 6.90228e-07 0
7.16667e-07 7.49184e-07 7.13218e-07 7.45281e-07 7.16667e-07 7.49184e-07 7.13218e-07 7.45281e-07 0
7.73497e-07 8.07408e-07 7.69262e-07 8.02723e-07 7.73497e-07 8.07408e-07 7.69262e-07 8.02723e-07 0
8.3276e-07 8.6812e-07 8.27738e-07 8.62627e-07 8.3276e-07 8.6812e-07 8.27738e-07 8.62627e-07 0
8.94557e-07 9.31435e-07 8.88718e-07 9.25121e-07 8.94557e-07 9.31435e-07 8.88718e-07 9.25121e-07 0
9.58967e-07 9.97322e-07 9.52287e-07 9.90115e-07 9.58967e-07 9.97322e-07 9.52287e-07 9.90115e-07 0
1.02592e-06 1.06572e-06 1.01832e-06 1.05758e-06 1.02592e-06 1.06572e-06 1.01832e-06 1.05758e-06 0
1.09541e-06 1.13672e-06 1.08683e-06 1.12754e-06 1.09541e-06 1.13672e-06 1.08683e-06 1.12754e-06 0
1.16751e-06 1.21035e-06 1.15786e-06 1.20004e-06 1.16751e-06 1.21035e-06 1.15786e-06 1.20004e-06 0
7.23441e-07 7.56708e-07 7.19403e-07 7.52242e-07 7.23441e-07 7.56708e-07 7.19403e-07 7.52242e-07 0
7.81584e-07 8.16285e-07 7.76794e-07 8.11037e-07 7.81584e-07 8.16285e-07 7.76794e-07 8.11037e-07 0
8.42231e-07 8.78424e-07 8.36639e-07 8.72348e-07 8.42231e-07 8.78424e-07 8.36639e-07 8.72348e-07 0
9.05483e-07 9.43229e-07 8.99045e-07 9.36283e-07 9.05483e-07 9.43229e-07 8.99045e-07 9.36283e-07 0
9.71421e-07 1.01071e-06 9.6409e-07 1.00284e-06 9.71421e-07 1.01071e-06 9.6409e-07 1.00284e-06 0
1.04003e-06 1.08086e-06 1.03174e-06 1.07196e-06 1.04003e-06 1.08086e-06 1.03174e-06 1.07196e-06 0
1.11133e-06 1.15375e-06 1.10197e-06 1.14374e-06 1.11133e-06 1.15375e-06 1.10197e-06 1.14374e-06 0
7.3128e-07 7.6529e-07 7.26619e-07 7.602e-07 7.3128e-07 7.6529e-07 7.26619e-07 7.602e-07 0
7.90729e-07 8.26229e-07 7.85313e-07 8.20351e-07 7.90729e-07 8.26229e-07 7.85313e-07 8.20351e-07 0
8.52779e-07 8.89825e-07 8.46551e-07 8.83103e-07 8.52779e-07 8.89825e-07 8.46551e-07 8.83103e-07 0
9.17526e-07 9.56174e-07 9.10431e-07 9.48555e-07 9.17526e-07 9.56174e-07 9.10431e-07 9.48555e-07 0
9.85055e-07 1.02533e-06 9.77034e-07 1.01673e-06 9.85055e-07 1.02533e-06 9.77034e-07 1.01673e-06 0
1.0554e-06 1.09732e-06 1.04637e-06 1.08765e-06 1.0554e-06 1.09732e-06 1.04637e-06 1.08765e-06 0
1.1286e-06 1.17219e-06 1.11846e-06 1.16137e-06 1.1286e-06 1.17219e-06 1.11846e-06 1.16137e-06 0
7.40233e-07 7.74988e-07 7.34924e-07 7.69248e-07 7.40233e-07 7.74988e-07 7.34924e-07 7.69248e-07 0
8.00995e-07 8.37304e-07 7.94927e-07 8.30767e-07 8.00995e-07 8.37304e-07 7.94927e-07 8.30767e-07 0
8.64468e-07 9.02387e-07 8.57575e-07 8.94988e-07 8.64468e-07 9.02387e-07 8.57575e-07 8.94988e-07 0
9.30751e-07 9.70342e-07 9.22966e-07 9.62007e-07 9.30751e-07 9.70342e-07 9.22966e-07 9.62007e-07 0
9.99942e-07 1.04124e-06 9.91189e-07 1.03189e-06 9.99942e-07 1.04124e-06 9.91189e-07 1.03189e-06 0
1.07211e-06 1.11516e-06 1.0623e-06 1.10468e-06 1.07211e-06 1.11516e-06 1.0623e-06 1.10468e-06 0
7.50341e-07 7.85846e-07 7.4436e-07 7.79432e-07 7.50341e-07 7.85846e-07 7.4436e-07 7.79432e-07 0
8.12427e-07 8.49555e-07 8.0568e-07 8.42333e-07 8.12427e-07 8.49555e-07 8.0568e-07 8.42333e-07 0
8.77346e-07 9.16163e-07 8.69761e-07 9.08056e-07 8.77346e-07 9.16163e-07 8.69761e-07 9.08056e-07 0
9.45215e-07 9.85788e-07 9.36708e-07 9.76709e-07 9.45215e-07 9.85788e-07 9.36708e-07 9.76709e-07 0
1.01614e-06 1.05852e-06 1.00662e-06 1.04837e-06 1.01614e-06 1.05852e-06 1.00662e-06 1.04837e-06 0
1.09021e-06 1.13446e-06 1.07958e-06 1.12314e-06 1.09021e-06 1.13446e-06 1.07958e-06 1.12314e-06 0
7.61643e-07 7.97903e-07 7.54968e-07 7.90792e-07 7.61643e-07 7.97903e-07 7.54968e-07 7.90792e-07 0
8.25064e-07 8.63026e-07 8.17617e-07 8.55095e-07 8.25064e-07 8.63026e-07 8.17617e-07 8.55095e-07 0
8.91461e-07 9.31204e-07 8.83156e-07 9.22361e-07 8.91461e-07 9.31204e-07 8.83156e-07 9.22361e-07 0
9.60968e-07 1.00257e-06 9.5171e-07 9.92711e-07 9.60968e-07 1.00257e-06 9.5171e-07 9.92711e-07 0
1.03372e-06 1.07724e-06 1.02339e-06 1.06625e-06 1.03372e-06 1.07724e-06 1.02339e-06 1.06625e-06 0
1.10981e-06 1.15529e-06 1.09831e-06 1.14307e-06 1.10981e-06 1.15529e-06 1.09831e-06 1.14307e-06 0
7.74182e-07 8.11199e-07 7.66788e-07 8.03367e-07 7.74182e-07 8.11199e-07 7.66788e-07 8.03367e-07 0
8.38948e-07 8.77763e-07 8.30776e-07 8.69096e-07 8.38948e-07 8.77763e-07 8.30776e-07 8.69096e-07 0
9.0686e-07 9.47561e-07 8.97808e-07 9.37951e-07 9.0686e-07 9.47561e-07 8.97808e-07 9.37951e-07 0
9.78067e-07 1.02074e-06 9.68025e-07 1.01007e-06 9.78067e-07 1.02074e-06 9.68025e-07 1.01007e-06 0
1.05272e-06 1.09746e-06 1.04157e-06 1.0856e-06 1.05272e-06 1.09746e-06 1.04157e-06 1.0856e-06 0
7.24961e-07 7.60976e-07 7.17528e-07 7.53156e-07 7.24961e-07 7.60976e-07 7.17528e-07 7.53156e-07 0
7.87985e-07 8.25776e-07 7.79858e-07 8.17199e-07 7.87985e-07 8.25776e-07 7.79858e-07 8.17199e-07 0
8.54129e-07 8.93819e-07 8.45202e-07 8.84383e-07 8.54129e-07 8.93819e-07 8.45202e-07 8.84383e-07 0
9.23599e-07 9.65295e-07 9.13766e-07 9.54882e-07 9.23599e-07 9.65295e-07 9.13766e-07 9.54882e-07 0
9.96577e-07 1.04038e-06 9.85712e-07 1.02885e-06 9.96577e-07 1.04038e-06 9.85712e-07 1.02885e-06 0
1.07323e-06 1.11924e-06 1.0612e-06 1.10646e-06 1.07323e-06 1.11924e-06 1.0612e-06 1.10646e-06 0
7.3888e-07 7.75578e-07 7.30679e-07 7.66981e-07 7.3888e-07 7.75578e-07 7.30679e-07 7.66981e-07 0
8.03124e-07 8.41702e-07 7.94215e-07 8.32338e-07 8.03124e-07 8.41702e-07 7.94215e-07 8.32338e-07 0
8.70673e-07 9.11265e-07 8.60949e-07 9.01017e-07 8.70673e-07 9.11265e-07 8.60949e-07 9.01017e-07 0
9.41754e-07 9.84486e-07 9.31094e-07 9.73222e-07 9.41754e-07 9.84486e-07 9.31094e-07 9.73222e-07 0
1.01659e-06 1.0616e-06 1.00485e-06 1.04914e-06 1.01659e-06 1.0616e-06 1.00485e-06 1.04914e-06 0
1.09539e-06 1.14273e-06 1.08239e-06 1.12895e-06 1.09539e-06 1.14273e-06 1.08239e-06 1.12895e-06 0
5.76811e-07 6.08957e-07 5.69292e-07 6.01209e-07 5.76811e-07 6.08957e-07 5.69292e-07 6.01209e-07 0
6.33061e-07 6.66779e-07 6.25127e-07 6.58565e-07 6.33061e-07 6.66779e-07 6.25127e-07 6.58565e-07 0
6.92098e-07 7.2757e-07 6.83659e-07 7.18795e-07 6.92098e-07 7.2757e-07 6.83659e-07 7.18795e-07 0
7.54226e-07 7.916e-07 7.45187e-07 7.82172e-07 7.54226e-07 7.916e-07 7.45187e-07 7.82172e-07 0
8.19689e-07 8.59078e-07 8.09947e-07 8.48864e-07 8.19689e-07 8.59078e-07 8.09947e-07 8.48864e-07 0
8.88687e-07 9.30218e-07 8.78101e-07 9.19085e-07 8.88687e-07 9.30218e-07 8.78101e-07 9.19085e-07 0
9.61445e-07 1.00526e-06 9.49882e-07 9.93065e-07 9.61445e-07 1.00526e-06 9.49882e-07 9.93065e-07 0
1.03822e-06 1.08449e-06 1.02553e-06 1.07106e-06 1.03822e-06 1.08449e-06 1.02553e-06 1.07106e-06 0
5.91013e-07 6.23542e-07 5.82633e-07 6.14942e-07 5.91013e-07 6.23542e-07 5.82633e-07 6.14942e-07 0
6.47963e-07 6.82165e-07 6.3918e-07 6.73102e-07 6.47963e-07 6.82165e-07 6.3918e-07 6.73102e-07 0
7.07877e-07 7.43938e-07 6.98586e-07 7.34305e-07 7.07877e-07 7.43938e-07 6.98586e-07 7.34305e-07 0
7.7107e-07 8.09154e-07 7.6116e-07 7.98828e-07 7.7107e-07 8.09154e-07 7.6116e-07 7.98828e-07 0
8.37815e-07 8.78055e-07 8.27154e-07 8.66897e-07 8.37815e-07 8.78055e-07 8.27154e-07 8.66897e-07 0
9.08337e-07 9.50853e-07 8.96785e-07 9.38726e-07 9.08337e-07 9.50853e-07 8.96785e-07 9.38726e-07 0
9.82857e-07 1.02781e-06 9.70276e-07 1.01456e-06 9.82857e-07 1.02781e-06 9.70276e-07 1.01456e-06 0
1.06167e-06 1.10928e-06 1.0479e-06 1.09473e-06 1.06167e-06 1.10928e-06 1.0479e-06 1.09473e-06 0
6.06728e-07 6.39649e-07 5.97472e-07 6.30165e-07 6.06728e-07 6.39649e-07 5.97472e-07 6.30165e-07 0
6.6441e-07 6.99149e-07 6.54726e-07 6.89146e-07 6.6441e-07 6.99149e-07 6.54726e-07 6.89146e-07 0
7.2529e-07 7.61984e-07 7.15033e-07 7.51355e-07 7.2529e-07 7.61984e-07 7.15033e-07 7.51355e-07 0
7.89609e-07 8.28408e-07 7.78693e-07 8.1708e-07 7.89609e-07 8.28408e-07 7.78693e-07 8.1708e-07 0
8.57657e-07 8.9879e-07 8.45987e-07 8.866e-07 8.57657e-07 8.9879e-07 8.45987e-07 8.866e-07 0
9.29783e-07 9.7335e-07 9.17176e-07 9.60128e-07 9.29783e-07 9.7335e-07 9.17176e-07 9.60128e-07 0
1.00619e-06 1.05237e-06 9.92477e-07 1.03794e-06 1.00619e-06 1.05237e-06 9.92477e-07 1.03794e-06 0
1.08721e-06 1.13626e-06 1.0722e-06 1.1204e-06 1.08721e-06 1.13626e-06 1.0722e-06 1.1204e-06 0
0 0 0 0 0 0 0 0 0
0 0 0 0 0 0 0 0 0
0 0 0 0 0 0 0 0 0
0 0 0 0 0 0 0 0 0
0 0 0 0 0 0 0 0 0
0 0 0 0 0 0 0 0 0
0 0 0 0 0 0 0 0 0
0 0 0 0 0 0 0 0 0
0 0 0 0 0 0 0 0 0
0 0 0 0 0 0 0 0 0
0 0 0 0 0 0 0 0 0
0 0 0 0 0 0 0 0 0
0 0 0 0 0 0 0 0 0
0 0 0 0 0 0 0 0 0
0 0 0 0 0 0 0 0 0
0 0 0 0 0 0 0 0 0
0 0 0 0 0 0 0 0 0
0 0 0 0 0 0 0 0 0
0 0 0 0 0 0 0 0 0
0 0 0 0 0 0 0 0 0
0 0 0 0 0 0 0 0 0
0 0 0 0 0 0 0 0 0
0 0 0 0 0 0 0 0 0
0 0 0 0 0 0 0 0 0
0 0 0 0 0 0 0 0 0
0 0 0 0 0 0 0 0 0
0 0 0 0 0 0 0 0 0
0 0 0 0 0 0 0 0 0
0 0 0 0 0 0 0 0 0
0 0 0 0 0 0 0 0 0
0 0 0 0 0 0 0 0 0
0 0 0 0 0 0 0 0 0
0 0 0 0 0 0 0 0 0
0 0 0 0 0 0 0 0 0
0 0 0 0 0 0 0 0 0
0 0 0 0 0 0 0 0 0
0 0 0 0 0 0 0 0 0
0 0 0 0 0 0 0 0 0
0 0 0 0 0 0 0 0 0
0 0 0 0 0 0 0 0 0
0 0 0 0 0 0 0 0 0
0 0 0 0 0 0 0 0 0
0 0 0 0 0 0 0 0 0
0 0 0 0 0 0 0 0 0
0 0 0 0 0 0 0 0 0
0 0 0 0 0 0 0 0 0
0 0 0 0 0 0 0 0 0
0 0 0 0 0 0 0 0 0
0 0 0 0 0 0 0 0 0
0 0 0 0 0 0 0 0 0
0 0 0 0 0 0 0 0 0
0 0 0 0 0 0 0 0 0
0 0 0 0 0 0 0 0 0
0 0 0 0 0 0 0 0 0
0 0 0 0 0 0 0 0 0
0 0 0 0 0 0 0 0 0
0 0 0 0 0 0 0 0 0
0 0 0 0 0 0 0 0 0
0 0 0 0 0 0 0 0 0
0 0 0 0 0 0 0 0 0
0 0 0 0 0 0 0 0 0
0 0 0 0 0 0 0 0 0
0 0 0 0 0 0 0 0 0
0 0 0 0 0 0 0 0 0
0 0 0 0 0 0 0 0 0
0 0 0 0 0 0 0 0 0
0 0 0 0 0 0 0 0 0
0 0 0 0 0 0 0 0 0
0 0 0 0 0 0 0 0 0
0 0 0 0 0 0 0 0 0
0 0 0 0 0 0 0 0 0
0 0 0 0 0 0 0 0 0
0 0 0 0 0 0 0 0 0
0 0 0 0 0 0 0 0 0
0 0 0 0 0 0 0 0 0
0 0 0 0 0 0 0 0 0
0 0 0 0 0 0 0 0 0
0 0 0 0 0 0 0 0 0
0 0 0 0 0 0 0 0 0
0 0 0 0 0 0 0 0 0
0 0 0 0 0 0 0 0 0
0 0 0 0 0 0 0 0 0
0 0 0 0 0 0 0 0 0
0 0 0 0 0 0 0 0 0
5.90901e-07 6.17827e-07 5.85787e-07 6.1225e-07 5.90901e-07 6.17827e-07 5.85787e-07 6.1225e-07 0
6.37838e-07 6.65585e-07 6.31893e-07 6.59096e-07 6.37838e-07 6.65585e-07 6.31893e-07 6.59096e-07 0
6.00632e-07 6.28435e-07 5.94874e-07 6.22159e-07 6.00632e-07 6.28435e-07 5.94874e-07 6.22159e-07 0
6.49097e-07 6.77749e-07 6.42444e-07 6.70579e-07 6.49097e-07 6.77749e-07 6.42444e-07 6.70579e-07 0
6.99042e-07 7.2857e-07 6.91476e-07 7.20434e-07 6.99042e-07 7.2857e-07 6.91476e-07 7.20434e-07 0
7.50477e-07 7.80806e-07 7.4191e-07 7.7163e-07 7.50477e-07 7.80806e-07 7.4191e-07 7.7163e-07 0
8.03267e-07 8.34308e-07 7.93632e-07 8.24025e-07 8.03267e-07 8.34308e-07 7.93632e-07 8.24025e-07 0
8.57208e-07 8.88732e-07 8.46425e-07 8.77231e-07 8.57208e-07 8.88732e-07 8.46425e-07 8.77231e-07 0
9.11911e-07 9.43713e-07 8.99863e-07 9.3089e-07 9.11911e-07 9.43713e-07 8.99863e-07 9.3089e-07 0
9.67012e-07 9.98863e-07 9.53597e-07 9.84606e-07 9.67012e-07 9.98863e-07 9.53597e-07 9.84606e-07 0
1.0221e-06 1.05372e-06 1.00719e-06 1.03788e-06 1.0221e-06 1.05372e-06 1.00719e-06 1.03788e-06 0
6.61489e-07 6.91021e-07 6.54195e-07 6.83221e-07 6.61489e-07 6.91021e-07 6.54195e-07 6.83221e-07 0
7.12987e-07 7.43474e-07 7.04801e-07 7.34738e-07 7.12987e-07 7.43474e-07 7.04801e-07 7.34738e-07 0
7.66114e-07 7.97486e-07 7.56957e-07 7.87728e-07 7.66114e-07 7.97486e-07 7.56957e-07 7.87728e-07 0
8.20742e-07 8.52912e-07 8.10526e-07 8.42043e-07 8.20742e-07 8.52912e-07 8.10526e-07 8.42043e-07 0
8.76689e-07 9.09481e-07 8.65312e-07 8.97369e-07 8.76689e-07 9.09481e-07 8.65312e-07 8.97369e-07 0
9.33638e-07 9.66847e-07 9.20957e-07 9.53344e-07 9.33638e-07 9.66847e-07 9.20957e-07 9.53344e-07 0
9.9122e-07 1.0246e-06 9.7709e-07 1.00958e-06 9.9122e-07 1.0246e-06 9.7709e-07 1.00958e-06 0
6.75092e-07 7.0547e-07 6.67083e-07 6.96977e-07 6.75092e-07 7.0547e-07 6.67083e-07 6.96977e-07 0
7.28087e-07 7.59507e-07 7.19221e-07 7.50106e-07 7.28087e-07 7.59507e-07 7.19221e-07 7.50106e-07 0
7.82865e-07 8.15269e-07 7.73051e-07 8.0486e-07 7.82865e-07 8.15269e-07 7.73051e-07 8.0486e-07 0
8.39319e-07 8.7263e-07 8.28452e-07 8.61103e-07 8.39319e-07 8.7263e-07 8.28452e-07 8.61103e-07 0
8.97293e-07 9.3137e-07 8.85254e-07 9.18587e-07 8.97293e-07 9.3137e-07 8.85254e-07 9.18587e-07 0
9.56519e-07 9.91155e-07 9.43162e-07 9.76974e-07 9.56519e-07 9.91155e-07 9.43162e-07 9.76974e-07 0
1.01664e-06 1.05162e-06 1.00181e-06 1.03586e-06 1.01664e-06 1.05162e-06 1.00181e-06 1.03586e-06 0
6.89978e-07 7.21168e-07 6.81222e-07 7.11947e-07 6.89978e-07 7.21168e-07 6.81222e-07 7.11947e-07 0
7.44414e-07 7.76743e-07 7.34832e-07 7.66639e-07 7.44414e-07 7.76743e-07 7.34832e-07 7.66639e-07 0
8.00807e-07 8.34231e-07 7.90297e-07 8.23133e-07 8.00807e-07 8.34231e-07 7.90297e-07 8.23133e-07 0
8.59075e-07 8.93534e-07 8.47519e-07 8.81314e-07 8.59075e-07 8.93534e-07 8.47519e-07 8.81314e-07 0
9.19092e-07 9.54468e-07 9.06355e-07 9.40979e-07 9.19092e-07 9.54468e-07 9.06355e-07 9.40979e-07 0
9.80631e-07 1.01674e-06 9.66553e-07 1.00181e-06 9.80631e-07 1.01674e-06 9.66553e-07 1.00181e-06 0
7.06201e-07 7.38172e-07 6.96667e-07 7.2819e-07 7.06201e-07 7.38172e-07 6.96667e-07 7.2819e-07 0
7.62028e-07 7.95245e-07 7.51696e-07 7.84402e-07 7.62028e-07 7.95245e-07 7.51696e-07 7.84402e-07 0
8.20003e-07 8.54441e-07 8.08761e-07 8.42614e-07 8.20003e-07 8.54441e-07 8.08761e-07 8.42614e-07 0
8.80076e-07 9.15689e-07 8.67793e-07 9.02739e-07 8.80076e-07 9.15689e-07 8.67793e-07 9.02739e-07 0
9.4215e-07 9.78841e-07 9.28677e-07 9.64607e-07 9.4215e-07 9.78841e-07 9.28677e-07 9.64607e-07 0
1.00603e-06 1.04365e-06 9.91204e-07 1.02795e-06 1.00603e-06 1.04365e-06 9.91204e-07 1.02795e-06 0
7.2381e-07 7.56538e-07 7.13469e-07 7.45763e-07 7.2381e-07 7.56538e-07 7.13469e-07 7.45763e-07 0
7.80989e-07 8.15078e-07 7.69872e-07 8.03459e-07 7.80989e-07 8.15078e-07 7.69872e-07 8.03459e-07 0
8.40524e-07 8.75969e-07 8.28508e-07 8.63372e-07 8.40524e-07 8.75969e-07 8.28508e-07 8.63372e-07 0
9.02396e-07 9.39169e-07 8.89342e-07 9.25444e-07 9.02396e-07 9.39169e-07 8.89342e-07 9.25444e-07 0
9.66544e-07 1.00458e-06 9.5229e-07 9.89545e-07 9.66544e-07 1.00458e-06 9.5229e-07 9.89545e-07 0
1.03282e-06 1.07196e-06 1.01718e-06 1.05543e-06 1.03282e-06 1.07196e-06 1.01718e-06 1.05543e-06 0
7.42855e-07 7.76321e-07 7.31679e-07 7.64721e-07 7.42855e-07 7.76321e-07 7.31679e-07 7.64721e-07 0
8.01357e-07 8.3631e-07 7.8942e-07 8.23875e-07 8.01357e-07 8.3631e-07 7.8942e-07 8.23875e-07 0
8.62439e-07 8.98892e-07 8.49609e-07 8.8548e-07 8.62439e-07 8.98892e-07 8.49609e-07 8.8548e-07 0
9.26116e-07 9.64059e-07 9.12243e-07 9.49509e-07 9.26116e-07 9.64059e-07 9.12243e-07 9.49509e-07 0
9.92361e-07 1.03176e-06 9.77274e-07 1.01588e-06 9.92361e-07 1.03176e-06 9.77274e-07 1.01588e-06 0
7.06248e-07 7.38907e-07 6.94851e-07 7.27161e-07 7.06248e-07 7.38907e-07 6.94851e-07 7.27161e-07 0
7.63373e-07 7.97578e-07 7.51343e-07 7.8512e-07 7.63373e-07 7.97578e-07 7.51343e-07 7.8512e-07 0
8.23199e-07 8.59016e-07 8.10403e-07 8.45721e-07 8.23199e-07 8.59016e-07 8.10403e-07 8.45721e-07 0
8.85832e-07 9.23302e-07 8.72139e-07 9.0902e-07 8.85832e-07 9.23302e-07 8.72139e-07 9.0902e-07 0
9.51332e-07 9.90466e-07 9.36583e-07 9.75027e-07 9.51332e-07 9.90466e-07 9.36583e-07 9.75027e-07 0
1.01971e-06 1.0605e-06 1.00372e-06 1.04371e-06 1.01971e-06 1.0605e-06 1.00372e-06 1.04371e-06 0
7.27204e-07 7.60482e-07 7.14914e-07 7.47832e-07 7.27204e-07 7.60482e-07 7.14914e-07 7.47832e-07 0
7.85444e-07 8.20386e-07 7.72507e-07 8.07023e-07 7.85444e-07 8.20386e-07 7.72507e-07 8.07023e-07 0
8.46596e-07 8.83289e-07 8.32892e-07 8.69077e-07 8.46596e-07 8.83289e-07 8.32892e-07 8.69077e-07 0
9.10802e-07 9.49307e-07 8.96186e-07 9.34091e-07 9.10802e-07 9.49307e-07 8.96186e-07 9.34091e-07 0
9.78168e-07 1.01854e-06 9.62468e-07 1.00212e-06 9.78168e-07 1.01854e-06 9.62468e-07 1.00212e-06 0
1.04876e-06 1.09096e-06 1.03177e-06 1.07315e-06 1.04876e-06 1.09096e-06 1.03177e-06 1.07315e-06 0
5.89451e-07 6.18407e-07 5.77449e-07 6.06237e-07 5.89451e-07 6.18407e-07 5.77449e-07 6.06237e-07 0
6.40153e-07 6.7062e-07 6.27837e-07 6.58075e-07 6.40153e-07 6.7062e-07 6.27837e-07 6.58075e-07 0
6.93525e-07 7.25651e-07 6.80791e-07 7.12629e-07 6.93525e-07 7.25651e-07 6.80791e-07 7.12629e-07 0
7.49804e-07 7.83688e-07 7.36551e-07 7.70087e-07 7.49804e-07 7.83688e-07 7.36551e-07 7.70087e-07 0
8.09148e-07 8.44847e-07 7.95259e-07 8.30517e-07 8.09148e-07 8.44847e-07 7.95259e-07 8.30517e-07 0
8.71662e-07 9.09255e-07 8.5698e-07 8.94049e-07 8.71662e-07 9.09255e-07 8.5698e-07 8.94049e-07 0
9.37487e-07 9.77058e-07 9.21863e-07 9.60814e-07 9.37487e-07 9.77058e-07 9.21863e-07 9.60814e-07 0
1.00677e-06 1.04842e-06 9.90033e-07 1.03094e-06 1.00677e-06 1.04842e-06 9.90033e-07 1.03094e-06 0
6.11453e-07 6.40706e-07 5.98565e-07 6.27645e-07 6.11453e-07 6.40706e-07 5.98565e-07 6.27645e-07 0
6.62709e-07 6.93584e-07 6.49498e-07 6.80136e-07 6.62709e-07 6.93584e-07 6.49498e-07 6.80136e-07 0
7.16829e-07 7.49478e-07 7.03182e-07 7.35525e-07 7.16829e-07 7.49478e-07 7.03182e-07 7.35525e-07 0
7.74061e-07 8.08598e-07 7.59855e-07 7.94005e-07 7.74061e-07 8.08598e-07 7.59855e-07 7.94005e-07 0
8.34589e-07 8.7109e-07 8.19684e-07 8.55715e-07 8.34589e-07 8.7109e-07 8.19684e-07 8.55715e-07 0
8.98545e-07 9.37084e-07 8.82796e-07 9.20782e-07 8.98545e-07 9.37084e-07 8.82796e-07 9.20782e-07 0
9.66069e-07 1.00676e-06 9.49327e-07 9.89363e-07 9.66069e-07 1.00676e-06 9.49327e-07 9.89363e-07 0
1.03737e-06 1.08035e-06 1.01945e-06 1.06166e-06 1.03737e-06 1.08035e-06 1.01945e-06 1.06166e-06 0
6.34941e-07 6.64529e-07 6.21205e-07 6.50592e-07 6.34941e-07 6.64529e-07 6.21205e-07 6.50592e-07 0
6.86833e-07 7.18196e-07 6.72716e-07 7.03785e-07 6.86833e-07 7.18196e-07 6.72716e-07 7.03785e-07 0
7.41834e-07 7.75072e-07 7.27188e-07 7.60077e-07 7.41834e-07 7.75072e-07 7.27188e-07 7.60077e-07 0
8.00117e-07 8.35331e-07 7.84851e-07 8.19672e-07 8.00117e-07 8.35331e-07 7.84851e-07 8.19672e-07 0
8.6189e-07 8.99266e-07 8.45898e-07 8.82759e-07 8.6189e-07 8.99266e-07 8.45898e-07 8.82759e-07 0
9.27414e-07 9.66976e-07 9.10499e-07 9.49459e-07 9.27414e-07 9.66976e-07 9.10499e-07 9.49459e-07 0
9.96776e-07 1.03867e-06 9.7878e-07 1.01996e-06 9.96776e-07 1.03867e-06 9.7878e-07 1.01996e-06 0
1.07025e-06 1.11467e-06 1.05097e-06 1.09455e-06 1.07025e-06 1.11467e-06 1.05097e-06 1.09455e-06 0
0 0 0 0 0 0 0 0 0
0 0 0 0 0 0 0 0 0
0 0 0 0 0 0 0 0 0
0 0 0 0 0 0 0 0 0
0 0 0 0 0 0 0 0 0
0 0 0 0 0 0 0 0 0
0 0 0 0 0 0 0 0 0
0 0 0 0 0 0 0 0 0
0 0 0 0 0 0 0 0 0
0 0 0 0 0 0 0 0 0
0 0 0 0 0 0 0 0 0
0 0 0 0 0 0 0 0 0
0 0 0 0 0 0 0 0 0
0 0 0 0 0 0 0 0 0
0 0 0 0 0 0 0 0 0
0 0 0 0 0 0 0 0 0
0 0 0 0 0 0 0 0 0
0 0 0 0 0 0 0 0 0
0 0 0 0 0 0 0 0 0
0 0 0 0 0 0 0 0 0
0 0 0 0 0 0 0 0 0
0 0 0 0 0 0 0 0 0
0 0 0 0 0 0 0 0 0
0 0 0 0 0 0 0 0 0
0 0 0 0 0 0 0 0 0
0 0 0 0 0 0 0 0 0
0 0 0 0 0 0 0 0 0
0 0 0 0 0 0 0 0 0
0 0 0 0 0 0 0 0 0
0 0 0 0 0 0 0 0 0
0 0 0 0 0 0 0 0 0
0 0 0 0 0 0 0 0 0
0 0 0 0 0 0 0 0 0
0 0 0 0 0 0 0 0 0
0 0 0 0 0 0 0 0 0
0 0 0 0 0 0 0 0 0
0 0 0 0 0 0 0 0 0
0 0 0 0 0 0 0 0 0
0 0 0 0 0 0 0 0 0
0 0 0 0 0 0 0 0 0
0 0 0 0 0 0 0 0 0
0 0 0 0 0 0 0 0 0
0 0 0 0 0 0 0 0 0
0 0 0 0 0 0 0 0 0
0 0 0 0 0 0 0 0 0
0 0 0 0 0 0 0 0 0
0 0 0 0 0 0 0 0 0
0 0 0 0 0 0 0 0 0
0 0 0 0 0 0 0 0 0
0 0 0 0 0 0 0 0 0
0 0 0 0 0 0 0 0 0
0 0 0 0 0 0 0 0 0
0 0 0 0 0 0 0 0 0
0 0 0 0 0 0 0 0 0
0 0 0 0 0 0 0 0 0
0 0 0 0 0 0 0 0 0
0 0 0 0 0 0 0 0 0
0 0 0 0 0 0 0 0 0
0 0 0 0 0 0 0 0 0
0 0 0 0 0 0 0 0 0
0 0 0 0 0 0 0 0 0
0 0 0 0 0 0 0 0 0
0 0 0 0 0 0 0 0 0
0 0 0 0 0 0 0 0 0
0 0 0 0 0 0 0 0 0
0 0 0 0 0 0 0 0 0
0 0 0 0 0 0 0 0 0
0 0 0 0 0 0 0 0 0
0 0 0 0 0 0 0 0 0
0 0 0 0 0 0 0 0 0
0 0 0 0 0 0 0 0 0
0 0 0 0 0 0 0 0 0
0 0 0 0 0 0 0 0 0
0 0 0 0 0 0 0 0 0
0 0 0 0 0 0 0 0 0
0 0 0 0 0 0 0 0 0
0 0 0 0 0 0 0 0 0
0 0 0 0 0 0 0 0 0
0 0 0 0 0 0 0 0 0
0 0 0 0 0 0 0 0 0
0 0 0 0 0 0 0 0 0
0 0 0 0 0 0 0 0 0
0 0 0 0 0 0 0 0 0
0 0 0 0 0 0 0 0 0
0 0 0 0 0 0 0 0 0
0 0 0 0 0 0 0 0 0
0 0 0 0 0 0 0 0 0
0 0 0 0 0 0 0 0 0
0 0 0 0 0 0 0 0 0
0 0 0 0 0 0 0 0 0
0 0 0 0 0 0 0 0 0
0 0 0 0 0 0 0 0 0
0 0 0 0 0 0 0 0 0
0 0 0 0 0 0 0 0 0
0 0 0 0 0 0 0 0 0
0 0 0 0 0 0 0 0 0
0 0 0 0 0 0 0 0 0
0 0 0 0 0 0 0 0 0
0 0 0 0 0 0 0 0 0
0 0 0 0 0 0 0 0 0
0 0 0 0 0 0 0 0 0
0 0 0 0 0 0 0 0 0
0 0 0 0 0 0 0 0 0
0 0 0 0 0 0 0 0 0
0 0 0 0 0 0 0 0 0
0 0 0 0 0 0 0 0 0
0 0 0 0 0 0 0 0 0
0 0 0 0 0 0 0 0 0
0 0 0 0 0 0 0 0 0
0 0 0 0 0 0 0 0 0
0 0 0 0 0 0 0 0 0
0 0 0 0 0 0 0 0 0
0 0 0 0 0 0 0 0 0
0 0 0 0 0 0 0 0 0
0 0 0 0 0 0 0 0 0
0 0 0 0 0 0 0 0 0
0 0 0 0 0 0 0 0 0
0 0 0 0 0 0 0 0 0
0 0 0 0 0 0 0 0 0
0 0 0 0 0 0 0 0 0
0 0 0 0 0 0 0 0 0
0 0 0 0 0 0 0 0 0
0 0 0 0 0 0 0 0 0
0 0 0 0 0 0 0 0 0
0 0 0 0 0 0 0 0 0
0 0 0 0 0 0 0 0 0
0 0 0 0 0 0 0 0 0
0 0 0 0 0 0 0 0 0
0 0 0 0 0 0 0 0 0
0 0 0 0 0 0 0 0 0
0 0 0 0 0 0 0 0 0
0 0 0 0 0 0 0 0 0
0 0 0 0 0 0 0 0 0
0 0 0 0 0 0 0 0 0
0 0 0 0 0 0 0 0 0
0 0 0 0 0 0 0 0 0
0 0 0 0 0 0 0 0 0
0 0 0 0 0 0 0 0 0
0 0 0 0 0 0 0 0 0
0 0 0 0 0 0 0 0 0
0 0 0 0 0 0 0 0 0
0 0 0 0 0 0 0 0 0
0 0 0 0 0 0 0 0 0
0 0 0 0 0 0 0 0 0
0 0 0 0 0 0 0 0 0
0 0 0 0 0 0 0 0 0
0 0 0 0 0 0 0 0 0
0 0 0 0 0 0 0 0 0
0 0 0 0 0 0 0 0 0
0 0 0 0 0 0 0 0 0
0 0 0 0 0 0 0 0 0
0 0 0 0 0 0 0 0 0
0 0 0 0 0 0 0 0 0
0 0 0 0 0 0 0 0 0
0 0 0 0 0 0 0 0 0
0 0 0 0 0 0 0 0 0
0 0 0 0 0 0 0 0 0
0 0 0 0 0 0 0 0 0
0 0 0 0 0 0 0 0 0
0 0 0 0 0 0 0 0 0
0 0 0 0 0 0 0 0 0
0 0 0 0 0 0 0 0 0
0 0 0 0 0 0 0 0 0
0 0 0 0 0 0 0 0 0
0 0 0 0 0 0 0 0 0
0 0 0 0 0 0 0 0 0
0 0 0 0 0 0 0 0 0
0 0 0 0 0 0 0 0 0
0 0 0 0 0 0 0 0 0
0 0 0 0 0 0 0 0 0
0 0 0 0 0 0 0 0 0
0 0 0 0 0 0 0 0 0
0 0 0 0 0 0 0 0 0
0 0 0 0 0 0 0 0 0
0 0 0 0 0 0 0 0 0
0 0 0 0 0 0 0 0 0
0 0 0 0 0 0 0 0 0
0 0 0 0 0 0 0 0 0
0 0 0 0 0 0 0 0 0
0 0 0 0 0 0 0 0 0
0 0 0 0 0 0 0 0 0
0 0 0 0 0 0 0 0 0
0 0 0 0 0 0 0 0 0
0 0 0 0 0 0 0 0 0
0 0 0 0 0 0 0 0 0
0 0 0 0 0 0 0 0 0
0 0 0 0 0 0 0 0 0
0 0 0 0 0 0 0 0 0
0 0 0 0 0 0 0 0 0
0 0 0 0 0 0 0 0 0
0 0 0 0 0 0 0 0 0
0 0 0 0 0 0 0 0 0
0 0 0 0 0 0 0 0 0
0 0 0 0 0 0 0 0 0
0 0 0 0 0 0 0 0 0
0 0 0 0 0 0 0 0 0
0 0 0 0 0 0 0 0 0
0 0 0 0 0 0 0 0 0
0 0 0 0 0 0 0 0 0
0 0 0 0 0 0 0 0 0
0 0 0 0 0 0 0 0 0
0 0 0 0 0 0 0 0 0
0 0 0 0 0 0 0 0 0
0 0 0 0 0 0 0 0 0
0 0 0 0 0 0 0 0 0
0 0 0 0 0 0 0 0 0
0 0 0 0 0 0 0 0 0
0 0 0 0 0 0 0 0 0
0 0 0 0 0 0 0 0 0
0 0 0 0 0 0 0 0 0
0 0 0 0 0 0 0 0 0
0 0 0 0 0 0 0 0 0
0 0 0 0 0 0 0 0 0
0 0 0 0 0 0 0 0 0
0 0 0 0 0 0 0 0 0
0 0 0 0 0 0 0 0 0
0 0 0 0 0 0 0 0 0
0 0 0 0 0 0 0 0 0
0 0 0 0 0 0 0 0 0
0 0 0 0 0 0 0 0 0
0 0 0 0 0 0 0 0 0
0 0 0 0 0 0 0 0 0
0 0 0 0 0 0 0 0 0
0 0 0 0 0 0 0 0 0
0 0 0 0 0 0 0 0 0
0 0 0 0 0 0 0 0 0
0 0 0 0 0 0 0 0 0
0 0 0 0 0 0 0 0 0
0 0 0 0 0 0 0 0 0
0 0 0 0 0 0 0 0 0
0 0 0 0 0 0 0 0 0
0 0 0 0 0 0 0 0 0
0 0 0 0 0 0 0 0 0
0 0 0 0 0 0 0 0 0
0 0 0 0 0 0 0 0 0
0 0 0 0 0 0 0 0 0
0 0 0 0 0 0 0 0 0
0 0 0 0 0 0 0 0 0
0 0 0 0 0 0 0 0 0
0 0 0 0 0 0 0 0 0
0 0 0 0 0 0 0 0 0
0 0 0 0 0 0 0 0 0
0 0 0 0 0 0 0 0 0
0 0 0 0 0 0 0 0 0
0 0 0 0 0 0 0 0 0
0 0 0 0 0 0 0 0 0
0 0 0 0 0 0 0 0 0
0 0 0 0 0 0 0 0 0
0 0 0 0 0 0 0 0 0
0 0 0 0 0 0 0 0 0
0 0 0 0 0 0 0 0 0
0 0 0 0 0 0 0 0 0
0 0 0 0 0 0 0 0 0
0 0 0 0 0 0 0 0 0
0 0 0 0 0 0 0 0 0
0 0 0 0 0 0 0 0 0
0 0 0 0 0 0 0 0 0
0 0 0 0 0 0 0 0 0
0 0 0 0 0 0 0 0 0
0 0 0 0 0 0 0 0 0
0 0 0 0 0 0 0 0 0
0 0 0 0 0 0 0 0 0
0 0 0 0 0 0 0 0 0
0 0 0 0 0 0 0 0 0
0 0 0 0 0 0 0 0 0
0 0 0 0 0 0 0 0 0
0 0 0 0 0 0 0 0 0
0 0 0 0 0 0 0 0 0
0 0 0 0 0 0 0 0 0
0 0 0 0 0 0 0 0 0
0 0 0 0 0 0 0 0 0
0 0 0 0 0 0 0 0 0
0 0 0 0 0 0 0 0 0
0 0 0 0 0 0 0 0 0
0 0 0 0 0 0 0 0 0
0 0 0 0 0 0 0 0 0
0 0 0 0 0 0 0 0 0
0 0 0 0 0 0 0 0 0
0 0 0 0 0 0 0 0 0
0 0 0 0 0 0 0 0 0
0 0 0 0 0 0 0 0 0
0 0 0 0 0 0 0 0 0
0 0 0 0 0 0 0 0 0
0 0 0 0 0 0 0 0 0
0 0 0 0 0 0 0 0 0
0 0 0 0 0 0 0 0 0
0 0 0 0 0 0 0 0 0
0 0 0 0 0 0 0 0 0
0 0 0 0 0 0 0 0 0
0 0 0 0 0 0 0 0 0
0 0 0 0 0 0 0 0 0
0 0 0 0 0 0 0 0 0
0 0 0 0 0 0 0 0 0
0 0 0 0 0 0 0 0 0
0 0 0 0 0 0 0 0 0
0 0 0 0 0 0 0 0 0
0 0 0 0 0 0 0 0 0
0 0 0 0 0 0 0 0 0
0 0 0 0 0 0 0 0 0
0 0 0 0 0 0 0 0 0
0 0 0 0 0 0 0 0 0
0 0 0 0 0 0 0 0 0
0 0 0 0 0 0 0 0 0
0 0 0 0 0 0 0 0 0
0 0 0 0 0 0 0 0 0
0 0 0 0 0 0 0 0 0
0 0 0 0 0 0 0 0 0
0 0 0 0 0 0 0 0 0
0 0 0 0 0 0 0 0 0
0 0 0 0 0 0 0 0 0
0 0 0 0 0 0 0 0 0
0 0 0 0 0 0 0 0 0
0 0 0 0 0 0 0 0 0
0 0 0 0 0 0 0 0 0
0 0 0 0 0 0 0 0 0
0 0 0 0 0 0 0 0 0
0 0 0 0 0 0 0 0 0
0 0 0 0 0 0 0 0 0
0 0 0 0 0 0 0 0 0
0 0 0 0 0 0 0 0 0
0 0 0 0 0 0 0 0 0
0 0 0 0 0 0 0 0 0
0 0 0 0 0 0 0 0 0
0 0 0 0 0 0 0 0 0
0 0 0 0 0 0 0 0 0
0 0 0 0 0 0 0 0 0
0 0 0 0 0 0 0 0 0
0 0 0 0 0 0 0 0 0
0 0 0 0 0 0 0 0 0
0 0 0 0 0 0 0 0 0
0 0 0 0 0 0 0 0 0
0 0 0 0 0 0 0 0 0
0 0 0 0 0 0 0 0 0
0 0 0 0 0 0 0 0 0
0 0 0 0 0 0 0 0 0
0 0 0 0 0 0 0 0 0
0 0 0 0 0 0 0 0 0
0 0 0 0 0 0 0 0 0
0 0 0 0 0 0 0 0 0
0 0 0 0 0 0 0 0 0
0 0 0 0 0 0 0 0 0
0 0 0 0 0 0 0 0 0
0 0 0 0 0 0 0 0 0
0 0 0 0 0 0 0 0 0
0 0 0 0 0 0 0 0 0
0 0 0 0 0 0 0 0 0
0 0 0 0 0 0 0 0 0
0 0 0 0 0 0 0 0 0
0 0 0 0 0 0 0 0 0
0 0 0 0 0 0 0 0 0
0 0 0 0 0 0 0 0 0
0 0 0 0 0 0 0 0 0
0 0 0 0 0 0 0 0 0
0 0 0 0 0 0 0 0 0
0 0 0 0 0 0 0 0 0
0 0 0 0 0 0 0 0 0
0 0 0 0 0 0 0 0 0
0 0 0 0 0 0 0 0 0
0 0 0 0 0 0 0 0 0
0 0 0 0 0 0 0 0 0
0 0 0 0 0 0 0 0 0
0 0 0 0 0 0 0 0 0
0 0 0 0 0 0 0 0 0
0 0 0 0 0 0 0 0 0
0 0 0 0 0 0 0 0 0
0 0 0 0 0 0 0 0 0
0 0 0 0 0 0 0 0 0
0 0 0 0 0 0 0 0 0
0 0 0 0 0 0 0 0 0
0 0 0 0 0 0 0 0 0
0 0 0 0 0 0 0 0 0
0 0 0 0 0 0 0 0 0
0 0 0 0 0 0 0 0 0
0 0 0 0 0 0 0 0 0
0 0 0 0 0 0 0 0 0
0 0 0 0 0 0 0 0 0
0 0 0 0 0 0 0 0 0
0 0 0 0 0 0 0 0 0
0 0 0 0 0 0 0 0 0
0 0 0 0 0 0 0 0 0
0 0 0 0 0 0 0 0 0
0 0 0 0 0 0 0 0 0
0 0 0 0 0 0 0 0 0
0 0 0 0 0 0 0 0 0
0 0 0 0 0 0 0 0 0
0 0 0 0 0 0 0 0 0
0 0 0 0 0 0 0 0 0
0 0 0 0 0 0 0 0 0
0 0 0 0 0 0 0 0 0
0 0 0 0 0 0 0 0 0
0 0 0 0 0 0 0 0 0
0 0 0 0 0 0 0 0 0
0 0 0 0 0 0 0 0 0
0 0 0 0 0 0 0 0 0
0 0 0 0 0 0 0 0 0
0 0 0 0 0 0 0 0 0
0 0 0 0 0 0 0 0 0
0 0 0 0 0 0 0 0 0
0 0 0 0 0 0 0 0 0
0 0 0 0 0 0 0 0 0
0 0 0 0 0 0 0 0 0
0 0 0 0 0 0 0 0 0
0 0 0 0 0 0 0 0 0
0 0 0 0 0 0 0 0 0
0 0 0 0 0 0 0 0 0
0 0 0 0 0 0 0 0 0
0 0 0 0 0 0 0 0 0
0 0 0 0 0 0 0 0 0
0 0 0 0 0 0 0 0 0
0 0 0 0 0 0 0 0 0
0 0 0 0 0 0 0 0 0
0 0 0 0 0 0 0 0 0
0 0 0 0 0 0 0 0 0
0 0 0 0 0 0 0 0 0
0 0 0 0 0 0 0 0 0
0 0 0 0 0 0 0 0 0
SCALARS DNormal double 9
LOOKUP_TABLE default
0 0 0 0 0 0 0 0 0
0 0 0 0 0 0 0 0 0
0 0 0 0 0 0 0 0 0
0 0 0 0 0 0 0 0 0
0 0 0 0 0 0 0 0 0
0 0 0 0 0 0 0 0 0
0 0 0 0 0 0 0 0 0
0 0 0 0 0 0 0 0 0
0 0 0 0 0 0 0 0 0
0 0 0 0 0 0 0 0 0
0 0 0 0 0 0 0 0 0
0 0 0 0 0 0 0 0 0
0 0 0 0 0 0 0 0 0
0 0 0 0 0 0 0 0 0
0 0 0 0 0 0 0 0 0
0 0 0 0 0 0 0 0 0
0 0 0 0 0 0 0 0 0
0 0 0 0 0 0 0 0 0
0 0 0 0 0 0 0 0 0
0 0 0 0 0 0 0 0 0
0 0 0 0 0 0 0 0 0
0 0 0 0 0 0 0 0 0
0 0 0 0 0 0 0 0 0
0 0 0 0 0 0 0 0 0
0 0 0 0 0 0 0 0 0
0 0 0 0 0 0 0 0 0
0 0 0 0 0 0 0 0 0
0 0 0 0 0 0 0 0 0
0 0 0 0 0 0 0 0 0
0 0 0 0 0 0 0 0 0
0 0 0 0 0 0 0 0 0
0 0 0 0 0 0 0 0 0
0 0 0 0 0 0 0 0 0
0 0 0 0 0 0 0 0 0
0 0 0 0 0 0 0 0 0
0 0 0 0 0 0 0 0 0
0 0 0 0 0 0 0 0 0
0 0 0 0 0 0 0 0 0
0 0 0 0 0 0 0 0 0
0 0 0 0 0 0 0 0 0
0 0 0 0 0 0 0 0 0
0 0 0 0 0 0 0 0 0
0 0 0 0 0 0 0 0 0
0 0 0 0 0 0 0 0 0
0 0 0 0 0 0 0 0 0
0 0 0 0 0 0 0 0 0
0 0 0 0 0 0 0 0 0
0 0 0 0 0 0 0 0 0
0 0 0 0 0 0 0 0 0
0 0 0 0 0 0 0 0 0
0 0 0 0 0 0 0 0 0
0 0 0 0 0 0 0 0 0
0 0 0 0 0 0 0 0 0
0 0 0 0 0 0 0 0 0
0 0 0 0 0 0 0 0 0
0 0 0 0 0 0 0 0 0
0 0 0 0 0 0 0 0 0
0 0 0 0 0 0 0 0 0
0 0 0 0 0 0 0 0 0
0 0 0 0 0 0 0 0 0
0 0 0 0 0 0 0 0 0
0 0 0 0 0 0 0 0 0
0 0 0 0 0 0 0 0 0
0 0 0 0 0 0 0 0 0
0 0 0 0 0 0 0 0 0
0 0 0 0 0 0 0 0 0
0 0 0 0 0 0 0 0 0
0 0 0 0 0 0 0 0 0
0 0 0 0 0 0 0 0 0
0 0 0 0 0 0 0 0 0
0 0 0 0 0 0 0 0 0
0 0 0 0 0 0 0 0 0
0 0 0 0 0 0 0 0 0
0 0 0 0 0 0 0 0 0
0 0 0 0 0 0 0 0 0
0 0 0 0 0 0 0 0 0
0 0 0 0 0 0 0 0 0
0 0 0 0 0 0 0 0 0
0 0 0 0 0 0 0 0 0
0 0 0 0 0 0 0 0 0
0 0 0 0 0 0 0 0 0
0 0 0 0 0 0 0 0 0
0 0 0 0 0 0 0 0 0
0 0 0 0 0 0 0 0 0
0 0 0 0 0 0 0 0 0
0 0 0 0 0 0 0 0 0
0 0 0 0 0 0 0 0 0
0 0 0 0 0 0 0 0 0
0 0 0 0 0 0 0 0 0
0 0 0 0 0 0 0 0 0
0 0 0 0 0 0 0 0 0
0 0 0 0 0 0 0 0 0
0 0 0 0 0 0 0 0 0
0 0 0 0 0 0 0 0 0
0 0 0 0 0 0 0 0 0
0 0 0 0 0 0 0 0 0
0 0 0 0 0 0 0 0 0
0 0 0 0 0 0 0 0 0
0 0 0 0 0 0 0 0 0
0 0 0 0 0 0 0 0 0
0 0 0 0 0 0 0 0 0
0 0 0 0 0 0 0 0 0
0 0 0 0 0 0 0 0 0
0 0 0 0 0 0 0 0 0
0 0 0 0 0 0 0 0 0
0 0 0 0 0 0 0 0 0
0 0 0 0 0 0 0 0 0
0 0 0 0 0 0 0 0 0
0 0 0 0 0 0 0 0 0
0 0 0 0 0 0 0 0 0
0 0 0 0 0 0 0 0 0
0 0 0 0 0 0 0 0 0
0 0 0 0 0 0 0 0 0
0 0 0 0 0 0 0 0 0
0 0 0 0 0 0 0 0 0
0 0 0 0 0 0 0 0 0
0 0 0 0 0 0 0 0 0
0 0 0 0 0 0 0 0 0
0 0 0 0 0 0 0 0 0
0 0 0 0 0 0 0 0 0
0 0 0 0 0 0 0 0 0
0 0 0 0 0 0 0 0 0
0 0 0 0 0 0 0 0 0
0 0 0 0 0 0 0 0 0
0 0 0 0 0 0 0 0 0
0 0 0 0 0 0 0 0 0
0 0 0 0 0 0 0 0 0
0 0 0 0 0 0 0 0 0
0 0 0 0 0 0 0 0 0
0 0 0 0 0 0 0 0 0
0 0 0 0 0 0 0 0 0
0 0 0 0 0 0 0 0 0
0 0 0 0 0 0 0 0 0
0 0 0 0 0 0 0 0 0
0 0 0 0 0 0 0 0 0
0 0 0 0 0 0 0 0 0
0 0 0 0 0 0 0 0 0
0 0 0 0 0 0 0 0 0
0 0 0 0 0 0 0 0 0
0 0 0 0 0 0 0 0 0
0 0 0 0 0 0 0 0 0
0 0 0 0 0 0 0 0 0
0 0 0 0 0 0 0 0 0
0 0 0 0 0 0 0 0 0
0 0 0 0 0 0 0 0 0
0 0 0 0 0 0 0 0 0
0 0 0 0 0 0 0 0 0
0 0 0 0 0 0 0 0 0
0 0 0 0 0 0 0 0 0
0 0 0 0 0 0 0 0 0
0 0 0 0 0 0 0 0 0
0 0 0 0 0 0 0 0 0
0 0 0 0 0 0 0 0 0
0 0 0 0 0 0 0 0 0
0 0 0 0 0 0 0 0 0
0 0 0 0 0 0 0 0 0
0 0 0 0 0 0 0 0 0
0 0 0 0 0 0 0 0 0
0 0 0 0 0 0 0 0 0
0 0 0 0 0 0 0 0 0
0 0 0 0 0 0 0 0 0
0 0 0 0 0 0 0 0 0
0 0 0 0 0 0 0 0 0
1.49349e-08 1.57415e-08 1.56194e-08 1.64329e-08 1.49349e-08 1.57415e-08 1.56194e-08 1.64329e-08 0
1.62567e-08 1.71482e-08 1.69536e-08 1.7847e-08 1.62567e-08 1.71482e-08 1.69536e-08 1.7847e-08 0
1.36581e-08 1.44608e-08 1.43737e-08 1.51758e-08 1.36581e-08 1.44608e-08 1.43737e-08 1.51758e-08 0
1.49663e-08 1.58506e-08 1.56845e-08 1.65718e-08 1.49663e-08 1.58506e-08 1.56845e-08 1.65718e-08 0
1.64089e-08 1.73757e-08 1.71343e-08 1.81029e-08 1.64089e-08 1.73757e-08 1.71343e-08 1.81029e-08 0
1.79867e-08 1.90342e-08 1.87182e-08 1.97682e-08 1.79867e-08 1.90342e-08 1.87182e-08 1.97682e-08 0
1.97004e-08 2.08353e-08 2.04411e-08 2.15841e-08 1.97004e-08 2.08353e-08 2.04411e-08 2.15841e-08 0
2.15711e-08 2.28243e-08 2.23275e-08 2.35848e-08 2.15711e-08 2.28243e-08 2.23275e-08 2.35848e-08 0
2.36514e-08 2.50489e-08 2.44169e-08 2.58151e-08 2.36514e-08 2.50489e-08 2.44169e-08 2.58151e-08 0
2.59868e-08 2.75527e-08 2.67547e-08 2.83146e-08 2.59868e-08 2.75527e-08 2.67547e-08 2.83146e-08 0
2.86252e-08 3.0396e-08 2.93839e-08 3.11415e-08 2.86252e-08 3.0396e-08 2.93839e-08 3.11415e-08 0
1.36301e-08 1.45047e-08 1.43779e-08 1.52571e-08 1.36301e-08 1.45047e-08 1.43779e-08 1.52571e-08 0
1.50497e-08 1.60062e-08 1.58082e-08 1.677e-08 1.50497e-08 1.60062e-08 1.58082e-08 1.677e-08 0
1.66035e-08 1.76417e-08 1.73734e-08 1.84158e-08 1.66035e-08 1.76417e-08 1.73734e-08 1.84158e-08 0
1.82952e-08 1.94247e-08 1.90738e-08 2.02032e-08 1.82952e-08 1.94247e-08 1.90738e-08 2.02032e-08 0
2.01477e-08 2.1393e-08 2.09303e-08 2.21782e-08 2.01477e-08 2.1393e-08 2.09303e-08 2.21782e-08 0
2.22064e-08 2.35975e-08 2.29968e-08 2.43903e-08 2.22064e-08 2.35975e-08 2.29968e-08 2.43903e-08 0
2.45241e-08 2.60902e-08 2.53212e-08 2.68865e-08 2.45241e-08 2.60902e-08 2.53212e-08 2.68865e-08 0
1.22517e-08 1.31154e-08 1.30245e-08 1.38933e-08 1.22517e-08 1.31154e-08 1.30245e-08 1.38933e-08 0
1.3646e-08 1.45904e-08 1.44304e-08 1.53806e-08 1.3646e-08 1.45904e-08 1.44304e-08 1.53806e-08 0
1.5173e-08 1.62009e-08 1.59697e-08 1.70022e-08 1.5173e-08 1.62009e-08 1.59697e-08 1.70022e-08 0
1.68407e-08 1.79625e-08 1.76479e-08 1.87735e-08 1.68407e-08 1.79625e-08 1.76479e-08 1.87735e-08 0
1.86716e-08 1.99081e-08 1.94886e-08 2.07289e-08 1.86716e-08 1.99081e-08 1.94886e-08 2.07289e-08 0
2.07073e-08 2.20914e-08 2.15337e-08 2.29202e-08 2.07073e-08 2.20914e-08 2.15337e-08 2.29202e-08 0
2.30025e-08 2.45579e-08 2.3838e-08 2.53992e-08 2.30025e-08 2.45579e-08 2.3838e-08 2.53992e-08 0
1.08312e-08 1.16834e-08 1.16305e-08 1.24883e-08 1.08312e-08 1.16834e-08 1.16305e-08 1.24883e-08 0
1.21996e-08 1.31317e-08 1.30111e-08 1.3949e-08 1.21996e-08 1.31317e-08 1.30111e-08 1.3949e-08 0
1.36992e-08 1.47158e-08 1.45233e-08 1.55453e-08 1.36992e-08 1.47158e-08 1.45233e-08 1.55453e-08 0
1.53405e-08 1.6452e-08 1.61767e-08 1.72929e-08 1.53405e-08 1.6452e-08 1.61767e-08 1.72929e-08 0
1.71452e-08 1.83703e-08 1.79932e-08 1.92237e-08 1.71452e-08 1.83703e-08 1.79932e-08 1.92237e-08 0
1.91506e-08 2.05183e-08 2.0013e-08 2.13901e-08 1.91506e-08 2.05183e-08 2.0013e-08 2.13901e-08 0
0 1.02094e-08 1.01943e-08 1.10406e-08 0 1.02094e-08 1.01943e-08 1.10406e-08 0
1.07113e-08 1.16309e-08 1.15492e-08 1.24749e-08 1.07113e-08 1.16309e-08 1.15492e-08 1.24749e-08 0
1.21831e-08 1.31876e-08 1.30342e-08 1.40445e-08 1.21831e-08 1.31876e-08 1.30342e-08 1.40445e-08 0
1.37962e-08 1.48952e-08 1.46606e-08 1.57657e-08 1.37962e-08 1.48952e-08 1.46606e-08 1.57657e-08 0
1.55704e-08 1.67802e-08 1.64495e-08 1.76671e-08 1.55704e-08 1.67802e-08 1.64495e-08 1.76671e-08 0
1.75395e-08 1.88889e-08 1.84363e-08 1.97947e-08 1.75395e-08 1.88889e-08 1.84363e-08 1.97947e-08 0
0 0 0 0 0 0 0 0 0
0 1.00901e-08 1.00465e-08 1.09599e-08 0 1.00901e-08 1.00465e-08 1.09599e-08 0
1.0627e-08 1.16186e-08 1.1504e-08 1.25019e-08 1.0627e-08 1.16186e-08 1.1504e-08 1.25019e-08 0
1.22104e-08 1.32951e-08 1.31018e-08 1.41937e-08 1.22104e-08 1.32951e-08 1.31018e-08 1.41937e-08 0
1.39514e-08 1.51447e-08 1.4859e-08 1.60605e-08 1.39514e-08 1.51447e-08 1.4859e-08 1.60605e-08 0
1.58803e-08 1.7205e-08 1.6808e-08 1.81466e-08 1.58803e-08 1.7205e-08 1.6808e-08 1.81466e-08 0
0 0 0 0 0 0 0 0 0
0 0 0 0 0 0 0 0 0
0 1.00138e-08 0 1.09208e-08 0 1.00138e-08 0 1.09208e-08 0
1.05887e-08 1.16579e-08 1.15039e-08 1.25811e-08 1.05887e-08 1.16579e-08 1.15039e-08 1.25811e-08 0
1.22949e-08 1.34712e-08 1.32275e-08 1.44125e-08 1.22949e-08 1.34712e-08 1.32275e-08 1.44125e-08 0
0 0 0 0 0 0 0 0 0
0 0 0 0 0 0 0 0 0
0 0 0 0 0 0 0 0 0
0 0 0 0 0 0 0 0 0
0 0 0 1.09361e-08 0 0 0 1.09361e-08 0
1.06123e-08 1.17666e-08 1.15631e-08 1.27299e-08 1.06123e-08 1.17666e-08 1.15631e-08 1.27299e-08 0
0 0 0 0 0 0 0 0 0
0 0 0 0 0 0 0 0 0
0 0 0 0 0 0 0 0 0
0 0 0 0 0 0 0 0 0
0 0 0 0 0 0 0 0 0
0 1.00621e-08 0 1.10263e-08 0 1.00621e-08 0 1.10263e-08 0
0 0 0 0 0 0 0 0 0
0 0 0 0 0 0 0 0 0
0 0 0 0 0 0 0 0 0
0 0 0 0 0 0 0 0 0
0 0 0 0 0 0 0 0 0
0 0 0 0 0 0 0 0 0
0 0 0 0 0 0 0 0 0
0 0 0 0 0 0 0 0 0
0 0 0 0 0 0 0 0 0
0 0 0 0 0 0 0 0 0
0 0 0 0 0 0 0 0 0
0 0 0 0 0 0 0 0 0
0 0 0 0 0 0 0 0 0
0 0 0 0 0 0 0 0 0
0 0 0 0 0 0 0 0 0
0 0 0 0 0 0 0 0 0
0 0 0 0 0 0 0 0 0
0 0 0 0 0 0 0 0 0
0 0 0 0 0 0 0 0 0
0 0 0 0 0 0 0 0 0
0 0 0 0 0 0 0 0 0
0 0 0 0 0 0 0 0 0
0 0 0 0 0 0 0 0 0
0 0 0 0 0 0 0 0 0
0 0 0 0 0 0 0 0 0
0 0 0 0 0 0 0 0 0
0 0 0 0 0 0 0 0 0
0 0 0 0 0 0 0 0 0
0 0 0 0 0 0 0 0 0
0 0 0 0 0 0 0 0 0
0 0 0 0 0 0 0 0 0
0 0 0 0 0 0 0 0 0
0 0 0 0 0 0 0 0 0
0 0 0 0 0 0 0 0 0
0 0 0 0 0 0 0 0 0
0 0 0 0 0 0 0 0 0
0 0 0 0 0 0 0 0 0
0 0 0 0 0 0 0 0 0
0 0 0 0 0 0 0 0 0
0 0 0 0 0 0 0 0 0
0 0 0 0 0 0 0 0 0
0 0 0 0 0 0 0 0 0
0 0 0 0 0 0 0 0 0
0 0 0 0 0 0 0 0 0
0 0 0 0 0 0 0 0 0
0 0 0 0 0 0 0 0 0
0 0 0 0 0 0 0 0 0
0 0 0 0 0 0 0 0 0
0 0 0 0 0 0 0 0 0
0 0 0 0 0 0 0 0 0
0 0 0 0 0 0 0 0 0
0 0 0 0 0 0 0 0 0
0 0 0 0 0 0 0 0 0
0 0 0 0 0 0 0 0 0
0 0 0 0 0 0 0 0 0
0 0 0 0 0 0 0 0 0
0 0 0 0 0 0 0 0 0
0 0 0 0 0 0 0 0 0
0 0 0 0 0 0 0 0 0
0 0 0 0 0 0 0 0 0
0 0 0 0 0 0 0 0 0
0 0 0 0 0 0 0 0 0
0 0 0 0 0 0 0 0 0
0 0 0 0 0 0 0 0 0
0 0 0 0 0 0 0 0 0
0 0 0 0 0 0 0 0 0
0 0 0 0 0 0 0 0 0
0 0 0 0 0 0 0 0 0
0 0 0 0 0 0 0 0 0
0 0 0 0 0 0 0 0 0
0 0 0 0 0 0 0 0 0
0 0 0 0 0 0 0 0 0
0 0 0 0 0 0 0 0 0
0 0 0 0 0 0 0 0 0
0 0 0 0 0 0 0 0 0
0 0 0 0 0 0 0 0 0
0 0 0 0 0 0 0 0 0
0 0 0 0 0 0 0 0 0
0 0 0 0 0 0 0 0 0
0 0 0 0 0 0 0 0 0
0 0 0 0 0 0 0 0 0
0 0 0 0 0 0 0 0 0
0 0 0 0 0 0 0 0 0
0 0 0 0 0 0 0 0 0
0 0 0 0 0 0 0 0 0
0 0 0 0 0 0 0 0 0
0 0 0 0 0 0 0 0 0
0 0 0 0 0 0 0 0 0
0 0 0 0 0 0 0 0 0
0 0 0 0 0 0 0 0 0
0 0 0 0 0 0 0 0 0
0 0 0 0 0 0 0 0 0
0 0 0 0 0 0 0 0 0
0 0 0 0 0 0 0 0 0
0 0 0 0 0 0 0 0 0
0 0 0 0 0 0 0 0 0
0 0 0 0 0 0 0 0 0
0 0 0 0 0 0 0 0 0
0 0 0 0 0 0 0 0 0
0 0 0 0 0 0 0 0 0
0 0 0 0 0 0 0 0 0
0 0 0 0 0 0 0 0 0
0 0 0 0 0 0 0 0 0
0 0 0 0 0 0 0 0 0
0 0 0 0 0 0 0 0 0
0 0 0 0 0 0 0 0 0
0 0 0 0 0 0 0 0 0
0 0 0 0 0 0 0 0 0
0 0 0 0 0 0 0 0 0
0 0 0 0 0 0 0 0 0
0 0 0 0 0 0 0 0 0
0 0 0 0 0 0 0 0 0
0 0 0 0 0 0 0 0 0
0 0 0 0 0 0 0 0 0
0 0 0 0 0 0 0 0 0
0 0 0 0 0 0 0 0 0
0 0 0 0 0 0 0 0 0
0 0 0 0 0 0 0 0 0
0 0 0 0 0 0 0 0 0
0 0 0 0 0 0 0 0 0
0 0 0 0 0 0 0 0 0
0 0 0 0 0 0 0 0 0
0 0 0 0 0 0 0 0 0
0 0 0 0 0 0 0 0 0
0 0 0 0 0 0 0 0 0
0 0 0 0 0 0 0 0 0
0 0 0 0 0 0 0 0 0
0 0 0 0 0 0 0 0 0
0 0 0 0 0 0 0 0 0
0 0 0 0 0 0 0 0 0
0 0 0 0 0 0 0 0 0
0 0 0 0 0 0 0 0 0
0 0 0 0 0 0 0 0 0
0 0 0 0 0 0 0 0 0
0 0 0 0 0 0 0 0 0
0 0 0 0 0 0 0 0 0
0 0 0 0 0 0 0 0 0
0 0 0 0 0 0 0 0 0
0 0 0 0 0 0 0 0 0
0 0 0 0 0 0 0 0 0
0 0 0 0 0 0 0 0 0
0 0 0 0 0 0 0 0 0
0 0 0 0 0 0 0 0 0
0 0 0 0 0 0 0 0 0
0 0 0 0 0 0 0 0 0
0 0 0 0 0 0 0 0 0
0 0 0 0 0 0 0 0 0
0 0 0 0 0 0 0 0 0
0 0 0 0 0 0 0 0 0
0 0 0 0 0 0 0 0 0
0 0 0 0 0 0 0 0 0
0 0 0 0 0 0 0 0 0
0 0 0 0 0 0 0 0 0
0 0 0 0 0 0 0 0 0
0 0 0 0 0 0 0 0 0
0 0 0 0 0 0 0 0 0
0 0 0 0 0 0 0 0 0
0 0 0 0 0 0 0 0 0
0 0 0 0 0 0 0 0 0
0 0 0 0 0 0 0 0 0
0 0 0 0 0 0 0 0 0
0 0 0 0 0 0 0 0 0
0 0 0 0 0 0 0 0 0
0 0 0 0 0 0 0 0 0
0 0 0 0 0 0 0 0 0
0 0 0 0 0 0 0 0 0
0 0 0 0 0 0 0 0 0
0 0 0 0 0 0 0 0 0
0 0 0 0 0 0 0 0 0
0 0 0 0 0 0 0 0 0
0 0 0 0 0 0 0 0 0
0 0 0 0 0 0 0 0 0
0 0 0 0 0 0 0 0 0
0 0 0 0 0 0 0 0 0
0 0 0 0 0 0 0 0 0
0 0 0 0 0 0 0 0 0
0 0 0 0 0 0 0 0 0
0 0 0 0 0 0 0 0 0
0 0 0 0 0 0 0 0 0
0 0 0 0 0 0 0 0 0
0 0 0 0 0 0 0 0 0
0 0 0 0 0 0 0 0 0
0 0 0 0 0 0 0 0 0
0 0 0 0 0 0 0 0 0
0 0 0 0 0 0 0 0 0
0 0 0 0 0 0 0 0 0
0 0 0 0 0 0 0 0 0
0 0 0 0 0 0 0 0 0
0 0 0 0 0 0 0 0 0
0 0 0 0 0 0 0 0 0
0 0 0 0 0 0 0 0 0
0 0 0 0 0 0 0 0 0
0 0 0 0 0 0 0 0 0
0 0 0 0 0 0 0 0 0
0 0 0 0 0 0 0 0 0
0 0 0 0 0 0 0 0 0
0 0 0 0 0 0 0 0 0
0 0 0 0 0 0 0 0 0
0 0 0 0 0 0 0 0 0
0 0 0 0 0 0 0 0 0
0 0 0 0 0 0 0 0 0
0 0 0 0 0 0 0 0 0
0 0 0 0 0 0 0 0 0
0 0 0 0 0 0 0 0 0
0 0 0 0 0 0 0 0 0
0 0 0 0 0 0 0 0 0
0 0 0 0 0 0 0 0 0
0 0 0 0 0 0 0 0 0
0 0 0 0 0 0 0 0 0
0 0 0 0 0 0 0 0 0
0 0 0 0 0 0 0 0 0
0 0 0 0 0 0 0 0 0
0 0 0 0 0 0 0 0 0
0 0 0 0 0 0 0 0 0
0 0 0 0 0 0 0 0 0
0 0 0 0 0 0 0 0 0
0 0 0 0 0 0 0 0 0
0 0 0 0 0 0 0 0 0
0 0 0 0 0 0 0 0 0
0 0 0 0 0 0 0 0 0
0 0 0 0 0 0 0 0 0
0 0 0 0 0 0 0 0 0
0 0 0 0 0 0 0 0 0
0 0 0 0 0 0 0 0 0
0 0 0 0 0 0 0 0 0
0 0 0 0 0 0 0 0 0
0 0 0 0 0 0 0 0 0
0 0 0 0 0 0 0 0 0
0 0 0 0 0 0 0 0 0
0 0 0 0 0 0 0 0 0
0 0 0 0 0 0 0 0 0
0 0 0 0 0 0 0 0 0
0 0 0 0 0 0 0 0 0
0 0 0 0 0 0 0 0 0
0 0 0 0 0 0 0 0 0
0 0 0 0 0 0 0 0 0
0 0 0 0 0 0 0 0 0
0 0 0 0 0 0 0 0 0
0 0 0 0 0 0 0 0 0
0 0 0 0 0 0 0 0 0
0 0 0 0 0 0 0 0 0
0 0 0 0 0 0 0 0 0
0 0 0 0 0 0 0 0 0
0 0 0 0 0 0 0 0 0
0 0 0 0 0 0 0 0 0
0 0 0 0 0 0 0 0 0
0 0 0 0 0 0 0 0 0
0 0 0 0 0 0 0 0 0
0 0 0 0 0 0 0 0 0
0 0 0 0 0 0 0 0 0
0 0 0 0 0 0 0 0 0
0 0 0 0 0 0 0 0 0
0 0 0 0 0 0 0 0 0
0 0 0 0 0 0 0 0 0
0 0 0 0 0 0 0 0 0
0 0 0 0 0 0 0 0 0
0 0 0 0 0 0 0 0 0
0 0 0 0 0 0 0 0 0
0 0 0 0 0 0 0 0 0
0 0 0 0 0 0 0 0 0
0 0 0 0 0 0 0 0 0
0 0 0 0 0 0 0 0 0
0 0 0 0 0 0 0 0 0
0 0 0 0 0 0 0 0 0
0 0 0 0 0 0 0 0 0
0 0 0 0 0 0 0 0 0
0 0 0 0 0 0 0 0 0
0 0 0 0 0 0 0 0 0
0 0 0 0 0 0 0 0 0
0 0 0 0 0 0 0 0 0
0 0 0 0 0 0 0 0 0
0 0 0 0 0 0 0 0 0
0 0 0 0 0 0 0 0 0
0 0 0 0 0 0 0 0 0
0 0 0 0 0 0 0 0 0
0 0 0 0 0 0 0 0 0
0 0 0 0 0 0 0 0 0
0 0 0 0 0 0 0 0 0
0 0 0 0 0 0 0 0 0
0 0 0 0 0 0 0 0 0
0 0 0 0 0 0 0 0 0
0 0 0 0 0 0 0 0 0
0 0 0 0 0 0 0 0 0
0 0 0 0 0 0 0 0 0
0 0 0 0 0 0 0 0 0
0 0 0 0 0 0 0 0 0
0 0 0 0 0 0 0 0 0
0 0 0 0 0 0 0 0 0
0 0 0 0 0 0 0 0 0
0 0 0 0 0 0 0 0 0
0 0 0 0 0 0 0 0 0
0 0 0 0 0 0 0 0 0
0 0 0 0 0 0 0 0 0
0 0 0 0 0 0 0 0 0
0 0 0 0 0 0 0 0 0
0 0 0 0 0 0 0 0 0
0 0 0 0 0 0 0 0 0
0 0 0 0 0 0 0 0 0
0 0 0 0 0 0 0 0 0
0 0 0 0 0 0 0 0 0
0 0 0 0 0 0 0 0 0
0 0 0 0 0 0 0 0 0
0 0 0 0 0 0 0 0 0
0 0 0 0 0 0 0 0 0
0 0 0 0 0 0 0 0 0
0 0 0 0 0 0 0 0 0
0 0 0 0 0 0 0 0 0
0 0 0 0 0 0 0 0 0
0 0 0 0 0 0 0 0 0
0 0 0 0 0 0 0 0 0
0 0 0 0 0 0 0 0 0
0 0 0 0 0 0 0 0 0
0 0 0 0 0 0 0 0 0
0 0 0 0 0 0 0 0 0
0 0 0 0 0 0 0 0 0
0 0 0 0 0 0 0 0 0
0 0 0 0 0 0 0 0 0
0 0 0 0 0 0 0 0 0
0 0 0 0 0 0 0 0 0
0 0 0 0 0 0 0 0 0
0 0 0 0 0 0 0 0 0
0 0 0 0 0 0 0 0 0
0 0 0 0 0 0 0 0 0
0 0 0 0 0 0 0 0 0
0 0 0 0 0 0 0 0 0
0 0 0 0 0 0 0 0 0
0 0 0 0 0 0 0 0 0
0 0 0 0 0 0 0 0 0
0 0 0 0 0 0 0 0 0
0 0 0 0 0 0 0 0 0
0 0 0 0 0 0 0 0 0
0 0 0 0 0 0 0 0 0
0 0 0 0 0 0 0 0 0
0 0 0 0 0 0 0 0 0
0 0 0 0 0 0 0 0 0
0 0 0 0 0 0 0 0 0
0 0 0 0 0 0 0 0 0
0 0 0 0 0 0 0 0 0
0 0 0 0 0 0 0 0 0
0 0 0 0 0 0 0 0 0
0 0 0 0 0 0 0 0 0
0 0 0 0 0 0 0 0 0
0 0 0 0 0 0 0 0 0
0 0 0 0 0 0 0 0 0
0 0 0 0 0 0 0 0 0
0 0 0 0 0 0 0 0 0
0 0 0 0 0 0 0 0 0
0 0 0 0 0 0 0 0 0
0 0 0 0 0 0 0 0 0
0 0 0 0 0 0 0 0 0
0 0 0 0 0 0 0 0 0
0 0 0 0 0 0 0 0 0
0 0 0 0 0 0 0 0 0
0 0 0 0 0 0 0 0 0
0 0 0 0 0 0 0 0 0
0 0 0 0 0 0 0 0 0
0 0 0 0 0 0 0 0 0
0 0 0 0 0 0 0 0 0
0 0 0 0 0 0 0 0 0
0 0 0 0 0 0 0 0 0
0 0 0 0 0 0 0 0 0
0 0 0 0 0 0 0 0 0
0 0 0 0 0 0 0 0 0
0 0 0 0 0 0 0 0 0
0 0 0 0 0 0 0 0 0
0 0 0 0 0 0 0 0 0
0 0 0 0 0 0 0 0 0
0 0 0 0 0 0 0 0 0
0 0 0 0 0 0 0 0 0
0 0 0 0 0 0 0 0 0
0 0 0 0 0 0 0 0 0
0 0 0 0 0 0 0 0 0
0 0 0 0 0 0 0 0 0
0 0 0 0 0 0 0 0 0
0 0 0 0 0 0 0 0 0
0 0 0 0 0 0 0 0 0
0 0 0 0 0 0 0 0 0
0 0 0 0 0 0 0 0 0
0 0 0 0 0 0 0 0 0
0 0 0 0 0 0 0 0 0
0 0 0 0 0 0 0 0 0
0 0 0 0 0 0 0 0 0
0 0 0 0 0 0 0 0 0
0 0 0 0 0 0 0 0 0
0 0 0 0 0 0 0 0 0
0 0 0 0 0 0 0 0 0
0 0 0 0 0 0 0 0 0
0 0 0 0 0 0 0 0 0
0 0 0 0 0 0 0 0 0
0 0 0 0 0 0 0 0 0
0 0 0 0 0 0 0 0 0
0 0 0 0 0 0 0 0 0
0 0 0 0 0 0 0 0 0
0 0 0 0 0 0 0 0 0
0 0 0 0 0 0 0 0 0
0 0 0 0 0 0 0 0 0
0 0 0 0 0 0 0 0 0
0 0 0 0 0 0 0 0 0
0 0 0 0 0 0 0 0 0
0 0 0 0 0 0 0 0 0
0 0 0 0 0 0 0 0 0
0 0 0 0 0 0 0 0 0
0 0 0 0 0 0 0 0 0
0 0 0 0 0 0 0 0 0
0 0 0 0 0 0 0 0 0
0 0 0 0 0 0 0 0 0
0 0 0 0 0 0 0 0 0
0 0 0 0 0 0 0 0 0
0 0 0 0 0 0 0 0 0
0 0 0 0 0 0 0 0 0
0 0 0 0 0 0 0 0 0
0 0 0 0 0 0 0 0 0
0 0 0 0 0 0 0 0 0
0 0 0 0 0 0 0 0 0
0 0 0 0 0 0 0 0 0
0 0 0 0 0 0 0 0 0
0 0 0 0 0 0 0 0 0
0 0 0 0 0 0 0 0 0
0 0 0 0 0 0 0 0 0
0 0 0 0 0 0 0 0 0
0 0 0 0 0 0 0 0 0
0 0 0 0 0 0 0 0 0
0 0 0 0 0 0 0 0 0
0 0 0 0 0 0 0 0 0
0 0 0 0 0 0 0 0 0
0 0 0 0 0 0 0 0 0
0 0 0 0 0 0 0 0 0
0 0 0 0 0 0 0 0 0
0 0 0 0 0 0 0 0 0
0 0 0 0 0 0 0 0 0
0 0 0 0 0 0 0 0 0
0 0 0 0 0 0 0 0 0
0 0 0 0 0 0 0 0 0
0 0 0 0 0 0 0 0 0
0 0 0 0 0 0 0 0 0
0 0 0 0 0 0 0 0 0
0 0 0 0 0 0 0 0 0
0 0 0 0 0 0 0 0 0
0 0 0 0 0 0 0 0 0
0 0 0 0 0 0 0 0 0
0 0 0 0 0 0 0 0 0
0 0 0 0 0 0 0 0 0
0 0 0 0 0 0 0 0 0
0 0 0 0 0 0 0 0 0
0 0 0 0 0 0 0 0 0
0 0 0 0 0 0 0 0 0
0 0 0 0 0 0 0 0 0
0 0 0 0 0 0 0 0 0
0 0 0 0 0 0 0 0 0
0 0 0 0 0 0 0 0 0
0 0 0 0 0 0 0 0 0
0 0 0 0 0 0 0 0 0
0 0 0 0 0 0 0 0 0
0 0 0 0 0 0 0 0 0
0 0 0 0 0 0 0 0 0
0 0 0 0 0 0 0 0 0
0 0 0 0 0 0 0 0 0
0 0 0 0 0 0 0 0 0
0 0 0 0 0 0 0 0 0
0 0 0 0 0 0 0 0 0
0 0 0 0 0 0 0 0 0
0 0 0 0 0 0 0 0 0
0 0 0 0 0 0 0 0 0
0 0 0 0 0 0 0 0 0
0 0 0 0 0 0 0 0 0
0 0 0 0 0 0 0 0 0
0 0 0 0 0 0 0 0 0
0 0 0 0 0 0 0 0 0
0 0 0 0 0 0 0 0 0
0 0 0 0 0 0 0 0 0
0 0 0 0 0 0 0 0 0
0 0 0 0 0 0 0 0 0
0 0 0 0 0 0 0 0 0
0 0 0 0 0 0 0 0 0
0 0 0 0 0 0 0 0 0
0 0 0 0 0 0 0 0 0
0 0 0 0 0 0 0 0 0
0 0 0 0 0 0 0 0 0
0 0 0 0 0 0 0 0 0
0 0 0 0 0 0 0 0 0
0 0 0 0 0 0 0 0 0
0 0 0 0 0 0 0 0 0
0 0 0 0 0 0 0 0 0
0 0 0 0 0 0 0 0 0
0 0 0 0 0 0 0 0 0
0 0 0 0 0 0 0 0 0
0 0 0 0 0 0 0 0 0
0 0 0 0 0 0 0 0 0
0 0 0 0 0 0 0 0 0
0 0 0 0 0 0 0 0 0
0 0 0 0 0 0 0 0 0
0 0 0 0 0 0 0 0 0
0 0 0 0 0 0 0 0 0
0 0 0 0 0 0 0 0 0
0 0 0 0 0 0 0 0 0
0 0 0 0 0 0 0 0 0
0 0 0 0 0 0 0 0 0
0 0 0 0 0 0 0 0 0
0 0 0 0 0 0 0 0 0
0 0 0 0 0 0 0 0 0
0 0 0 0 0 0 0 0 0
0 0 0 0 0 0 0 0 0
0 0 0 0 0 0 0 0 0
0 0 0 0 0 0 0 0 0
0 0 0 0 0 0 0 0 0
0 0 0 0 0 0 0 0 0
0 0 0 0 0 0 0 0 0
0 0 0 0 0 0 0 0 0
0 0 0 0 0 0 0 0 0
0 0 0 0 0 0 0 0 0
0 0 0 0 0 0 0 0 0
0 0 0 0 0 0 0 0 0
0 0 0 0 0 0 0 0 0
0 0 0 0 0 0 0 0 0
0 0 0 0 0 0 0 0 0
0 0 0 0 0 0 0 0 0
0 0 0 0 0 0 0 0 0
0 0 0 0 0 0 0 0 0
0 0 0 0 0 0 0 0 0
0 0 0 0 0 0 0 0 0
0 0 0 0 0 0 0 0 0
0 0 0 0 0 0 0 0 0
0 0 0 0 0 0 0 0 0
0 0 0 0 0 0 0 0 0
0 0 0 0 0 0 0 0 0
0 0 0 0 0 0 0 0 0
0 0 0 0 0 0 0 0 0
0 0 0 0 0 0 0 0 0
0 0 0 0 0 0 0 0 0
0 0 0 0 0 0 0 0 0
0 0 0 0 0 0 0 0 0
0 0 0 0 0 0 0 0 0
0 0 0 0 0 0 0 0 0
0 0 0 0 0 0 0 0 0
0 0 0 0 0 0 0 0 0
0 0 0 0 0 0 0 0 0
0 0 0 0 0 0 0 0 0
0 0 0 0 0 0 0 0 0
0 0 0 0 0 0 0 0 0
0 0 0 0 0 0 0 0 0
0 0 0 0 0 0 0 0 0
0 0 0 0 0 0 0 0 0
0 0 0 0 0 0 0 0 0
0 0 0 0 0 0 0 0 0
0 0 0 0 0 0 0 0 0
0 0 0 0 0 0 0 0 0
0 0 0 0 0 0 0 0 0
0 0 0 0 0 0 0 0 0
0 0 0 0 0 0 0 0 0
0 0 0 0 0 0 0 0 0
0 0 0 0 0 0 0 0 0
0 0 0 0 0 0 0 0 0
0 0 0 0 0 0 0 0 0
0 0 0 0 0 0 0 0 0
0 0 0 0 0 0 0 0 0
0 0 0 0 0 0 0 0 0
0 0 0 0 0 0 0 0 0
0 0 0 0 0 0 0 0 0
0 0 0 0 0 0 0 0 0
0 0 0 0 0 0 0 0 0
0 0 0 0 0 0 0 0 0
0 0 0 0 0 0 0 0 0
0 0 0 0 0 0 0 0 0
0 0 0 0 0 0 0 0 0
0 0 0 0 0 0 0 0 0
0 0 0 0 0 0 0 0 0
0 0 0 0 0 0 0 0 0
0 0 0 0 0 0 0 0 0
0 0 0 0 0 0 0 0 0
0 0 0 0 0 0 0 0 0
0 0 0 0 0 0 0 0 0
0 0 0 0 0 0 0 0 0
0 0 0 0 0 0 0 0 0
0 0 0 0 0 0 0 0 0
0 0 0 0 0 0 0 0 0
0 0 0 0 0 0 0 0 0
0 0 0 0 0 0 0 0 0
0 0 0 0 0 0 0 0 0
0 0 0 0 0 0 0 0 0
0 0 0 0 0 0 0 0 0
0 0 0 0 0 0 0 0 0
0 0 0 0 0 0 0 0 0
0 0 0 0 0 0 0 0 0
0 0 0 0 0 0 0 0 0
0 0 0 0 0 0 0 0 0
0 0 0 0 0 0 0 0 0
0 0 0 0 0 0 0 0 0
0 0 0 0 0 0 0 0 0
0 0 0 0 0 0 0 0 0
0 0 0 0 0 0 0 0 0
0 0 0 0 0 0 0 0 0
0 0 0 0 0 0 0 0 0
0 0 0 0 0 0 0 0 0
0 0 0 0 0 0 0 0 0
0 0 0 0 0 0 0 0 0
0 0 0 0 0 0 0 0 0
0 0 0 0 0 0 0 0 0
0 0 0 0 0 0 0 0 0
0 0 0 0 0 0 0 0 0
0 0 0 0 0 0 0 0 0
0 0 0 0 0 0 0 0 0
0 0 0 0 0 0 0 0 0
0 0 0 0 0 0 0 0 0
0 0 0 0 0 0 0 0 0
0 0 0 0 0 0 0 0 0
0 0 0 0 0 0 0 0 0
0 0 0 0 0 0 0 0 0
0 0 0 0 0 0 0 0 0
0 0 0 0 0 0 0 0 0
0 0 0 0 0 0 0 0 0
0 0 0 0 0 0 0 0 0
0 0 0 0 0 0 0 0 0
0 0 0 0 0 0 0 0 0
0 0 0 0 0 0 0 0 0
0 0 0 0 0 0 0 0 0
0 0 0 0 0 0 0 0 0
0 0 0 0 0 0 0 0 0
0 0 0 0 0 0 0 0 0
0 0 0 0 0 0 0 0 0
0 0 0 0 0 0 0 0 0
0 0 0 0 0 0 0 0 0
0 0 0 0 0 0 0 0 0
0 0 0 0 0 0 0 0 0
0 0 0 0 0 0 0 0 0
0 0 0 0 0 0 0 0 0
0 0 0 0 0 0 0 0 0
0 0 0 0 0 0 0 0 0
0 0 0 0 0 0 0 0 0
0 0 0 0 0 0 0 0 0
0 0 0 0 0 0 0 0 0
0 0 0 0 0 0 0 0 0
0 0 0 0 0 0 0 0 0
0 0 0 0 0 0 0 0 0
0 0 0 0 0 0 0 0 0
0 0 0 0 0 0 0 0 0
0 0 0 0 0 0 0 0 0
0 0 0 0 0 0 0 0 0
0 0 0 0 0 0 0 0 0
0 0 0 0 0 0 0 0 0
0 0 0 0 0 0 0 0 0
0 0 0 0 0 0 0 0 0
0 0 0 0 0 0 0 0 0
0 0 0 0 0 0 0 0 0
0 0 0 0 0 0 0 0 0
0 0 0 0 0 0 0 0 0
0 0 0 0 0 0 0 0 0
0 0 0 0 0 0 0 0 0
0 0 0 0 0 0 0 0 0
0 0 0 0 0 0 0 0 0
0 0 0 0 0 0 0 0 0
0 0 0 0 0 0 0 0 0
0 0 0 0 0 0 0 0 0
0 0 0 0 0 0 0 0 0
0 0 0 0 0 0 0 0 0
0 0 0 0 0 0 0 0 0
0 0 0 0 0 0 0 0 0
0 0 0 0 0 0 0 0 0
0 0 0 0 0 0 0 0 0
0 0 0 0 0 0 0 0 0
0 0 0 0 0 0 0 0 0
0 0 0 0 0 0 0 0 0
0 0 0 0 0 0 0 0 0
0 0 0 0 0 0 0 0 0
0 0 0 0 0 0 0 0 0
0 0 0 0 0 0 0 0 0
0 0 0 0 0 0 0 0 0
0 0 0 0 0 0 0 0 0
0 0 0 0 0 0 0 0 0
0 0 0 0 0 0 0 0 0
0 0 0 0 0 0 0 0 0
0 0 0 0 0 0 0 0 0
0 0 0 0 0 0 0 0 0
0 0 0 0 0 0 0 0 0
0 0 0 0 0 0 0 0 0
0 0 0 0 0 0 0 0 0
0 0 0 0 0 0 0 0 0
0 0 0 0 0 0 0 0 0
0 0 0 0 0 0 0 0 0
0 0 0 0 0 0 0 0 0
0 0 0 0 0 0 0 0 0
0 0 0 0 0 0 0 0 0
0 0 0 0 0 0 0 0 0
0 0 0 0 0 0 0 0 0
0 0 0 0 0 0 0 0 0
0 0 0 0 0 0 0 0 0
0 0 0 0 0 0 0 0 0
0 0 0 0 0 0 0 0 0
0 0 0 0 0 0 0 0 0
0 0 0 0 0 0 0 0 0
0 0 0 0 0 0 0 0 0
0 0 0 0 0 0 0 0 0
0 0 0 0 0 0 0 0 0
0 0 0 0 0 0 0 0 0
0 0 0 0 0 0 0 0 0
0 0 0 0 0 0 0 0 0
0 0 0 0 0 0 0 0 0
0 0 0 0 0 0 0 0 0
0 0 0 0 0 0 0 0 0
0 0 0 0 0 0 0 0 0
0 0 0 0 0 0 0 0 0
0 0 0 0 0 0 0 0 0
0 0 0 0 0 0 0 0 0
0 0 0 0 0 0 0 0 0
0 0 0 0 0 0 0 0 0
0 0 0 0 0 0 0 0 0
0 0 0 0 0 0 0 0 0
0 0 0 0 0 0 0 0 0
0 0 0 0 0 0 0 0 0
0 0 0 0 0 0 0 0 0
0 0 0 0 0 0 0 0 0
0 0 0 0 0 0 0 0 0
0 0 0 0 0 0 0 0 0
0 0 0 0 0 0 0 0 0
0 0 0 0 0 0 0 0 0
0 0 0 0 0 0 0 0 0
0 0 0 0 0 0 0 0 0
0 0 0 0 0 0 0 0 0
0 0 0 0 0 0 0 0 0
0 0 0 0 0 0 0 0 0
0 0 0 0 0 0 0 0 0
0 0 0 0 0 0 0 0 0
0 0 0 0 0 0 0 0 0
0 0 0 0 0 0 0 0 0
0 0 0 0 0 0 0 0 0
0 0 0 0 0 0 0 0 0
0 0 0 0 0 0 0 0 0
0 0 0 0 0 0 0 0 0
0 0 0 0 0 0 0 0 0
0 0 0 0 0 0 0 0 0
0 0 0 0 0 0 0 0 0
0 0 0 0 0 0 0 0 0
0 0 0 0 0 0 0 0 0
0 0 0 0 0 0 0 0 0
0 0 0 0 0 0 0 0 0
0 0 0 0 0 0 0 0 0
0 0 0 0 0 0 0 0 0
0 0 0 0 0 0 0 0 0
0 0 0 0 0 0 0 0 0
0 0 0 0 0 0 0 0 0
0 0 0 0 0 0 0 0 0
0 0 0 0 0 0 0 0 0
0 0 0 0 0 0 0 0 0
0 0 0 0 0 0 0 0 0
0 0 0 0 0 0 0 0 0
0 0 0 0 0 0 0 0 0
0 0 0 0 0 0 0 0 0
0 0 0 0 0 0 0 0 0
0 0 0 0 0 0 0 0 0
0 0 0 0 0 0 0 0 0
0 0 0 0 0 0 0 0 0
0 0 0 0 0 0 0 0 0
0 0 0 0 0 0 0 0 0
0 0 0 0 0 0 0 0 0
0 0 0 0 0 0 0 0 0
0 0 0 0 0 0 0 0 0
0 0 0 0 0 0 0 0 0
0 0 0 0 0 0 0 0 0
0 0 0 0 0 0 0 0 0
0 0 0 0 0 0 0 0 0
0 0 0 0 0 0 0 0 0
0 0 0 0 0 0 0 0 0
0 0 0 0 0 0 0 0 0
0 0 0 0 0 0 0 0 0
0 0 0 0 0 0 0 0 0
0 0 0 0 0 0 0 0 0
0 0 0 0 0 0 0 0 0
0 0 0 0 0 0 0 0 0
0 0 0 0 0 0 0 0 0
0 0 0 0 0 0 0 0 0
0 0 0 0 0 0 0 0 0
0 0 0 0 0 0 0 0 0
0 0 0 0 0 0 0 0 0
0 0 0 0 0 0 0 0 0
0 0 0 0 0 0 0 0 0
0 0 0 0 0 0 0 0 0
0 0 0 0 0 0 0 0 0
0 0 0 0 0 0 0 0 0
0 0 0 0 0 0 0 0 0
0 0 0 0 0 0 0 0 0
0 0 0 0 0 0 0 0 0
1.84564e-08 1.98299e-08 2.00245e-08 2.14116e-08 1.84564e-08 1.98299e-08 2.00245e-08 2.14116e-08 0
2.07e-08 2.2236e-08 2.23e-08 2.3862e-08 2.07e-08 2.2236e-08 2.23e-08 2.3862e-08 0
1.55906e-08 1.69161e-08 1.72046e-08 1.85587e-08 1.55906e-08 1.69161e-08 1.72046e-08 1.85587e-08 0
1.77479e-08 1.92538e-08 1.94092e-08 2.09271e-08 1.77479e-08 1.92538e-08 1.94092e-08 2.09271e-08 0
2.02076e-08 2.19046e-08 2.18976e-08 2.36167e-08 2.02076e-08 2.19046e-08 2.18976e-08 2.36167e-08 0
2.29985e-08 2.4924e-08 2.47315e-08 2.6679e-08 2.29985e-08 2.4924e-08 2.47315e-08 2.6679e-08 0
2.61849e-08 2.83724e-08 2.79608e-08 3.01696e-08 2.61849e-08 2.83724e-08 2.79608e-08 3.01696e-08 0
2.98296e-08 3.23227e-08 3.16477e-08 3.41617e-08 2.98296e-08 3.23227e-08 3.16477e-08 3.41617e-08 0
3.4014e-08 3.68681e-08 3.58694e-08 3.87318e-08 3.4014e-08 3.68681e-08 3.58694e-08 3.87318e-08 0
3.88384e-08 4.21152e-08 4.07057e-08 4.39672e-08 3.88384e-08 4.21152e-08 4.07057e-08 4.39672e-08 0
4.43812e-08 4.80581e-08 4.62206e-08 4.98607e-08 4.43812e-08 4.80581e-08 4.62206e-08 4.98607e-08 0
1.47364e-08 1.61944e-08 1.64279e-08 1.79148e-08 1.47364e-08 1.61944e-08 1.64279e-08 1.79148e-08 0
1.71019e-08 1.87493e-08 1.8847e-08 2.05216e-08 1.71019e-08 1.87493e-08 1.8847e-08 2.05216e-08 0
1.97948e-08 2.16698e-08 2.1592e-08 2.34947e-08 1.97948e-08 2.16698e-08 2.1592e-08 2.34947e-08 0
2.28817e-08 2.50211e-08 2.47314e-08 2.68967e-08 2.28817e-08 2.50211e-08 2.47314e-08 2.68967e-08 0
2.64318e-08 2.88839e-08 2.833e-08 3.08029e-08 2.64318e-08 2.88839e-08 2.833e-08 3.08029e-08 0
3.05351e-08 3.33616e-08 3.24728e-08 3.53135e-08 3.05351e-08 3.33616e-08 3.24728e-08 3.53135e-08 0
3.53058e-08 3.85825e-08 3.72693e-08 4.05463e-08 3.53058e-08 3.85825e-08 3.72693e-08 4.05463e-08 0
1.16703e-08 1.30722e-08 1.33973e-08 1.48297e-08 1.16703e-08 1.30722e-08 1.33973e-08 1.48297e-08 0
1.3928e-08 1.55192e-08 1.57123e-08 1.73343e-08 1.3928e-08 1.55192e-08 1.57123e-08 1.73343e-08 0
1.65108e-08 1.83265e-08 1.8354e-08 2.02023e-08 1.65108e-08 1.83265e-08 1.8354e-08 2.02023e-08 0
1.94823e-08 2.15627e-08 2.13874e-08 2.35007e-08 1.94823e-08 2.15627e-08 2.13874e-08 2.35007e-08 0
2.29181e-08 2.53162e-08 2.48848e-08 2.73133e-08 2.29181e-08 2.53162e-08 2.48848e-08 2.73133e-08 0
2.69176e-08 2.97029e-08 2.89401e-08 3.1748e-08 2.69176e-08 2.97029e-08 2.89401e-08 3.1748e-08 0
3.16078e-08 3.48627e-08 3.3672e-08 3.6939e-08 3.16078e-08 3.48627e-08 3.3672e-08 3.6939e-08 0
0 0 1.03136e-08 1.16887e-08 0 0 1.03136e-08 1.16887e-08 0
1.07018e-08 1.22309e-08 1.25187e-08 1.4082e-08 1.07018e-08 1.22309e-08 1.25187e-08 1.4082e-08 0
1.31638e-08 1.4912e-08 1.50459e-08 1.68316e-08 1.31638e-08 1.4912e-08 1.50459e-08 1.68316e-08 0
1.60048e-08 1.80148e-08 1.79578e-08 2.00073e-08 1.60048e-08 1.80148e-08 1.79578e-08 2.00073e-08 0
1.93052e-08 2.16344e-08 2.13321e-08 2.37002e-08 1.93052e-08 2.16344e-08 2.13321e-08 2.37002e-08 0
2.31738e-08 2.59006e-08 2.52723e-08 2.80323e-08 2.31738e-08 2.59006e-08 2.52723e-08 2.80323e-08 0
0 0 0 0 0 0 0 0 0
0 0 0 1.07787e-08 0 0 0 1.07787e-08 0
0 1.14449e-08 1.16822e-08 1.33975e-08 0 1.14449e-08 1.16822e-08 1.33975e-08 0
1.24685e-08 1.43978e-08 1.44582e-08 1.64329e-08 1.24685e-08 1.43978e-08 1.44582e-08 1.64329e-08 0
1.56138e-08 1.78581e-08 1.76891e-08 1.99819e-08 1.56138e-08 1.78581e-08 1.76891e-08 1.99819e-08 0
1.93209e-08 2.19653e-08 2.14864e-08 2.41788e-08 1.93209e-08 2.19653e-08 2.14864e-08 2.41788e-08 0
0 0 0 0 0 0 0 0 0
0 0 0 0 0 0 0 0 0
0 0 0 0 0 0 0 0 0
0 1.074e-08 1.09113e-08 1.28013e-08 0 1.074e-08 1.09113e-08 1.28013e-08 0
1.18737e-08 1.40206e-08 1.39798e-08 1.6182e-08 1.18737e-08 1.40206e-08 1.39798e-08 1.6182e-08 0
1.53929e-08 1.79289e-08 1.76041e-08 2.02034e-08 1.53929e-08 1.79289e-08 1.76041e-08 2.02034e-08 0
0 0 0 0 0 0 0 0 0
0 0 0 0 0 0 0 0 0
0 0 0 0 0 0 0 0 0
0 0 0 0 0 0 0 0 0
0 1.01715e-08 1.02403e-08 1.23408e-08 0 1.01715e-08 1.02403e-08 1.23408e-08 0
0 0 0 0 0 0 0 0 0
0 0 0 0 0 0 0 0 0
0 0 0 0 0 0 0 0 0
0 0 0 0 0 0 0 0 0
0 0 0 0 0 0 0 0 0
0 0 0 0 0 0 0 0 0
0 0 0 0 0 0 0 0 0
0 0 0 0 0 0 0 0 0
0 0 0 0 0 0 0 0 0
0 0 0 0 0 0 0 0 0
0 0 0 0 0 0 0 0 0
0 0 0 0 0 0 0 0 0
-1.355e-08 -1.30262e-08 -1.22067e-08 -1.16585e-08 -1.355e-08 -1.30262e-08 -1.22067e-08 -1.16585e-08 0
-1.28132e-08 -1.2189e-08 -1.14249e-08 -1.07748e-08 -1.28132e-08 -1.2189e-08 -1.14249e-08 -1.07748e-08 0
-1.19204e-08 -1.11853e-08 -1.04843e-08 0 -1.19204e-08 -1.11853e-08 -1.04843e-08 0 0
-1.08575e-08 -1.00095e-08 0 0 -1.08575e-08 -1.00095e-08 0 0 0
0 0 0 0 0 0 0 0 0
0 0 0 0 0 0 0 0 0
0 0 0 0 0 0 0 0 0
0 0 0 0 0 0 0 0 0
-1.56553e-08 -1.51666e-08 -1.4484e-08 -1.3977e-08 -1.56553e-08 -1.51666e-08 -1.4484e-08 -1.3977e-08 0
-1.49823e-08 -1.4397e-08 -1.37766e-08 -1.31705e-08 -1.49823e-08 -1.4397e-08 -1.37766e-08 -1.31705e-08 0
-1.41596e-08 -1.34649e-08 -1.29156e-08 -1.21995e-08 -1.41596e-08 -1.34649e-08 -1.29156e-08 -1.21995e-08 0
-1.31699e-08 -1.23628e-08 -1.18858e-08 -1.1056e-08 -1.31699e-08 -1.23628e-08 -1.18858e-08 -1.1056e-08 0
-1.20059e-08 -1.10752e-08 -1.06791e-08 0 -1.20059e-08 -1.10752e-08 -1.06791e-08 0 0
-1.06493e-08 0 0 0 -1.06493e-08 0 0 0 0
0 0 0 0 0 0 0 0 0
0 0 0 0 0 0 0 0 0
-1.73316e-08 -1.68554e-08 -1.64229e-08 -1.59431e-08 -1.73316e-08 -1.68554e-08 -1.64229e-08 -1.59431e-08 0
-1.66856e-08 -1.61257e-08 -1.57657e-08 -1.51933e-08 -1.66856e-08 -1.61257e-08 -1.57657e-08 -1.51933e-08 0
-1.5911e-08 -1.52495e-08 -1.49654e-08 -1.42857e-08 -1.5911e-08 -1.52495e-08 -1.49654e-08 -1.42857e-08 0
-1.49783e-08 -1.41979e-08 -1.40008e-08 -1.32073e-08 -1.49783e-08 -1.41979e-08 -1.40008e-08 -1.32073e-08 0
-1.38674e-08 -1.29744e-08 -1.28616e-08 -1.19478e-08 -1.38674e-08 -1.29744e-08 -1.28616e-08 -1.19478e-08 0
-1.25814e-08 -1.15578e-08 -1.15355e-08 -1.04888e-08 -1.25814e-08 -1.15578e-08 -1.15355e-08 -1.04888e-08 0
-1.10933e-08 0 -1.00024e-08 0 -1.10933e-08 0 -1.00024e-08 0 0
0 0 0 0 0 0 0 0 0
0 0 0 0 0 0 0 0 0
0 0 0 0 0 0 0 0 0
0 0 0 0 0 0 0 0 0
0 0 0 0 0 0 0 0 0
0 0 0 0 0 0 0 0 0
0 0 0 0 0 0 0 0 0
0 0 0 0 0 0 0 0 0
0 0 0 0 0 0 0 0 0
0 0 0 0 0 0 0 0 0
0 0 0 0 0 0 0 0 0
0 0 0 0 0 0 0 0 0
0 0 0 0 0 0 0 0 0
0 0 0 0 0 0 0 0 0
0 0 0 0 0 0 0 0 0
0 0 0 0 0 0 0 0 0
0 0 0 0 0 0 0 0 0
0 0 0 0 0 0 0 0 0
0 0 0 0 0 0 0 0 0
0 0 0 0 0 0 0 0 0
0 0 0 0 0 0 0 0 0
0 0 0 0 0 0 0 0 0
0 0 0 0 0 0 0 0 0
0 0 0 0 0 0 0 0 0
0 0 0 0 0 0 0 0 0
0 0 0 0 0 0 0 0 0
0 0 0 0 0 0 0 0 0
0 0 0 0 0 0 0 0 0
0 0 0 0 0 0 0 0 0
0 0 0 0 0 0 0 0 0
0 0 0 0 0 0 0 0 0
0 0 0 0 0 0 0 0 0
0 0 0 0 0 0 0 0 0
0 0 0 0 0 0 0 0 0
0 0 0 0 0 0 0 0 0
0 0 0 0 0 0 0 0 0
0 0 0 0 0 0 0 0 0
0 0 0 0 0 0 0 0 0
0 0 0 0 0 0 0 0 0
0 0 0 0 0 0 0 0 0
0 0 0 0 0 0 0 0 0
0 0 0 0 0 0 0 0 0
0 0 0 0 0 0 0 0 0
0 0 0 0 0 0 0 0 0
0 0 0 0 0 0 0 0 0
0 0 0 0 0 0 0 0 0
0 0 0 0 0 0 0 0 0
0 0 0 0 0 0 0 0 0
0 0 0 0 0 0 0 0 0
0 0 0 0 0 0 0 0 0
0 0 0 0 0 0 0 0 0
0 0 0 0 0 0 0 0 0
0 0 0 0 0 0 0 0 0
0 0 0 0 0 0 0 0 0
0 0 0 0 0 0 0 0 0
0 0 0 0 0 0 0 0 0
0 0 0 0 0 0 0 0 0
0 0 0 0 0 0 0 0 0
0 0 0 0 0 0 0 0 0
0 0 0 0 0 0 0 0 0
0 0 0 0 0 0 0 0 0
0 0 0 0 0 0 0 0 0
0 0 0 0 0 0 0 0 0
0 0 0 0 0 0 0 0 0
0 0 0 0 0 0 0 0 0
0 0 0 0 0 0 0 0 0
0 0 0 0 0 0 0 0 0
0 0 0 0 0 0 0 0 0
0 0 0 0 0 0 0 0 0
0 0 0 0 0 0 0 0 0
0 0 0 0 0 0 0 0 0
0 0 0 0 0 0 0 0 0
0 0 0 0 0 0 0 0 0
0 0 0 0 0 0 0 0 0
0 0 0 0 0 0 0 0 0
0 0 0 0 0 0 0 0 0
0 0 0 0 0 0 0 0 0
0 0 0 0 0 0 0 0 0
0 0 0 0 0 0 0 0 0
0 0 0 0 0 0 0 0 0
0 0 0 0 0 0 0 0 0
0 0 0 0 0 0 0 0 0
0 0 0 0 0 0 0 0 0
0 0 0 0 0 0 0 0 0
0 0 0 0 0 0 0 0 0
0 0 0 0 0 0 0 0 0
0 0 0 0 0 0 0 0 0
0 0 0 0 0 0 0 0 0
0 0 0 0 0 0 0 0 0
0 0 0 0 0 0 0 0 0
0 0 0 0 0 0 0 0 0
0 0 0 0 0 0 0 0 0
0 0 0 0 0 0 0 0 0
0 0 0 0 0 0 0 0 0
0 0 0 0 0 0 0 0 0
0 0 0 0 0 0 0 0 0
0 0 0 0 0 0 0 0 0
0 0 0 0 0 0 0 0 0
0 0 0 0 0 0 0 0 0
0 0 0 0 0 0 0 0 0
0 0 0 0 0 0 0 0 0
0 0 0 0 0 0 0 0 0
0 0 0 0 0 0 0 0 0
0 0 0 0 0 0 0 0 0
0 0 0 0 0 0 0 0 0
0 0 0 0 0 0 0 0 0
0 0 0 0 0 0 0 0 0
0 0 0 0 0 0 0 0 0
0 0 0 0 0 0 0 0 0
0 0 0 0 0 0 0 0 0
0 0 0 0 0 0 0 0 0
0 0 0 0 0 0 0 0 0
0 0 0 0 0 0 0 0 0
0 0 0 0 0 0 0 0 0
0 0 0 0 0 0 0 0 0
0 0 0 0 0 0 0 0 0
0 0 0 0 0 0 0 0 0
0 0 0 0 0 0 0 0 0
0 0 0 0 0 0 0 0 0
0 0 0 0 0 0 0 0 0
0 0 0 0 0 0 0 0 0
0 0 0 0 0 0 0 0 0
0 0 0 0 0 0 0 0 0
0 0 0 0 0 0 0 0 0
0 0 0 0 0 0 0 0 0
0 0 0 0 0 0 0 0 0
0 0 0 0 0 0 0 0 0
0 0 0 0 0 0 0 0 0
0 0 0 0 0 0 0 0 0
0 0 0 0 0 0 0 0 0
0 0 0 0 0 0 0 0 0
0 0 0 0 0 0 0 0 0
0 0 0 0 0 0 0 0 0
0 0 0 0 0 0 0 0 0
0 0 0 0 0 0 0 0 0
0 0 0 0 0 0 0 0 0
0 0 0 0 0 0 0 0 0
0 0 0 0 0 0 0 0 0
0 0 0 0 0 0 0 0 0
0 0 0 0 0 0 0 0 0
0 0 0 0 0 0 0 0 0
0 0 0 0 0 0 0 0 0
0 0 0 0 0 0 0 0 0
0 0 0 0 0 0 0 0 0
0 0 0 0 0 0 0 0 0
0 0 0 0 0 0 0 0 0
0 0 0 0 0 0 0 0 0
0 0 0 0 0 0 0 0 0
0 0 0 0 0 0 0 0 0
0 0 0 0 0 0 0 0 0
0 0 0 0 0 0 0 0 0
0 0 0 0 0 0 0 0 0
0 0 0 0 0 0 0 0 0
0 0 0 0 0 0 0 0 0
0 0 0 0 0 0 0 0 0
0 0 0 0 0 0 0 0 0
0 0 0 0 0 0 0 0 0
0 0 0 0 0 0 0 0 0
0 0 0 0 0 0 0 0 0
0 0 0 0 0 0 0 0 0
0 0 0 0 0 0 0 0 0
0 0 0 0 0 0 0 0 0
0 0 0 0 0 0 0 0 0
0 0 0 0 0 0 0 0 0
0 0 0 0 0 0 0 0 0
0 0 0 0 0 0 0 0 0
0 0 0 0 0 0 0 0 0
0 0 0 0 0 0 0 0 0
0 0 0 0 0 0 0 0 0
0 0 0 0 0 0 0 0 0
0 0 0 0 0 0 0 0 0
0 0 0 0 0 0 0 0 0
0 0 0 0 0 0 0 0 0
0 0 0 0 0 0 0 0 0
0 0 0 0 0 0 0 0 0
0 0 0 0 0 0 0 0 0
0 0 0 0 0 0 0 0 0
0 0 0 0 0 0 0 0 0
0 0 0 0 0 0 0 0 0
0 0 0 0 0 0 0 0 0
0 0 0 0 0 0 0 0 0
0 0 0 0 0 0 0 0 0
0 0 0 0 0 0 0 0 0
0 0 0 0 0 0 0 0 0
0 0 0 0 0 0 0 0 0
0 0 0 0 0 0 0 0 0
0 0 0 0 0 0 0 0 0
0 0 0 0 0 0 0 0 0
0 0 0 0 0 0 0 0 0
0 0 0 0 0 0 0 0 0
0 0 0 0 0 0 0 0 0
0 0 0 0 0 0 0 0 0
0 0 0 0 0 0 0 0 0
0 0 0 0 0 0 0 0 0
0 0 0 0 0 0 0 0 0
0 0 0 0 0 0 0 0 0
0 0 0 0 0 0 0 0 0
0 0 0 0 0 0 0 0 0
0 0 0 0 0 0 0 0 0
0 0 0 0 0 0 0 0 0
0 0 0 0 0 0 0 0 0
0 0 0 0 0 0 0 0 0
0 0 0 0 0 0 0 0 0
0 0 0 0 0 0 0 0 0
0 0 0 0 0 0 0 0 0
0 0 0 0 0 0 0 0 0
0 0 0 0 0 0 0 0 0
0 0 0 0 0 0 0 0 0
0 0 0 0 0 0 0 0 0
0 0 0 0 0 0 0 0 0
0 0 0 0 0 0 0 0 0
0 0 0 0 0 0 0 0 0
0 0 0 0 0 0 0 0 0
0 0 0 0 0 0 0 0 0
0 0 0 0 0 0 0 0 0
0 0 0 0 0 0 0 0 0
0 0 0 0 0 0 0 0 0
0 0 0 0 0 0 0 0 0
0 0 0 0 0 0 0 0 0
0 0 0 0 0 0 0 0 0
0 0 0 0 0 0 0 0 0
0 0 0 0 0 0 0 0 0
0 0 0 0 0 0 0 0 0
0 0 0 0 0 0 0 0 0
0 0 0 0 0 0 0 0 0
0 0 0 0 0 0 0 0 0
0 0 0 0 0 0 0 0 0
0 0 0 0 0 0 0 0 0
0 0 0 0 0 0 0 0 0
0 0 0 0 0 0 0 0 0
0 0 0 0 0 0 0 0 0
0 0 0 0 0 0 0 0 0
0 0 0 0 0 0 0 0 0
0 0 0 0 0 0 0 0 0
0 0 0 0 0 0 0 0 0
0 0 0 0 0 0 0 0 0
0 0 0 0 0 0 0 0 0
0 0 0 0 0 0 0 0 0
0 0 0 0 0 0 0 0 0
0 0 0 0 0 0 0 0 0
0 0 0 0 0 0 0 0 0
0 0 0 0 0 0 0 0 0
0 0 0 0 0 0 0 0 0
0 0 0 0 0 0 0 0 0
0 0 0 0 0 0 0 0 0
0 0 0 0 0 0 0 0 0
0 0 0 0 0 0 0 0 0
0 0 0 0 0 0 0 0 0
0 0 0 0 0 0 0 0 0
0 0 0 0 0 0 0 0 0
0 0 0 0 0 0 0 0 0
0 0 0 0 0 0 0 0 0
0 0 0 0 0 0 0 0 0
0 0 0 0 0 0 0 0 0
0 0 0 0 0 0 0 0 0
0 0 0 0 0 0 0 0 0
0 0 0 0 0 0 0 0 0
0 0 0 0 0 0 0 0 0
0 0 0 0 0 0 0 0 0
0 0 0 0 0 0 0 0 0
0 0 0 0 0 0 0 0 0
0 0 0 0 0 0 0 0 0
0 0 0 0 0 0 0 0 0
0 0 0 0 0 0 0 0 0
0 0 0 0 0 0 0 0 0
0 0 0 0 0 0 0 0 0
0 0 0 0 0 0 0 0 0
0 0 0 0 0 0 0 0 0
0 0 0 0 0 0 0 0 0
0 0 0 0 0 0 0 0 0
0 0 0 0 0 0 0 0 0
0 0 0 0 0 0 0 0 0
0 0 0 0 0 0 0 0 0
0 0 0 0 0 0 0 0 0
0 0 0 0 0 0 0 0 0
0 0 0 0 0 0 0 0 0
0 0 0 0 0 0 0 0 0
0 0 0 0 0 0 0 0 0
0 0 0 0 0 0 0 0 0
0 0 0 0 0 0 0 0 0
0 0 0 0 0 0 0 0 0
0 0 0 0 0 0 0 0 0
0 0 0 0 0 0 0 0 0
0 0 0 0 0 0 0 0 0
0 0 0 0 0 0 0 0 0
0 0 0 0 0 0 0 0 0
0 0 0 0 0 0 0 0 0
0 0 0 0 0 0 0 0 0
0 0 0 0 0 0 0 0 0
0 0 0 0 0 0 0 0 0
0 0 0 0 0 0 0 0 0
0 0 0 0 0 0 0 0 0
0 0 0 0 0 0 0 0 0
0 0 0 0 0 0 0 0 0
0 0 0 0 0 0 0 0 0
0 0 0 0 0 0 0 0 0
0 0 0 0 0 0 0 0 0
0 0 0 0 0 0 0 0 0
0 0 0 0 0 0 0 0 0
0 0 0 0 0 0 0 0 0
0 0 0 0 0 0 0 0 0
0 0 0 0 0 0 0 0 0
0 0 0 0 0 0 0 0 0
0 0 0 0 0 0 0 0 0
0 0 0 0 0 0 0 0 0
0 0 0 0 0 0 0 0 0
0 0 0 0 0 0 0 0 0
0 0 0 0 0 0 0 0 0
0 0 0 0 0 0 0 0 0
0 0 0 0 0 0 0 0 0
0 0 0 0 0 0 0 0 0
0 0 0 0 0 0 0 0 0
0 0 0 0 0 0 0 0 0
0 0 0 0 0 0 0 0 0
0 0 0 0 0 0 0 0 0
0 0 0 0 0 0 0 0 0
0 0 0 0 0 0 0 0 0
0 0 0 0 0 0 0 0 0
0 0 0 0 0 0 0 0 0
0 0 0 0 0 0 0 0 0
0 0 0 0 0 0 0 0 0
0 0 0 0 0 0 0 0 0
0 0 0 0 0 0 0 0 0
0 0 0 0 0 0 0 0 0
0 0 0 0 0 0 0 0 0
0 0 0 0 0 0 0 0 0
0 0 0 0 0 0 0 0 0
0 0 0 0 0 0 0 0 0
0 0 0 0 0 0 0 0 0
0 0 0 0 0 0 0 0 0
0 0 0 0 0 0 0 0 0
0 0 0 0 0 0 0 0 0
0 0 0 0 0 0 0 0 0
0 0 0 0 0 0 0 0 0
0 0 0 0 0 0 0 0 0
0 0 0 0 0 0 0 0 0
0 0 0 0 0 0 0 0 0
0 0 0 0 0 0 0 0 0
0 0 0 0 0 0 0 0 0
0 0 0 0 0 0 0 0 0
0 0 0 0 0 0 0 0 0
0 0 0 0 0 0 0 0 0
0 0 0 0 0 0 0 0 0
0 0 0 0 0 0 0 0 0
0 0 0 0 0 0 0 0 0
0 0 0 0 0 0 0 0 0
0 0 0 0 0 0 0 0 0
0 0 0 0 0 0 0 0 0
0 0 0 0 0 0 0 0 0
0 0 0 0 0 0 0 0 0
0 0 0 0 0 0 0 0 0
0 0 0 0 0 0 0 0 0
0 0 0 0 0 0 0 0 0
0 0 0 0 0 0 0 0 0
0 0 0 0 0 0 0 0 0
0 0 0 0 0 0 0 0 0
0 0 0 0 0 0 0 0 0
0 0 0 0 0 0 0 0 0
0 0 0 0 0 0 0 0 0
0 0 0 0 0 0 0 0 0
0 0 0 0 0 0 0 0 0
0 0 0 0 0 0 0 0 0
0 0 0 0 0 0 0 0 0
0 0 0 0 0 0 0 0 0
0 0 0 0 0 0 0 0 0
0 0 0 0 0 0 0 0 0
0 0 0 0 0 0 0 0 0
0 0 0 0 0 0 0 0 0
0 0 0 0 0 0 0 0 0
0 0 0 0 0 0 0 0 0
0 0 0 0 0 0 0 0 0
0 0 0 0 0 0 0 0 0
0 0 0 0 0 0 0 0 0
0 0 0 0 0 0 0 0 0
0 0 0 0 0 0 0 0 0
0 0 0 0 0 0 0 0 0
0 0 0 0 0 0 0 0 0
0 0 0 0 0 0 0 0 0
0 0 0 0 0 0 0 0 0
0 0 0 0 0 0 0 0 0
0 0 0 0 0 0 0 0 0
0 0 0 0 0 0 0 0 0
0 0 0 0 0 0 0 0 0
0 0 0 0 0 0 0 0 0
0 0 0 0 0 0 0 0 0
0 0 0 0 0 0 0 0 0
0 0 0 0 0 0 0 0 0
0 0 0 0 0 0 0 0 0
0 0 0 0 0 0 0 0 0
0 0 0 0 0 0 0 0 0
0 0 0 0 0 0 0 0 0
0 0 0 0 0 0 0 0 0
0 0 0 0 0 0 0 0 0
0 0 0 0 0 0 0 0 0
0 0 0 0 0 0 0 0 0
0 0 0 0 0 0 0 0 0
0 0 0 0 0 0 0 0 0
0 0 0 0 0 0 0 0 0
0 0 0 0 0 0 0 0 0
0 0 0 0 0 0 0 0 0
0 0 0 0 0 0 0 0 0
0 0 0 0 0 0 0 0 0
0 0 0 0 0 0 0 0 0
0 0 0 0 0 0 0 0 0
0 0 0 0 0 0 0 0 0
0 0 0 0 0 0 0 0 0
0 0 0 0 0 0 0 0 0
0 0 0 0 0 0 0 0 0
0 0 0 0 0 0 0 0 0
0 0 0 0 0 0 0 0 0
0 0 0 0 0 0 0 0 0
0 0 0 0 0 0 0 0 0
0 0 0 0 0 0 0 0 0
0 0 0 0 0 0 0 0 0
0 0 0 0 0 0 0 0 0
0 0 0 0 0 0 0 0 0
0 0 0 0 0 0 0 0 0
0 0 0 0 0 0 0 0 0
0 0 0 0 0 0 0 0 0
0 0 0 0 0 0 0 0 0
0 0 0 0 0 0 0 0 0
0 0 0 0 0 0 0 0 0
0 0 0 0 0 0 0 0 0
0 0 0 0 0 0 0 0 0
0 0 0 0 0 0 0 0 0
0 0 0 0 0 0 0 0 0
0 0 0 0 0 0 0 0 0
0 0 0 0 0 0 0 0 0
0 0 0 0 0 0 0 0 0
0 0 0 0 0 0 0 0 0
0 0 0 0 0 0 0 0 0
0 0 0 0 0 0 0 0 0
0 0 0 0 0 0 0 0 0
0 0 0 0 0 0 0 0 0
0 0 0 0 0 0 0 0 0
0 0 0 0 0 0 0 0 0
0 0 0 0 0 0 0 0 0
0 0 0 0 0 0 0 0 0
0 0 0 0 0 0 0 0 0
0 0 0 0 0 0 0 0 0
0 0 0 0 0 0 0 0 0
0 0 0 0 0 0 0 0 0
0 0 0 0 0 0 0 0 0
0 0 0 0 0 0 0 0 0
0 0 0 0 0 0 0 0 0
0 0 0 0 0 0 0 0 0
0 0 0 0 0 0 0 0 0
0 0 0 0 0 0 0 0 0
0 0 0 0 0 0 0 0 0
0 0 0 0 0 0 0 0 0
0 0 0 0 0 0 0 0 0
0 0 0 0 0 0 0 0 0
0 0 0 0 0 0 0 0 0
0 0 0 0 0 0 0 0 0
0 0 0 0 0 0 0 0 0
0 0 0 0 0 0 0 0 0
0 0 0 0 0 0 0 0 0
0 0 0 0 0 0 0 0 0
0 0 0 0 0 0 0 0 0
0 0 0 0 0 0 0 0 0
0 0 0 0 0 0 0 0 0
0 0 0 0 0 0 0 0 0
0 0 0 0 0 0 0 0 0
0 0 0 0 0 0 0 0 0
0 0 0 0 0 0 0 0 0
0 0 0 0 0 0 0 0 0
0 0 0 0 0 0 0 0 0
0 0 0 0 0 0 0 0 0
0 0 0 0 0 0 0 0 0
0 0 0 0 0 0 0 0 0
0 0 0 0 0 0 0 0 0
0 0 0 0 0 0 0 0 0
0 0 0 0 0 0 0 0 0
0 0 0 0 0 0 0 0 0
0 0 0 0 0 0 0 0 0
0 0 0 0 0 0 0 0 0
0 0 0 0 0 0 0 0 0
0 0 0 0 0 0 0 0 0
0 0 0 0 0 0 0 0 0
0 0 0 0 0 0 0 0 0
0 0 0 0 0 0 0 0 0
0 0 0 0 0 0 0 0 0
0 0 0 0 0 0 0 0 0
0 0 0 0 0 0 0 0 0
0 0 0 0 0 0 0 0 0
0 0 0 0 0 0 0 0 0
0 0 0 0 0 0 0 0 0
0 0 0 0 0 0 0 0 0
0 0 0 0 0 0 0 0 0
0 0 0 0 0 0 0 0 0
0 0 0 0 0 0 0 0 0
0 0 0 0 0 0 0 0 0
0 0 0 0 0 0 0 0 0
0 0 0 0 0 0 0 0 0
0 0 0 0 0 0 0 0 0
0 0 0 0 0 0 0 0 0
0 0 0 0 0 0 0 0 0
0 0 0 0 0 0 0 0 0
0 0 0 0 0 0 0 0 0
0 0 0 0 0 0 0 0 0
0 0 0 0 0 0 0 0 0
0 0 0 0 0 0 0 0 0
0 0 0 0 0 0 0 0 0
0 0 0 0 0 0 0 0 0
0 0 0 0 0 0 0 0 0
0 0 0 0 0 0 0 0 0
0 0 0 0 0 0 0 0 0
0 0 0 0 0 0 0 0 0
0 0 0 0 0 0 0 0 0
0 0 0 0 0 0 0 0 0
0 0 0 0 0 0 0 0 0
0 0 0 0 0 0 0 0 0
0 0 0 0 0 0 0 0 0
0 0 0 0 0 0 0 0 0
0 0 0 0 0 0 0 0 0
0 0 0 0 0 0 0 0 0
0 0 0 0 0 0 0 0 0
0 0 0 0 0 0 0 0 0
0 0 0 0 0 0 0 0 0
0 0 0 0 0 0 0 0 0
0 0 0 0 0 0 0 0 0
0 0 0 0 0 0 0 0 0
0 0 0 0 0 0 0 0 0
0 0 0 0 0 0 0 0 0
0 0 0 0 0 0 0 0 0
0 0 0 0 0 0 0 0 0
0 0 0 0 0 0 0 0 0
0 0 0 0 0 0 0 0 0
0 0 0 0 0 0 0 0 0
0 0 0 0 0 0 0 0 0
0 0 0 0 0 0 0 0 0
0 0 0 0 0 0 0 0 0
0 0 0 0 0 0 0 0 0
0 0 0 0 0 0 0 0 0
0 0 0 0 0 0 0 0 0
0 0 0 0 0 0 0 0 0
0 0 0 0 0 0 0 0 0
0 0 0 0 0 0 0 0 0
0 0 0 0 0 0 0 0 0
0 0 0 0 0 0 0 0 0
0 0 0 0 0 0 0 0 0
0 0 0 0 0 0 0 0 0
0 0 0 0 0 0 0 0 0
0 0 0 0 0 0 0 0 0
0 0 0 0 0 0 0 0 0
0 0 0 0 0 0 0 0 0
0 0 0 0 0 0 0 0 0
0 0 0 0 0 0 0 0 0
0 0 0 0 0 0 0 0 0
0 0 0 0 0 0 0 0 0
0 0 0 0 0 0 0 0 0
0 0 0 0 0 0 0 0 0
0 0 0 0 0 0 0 0 0
0 0 0 0 0 0 0 0 0
0 0 0 0 0 0 0 0 0
0 0 0 0 0 0 0 0 0
0 0 0 0 0 0 0 0 0
0 0 0 0 0 0 0 0 0
0 0 0 0 0 0 0 0 0
0 0 0 0 0 0 0 0 0
0 0 0 0 0 0 0 0 0
0 0 0 0 0 0 0 0 0
0 0 0 0 0 0 0 0 0
0 0 0 0 0 0 0 0 0
0 0 0 0 0 0 0 0 0
0 0 0 0 0 0 0 0 0
0 0 0 0 0 0 0 0 0
0 0 0 0 0 0 0 0 0
0 0 0 0 0 0 0 0 0
0 0 0 0 0 0 0 0 0
0 0 0 0 0 0 0 0 0
0 0 0 0 0 0 0 0 0
0 0 0 0 0 0 0 0 0
0 0 0 0 0 0 0 0 0
0 0 0 0 0 0 0 0 0
0 0 0 0 0 0 0 0 0
0 0 0 0 0 0 0 0 0
0 0 0 0 0 0 0 0 0
0 0 0 0 0 0 0 0 0
0 0 0 0 0 0 0 0 0
0 0 0 0 0 0 0 0 0
0 0 0 0 0 0 0 0 0
0 0 0 0 0 0 0 0 0
0 0 0 0 0 0 0 0 0
0 0 0 0 0 0 0 0 0
0 0 0 0 0 0 0 0 0
0 0 0 0 0 0 0 0 0
0 0 0 0 0 0 0 0 0
0 0 0 0 0 0 0 0 0
1.01459e-08 1.09323e-08 1.10159e-08 1.18042e-08 1.01459e-08 1.09323e-08 1.10159e-08 1.18042e-08 0
1.14328e-08 1.23049e-08 1.23158e-08 1.32103e-08 1.14328e-08 1.23049e-08 1.23158e-08 1.32103e-08 0
0 0 0 1.02273e-08 0 0 0 1.02273e-08 0
0 1.06391e-08 1.07155e-08 1.15758e-08 0 1.06391e-08 1.07155e-08 1.15758e-08 0
1.11897e-08 1.21637e-08 1.21359e-08 1.31258e-08 1.11897e-08 1.21637e-08 1.21359e-08 1.31258e-08 0
1.28066e-08 1.39359e-08 1.37824e-08 1.49264e-08 1.28066e-08 1.39359e-08 1.37824e-08 1.49264e-08 0
1.46942e-08 1.60028e-08 1.56962e-08 1.70136e-08 1.46942e-08 1.60028e-08 1.56962e-08 1.70136e-08 0
1.68923e-08 1.83975e-08 1.79124e-08 1.9426e-08 1.68923e-08 1.83975e-08 1.79124e-08 1.9426e-08 0
1.94354e-08 2.11649e-08 2.04723e-08 2.22076e-08 1.94354e-08 2.11649e-08 2.04723e-08 2.22076e-08 0
2.23757e-08 2.43659e-08 2.34188e-08 2.53952e-08 2.23757e-08 2.43659e-08 2.34188e-08 2.53952e-08 0
2.57643e-08 2.80155e-08 2.67834e-08 2.90113e-08 2.57643e-08 2.80155e-08 2.67834e-08 2.90113e-08 0
0 0 0 0 0 0 0 0 0
0 1.03986e-08 1.04304e-08 1.13903e-08 0 1.03986e-08 1.04304e-08 1.13903e-08 0
1.10122e-08 1.21103e-08 1.20189e-08 1.31341e-08 1.10122e-08 1.21103e-08 1.20189e-08 1.31341e-08 0
1.28388e-08 1.41165e-08 1.38785e-08 1.51746e-08 1.28388e-08 1.41165e-08 1.38785e-08 1.51746e-08 0
1.49781e-08 1.64589e-08 1.6051e-08 1.75454e-08 1.49781e-08 1.64589e-08 1.6051e-08 1.75454e-08 0
1.74749e-08 1.91916e-08 1.85719e-08 2.02944e-08 1.74749e-08 1.91916e-08 1.85719e-08 2.02944e-08 0
2.03901e-08 2.23835e-08 2.14983e-08 2.34911e-08 2.03901e-08 2.23835e-08 2.14983e-08 2.34911e-08 0
0 0 0 0 0 0 0 0 0
0 0 0 0 0 0 0 0 0
0 1.02297e-08 1.02056e-08 1.12871e-08 0 1.02297e-08 1.02056e-08 1.12871e-08 0
1.09231e-08 1.21623e-08 1.19992e-08 1.32599e-08 1.09231e-08 1.21623e-08 1.19992e-08 1.32599e-08 0
1.299e-08 1.4438e-08 1.41054e-08 1.55719e-08 1.299e-08 1.4438e-08 1.41054e-08 1.55719e-08 0
1.5425e-08 1.71177e-08 1.65741e-08 1.82808e-08 1.5425e-08 1.71177e-08 1.65741e-08 1.82808e-08 0
1.82968e-08 2.02852e-08 1.94692e-08 2.14595e-08 1.82968e-08 2.02852e-08 1.94692e-08 2.14595e-08 0
0 0 0 0 0 0 0 0 0
0 0 0 0 0 0 0 0 0
0 0 0 0 0 0 0 0 0
0 1.01446e-08 1.00616e-08 1.1281e-08 0 1.01446e-08 1.00616e-08 1.1281e-08 0
1.09321e-08 1.23374e-08 1.20903e-08 1.35201e-08 1.09321e-08 1.23374e-08 1.20903e-08 1.35201e-08 0
1.32902e-08 1.49553e-08 1.44907e-08 1.61703e-08 1.32902e-08 1.49553e-08 1.44907e-08 1.61703e-08 0
0 0 0 0 0 0 0 0 0
0 0 0 0 0 0 0 0 0
0 0 0 0 0 0 0 0 0
0 0 0 0 0 0 0 0 0
0 1.01628e-08 1.00079e-08 1.13903e-08 0 1.01628e-08 1.00079e-08 1.13903e-08 0
1.10706e-08 1.26897e-08 1.23233e-08 1.39703e-08 1.10706e-08 1.26897e-08 1.23233e-08 1.39703e-08 0
0 0 0 0 0 0 0 0 0
0 0 0 0 0 0 0 0 0
0 0 0 0 0 0 0 0 0
0 0 0 0 0 0 0 0 0
0 0 0 0 0 0 0 0 0
0 1.03322e-08 1.00753e-08 1.16673e-08 0 1.03322e-08 1.00753e-08 1.16673e-08 0
0 0 0 0 0 0 0 0 0
0 0 0 0 0 0 0 0 0
0 0 0 0 0 0 0 0 0
0 0 0 0 0 0 0 0 0
0 0 0 0 0 0 0 0 0
0 0 0 0 0 0 0 0 0
0 0 0 0 0 0 0 0 0
0 0 0 0 0 0 0 0 0
0 0 0 0 0 0 0 0 0
0 0 0 0 0 0 0 0 0
0 0 0 0 0 0 0 0 0
0 0 0 0 0 0 0 0 0
0 0 0 0 0 0 0 0 0
0 0 0 0 0 0 0 0 0
0 0 0 0 0 0 0 0 0
0 0 0 0 0 0 0 0 0
0 0 0 0 0 0 0 0 0
0 0 0 0 0 0 0 0 0
0 0 0 0 0 0 0 0 0
0 0 0 0 0 0 0 0 0
0 0 0 0 0 0 0 0 0
0 0 0 0 0 0 0 0 0
0 0 0 0 0 0 0 0 0
0 0 0 0 0 0 0 0 0
0 0 0 0 0 0 0 0 0
0 0 0 0 0 0 0 0 0
0 0 0 0 0 0 0 0 0
0 0 0 0 0 0 0 0 0
0 0 0 0 0 0 0 0 0
0 0 0 0 0 0 0 0 0
0 0 0 0 0 0 0 0 0
0 0 0 0 0 0 0 0 0
0 0 0 0 0 0 0 0 0
0 0 0 0 0 0 0 0 0
0 0 0 0 0 0 0 0 0
0 0 0 0 0 0 0 0 0
0 0 0 0 0 0 0 0 0
0 0 0 0 0 0 0 0 0
0 0 0 0 0 0 0 0 0
0 0 0 0 0 0 0 0 0
0 0 0 0 0 0 0 0 0
0 0 0 0 0 0 0 0 0
0 0 0 0 0 0 0 0 0
0 0 0 0 0 0 0 0 0
0 0 0 0 0 0 0 0 0
0 0 0 0 0 0 0 0 0
0 0 0 0 0 0 0 0 0
0 0 0 0 0 0 0 0 0
0 0 0 0 0 0 0 0 0
0 0 0 0 0 0 0 0 0
0 0 0 0 0 0 0 0 0
0 0 0 0 0 0 0 0 0
0 0 0 0 0 0 0 0 0
0 0 0 0 0 0 0 0 0
0 0 0 0 0 0 0 0 0
0 0 0 0 0 0 0 0 0
0 0 0 0 0 0 0 0 0
0 0 0 0 0 0 0 0 0
0 0 0 0 0 0 0 0 0
0 0 0 0 0 0 0 0 0
0 0 0 0 0 0 0 0 0
0 0 0 0 0 0 0 0 0
0 0 0 0 0 0 0 0 0
0 0 0 0 0 0 0 0 0
0 0 0 0 0 0 0 0 0
0 0 0 0 0 0 0 0 0
0 0 0 0 0 0 0 0 0
0 0 0 0 0 0 0 0 0
0 0 0 0 0 0 0 0 0
0 0 0 0 0 0 0 0 0
0 0 0 0 0 0 0 0 0
0 0 0 0 0 0 0 0 0
0 0 0 0 0 0 0 0 0
0 0 0 0 0 0 0 0 0
0 0 0 0 0 0 0 0 0
0 0 0 0 0 0 0 0 0
0 0 0 0 0 0 0 0 0
0 0 0 0 0 0 0 0 0
0 0 0 0 0 0 0 0 0
0 0 0 0 0 0 0 0 0
0 0 0 0 0 0 0 0 0
0 0 0 0 0 0 0 0 0
0 0 0 0 0 0 0 0 0
0 0 0 0 0 0 0 0 0
0 0 0 0 0 0 0 0 0
0 0 0 0 0 0 0 0 0
0 0 0 0 0 0 0 0 0
0 0 0 0 0 0 0 0 0
0 0 0 0 0 0 0 0 0
0 0 0 0 0 0 0 0 0
0 0 0 0 0 0 0 0 0
0 0 0 0 0 0 0 0 0
0 0 0 0 0 0 0 0 0
0 0 0 0 0 0 0 0 0
0 0 0 0 0 0 0 0 0
0 0 0 0 0 0 0 0 0
0 0 0 0 0 0 0 0 0
0 0 0 0 0 0 0 0 0
0 0 0 0 0 0 0 0 0
0 0 0 0 0 0 0 0 0
0 0 0 0 0 0 0 0 0
0 0 0 0 0 0 0 0 0
0 0 0 0 0 0 0 0 0
0 0 0 0 0 0 0 0 0
0 0 0 0 0 0 0 0 0
0 0 0 0 0 0 0 0 0
0 0 0 0 0 0 0 0 0
0 0 0 0 0 0 0 0 0
0 0 0 0 0 0 0 0 0
0 0 0 0 0 0 0 0 0
0 0 0 0 0 0 0 0 0
0 0 0 0 0 0 0 0 0
0 0 0 0 0 0 0 0 0
0 0 0 0 0 0 0 0 0
0 0 0 0 0 0 0 0 0
0 0 0 0 0 0 0 0 0
0 0 0 0 0 0 0 0 0
0 0 0 0 0 0 0 0 0
0 0 0 0 0 0 0 0 0
0 0 0 0 0 0 0 0 0
0 0 0 0 0 0 0 0 0
0 0 0 0 0 0 0 0 0
0 0 0 0 0 0 0 0 0
0 0 0 0 0 0 0 0 0
0 0 0 0 0 0 0 0 0
0 0 0 0 0 0 0 0 0
0 0 0 0 0 0 0 0 0
0 0 0 0 0 0 0 0 0
0 0 0 0 0 0 0 0 0
0 0 0 0 0 0 0 0 0
0 0 0 0 0 0 0 0 0
0 0 0 0 0 0 0 0 0
0 0 0 0 0 0 0 0 0
0 0 0 0 0 0 0 0 0
0 1.00176e-08 0 1.09407e-08 0 1.00176e-08 0 1.09407e-08 0
1.07926e-08 1.21124e-08 1.17003e-08 1.29884e-08 1.07926e-08 1.21124e-08 1.17003e-08 1.29884e-08 0
0 0 0 0 0 0 0 0 0
0 0 0 0 0 0 0 0 0
0 0 0 0 0 0 0 0 0
0 0 0 0 0 0 0 0 0
0 0 0 0 0 0 0 0 0
0 0 0 0 0 0 0 0 0
0 0 0 0 0 0 0 0 0
0 0 0 0 0 0 0 0 0
0 0 0 0 0 0 0 0 0
0 0 0 0 0 0 0 0 0
0 0 0 0 0 0 0 0 0
0 0 0 0 0 0 0 0 0
0 0 0 0 0 0 0 0 0
0 0 0 0 0 0 0 0 0
0 0 0 0 0 0 0 0 0
0 0 0 0 0 0 0 0 0
0 0 0 0 0 0 0 0 0
0 0 0 0 0 0 0 0 0
0 0 0 0 0 0 0 0 0
0 0 0 0 0 0 0 0 0
0 0 0 0 0 0 0 0 0
0 0 0 0 0 0 0 0 0
0 0 0 0 0 0 0 0 0
0 0 0 0 0 0 0 0 0
0 0 0 0 0 0 0 0 0
0 0 0 0 0 0 0 0 0
0 0 0 0 0 0 0 0 0
0 0 0 0 0 0 0 0 0
0 0 0 0 0 0 0 0 0
0 0 0 0 0 0 0 0 0
0 0 0 0 0 0 0 0 0
0 0 0 0 0 0 0 0 0
0 0 0 0 0 0 0 0 0
0 0 0 0 0 0 0 0 0
0 0 0 0 0 0 0 0 0
0 0 0 0 0 0 0 0 0
0 0 0 0 0 0 0 0 0
-1.1408e-08 -1.11804e-08 -1.03783e-08 -1.01302e-08 -1.1408e-08 -1.11804e-08 -1.03783e-08 -1.01302e-08 0
-1.11323e-08 -1.08392e-08 -1.00621e-08 0 -1.11323e-08 -1.08392e-08 -1.00621e-08 0 0
-1.07509e-08 -1.03816e-08 0 0 -1.07509e-08 -1.03816e-08 0 0 0
-1.02433e-08 0 0 0 -1.02433e-08 0 0 0 0
0 0 0 0 0 0 0 0 0
0 0 0 0 0 0 0 0 0
-1.32047e-08 -1.30225e-08 -1.21785e-08 -1.19693e-08 -1.32047e-08 -1.30225e-08 -1.21785e-08 -1.19693e-08 0
-1.30122e-08 -1.27673e-08 -1.19372e-08 -1.16655e-08 -1.30122e-08 -1.27673e-08 -1.19372e-08 -1.16655e-08 0
-1.27193e-08 -1.24006e-08 -1.15947e-08 -1.1247e-08 -1.27193e-08 -1.24006e-08 -1.15947e-08 -1.1247e-08 0
-1.23057e-08 -1.18984e-08 -1.11273e-08 -1.06885e-08 -1.23057e-08 -1.18984e-08 -1.11273e-08 -1.06885e-08 0
-1.17458e-08 -1.12352e-08 -1.05093e-08 0 -1.17458e-08 -1.12352e-08 -1.05093e-08 0 0
-1.10116e-08 -1.03766e-08 0 0 -1.10116e-08 -1.03766e-08 0 0 0
-1.5022e-08 -1.49902e-08 -1.41245e-08 -1.4074e-08 -1.5022e-08 -1.49902e-08 -1.41245e-08 -1.4074e-08 0
-1.50664e-08 -1.49988e-08 -1.41343e-08 -1.40451e-08 -1.50664e-08 -1.49988e-08 -1.41343e-08 -1.40451e-08 0
-1.50573e-08 -1.49453e-08 -1.40839e-08 -1.39434e-08 -1.50573e-08 -1.49453e-08 -1.40839e-08 -1.39434e-08 0
-1.49877e-08 -1.48426e-08 -1.39665e-08 -1.38021e-08 -1.49877e-08 -1.48426e-08 -1.39665e-08 -1.38021e-08 0
-1.4867e-08 -1.46716e-08 -1.38071e-08 -1.35832e-08 -1.4867e-08 -1.46716e-08 -1.38071e-08 -1.35832e-08 0
-1.4665e-08 -1.43996e-08 -1.35528e-08 -1.32568e-08 -1.4665e-08 -1.43996e-08 -1.35528e-08 -1.32568e-08 0
-1.43486e-08 -1.39953e-08 -1.31808e-08 -1.27971e-08 -1.43486e-08 -1.39953e-08 -1.31808e-08 -1.27971e-08 0
-1.38908e-08 -1.3443e-08 -1.26653e-08 -1.21811e-08 -1.38908e-08 -1.3443e-08 -1.26653e-08 -1.21811e-08 0
-1.65303e-08 -1.65309e-08 -1.56712e-08 -1.56534e-08 -1.65303e-08 -1.65309e-08 -1.56712e-08 -1.56534e-08 0
-1.66344e-08 -1.66052e-08 -1.57409e-08 -1.56897e-08 -1.66344e-08 -1.66052e-08 -1.57409e-08 -1.56897e-08 0
-1.66952e-08 -1.6626e-08 -1.57617e-08 -1.56692e-08 -1.66952e-08 -1.6626e-08 -1.57617e-08 -1.56692e-08 0
-1.67014e-08 -1.65981e-08 -1.57252e-08 -1.55969e-08 -1.67014e-08 -1.65981e-08 -1.57252e-08 -1.55969e-08 0
-1.66584e-08 -1.65117e-08 -1.56359e-08 -1.54616e-08 -1.66584e-08 -1.65117e-08 -1.56359e-08 -1.54616e-08 0
-1.65454e-08 -1.63322e-08 -1.5472e-08 -1.52293e-08 -1.65454e-08 -1.63322e-08 -1.5472e-08 -1.52293e-08 0
-1.63254e-08 -1.60299e-08 -1.51968e-08 -1.48676e-08 -1.63254e-08 -1.60299e-08 -1.51968e-08 -1.48676e-08 0
-1.59738e-08 -1.5587e-08 -1.47837e-08 -1.43624e-08 -1.59738e-08 -1.5587e-08 -1.47837e-08 -1.43624e-08 0
-1.79326e-08 -1.79589e-08 -1.71378e-08 -1.71504e-08 -1.79326e-08 -1.79589e-08 -1.71378e-08 -1.71504e-08 0
-1.80845e-08 -1.80876e-08 -1.72634e-08 -1.72491e-08 -1.80845e-08 -1.80876e-08 -1.72634e-08 -1.72491e-08 0
-1.82044e-08 -1.81732e-08 -1.73503e-08 -1.72977e-08 -1.82044e-08 -1.81732e-08 -1.73503e-08 -1.72977e-08 0
-1.82764e-08 -1.82067e-08 -1.73851e-08 -1.72977e-08 -1.82764e-08 -1.82067e-08 -1.73851e-08 -1.72977e-08 0
-1.8296e-08 -1.81892e-08 -1.73707e-08 -1.72423e-08 -1.8296e-08 -1.81892e-08 -1.73707e-08 -1.72423e-08 0
-1.82597e-08 -1.80996e-08 -1.72914e-08 -1.71005e-08 -1.82597e-08 -1.80996e-08 -1.72914e-08 -1.71005e-08 0
-1.81388e-08 -1.79064e-08 -1.71124e-08 -1.68429e-08 -1.81388e-08 -1.79064e-08 -1.71124e-08 -1.68429e-08 0
-1.79077e-08 -1.76022e-08 -1.68094e-08 -1.64538e-08 -1.79077e-08 -1.76022e-08 -1.68094e-08 -1.64538e-08 0
0 0 0 0 0 0 0 0 0
0 0 0 0 0 0 0 0 0
0 0 0 0 0 0 0 0 0
0 0 0 0 0 0 0 0 0
0 0 0 0 0 0 0 0 0
0 0 0 0 0 0 0 0 0
0 0 0 0 0 0 0 0 0
0 0 0 0 0 0 0 0 0
0 0 0 0 0 0 0 0 0
0 0 0 0 0 0 0 0 0
0 0 0 0 0 0 0 0 0
0 0 0 0 0 0 0 0 0
0 0 0 0 0 0 0 0 0
0 0 0 0 0 0 0 0 0
0 0 0 0 0 0 0 0 0
0 0 0 0 0 0 0 0 0
0 0 0 0 0 0 0 0 0
0 0 0 0 0 0 0 0 0
0 0 0 0 0 0 0 0 0
0 0 0 0 0 0 0 0 0
0 0 0 0 0 0 0 0 0
0 0 0 0 0 0 0 0 0
0 0 0 0 0 0 0 0 0
0 0 0 0 0 0 0 0 0
0 0 0 0 0 0 0 0 0
0 0 0 0 0 0 0 0 0
0 0 0 0 0 0 0 0 0
0 0 0 0 0 0 0 0 0
0 0 0 0 0 0 0 0 0
0 0 0 0 0 0 0 0 0
0 0 0 0 0 0 0 0 0
0 0 0 0 0 0 0 0 0
0 0 0 0 0 0 0 0 0
0 0 0 0 0 0 0 0 0
0 0 0 0 0 0 0 0 0
0 0 0 0 0 0 0 0 0
0 0 0 0 0 0 0 0 0
0 0 0 0 0 0 0 0 0
0 0 0 0 0 0 0 0 0
0 0 0 0 0 0 0 0 0
0 0 0 0 0 0 0 0 0
0 0 0 0 0 0 0 0 0
0 0 0 0 0 0 0 0 0
0 0 0 0 0 0 0 0 0
0 0 0 0 0 0 0 0 0
0 0 0 0 0 0 0 0 0
0 0 0 0 0 0 0 0 0
0 0 0 0 0 0 0 0 0
0 0 0 0 0 0 0 0 0
0 0 0 0 0 0 0 0 0
0 0 0 0 0 0 0 0 0
0 0 0 0 0 0 0 0 0
0 0 0 0 0 0 0 0 0
0 0 0 0 0 0 0 0 0
0 0 0 0 0 0 0 0 0
0 0 0 0 0 0 0 0 0
0 0 0 0 0 0 0 0 0
0 0 0 0 0 0 0 0 0
0 0 0 0 0 0 0 0 0
0 0 0 0 0 0 0 0 0
0 0 0 0 0 0 0 0 0
0 0 0 0 0 0 0 0 0
0 0 0 0 0 0 0 0 0
0 0 0 0 0 0 0 0 0
0 0 0 0 0 0 0 0 0
0 0 0 0 0 0 0 0 0
0 0 0 0 0 0 0 0 0
0 0 0 0 0 0 0 0 0
0 0 0 0 0 0 0 0 0
0 0 0 0 0 0 0 0 0
0 0 0 0 0 0 0 0 0
0 0 0 0 0 0 0 0 0
0 0 0 0 0 0 0 0 0
0 0 0 0 0 0 0 0 0
0 0 0 0 0 0 0 0 0
0 0 0 0 0 0 0 0 0
0 0 0 0 0 0 0 0 0
0 0 0 0 0 0 0 0 0
0 0 0 0 0 0 0 0 0
0 0 0 0 0 0 0 0 0
0 0 0 0 0 0 0 0 0
0 0 0 0 0 0 0 0 0
0 0 0 0 0 0 0 0 0
0 0 0 0 0 0 0 0 0
0 0 0 0 0 0 0 0 0
0 0 0 0 0 0 0 0 0
0 0 0 0 0 0 0 0 0
0 0 0 0 0 0 0 0 0
0 0 0 0 0 0 0 0 0
0 0 0 0 0 0 0 0 0
0 0 0 0 0 0 0 0 0
0 0 0 0 0 0 0 0 0
0 0 0 0 0 0 0 0 0
0 0 0 0 0 0 0 0 0
0 0 0 0 0 0 0 0 0
0 0 0 0 0 0 0 0 0
0 0 0 0 0 0 0 0 0
0 0 0 0 0 0 0 0 0
0 0 0 0 0 0 0 0 0
0 0 0 0 0 0 0 0 0
0 0 0 0 0 0 0 0 0
0 0 0 0 0 0 0 0 0
0 0 0 0 0 0 0 0 0
0 0 0 0 0 0 0 0 0
0 0 0 0 0 0 0 0 0
0 0 0 0 0 0 0 0 0
0 0 0 0 0 0 0 0 0
0 0 0 0 0 0 0 0 0
0 0 0 0 0 0 0 0 0
0 0 0 0 0 0 0 0 0
0 0 0 0 0 0 0 0 0
0 0 0 0 0 0 0 0 0
0 0 0 0 0 0 0 0 0
0 0 0 0 0 0 0 0 0
0 0 0 0 0 0 0 0 0
0 0 0 0 0 0 0 0 0
0 0 0 0 0 0 0 0 0
0 0 0 0 0 0 0 0 0
0 0 0 0 0 0 0 0 0
0 0 0 0 0 0 0 0 0
0 0 0 0 0 0 0 0 0
0 0 0 0 0 0 0 0 0
0 0 0 0 0 0 0 0 0
0 0 0 0 0 0 0 0 0
0 0 0 0 0 0 0 0 0
0 0 0 0 0 0 0 0 0
0 0 0 0 0 0 0 0 0
0 0 0 0 0 0 0 0 0
0 0 0 0 0 0 0 0 0
0 0 0 0 0 0 0 0 0
0 0 0 0 0 0 0 0 0
0 0 0 0 0 0 0 0 0
0 0 0 0 0 0 0 0 0
0 0 0 0 0 0 0 0 0
0 0 0 0 0 0 0 0 0
0 0 0 0 0 0 0 0 0
0 0 0 0 0 0 0 0 0
0 0 0 0 0 0 0 0 0
0 0 0 0 0 0 0 0 0
0 0 0 0 0 0 0 0 0
0 0 0 0 0 0 0 0 0
0 0 0 0 0 0 0 0 0
0 0 0 0 0 0 0 0 0
0 0 0 0 0 0 0 0 0
0 0 0 0 0 0 0 0 0
0 0 0 0 0 0 0 0 0
0 0 0 0 0 0 0 0 0
0 0 0 0 0 0 0 0 0
0 0 0 0 0 0 0 0 0
0 0 0 0 0 0 0 0 0
0 0 0 0 0 0 0 0 0
0 0 0 0 0 0 0 0 0
0 0 0 0 0 0 0 0 0
0 0 0 0 0 0 0 0 0
0 0 0 0 0 0 0 0 0
0 0 0 0 0 0 0 0 0
0 0 0 0 0 0 0 0 0
0 0 0 0 0 0 0 0 0
0 0 0 0 0 0 0 0 0
0 0 0 0 0 0 0 0 0
0 0 0 0 0 0 0 0 0
0 0 0 0 0 0 0 0 0
0 0 0 0 0 0 0 0 0
0 0 0 0 0 0 0 0 0
0 0 0 0 0 0 0 0 0
0 0 0 0 0 0 0 0 0
0 0 0 0 0 0 0 0 0
0 0 0 0 0 0 0 0 0
0 0 0 0 0 0 0 0 0
0 0 0 0 0 0 0 0 0
0 0 0 0 0 0 0 0 0
0 0 0 0 0 0 0 0 0
0 0 0 0 0 0 0 0 0
0 0 0 0 0 0 0 0 0
0 0 0 0 0 0 0 0 0
0 0 0 0 0 0 0 0 0
0 0 0 0 0 0 0 0 0
0 0 0 0 0 0 0 0 0
0 0 0 0 0 0 0 0 0
0 0 0 0 0 0 0 0 0
0 0 0 0 0 0 0 0 0
0 0 0 0 0 0 0 0 0
0 0 0 0 0 0 0 0 0
0 0 0 0 0 0 0 0 0
0 0 0 0 0 0 0 0 0
0 0 0 0 0 0 0 0 0
0 0 0 0 0 0 0 0 0
0 0 0 0 0 0 0 0 0
0 0 0 0 0 0 0 0 0
0 0 0 0 0 0 0 0 0
0 0 0 0 0 0 0 0 0
0 0 0 0 0 0 0 0 0
0 0 0 0 0 0 0 0 0
0 0 0 0 0 0 0 0 0
0 0 0 0 0 0 0 0 0
0 0 0 0 0 0 0 0 0
0 0 0 0 0 0 0 0 0
0 0 0 0 0 0 0 0 0
0 0 0 0 0 0 0 0 0
0 0 0 0 0 0 0 0 0
0 0 0 0 0 0 0 0 0
0 0 0 0 0 0 0 0 0
0 0 0 0 0 0 0 0 0
0 0 0 0 0 0 0 0 0
0 0 0 0 0 0 0 0 0
0 0 0 0 0 0 0 0 0
0 0 0 0 0 0 0 0 0
0 0 0 0 0 0 0 0 0
0 0 0 0 0 0 0 0 0
0 0 0 0 0 0 0 0 0
0 0 0 0 0 0 0 0 0
0 0 0 0 0 0 0 0 0
0 0 0 0 0 0 0 0 0
0 0 0 0 0 0 0 0 0
0 0 0 0 0 0 0 0 0
0 0 0 0 0 0 0 0 0
0 0 0 0 0 0 0 0 0
0 0 0 0 0 0 0 0 0
0 0 0 0 0 0 0 0 0
0 0 0 0 0 0 0 0 0
0 0 0 0 0 0 0 0 0
0 0 0 0 0 0 0 0 0
0 0 0 0 0 0 0 0 0
0 0 0 0 0 0 0 0 0
0 0 0 0 0 0 0 0 0
0 0 0 0 0 0 0 0 0
0 0 0 0 0 0 0 0 0
0 0 0 0 0 0 0 0 0
0 0 0 0 0 0 0 0 0
0 0 0 0 0 0 0 0 0
0 0 0 0 0 0 0 0 0
0 0 0 0 0 0 0 0 0
0 0 0 0 0 0 0 0 0
0 0 0 0 0 0 0 0 0
0 0 0 0 0 0 0 0 0
0 0 0 0 0 0 0 0 0
0 0 0 0 0 0 0 0 0
0 0 0 0 0 0 0 0 0
0 0 0 0 0 0 0 0 0
0 0 0 0 0 0 0 0 0
0 0 0 0 0 0 0 0 0
0 0 0 0 0 0 0 0 0
0 0 0 0 0 0 0 0 0
0 0 0 0 0 0 0 0 0
0 0 0 0 0 0 0 0 0
0 0 0 0 0 0 0 0 0
0 0 0 0 0 0 0 0 0
0 0 0 0 0 0 0 0 0
0 0 0 0 0 0 0 0 0
0 0 0 0 0 0 0 0 0
0 0 0 0 0 0 0 0 0
0 0 0 0 0 0 0 0 0
0 0 0 0 0 0 0 0 0
0 0 0 0 0 0 0 0 0
0 0 0 0 0 0 0 0 0
0 0 0 0 0 0 0 0 0
0 0 0 0 0 0 0 0 0
0 0 0 0 0 0 0 0 0
0 0 0 0 0 0 0 0 0
0 0 0 0 0 0 0 0 0
0 0 0 0 0 0 0 0 0
0 0 0 0 0 0 0 0 0
0 0 0 0 0 0 0 0 0
0 0 0 0 0 0 0 0 0
0 0 0 0 0 0 0 0 0
0 0 0 0 0 0 0 0 0
0 0 0 0 0 0 0 0 0
0 0 0 0 0 0 0 0 0
0 0 0 0 0 0 0 0 0
0 0 0 0 0 0 0 0 0
0 0 0 0 0 0 0 0 0
0 0 0 0 0 0 0 0 0
0 0 0 0 0 0 0 0 0
0 0 0 0 0 0 0 0 0
0 0 0 0 0 0 0 0 0
0 0 0 0 0 0 0 0 0
0 0 0 0 0 0 0 0 0
0 0 0 0 0 0 0 0 0
0 0 0 0 0 0 0 0 0
0 0 0 0 0 0 0 0 0
0 0 0 0 0 0 0 0 0
0 0 0 0 0 0 0 0 0
0 0 0 0 0 0 0 0 0
0 0 0 0 0 0 0 0 0
0 0 0 0 0 0 0 0 0
0 0 0 0 0 0 0 0 0
0 0 0 0 0 0 0 0 0
0 0 0 0 0 0 0 0 0
0 0 0 0 0 0 0 0 0
0 0 0 0 0 0 0 0 0
0 0 0 0 0 0 0 0 0
0 0 0 0 0 0 0 0 0
0 0 0 0 0 0 0 0 0
0 0 0 0 0 0 0 0 0
0 0 0 0 0 0 0 0 0
0 0 0 0 0 0 0 0 0
0 0 0 0 0 0 0 0 0
0 0 0 0 0 0 0 0 0
0 0 0 0 0 0 0 0 0
0 0 0 0 0 0 0 0 0
0 0 0 0 0 0 0 0 0
0 0 0 0 0 0 0 0 0
0 0 0 0 0 0 0 0 0
0 0 0 0 0 0 0 0 0
0 0 0 0 0 0 0 0 0
0 0 0 0 0 0 0 0 0
0 0 0 0 0 0 0 0 0
0 0 0 0 0 0 0 0 0
0 0 0 0 0 0 0 0 0
0 0 0 0 0 0 0 0 0
0 0 0 0 0 0 0 0 0
0 0 0 0 0 0 0 0 0
0 0 0 0 0 0 0 0 0
0 0 0 0 0 0 0 0 0
0 0 0 0 0 0 0 0 0
0 0 0 0 0 0 0 0 0
0 0 0 0 0 0 0 0 0
0 0 0 0 0 0 0 0 0
0 0 0 0 0 0 0 0 0
0 0 0 0 0 0 0 0 0
0 0 0 0 0 0 0 0 0
0 0 0 0 0 0 0 0 0
0 0 0 0 0 0 0 0 0
0 0 0 0 0 0 0 0 0
0 0 0 0 0 0 0 0 0
0 0 0 0 0 0 0 0 0
0 0 0 0 0 0 0 0 0
0 0 0 0 0 0 0 0 0
0 0 0 0 0 0 0 0 0
0 0 0 0 0 0 0 0 0
0 0 0 0 0 0 0 0 0
0 0 0 0 0 0 0 0 0
0 0 0 0 0 0 0 0 0
0 0 0 0 0 0 0 0 0
0 0 0 0 0 0 0 0 0
0 0 0 0 0 0 0 0 0
0 0 0 0 0 0 0 0 0
0 0 0 0 0 0 0 0 0
0 0 0 0 0 0 0 0 0
0 0 0 0 0 0 0 0 0
0 0 0 0 0 0 0 0 0
0 0 0 0 0 0 0 0 0
0 0 0 0 0 0 0 0 0
0 0 0 0 0 0 0 0 0
0 0 0 0 0 0 0 0 0
0 0 0 0 0 0 0 0 0
0 0 0 0 0 0 0 0 0
0 0 0 0 0 0 0 0 0
0 0 0 0 0 0 0 0 0
0 0 0 0 0 0 0 0 0
0 0 0 0 0 0 0 0 0
0 0 0 0 0 0 0 0 0
0 0 0 0 0 0 0 0 0
0 0 0 0 0 0 0 0 0
0 0 0 0 0 0 0 0 0
0 0 0 0 0 0 0 0 0
0 0 0 0 0 0 0 0 0
0 0 0 0 0 0 0 0 0
0 0 0 0 0 0 0 0 0
0 0 0 0 0 0 0 0 0
0 0 0 0 0 0 0 0 0
0 0 0 0 0 0 0 0 0
0 0 0 0 0 0 0 0 0
0 0 0 0 0 0 0 0 0
0 0 0 0 0 0 0 0 0
0 0 0 0 0 0 0 0 0
0 0 0 0 0 0 0 0 0
0 0 0 0 0 0 0 0 0
0 0 0 0 0 0 0 0 0
0 0 0 0 0 0 0 0 0
0 0 0 0 0 0 0 0 0
0 0 0 0 0 0 0 0 0
0 0 0 0 0 0 0 0 0
0 0 0 0 0 0 0 0 0
0 0 0 0 0 0 0 0 0
0 0 0 0 0 0 0 0 0
0 0 0 0 0 0 0 0 0
0 0 0 0 0 0 0 0 0
0 0 0 0 0 0 0 0 0
0 0 0 0 0 0 0 0 0
0 0 0 0 0 0 0 0 0
0 0 0 0 0 0 0 0 0
0 0 0 0 0 0 0 0 0
0 0 0 0 0 0 0 0 0
0 0 0 0 0 0 0 0 0
0 0 0 0 0 0 0 0 0
0 0 0 0 0 0 0 0 0
0 0 0 0 0 0 0 0 0
0 0 0 0 0 0 0 0 0
0 0 0 0 0 0 0 0 0
0 0 0 0 0 0 0 0 0
0 0 0 0 0 0 0 0 0
0 0 0 0 0 0 0 0 0
0 0 0 0 0 0 0 0 0
0 0 0 0 0 0 0 0 0
0 0 0 0 0 0 0 0 0
0 0 0 0 0 0 0 0 0
0 0 0 0 0 0 0 0 0
0 0 0 0 0 0 0 0 0
0 0 0 0 0 0 0 0 0
0 0 0 0 0 0 0 0 0
0 0 0 0 0 0 0 0 0
0 0 0 0 0 0 0 0 0
0 0 0 0 0 0 0 0 0
0 0 0 0 0 0 0 0 0
0 0 0 0 0 0 0 0 0
0 0 0 0 0 0 0 0 0
0 0 0 0 0 0 0 0 0
0 0 0 0 0 0 0 0 0
0 0 0 0 0 0 0 0 0
0 0 0 0 0 0 0 0 0
0 0 0 0 0 0 0 0 0
0 0 0 0 0 0 0 0 0
0 0 0 0 0 0 0 0 0
0 0 0 0 0 0 0 0 0
0 0 0 0 0 0 0 0 0
