applied_displacement applied_load D_zmin[0] D_zmin[1] D_zmin[2] D_zmin.two_norm() D_zmax[0] D_zmax[1] D_zmax[2] D_zmax.two_norm() Max_F_FT Max_F_FC Max_F_MT Max_F_MC furtado_tension_fibre furtado_compression_fibre furtado_tension_matrix furtado_compression_matrix max_von_mises max_damage_cohesive max_predamage_cohesive Strain_zmidTop Strain_zmidBot time_per_increment tot_iteration time_coarse_space time_post_processing coarse_space_size D_xmin[0] D_xmin[1] D_xmin[2] D_xmin.two_norm() D_xmax[0] D_xmax[1] D_xmax[2] D_xmax.two_norm() Max_Tau Max_F_33 Max_F_CZ Displacement_DIC[0] Displacement_DIC[1] Displacement_DIC[2] Displacement_DIC.two_norm() 
-0.1 18423 -0.00200852 -5.91937e-06 -0.00719702 0.00747203 -0.00197494 3.70909e-05 -0.159452 0.159464 0.000444918 0.00119217 0.000487898 0.000369864 0.0107811 0.0375151 0.0984867 0.0163962 81.0744 0 0 -0.000465584 -0.000272252 339.888 6 268.698 0.0596044 9600 0.0998735 0.000152713 0.0439667 0.109123 0.0997515 2.06213e-05 0.0439875 0.10902 0.590005 0.0145794 0.00780917 0.000440676 3.84755e-05 0.0884153 0.0884165 
-0.2 36811.2 -0.00735304 6.0852e-05 -0.0139741 0.0157907 -0.0077471 0.000109237 -0.319375 0.319469 0.00180403 0.00481217 0.00198582 0.00138509 0.0216047 0.0754209 0.140812 0.0329546 162.885 0 0 -0.000934462 -0.0005325 361.258 7 278.51 0.0531768 9600 0.208368 0.000369141 0.0879373 0.226165 0.208126 0.000112148 0.0879793 0.225958 0.88711 0.0294096 0.0114553 0.00287994 0.000101664 0.17706 0.177084 
-0.3 55103.7 -0.0208922 -8.03224e-05 -0.0197941 0.0287801 -0.0208605 0.000111085 -0.480188 0.480641 0.00410641 0.0108075 0.00454782 0.00338794 0.0324294 0.113086 0.174388 0.0494002 244.101 0 0 -0.00140927 -0.000779194 336.674 6 265.036 0.0498987 9600 0.330517 0.0004521 0.1319 0.355864 0.330156 5.63451e-05 0.131968 0.355554 1.22292 0.0445066 0.0156732 0.00959829 0.000114553 0.266128 0.266301 
-0.4 73345 -0.0398332 -0.000146922 -0.0249494 0.0470019 -0.0398042 0.000141712 -0.641696 0.642929 0.00739392 0.0192752 0.00823347 0.00628421 0.0432445 0.151113 0.203631 0.065995 325.987 0 0 -0.00188844 -0.00101095 391.222 10 274.709 0.0479175 9600 0.464581 0.00060392 0.175864 0.496754 0.464104 7.44763e-05 0.175958 0.49634 1.30683 0.0600425 0.0178379 0.0197124 0.000148701 0.355529 0.356075 
-0.5 91477.6 -0.06853 -0.000162823 -0.0289144 0.0743803 -0.0684959 0.000193502 -0.804401 0.807312 0.0116998 0.0301533 0.0130988 0.0101118 0.0539968 0.189106 0.230196 0.0825681 407.72 0 0 -0.00237465 -0.00122558 347.008 6 275.309 0.0492509 9600 0.615983 0.000770466 0.219825 0.654033 0.615392 0.000114537 0.219948 0.653517 1.93283 0.0759025 0.0244545 0.0354594 0.000193754 0.445503 0.446912 
-0.6 109526 -0.108779 -0.000250104 -0.0315357 0.113258 -0.109009 0.000203456 -0.968469 0.974585 0.0170724 0.0434225 0.0192181 0.0148597 0.0651745 0.227068 0.254972 0.0991176 489.267 0 0 -0.0028684 -0.00142065 383.957 9 275.664 0.047697 9600 0.787458 0.00096832 0.263785 0.830466 0.786755 0.000161031 0.263939 0.829848 2.50223 0.0921006 0.0314301 0.0580401 0.000211501 0.53612 0.539253 
-0.7 127448 -0.161143 -0.000280005 -0.0327003 0.164428 -0.160744 0.000299067 -1.13395 1.14529 0.0235385 0.059083 0.0266683 0.0193861 0.0767803 0.26502 0.27851 0.115657 570.705 0 0 -0.00336964 -0.00159379 371.871 8 276.638 0.0491458 9600 0.98038 0.0011255 0.30774 1.02755 0.97957 0.000211875 0.30793 1.02683 2.6892 0.108657 0.0337814 0.0871302 0.000290818 0.627421 0.633442 
-0.8 145200 -0.236202 -0.000320503 -0.0312175 0.238256 -0.236176 0.000338894 -1.3021 1.32335 0.0311384 0.0768296 0.0354975 0.0257975 0.0885409 0.302376 0.300929 0.131936 650.78 0 0 -0.00388406 -0.0017396 346.503 6 275.399 0.0478822 9600 1.20846 0.00129798 0.351688 1.25859 1.20755 0.000250126 0.351916 1.25778 3.19037 0.125411 0.0398268 0.129926 0.000321919 0.719965 0.731595 
-1.2 213523 -0.880664 -0.000597849 0.0140163 0.880776 -0.88033 0.000627681 -2.01399 2.19798 0.073542 0.162993 0.086063 0.0652746 0.143945 0.44114 0.382718 0.1926 947.678 0 0 -0.00609849 -0.00193146 434.456 13 276.16 0.0480965 9600 2.63816 0.0021928 0.527435 2.69037 2.6369 0.000604656 0.527876 2.68921 7.65624 0.197643 0.0972845 0.499673 0.000549141 1.10862 1.21602 
-1.3 229225 -1.20507 -0.000724129 0.043521 1.20586 -1.20506 0.000698282 -2.21019 2.51736 0.0870887 0.18437 0.102595 0.0752329 0.163751 0.469101 0.401859 0.215422 1010.99 0 0 -0.00670823 -0.00182716 795.295 10 672.583 0.0457358 9600 3.2259 0.00249368 0.571347 3.27611 3.22458 0.000712929 0.571861 3.2749 11.2938 0.219343 0.141217 0.687063 0.00060364 1.21429 1.39519 
-1.4 243899 -1.62718 -0.000804237 0.0835637 1.62933 -1.62718 0.000817374 -2.41689 2.9136 0.101574 0.230497 0.120382 0.0847688 0.185778 0.492577 0.43147 0.241337 1126.03 0 0 -0.00733455 -0.00163956 352.941 7 272.272 0.0481364 9600 3.94517 0.00277976 0.615243 3.99285 3.9438 0.000857025 0.615841 3.9916 11.2938 0.242938 0.141217 0.930977 0.000691236 1.32483 1.61923 
-1.5 257121 -2.16987 -0.000932868 0.136182 2.17414 -2.16985 0.000947675 -2.63617 3.41433 0.116782 0.28795 0.139133 0.102719 0.21009 0.509954 0.466509 0.27131 1252.57 0 0 -0.00796662 -0.00135829 356.841 7 275.168 0.0472121 9600 4.82056 0.00311571 0.659125 4.86542 4.81919 0.00102481 0.659816 4.86415 11.2938 0.268089 0.141217 1.24486 0.000787981 1.44116 1.90437 
-1.6 268501 -2.83448 -0.00108418 0.200885 2.84159 -2.83449 0.00109817 -2.86754 4.03202 0.132382 0.358315 0.158303 0.115504 0.23612 0.547796 0.502804 0.306952 1389.42 0 0 -0.00858015 -0.00098975 365.18 7 282.6 0.0479056 9600 5.84632 0.00347112 0.702989 5.88843 5.84495 0.0012102 0.703781 5.88717 11.2938 0.29444 0.141217 1.62956 0.000900347 1.563 2.25797 
-1.7 277854 -3.59764 -0.00124943 0.274445 3.60809 -3.59762 0.00125735 -3.10777 4.75407 0.148007 0.441534 0.177299 0.138636 0.262742 0.607796 0.538785 0.348902 1532.83 0 0 -0.00914482 -0.000557922 380.724 7 296.17 0.0471008 9600 6.98405 0.00383369 0.746838 7.02387 6.98272 0.00140177 0.747731 7.02264 11.2938 0.321228 0.141217 2.07146 0.00102117 1.68878 2.67262 
-1.8 285269 -4.42263 -0.00145911 0.352403 4.43665 -4.42205 0.00132938 -3.35239 5.54915 0.16346 0.535968 0.216357 0.147963 0.288774 0.668298 0.57339 0.401256 1678.02 0 0 -0.00963841 -9.52208e-05 432.317 13 277.398 0.0492786 9600 8.1804 0.00427183 0.790673 8.21853 8.17913 0.00166438 0.791664 8.21736 11.2938 0.347653 0.141217 2.54898 0.00109366 1.81639 3.12995 
-1.9 291027 -5.27408 -0.0015878 0.430767 5.29164 -5.27388 0.00159067 -3.59743 6.38399 0.184776 0.639231 0.258497 0.162125 0.313379 0.727927 0.605401 0.45597 1821.01 0 0 -0.0100525 0.000371367 392.551 9 283.666 0.047909 9600 9.38798 0.00449387 0.834503 9.425 9.38678 0.00179609 0.835584 9.4239 11.6111 0.373087 0.146191 3.04247 0.00128273 1.94396 3.61048 
-2 295459 -6.12495 -0.00174428 0.506724 6.14588 -6.12497 0.00175657 -3.84005 7.2292 0.2662 0.748921 0.301108 0.227381 0.336131 0.785284 0.634817 0.511576 1959.21 0 0.321432 -0.01039 0.000823793 384.8 8 286.197 0.0484807 9600 10.5732 0.00479284 0.878328 10.6096 10.5721 0.00197723 0.879488 10.6086 12.6419 0.397188 0.160671 3.53556 0.00141049 2.0702 4.09707 
-2.1 298905 -6.95849 -0.00190872 0.578699 6.98251 -6.95846 0.00191667 -4.07869 8.06572 0.319843 0.863087 0.34374 0.340435 0.356935 0.839915 0.6615 0.567056 2091.39 0 0.6801 -0.0106597 0.00125319 1040.83 8 944.761 0.0447073 9600 11.7171 0.00505255 0.922151 11.7534 11.7161 0.00215504 0.923382 11.7524 23.174 0.421233 0.279378 4.0185 0.00153923 2.1944 4.57862 
-2.2 301586 -7.76792 -0.00205576 0.646233 7.79475 -7.76769 0.00207913 -4.3129 8.88471 0.433422 0.980449 0.386302 0.474916 0.381009 0.891768 0.685602 0.621878 2217.82 0 0.828424 -0.0108725 0.00165757 385.68 9 279.991 0.0463007 9600 12.8142 0.0052656 0.965974 12.8505 12.8132 0.00233385 0.967267 12.8497 23.174 0.4458 0.279378 4.48739 0.00167227 2.31638 5.04998 
-2.3 303667 -8.55133 -0.00220546 0.709347 8.5807 -8.55134 0.00221017 -4.54268 9.68304 0.561728 1.10086 0.427922 0.629396 0.428547 0.94199 0.707354 0.675752 2338.63 0 0.893037 -0.0110383 0.00203775 361.077 7 279.216 0.0467858 9600 13.8642 0.00550008 1.0098 13.901 13.8634 0.00249592 1.01114 13.9002 23.174 0.468844 0.279378 4.94147 0.00177934 2.43615 5.50935 
-2.4 305392 -9.3006 -0.00255842 0.767562 9.33222 -9.2997 0.00187913 -4.76735 10.4505 0.701984 1.22271 0.468018 0.800738 0.473731 0.989895 0.726959 0.728394 2453.63 0 0.925865 -0.0111654 0.00239345 643.405 29 280.966 0.0489917 9600 14.8607 0.00623721 1.05357 14.898 14.8599 0.0030692 1.05497 14.8973 23.174 0.490447 0.279378 5.37508 0.00160101 2.55344 5.95075 
-2.5 306595 -10.0348 -0.00247714 0.822652 10.0685 -10.0348 0.00247846 -4.98932 11.2067 0.856032 1.34649 0.506992 0.991132 0.517508 1.03601 0.745894 0.780075 2563.87 0 0.944617 -0.0112612 0.00273249 372.236 8 279.337 0.0471192 9600 15.8263 0.00584741 1.09745 15.8643 15.8256 0.0028053 1.09889 15.8637 23.174 0.510841 0.279378 5.80105 0.0020048 2.66935 6.38574 
