applied_displacement applied_load D_zmin[0] D_zmin[1] D_zmin[2] D_zmin.two_norm() D_zmax[0] D_zmax[1] D_zmax[2] D_zmax.two_norm() Max_F_FT Max_F_FC Max_F_MT Max_F_MC furtado_tension_fibre furtado_compression_fibre furtado_tension_matrix furtado_compression_matrix max_von_mises max_damage_cohesive max_predamage_cohesive Strain_zmidTop Strain_zmidBot time_per_increment tot_iteration time_coarse_space time_post_processing coarse_space_size D_xmin[0] D_xmin[1] D_xmin[2] D_xmin.two_norm() D_xmax[0] D_xmax[1] D_xmax[2] D_xmax.two_norm() Max_Tau Max_F_33 Max_F_CZ Displacement_DIC[0] Displacement_DIC[1] Displacement_DIC[2] Displacement_DIC.two_norm() 
-0.05 11131.6 0.00201729 3.17128e-05 -0.00198787 0.00283233 0.0143887 0.000883427 -0.0802034 0.0814887 0.000181684 0.000694302 0.000205973 0.000152935 0.0064885 0.0287661 0.0762327 0.012675 61.8132 0 0 -0.000240253 -0.000145702 1528.99 45 920.034 2.40038 9600 0.0414273 0.000976299 0.0220241 0.046928 0.0413628 0.000825774 0.0220864 0.0468975 0.505633 0.0108851 0.00632025 0.00856744 0.00075974 0.0446375 0.0454586 
-0.0500977 11132.2 0.00202089 3.40632e-05 -0.00198919 0.00283585 0.0144013 0.000940334 -0.0803234 0.0816096 0.000181893 0.000694302 0.000207052 0.000155538 0.00649323 0.0287661 0.0763311 0.012675 61.8132 0 0 -0.000240593 -0.000145889 1700.84 5 1635.05 2.44247 9600 0.0414931 0.00101912 0.0220512 0.0469997 0.0414285 0.000868413 0.0221136 0.046969 0.505633 0.0108851 0.00632025 0.0085754 0.000793141 0.0447042 0.0455261 
-0.0501953 11150.2 0.00202359 3.3826e-05 -0.00199282 0.00284032 0.0141532 0.000965063 -0.0805105 0.0817508 0.000182352 0.00069483 0.000207883 0.000155538 0.00650728 0.0287661 0.0763917 0.0126763 61.8376 0 0 -0.000241151 -0.000146194 360.794 8 256.221 2.41742 9600 0.0416894 0.00103068 0.0220974 0.047195 0.0416247 0.000878535 0.0221588 0.0471636 0.505633 0.0108904 0.00632025 0.00843332 0.000808476 0.0448053 0.0455992 
-0.050293 11161.5 0.00202645 3.39564e-05 -0.00199572 0.00284439 0.0140778 0.000984624 -0.080666 0.0818911 0.000183063 0.000695384 0.000208768 0.000156491 0.00651776 0.0287737 0.0764681 0.0126811 61.8625 0 0 -0.000241604 -0.000146453 321.83 6 246.628 2.44111 9600 0.0418073 0.00104537 0.0221365 0.0473178 0.0417425 0.000892723 0.0221978 0.0472861 0.505633 0.0109024 0.00632025 0.00839089 0.000819915 0.0448907 0.0456756 
-0.0503906 11185.1 0.00202905 3.29946e-05 -0.00200007 0.00284928 0.013867 0.000983559 -0.0808533 0.0820398 0.000183703 0.000695616 0.000209479 0.000156491 0.00653226 0.0287761 0.0765188 0.0126836 61.8727 0 0 -0.000242152 -0.000146763 336.83 6 260.909 2.43016 9600 0.0419836 0.00104413 0.0221848 0.0474961 0.0419187 0.000890482 0.0222453 0.0474639 0.505633 0.0109176 0.00632025 0.00827073 0.000819553 0.0449924 0.0457536 
-0.0504395 11212.6 0.0020303 2.81497e-05 -0.00200377 0.00285272 0.0136855 0.000961611 -0.0809639 0.0821181 0.000184452 0.000695616 0.000209727 0.000158701 0.00654243 0.0287761 0.0765338 0.0126836 61.8727 0 0 -0.000242476 -0.000146948 490.357 6 414.018 2.4753 9600 0.0421025 0.00102672 0.0222142 0.0476146 0.0420375 0.000872304 0.0222741 0.047582 0.505633 0.0109189 0.00632025 0.00816751 0.000806477 0.0450519 0.0457933 
