applied_displacement applied_load D_zmin[0] D_zmin[1] D_zmin[2] D_zmin.two_norm() D_zmax[0] D_zmax[1] D_zmax[2] D_zmax.two_norm() Max_F_FT Max_F_FC Max_F_MT Max_F_MC furtado_tension_fibre furtado_compression_fibre furtado_tension_matrix furtado_compression_matrix max_von_mises max_damage_cohesive max_predamage_cohesive Strain_zmidTop Strain_zmidBot time_per_increment tot_iteration time_coarse_space time_post_processing coarse_space_size D_xmin[0] D_xmin[1] D_xmin[2] D_xmin.two_norm() D_xmax[0] D_xmax[1] D_xmax[2] D_xmax.two_norm() Max_Tau Max_F_33 Max_F_CZ Displacement_DIC[0] Displacement_DIC[1] Displacement_DIC[2] Displacement_DIC.two_norm() 
-0.1 16184.2 -0.0397105 -0.00202963 -0.00408316 0.0399715 -0.0317364 -0.00354788 -0.16171 0.164833 0.000772972 0.000963934 0.00078962 0.000728731 0.0087479 0.0433389 0.0935228 0.0163033 72.7329 0 0 -0.000484445 -0.000265461 786.402 43 253.894 0.0604156 9600 0.135347 0.00509455 0.0440122 0.142414 0.135219 0.00452999 0.0440944 0.142299 0.537388 0.0139434 0.0114848 0.0172546 0.00276033 0.0893241 0.0910172 
-0.15 24227.7 -0.0648293 -0.00379803 -0.00557772 0.0651795 -0.0589404 -0.00729637 -0.243157 0.250305 0.00174403 0.00218291 0.00174534 0.00161325 0.0130784 0.0653911 0.113963 0.0247017 109.453 0 0 -0.000727962 -0.000392292 1018.86 19 780.003 0.0478778 9600 0.212535 0.00978004 0.0660072 0.222764 0.212344 0.00874868 0.0660949 0.222565 0.634845 0.0223148 0.012491 0.032361 0.00542306 0.134192 0.138145 
-0.175 28291.9 -0.0734069 -0.00391027 -0.00673468 0.0738188 -0.0616771 -0.00633377 -0.283589 0.290288 0.00235384 0.00273996 0.00239054 0.00226822 0.015275 0.0738775 0.123006 0.0277555 122.631 0 0 -0.000848874 -0.000455433 1307.33 31 927.452 0.0464763 9600 0.245836 0.00983978 0.0770643 0.25782 0.245614 0.0087656 0.0771783 0.257604 0.634845 0.0262656 0.012491 0.0337687 0.0049591 0.156584 0.160261 
-0.2 32293.5 -0.0893014 -0.00399818 -0.00713631 0.0896752 -0.0701792 -0.00652746 -0.324365 0.331935 0.00307919 0.00424248 0.00313452 0.00291702 0.0173618 0.0921146 0.13342 0.0344438 152.572 0 0 -0.000973903 -0.000515962 629.726 32 245.959 0.0446302 9600 0.288516 0.010043 0.0880636 0.301823 0.288262 0.00895172 0.0881969 0.301586 0.634845 0.0307534 0.012491 0.0384881 0.00524194 0.179112 0.183275 
-0.225 36325 -0.0928115 -0.0048326 -0.00877649 0.0933507 -0.0705347 -0.00759584 -0.364102 0.370949 0.00391115 0.00481206 0.00396961 0.00366597 0.0196288 0.0980239 0.139332 0.0367026 162.511 0 0 -0.00109121 -0.00057774 481.425 18 256.576 0.0496113 9600 0.315714 0.0121592 0.0990119 0.331099 0.31543 0.0108362 0.0991859 0.330834 0.651201 0.0342541 0.012491 0.0383532 0.00608104 0.20113 0.204844 
-0.226562 36532.1 -0.111358 -0.00458219 -0.00704239 0.111674 -0.0934549 -0.00836534 -0.368541 0.380298 0.00397752 0.00566144 0.00403139 0.00379813 0.0196288 0.105882 0.141756 0.0397003 176.24 0 0 -0.00111022 -0.000578924 2699.46 27 2341.19 0.0445059 9600 0.340752 0.0116311 0.099774 0.355249 0.340465 0.0103824 0.0999205 0.354977 0.721826 0.0342541 0.0132096 0.0516362 0.00650209 0.203371 0.209925 
