applied_displacement applied_load D_zmin[0] D_zmin[1] D_zmin[2] D_zmin.two_norm() D_zmax[0] D_zmax[1] D_zmax[2] D_zmax.two_norm() Max_F_FT Max_F_FC Max_F_MT Max_F_MC furtado_tension_fibre furtado_compression_fibre furtado_tension_matrix furtado_compression_matrix max_von_mises max_damage_cohesive max_predamage_cohesive Strain_zmidTop Strain_zmidBot time_per_increment tot_iteration time_coarse_space time_post_processing coarse_space_size D_xmin[0] D_xmin[1] D_xmin[2] D_xmin.two_norm() D_xmax[0] D_xmax[1] D_xmax[2] D_xmax.two_norm() Max_Tau Max_F_33 Max_F_CZ Displacement_DIC[0] Displacement_DIC[1] Displacement_DIC[2] Displacement_DIC.two_norm() 
-0.1 18254 0.00183125 8.1685e-05 -0.00162239 0.00244792 -0.00903411 0.000519008 -0.166089 0.166335 0.000806595 0.00124378 0.000869156 0.000704528 0.00982111 0.0470839 0.103634 0.0216397 82.2952 0 0 -0.00050603 -0.000296152 654.815 32 250.956 0.0627942 9600 0.104443 0.000474386 0.0439484 0.113313 0.104307 0.000367935 0.0439255 0.113179 0.357961 0.0155773 0.004971 0.00432615 0.000362953 0.0919645 0.0920669 
-0.2 36485.4 0.00326923 6.58195e-05 -0.00322997 0.00459618 -0.00971912 0.000591312 -0.331447 0.33159 0.00324321 0.00488985 0.00352154 0.00290464 0.0197041 0.0933829 0.148196 0.0429158 163.173 0 0 -0.00101107 -0.000578938 799.985 42 252.071 0.0515503 9600 0.210022 0.000674741 0.0879116 0.22768 0.209753 0.000480173 0.0878997 0.227426 0.613862 0.0312955 0.00763127 0.00382954 0.000482709 0.183624 0.183664 
-0.25 45559.4 0.00366866 4.35649e-05 -0.0040145 0.00543849 -0.0139519 0.00101157 -0.414433 0.414669 0.0050921 0.00769288 0.00554958 0.00469469 0.0246501 0.117152 0.166735 0.0538352 204.665 0 0 -0.00126463 -0.000714764 1441.04 42 932.313 0.0469169 9600 0.266494 0.000997232 0.109887 0.288262 0.266159 0.000732838 0.109867 0.287944 0.933268 0.0394781 0.0116143 0.00582282 0.000770513 0.229586 0.229661 
-0.3 54620.3 0.00414931 3.24377e-05 -0.00479771 0.00634317 -0.015375 0.000966857 -0.497253 0.497492 0.00737857 0.011136 0.00804604 0.00686459 0.0296088 0.140968 0.183821 0.0647774 246.243 0 0 -0.00151824 -0.000846898 639.62 32 254.407 0.0456829 9600 0.323484 0.00107165 0.131868 0.349331 0.323083 0.000770412 0.13185 0.348953 0.935099 0.0477515 0.0116288 0.00618046 0.000781265 0.275485 0.275556 
-0.300195 54644.3 0.00338513 -4.96252e-06 -0.00475382 0.00583591 -0.0157995 0.000972402 -0.497614 0.497865 0.00738844 0.011141 0.00805747 0.0068785 0.029626 0.140992 0.183877 0.0647916 246.298 0 0 -0.0015194 -0.000847365 5794.31 41 5154.82 0.0457098 9600 0.324156 0.00106816 0.131953 0.349985 0.323755 0.00076526 0.131936 0.349607 1.09934 0.0477656 0.0136728 0.00642478 0.000784969 0.275681 0.275757 
-0.300391 54665.4 0.00332813 -4.38856e-06 -0.00475191 0.00580147 -0.0158133 0.00101849 -0.497916 0.498168 0.0073923 0.011154 0.00806985 0.00688559 0.0296415 0.141073 0.183933 0.0648291 246.441 0 0 -0.00152033 -0.000847818 367.74 9 258.844 0.0473846 9600 0.324399 0.00109792 0.132029 0.350239 0.323998 0.000793201 0.132013 0.349861 1.09934 0.0477938 0.0136728 0.00643133 0.000810042 0.275849 0.275925 
-0.300586 54711.6 0.00322576 -8.84478e-06 -0.00474832 0.00574039 -0.0159235 0.000996931 -0.498264 0.49852 0.00740842 0.0111684 0.00807849 0.00688559 0.0296628 0.141164 0.184007 0.0648712 246.6 0 0 -0.00152142 -0.00084835 418.443 12 271.469 0.0477176 9600 0.324724 0.00108507 0.132121 0.350575 0.324323 0.000780417 0.132104 0.350196 1.09934 0.047827 0.0136728 0.00649372 0.000799514 0.276041 0.276118 
-0.300781 54740.3 0.00315313 -1.01168e-05 -0.00474557 0.00569761 -0.0159669 0.000991948 -0.498585 0.498842 0.00741408 0.0111813 0.00809073 0.00694056 0.0296809 0.141245 0.184074 0.0649087 246.743 0 0 -0.00152241 -0.00084885 433.968 13 270.618 0.0478518 9600 0.324987 0.00108254 0.132206 0.35085 0.324585 0.000778225 0.132189 0.350471 1.09934 0.0478554 0.0136728 0.00651619 0.000795357 0.276218 0.276296 
-0.300977 54777.1 0.00308356 -1.09415e-05 -0.00474334 0.00565754 -0.0160308 0.00101156 -0.498915 0.499174 0.00742265 0.0111948 0.00810174 0.00694056 0.0297007 0.14133 0.184132 0.0649478 246.891 0 0 -0.00152344 -0.000849346 451.19 15 259.197 0.0477855 9600 0.325267 0.00109546 0.132291 0.351142 0.324865 0.000789444 0.132274 0.350762 1.09934 0.0478859 0.0136728 0.00655205 0.000807651 0.2764 0.276479 
-0.301172 54809.1 0.0030121 -1.08629e-05 -0.0047407 0.00561668 -0.0160893 0.00101849 -0.499241 0.499501 0.00743268 0.0112099 0.00811281 0.00694056 0.0297189 0.141425 0.184196 0.0649916 247.058 0 0 -0.00152444 -0.000849836 391.339 11 253.652 0.0489935 9600 0.325564 0.00110004 0.132375 0.351449 0.325162 0.000793539 0.132359 0.351069 1.09934 0.0479188 0.0136728 0.00658462 0.000811682 0.276581 0.27666 
-0.301367 54849.1 0.00291256 -1.30454e-05 -0.00473614 0.00556006 -0.0161684 0.000999009 -0.499583 0.499846 0.00744439 0.0112235 0.00812324 0.00694337 0.0297402 0.141511 0.184265 0.0650315 247.208 0 0 -0.00152551 -0.000850365 459.745 17 253.89 0.0470606 9600 0.325872 0.00108746 0.132466 0.351768 0.32547 0.000781215 0.13245 0.351389 1.09934 0.0479499 0.0136728 0.00662857 0.00080153 0.27677 0.27685 
-0.301562 54883.2 0.00284579 -1.49589e-05 -0.00473357 0.00552317 -0.0162209 0.00101899 -0.499903 0.500168 0.00745324 0.0112362 0.00813419 0.00694337 0.0297579 0.141591 0.184327 0.0650681 247.348 0 0 -0.0015265 -0.000850848 387.81 12 248.22 0.0471402 9600 0.326142 0.00110119 0.132548 0.352049 0.325739 0.000793807 0.132532 0.351669 1.09934 0.0479785 0.0136728 0.00665748 0.000812856 0.276946 0.277028 
-0.302344 55018.3 0.00274621 -1.31708e-05 -0.00473652 0.00547508 -0.0164471 0.00102419 -0.50122 0.501491 0.00749528 0.0112964 0.00817738 0.00698438 0.0298353 0.141971 0.184589 0.0652427 248.01 0 0 -0.00153055 -0.000852876 493.594 20 252.741 0.0485178 9600 0.327197 0.00110495 0.132894 0.353157 0.326794 0.000796185 0.132877 0.352776 1.09934 0.0481139 0.0136728 0.00678157 0.000817201 0.277674 0.277758 
-0.303125 55176.8 0.0026156 -1.74705e-05 -0.00473759 0.00541169 -0.0163429 0.000990818 -0.502514 0.502781 0.00753629 0.0113516 0.00821983 0.00700703 0.0299141 0.142316 0.184845 0.0654019 248.615 0 0 -0.00153455 -0.000854911 529.316 22 250.391 0.0487285 9600 0.328134 0.00108503 0.13324 0.354155 0.32773 0.000777729 0.133224 0.353774 1.09934 0.0482335 0.0136728 0.00671414 0.000798722 0.278393 0.278475 
-0.303906 55293.7 0.00253893 -1.54552e-05 -0.00474124 0.00537827 -0.0165448 0.00103294 -0.503806 0.504078 0.00757233 0.0114095 0.00826444 0.00705127 0.0299879 0.142678 0.185093 0.0655682 249.248 0 0 -0.00153851 -0.000856897 488.694 18 259.125 0.0475467 9600 0.329124 0.00111458 0.133576 0.355199 0.328718 0.000804732 0.13356 0.354816 1.09934 0.0483602 0.0136728 0.00682367 0.000822629 0.279107 0.279191 
-0.304687 55444.7 0.00244046 -1.59887e-05 -0.00474459 0.00533547 -0.0166077 0.00102776 -0.505098 0.505372 0.00761072 0.0114664 0.00830773 0.00710136 0.0300648 0.143032 0.185349 0.0657314 249.868 0 0 -0.00154248 -0.00085892 539.319 22 255.863 0.0466973 9600 0.330069 0.0011041 0.13392 0.356203 0.329662 0.00079528 0.133904 0.35582 1.09934 0.0484849 0.0136728 0.00685218 0.000818395 0.279823 0.279908 
-0.305469 55585.3 0.00235988 -1.56135e-05 -0.00474879 0.00530286 -0.0169491 0.00107249 -0.506429 0.506713 0.00764684 0.0115276 0.00835294 0.00711983 0.0301429 0.143416 0.185614 0.0659073 250.535 0 0 -0.00154657 -0.000860927 484.286 18 255.68 0.0475527 9600 0.331182 0.00114296 0.134264 0.357365 0.330775 0.000828002 0.134247 0.35698 1.09934 0.0486211 0.0136728 0.0070428 0.00084787 0.280557 0.280647 
-0.30625 55738.5 0.00226002 -1.56472e-05 -0.00475225 0.0052623 -0.0170537 0.00105285 -0.507737 0.508024 0.00768998 0.0115882 0.00839585 0.00717473 0.0302206 0.143792 0.185873 0.0660803 251.192 0 0 -0.00155061 -0.000862955 485.412 18 258.001 0.0477003 9600 0.332199 0.00113042 0.13461 0.358437 0.33179 0.000815977 0.134594 0.358051 1.09934 0.0487527 0.0136728 0.00709696 0.000836978 0.281281 0.281372 
-0.307031 55856.7 0.00219143 -1.51668e-05 -0.00475634 0.00523693 -0.0171004 0.00108227 -0.509005 0.509293 0.00772651 0.0116456 0.0084406 0.0072075 0.030293 0.144148 0.186118 0.0662436 251.813 0 0 -0.0015545 -0.00086492 502.085 20 251.078 0.0474682 9600 0.333121 0.00115412 0.134943 0.359417 0.332711 0.000838769 0.134927 0.35903 1.09934 0.0488759 0.0136728 0.00711605 0.000852315 0.281984 0.282075 
-0.307812 56016 0.00208241 -1.74653e-05 -0.00475872 0.00519443 -0.0172894 0.00105435 -0.510345 0.510639 0.00777145 0.0117073 0.00848388 0.00726267 0.0303752 0.14453 0.186386 0.0664196 252.48 0 0 -0.00155865 -0.000866985 529.249 22 251.55 0.0458476 9600 0.334215 0.00113553 0.135298 0.360564 0.333805 0.000819179 0.135281 0.360177 1.09934 0.0490114 0.0136728 0.00721925 0.000839461 0.282725 0.282818 
-0.309375 56306 0.0019235 -1.78413e-05 -0.00476656 0.00514006 -0.0174874 0.0010375 -0.512955 0.513254 0.00785387 0.0118249 0.00857137 0.00732289 0.0305304 0.145254 0.186895 0.0667525 253.745 0 0 -0.00156668 -0.000871027 1322.88 37 852.325 0.0443909 9600 0.33619 0.0011288 0.135987 0.362654 0.335777 0.000811794 0.135971 0.362264 1.09934 0.0492666 0.0136728 0.007319 0.000831283 0.284169 0.284265 
-0.310938 56565.5 0.00186216 -1.50332e-05 -0.00478207 0.00513186 -0.0179983 0.00111989 -0.515564 0.515879 0.00793285 0.0119487 0.00866231 0.00741036 0.0306812 0.146013 0.187399 0.0671011 255.07 0 0 -0.00157464 -0.000875011 489.43 18 261.694 0.0467106 9600 0.338209 0.00118219 0.136668 0.364781 0.337795 0.000858707 0.13665 0.364389 1.09934 0.0495331 0.0136728 0.00760079 0.000880066 0.285611 0.285713 
-0.3125 56862.4 0.00178373 -1.56958e-05 -0.00479768 0.00511857 -0.0179813 0.00107764 -0.518144 0.518457 0.00801298 0.0120693 0.00874999 0.00746575 0.0308367 0.146748 0.187902 0.0674388 256.354 0 0 -0.00158257 -0.000879058 522.075 22 250.474 0.0485138 9600 0.340015 0.00114595 0.137356 0.366713 0.339598 0.000826084 0.137339 0.366319 1.09934 0.049787 0.0136728 0.00757345 0.000854779 0.287041 0.287142 
-0.314063 57134.7 0.00170179 -1.39066e-05 -0.00481171 0.00510381 -0.0182128 0.00113601 -0.52076 0.52108 0.00809118 0.0121928 0.00884207 0.00755233 0.0309923 0.147501 0.188425 0.067784 257.662 0 0 -0.00159064 -0.000883064 507.7 21 245.869 0.0489816 9600 0.342039 0.00119869 0.138042 0.368847 0.34162 0.000871136 0.138025 0.368451 1.09934 0.0500554 0.0136728 0.00769697 0.000892446 0.288489 0.288593 
-0.315625 57407.1 0.00163191 -1.19916e-05 -0.00482693 0.00509534 -0.0181509 0.00110209 -0.523336 0.523652 0.00818178 0.012312 0.00893104 0.00762851 0.0311445 0.14822 0.18892 0.0681145 258.918 0 0 -0.00159854 -0.000887082 524.802 21 261.001 0.0485124 9600 0.343859 0.00118617 0.138727 0.37079 0.343438 0.000860375 0.138711 0.370393 1.09934 0.0503082 0.0136728 0.00764648 0.00087322 0.289918 0.29002 
-0.317188 57705 0.00156746 -1.17075e-05 -0.00484364 0.00509096 -0.0180484 0.00108254 -0.525917 0.526228 0.00825506 0.0124359 0.00902163 0.00768999 0.0313017 0.148965 0.18943 0.0684568 260.218 0 0 -0.00160651 -0.000891105 484.848 19 259.665 0.0476072 9600 0.34568 0.00117018 0.139415 0.372736 0.345257 0.00084551 0.139399 0.372338 1.09934 0.0505677 0.0136728 0.00757146 0.000861962 0.29135 0.29145 
