applied_displacement applied_load D_zmin[0] D_zmin[1] D_zmin[2] D_zmin.two_norm() D_zmax[0] D_zmax[1] D_zmax[2] D_zmax.two_norm() Max_F_FT Max_F_FC Max_F_MT Max_F_MC furtado_tension_fibre furtado_compression_fibre furtado_tension_matrix furtado_compression_matrix max_von_mises max_damage_cohesive max_predamage_cohesive Strain_zmidTop Strain_zmidBot time_per_increment tot_iteration time_coarse_space time_post_processing coarse_space_size D_xmin[0] D_xmin[1] D_xmin[2] D_xmin.two_norm() D_xmax[0] D_xmax[1] D_xmax[2] D_xmax.two_norm() Max_Tau Max_F_33 Max_F_CZ Displacement_DIC[0] Displacement_DIC[1] Displacement_DIC[2] Displacement_DIC.two_norm() 
-0.05 9170.73 0.00232593 0.000650434 -0.0072777 0.00766798 -0.000299238 0.000620187 -0.0762386 0.0762417 7.07749e-05 0.00032269 7.89345e-05 4.93326e-05 0.00567858 0.0183424 0.0678651 0.00758232 42.3016 0 0 -0.000209755 -0.000123774 1279.44 30 898.595 0.0545964 9600 0.0453025 0.00106817 0.0219599 0.0503557 0.0452481 0.000928104 0.0219576 0.050303 0.46709 0.00731018 0.00524302 0.00019556 0.000452315 0.0423032 0.042306 
-0.075 13771 -0.00964551 0.00127736 -0.00961427 0.0136785 -0.0079171 0.00222271 -0.115006 0.1153 0.000158145 0.000695447 0.000181064 0.00011177 0.00850774 0.0271574 0.0834529 0.0111093 62.0956 0 0 -0.000320006 -0.000184094 1391.4 39 897.498 0.0568115 9600 0.0786256 0.00299421 0.0329852 0.0853169 0.0785437 0.00263142 0.0330147 0.0852409 0.46709 0.011031 0.00524302 0.00429933 0.00160905 0.0637572 0.0639222 
-0.0875 16045.4 -0.00852373 0.00136929 -0.0114408 0.0143325 -0.00406347 0.00336808 -0.133582 0.133687 0.000214531 0.00106763 0.000249159 0.000148634 0.00998445 0.0336416 0.0904799 0.013748 76.9354 0 0 -0.000371144 -0.00021433 743.413 17 534.332 0.0442802 9600 0.0877807 0.00417858 0.0384803 0.0959356 0.0876855 0.00367739 0.03853 0.095848 0.46709 0.0135797 0.00524302 0.00237272 0.00244511 0.0741183 0.0741965 
-0.0890625 16348 -0.0127819 0.00137934 -0.0112685 0.0170956 -0.0112972 0.00231734 -0.136818 0.137303 0.000223106 0.00106763 0.000255586 0.000175359 0.0100791 0.0336416 0.0911385 0.013748 76.9354 0 0 -0.000381273 -0.000217911 2880.28 49 2209.27 0.0589796 9600 0.095655 0.0030995 0.0391672 0.10341 0.0955577 0.00272157 0.0391978 0.103321 0.46709 0.0135797 0.00524302 0.006173 0.00167211 0.0758255 0.0760947 
-0.090625 16677.7 -0.0169599 0.00108532 -0.011086 0.0202908 -0.0170716 0.00192098 -0.139817 0.140869 0.000234616 0.00106763 0.000265297 0.000175359 0.0102006 0.0336416 0.0922436 0.013748 76.9354 0 0 -0.000390677 -0.000221404 610.591 27 281.122 0.0472388 9600 0.102435 0.00247131 0.0398722 0.109949 0.102335 0.00216448 0.0398953 0.109858 0.46709 0.0135797 0.00524302 0.00944973 0.00135527 0.0774249 0.0780112 
-0.0921875 16923.2 -0.0239099 0.000644183 -0.0104453 0.0260999 -0.0265079 0.000430604 -0.143344 0.145775 0.000242996 0.00106763 0.000276933 0.000203311 0.010273 0.0336416 0.0931174 0.013748 76.9354 0 0 -0.000403562 -0.000224599 619.947 28 265.857 0.0469462 9600 0.114215 0.000646237 0.0405336 0.121196 0.114113 0.000551907 0.0405454 0.121103 0.46709 0.0135797 0.00524302 0.0147693 0.000269577 0.079267 0.0806317 
-0.09375 17183.1 -0.0254824 0.00041689 -0.010565 0.0275889 -0.0258121 0.000564768 -0.145655 0.147926 0.000249945 0.00106763 0.000283009 0.000215018 0.0104571 0.0336416 0.0933076 0.013748 76.9354 0 0 -0.000410082 -0.000228307 436.595 14 259.892 0.0488789 9600 0.115853 0.0007678 0.041202 0.122964 0.115749 0.000646178 0.0412203 0.122872 0.46709 0.0135797 0.00524302 0.0143882 0.000382878 0.0805581 0.0818339 
-0.0953125 17432.9 -0.0263022 0.000393029 -0.010692 0.0283951 -0.0255691 0.000860662 -0.147973 0.150168 0.000256582 0.00106763 0.000292971 0.000220606 0.0106349 0.0336416 0.0939906 0.013748 76.9354 0 0 -0.000416788 -0.000232013 382.829 10 261.434 0.0476511 9600 0.117549 0.000989815 0.0418665 0.124786 0.117444 0.000847795 0.0418905 0.124694 0.46709 0.013693 0.00524302 0.0142575 0.000584185 0.081849 0.0830836 
-0.096875 17658.4 -0.0267928 0.000383566 -0.0108321 0.0289022 -0.0245067 0.000927371 -0.150312 0.152299 0.000266304 0.00106763 0.000303411 0.000220606 0.0108365 0.0336416 0.0948461 0.013748 76.9354 0 0 -0.000423639 -0.000235826 342.028 7 260.482 0.0464196 9600 0.11905 0.00116494 0.0425537 0.126432 0.118943 0.000993361 0.042585 0.126341 0.46709 0.0139426 0.00524302 0.0136684 0.000664175 0.0831593 0.0842777 
-0.0984375 18014.6 -0.0276784 0.000423959 -0.0109812 0.0297802 -0.0269025 0.000783412 -0.152972 0.155322 0.000275655 0.00106763 0.000312122 0.000229113 0.0110016 0.0336416 0.0955052 0.013748 76.9354 0 0 -0.000431188 -0.000239527 438.648 13 277.128 0.0471089 9600 0.122357 0.00103105 0.0432744 0.129788 0.122248 0.00087244 0.0432995 0.129693 0.46709 0.0141658 0.00524302 0.0150238 0.000552187 0.0846096 0.0859348 
-0.1 18341.5 -0.0294524 0.000267782 -0.0110358 0.0314532 -0.0295648 0.000394118 -0.15564 0.158423 0.000284829 0.00106763 0.000322906 0.000229113 0.0111456 0.0336416 0.0964599 0.013748 76.9354 0 0 -0.000439043 -0.000243071 479.805 16 278.245 0.0471818 9600 0.126315 0.000566035 0.0439624 0.133747 0.126204 0.000456816 0.0439832 0.13365 0.46709 0.0143623 0.00524302 0.0165159 0.000268134 0.0860584 0.0876293 
-0.10625 19453.4 -0.0290591 0.000313259 -0.0119573 0.0314246 -0.0281624 0.000796546 -0.164933 0.167322 0.000319631 0.00113731 0.000363941 0.000267074 0.0118649 0.0347983 0.0992815 0.014216 79.4156 0 0 -0.000464528 -0.000258058 517.178 18 288.874 0.0476509 9600 0.130924 0.000914171 0.0466916 0.139003 0.130807 0.000769091 0.0467208 0.138902 0.46709 0.0152772 0.00524302 0.0156925 0.000549715 0.0912235 0.092565 
-0.1125 20651.8 -0.0285841 0.000321536 -0.0128901 0.0313578 -0.0283549 0.00103421 -0.174498 0.176789 0.00036016 0.00127621 0.000408632 0.000306168 0.012573 0.0368268 0.102256 0.0150647 84.1252 0 0 -0.000490643 -0.000272962 539.935 22 260.309 0.048003 9600 0.136866 0.00115298 0.0494642 0.145535 0.136743 0.000974956 0.0494916 0.145427 0.46709 0.0162 0.00524302 0.0157785 0.000716484 0.0965418 0.0978253 
-0.11875 21781.4 -0.0315355 0.000292201 -0.0134465 0.0342839 -0.0285808 0.000196634 -0.184384 0.186586 0.000403472 0.00142604 0.000455192 0.000335554 0.0132936 0.0386799 0.105146 0.0159409 88.9359 0 0 -0.000519534 -0.000287653 519.535 19 282.106 0.0489243 9600 0.146227 0.000687711 0.0521967 0.155265 0.146096 0.000539568 0.0522298 0.155152 0.46709 0.0171097 0.00524302 0.0158857 0.000214314 0.102017 0.103246 
-0.125 22914.7 -0.0337815 8.80221e-05 -0.0140871 0.0366012 -0.0348561 0.000449993 -0.194334 0.197436 0.000446896 0.00159684 0.000504251 0.000376782 0.013958 0.0407944 0.107843 0.016872 94.1103 0 0 -0.000547409 -0.00030234 681.637 35 261.64 0.0482005 9600 0.155798 0.000614899 0.0549439 0.165203 0.15566 0.000478622 0.054966 0.165081 0.46709 0.0180097 0.00524302 0.0194173 0.000305622 0.107475 0.109215 
-0.13125 24013.6 -0.0328361 0.000231745 -0.0150228 0.0361102 -0.0305198 0.000509952 -0.203532 0.205809 0.000489445 0.00175312 0.000557905 0.000402542 0.0146885 0.0432189 0.110704 0.0176578 98.5972 0 0 -0.000572882 -0.000317214 445.07 15 260.093 0.0472848 9600 0.159767 0.000849178 0.0576783 0.169862 0.159623 0.000682535 0.0577139 0.169737 0.46709 0.018926 0.00524302 0.0169326 0.000415012 0.112626 0.113893 
-0.1375 25163.3 -0.0316498 0.000218723 -0.0160222 0.0354749 -0.027391 0.000681034 -0.212844 0.214601 0.000537348 0.00202045 0.000614205 0.000460284 0.0154204 0.0464128 0.113482 0.0189666 105.845 0 0 -0.000598383 -0.000332072 487.445 18 268.875 0.0474873 9600 0.163976 0.00101929 0.0604301 0.174759 0.163825 0.000829176 0.0604745 0.174632 0.46709 0.0198475 0.00524302 0.0151206 0.000560788 0.117827 0.118794 
-0.14375 26358.4 -0.0342968 0.000391102 -0.0166559 0.0381293 -0.030953 0.00140846 -0.222606 0.224753 0.000590521 0.00223964 0.000672005 0.000460284 0.0161355 0.0488247 0.116067 0.0199719 111.436 0 0 -0.000625791 -0.000346579 546.568 23 261.089 0.0472156 9600 0.172749 0.00184901 0.0632025 0.183957 0.172592 0.00155905 0.063248 0.183822 0.46709 0.0208062 0.00527355 0.017182 0.0010566 0.123216 0.124412 
-0.15 27498.4 -0.0434155 0.000683094 -0.0166754 0.0465128 -0.0428072 0.00160928 -0.233159 0.237062 0.000645283 0.00225682 0.00073052 0.000470344 0.0167729 0.0489861 0.118462 0.0200233 111.869 0 0 -0.00065713 -0.000360683 699.194 34 264.088 0.0467375 9600 0.188815 0.00199502 0.0659565 0.200013 0.18865 0.00170222 0.0659952 0.199868 0.479365 0.0216963 0.0055432 0.0239475 0.0011191 0.128951 0.131161 
-0.175 32061.8 -0.0450517 0.000294799 -0.0199056 0.0492542 -0.0422625 0.000812306 -0.27159 0.274859 0.000876994 0.0031502 0.000998601 0.000702545 0.0195964 0.0579307 0.128354 0.023681 132.165 0 0 -0.000764832 -0.000418724 757.043 39 271.25 0.0470701 9600 0.216191 0.0011865 0.0769353 0.229476 0.216 0.000955425 0.0769833 0.22931 0.558461 0.0253364 0.00645763 0.023483 0.000636051 0.150274 0.152099 
-0.2 36610.4 -0.0430014 0.000313661 -0.0237127 0.0491072 -0.0349621 0.00226886 -0.308893 0.310874 0.00114263 0.00463665 0.00131594 0.000920802 0.022503 0.0702575 0.137812 0.0287282 160.334 0 0 -0.000866797 -0.000476687 693.422 35 275.69 0.047232 9600 0.235319 0.00273521 0.0879238 0.251223 0.235101 0.00230687 0.0880017 0.251042 0.641395 0.0290898 0.0074153 0.0192558 0.00172992 0.171068 0.172157 
