applied_displacement applied_load D_zmin[0] D_zmin[1] D_zmin[2] D_zmin.two_norm() D_zmax[0] D_zmax[1] D_zmax[2] D_zmax.two_norm() Max_F_FT Max_F_FC Max_F_MT Max_F_MC furtado_tension_fibre furtado_compression_fibre furtado_tension_matrix furtado_compression_matrix max_von_mises max_damage_cohesive max_predamage_cohesive Strain_zmidTop Strain_zmidBot time_per_increment tot_iteration time_coarse_space time_post_processing coarse_space_size D_xmin[0] D_xmin[1] D_xmin[2] D_xmin.two_norm() D_xmax[0] D_xmax[1] D_xmax[2] D_xmax.two_norm() Max_Tau Max_F_33 Max_F_CZ Displacement_DIC[0] Displacement_DIC[1] Displacement_DIC[2] Displacement_DIC.two_norm() 
-0.1 17273.6 -0.13484 -5.19884e-05 0.00631932 0.134988 -0.135024 3.03497e-05 -0.172986 0.219444 0.000526789 0.000925424 0.000550639 0.000513698 0.0100971 0.0342499 0.0826114 0.0103774 72.4906 0 0 -0.0005454 -0.000257944 350.588 8 259.758 0.0591877 9600 0.245557 0.000184639 0.0439717 0.249463 0.245425 3.59173e-05 0.0440015 0.249338 0.807632 0.0142375 0.00888479 0.0775202 3.47511e-05 0.0945202 0.122243 
-0.2 34376.4 -0.285835 -9.444e-05 0.0141489 0.286185 -0.28586 7.92972e-05 -0.347472 0.449948 0.00212199 0.0037923 0.00221588 0.00206458 0.0208041 0.0693829 0.117478 0.020911 146.675 0 0 -0.00109915 -0.000494357 344.74 7 260.617 0.0502384 9600 0.516206 0.000349804 0.0879413 0.523644 0.515944 6.04605e-05 0.0880048 0.523396 1.12967 0.0287257 0.0123221 0.164209 8.52687e-05 0.189721 0.250916 
-0.3 51231.3 -0.456419 -0.000148735 0.0237944 0.457039 -0.456418 0.000132922 -0.523782 0.694741 0.00479015 0.00876348 0.00502386 0.00465781 0.0322053 0.105515 0.144837 0.0316405 222.838 0 0 -0.00166209 -0.000705921 354.485 8 260.285 0.0479949 9600 0.816643 0.000534059 0.131908 0.827228 0.816255 0.000100475 0.132009 0.826861 1.51917 0.0436225 0.0164882 0.262331 0.000135212 0.285744 0.387901 
-0.4 67805.9 -0.649306 -0.000207619 0.0354852 0.650275 -0.649292 0.000192133 -0.702141 0.956337 0.00854717 0.0160377 0.00897789 0.00827427 0.044367 0.142715 0.168111 0.0426259 301.243 0 0 -0.00223436 -0.000889134 354.159 8 259.566 0.0473217 9600 1.15068 0.000727523 0.175872 1.16404 1.15017 0.000149371 0.176013 1.16356 1.88458 0.0591306 0.0203526 0.373392 0.000188766 0.382687 0.534669 
-0.5 84023.5 -0.868042 -0.000268368 0.0495192 0.869454 -0.868041 0.000251496 -0.88284 1.2381 0.0133884 0.0258585 0.0140987 0.0130895 0.0573653 0.181049 0.188886 0.0539325 382.189 0 0 -0.00281586 -0.00103995 354.135 8 256.592 0.0472306 9600 1.52309 0.000928938 0.219829 1.53887 1.52247 0.00020689 0.220015 1.53828 2.42116 0.0751915 0.0261129 0.499462 0.000243762 0.480679 0.693192 
-0.6 99831.3 -1.11594 -0.000336395 0.0661529 1.1179 -1.11593 0.000322188 -1.06614 1.54336 0.0193003 0.0385141 0.0203657 0.0187759 0.0712635 0.220542 0.207702 0.0656405 465.954 0 0 -0.00340574 -0.00115417 352.127 8 257.14 0.0495836 9600 1.93828 0.00114088 0.263782 1.95615 1.93755 0.000273918 0.264017 1.95545 2.71954 0.0918399 0.0292788 0.642437 0.000304471 0.579836 0.86541 
-0.7 115119 -1.39702 -0.000408081 0.0856946 1.39965 -1.39702 0.000389038 -1.25235 1.87617 0.0262517 0.0543484 0.0277742 0.0253257 0.0861166 0.261186 0.228006 0.077852 552.837 0 0 -0.00400247 -0.00122738 360.929 8 263.724 0.0479548 9600 2.40131 0.00136867 0.307724 2.42094 2.40047 0.000355961 0.308014 2.42015 3.47404 0.109102 0.0373163 0.804674 0.000364995 0.68028 1.0537 
-0.8 129817 -1.71451 -0.000482093 0.108353 1.71793 -1.71456 0.000498847 -1.44168 2.24013 0.034201 0.0737456 0.0362523 0.0327048 0.101947 0.302895 0.250776 0.0906835 643.053 0 0 -0.0046033 -0.00125571 391.134 11 259.61 0.0488949 9600 2.91601 0.00158361 0.351665 2.93714 2.91509 0.000448796 0.352014 2.93627 4.06098 0.126994 0.0435566 0.988072 0.000449736 0.78211 1.26015 
-1 156967 -2.46837 -0.000670709 0.163443 2.47377 -2.46813 0.000636254 -1.8301 3.07261 0.0527589 0.124876 0.0562058 0.0494961 0.136394 0.388664 0.296302 0.11917 833.79 0 0 -0.00579876 -0.00116696 673.317 13 517.869 0.0464872 9600 4.10951 0.00213697 0.439512 4.13295 4.10845 0.000677151 0.439995 4.13195 8.79444 0.164545 0.0938283 1.42363 0.000569609 0.99004 1.73404 
-1.2 180448 -3.38642 -0.000845487 0.231081 3.3943 -3.38635 0.000851976 -2.23107 4.05525 0.074184 0.195024 0.079377 0.0680935 0.173778 0.475166 0.34127 0.152065 1037.24 0 0 -0.00694376 -0.000883865 370.09 9 265.525 0.0479685 9600 5.51911 0.00263493 0.527312 5.54424 5.51797 0.00091053 0.527941 5.54317 8.79444 0.203931 0.0938283 1.95481 0.000752913 1.20335 2.2955 
-1.4 199854 -4.44229 -0.00105494 0.307625 4.45293 -4.4423 0.00104385 -2.64095 5.16804 0.115403 0.285774 0.104682 0.107835 0.212323 0.5589 0.384217 0.189552 1248.97 0 0 -0.00797822 -0.000440652 377.878 9 267.946 0.0470001 9600 7.09585 0.00319859 0.615077 7.12246 7.0947 0.00118438 0.615858 7.12138 9.153 0.244011 0.0973018 2.56597 0.00091706 1.42029 2.93282 
-1.6 215294 -5.59004 -0.00126026 0.388001 5.60349 -5.59002 0.00127883 -3.05466 6.37019 0.22448 0.39648 0.1499 0.207649 0.25181 0.636083 0.424219 0.235646 1462.85 0 0 -0.00885758 0.000103978 464.694 16 265.8 0.0479824 9600 8.76678 0.0037067 0.702814 8.79491 8.76567 0.0014698 0.70374 8.79387 9.92695 0.283446 0.105033 3.23049 0.00110905 1.63849 3.62225 
-1.8 227314 -6.78023 -0.00147604 0.467426 6.79632 -6.78023 0.0014847 -3.46743 7.61542 0.384861 0.524598 0.158342 0.356452 0.321553 0.704319 0.460076 0.285364 1673.21 0 0 -0.00956671 0.000690786 376.449 10 258.77 0.0466237 9600 10.4604 0.00420999 0.790527 10.4903 10.4594 0.00173551 0.791586 10.4893 11.8274 0.323712 0.124656 3.91975 0.00128388 1.85577 4.33686 
-2 236607 -7.97455 -0.00167407 0.542626 7.99299 -7.97452 0.00169718 -3.87597 8.86658 0.598006 0.666895 0.18584 0.557076 0.39192 0.778146 0.492102 0.337 1876.36 0 0 -0.0101156 0.00127875 369.814 10 256.233 0.0488933 9600 12.1266 0.00463943 0.878227 12.1584 12.1257 0.00199681 0.879401 12.1575 12.5986 0.363457 0.132827 4.61147 0.00146503 2.07069 5.05504 
-2.2 243807 -9.15006 -0.00186544 0.611972 9.17051 -9.15003 0.00188238 -4.27865 10.101 0.861764 0.820313 0.215079 0.808658 0.461108 0.871826 0.520409 0.389685 2070.5 0 0 -0.0105269 0.00184617 381.271 9 270.88 0.0470762 9600 13.7384 0.00502307 0.965913 13.7723 13.7376 0.00225364 0.967187 13.7716 12.9831 0.416975 0.140523 5.29236 0.00163197 2.28255 5.7636 
-2.3 246900 -9.72214 -0.00211065 0.643976 9.74344 -9.72329 0.00188019 -4.47737 10.7046 1.01067 0.900383 0.231353 0.951961 0.494769 0.947691 0.533216 0.416089 2164.01 0 0 -0.0106891 0.00211826 890.223 12 749.007 0.0410828 9600 14.5164 0.00546027 1.00975 14.5515 14.5157 0.00257571 1.01106 14.5509 13.439 0.44743 0.147411 5.6244 0.00164909 2.38717 6.11003 
-2.4 249427 -10.2941 -0.00205559 0.674846 10.3162 -10.2941 0.00202161 -4.67483 11.3059 1.17212 0.982328 0.247288 1.1082 0.528115 1.02405 0.545858 0.442444 2255.16 0 0 -0.0108259 0.00238414 358.64 8 267.066 0.0462767 9600 15.2838 0.00538076 1.05359 15.3201 15.2832 0.00252027 1.05495 15.3195 13.439 0.477696 0.147411 5.95507 0.00177431 2.49112 6.45512 
-2.5 251785 -10.8522 -0.00212386 0.703831 10.875 -10.8518 0.00216122 -4.87049 11.8947 1.34335 1.06608 0.262861 1.27476 0.560635 1.09967 0.559073 0.468709 2344 0 0 -0.0109407 0.00264155 554.532 24 266.478 0.0489019 9600 16.0304 0.00546545 1.09743 16.0679 16.0298 0.00262084 1.09883 16.0674 13.7812 0.507403 0.152802 6.27815 0.0018891 2.5942 6.79302 
-2.6 253850 -11.4016 -0.00222921 0.731281 11.425 -11.4016 0.00219611 -5.0646 12.4758 1.52484 1.15192 0.278026 1.45217 0.592516 1.17487 0.571504 0.494807 2431.24 0 0 -0.0110357 0.00289161 348.6 8 255.164 0.0480561 9600 16.7607 0.00566263 1.14127 16.7995 16.7601 0.00275434 1.1427 16.799 14.0799 0.536652 0.155856 6.59662 0.00193385 2.69649 7.12646 
-2.7 255709 -11.9413 -0.00230613 0.757182 11.9652 -11.9413 0.00229013 -5.25718 13.0473 1.71582 1.23916 0.292782 1.63972 0.623693 1.24944 0.583225 0.520729 2516.52 0 0 -0.0111134 0.00313454 362.018 9 258.915 0.0480097 9600 17.474 0.00577725 1.18511 17.5142 17.4735 0.00285977 1.18658 17.5138 14.4808 0.565402 0.160464 6.90924 0.00201672 2.79804 7.4543 
-2.8 257363 -12.4712 -0.002389 0.781587 12.4957 -12.4712 0.00235781 -5.44824 13.6093 1.80323 1.32765 0.307146 1.83695 0.65417 1.32331 0.594291 0.546443 2599.76 0 0 -0.0111757 0.00337069 345.35 8 253.68 0.0472459 9600 18.1709 0.00590306 1.22895 18.2124 18.1705 0.00297977 1.23044 18.2121 14.8307 0.593651 0.164614 7.21623 0.00208509 2.89884 7.77671 
-2.9 258772 -12.9947 -0.00237005 0.804714 13.0196 -12.9959 0.00258454 -5.63803 14.1662 2.00148 1.41727 0.321096 2.04474 0.684282 1.39679 0.604771 0.571999 2681.01 0 0 -0.0112243 0.00360101 488.342 18 256.241 0.0470268 9600 18.8548 0.00611177 1.27278 18.8977 18.8545 0.00328965 1.27429 18.8975 15.0374 0.621573 0.168152 7.52024 0.00228643 2.99897 8.09616 
-3 260182 -13.5031 -0.00252973 0.826169 13.5284 -13.5031 0.00254036 -5.82617 14.7064 2.00148 1.50787 0.334621 2.25911 0.713085 1.46891 0.614701 0.597213 2760.44 0 0 -0.0112613 0.00382481 349.895 8 257.8 0.0468493 9600 19.5181 0.00608743 1.31664 19.5625 19.5178 0.00318165 1.31818 19.5623 15.4525 0.648717 0.172132 7.81402 0.002246 3.09838 8.40588 
-3.4 264209 -15.4634 -0.00282136 0.900068 15.4896 -15.4634 0.00283162 -6.56674 16.8 2.68082 1.87859 0.39813 3.20506 0.823277 1.75122 0.649886 0.69593 3155.51 0 0 -0.0113161 0.00467267 423.166 13 260.697 0.0469656 9600 22.0445 0.00641052 1.492 22.0949 22.0444 0.00360051 1.49364 22.0949 17.1445 0.753543 0.194324 8.94964 0.00252455 3.49 9.60604 
