applied_displacement applied_load D_zmin[0] D_zmin[1] D_zmin[2] D_zmin.two_norm() D_zmax[0] D_zmax[1] D_zmax[2] D_zmax.two_norm() Max_F_FT Max_F_FC Max_F_MT Max_F_MC furtado_tension_fibre furtado_compression_fibre furtado_tension_matrix furtado_compression_matrix max_von_mises max_damage_cohesive max_predamage_cohesive Strain_zmidTop Strain_zmidBot time_per_increment tot_iteration time_coarse_space time_post_processing coarse_space_size D_xmin[0] D_xmin[1] D_xmin[2] D_xmin.two_norm() D_xmax[0] D_xmax[1] D_xmax[2] D_xmax.two_norm() Max_Tau Max_F_33 Max_F_CZ Displacement_DIC[0] Displacement_DIC[1] Displacement_DIC[2] Displacement_DIC.two_norm() 
-0.05 7027.12 0.00390774 0.00206015 -0.0100498 0.0109779 0.00682258 0.00261568 -0.0729265 0.0732916 0.000112152 0.000215467 0.000121231 8.92394e-05 0.0040007 0.0183508 0.057502 0.0055634 34.611 0 0 -0.000192607 -0.000113832 1478.9 50 872.402 0.0509496 9600 0.0378668 0.00381685 0.021956 0.0439378 0.0378145 0.0033946 0.0219767 0.0438683 0.306412 0.00678171 0.00438086 0.004189 0.00190452 0.0405623 0.0408225 
-0.1 14074.8 -0.0112668 0.00218589 -0.017971 0.0213231 -0.0111388 0.00354181 -0.148288 0.148748 0.00045634 0.000651511 0.000485706 0.000364398 0.00784044 0.031642 0.0817296 0.00962651 60.1965 0 0 -0.000398819 -0.000224544 718.419 37 264.108 0.0519366 9600 0.10001 0.00470524 0.0439888 0.109358 0.0999039 0.0041609 0.0440194 0.109251 0.306412 0.0118514 0.00438086 0.00630987 0.00250724 0.0822131 0.082493 
-0.125 17585.5 -0.00771564 0.00286596 -0.0230747 0.0244987 -0.00287331 0.005037 -0.184336 0.184428 0.000707783 0.00122315 0.000765332 0.000595159 0.00986226 0.0435619 0.0913086 0.013204 82.4676 0 0 -0.000494096 -0.000279582 1243.25 26 912.362 0.049084 9600 0.117165 0.00672494 0.0549529 0.129587 0.117034 0.0059498 0.055008 0.129453 0.365568 0.0157477 0.0051731 0.0022968 0.00364845 0.102318 0.102409 
-0.13125 18458.3 -0.0320494 0.000874711 -0.0217223 0.0387271 -0.0344437 0.00151476 -0.197019 0.200013 0.000807581 0.00122315 0.000831969 0.000706813 0.0102395 0.0435619 0.0922821 0.013204 82.4676 0 0 -0.000536564 -0.000291435 2103.95 48 1525.66 0.045843 9600 0.154089 0.00197106 0.0577066 0.164552 0.153948 0.00170356 0.0577267 0.164424 0.366387 0.0157477 0.0051731 0.0195022 0.00102066 0.108993 0.110729 
-0.1375 19329.4 -0.0345283 0.000784403 -0.0226595 0.041307 -0.034449 0.00149433 -0.206405 0.209265 0.000877162 0.00122315 0.00091599 0.000782841 0.0106994 0.0435619 0.0938845 0.013204 82.4676 0 0 -0.00056275 -0.000304896 463.844 16 274.593 0.0473031 9600 0.161937 0.00183495 0.0604497 0.172862 0.16179 0.00157849 0.0604797 0.172732 0.366387 0.0159115 0.0051731 0.0195052 0.00102176 0.1142 0.115858 
-0.14375 20179.6 -0.0388338 0.000142334 -0.0233058 0.0452907 -0.0410216 0.000497205 -0.216296 0.220152 0.000960776 0.00122315 0.00100027 0.000807498 0.0111883 0.0435619 0.0957938 0.013229 82.4676 0 0 -0.000591122 -0.000318078 499.366 20 263.697 0.0472839 9600 0.174002 0.000464115 0.0631895 0.185121 0.173847 0.000354496 0.0632124 0.184983 0.366387 0.0165908 0.0051731 0.0231883 0.000300416 0.119613 0.12184 
-0.15 21056.5 -0.0372742 0.00018638 -0.0247145 0.0447237 -0.0365008 0.00137913 -0.224973 0.227919 0.0010238 0.00122315 0.00109419 0.000807498 0.0116973 0.0435619 0.0979173 0.0138157 82.4676 0 0 -0.000613419 -0.000331654 439.978 14 270.352 0.0473308 9600 0.176093 0.00138805 0.0659101 0.188029 0.175933 0.00117075 0.0659474 0.18789 0.368483 0.0173396 0.0051731 0.0206283 0.000938456 0.124484 0.126185 
-0.15625 21943.1 -0.0399433 0.000929513 -0.025609 0.0474568 -0.0393961 0.00163846 -0.234576 0.237867 0.00112357 0.00124709 0.00118498 0.000993435 0.0121769 0.0462272 0.0999446 0.014408 83.3009 0 0 -0.000640218 -0.000344924 582.098 26 266.363 0.0467331 9600 0.185372 0.0022503 0.0686709 0.197695 0.185204 0.00193527 0.068709 0.197548 0.382154 0.0181122 0.00531412 0.0223215 0.00114928 0.129785 0.131696 
-0.1625 22814 -0.0393789 0.000961609 -0.0268469 0.0476695 -0.0359463 0.00170977 -0.243584 0.246228 0.00121102 0.00142733 0.0012846 0.00107609 0.0126862 0.0477354 0.102084 0.0149995 89.1138 0 0 -0.000664471 -0.000358465 441.2 15 255.711 0.0466649 9600 0.189671 0.00243942 0.0714099 0.202683 0.189497 0.00209165 0.0714599 0.202534 0.39744 0.0188576 0.0055345 0.02035 0.00125246 0.134821 0.136354 
-0.16875 23684.1 -0.0435475 0.00112602 -0.0276974 0.0516217 -0.0408069 0.00159938 -0.253367 0.256637 0.00131654 0.00152069 0.00138294 0.00118601 0.0131603 0.0502524 0.103976 0.015583 91.9795 0 0 -0.000691462 -0.000371701 488.015 19 256.591 0.0468866 9600 0.200244 0.00236481 0.0741744 0.213554 0.200064 0.0020259 0.0742171 0.213396 0.414169 0.01959 0.00576999 0.023127 0.00115585 0.140196 0.142096 
-0.175 24576 -0.0496428 0.000567346 -0.0282313 0.0571116 -0.0510945 0.000998808 -0.26349 0.2684 0.0014207 0.00156489 0.00148532 0.00123651 0.0136649 0.0517948 0.106189 0.0161402 93.3095 0 0 -0.000720613 -0.000384415 645.457 31 249.345 0.0474197 9600 0.214515 0.00131048 0.0769163 0.227892 0.214328 0.00108868 0.076947 0.227725 0.430538 0.0202676 0.00596629 0.0289332 0.000647897 0.145703 0.14855 
-0.2 28087.6 -0.0485932 0.0010738 -0.0330439 0.0587737 -0.0441945 0.00200216 -0.299906 0.303151 0.00184442 0.00211168 0.00195262 0.00158727 0.0156556 0.0589968 0.1136 0.0185083 108.394 0 0 -0.000818268 -0.000437743 437.678 15 250.287 0.0463906 9600 0.234922 0.00286706 0.0879231 0.250853 0.234709 0.00244678 0.087987 0.250671 0.492299 0.0232728 0.00684754 0.0250089 0.00147531 0.165997 0.167877 
-0.225 31597.6 -0.054609 0.00160452 -0.037043 0.0660068 -0.0564643 0.00304917 -0.337651 0.342353 0.00233898 0.00271147 0.0024769 0.00209136 0.0176245 0.0667687 0.120658 0.0208318 122.821 0 0 -0.000921133 -0.000489423 759.752 40 250.621 0.0470629 9600 0.267916 0.00369232 0.0989115 0.285616 0.267677 0.00320635 0.0989616 0.285403 0.560681 0.0262114 0.00785651 0.0319892 0.00209263 0.186829 0.189559 
-0.25 35051 -0.0781044 0.00126595 -0.0395059 0.0875364 -0.0766944 0.00195811 -0.376995 0.384722 0.00291102 0.00313474 0.00306156 0.00258485 0.019634 0.0733819 0.127616 0.023198 132.065 0 0 -0.00103417 -0.00053947 714.631 36 253.938 0.0463621 9600 0.316549 0.00278142 0.109902 0.335097 0.316283 0.00235125 0.109966 0.334863 0.626359 0.0291606 0.0086716 0.0435594 0.00135666 0.208447 0.212954 
-0.275 38567.4 -0.0799457 0.00104582 -0.0439613 0.0912414 -0.0816041 0.00118067 -0.41459 0.422546 0.00352212 0.00399971 0.00369928 0.00315492 0.0216084 0.0828643 0.134213 0.0255415 149.169 0 0 -0.00113604 -0.000590165 680.24 34 254.739 0.0468247 9600 0.346076 0.00213177 0.12086 0.366579 0.345784 0.00175333 0.120908 0.366317 0.689653 0.0321165 0.00955461 0.0462476 0.000817316 0.229248 0.233868 
-0.3 42030.1 -0.0911888 0.00143664 -0.0475263 0.102841 -0.0893344 0.00157346 -0.452435 0.461173 0.00421061 0.00466704 0.00441987 0.00378897 0.0235829 0.0896143 0.140221 0.0279105 161.135 0 0 -0.00124126 -0.000639724 877.475 49 255.079 0.0461414 9600 0.381764 0.00274583 0.13185 0.403901 0.381446 0.00229248 0.131918 0.40362 0.757817 0.0351083 0.0104834 0.0506941 0.00113308 0.250178 0.255265 
-0.325 45500.8 -0.112367 0.000734203 -0.0500057 0.122994 -0.107932 0.000605261 -0.491565 0.503275 0.00495959 0.00531002 0.00520152 0.00442345 0.0255866 0.0956635 0.146039 0.0302976 171.879 0 0 -0.00135369 -0.000687174 805.147 46 253.103 0.0471172 9600 0.430303 0.00159654 0.142843 0.453395 0.429958 0.00124261 0.142926 0.453093 0.830431 0.0380698 0.0114418 0.0613429 0.000488805 0.271697 0.278536 
-0.35 48951.4 -0.121212 0.000849311 -0.0535306 0.132509 -0.120817 0.00152858 -0.529719 0.543324 0.00575173 0.00628186 0.00605727 0.00512435 0.0276112 0.104224 0.151678 0.0326785 186.942 0 0 -0.00145984 -0.000735013 520 22 257.825 0.0475499 9600 0.468434 0.00238298 0.153837 0.493053 0.468063 0.00193234 0.153916 0.492724 0.899242 0.0411189 0.012389 0.0687317 0.00107326 0.292746 0.300709 
-0.375 52481.9 -0.134951 0.000561044 -0.0571506 0.146554 -0.133568 0.00212967 -0.567758 0.583262 0.00662744 0.00697318 0.00698067 0.0054228 0.0296606 0.109676 0.157478 0.0350548 198.437 0 0 -0.00156457 -0.00078222 482.26 19 257.041 0.0470813 9600 0.506306 0.00230201 0.164847 0.532471 0.50591 0.00186568 0.164934 0.53212 0.968191 0.044072 0.0133226 0.0759772 0.00139596 0.313736 0.322808 
-0.4 55933.5 -0.14236 0.000777389 -0.0609487 0.154861 -0.140826 0.00183523 -0.605556 0.621718 0.00755945 0.008025 0.00795412 0.00611824 0.0316702 0.11772 0.162823 0.0374666 211.834 0 0 -0.00166926 -0.000829049 1942.76 38 1464.8 0.0433561 9600 0.541249 0.00256644 0.175823 0.569097 0.540828 0.00206598 0.175923 0.568725 1.25285 0.0471251 0.0173177 0.0800956 0.00126976 0.334644 0.344098 
-0.425 59369.7 -0.149555 0.000203913 -0.0648983 0.163029 -0.149042 0.00103636 -0.64357 0.660604 0.00852554 0.0093072 0.00899493 0.00758804 0.0337014 0.126755 0.168352 0.0398611 227.545 0 0 -0.00177395 -0.000875157 874.953 50 254.139 0.0453904 9600 0.57679 0.00160906 0.186756 0.606274 0.576343 0.00121084 0.186846 0.605875 1.25285 0.0501534 0.0173177 0.084686 0.000698504 0.355646 0.36559 
-0.4375 61092.4 -0.160431 0.00107737 -0.0659863 0.173474 -0.160994 0.00120601 -0.663367 0.682624 0.00904838 0.00975354 0.00953917 0.00810476 0.0347635 0.129669 0.171187 0.0410738 232.939 0 0 -0.00183111 -0.000896694 1510.58 47 898.723 0.0403288 9600 0.603739 0.00194813 0.192261 0.633616 0.603279 0.0015384 0.19235 0.633203 1.25285 0.0516536 0.0173177 0.0915619 0.000784679 0.36651 0.377775 
-0.45 62813.8 -0.18519 -0.000368137 -0.0655237 0.196441 -0.187059 0.00055909 -0.684542 0.70964 0.00959695 0.0102056 0.0101298 0.00857353 0.035755 0.13108 0.173316 0.0422923 240.263 0 0 -0.00189695 -0.000915707 798.075 42 262.233 0.0451117 9600 0.646784 0.000672906 0.19779 0.676351 0.64631 0.000236828 0.197888 0.675926 1.25285 0.0531454 0.0173177 0.106543 0.000274616 0.377993 0.392722 
-0.4625 64534.8 -0.186046 -8.72925e-05 -0.0678159 0.198021 -0.186163 0.00098036 -0.702963 0.727196 0.0101299 0.0107728 0.0107102 0.00907936 0.0367662 0.135042 0.17579 0.0434998 246.832 0 0 -0.00194653 -0.000938596 599.211 27 256.417 0.0477276 9600 0.660137 0.00103781 0.203272 0.690725 0.659651 0.000636045 0.203378 0.690291 1.25285 0.0546822 0.0173177 0.106019 0.000588189 0.388231 0.402447 
-0.475 66285.1 -0.198349 0.000610392 -0.0687836 0.209938 -0.201543 0.00197841 -0.722903 0.750475 0.0107274 0.0114517 0.0113118 0.00952986 0.0377814 0.139784 0.178238 0.0447659 254.5 0 0 -0.00200444 -0.000959235 425.444 15 249.891 0.0453576 9600 0.68887 0.00244145 0.208796 0.719822 0.688371 0.00193196 0.208903 0.719374 1.2643 0.0562939 0.0173177 0.114918 0.00125616 0.399153 0.415369 
-0.4875 67967.3 -0.212881 3.93219e-05 -0.0697039 0.224002 -0.213237 0.00108286 -0.742747 0.772751 0.0113227 0.0121029 0.0119294 0.0101492 0.0388046 0.142031 0.180795 0.0459733 261.62 0 0 -0.00206189 -0.00097968 841.294 46 251.171 0.046045 9600 0.717372 0.00127792 0.214256 0.748686 0.71686 0.000869956 0.214369 0.748227 1.30367 0.0577716 0.0178151 0.121599 0.000635458 0.410039 0.42769 
-0.5 69708.7 -0.21147 9.94233e-05 -0.0721312 0.223434 -0.205235 0.00108697 -0.760753 0.787952 0.0118664 0.0126965 0.0125777 0.0106241 0.0398696 0.145446 0.183357 0.0472094 267.942 0 0 -0.00211053 -0.00100235 424.533 14 251.691 0.0466637 9600 0.727378 0.00164541 0.219751 0.75985 0.726854 0.00121382 0.219893 0.759389 1.33801 0.0593307 0.0182982 0.117036 0.000790885 0.42012 0.436118 
-0.5125 71457.6 -0.218817 0.000706086 -0.0736169 0.23087 -0.21975 0.00190071 -0.780518 0.810866 0.0125226 0.0134058 0.0132203 0.0112176 0.0408732 0.150589 0.185695 0.0484436 275.322 0 0 -0.00216605 -0.00102288 656.827 32 256.066 0.0462705 9600 0.752814 0.00260058 0.225266 0.785799 0.752277 0.00204988 0.225387 0.785318 1.37638 0.0609171 0.0188238 0.125355 0.00124846 0.430947 0.44881 
-0.525 73174.4 -0.224231 0.000584866 -0.0755476 0.236617 -0.224007 0.00196839 -0.799372 0.830167 0.0131746 0.0140713 0.0138971 0.0117386 0.0419441 0.153525 0.188364 0.0496506 282.047 0 0 -0.00221743 -0.00104435 540.006 23 253.211 0.047294 9600 0.770763 0.00224974 0.230753 0.804567 0.770215 0.00175603 0.230876 0.804076 1.4116 0.0624065 0.019297 0.127745 0.00126035 0.441369 0.459485 
-0.55 76616.5 -0.226986 0.00218809 -0.07987 0.240638 -0.220174 0.00385857 -0.83613 0.864642 0.0144588 0.0154768 0.0153106 0.0117781 0.0440322 0.161694 0.193088 0.0521644 295.785 0 0 -0.0023176 -0.00108727 1490.3 48 888.715 0.0450579 9600 0.799281 0.00572517 0.2417 0.835046 0.798708 0.00480911 0.241862 0.834539 1.57895 0.0656146 0.0216679 0.125699 0.00276043 0.461835 0.478643 
-0.575 80049.9 -0.267375 -0.000623501 -0.0803077 0.279175 -0.262483 9.7121e-05 -0.878 0.916395 0.0158387 0.0170839 0.0167554 0.0141515 0.0460631 0.167922 0.197682 0.0546145 310.709 0 0 -0.00244358 -0.00112234 778.335 42 252.233 0.045409 9600 0.876143 0.00085028 0.25273 0.911866 0.875545 0.000254156 0.252882 0.911333 1.57895 0.0685857 0.0216679 0.149788 6.54826e-05 0.484608 0.507229 
-0.5875 81771.9 -0.272306 -0.0006324 -0.0819458 0.284369 -0.267056 0.00014169 -0.897096 0.936002 0.0165419 0.0178541 0.0175195 0.0147721 0.0471072 0.17165 0.200004 0.0558477 317.624 0 0 -0.00249741 -0.0011419 1330.09 38 869.899 0.0453805 9600 0.897249 0.000861493 0.258204 0.933663 0.896639 0.000251767 0.258364 0.93312 1.65366 0.0701432 0.0225439 0.152403 0.000104012 0.495161 0.518084 
