applied_displacement applied_load D_zmin[0] D_zmin[1] D_zmin[2] D_zmin.two_norm() D_zmax[0] D_zmax[1] D_zmax[2] D_zmax.two_norm() Max_F_FT Max_F_FC Max_F_MT Max_F_MC furtado_tension_fibre furtado_compression_fibre furtado_tension_matrix furtado_compression_matrix max_von_mises max_damage_cohesive max_predamage_cohesive Strain_zmidTop Strain_zmidBot time_per_increment tot_iteration time_coarse_space time_post_processing coarse_space_size D_xmin[0] D_xmin[1] D_xmin[2] D_xmin.two_norm() D_xmax[0] D_xmax[1] D_xmax[2] D_xmax.two_norm() Max_Tau Max_F_33 Max_F_CZ Displacement_DIC[0] Displacement_DIC[1] Displacement_DIC[2] Displacement_DIC.two_norm() 
-0.000195313 5.72245 7.52542e-06 6.31966e-06 -4.77224e-06 1.09245e-05 0.000117104 8.00654e-05 -0.000253453 0.000290451 2.30104e-08 3.46852e-08 2.34893e-08 7.14999e-10 0.000100245 0.000230727 0.00876089 6.89131e-05 0.440874 0 0 -7.32371e-07 -4.2681e-07 1536.77 5 1471.57 2.39837 9600 0.000108409 6.41024e-05 6.20578e-05 0.000140402 0.000108218 6.34455e-05 6.2454e-05 0.000140132 0.435767 0.000185941 0.00697919 6.818e-05 4.7909e-05 0.000141629 0.000164324 
-0.000390625 16.185 1.77728e-05 1.08522e-05 -1.09198e-05 2.35135e-05 0.000187997 0.000129361 -0.000521178 0.00056895 3.24685e-08 4.71614e-08 3.53595e-08 2.47638e-09 0.000132372 0.000242574 0.0100999 7.74478e-05 0.511949 0 0 -1.52215e-06 -8.99837e-07 312.083 5 248.768 2.44045 9600 0.000234912 0.000103769 0.000131271 0.000288416 0.000234511 0.000103138 0.000131922 0.00028816 0.435767 0.000195037 0.00697919 0.000110857 7.667e-05 0.000291041 0.000320737 
-0.000585938 82.4847 3.19238e-05 1.22871e-05 -2.8073e-05 4.42515e-05 0.000221871 7.79217e-05 -0.000894603 0.000924994 2.36217e-07 4.02925e-07 4.51479e-07 4.31156e-09 0.00039043 0.000715483 0.0194828 0.000331097 1.46905 0 0 -2.65627e-06 -1.60244e-06 371.207 9 246.857 2.42285 9600 0.000443687 6.29076e-05 0.000242017 0.000509301 0.000442976 6.08137e-05 0.000242699 0.000508752 0.435767 0.000636045 0.00697919 0.00013 4.92369e-05 0.000498552 0.00051757 
-0.00078125 112.081 4.28294e-05 1.44896e-05 -3.66029e-05 5.81728e-05 0.000281032 0.000108113 -0.00118302 0.00122073 2.36217e-07 4.02925e-07 4.51479e-07 1.04648e-08 0.00039043 0.000715483 0.0194828 0.000331097 1.46905 0 0 -3.50087e-06 -2.10695e-06 323.688 6 248.529 2.44279 9600 0.000591037 8.92228e-05 0.000317417 0.000676786 0.000590102 8.68541e-05 0.000318259 0.000676057 0.435767 0.000636045 0.00697919 0.000165485 6.72244e-05 0.000659016 0.000682793 
-0.000976562 141.787 5.91809e-05 1.47077e-05 -4.92194e-05 7.83661e-05 0.000144483 8.45642e-05 -0.00153828 0.00154736 2.36217e-07 4.02925e-07 4.51479e-07 2.09774e-08 0.00039043 0.000715483 0.0194828 0.000331097 1.46905 0 0 -4.51872e-06 -2.73165e-06 331.071 5 266.542 2.43666 9600 0.000812394 8.6409e-05 0.000416136 0.000916853 0.000811186 8.17114e-05 0.000416645 0.000915583 0.435767 0.000636045 0.00697919 9.16794e-05 5.71363e-05 0.000854986 0.000861783 
-0.00117187 181.589 6.85003e-05 1.6576e-05 -5.7843e-05 9.11749e-05 0.000328623 0.000121615 -0.00179863 0.00183244 2.36217e-07 4.02925e-07 4.51479e-07 3.61231e-08 0.00039043 0.000715483 0.0194828 0.000331097 1.46905 0 0 -5.29441e-06 -3.20108e-06 334.173 6 257.955 2.4618 9600 0.000915018 0.000110598 0.000485357 0.00104166 0.000913602 0.00010663 0.000486504 0.00104054 0.435767 0.000636045 0.00697919 0.00019549 7.68949e-05 0.0010009 0.00102271 
-0.00136719 229.152 7.99579e-05 1.56952e-05 -7.17156e-05 0.000108548 0.000250174 0.000101774 -0.00214834 0.00216525 2.36217e-07 4.02925e-07 4.51479e-07 4.18824e-08 0.00039043 0.000715483 0.0194828 0.000331097 1.46905 0 0 -6.35569e-06 -3.81942e-06 332.126 6 255.149 2.40846 9600 0.00115372 8.65313e-05 0.000582104 0.00129515 0.00115203 8.26213e-05 0.000582966 0.00129377 0.435767 0.000636045 0.00697919 0.000152578 6.49587e-05 0.00119381 0.00120527 
-0.0015625 252.545 8.71939e-05 1.90749e-05 -7.90847e-05 0.000119252 0.00036337 0.000155846 -0.00239717 0.00242956 2.36217e-07 4.27082e-07 4.51479e-07 5.76805e-08 0.00039043 0.000728308 0.0194828 0.000331097 1.54062 0 0 -7.06417e-06 -4.2424e-06 323.932 5 263.187 2.42309 9600 0.00126911 0.000130136 0.000646419 0.00143019 0.00126722 0.000126688 0.000647671 0.00142877 0.435767 0.000636045 0.00697919 0.000219085 9.64257e-05 0.00133321 0.00135453 
-0.00234375 419 0.000123997 1.94908e-05 -0.000127367 0.000178823 -4.20395e-05 0.000188395 -0.00376053 0.00376548 5.7918e-07 8.16479e-07 8.26327e-07 1.91501e-07 0.000602379 0.000998376 0.0229078 0.000460854 2.13916 0 0 -1.11229e-05 -6.64694e-06 378.077 10 245.374 2.38888 9600 0.00219054 0.000117368 0.00101729 0.00241808 0.00218758 0.000110014 0.0010174 0.0024151 0.435767 0.000838162 0.00697919 1.53219e-05 0.000117848 0.00208482 0.0020882 
-0.003125 559.387 0.000171933 2.74539e-05 -0.000169207 0.000242787 -4.19072e-05 0.000172941 -0.0049976 0.00500077 5.7918e-07 1.45074e-06 8.26327e-07 3.44508e-07 0.000602379 0.0013365 0.0229078 0.000460854 2.83994 0 0 -1.47692e-05 -8.83062e-06 400.576 11 252.971 2.41856 9600 0.00292865 0.0001225 0.00135118 0.00322764 0.00292472 0.00011596 0.0013509 0.00322372 0.435767 0.000838162 0.00697919 8.30542e-06 0.000107807 0.00277076 0.00277286 
-0.00390625 717.452 0.000211687 2.75191e-05 -0.000214265 0.000302453 -9.29529e-05 0.000116722 -0.00625913 0.00626091 7.02704e-07 2.27224e-06 8.26327e-07 3.56874e-07 0.000602379 0.00168563 0.0229078 0.000540935 3.55355 0 0 -1.84548e-05 -1.10501e-05 409.867 11 262.038 2.3913 9600 0.00368407 0.000104612 0.00169524 0.00405674 0.00367916 9.84571e-05 0.00169479 0.00405194 0.435767 0.000838162 0.00697919 2.20392e-05 7.32969e-05 0.0034691 0.00346995 
-0.0046875 844.225 0.00025337 3.11484e-05 -0.000255718 0.000361329 -7.18985e-05 0.000161708 -0.0075096 0.00751168 1.04122e-06 3.28119e-06 1.18812e-06 7.97271e-07 0.000602379 0.00202299 0.0229078 0.000649192 4.27023 0 0 -2.21491e-05 -1.32481e-05 378.229 10 245.821 2.39005 9600 0.00442131 0.000136061 0.00203115 0.00486745 0.00441541 0.000128737 0.00203056 0.00486165 0.435767 0.000838162 0.00697919 3.9039e-06 0.000100903 0.00416298 0.00416421 
-0.00546875 1038.16 0.000290207 2.55717e-05 -0.000307412 0.000423528 1.01364e-05 0.000138117 -0.00878975 0.00879084 1.85519e-06 4.4765e-06 1.96334e-06 9.82017e-07 0.000923686 0.00236288 0.0271832 0.000758608 4.98779 0 0 -2.59334e-05 -1.5526e-05 411.982 12 251.432 2.4194 9600 0.00515128 0.000111613 0.00238763 0.00567881 0.00514437 0.000102935 0.00238757 0.00567236 0.435767 0.00121938 0.00697919 5.2488e-05 8.93346e-05 0.00487375 0.00487486 
-0.00625 1178.43 0.000328728 2.24994e-05 -0.000350297 0.000480912 0.000306683 6.04183e-05 -0.0100178 0.0100227 1.93452e-06 5.75674e-06 2.05772e-06 1.09212e-06 0.000923686 0.00264549 0.0271832 0.00085783 5.6564 0 0 -2.95542e-05 -1.77583e-05 399.624 11 253.596 2.37894 9600 0.00576491 9.04231e-05 0.0027298 0.0063792 0.00575702 8.17659e-05 0.0027304 0.00637221 0.435767 0.00121938 0.00697919 0.000225191 4.54666e-05 0.00555806 0.0055628 
-0.00703125 1318.37 0.000381217 2.66635e-05 -0.000394052 0.000548921 0.000736014 0.000239476 -0.011216 0.0112427 2.25262e-06 6.87693e-06 2.69263e-06 1.40388e-06 0.000923686 0.00291954 0.0271832 0.00093554 6.18161 0 0 -3.31134e-05 -1.9939e-05 407.924 11 262.329 2.41359 9600 0.00621282 0.000206143 0.0030638 0.00693026 0.00620397 0.00018866 0.00306736 0.0069234 0.435767 0.00122292 0.00697919 0.000474164 0.00016101 0.00622764 0.00624774 
-0.0078125 1470.8 0.000418648 2.80482e-05 -0.000439376 0.00060754 0.000814396 0.000212659 -0.0124804 0.0125087 2.81285e-06 9.10439e-06 3.27268e-06 1.83469e-06 0.000923686 0.00324838 0.0271832 0.00106914 7.11421 0 0 -3.68691e-05 -2.22027e-05 414.654 10 276.222 2.38574 9600 0.0069369 0.000191946 0.00341299 0.00773343 0.00692704 0.00017359 0.00341669 0.00772579 0.435767 0.00134556 0.00697919 0.000524587 0.00014753 0.00692973 0.00695112 
-0.0109375 2138.84 0.000551411 2.93543e-05 -0.000624579 0.000833675 0.000878846 0.000222068 -0.0175439 0.0175673 6.68501e-06 2.06491e-05 6.37984e-06 3.23063e-06 0.00142049 0.00488914 0.0322907 0.00161528 10.7116 0 0 -5.18054e-05 -3.11098e-05 525.37 19 258.83 2.37326 9600 0.00999306 0.000195554 0.00479702 0.0110865 0.00997923 0.000173197 0.00480051 0.0110752 0.435767 0.00186454 0.00697919 0.000583194 0.0001591 0.00973795 0.00975669 
-0.0140625 2764.75 0.000741725 2.92715e-05 -0.000808697 0.00109773 0.00136582 0.000285802 -0.0225448 0.022588 9.82757e-06 3.31511e-05 1.05379e-05 7.50111e-06 0.00166705 0.00618519 0.034833 0.00204019 13.5728 0 0 -6.65829e-05 -4.00528e-05 515.306 18 261.036 2.37216 9600 0.0126315 0.000257242 0.0061813 0.0140652 0.0126137 0.000222877 0.00618776 0.0140515 0.435767 0.002419 0.00697919 0.000884144 0.000211294 0.0125174 0.0125504 
-0.0171875 3340.4 0.000903263 5.31091e-05 -0.000981992 0.00133529 0.000800903 0.000451685 -0.0275637 0.027579 1.38338e-05 4.57144e-05 1.585e-05 1.12213e-05 0.00202096 0.00724494 0.0381792 0.00239719 15.9395 0 0 -8.13081e-05 -4.87948e-05 533.426 20 260.671 2.38224 9600 0.0157327 0.000379311 0.00753155 0.0174466 0.015711 0.000338979 0.00753585 0.0174281 0.435767 0.00287572 0.00697919 0.000595658 0.000310263 0.0152946 0.0153094 
-0.0203125 3977.49 0.00105509 5.38127e-05 -0.00116358 0.00157163 0.000730461 0.000427709 -0.0326377 0.0326487 2.11294e-05 6.51544e-05 2.19705e-05 1.67332e-05 0.00239424 0.00867644 0.0424099 0.00286059 19.028 0 0 -9.63106e-05 -5.77061e-05 500.927 17 262.006 2.37917 9600 0.018794 0.000361321 0.00891567 0.0208047 0.0187683 0.000317862 0.00891967 0.0207825 0.435767 0.00333468 0.00697919 0.000583246 0.000299169 0.0181073 0.0181192 
-0.0234375 4571.52 0.00118381 5.75847e-05 -0.00133901 0.0017882 0.000746338 0.000510953 -0.0376603 0.0376711 2.75652e-05 8.30392e-05 2.93323e-05 2.19028e-05 0.00276256 0.00981397 0.0451857 0.00322524 21.4822 0 0 -0.000111147 -6.65228e-05 474.993 15 260.262 2.39321 9600 0.021729 0.000429261 0.0102822 0.0240428 0.0216994 0.000379224 0.0102869 0.0240172 0.435767 0.00383623 0.00697919 0.000621091 0.000353505 0.0208925 0.0209048 
-0.0265625 5235 0.00132354 4.93612e-05 -0.00152427 0.00201931 0.000761703 0.000404179 -0.0427315 0.0427402 3.53714e-05 0.000109067 3.73845e-05 2.7194e-05 0.00313292 0.011224 0.048056 0.00370669 24.6182 0 0 -0.000126085 -7.54038e-05 540.587 20 268.798 2.38631 9600 0.0248063 0.000371149 0.0116699 0.0274167 0.0247727 0.000319882 0.0116739 0.0273874 0.435767 0.00434425 0.00697919 0.000648434 0.000292001 0.0237045 0.0237152 
-0.0296875 5862.05 0.00146582 4.15376e-05 -0.0017026 0.00224704 0.000594552 0.000425764 -0.0477943 0.0477999 4.3803e-05 0.000132479 4.67257e-05 3.47248e-05 0.00349821 0.0126307 0.0505412 0.00408442 27.1316 0 0 -0.000141015 -8.41877e-05 495.206 17 263.629 2.42088 9600 0.0279434 0.000383666 0.0130381 0.0308378 0.0279058 0.000331087 0.0130412 0.0308045 0.435767 0.00485869 0.00697919 0.000579301 0.00030303 0.0265091 0.0265172 
-0.0328125 6421.14 0.00159662 5.24286e-05 -0.001872 0.00246096 0.000627386 0.000474389 -0.0528393 0.0528452 5.17295e-05 0.000162259 5.71725e-05 4.1685e-05 0.0038688 0.0139683 0.0526988 0.00452021 30.0265 0 0 -0.000155948 -9.30268e-05 514.703 18 270.435 2.39723 9600 0.0309544 0.000428367 0.0144097 0.0341467 0.0309129 0.000370079 0.0144129 0.0341098 0.435767 0.00539671 0.00697919 0.000624374 0.00033657 0.0293067 0.0293153 
-0.0453125 8899.15 0.00241136 0.000116617 -0.00261409 0.00355833 0.00620429 0.000897339 -0.0724615 0.0727321 9.75579e-05 0.000352545 0.000110122 7.42967e-05 0.00536778 0.0201005 0.0623026 0.00667305 44.2627 0 0 -0.000213925 -0.000128159 529.992 20 268.102 2.43104 9600 0.040137 0.000892493 0.0199033 0.0448098 0.0400799 0.000778175 0.0199297 0.0447683 0.435767 0.00812633 0.00697919 0.00387465 0.000681768 0.0402525 0.0404443 
-0.0578125 11471.3 0.00316755 8.77355e-05 -0.00335344 0.00461374 0.00613133 0.000870609 -0.0926824 0.0928891 0.000160888 0.000581373 0.000178417 0.000127067 0.00685377 0.0259269 0.0703211 0.0085607 56.8366 0 0 -0.000273686 -0.000163183 566.905 24 250.417 2.43214 9600 0.0524157 0.000865772 0.0254232 0.0582623 0.0523428 0.000738508 0.0254488 0.0582062 0.435767 0.00999881 0.00697919 0.00393651 0.000678385 0.0514645 0.0516193 
-0.0703125 13946.6 0.00377971 8.33174e-05 -0.00407307 0.00555725 0.00659275 0.00122755 -0.112758 0.112957 0.000238438 0.000862043 0.000264854 0.000172602 0.00833398 0.0315483 0.0776381 0.0104291 69.2091 0 0 -0.000332892 -0.000197941 610.255 28 239.128 2.43202 9600 0.0642027 0.00115463 0.0309231 0.071271 0.0641141 0.000989598 0.030952 0.0712013 0.435767 0.0122185 0.00697919 0.00428745 0.000931226 0.0626046 0.0627582 
-0.0765625 15183 0.00401028 6.05243e-05 -0.00443163 0.00597707 0.00759941 0.00143624 -0.12271 0.122953 0.000282266 0.00103324 0.000314841 0.000204649 0.00907739 0.0345385 0.0811081 0.0114123 75.771 0 0 -0.000362292 -0.000215229 1341.68 23 1033.86 2.41605 9600 0.0697311 0.00132796 0.0336658 0.077444 0.0696348 0.0011408 0.0337 0.0773692 0.435767 0.0133516 0.00697919 0.00490523 0.00108327 0.068136 0.0683209 
-0.0828125 16459.9 0.00422964 4.83406e-05 -0.00479291 0.00639251 0.00765309 0.00135547 -0.132836 0.133063 0.000332145 0.00120162 0.000367625 0.000242705 0.00982492 0.0372714 0.0843591 0.0123088 81.7105 0 0 -0.000392232 -0.000232571 573.719 23 250.1 2.43382 9600 0.0759691 0.00129383 0.0364317 0.0842629 0.0758649 0.00109943 0.0364662 0.0841812 0.435767 0.0143562 0.00697919 0.00498798 0.00104239 0.0737513 0.0739272 
