applied_displacement applied_load D_zmin[0] D_zmin[1] D_zmin[2] D_zmin.two_norm() D_zmax[0] D_zmax[1] D_zmax[2] D_zmax.two_norm() Max_F_FT Max_F_FC Max_F_MT Max_F_MC furtado_tension_fibre furtado_compression_fibre furtado_tension_matrix furtado_compression_matrix max_von_mises max_damage_cohesive max_predamage_cohesive Strain_zmidTop Strain_zmidBot time_per_increment tot_iteration time_coarse_space time_post_processing coarse_space_size D_xmin[0] D_xmin[1] D_xmin[2] D_xmin.two_norm() D_xmax[0] D_xmax[1] D_xmax[2] D_xmax.two_norm() Max_Tau Max_F_33 Max_F_CZ Displacement_DIC[0] Displacement_DIC[1] Displacement_DIC[2] Displacement_DIC.two_norm() 
-0.025 4900.66 0.00150126 5.23601e-05 -0.00134108 0.0020137 0.00624168 0.000684708 -0.0398448 0.0403365 4.66647e-05 0.000129763 5.23176e-05 3.80604e-05 0.00278397 0.013866 0.0484301 0.00495369 26.7669 0 0 -0.000118618 -7.16518e-05 1911.52 32 1516.31 0.0564331 9600 0.0207839 0.00068723 0.0109988 0.0235248 0.0207516 0.000598191 0.0110253 0.0235062 0.39616 0.00484917 0.00571777 0.00371019 0.000536658 0.0221659 0.0224807 
-0.05 9829.16 0.00286209 6.26306e-05 -0.00268048 0.00392179 0.00882734 0.00109579 -0.0800232 0.080516 0.000186427 0.000466146 0.0002084 0.000163801 0.00555464 0.0262615 0.0684319 0.00939044 50.732 0 0 -0.000237986 -0.000142641 649.133 32 259.969 0.0545592 9600 0.0433234 0.00106969 0.0220079 0.0486046 0.0432587 0.000919089 0.022046 0.0485612 0.39616 0.00926033 0.00571777 0.00535849 0.000859067 0.0444751 0.044805 
-0.0625 12272.1 0.00345071 6.78829e-05 -0.00334148 0.00480391 0.00960132 0.00126948 -0.100142 0.100609 0.000291347 0.000701986 0.000325458 0.000243432 0.00693345 0.0322231 0.0765432 0.0115226 62.2569 0 0 -0.000297786 -0.000177803 1350.84 36 885.022 0.0491961 9600 0.0549779 0.00124177 0.0275007 0.061485 0.0548972 0.00106494 0.0275426 0.0614283 0.39616 0.0113788 0.00571777 0.00589099 0.000992041 0.0556401 0.0559598 
-0.0628906 12364.5 0.00275892 7.49405e-06 -0.00333598 0.00432902 0.00722544 0.0013014 -0.100969 0.101236 0.000296194 0.000701986 0.000329422 0.000243432 0.00696977 0.0322231 0.0766872 0.0115226 62.2569 0 0 -0.000300117 -0.000178878 3717.65 42 3075.95 0.0447166 9600 0.0564977 0.00122258 0.0276737 0.0629231 0.0564164 0.0010446 0.0277085 0.0628622 0.39616 0.0113788 0.00571777 0.00453963 0.00099425 0.0560728 0.0562651 
-0.0632813 12424.8 0.00275246 1.57021e-05 -0.00335221 0.00433746 0.00712785 0.00135294 -0.101597 0.101856 0.000299329 0.000701986 0.000333825 0.000244241 0.00700913 0.0322231 0.0769328 0.0115226 62.2569 0 0 -0.000301987 -0.000179935 424.549 14 248.37 0.0465749 9600 0.0569418 0.00125717 0.0278374 0.0633945 0.05686 0.00107837 0.0278716 0.0633328 0.39616 0.0113788 0.00571777 0.00448587 0.00102466 0.0564198 0.0566071 
-0.0636719 12505.8 0.00276578 2.66458e-05 -0.00337373 0.00436261 0.00708951 0.00132567 -0.102258 0.102512 0.000302118 0.000701986 0.000337393 0.000264087 0.0070557 0.0322231 0.0771536 0.0115226 62.2569 0 0 -0.000303968 -0.000181093 355.808 8 252.919 0.0491155 9600 0.0573425 0.00124811 0.0280181 0.0638336 0.0572602 0.00106866 0.0280523 0.0637715 0.39616 0.0113788 0.00571777 0.00446788 0.00100899 0.0567855 0.0569699 
-0.0640625 12557.9 0.00274638 2.72479e-05 -0.00338804 0.00436144 0.00694044 0.00133741 -0.102878 0.10312 0.00030661 0.000701986 0.000341879 0.000271938 0.0070936 0.0322231 0.0773999 0.0115226 62.2569 0 0 -0.000305813 -0.000182124 414.68 12 259.333 0.0480327 9600 0.0578012 0.00125627 0.028178 0.064316 0.0577184 0.00107763 0.0282116 0.0642532 0.39616 0.0113788 0.00571777 0.00438717 0.00101314 0.0571276 0.0573047 
-0.0644531 12677.5 0.00274655 2.35753e-05 -0.00341277 0.00438076 0.00678941 0.00129759 -0.103544 0.103775 0.000311457 0.000701986 0.000345828 0.000271938 0.0071403 0.0322231 0.0776227 0.0115226 62.2569 0 0 -0.000307784 -0.000183262 447.87 15 256.456 0.0486625 9600 0.058271 0.00122722 0.0283613 0.064818 0.0581876 0.00104807 0.0283947 0.0647546 0.39616 0.0114224 0.00571777 0.00430415 0.000989017 0.0574956 0.057665 
