applied_displacement applied_load D_zmin[0] D_zmin[1] D_zmin[2] D_zmin.two_norm() D_zmax[0] D_zmax[1] D_zmax[2] D_zmax.two_norm() Max_F_FT Max_F_FC Max_F_MT Max_F_MC furtado_tension_fibre furtado_compression_fibre furtado_tension_matrix furtado_compression_matrix max_von_mises max_damage_cohesive max_predamage_cohesive Strain_zmidTop Strain_zmidBot time_per_increment tot_iteration time_coarse_space time_post_processing coarse_space_size D_xmin[0] D_xmin[1] D_xmin[2] D_xmin.two_norm() D_xmax[0] D_xmax[1] D_xmax[2] D_xmax.two_norm() Max_Tau Max_F_33 Max_F_CZ Displacement_DIC[0] Displacement_DIC[1] Displacement_DIC[2] Displacement_DIC.two_norm() 
-0.1 18807.8 -0.0036039 -1.2903e-05 -0.00387041 0.00528851 -0.00357349 2.40163e-05 -0.162789 0.162828 0.000237055 0.00136063 0.000272054 0.000192827 0.0117492 0.0377088 0.0957873 0.0152605 86.8034 0 0 -0.000483312 -0.000283505 354.147 7 268.315 0.0629798 9600 0.104544 0.000157706 0.043972 0.113415 0.10442 9.36019e-06 0.0439937 0.113309 0.597099 0.0146168 0.00541785 0.00111614 4.04301e-05 0.0902378 0.0902447 
-0.2 37558.4 -0.0118651 -5.11107e-05 -0.00719249 0.013875 -0.0117678 4.49489e-05 -0.32613 0.326342 0.000962545 0.00546621 0.0011088 0.000709435 0.0235482 0.075561 0.137019 0.0305986 173.983 0 0 -0.000970328 -0.0005537 378.162 9 269.526 0.05401 9600 0.219249 0.000322257 0.0879442 0.23623 0.219003 2.05219e-05 0.0879897 0.236018 0.649285 0.0295199 0.00631576 0.00474456 7.75369e-05 0.180741 0.180804 
-0.3 56217.5 -0.026932 -6.46342e-05 -0.00970447 0.0286272 -0.0269149 7.48907e-05 -0.490288 0.491027 0.00219863 0.0123315 0.00255521 0.00170012 0.0353671 0.113465 0.170134 0.0459724 261.317 0 0 -0.0014624 -0.000808983 354.865 7 270.87 0.0489621 9600 0.347101 0.000477627 0.131912 0.371322 0.346734 3.60418e-05 0.131983 0.371004 1.12515 0.0447226 0.0106701 0.0124493 0.000122071 0.271633 0.271918 
-0.4 74799.2 -0.0496384 -9.99144e-05 -0.0113287 0.0509149 -0.0496126 0.000107331 -0.655337 0.657212 0.00397007 0.0219702 0.00464366 0.00323508 0.047174 0.151412 0.199032 0.0613839 348.798 0 0 -0.00195975 -0.00104751 372.565 9 268.293 0.0484201 9600 0.489556 0.000647857 0.17588 0.520192 0.489072 6.24029e-05 0.175978 0.519769 1.37773 0.0602407 0.0132921 0.0245051 0.000168105 0.362951 0.363777 
-0.5 93272.8 -0.081691 -0.000126071 -0.0118555 0.0825469 -0.0815003 0.000147745 -0.82146 0.825493 0.00630012 0.0343966 0.00743218 0.00527927 0.0589222 0.189405 0.225551 0.0768301 436.425 0 0 -0.00246319 -0.00126714 373.83 8 275.56 0.045095 9600 0.649205 0.000827241 0.219843 0.685418 0.648605 9.87909e-05 0.219973 0.684891 1.82216 0.0760921 0.0170531 0.041869 0.000217624 0.454778 0.456702 
-0.6 111616 -0.128046 -0.000153632 -0.010724 0.128494 -0.128027 0.000165946 -0.989268 0.997518 0.00922072 0.0494996 0.0109684 0.00756131 0.0705219 0.227154 0.250509 0.0921961 523.536 0 0 -0.00297549 -0.00146464 350.382 7 268.518 0.0474926 9600 0.832809 0.000999493 0.263802 0.873592 0.832097 0.000126921 0.263965 0.872962 2.17346 0.0922956 0.0208563 0.0676895 0.000251469 0.5474 0.551569 
-0.7 129826 -0.189796 -0.000220004 -0.00782929 0.189958 -0.189702 0.000139648 -1.15882 1.17424 0.0127547 0.067256 0.0152949 0.0105132 0.0819478 0.264697 0.27415 0.107504 610.245 0 0 -0.00349634 -0.00163698 400.678 10 280.616 0.0475899 9600 1.04231 0.00124212 0.307759 1.0868 1.04149 0.000197011 0.30796 1.08607 2.5756 0.108872 0.0247853 0.102271 0.000266382 0.640845 0.648954 
-0.8 147837 -0.276121 -0.00022879 -0.00212068 0.276129 -0.276115 0.000237565 -1.33121 1.35954 0.0169353 0.0873402 0.0204844 0.0128018 0.0945895 0.301552 0.297028 0.122552 695.403 0 0 -0.0040305 -0.00177851 367.685 7 282.859 0.0467408 9600 1.29 0.00139143 0.351709 1.33708 1.28907 0.000224775 0.351951 1.33625 3.12601 0.125849 0.0294339 0.151179 0.000342455 0.735627 0.751001 
-1 183095 -0.545993 -0.000330407 0.0202546 0.546369 -0.545814 0.000330012 -1.6869 1.77301 0.0273285 0.13342 0.033601 0.019944 0.120426 0.372397 0.340498 0.151603 859.425 0 0 -0.00514329 -0.00194518 613.897 14 433.287 0.0406418 9600 1.93256 0.00183555 0.439596 1.98193 1.93145 0.000367533 0.439938 1.98092 6.81809 0.161107 0.0626773 0.305112 0.000447363 0.930309 0.979065 
-1.2 216475 -1.04718 -0.000466771 0.0682146 1.0494 -1.04718 0.000427816 -2.06822 2.31821 0.040493 0.182004 0.0505506 0.0319777 0.156241 0.434315 0.380816 0.181983 1003.62 0 0 -0.006342 -0.00188517 452.599 14 278.046 0.0488144 9600 2.90446 0.00238384 0.527448 2.95196 2.9032 0.000586647 0.52792 2.95081 6.81809 0.20209 0.0626773 0.593345 0.000555949 1.13694 1.28245 
-1.3 231900 -1.43389 -0.000538735 0.106841 1.43787 -1.43384 0.000539621 -2.2735 2.68788 0.0480471 0.212108 0.0603425 0.0370494 0.178043 0.459342 0.399276 0.204196 1084.93 0 0 -0.0069749 -0.00173628 827.235 12 684.353 0.0426959 9600 3.57569 0.00266091 0.571353 3.62105 3.57439 0.00071374 0.571907 3.61985 7.50895 0.224794 0.0700586 0.81633 0.000651536 1.24703 1.49047 
-1.4 245957 -1.94392 -0.000636634 0.158276 1.95035 -1.94391 0.000640657 -2.4916 3.1602 0.0561099 0.266895 0.0707403 0.0430646 0.202331 0.493576 0.420077 0.229744 1212.25 0 0 -0.00762102 -0.00149004 369.869 8 275.642 0.0466616 9600 4.40779 0.00299415 0.615242 4.45052 4.40647 0.000872796 0.615888 4.4493 7.50895 0.24897 0.0700586 1.11091 0.000741618 1.36302 1.7584 
-1.45 252373 -2.24244 -0.000657196 0.188306 2.25034 -2.2415 0.000802096 -2.60491 3.43655 0.0602788 0.298822 0.0760734 0.0456844 0.215179 0.514752 0.436639 0.243912 1279.84 0 0 -0.00793996 -0.00133288 1438.3 42 915.508 0.0441989 9600 4.87864 0.00322115 0.637177 4.92007 4.87731 0.00105765 0.637876 4.91884 7.91217 0.261476 0.074796 1.28292 0.000860652 1.42296 1.91591 
-1.5 258217 -2.58324 -0.000795537 0.222487 2.5928 -2.58308 0.000659026 -2.72244 3.75286 0.0645076 0.334602 0.0834246 0.0527883 0.22863 0.536129 0.453684 0.259517 1350.93 0 0 -0.00825661 -0.00114842 456.144 16 267.158 0.0454222 9600 5.4013 0.00345758 0.659106 5.44137 5.39998 0.00112235 0.659853 5.44014 7.98268 0.274296 0.0754068 1.48042 0.000782336 1.48481 2.09674 
-1.55 263531 -2.95258 -0.000822517 0.259243 2.96394 -2.95257 0.00082612 -2.84257 4.09852 0.0687304 0.373772 0.0951591 0.0562825 0.242319 0.557002 0.470726 0.276642 1424.04 0 0 -0.00856251 -0.00094488 342.399 7 260.65 0.047499 9600 5.95717 0.00353446 0.681042 5.99598 5.95586 0.00114747 0.681841 5.99476 8.67986 0.287244 0.0808334 1.69415 0.000903082 1.54783 2.29476 
-1.6 268326 -3.34368 -0.000895025 0.297764 3.35691 -3.34367 0.000895506 -2.96443 4.46855 0.0729812 0.416076 0.107764 0.0577124 0.256032 0.577185 0.487506 0.294717 1498.35 0 0 -0.00885288 -0.000727616 355.363 7 270.232 0.0468688 9600 6.53657 0.00371861 0.702967 6.57426 6.53528 0.00124377 0.703817 6.57307 9.02509 0.300659 0.0846298 1.92043 0.000962893 1.61159 2.50705 
-1.65 272588 -3.75419 -0.000963778 0.33773 3.76936 -3.75419 0.000966583 -3.08773 4.86086 0.0772058 0.461476 0.121135 0.0650475 0.269658 0.596373 0.503914 0.313864 1573.56 0 0 -0.00912569 -0.000499712 361.235 7 280.902 0.046037 9600 7.13564 0.00389772 0.724888 7.17237 7.13438 0.00134364 0.725789 7.1712 9.67666 0.314162 0.0899981 2.158 0.00102357 1.67596 2.73236 
-1.7 276353 -4.17819 -0.00103701 0.378458 4.1953 -4.17818 0.00103896 -3.21179 5.26999 0.0814056 0.509614 0.135101 0.0702459 0.283038 0.614393 0.519786 0.337281 1648.93 0 0 -0.00937855 -0.000265785 346.832 7 266.685 0.0457688 9600 7.7463 0.0040745 0.746806 7.78221 7.74506 0.00144121 0.747757 7.78107 10.1894 0.32752 0.0946744 2.4034 0.00108544 1.74061 2.9675 
-1.75 279656 -4.61086 -0.00111187 0.419418 4.62989 -4.61087 0.00111414 -3.33608 5.69118 0.0876909 0.560134 0.14992 0.0730028 0.296065 0.631159 0.535137 0.361406 1723.87 0 0 -0.00961046 -2.95281e-05 339.434 7 261.671 0.0480485 9600 8.36216 0.00424407 0.768722 8.39742 8.36096 0.00153972 0.76972 8.39631 10.6528 0.340654 0.0989937 2.65386 0.00114945 1.80532 3.2097 
-1.8 282548 -5.04758 -0.00118784 0.460113 5.0685 -5.04758 0.00118559 -3.46011 6.11968 0.0953025 0.612664 0.165038 0.0741451 0.308649 0.646625 0.54987 0.385948 1797.88 0 0 -0.00982116 0.000205826 365.049 8 268.609 0.0460293 9600 8.97729 0.00440986 0.790636 9.01204 8.97612 0.00164097 0.79168 9.01097 11.1209 0.353492 0.103312 2.90668 0.00121151 1.86984 3.45617 
-1.85 285086 -5.48421 -0.00125923 0.500146 5.50697 -5.48417 0.00126249 -3.58348 6.55114 0.102912 0.666862 0.180306 0.0751592 0.320736 0.66081 0.563857 0.410694 1870.63 0 0 -0.0100113 0.000437849 582.312 7 501.528 0.0445383 9600 9.58673 0.00455925 0.81255 9.62111 9.5856 0.0017335 0.813637 9.62007 16.3605 0.365997 0.148849 3.15946 0.0012763 1.93399 3.70438 
-1.9 287296 -5.91894 -0.00133447 0.539334 5.94346 -5.91896 0.00133075 -3.706 6.98344 0.110472 0.722474 0.195615 0.0760726 0.33231 0.673747 0.57711 0.435523 1941.91 0 0 -0.0101819 0.000665179 343.366 7 262.514 0.0454807 9600 10.1884 0.00471168 0.834462 10.2225 10.1873 0.00183309 0.835589 10.2215 16.3605 0.37814 0.148849 3.41119 0.0013363 1.99769 3.9531 
-1.95 289238 -6.34939 -0.00140673 0.577472 6.3756 -6.34939 0.00140865 -3.82747 7.41379 0.117943 0.779245 0.210871 0.0902566 0.343365 0.691313 0.589724 0.460344 2011.6 0 0 -0.0103343 0.000886775 347.36 7 263.596 0.0462089 9600 10.7796 0.00484519 0.856375 10.8136 10.7786 0.00192221 0.857539 10.8126 16.3605 0.389918 0.148849 3.66042 0.00140135 2.06085 4.20069 
-2 290942 -6.77389 -0.00147826 0.614426 6.8017 -6.77388 0.00148048 -3.94776 7.84029 0.133129 0.836943 0.225989 0.114218 0.353901 0.716723 0.601714 0.485081 2079.59 0 0 -0.0104699 0.0011019 345.277 7 261.375 0.0457302 9600 11.3587 0.00497534 0.878287 11.3927 11.3577 0.00201295 0.879486 11.3917 16.3605 0.401926 0.148849 3.90622 0.00146301 2.12341 4.44606 
-2.025 292135 -6.95478 -0.00135312 0.629878 6.98324 -6.94699 0.00171017 -4.00455 8.01855 0.143647 0.864736 0.233145 0.125795 0.358757 0.728673 0.607212 0.496745 2111.45 0 0 -0.0105305 0.00119706 1279.29 34 854.312 0.0450702 9600 11.6111 0.00531797 0.889236 11.6451 11.6101 0.00244814 0.89048 11.6442 16.3605 0.4081 0.148849 4.00662 0.00170443 2.15325 4.54857 
-2.05 292635 -7.17847 -0.00163688 0.648991 7.20775 -7.17549 0.00108713 -4.06548 8.24717 0.156974 0.894765 0.240754 0.141069 0.36384 0.741389 0.61297 0.509322 2145.21 0 0 -0.0105898 0.00130606 594.48 27 256.296 0.0474638 9600 11.9104 0.00540513 0.900181 11.9443 11.9094 0.00233282 0.901428 11.9435 16.3605 0.414431 0.148849 4.13874 0.00125685 2.1848 4.68001 
-2.075 293140 -7.39677 -0.00180832 0.667454 7.42682 -7.39605 0.000840215 -4.12578 8.46898 0.170721 0.924815 0.248271 0.156858 0.368773 0.753862 0.618535 0.521907 2178.36 0 0 -0.010645 0.00141182 380.167 10 256.836 0.0464707 9600 12.2023 0.00587349 0.911149 12.2363 12.2014 0.00267837 0.912398 12.2355 16.3605 0.420634 0.148849 4.26642 0.00108062 2.21606 4.80763 
-2.0875 294244 -7.44743 -0.00124701 0.671538 7.47764 -7.43432 0.00203996 -4.15009 8.51424 0.174294 0.937262 0.251426 0.160595 0.37079 0.759002 0.620781 0.526828 2191.91 0 0 -0.0106699 0.00144531 1368.29 37 909.166 0.0449128 9600 12.2826 0.00588614 0.916592 12.3168 12.2817 0.00303741 0.917906 12.3159 16.3605 0.423423 0.148849 4.28881 0.00198929 2.22923 4.83357 
-2.1 293767 -7.60236 -0.00161762 0.684649 7.63312 -7.6022 0.00161865 -4.18464 8.67782 0.18421 0.95452 0.255738 0.172455 0.373504 0.766022 0.623863 0.533998 2210.48 0 0 -0.0106966 0.00151234 325.734 6 255.092 0.0482962 9600 12.4788 0.00520363 0.922109 12.5128 12.4779 0.00218154 0.923374 12.512 16.3605 0.426687 0.148849 4.38587 0.00158426 2.2467 4.92783 
-2.1125 294095 -7.70221 -0.00156235 0.692938 7.73332 -7.70173 0.00184098 -4.21374 8.77908 0.191014 0.969313 0.25954 0.180401 0.375892 0.771993 0.626462 0.540043 2226.33 0 0 -0.0107212 0.00156125 381.265 10 260.282 0.0470663 9600 12.6133 0.00534018 0.927586 12.6474 12.6124 0.002399 0.92886 12.6466 16.3605 0.429662 0.148849 4.44352 0.001729 2.26187 4.98608 
-2.125 294519 -7.79509 -0.00155882 0.700593 7.82651 -7.79245 0.0018016 -4.24214 8.87232 0.197501 0.983848 0.26324 0.187938 0.381564 0.777793 0.628974 0.545903 2241.72 0 0 -0.0107449 0.00160777 445.574 15 264.282 0.0492536 9600 12.7399 0.00540158 0.933059 12.774 12.739 0.00245691 0.934349 12.7732 16.3605 0.432587 0.148849 4.49607 0.00173638 2.27674 5.03966 
-2.1375 294759 -7.89878 -0.00142362 0.70914 7.93055 -7.89714 0.0023678 -4.27154 8.97836 0.204825 0.998934 0.267086 0.196638 0.388078 0.783799 0.631541 0.552064 2257.65 0 0 -0.0107681 0.00165742 377.667 10 258.496 0.0466466 9600 12.8781 0.00582748 0.93854 12.9123 12.8772 0.00294594 0.939836 12.9115 16.3605 0.43554 0.148849 4.55675 0.00209342 2.29202 5.10072 
-2.15 295129 -7.99333 -0.00140075 0.716874 8.02541 -7.99041 0.00238704 -4.30003 9.07397 0.211675 1.01363 0.270791 0.204701 0.393874 0.789573 0.634006 0.557958 2272.97 0 0 -0.0107904 0.00170397 383.017 10 264.16 0.0456822 9600 13.006 0.00594413 0.944011 13.0402 13.0051 0.00307115 0.945319 13.0394 16.3605 0.438427 0.148849 4.61079 0.00212606 2.30691 5.1557 
-2.1625 295241 -8.10271 -0.00174622 0.72583 8.13516 -8.10196 0.00156803 -4.32996 9.18642 0.219587 1.02902 0.274627 0.214152 0.400526 0.795557 0.636547 0.564054 2288.84 0 0 -0.0108122 0.00175493 437.91 14 267.449 0.046097 9600 13.15 0.00548327 0.949497 13.1842 13.1491 0.00239532 0.950801 13.1834 16.3605 0.441342 0.148849 4.67526 0.00157045 2.32241 5.22031 
-2.175 295885 -8.17807 -0.00142634 0.731876 8.21075 -8.17105 0.00221977 -4.35656 9.25989 0.225442 1.04304 0.278125 0.220964 0.405119 0.801 0.638826 0.569628 2303.2 0 0 -0.0108331 0.00179528 492.208 18 268.369 0.0475608 9600 13.2562 0.0059725 0.954957 13.2905 13.2553 0.00307754 0.956298 13.2898 16.3605 0.444137 0.148849 4.71537 0.00206979 2.33652 5.26251 
-2.225 296465 -8.59449 -0.00172485 0.765413 8.62851 -8.59358 0.001938 -4.47371 9.68833 0.256068 1.10433 0.293344 0.260092 0.430692 0.824437 0.648428 0.593775 2364.86 0 0 -0.0109106 0.00198896 438.639 14 272.69 0.0463641 9600 13.8049 0.00553508 0.976888 13.8394 13.8041 0.00254732 0.978226 13.8387 16.3605 0.455434 0.148849 4.95998 0.0018333 2.39733 5.50896 
-2.275 297351 -8.97745 -0.00187427 0.795608 9.01263 -8.97574 0.00166872 -4.58723 10.08 0.287973 1.16482 0.308043 0.299428 0.454069 0.84697 0.657397 0.617148 2423.91 0 0 -0.0109783 0.00216911 481.604 17 268.676 0.0490921 9600 14.3128 0.00565991 0.998796 14.3476 14.3121 0.00255098 1.00016 14.347 16.3605 0.466292 0.148849 5.18128 0.00168237 2.45656 5.73414 
-2.325 298072 -9.35687 -0.00189378 0.824997 9.39317 -9.35587 0.00191467 -4.69996 10.47 0.321618 1.22576 0.322563 0.341496 0.477161 0.869067 0.665938 0.640367 2481.66 0 0 -0.0110373 0.00234485 551.948 23 268.298 0.0463068 9600 14.8131 0.00560013 1.02071 14.8482 14.8124 0.002571 1.0221 14.8476 16.3605 0.476827 0.148849 5.40141 0.00184738 2.51537 5.95838 
-2.375 298848 -9.72151 -0.00166777 0.85271 9.75883 -9.719 0.00283159 -4.81091 10.8445 0.356023 1.28672 0.336804 0.385101 0.499427 0.89062 0.67403 0.663308 2537.96 0 0 -0.0110885 0.00251348 516.797 20 267.193 0.0468817 9600 15.2939 0.0064252 1.04262 15.3294 15.2932 0.00352081 1.04404 15.3288 16.3605 0.48705 0.148849 5.61181 0.00246534 2.57336 6.17371 
-2.425 299269 -10.0942 -0.00196579 0.880571 10.1325 -10.0943 0.00227133 -4.92223 11.2305 0.392906 1.34841 0.350883 0.432488 0.521877 0.9119 0.682492 0.685939 2593.64 0 0 -0.0111323 0.00268115 369.521 9 262.255 0.0460229 9600 15.7798 0.00589712 1.06454 15.8156 15.7791 0.00289397 1.06596 15.8151 16.3605 0.49725 0.148849 5.82907 0.00209282 2.63142 6.3955 
-2.475 299794 -10.4508 -0.0021068 0.906715 10.4901 -10.4508 0.00205232 -5.03171 11.599 0.430247 1.41027 0.364654 0.48098 0.543311 0.954882 0.691498 0.708227 2647.82 0 0 -0.01117 0.00284202 425.781 13 265.94 0.0449559 9600 16.2453 0.00592184 1.08645 16.2816 16.2447 0.00281552 1.0879 16.2811 16.3605 0.507236 0.148849 6.03549 0.00196894 2.68866 6.60727 
-2.525 300278 -10.8 -0.00211641 0.931849 10.8402 -10.7997 0.00225238 -5.14017 11.9605 0.448112 1.4723 0.378175 0.531427 0.564269 0.998012 0.700138 0.730279 2700.86 0 0 -0.0112019 0.00299851 469.15 17 261.164 0.0469108 9600 16.6999 0.00594041 1.10836 16.7366 16.6993 0.00292893 1.10983 16.7361 16.3605 0.516954 0.148849 6.23753 0.00211368 2.7454 6.81498 
-2.575 300704 -11.1433 -0.0021501 0.956113 11.1843 -11.1428 0.00239955 -5.24775 12.3166 0.485485 1.53447 0.391433 0.583898 0.584797 1.04066 0.708429 0.752072 2752.79 0 0 -0.0112287 0.0031512 380.711 9 270.038 0.0484188 9600 17.1453 0.00606635 1.13028 17.1826 17.1448 0.00307435 1.13176 17.1821 16.3605 0.526412 0.150384 6.43622 0.00222079 2.80172 7.01958 
-2.775 301817 -12.4652 -0.00239692 1.04542 12.5089 -12.4657 0.00256411 -5.67043 13.6948 0.601496 1.78419 0.441977 0.813272 0.663089 1.20691 0.738578 0.836714 2950.47 0 0 -0.0112924 0.00372954 470.91 15 278.496 0.0455709 9600 18.8471 0.0062086 1.21794 18.8865 18.8467 0.00326472 1.21948 18.8862 17.8446 0.561858 0.167306 7.20235 0.00236909 3.02322 7.81112 
-2.975 302481 -13.7013 -0.00279643 1.12298 13.7472 -13.7015 0.00206186 -6.08131 14.9905 0.714126 2.03483 0.48883 1.06948 0.735259 1.3656 0.764756 0.918576 3133.91 0 0 -0.0113051 0.00426341 455.163 14 280.42 0.0465642 9600 20.4241 0.00698172 1.30559 20.4658 20.4238 0.00390457 1.30718 20.4656 18.0105 0.594041 0.171134 7.91792 0.00210531 3.23903 8.55481 
-3.175 302791 -14.8671 -0.00271281 1.19084 14.9147 -14.867 0.00322622 -6.4825 16.2188 0.873912 2.2861 0.532673 1.35041 0.802252 1.5179 0.787975 1.00298 3307.67 0 0 -0.0112828 0.00476364 493.19 17 279.397 0.0459365 9600 21.8992 0.00673797 1.39326 21.9435 21.8991 0.00403912 1.39491 21.9435 18.8074 0.635339 0.18047 8.59292 0.00289927 3.45015 9.25969 
-3.375 302803 -15.9738 -0.0031926 1.25053 16.0227 -15.9735 0.00231945 -6.87553 17.3904 1.0441 2.53874 0.573656 1.65428 0.864983 1.66463 0.808731 1.08441 3630.23 0 0 -0.0112367 0.00523824 455.698 15 270.755 0.0465086 9600 23.2894 0.00734081 1.48093 23.3365 23.2894 0.00448489 1.48261 23.3365 18.8074 0.684546 0.18047 9.2336 0.00236354 3.65732 9.93154 
-3.575 302650 -17.0273 -0.00301489 1.30304 17.077 -17.0271 0.0037589 -7.26135 18.5107 1.22213 2.99306 0.612515 1.97935 0.923832 1.80648 0.827669 1.16475 3963.02 0 0 -0.0111744 0.00569216 478.465 18 264.578 0.0455554 9600 24.6046 0.00707202 1.5686 24.6545 24.6047 0.00467943 1.57033 24.6547 19.0214 0.731008 0.182955 9.84382 0.00333219 3.861 10.5739 
-3.675 302655 -17.5311 -0.00311051 1.32665 17.5812 -17.5272 0.00361852 -7.45158 19.0454 1.23709 3.24771 0.631152 2.14848 0.951577 1.87534 0.836517 1.20698 4126.02 0 0 -0.011139 0.00591253 1035.62 22 764.558 0.0461131 9600 25.2326 0.0070545 1.61241 25.284 25.2327 0.00472309 1.61418 25.2843 20.1054 0.753163 0.195749 10.1334 0.00329634 3.96164 10.8803 
