applied_displacement applied_load D_zmin[0] D_zmin[1] D_zmin[2] D_zmin.two_norm() D_zmax[0] D_zmax[1] D_zmax[2] D_zmax.two_norm() Max_F_FT Max_F_FC Max_F_MT Max_F_MC furtado_tension_fibre furtado_compression_fibre furtado_tension_matrix furtado_compression_matrix max_von_mises max_damage_cohesive max_predamage_cohesive Strain_zmidTop Strain_zmidBot time_per_increment tot_iteration time_coarse_space time_post_processing coarse_space_size D_xmin[0] D_xmin[1] D_xmin[2] D_xmin.two_norm() D_xmax[0] D_xmax[1] D_xmax[2] D_xmax.two_norm() Max_Tau Max_F_33 Max_F_CZ Displacement_DIC[0] Displacement_DIC[1] Displacement_DIC[2] Displacement_DIC.two_norm() 
-0.1 14954.2 0.0442545 -1.94557e-05 -0.0163099 0.0471643 0.0447613 4.01529e-05 -0.150323 0.156846 0.000227607 0.000871578 0.000287678 0.000163272 0.00891728 0.0297563 0.101531 0.0193005 68.9478 0 0 -0.000409455 -0.000260629 345.322 7 260.895 0.0617965 9600 0.0448266 0.000142605 0.0439599 0.0627847 0.0447172 1.46329e-05 0.043977 0.0627185 0.359398 0.0122141 0.00452259 0.0266882 3.79731e-05 0.0838813 0.0880246 
-0.2 29870.9 0.087702 -3.42232e-05 -0.0324633 0.0935174 0.0877096 7.88479e-05 -0.300851 0.313376 0.000919807 0.00350316 0.00117539 0.000784935 0.0178979 0.0596425 0.145136 0.0387068 138.227 0 0 -0.000820427 -0.000513171 350.601 6 278.727 0.0534672 9600 0.0938919 0.00027795 0.0879201 0.12863 0.0936743 1.99038e-05 0.0879536 0.128494 0.615983 0.0247132 0.00784475 0.0523542 6.76748e-05 0.167856 0.175831 
-0.3 44761.2 0.132031 -7.9241e-05 -0.0486964 0.140725 0.131698 0.000414847 -0.451331 0.470153 0.0020954 0.00796004 0.00270829 0.00167824 0.0269461 0.0898753 0.179794 0.0583707 208.359 0 0 -0.00123165 -0.00075711 423.842 12 284.356 0.0494054 9600 0.145116 0.000457328 0.131887 0.196094 0.144792 8.38072e-05 0.13194 0.19589 0.795769 0.0375596 0.0099389 0.0786638 0.000239333 0.251814 0.263815 
