applied_displacement applied_load D_zmin[0] D_zmin[1] D_zmin[2] D_zmin.two_norm() D_zmax[0] D_zmax[1] D_zmax[2] D_zmax.two_norm() Max_F_FT Max_F_FC Max_F_MT Max_F_MC furtado_tension_fibre furtado_compression_fibre furtado_tension_matrix furtado_compression_matrix max_von_mises max_damage_cohesive max_predamage_cohesive Strain_zmidTop Strain_zmidBot time_per_increment tot_iteration time_coarse_space time_post_processing coarse_space_size D_xmin[0] D_xmin[1] D_xmin[2] D_xmin.two_norm() D_xmax[0] D_xmax[1] D_xmax[2] D_xmax.two_norm() Max_Tau Max_F_33 Max_F_CZ Displacement_DIC[0] Displacement_DIC[1] Displacement_DIC[2] Displacement_DIC.two_norm() 
-0.1 8672.4 -0.0436928 0.000742193 -0.0369002 0.0571947 -0.0447983 0.00160157 -0.129599 0.137133 0.000197844 0.000193488 0.000216528 0.000169639 0.00562774 0.0181409 0.097431 0.00782657 33.222 0 0 -0.000281562 -0.000140437 610.834 26 258.334 2.39247 9600 0.114122 0.00185307 0.0438329 0.122264 0.114051 0.0016179 0.0438438 0.122199 0.276737 0.00707694 0.00368879 0.0262737 0.00112573 0.0715295 0.0762106 
-0.2 17324.8 -0.0912883 0.00183932 -0.0733243 0.117104 -0.0899579 0.00367561 -0.259708 0.274871 0.000796165 0.000791245 0.00087375 0.000667568 0.010863 0.036631 0.136375 0.0157366 67.1589 0 0 -0.000566625 -0.000275846 574.645 25 244.634 2.42098 9600 0.234867 0.00425898 0.0876907 0.25074 0.234727 0.00375316 0.0877176 0.25061 0.382926 0.0142423 0.00485496 0.0527611 0.00247677 0.143339 0.152761 
-0.3 26003.6 -0.130433 0.000594157 -0.110627 0.17103 -0.132856 0.00106499 -0.389237 0.411287 0.00180935 0.00175213 0.00199524 0.00153249 0.0159427 0.0550464 0.163735 0.02368 99.9013 0 0 -0.000846263 -0.000407737 708.552 33 244.486 2.41196 9600 0.348782 0.00198389 0.131705 0.372826 0.348573 0.00163862 0.13174 0.372641 0.544028 0.02146 0.00651454 0.0776329 0.000811036 0.214859 0.228456 
-0.4 34649.8 -0.16516 -0.000862578 -0.148143 0.221867 -0.164436 -0.000883435 -0.518111 0.543579 0.00324893 0.00308532 0.00354118 0.00274493 0.0214016 0.0734576 0.191071 0.0316544 132.521 0 0 -0.00112396 -0.000534826 646.351 28 256.943 2.46322 9600 0.458933 0.00115979 0.175605 0.491384 0.458657 0.000913323 0.17567 0.491148 0.705333 0.0288174 0.00847736 0.0958632 0.000726849 0.286116 0.301749 
-0.5 43312.7 -0.194225 -0.00257017 -0.186199 0.269072 -0.187733 -0.0022034 -0.646651 0.673355 0.00509926 0.00484856 0.00552438 0.00442388 0.0266445 0.0920504 0.214164 0.0397812 166.085 0 0 -0.00139883 -0.00065814 729.207 36 246.03 2.43406 9600 0.564285 0.00456916 0.219573 0.605517 0.563942 0.00411991 0.219678 0.605232 0.87649 0.0360669 0.0104596 0.109252 0.00195288 0.35726 0.373597 
-0.6 51919.1 -0.250381 -0.00404677 -0.221469 0.334299 -0.251943 -0.00561925 -0.7784 0.818177 0.00739695 0.00713771 0.00811287 0.00639135 0.03183 0.111501 0.234945 0.0480939 201.409 0 0 -0.00169041 -0.000772902 855.547 33 245.606 4.88575 9600 0.705739 0.00714283 0.26363 0.753405 0.70533 0.0065791 0.263734 0.753053 1.07144 0.0443751 0.0127826 0.146487 0.00401349 0.429815 0.45411 
